# el_label, x, y, sXX, sYY, sZZ, sXY
1.000000000000000000e+00 4.354558181762695312e+01 2.138109683990478516e+00 -6.677624702453613281e+00 -1.740321040153503418e+00 -2.525383710861206055e+00 -2.074414968490600586e+00
2.000000000000000000e+00 4.334660720825195312e+01 2.143383026123046875e+00 -1.340680003166198730e+00 7.344304323196411133e-01 -1.818748861551284790e-01 8.026937246322631836e-01
3.000000000000000000e+00 4.314763641357421875e+01 2.148656368255615234e+00 -2.240993738174438477e+00 -4.392182826995849609e-01 -8.040636181831359863e-01 1.239581853151321411e-01
4.000000000000000000e+00 4.294866180419921875e+01 2.153929948806762695e+00 -2.106134891510009766e+00 2.983384430408477783e-01 -5.423389673233032227e-01 2.556796669960021973e-01
5.000000000000000000e+00 4.354974365234375000e+01 2.079915046691894531e+00 8.458199501037597656e+00 -2.518097639083862305e+00 1.782030701637268066e+00 5.747998505830764771e-02
6.000000000000000000e+00 4.335354232788085938e+01 2.046391963958740234e+00 2.284193277359008789e+00 1.548922210931777954e-01 7.317256927490234375e-01 6.659623980522155762e-01
7.000000000000000000e+00 4.315734100341796875e+01 2.012868881225585938e+00 2.734875440597534180e+00 2.820900976657867432e-01 9.050896763801574707e-01 1.201818466186523438e+00
8.000000000000000000e+00 4.296114349365234375e+01 1.979345679283142090e+00 1.819001078605651855e+00 8.482318371534347534e-02 5.711472630500793457e-01 6.217175126075744629e-01
9.000000000000000000e+00 4.356513977050781250e+01 2.023640632629394531e+00 1.484433460235595703e+01 5.210949778556823730e-01 4.609629154205322266e+00 6.287952423095703125e+00
1.000000000000000000e+01 4.337920761108398438e+01 1.952601075172424316e+00 8.549844741821289062e+00 4.194174110889434814e-01 2.690778493881225586e+00 3.375510931015014648e+00
1.100000000000000000e+01 4.319327163696289062e+01 1.881561636924743652e+00 5.619924068450927734e+00 1.140417814254760742e+00 2.028102636337280273e+00 2.644288539886474609e+00
1.200000000000000000e+01 4.300733566284179688e+01 1.810522079467773438e+00 4.953227996826171875e+00 9.258043169975280762e-01 1.763709664344787598e+00 2.320406198501586914e+00
1.300000000000000000e+01 4.359118652343750000e+01 1.971435070037841797e+00 1.775186157226562500e+01 5.552246570587158203e+00 6.991232872009277344e+00 1.161323165893554688e+01
1.400000000000000000e+01 4.342262268066406250e+01 1.865592002868652344e+00 1.099057102203369141e+01 3.500228643417358398e+00 4.347239971160888672e+00 7.367191314697265625e+00
1.500000000000000000e+01 4.325405120849609375e+01 1.759748935699462891e+00 8.470229148864746094e+00 3.060108661651611328e+00 3.459101200103759766e+00 5.430873870849609375e+00
1.600000000000000000e+01 4.308547973632812500e+01 1.653905749320983887e+00 6.220704078674316406e+00 2.746273279190063477e+00 2.690093040466308594e+00 4.434407711029052734e+00
1.700000000000000000e+01 4.362689208984375000e+01 1.925292253494262695e+00 1.685720252990722656e+01 1.272349643707275391e+01 8.874209403991699219e+00 1.578760719299316406e+01
1.800000000000000000e+01 4.348212814331054688e+01 1.788687229156494141e+00 1.184435558319091797e+01 8.065201759338378906e+00 5.972867012023925781e+00 1.066239833831787109e+01
1.900000000000000000e+01 4.333736038208007812e+01 1.652082204818725586e+00 8.813798904418945312e+00 6.737205505371093750e+00 4.665301322937011719e+00 8.293269157409667969e+00
2.000000000000000000e+01 4.319259262084960938e+01 1.515477180480957031e+00 7.263873100280761719e+00 5.883987903594970703e+00 3.944358348846435547e+00 7.044841766357421875e+00
2.100000000000000000e+01 4.367088699340820312e+01 1.886973977088928223e+00 1.460860347747802734e+01 2.047100639343261719e+01 1.052388286590576172e+01 1.778244209289550781e+01
2.200000000000000000e+01 4.355545425415039062e+01 1.724823474884033203e+00 1.048944091796875000e+01 1.405944252014160156e+01 7.364665031433105469e+00 1.262625217437744141e+01
2.300000000000000000e+01 4.344001770019531250e+01 1.562672972679138184e+00 8.376624107360839844e+00 1.115673828125000000e+01 5.860008716583251953e+00 1.038296031951904297e+01
2.400000000000000000e+01 4.332458114624023438e+01 1.400522351264953613e+00 6.886690139770507812e+00 1.000728225708007812e+01 5.068191528320312500e+00 8.872521400451660156e+00
2.500000000000000000e+01 4.372149658203125000e+01 1.857943534851074219e+00 1.141096687316894531e+01 2.841996574401855469e+01 1.194927978515625000e+01 1.721816444396972656e+01
2.600000000000000000e+01 4.363980102539062500e+01 1.676439404487609863e+00 8.660252571105957031e+00 1.999650955200195312e+01 8.597028732299804688e+00 1.317577457427978516e+01
2.700000000000000000e+01 4.355810165405273438e+01 1.494935154914855957e+00 6.817603588104248047e+00 1.639493751525878906e+01 6.963762283325195312e+00 1.082879829406738281e+01
2.800000000000000000e+01 4.347640609741210938e+01 1.313431024551391602e+00 5.856860160827636719e+00 1.396961688995361328e+01 5.947943210601806641e+00 9.564054489135742188e+00
2.900000000000000000e+01 4.377678298950195312e+01 1.839309453964233398e+00 8.883939743041992188e+00 3.509057617187500000e+01 1.319235515594482422e+01 1.469212722778320312e+01
3.000000000000000000e+01 4.373194503784179688e+01 1.645382523536682129e+00 6.673322677612304688e+00 2.552041053771972656e+01 9.658120155334472656e+00 1.184392738342285156e+01
3.100000000000000000e+01 4.368710708618164062e+01 1.451455593109130859e+00 5.250415802001953125e+00 2.124896049499511719e+01 7.949812412261962891e+00 1.021219539642333984e+01
3.200000000000000000e+01 4.364226531982421875e+01 1.257528662681579590e+00 4.130105018615722656e+00 1.850831222534179688e+01 6.791525363922119141e+00 8.567099571228027344e+00
3.300000000000000000e+01 4.383463668823242188e+01 1.831783294677734375e+00 7.437869548797607422e+00 3.981428146362304688e+01 1.417564487457275391e+01 1.060465431213378906e+01
3.400000000000000000e+01 4.382836914062500000e+01 1.632838964462280273e+00 5.568071365356445312e+00 2.999766349792480469e+01 1.066972064971923828e+01 9.359783172607421875e+00
3.500000000000000000e+01 4.382210159301757812e+01 1.433894634246826172e+00 3.968716144561767578e+00 2.503499603271484375e+01 8.701113700866699219e+00 8.155962944030761719e+00
3.600000000000000000e+01 4.381583404541015625e+01 1.234950304031372070e+00 2.959630966186523438e+00 2.267262840270996094e+01 7.689677715301513672e+00 7.391041278839111328e+00
3.700000000000000000e+01 4.389285278320312500e+01 1.835652470588684082e+00 8.013894081115722656e+00 4.241468429565429688e+01 1.512857341766357422e+01 6.083168029785156250e+00
3.800000000000000000e+01 4.392539596557617188e+01 1.639287471771240234e+00 5.240542888641357422e+00 3.280650329589843750e+01 1.141411399841308594e+01 6.020932674407958984e+00
3.900000000000000000e+01 4.395793533325195312e+01 1.442922592163085938e+00 3.820494651794433594e+00 2.788271903991699219e+01 9.510964393615722656e+00 5.427690982818603516e+00
4.000000000000000000e+01 4.399047851562500000e+01 1.246557712554931641e+00 2.856931924819946289e+00 2.436053085327148438e+01 8.165239334106445312e+00 5.275847434997558594e+00
4.100000000000000000e+01 4.394920349121093750e+01 1.850769162178039551e+00 1.013341331481933594e+01 4.284589767456054688e+01 1.589379310607910156e+01 1.747985959053039551e+00
4.200000000000000000e+01 4.401931381225585938e+01 1.664482116699218750e+00 6.301568508148193359e+00 3.396075439453125000e+01 1.207869625091552734e+01 2.680097341537475586e+00
4.300000000000000000e+01 4.408942031860351562e+01 1.478194952011108398e+00 4.564476966857910156e+00 2.914409446716308594e+01 1.011257171630859375e+01 2.572142362594604492e+00
4.400000000000000000e+01 4.415953063964843750e+01 1.291907906532287598e+00 3.679594039916992188e+00 2.552205848693847656e+01 8.760496139526367188e+00 2.119506597518920898e+00
4.500000000000000000e+01 4.400153732299804688e+01 1.876556158065795898e+00 1.287723541259765625e+01 4.157080841064453125e+01 1.633441352844238281e+01 -1.469187855720520020e+00
4.600000000000000000e+01 4.410653686523437500e+01 1.707460522651672363e+00 8.950821876525878906e+00 3.370954132080078125e+01 1.279810905456542969e+01 -2.335142940282821655e-01
4.700000000000000000e+01 4.421153640747070312e+01 1.538364768028259277e+00 6.103845119476318359e+00 2.880002403259277344e+01 1.047116088867187500e+01 8.182357251644134521e-02
4.800000000000000000e+01 4.431653594970703125e+01 1.369269132614135742e+00 4.833131790161132812e+00 2.622202682495117188e+01 9.316547393798828125e+00 -1.370857059955596924e-01
4.900000000000000000e+01 4.404786300659179688e+01 1.912028908729553223e+00 1.712126350402832031e+01 3.966619873046875000e+01 1.703623771667480469e+01 -3.096357345581054688e+00
5.000000000000000000e+01 4.418373870849609375e+01 1.766581654548645020e+00 1.136133670806884766e+01 3.204199218750000000e+01 1.302099895477294922e+01 -2.387051105499267578e+00
5.100000000000000000e+01 4.431961822509765625e+01 1.621134400367736816e+00 9.381480216979980469e+00 2.785656738281250000e+01 1.117141437530517578e+01 -1.578735470771789551e+00
5.200000000000000000e+01 4.445549774169921875e+01 1.475687146186828613e+00 6.407876491546630859e+00 2.452920341491699219e+01 9.281124114990234375e+00 -1.143465757369995117e+00
5.300000000000000000e+01 4.408639907836914062e+01 1.955832600593566895e+00 2.045495986938476562e+01 3.696289825439453125e+01 1.722535705566406250e+01 -3.572287797927856445e+00
5.400000000000000000e+01 4.424797058105468750e+01 1.839587926864624023e+00 1.480360317230224609e+01 3.026261329650878906e+01 1.351986503601074219e+01 -2.946502923965454102e+00
5.500000000000000000e+01 4.440953826904296875e+01 1.723343253135681152e+00 1.177460098266601562e+01 2.589243888854980469e+01 1.130011177062988281e+01 -2.504388332366943359e+00
5.600000000000000000e+01 4.457111358642578125e+01 1.607098460197448730e+00 1.045847606658935547e+01 2.317270660400390625e+01 1.008935451507568359e+01 -2.000021934509277344e+00
5.700000000000000000e+01 4.411568069458007812e+01 2.006294727325439453e+00 2.344096946716308594e+01 3.466865158081054688e+01 1.743288612365722656e+01 -2.663735866546630859e+00
5.800000000000000000e+01 4.429677581787109375e+01 1.923691511154174805e+00 1.746564483642578125e+01 2.843357086181640625e+01 1.376976490020751953e+01 -2.362938642501831055e+00
5.900000000000000000e+01 4.447786712646484375e+01 1.841088175773620605e+00 1.431260967254638672e+01 2.401014900207519531e+01 1.149682807922363281e+01 -2.280449151992797852e+00
6.000000000000000000e+01 4.465896224975585938e+01 1.758484840393066406e+00 1.248322010040283203e+01 2.235453224182128906e+01 1.045132541656494141e+01 -2.047353982925415039e+00
6.100000000000000000e+01 4.413459014892578125e+01 2.061488389968872070e+00 2.547310256958007812e+01 3.364058303833007812e+01 1.773410606384277344e+01 -7.980984449386596680e-01
6.200000000000000000e+01 4.432829284667968750e+01 2.015680789947509766e+00 1.932669639587402344e+01 2.641452598571777344e+01 1.372236728668212891e+01 -7.740729451179504395e-01
6.300000000000000000e+01 4.452199172973632812e+01 1.969873189926147461e+00 1.571970367431640625e+01 2.366088294982910156e+01 1.181417655944824219e+01 -1.041806817054748535e+00
6.400000000000000000e+01 4.471569442749023438e+01 1.924065589904785156e+00 1.344446563720703125e+01 2.019389152526855469e+01 1.009150695800781250e+01 -7.436877489089965820e-01
6.500000000000000000e+01 4.414240646362304688e+01 2.119305849075317383e+00 2.599950408935546875e+01 3.240564727783203125e+01 1.752154541015625000e+01 1.739322304725646973e+00
6.600000000000000000e+01 4.434132003784179688e+01 2.112043142318725586e+00 2.003603935241699219e+01 2.648750686645507812e+01 1.395706367492675781e+01 1.238571882247924805e+00
6.700000000000000000e+01 4.454022979736328125e+01 2.104780435562133789e+00 1.597990131378173828e+01 2.268278503417968750e+01 1.159880638122558594e+01 1.268976330757141113e+00
6.800000000000000000e+01 4.473913955688476562e+01 2.097517728805541992e+00 1.371554660797119141e+01 2.043581199645996094e+01 1.024540710449218750e+01 4.424236416816711426e-01
6.900000000000000000e+01 4.413882827758789062e+01 2.177539110183715820e+00 2.551960945129394531e+01 3.317641067504882812e+01 1.760880661010742188e+01 4.061466217041015625e+00
7.000000000000000000e+01 4.433535385131835938e+01 2.209098577499389648e+00 1.897898292541503906e+01 2.665387535095214844e+01 1.368985748291015625e+01 3.711830854415893555e+00
7.100000000000000000e+01 4.453187942504882812e+01 2.240658283233642578e+00 1.561293125152587891e+01 2.333810806274414062e+01 1.168531131744384766e+01 3.107535600662231445e+00
7.200000000000000000e+01 4.472840499877929688e+01 2.272217750549316406e+00 1.242319679260253906e+01 2.114829826354980469e+01 1.007144832611083984e+01 2.772805452346801758e+00
7.300000000000000000e+01 4.412399291992187500e+01 2.233964681625366211e+00 2.325364875793457031e+01 3.439646530151367188e+01 1.729503440856933594e+01 6.317919254302978516e+00
7.400000000000000000e+01 4.431062698364257812e+01 2.303141355514526367e+00 1.713143920898437500e+01 2.821689796447753906e+01 1.360450172424316406e+01 5.455729007720947266e+00
7.500000000000000000e+01 4.449726486206054688e+01 2.372318029403686523e+00 1.344946289062500000e+01 2.453879737854003906e+01 1.139647769927978516e+01 4.651185512542724609e+00
7.600000000000000000e+01 4.468389892578125000e+01 2.441494703292846680e+00 1.166170406341552734e+01 2.214920616149902344e+01 1.014327335357666016e+01 4.464305400848388672e+00
7.700000000000000000e+01 4.409846878051757812e+01 2.286428213119506836e+00 2.004374504089355469e+01 3.668200302124023438e+01 1.701772308349609375e+01 7.615479946136474609e+00
7.800000000000000000e+01 4.426808547973632812e+01 2.390580177307128906e+00 1.397141075134277344e+01 3.017955970764160156e+01 1.324529075622558594e+01 6.250075817108154297e+00
7.900000000000000000e+01 4.443770599365234375e+01 2.494732379913330078e+00 1.089991092681884766e+01 2.638649559020996094e+01 1.118592166900634766e+01 5.483918666839599609e+00
8.000000000000000000e+01 4.460732269287109375e+01 2.598884820938110352e+00 9.259801864624023438e+00 2.359403228759765625e+01 9.856150627136230469e+00 4.428268909454345703e+00
8.100000000000000000e+01 4.406322860717773438e+01 2.332925558090209961e+00 1.594006633758544922e+01 3.935417556762695312e+01 1.658827209472656250e+01 7.613808155059814453e+00
8.200000000000000000e+01 4.420935058593750000e+01 2.468076229095458984e+00 1.034202861785888672e+01 3.235448074340820312e+01 1.280895328521728516e+01 5.879613876342773438e+00
8.300000000000000000e+01 4.435547637939453125e+01 2.603226900100708008e+00 8.003654479980468750e+00 2.805420112609863281e+01 1.081735610961914062e+01 4.887463092803955078e+00
8.400000000000000000e+01 4.450160217285156250e+01 2.738377571105957031e+00 5.857696533203125000e+00 2.566880989074707031e+01 9.457951545715332031e+00 4.180624485015869141e+00
8.500000000000000000e+01 4.401961898803710938e+01 2.371681928634643555e+00 1.135525608062744141e+01 4.184582901000976562e+01 1.596032619476318359e+01 6.099812507629394531e+00
8.600000000000000000e+01 4.413666915893554688e+01 2.532670021057128906e+00 7.039755344390869141e+00 3.401177215576171875e+01 1.231545829772949219e+01 4.093527317047119141e+00
8.700000000000000000e+01 4.425371932983398438e+01 2.693658351898193359e+00 4.775208473205566406e+00 2.940404129028320312e+01 1.025377464294433594e+01 3.233977079391479492e+00
8.800000000000000000e+01 4.437076950073242188e+01 2.854646444320678711e+00 3.709254741668701172e+00 2.652640914916992188e+01 9.070698738098144531e+00 3.086690425872802734e+00
8.900000000000000000e+01 4.396930313110351562e+01 2.401216983795166016e+00 7.475897312164306641e+00 4.352479553222656250e+01 1.530020809173583984e+01 2.945075988769531250e+00
9.000000000000000000e+01 4.405281066894531250e+01 2.581895112991333008e+00 4.079546928405761719e+00 3.452476882934570312e+01 1.158129501342773438e+01 1.190706610679626465e+00
9.100000000000000000e+01 4.413631820678710938e+01 2.762573480606079102e+00 2.570758581161499023e+00 2.979026985168457031e+01 9.708308219909667969e+00 8.332133293151855469e-01
9.200000000000000000e+01 4.421982574462890625e+01 2.943251609802246094e+00 1.669064998626708984e+00 2.633311271667480469e+01 8.400652885437011719e+00 4.951781332492828369e-01
9.300000000000000000e+01 4.391420364379882812e+01 2.420403003692626953e+00 4.536739826202392578e+00 4.343729019165039062e+01 1.439220809936523438e+01 -1.449235796928405762e+00
9.400000000000000000e+01 4.396097946166992188e+01 2.613871812820434570e+00 2.386044263839721680e+00 3.367922210693359375e+01 1.081958007812500000e+01 -2.344644069671630859e+00
9.500000000000000000e+01 4.400775527954101562e+01 2.807340621948242188e+00 1.262224078178405762e+00 2.847342109680175781e+01 8.920693397521972656e+00 -2.203022480010986328e+00
9.600000000000000000e+01 4.405453109741210938e+01 3.000809669494628906e+00 3.581693172454833984e-01 2.565654373168945312e+01 7.804413795471191406e+00 -2.072957754135131836e+00
9.700000000000000000e+01 4.385642623901367188e+01 2.428507328033447266e+00 3.334991455078125000e+00 4.123673629760742188e+01 1.337151813507080078e+01 -6.465839862823486328e+00
9.800000000000000000e+01 4.386468505859375000e+01 2.627379179000854492e+00 1.987464427947998047e+00 3.087809944152832031e+01 9.859669685363769531e+00 -5.854485511779785156e+00
9.900000000000000000e+01 4.387294006347656250e+01 2.826250791549682617e+00 9.507265090942382812e-01 2.599978637695312500e+01 8.085154533386230469e+00 -5.236559391021728516e+00
1.000000000000000000e+02 4.388119888305664062e+01 3.025122404098510742e+00 5.177927613258361816e-01 2.285990333557128906e+01 7.013308525085449219e+00 -4.329483509063720703e+00
1.010000000000000000e+02 4.379817581176757812e+01 2.425220489501953125e+00 4.000278949737548828e+00 3.659252166748046875e+01 1.217784023284912109e+01 -1.095630168914794922e+01
1.020000000000000000e+02 4.376759719848632812e+01 2.621901035308837891e+00 2.732459306716918945e+00 2.646123695373535156e+01 8.758109092712402344e+00 -8.898078918457031250e+00
1.030000000000000000e+02 4.373702239990234375e+01 2.818581342697143555e+00 1.771419048309326172e+00 2.195017623901367188e+01 7.116478919982910156e+00 -7.309347629547119141e+00
1.040000000000000000e+02 4.370644760131835938e+01 3.015261888504028320e+00 1.245688319206237793e+00 1.909803199768066406e+01 6.103116512298583984e+00 -6.536709308624267578e+00
1.050000000000000000e+02 4.374167633056640625e+01 2.410668134689331055e+00 6.096463680267333984e+00 2.972038841247558594e+01 1.074505519866943359e+01 -1.426229953765869141e+01
1.060000000000000000e+02 4.367343521118164062e+01 2.597646951675415039e+00 4.355897426605224609e+00 2.077463722229003906e+01 7.539160251617431641e+00 -1.045947551727294922e+01
1.070000000000000000e+02 4.360519027709960938e+01 2.784625768661499023e+00 3.183845043182373047e+00 1.677679061889648438e+01 5.988190650939941406e+00 -8.505601882934570312e+00
1.080000000000000000e+02 4.353694915771484375e+01 2.971604585647583008e+00 2.229375362396240234e+00 1.485425376892089844e+01 5.125088691711425781e+00 -7.144787788391113281e+00
1.090000000000000000e+02 4.368908691406250000e+01 2.385405778884887695e+00 8.770438194274902344e+00 2.158532142639160156e+01 9.106727600097656250e+00 -1.518023777008056641e+01
1.100000000000000000e+02 4.358578491210937500e+01 2.555542707443237305e+00 6.175395488739013672e+00 1.425901126861572266e+01 6.130321979522705078e+00 -1.056291294097900391e+01
1.110000000000000000e+02 4.348248291015625000e+01 2.725680112838745117e+00 4.545179843902587891e+00 1.146704864501953125e+01 4.803668498992919922e+00 -8.068838119506835938e+00
1.120000000000000000e+02 4.337917709350585938e+01 2.895817279815673828e+00 3.381858110427856445e+00 9.806894302368164062e+00 3.956625699996948242e+00 -6.555296897888183594e+00
1.130000000000000000e+02 4.364241409301757812e+01 2.350397825241088867e+00 1.127919387817382812e+01 1.285432624816894531e+01 7.240056514739990234e+00 -1.364367294311523438e+01
1.140000000000000000e+02 4.350799560546875000e+01 2.497196435928344727e+00 6.880782127380371094e+00 8.070792198181152344e+00 4.485472202301025391e+00 -8.690057754516601562e+00
1.150000000000000000e+02 4.337357711791992188e+01 2.643995285034179688e+00 5.358967781066894531e+00 6.564870357513427734e+00 3.577151298522949219e+00 -6.396596908569335938e+00
1.160000000000000000e+02 4.323915863037109375e+01 2.790793895721435547e+00 3.942055463790893555e+00 5.509135723114013672e+00 2.835357427597045898e+00 -5.155494689941406250e+00
1.170000000000000000e+02 4.360343933105468750e+01 2.306981563568115234e+00 1.107485675811767578e+01 4.928925514221191406e+00 4.801134586334228516e+00 -9.625112533569335938e+00
1.180000000000000000e+02 4.344303894042968750e+01 2.424836158752441406e+00 6.473516464233398438e+00 3.076796293258666992e+00 2.865093946456909180e+00 -5.313848495483398438e+00
1.190000000000000000e+02 4.328263854980468750e+01 2.542690753936767578e+00 4.064148426055908203e+00 2.886573314666748047e+00 2.085216522216796875e+00 -3.792554855346679688e+00
1.200000000000000000e+02 4.312223434448242188e+01 2.660545349121093750e+00 3.445830821990966797e+00 3.093974113464355469e+00 1.961941480636596680e+00 -3.297613143920898438e+00
1.210000000000000000e+02 4.357365417480468750e+01 2.256814956665039062e+00 8.270090103149414062e+00 -1.403584241867065430e+00 2.059951782226562500e+00 -3.296801328659057617e+00
1.220000000000000000e+02 4.339339447021484375e+01 2.341224908828735352e+00 2.067327499389648438e+00 6.013132333755493164e-01 8.005921840667724609e-01 -1.391200542449951172e+00
1.230000000000000000e+02 4.321313476562500000e+01 2.425634860992431641e+00 1.990205407142639160e+00 1.437003970146179199e+00 1.028162837028503418e+00 -1.892516255378723145e+00
1.240000000000000000e+02 4.303287887573242188e+01 2.510045051574707031e+00 1.281710267066955566e+00 5.466323494911193848e-01 5.485028028488159180e-01 -9.264202713966369629e-01
1.250000000000000000e+02 4.355419158935546875e+01 2.201813220977783203e+00 -4.504216670989990234e+00 -3.279485464096069336e+00 -2.335110664367675781e+00 2.844453096389770508e+00
1.260000000000000000e+02 4.336095809936523438e+01 2.249555349349975586e+00 -1.389144539833068848e+00 1.172559976577758789e+00 -6.497536599636077881e-02 -3.391253948211669922e-01
1.270000000000000000e+02 4.316772460937500000e+01 2.297297477722167969e+00 -2.168646335601806641e+00 -5.176626443862915039e-01 -8.058927059173583984e-01 3.504837453365325928e-01
1.280000000000000000e+02 4.297449493408203125e+01 2.345039844512939453e+00 -2.059783935546875000e+00 2.723417580127716064e-01 -5.362326502799987793e-01 3.915474712848663330e-01
1.290000000000000000e+02 4.221747970581054688e+01 1.177929997444152832e+00 1.583711981773376465e+00 1.939835667610168457e+00 1.057064294815063477e+00 2.215412378311157227e+00
1.300000000000000000e+02 4.474129867553710938e+01 1.380058288574218750e+00 6.801847457885742188e+00 2.066205978393554688e+01 8.239171981811523438e+00 -1.503701448440551758e+00
1.310000000000000000e+02 4.487352752685546875e+01 1.584157824516296387e+00 9.370171546936035156e+00 1.902840232849121094e+01 8.519572257995605469e+00 -1.599257230758666992e+00
1.320000000000000000e+02 4.487328720092773438e+01 2.496823787689208984e+00 1.038617897033691406e+01 2.012614822387695312e+01 9.153697967529296875e+00 3.731513500213623047e+00
1.330000000000000000e+02 4.202100372314453125e+01 3.784251451492309570e+00 -1.076691508293151855e+00 -1.809899330139160156e+00 -8.659772872924804688e-01 9.569106101989746094e-01
1.340000000000000000e+02 4.273952865600585938e+01 1.935597777366638184e+00 1.342961549758911133e+00 5.165883898735046387e-01 5.578649640083312988e-01 3.909302055835723877e-01
1.350000000000000000e+02 4.292395401000976562e+01 1.528186082839965820e+00 5.351363182067871094e+00 3.061802387237548828e+00 2.523949623107910156e+00 4.148629188537597656e+00
1.360000000000000000e+02 4.354882431030273438e+01 1.050537347793579102e+00 3.856255054473876953e+00 1.540332984924316406e+01 5.777875423431396484e+00 8.110971450805664062e+00
1.370000000000000000e+02 4.363808059692382812e+01 3.241566896438598633e+00 6.245321035385131836e-01 1.658546829223632812e+01 5.163000106811523438e+00 -5.803815841674804688e+00
1.380000000000000000e+02 4.314168167114257812e+01 3.616640567779541016e+00 6.191194653511047363e-01 9.299016952514648438e+00 2.975440979003906250e+00 -4.232037067413330078e+00
1.390000000000000000e+02 4.296106719970703125e+01 3.228969573974609375e+00 1.908218741416931152e+00 5.799401283264160156e+00 2.312286138534545898e+00 -3.667115688323974609e+00
1.400000000000000000e+02 4.308810806274414062e+01 2.991348981857299805e+00 2.881827592849731445e+00 5.675320148468017578e+00 2.567144393920898438e+00 -4.231307029724121094e+00
1.410000000000000000e+02 4.217826461791992188e+01 3.764702320098876953e+00 -1.053537011146545410e+00 2.047076940536499023e+00 2.980619966983795166e-01 -4.450981318950653076e-01
1.420000000000000000e+02 4.238173675537109375e+01 3.531213760375976562e+00 -5.818902328610420227e-02 2.582889556884765625e+00 7.574101090431213379e-01 -1.256407260894775391e+00
1.430000000000000000e+02 4.198421096801757812e+01 2.508024930953979492e+00 -6.503892689943313599e-02 -1.328773498535156250e-01 -5.937488377094268799e-02 9.255933761596679688e-02
1.440000000000000000e+02 4.257208251953125000e+01 2.441800832748413086e+00 -1.315660119056701660e+00 -1.961744762957096100e-02 -4.005832672119140625e-01 4.755550920963287354e-01
1.450000000000000000e+02 4.283103179931640625e+01 2.611181259155273438e+00 1.046471834182739258e+00 8.108720779418945312e-01 5.572031736373901367e-01 -5.785022377967834473e-01
1.460000000000000000e+02 4.277579879760742188e+01 2.396752119064331055e+00 -1.717565655708312988e+00 -1.919676512479782104e-01 -5.728600025177001953e-01 4.997717738151550293e-01
1.470000000000000000e+02 4.471948242187500000e+01 2.905805826187133789e+00 5.223803043365478516e+00 2.249596214294433594e+01 8.315929412841796875e+00 3.574874162673950195e+00
1.480000000000000000e+02 4.461172103881835938e+01 2.849004268646240234e+00 5.109654903411865234e+00 2.435616493225097656e+01 8.839746475219726562e+00 3.898443222045898438e+00
1.490000000000000000e+02 4.345072174072265625e+01 3.173689365386962891e+00 1.593679666519165039e+00 1.328190803527832031e+01 4.462676525115966797e+00 -6.191495418548583984e+00
1.500000000000000000e+02 4.274768447875976562e+01 2.161231756210327148e+00 -1.915674090385437012e+00 -9.112785011529922485e-02 -6.020405888557434082e-01 9.485808201134204865e-03
1.510000000000000000e+02 4.235374450683593750e+01 2.207066297531127930e+00 -1.012499928474426270e+00 -1.358107081614434719e-03 -3.041574060916900635e-01 -2.209092229604721069e-01
1.520000000000000000e+02 4.304954910278320312e+01 1.394406318664550781e+00 6.169689655303955078e+00 5.262097358703613281e+00 3.429536104202270508e+00 6.257432937622070312e+00
1.530000000000000000e+02 4.317034912109375000e+01 1.233926296234130859e+00 5.647876739501953125e+00 8.266519546508789062e+00 4.174319267272949219e+00 7.635810375213623047e+00
1.540000000000000000e+02 4.334428024291992188e+01 1.112334132194519043e+00 4.656646728515625000e+00 1.193307876586914062e+01 4.976917743682861328e+00 8.403721809387207031e+00
1.550000000000000000e+02 4.446314620971679688e+01 1.146736383438110352e+00 4.433245658874511719e+00 2.332864570617675781e+01 8.328567504882812500e+00 -3.771007657051086426e-01
1.560000000000000000e+02 4.254909515380859375e+01 2.181494712829589844e+00 -1.535150170326232910e+00 1.978549659252166748e-01 -4.011885523796081543e-01 -5.920829251408576965e-02
1.570000000000000000e+02 4.195542526245117188e+01 2.256068229675292969e+00 -1.394513547420501709e-01 -9.673679620027542114e-02 -7.085644453763961792e-02 -1.163955628871917725e-01
1.580000000000000000e+02 4.202645492553710938e+01 1.229510545730590820e+00 9.835601449012756348e-01 1.433417677879333496e+00 7.250933647155761719e-01 1.696467161178588867e+00
1.590000000000000000e+02 4.179497528076171875e+01 1.002823948860168457e+00 2.916853129863739014e-01 1.774454832077026367e+00 6.198420524597167969e-01 1.429712057113647461e+00
1.600000000000000000e+02 4.164432525634765625e+01 1.019039273262023926e+00 -9.163347482681274414e-01 -6.990776658058166504e-01 -4.846237301826477051e-01 -4.911947846412658691e-01
1.610000000000000000e+02 4.490930175781250000e+01 1.856010675430297852e+00 1.258324718475341797e+01 1.914014816284179688e+01 9.517018318176269531e+00 -1.354431271553039551e+00
1.620000000000000000e+02 4.356724166870117188e+01 3.526594877243041992e+00 -3.207777813076972961e-02 1.479647254943847656e+01 4.429318428039550781e+00 -4.933661937713623047e+00
1.630000000000000000e+02 4.461782836914062500e+01 1.042881965637207031e+00 3.857842922210693359e+00 2.117387008666992188e+01 7.509513854980468750e+00 -8.152473568916320801e-01
1.640000000000000000e+02 4.422838592529296875e+01 1.157513022422790527e+00 3.615965127944946289e+00 2.419006729125976562e+01 8.341809272766113281e+00 1.760792970657348633e+00
1.650000000000000000e+02 4.279341506958007812e+01 1.700084805488586426e+00 3.853924274444580078e+00 1.146070361137390137e+00 1.499998450279235840e+00 1.934881925582885742e+00
1.660000000000000000e+02 4.341180801391601562e+01 8.122072219848632812e-01 3.214447975158691406e+00 1.333788681030273438e+01 4.965700149536132812e+00 7.700598716735839844e+00
1.670000000000000000e+02 4.489337539672851562e+01 2.963901281356811523e+00 4.786121368408203125e+00 2.038849830627441406e+01 7.552386283874511719e+00 3.758929729461669922e+00
1.680000000000000000e+02 4.429573059082031250e+01 3.102560758590698242e+00 8.783274888992309570e-01 2.456618881225585938e+01 7.633355140686035156e+00 5.301647782325744629e-01
1.690000000000000000e+02 4.427384185791015625e+01 9.115836620330810547e-01 2.722617149353027344e+00 1.946816062927246094e+01 6.657233238220214844e+00 2.614702463150024414e+00
1.700000000000000000e+02 4.492378997802734375e+01 2.071606874465942383e+00 1.181278419494628906e+01 1.888749504089355469e+01 9.210083961486816406e+00 1.225545182824134827e-01
1.710000000000000000e+02 4.512526702880859375e+01 2.415956258773803711e+00 9.556466102600097656e+00 1.776258468627929688e+01 8.195714950561523438e+00 2.302871227264404297e+00
1.720000000000000000e+02 4.509163284301757812e+01 2.082305431365966797e+00 1.038137626647949219e+01 1.751924705505371094e+01 8.370186805725097656e+00 7.418704032897949219e-01
1.730000000000000000e+02 4.509338760375976562e+01 1.690983533859252930e+00 9.846555709838867188e+00 1.794502067565917969e+01 8.337472915649414062e+00 -1.621121048927307129e+00
1.740000000000000000e+02 4.203129959106445312e+01 2.924852132797241211e+00 8.874970674514770508e-02 -1.134087443351745605e+00 -3.136013150215148926e-01 1.474204510450363159e-01
1.750000000000000000e+02 4.443241500854492188e+01 3.327383041381835938e+00 2.417067438364028931e-01 2.250894737243652344e+01 6.825196266174316406e+00 1.104731485247612000e-01
1.760000000000000000e+02 4.445914077758789062e+01 2.980486392974853516e+00 3.266177892684936523e+00 2.522066307067871094e+01 8.546051979064941406e+00 2.622105836868286133e+00
1.770000000000000000e+02 4.320030975341796875e+01 8.563426136970520020e-01 4.015176296234130859e+00 1.011953735351562500e+01 4.240414142608642578e+00 7.552664279937744141e+00
1.780000000000000000e+02 4.296088027954101562e+01 1.130075216293334961e+00 4.859717369079589844e+00 6.558787822723388672e+00 3.425551414489746094e+00 6.501352310180664062e+00
1.790000000000000000e+02 4.378635406494140625e+01 3.507453441619873047e+00 -5.354219675064086914e-01 1.785913467407226562e+01 5.197113513946533203e+00 -4.533964157104492188e+00
1.800000000000000000e+02 4.402488327026367188e+01 3.468783617019653320e+00 -4.088784456253051758e-01 2.004506874084472656e+01 5.890857219696044922e+00 -2.539967298507690430e+00
1.810000000000000000e+02 4.385517883300781250e+01 3.241298675537109375e+00 5.351207777857780457e-02 1.982452392578125000e+01 5.963410854339599609e+00 -4.361020088195800781e+00
1.820000000000000000e+02 4.237377929687500000e+01 2.464621543884277344e+00 -8.536874055862426758e-01 -1.285834312438964844e-01 -2.946812510490417480e-01 4.646043479442596436e-01
1.830000000000000000e+02 4.259078216552734375e+01 2.709752559661865234e+00 8.085460066795349121e-01 3.049058318138122559e-01 3.340355455875396729e-01 2.717767469584941864e-02
1.840000000000000000e+02 4.214564514160156250e+01 1.999428033828735352e+00 -2.988142669200897217e-01 1.761806383728981018e-02 -8.435885608196258545e-02 -5.671287775039672852e-01
1.850000000000000000e+02 4.203749084472656250e+01 3.568109512329101562e+00 2.867494225502014160e-01 -7.439692616462707520e-01 -1.371659487485885620e-01 -3.477518558502197266e-01
1.860000000000000000e+02 4.275907516479492188e+01 8.814439177513122559e-01 3.713053464889526367e+00 6.124417781829833984e+00 2.951241254806518555e+00 5.724659919738769531e+00
1.870000000000000000e+02 4.256124496459960938e+01 9.027101397514343262e-01 3.170139312744140625e+00 4.621084213256835938e+00 2.337367057800292969e+00 4.756793975830078125e+00
1.880000000000000000e+02 4.292906188964843750e+01 3.443245887756347656e+00 1.058619499206542969e+00 6.458168506622314453e+00 2.255036354064941406e+00 -3.437665939331054688e+00
1.890000000000000000e+02 4.204716110229492188e+01 3.132501363754272461e+00 1.553613692522048950e-01 -1.290850520133972168e+00 -3.406467437744140625e-01 -1.027068421244621277e-01
1.900000000000000000e+02 4.334814834594726562e+01 3.562538623809814453e+00 3.013104498386383057e-01 1.212900352478027344e+01 3.729094266891479492e+00 -4.825169086456298828e+00
1.910000000000000000e+02 4.253899383544921875e+01 1.540134429931640625e+00 2.819155931472778320e+00 1.701177477836608887e+00 1.356100082397460938e+00 1.803767800331115723e+00
1.920000000000000000e+02 4.256412124633789062e+01 3.501795768737792969e+00 6.582806110382080078e-01 3.965489149093627930e+00 1.387130975723266602e+00 -2.280817747116088867e+00
1.930000000000000000e+02 4.222963714599609375e+01 3.323762178421020508e+00 1.802826374769210815e-01 7.111232876777648926e-01 2.674217820167541504e-01 -6.647233963012695312e-01
1.940000000000000000e+02 4.200653457641601562e+01 2.719174861907958984e+00 -1.203098054975271225e-02 -5.715961456298828125e-01 -1.750881373882293701e-01 2.095434069633483887e-01
1.950000000000000000e+02 4.219289398193359375e+01 2.690263032913208008e+00 -7.900457829236984253e-02 -4.351983070373535156e-01 -1.542608588933944702e-01 6.078934669494628906e-01
1.960000000000000000e+02 4.204584884643554688e+01 3.349676370620727539e+00 -1.295604258775711060e-01 -1.237720251083374023e+00 -4.101842045783996582e-01 -7.488297671079635620e-02
1.970000000000000000e+02 4.185467147827148438e+01 1.584451675415039062e+00 1.856804937124252319e-01 -1.032660245895385742e+00 -2.540939152240753174e-01 -1.595459729433059692e-01
1.980000000000000000e+02 4.193057632446289062e+01 2.036994218826293945e+00 -1.328842788934707642e-01 -4.152489006519317627e-01 -1.644399464130401611e-01 -3.206492364406585693e-01
1.990000000000000000e+02 4.190163421630859375e+01 1.814760923385620117e+00 2.131680957973003387e-02 -8.259922862052917480e-01 -2.414026409387588501e-01 -3.581596016883850098e-01
2.000000000000000000e+02 4.217903900146484375e+01 2.482207536697387695e+00 -3.513136804103851318e-01 -1.643430888652801514e-01 -1.546970307826995850e-01 3.075309693813323975e-01
2.010000000000000000e+02 4.292763519287109375e+01 2.818847179412841797e+00 2.477202415466308594e+00 2.355762958526611328e+00 1.449889659881591797e+00 -2.242375612258911133e+00
2.020000000000000000e+02 4.328873062133789062e+01 3.305129289627075195e+00 1.559549093246459961e+00 1.057222652435302734e+01 3.639532804489135742e+00 -5.294613838195800781e+00
2.030000000000000000e+02 4.236791992187500000e+01 3.741080284118652344e+00 -8.893810212612152100e-03 3.785129308700561523e+00 1.132870674133300781e+00 -1.987179756164550781e+00
2.040000000000000000e+02 4.239758300781250000e+01 1.160405039787292480e+00 2.545988082885742188e+00 2.880028963088989258e+00 1.627805113792419434e+00 3.151103496551513672e+00
2.050000000000000000e+02 4.297563552856445312e+01 8.783044219017028809e-01 3.942443847656250000e+00 8.112926483154296875e+00 3.616611003875732422e+00 6.872059822082519531e+00
2.060000000000000000e+02 4.184109115600585938e+01 1.223352670669555664e+00 4.571526646614074707e-01 -2.329308688640594482e-01 6.726653128862380981e-02 5.158837437629699707e-01
2.070000000000000000e+02 4.274711227416992188e+01 3.219816446304321289e+00 1.686362385749816895e+00 3.926819324493408203e+00 1.683954477310180664e+00 -2.536902427673339844e+00
2.080000000000000000e+02 4.170143127441406250e+01 1.215428471565246582e+00 3.671816289424896240e-01 -2.828204035758972168e-01 2.530837059020996094e-02 -8.666353672742843628e-02
2.090000000000000000e+02 4.215636444091796875e+01 2.228558301925659180e+00 -4.865463376045227051e-01 2.826606854796409607e-02 -1.374840736389160156e-01 -2.004484981298446655e-01
2.100000000000000000e+02 4.210059738159179688e+01 1.493390321731567383e+00 7.907801270484924316e-01 5.777448415756225586e-01 4.105575084686279297e-01 5.542901158332824707e-01
2.110000000000000000e+02 4.246730804443359375e+01 3.123725652694702148e+00 9.036705493927001953e-01 1.376897335052490234e+00 6.841703653335571289e-01 -8.050365447998046875e-01
2.120000000000000000e+02 4.227138137817382812e+01 3.082721948623657227e+00 4.761143922805786133e-01 2.711026966571807861e-01 2.241651266813278198e-01 -4.710336402058601379e-02
2.130000000000000000e+02 4.255328750610351562e+01 3.292307138442993164e+00 9.102094173431396484e-01 2.732811927795410156e+00 1.092906355857849121e+00 -1.561087012290954590e+00
2.140000000000000000e+02 4.294757461547851562e+01 3.655544281005859375e+00 8.253117203712463379e-01 7.344966411590576172e+00 2.451083421707153320e+00 -3.900479078292846680e+00
2.150000000000000000e+02 4.267221832275390625e+01 2.971094608306884766e+00 1.574614763259887695e+00 2.035976171493530273e+00 1.083177328109741211e+00 -1.223733901977539062e+00
2.160000000000000000e+02 4.198308944702148438e+01 9.835292100906372070e-01 8.718792200088500977e-01 1.985859036445617676e+00 8.573215007781982422e-01 2.100078582763671875e+00
2.170000000000000000e+02 4.217593765258789062e+01 9.555578231811523438e-01 1.778214216232299805e+00 2.886782646179199219e+00 1.399499058723449707e+00 3.263939380645751953e+00
2.180000000000000000e+02 4.256126785278320312e+01 3.713733911514282227e+00 3.483025133609771729e-01 4.703608036041259766e+00 1.515573143959045410e+00 -2.639347314834594727e+00
2.190000000000000000e+02 4.275462722778320312e+01 3.684819221496582031e+00 5.824813246726989746e-01 6.218214988708496094e+00 2.040208816528320312e+00 -3.076772451400756836e+00
2.200000000000000000e+02 4.220518112182617188e+01 3.548133850097656250e+00 -5.737095326185226440e-02 6.510854363441467285e-01 1.781143546104431152e-01 -3.509443700313568115e-01
2.210000000000000000e+02 4.275010681152343750e+01 3.464478492736816406e+00 8.493393063545227051e-01 5.460488319396972656e+00 1.892948269844055176e+00 -3.028130054473876953e+00
2.220000000000000000e+02 4.177333450317382812e+01 1.388759136199951172e+00 -3.023995757102966309e-01 -8.746444582939147949e-01 -3.531132042407989502e-01 8.482388406991958618e-02
2.230000000000000000e+02 4.236875915527343750e+01 9.286835789680480957e-01 3.009756088256835938e+00 3.427845478057861328e+00 1.931280493736267090e+00 4.157650947570800781e+00
2.240000000000000000e+02 4.257975769042968750e+01 1.133015155792236328e+00 3.639878511428833008e+00 3.520242452621459961e+00 2.148036241531372070e+00 4.029178142547607422e+00
2.250000000000000000e+02 4.275808715820312500e+01 1.100987315177917480e+00 4.258606910705566406e+00 5.204316616058349609e+00 2.838876962661743164e+00 5.296085834503173828e+00
2.260000000000000000e+02 4.361664581298828125e+01 7.761988639831542969e-01 2.910675525665283203e+00 1.503651046752929688e+01 5.384155750274658203e+00 6.757725715637207031e+00
2.270000000000000000e+02 4.224781036376953125e+01 2.872931241989135742e+00 4.710659980773925781e-01 -1.525769568979740143e-02 1.367424875497817993e-01 2.546801865100860596e-01
2.280000000000000000e+02 4.288330841064453125e+01 1.348208189010620117e+00 4.998947620391845703e+00 4.139594554901123047e+00 2.741562604904174805e+00 4.952506542205810547e+00
2.290000000000000000e+02 4.252555465698242188e+01 1.953151345252990723e+00 5.737209916114807129e-01 4.402428567409515381e-01 3.041891753673553467e-01 -1.302710175514221191e-01
2.300000000000000000e+02 4.309675979614257812e+01 3.383610486984252930e+00 1.532105445861816406e+00 8.170048713684082031e+00 2.910646438598632812e+00 -4.577610015869140625e+00
2.310000000000000000e+02 4.409090423583984375e+01 3.202517271041870117e+00 -3.145772498100996017e-03 2.311862754821777344e+01 6.934644699096679688e+00 -1.844194769859313965e+00
2.320000000000000000e+02 4.475514602661132812e+01 2.710188865661621094e+00 7.325760841369628906e+00 2.182973289489746094e+01 8.746647834777832031e+00 3.605409145355224609e+00
2.330000000000000000e+02 4.234281539916992188e+01 1.992466688156127930e+00 -2.366615235805511475e-01 2.127517759799957275e-01 -7.172924000769853592e-03 -4.288394451141357422e-01
2.340000000000000000e+02 4.214926147460937500e+01 1.752668023109436035e+00 7.153476476669311523e-01 2.725359499454498291e-01 2.963650822639465332e-01 -1.138506904244422913e-01
2.350000000000000000e+02 4.237302017211914062e+01 2.712207555770874023e+00 3.243570029735565186e-01 1.582803875207901001e-01 1.447912156581878662e-01 3.654889166355133057e-01
2.360000000000000000e+02 4.327998733520507812e+01 3.088258028030395508e+00 2.513236045837402344e+00 9.164524078369140625e+00 3.503328084945678711e+00 -5.645705223083496094e+00
2.370000000000000000e+02 4.375098800659179688e+01 1.015380859375000000e+00 2.504101037979125977e+00 1.943204116821289062e+01 6.580842494964599609e+00 6.423251628875732422e+00
2.380000000000000000e+02 4.447534179687500000e+01 3.106862783432006836e+00 1.596034526824951172e+00 2.423639678955078125e+01 7.749729156494140625e+00 1.497432708740234375e+00
2.390000000000000000e+02 4.491035461425781250e+01 2.260886669158935547e+00 1.064742469787597656e+01 1.917545318603515625e+01 8.946863174438476562e+00 2.290485143661499023e+00
2.400000000000000000e+02 4.408858489990234375e+01 1.101639986038208008e+00 2.640854120254516602e+00 2.228000831604003906e+01 7.476259231567382812e+00 4.651103496551513672e+00
2.410000000000000000e+02 4.454059982299804688e+01 1.312302350997924805e+00 5.248285293579101562e+00 2.343766403198242188e+01 8.605784416198730469e+00 -1.107189297676086426e+00
2.420000000000000000e+02 4.439087677001953125e+01 1.235052704811096191e+00 4.363334655761718750e+00 2.420108222961425781e+01 8.569325447082519531e+00 -2.587461769580841064e-01
2.430000000000000000e+02 4.426947402954101562e+01 1.063368201255798340e+00 3.543356657028198242e+00 2.230878639221191406e+01 7.755643367767333984e+00 1.654768347740173340e+00
2.440000000000000000e+02 4.399787139892578125e+01 9.762015938758850098e-01 1.746186852455139160e+00 2.220776557922363281e+01 7.186185836791992188e+00 5.654865264892578125e+00
2.450000000000000000e+02 4.399515914916992188e+01 7.861051559448242188e-01 1.452063083648681641e+00 1.988618278503417969e+01 6.401473522186279297e+00 4.880254268646240234e+00
2.460000000000000000e+02 4.239402389526367188e+01 1.781815648078918457e+00 1.187080264091491699e+00 4.550422728061676025e-01 4.926367700099945068e-01 5.627803504467010498e-02
2.470000000000000000e+02 4.232261657714843750e+01 1.372248172760009766e+00 2.133957147598266602e+00 1.789341092109680176e+00 1.176989436149597168e+00 2.009762287139892578e+00
2.480000000000000000e+02 4.268888854980468750e+01 1.303228378295898438e+00 4.149531364440917969e+00 3.448232650756835938e+00 2.279329299926757812e+00 4.072293281555175781e+00
2.490000000000000000e+02 4.239567565917968750e+01 3.324077367782592773e+00 4.380224943161010742e-01 1.589373707771301270e+00 6.082188487052917480e-01 -7.807416319847106934e-01
2.500000000000000000e+02 4.358004760742187500e+01 3.802951574325561523e-01 1.590305685997009277e+00 1.362386798858642578e+01 4.564252376556396484e+00 6.438255786895751953e+00
2.510000000000000000e+02 4.186620330810546875e+01 2.732358276844024658e-01 2.605358362197875977e+00 4.095502853393554688e+00 2.010258436203002930e+00 3.408016443252563477e+00
2.520000000000000000e+02 4.510498046875000000e+01 7.739062905311584473e-01 3.571294546127319336e+00 1.798847389221191406e+01 6.467930316925048828e+00 -1.151973843574523926e+00
2.530000000000000000e+02 4.048035430908203125e+01 -2.306883811950683594e+00 2.235443353652954102e+00 5.208542823791503906e+00 2.233196020126342773e+00 3.356143712997436523e+00
2.540000000000000000e+02 4.247862243652343750e+01 -4.977445602416992188e+00 -1.602061748504638672e+00 8.123444557189941406e+00 1.956414699554443359e+00 2.099583148956298828e+00
2.550000000000000000e+02 4.771042633056640625e+01 -1.204544353485107422e+01 1.838275313377380371e+00 9.583216667175292969e+00 3.426447629928588867e+00 3.731060504913330078e+00
2.560000000000000000e+02 4.826245117187500000e+01 -1.090244579315185547e+01 5.636400580406188965e-01 6.152974605560302734e+00 2.014984369277954102e+00 2.488076210021972656e+00
2.570000000000000000e+02 4.972385025024414062e+01 -9.394145965576171875e+00 -1.392037630081176758e+00 2.264285564422607422e+00 2.616743445396423340e-01 4.668464958667755127e-01
2.580000000000000000e+02 5.078374099731445312e+01 -8.726936340332031250e+00 -3.478051900863647461e+00 1.303813904523849487e-01 -1.004301190376281738e+00 -1.203685402870178223e+00
2.590000000000000000e+02 5.085352325439453125e+01 -5.798282623291015625e+00 -8.694307208061218262e-01 2.427151203155517578e+00 4.673161506652832031e-01 3.706197440624237061e-01
2.600000000000000000e+02 5.454883575439453125e+01 -6.846987724304199219e+00 -1.589966773986816406e+00 -2.841828465461730957e-01 -5.622448921203613281e-01 -1.269075274467468262e+00
2.610000000000000000e+02 5.321407318115234375e+01 -2.340445041656494141e+00 2.979441642761230469e+00 7.375426888465881348e-01 1.115095257759094238e+00 -1.162357687950134277e+00
2.620000000000000000e+02 5.586989212036132812e+01 5.878004431724548340e-01 2.453224658966064453e+00 1.245300471782684326e-01 7.733264565467834473e-01 4.014136791229248047e-01
2.630000000000000000e+02 6.005944061279296875e+01 4.070485591888427734e+00 -1.333987414836883545e-01 -2.932078205049037933e-02 -4.881585389375686646e-02 -1.234790310263633728e-01
2.640000000000000000e+02 5.802251052856445312e+01 2.187865257263183594e+00 3.672129511833190918e-01 -1.013203561305999756e-01 7.976777851581573486e-02 1.727286912500858307e-02
2.650000000000000000e+02 4.017523193359375000e+01 -4.870800971984863281e+00 -1.190591573715209961e+00 5.119613647460937500e+00 1.178706645965576172e+00 2.050680160522460938e+00
2.660000000000000000e+02 4.025640869140625000e+01 -6.092272281646728516e+00 -1.300835847854614258e+00 5.379491806030273438e+00 1.223596692085266113e+00 1.913154244422912598e+00
2.670000000000000000e+02 3.916991043090820312e+01 -1.089037799835205078e+01 -2.415525019168853760e-01 4.578102111816406250e+00 1.300964832305908203e+00 6.055023670196533203e-01
2.680000000000000000e+02 3.919116973876953125e+01 -1.352698802947998047e+01 3.966570496559143066e-01 4.777124881744384766e+00 1.552134633064270020e+00 2.729002237319946289e-01
2.690000000000000000e+02 4.132378768920898438e+01 -1.893234062194824219e+01 1.292020916938781738e+00 7.017802238464355469e+00 2.492947101593017578e+00 9.692660570144653320e-01
2.700000000000000000e+02 3.901898574829101562e+01 -2.153400039672851562e+01 1.069645166397094727e+00 5.756749629974365234e+00 2.047918558120727539e+00 1.444100618362426758e+00
2.710000000000000000e+02 3.869480514526367188e+01 -2.479969215393066406e+01 1.359397649765014648e+00 5.517924785614013672e+00 2.063196659088134766e+00 1.585892438888549805e+00
2.720000000000000000e+02 4.194529724121093750e+01 -2.768898200988769531e+01 2.883799076080322266e-01 5.820514202117919922e+00 1.832668185234069824e+00 7.373743057250976562e-01
2.730000000000000000e+02 4.007875061035156250e+01 -3.307154083251953125e+01 -7.344791889190673828e-01 4.708839893341064453e+00 1.192308306694030762e+00 3.573008775711059570e-01
2.740000000000000000e+02 3.760684585571289062e+01 -4.102680587768554688e+01 -9.728729128837585449e-01 3.735187053680419922e+00 8.286942243576049805e-01 1.041720584034919739e-01
2.750000000000000000e+02 4.232516860961914062e+01 -4.104371643066406250e+01 -1.066730737686157227e+00 3.826252222061157227e+00 8.278564810752868652e-01 -4.729550704360008240e-02
2.760000000000000000e+02 4.192295837402343750e+01 -3.801681900024414062e+01 -1.068996667861938477e+00 4.078598976135253906e+00 9.028806090354919434e-01 -6.684339791536331177e-02
2.770000000000000000e+02 4.336517715454101562e+01 -3.372809600830078125e+01 -9.725335836410522461e-01 4.494178295135498047e+00 1.056493401527404785e+00 -2.454397827386856079e-01
2.780000000000000000e+02 4.444064331054687500e+01 -3.168426513671875000e+01 -7.912288904190063477e-01 4.795394897460937500e+00 1.201249718666076660e+00 -3.958545029163360596e-01
2.790000000000000000e+02 4.462551498413085938e+01 -1.906625366210937500e+01 1.048221588134765625e+00 1.077740287780761719e+01 3.547687292098999023e+00 6.235141158103942871e-01
2.800000000000000000e+02 4.541007614135742188e+01 -1.557260704040527344e+01 1.117730140686035156e+00 1.151655387878417969e+01 3.790285110473632812e+00 1.618236899375915527e+00
2.810000000000000000e+02 4.328695297241210938e+01 -1.340223979949951172e+01 4.937705695629119873e-01 8.201841354370117188e+00 2.608683824539184570e+00 6.049987673759460449e-01
2.820000000000000000e+02 4.159520721435546875e+01 -9.624238014221191406e+00 -1.163751602172851562e+00 6.700528621673583984e+00 1.661033034324645996e+00 8.532293438911437988e-01
2.830000000000000000e+02 4.136709976196289062e+01 -6.085719108581542969e+00 -1.719229459762573242e+00 6.775516986846923828e+00 1.516886234283447266e+00 1.889751553535461426e+00
2.840000000000000000e+02 2.908899116516113281e+01 -5.002025127410888672e+00 -2.138385534286499023e+00 -4.448854327201843262e-01 -7.749812602996826172e-01 5.951393842697143555e-01
2.850000000000000000e+02 2.807005691528320312e+01 -4.289664745330810547e+00 -1.033012390136718750e+00 -3.244138956069946289e-01 -4.072278738021850586e-01 5.607174634933471680e-01
2.860000000000000000e+02 2.588618278503417969e+01 -2.960268974304199219e+00 -5.928280353546142578e-01 4.114995896816253662e-02 -1.655034273862838745e-01 2.356794327497482300e-01
2.870000000000000000e+02 2.497317886352539062e+01 -3.057507276535034180e+00 -6.295843124389648438e-01 8.538594096899032593e-02 -1.632595211267471313e-01 1.766171455383300781e-01
2.880000000000000000e+02 2.154599761962890625e+01 -4.100594520568847656e+00 -6.186251640319824219e-01 5.161876976490020752e-02 -1.701019257307052612e-01 3.542772307991981506e-02
2.890000000000000000e+02 2.151888465881347656e+01 -4.813871860504150391e+00 -5.675638318061828613e-01 6.409031897783279419e-02 -1.510420441627502441e-01 1.239720266312360764e-02
2.900000000000000000e+02 2.259781455993652344e+01 -1.187074947357177734e+01 3.946568369865417480e-01 4.658797383308410645e-02 1.323734521865844727e-01 -2.787669003009796143e-01
2.910000000000000000e+02 2.208348655700683594e+01 -1.415729236602783203e+01 6.615528464317321777e-01 2.665198966860771179e-02 2.064614593982696533e-01 -1.728875041007995605e-01
2.920000000000000000e+02 3.093853187561035156e+01 -1.339373111724853516e+01 1.006353855133056641e+00 -1.627723686397075653e-02 2.970229983329772949e-01 -6.861897557973861694e-02
2.930000000000000000e+02 3.000901222229003906e+01 -1.494379711151123047e+01 1.220514059066772461e+00 7.857618853449821472e-03 3.685114979743957520e-01 -1.235654354095458984e-01
2.940000000000000000e+02 2.892635536193847656e+01 -9.221888542175292969e+00 -1.933613866567611694e-01 -1.975205689668655396e-01 -1.172645837068557739e-01 -3.737382292747497559e-01
2.950000000000000000e+02 3.001167297363281250e+01 -5.779487609863281250e+00 -2.393668651580810547e+00 -4.015811085700988770e-01 -8.385749459266662598e-01 1.169232875108718872e-01
2.960000000000000000e+02 2.074342727661132812e+01 -3.406916141510009766e+00 -6.686325073242187500e-01 9.351565502583980560e-03 -1.977842897176742554e-01 1.428389269858598709e-02
2.970000000000000000e+02 1.825240707397460938e+01 -4.015091419219970703e+00 -5.282963514328002930e-01 2.418794296681880951e-02 -1.512325257062911987e-01 -6.784275174140930176e-02
2.980000000000000000e+02 1.901062202453613281e+01 -5.448617458343505859e+00 -4.106219410896301270e-01 4.396542161703109741e-02 -1.099969595670700073e-01 -9.828684478998184204e-02
2.990000000000000000e+02 1.779136657714843750e+01 -1.133910274505615234e+01 3.127423226833343506e-01 1.523044556379318237e-01 1.395140290260314941e-01 -1.820405274629592896e-01
3.000000000000000000e+02 1.840500640869140625e+01 -1.278568172454833984e+01 5.909696817398071289e-01 1.347521543502807617e-01 2.177165597677230835e-01 -2.905456125736236572e-01
3.010000000000000000e+02 1.959558486938476562e+01 -1.335572528839111328e+01 5.444790720939636230e-01 1.127296015620231628e-01 1.971626132726669312e-01 -2.535972595214843750e-01
3.020000000000000000e+02 1.753061676025390625e+01 -3.201987981796264648e+00 -5.839976668357849121e-01 1.154845673590898514e-02 -1.717347651720046997e-01 -4.669668525457382202e-02
3.030000000000000000e+02 1.597616958618164062e+01 -2.960139989852905273e+00 -5.139739513397216797e-01 2.146658301353454590e-02 -1.477522104978561401e-01 -4.922283440828323364e-02
3.040000000000000000e+02 1.656412506103515625e+01 -5.913555622100830078e+00 -3.005263507366180420e-01 7.012000679969787598e-02 -6.912189722061157227e-02 -1.699882298707962036e-01
3.050000000000000000e+02 1.609339714050292969e+01 -1.161579418182373047e+01 4.098657369613647461e-01 1.063028052449226379e-01 1.548505574464797974e-01 -1.649641692638397217e-01
3.060000000000000000e+02 1.721497917175292969e+01 -1.225796222686767578e+01 6.394779682159423828e-01 1.358202993869781494e-01 2.325894683599472046e-01 -2.114013433456420898e-01
3.070000000000000000e+02 1.521503162384033203e+01 -2.826468706130981445e+00 -4.756765663623809814e-01 1.274120621383190155e-02 -1.388806104660034180e-01 -5.573457479476928711e-02
3.080000000000000000e+02 1.143986225128173828e+01 -2.858189582824707031e+00 -2.707938551902770996e-01 2.268606610596179962e-02 -7.443233579397201538e-02 -8.900305628776550293e-02
3.090000000000000000e+02 1.138115692138671875e+01 -5.634308815002441406e+00 -1.863273680210113525e-01 1.899848319590091705e-02 -5.019866302609443665e-02 -1.813446432352066040e-01
3.100000000000000000e+02 1.333833026885986328e+01 -1.239250183105468750e+01 1.113194227218627930e-01 -2.432484365999698639e-02 2.609837427735328674e-02 -3.041720762848854065e-02
3.110000000000000000e+02 1.311009979248046875e+01 -1.402938652038574219e+01 8.131643990054726601e-04 1.722668856382369995e-02 5.411955993622541428e-03 -2.869838848710060120e-03
3.120000000000000000e+02 1.164050102233886719e+01 -1.697342491149902344e+01 1.979509601369500160e-03 4.366493821144104004e-01 1.315886676311492920e-01 -1.699351519346237183e-02
3.130000000000000000e+02 1.176410293579101562e+01 -2.076786041259765625e+01 1.683844923973083496e-01 8.544349074363708496e-01 3.068458139896392822e-01 -2.677744626998901367e-01
3.140000000000000000e+02 1.166172313690185547e+01 -1.820292663574218750e+01 3.379327803850173950e-02 6.305133700370788574e-01 1.992919892072677612e-01 -6.258251518011093140e-02
3.150000000000000000e+02 7.834480285644531250e+00 -2.579392433166503906e+00 -1.389779746532440186e-01 4.638988059014081955e-03 -4.030169546604156494e-02 -7.659986615180969238e-02
3.160000000000000000e+02 8.676417350769042969e+00 -1.865328311920166016e+00 -1.648680418729782104e-01 1.157353632152080536e-02 -4.598835483193397522e-02 -5.299310386180877686e-02
3.170000000000000000e+02 4.136174201965332031e+00 -2.579311847686767578e+00 -4.751628264784812927e-02 -1.831877417862415314e-02 -1.975051686167716980e-02 -4.818443953990936279e-02
3.180000000000000000e+02 6.049242019653320312e-01 -5.014287471771240234e+00 -2.436253707855939865e-03 -5.148428305983543396e-02 -1.617616042494773865e-02 -1.655172929167747498e-02
3.190000000000000000e+02 1.710496306419372559e+00 -7.841879844665527344e+00 -7.258416153490543365e-03 -1.492695510387420654e-01 -4.695839062333106995e-02 -6.998211890459060669e-02
3.200000000000000000e+02 4.087198257446289062e+00 -1.027293205261230469e+01 -2.383427508175373077e-02 -1.696221828460693359e-01 -5.803693458437919617e-02 -1.643844544887542725e-01
3.210000000000000000e+02 1.070057678222656250e+01 -1.314949989318847656e+01 -3.365705534815788269e-02 8.861149102449417114e-02 1.648632995784282684e-02 -1.235731467604637146e-01
3.220000000000000000e+02 9.989481925964355469e+00 -1.227658653259277344e+01 -2.864261902868747711e-02 3.806106001138687134e-02 2.825532108545303345e-03 -1.602696478366851807e-01
3.230000000000000000e+02 8.477213859558105469e+00 -1.209130287170410156e+01 -3.617184236645698547e-02 -8.419969119131565094e-03 -1.337754260748624802e-02 -1.970869749784469604e-01
3.240000000000000000e+02 8.384831428527832031e+00 -5.839660644531250000e+00 -1.203006654977798462e-01 -1.142886001616716385e-02 -3.951885923743247986e-02 -1.660184562206268311e-01
3.250000000000000000e+02 4.276199340820312500e+00 -5.707764625549316406e+00 -4.513052850961685181e-02 -6.708724051713943481e-02 -3.366532921791076660e-02 -1.091161668300628662e-01
3.260000000000000000e+02 5.633240222930908203e+00 -5.283761978149414062e+00 -7.110889256000518799e-02 -4.540479183197021484e-02 -3.495410457253456116e-02 -1.259111911058425903e-01
3.270000000000000000e+02 3.420634269714355469e+00 -1.874386072158813477e+00 -3.234527632594108582e-02 -1.281243562698364258e-02 -1.354731339961290359e-02 -2.937142923474311829e-02
3.280000000000000000e+02 4.901555538177490234e+00 -1.845565199851989746e+00 -6.198999658226966858e-02 -9.879602119326591492e-03 -2.156087942421436310e-02 -4.315448924899101257e-02
3.290000000000000000e+02 5.734010934829711914e-01 -9.243854522705078125e+00 -1.183355925604701042e-03 -2.197216153144836426e-01 -6.627149134874343872e-02 -2.803725562989711761e-02
3.300000000000000000e+02 1.762113571166992188e+00 -1.052473926544189453e+01 -6.189592648297548294e-03 -2.553448975086212158e-01 -7.846034318208694458e-02 -8.942524343729019165e-02
3.310000000000000000e+02 4.345343112945556641e+00 -1.278848171234130859e+01 -1.684007048606872559e-02 -2.146671861410140991e-01 -6.945217400789260864e-02 -1.870596110820770264e-01
3.320000000000000000e+02 9.434204101562500000e+00 -1.553673744201660156e+01 -5.672550760209560394e-03 1.501196771860122681e-01 4.333414137363433838e-02 -1.905716359615325928e-01
3.330000000000000000e+02 1.047552013397216797e+01 -1.481956577301025391e+01 -3.472655266523361206e-02 1.637919694185256958e-01 3.871962800621986389e-02 -1.346532553434371948e-01
3.340000000000000000e+02 6.138628721237182617e-01 -1.203659439086914062e+01 -1.888404483906924725e-03 -3.749845027923583984e-01 -1.130618751049041748e-01 -3.612144663929939270e-02
3.350000000000000000e+02 1.919317245483398438e+00 -1.328879833221435547e+01 -2.252403879538178444e-03 -3.716908693313598633e-01 -1.121829748153686523e-01 -1.088661178946495056e-01
3.360000000000000000e+02 5.598955631256103516e+00 -1.824106216430664062e+01 5.936958640813827515e-02 -2.312553226947784424e-01 -5.156571790575981140e-02 -1.974049210548400879e-01
3.370000000000000000e+02 9.776341438293457031e+00 -1.809123992919921875e+01 6.731243431568145752e-02 2.928203046321868896e-01 1.080398261547088623e-01 -2.151945680379867554e-01
3.380000000000000000e+02 1.139349842071533203e+01 -2.216363525390625000e+01 2.839760482311248779e-01 6.565487980842590332e-01 2.821574509143829346e-01 -2.756717503070831299e-01
3.390000000000000000e+02 6.691433787345886230e-01 -1.629715919494628906e+01 1.335520355496555567e-04 -6.292891502380371094e-01 -1.887466758489608765e-01 -4.004977270960807800e-02
3.400000000000000000e+02 3.191506862640380859e+00 -1.770843887329101562e+01 1.948814839124679565e-02 -4.478878676891326904e-01 -1.285199224948883057e-01 -1.419864594936370850e-01
3.410000000000000000e+02 4.217881202697753906e+00 -1.922771835327148438e+01 4.250345751643180847e-02 -3.899841010570526123e-01 -1.042441949248313904e-01 -1.495137214660644531e-01
3.420000000000000000e+02 1.072717475891113281e+01 -2.366837120056152344e+01 2.471812367439270020e-01 3.345039486885070801e-01 1.745055466890335083e-01 -1.682623326778411865e-01
3.430000000000000000e+02 1.338609218597412109e+01 -2.371735954284667969e+01 3.961898982524871826e-01 5.846724510192871094e-01 2.942586839199066162e-01 -4.696331620216369629e-01
3.440000000000000000e+02 1.511518096923828125e+01 -2.810718727111816406e+01 1.805314123630523682e-01 3.444564938545227051e-01 1.574963778257369995e-01 -2.518041729927062988e-01
3.450000000000000000e+02 1.385772323608398438e+01 -2.954804229736328125e+01 6.251239031553268433e-02 2.827284336090087891e-01 1.035722494125366211e-01 -1.680971682071685791e-01
3.460000000000000000e+02 1.603968811035156250e+01 -3.328995132446289062e+01 2.828576788306236267e-02 2.621442079544067383e-01 8.712899684906005859e-02 -1.990970224142074585e-01
3.470000000000000000e+02 2.002798271179199219e+01 -3.734216308593750000e+01 1.967041343450546265e-01 3.116345405578613281e-01 1.525015980005264282e-01 -1.338846683502197266e-01
3.480000000000000000e+02 2.258551406860351562e+01 -4.099642944335937500e+01 2.393382340669631958e-01 5.127849578857421875e-01 2.256369441747665405e-01 -2.747352421283721924e-02
3.490000000000000000e+02 2.663990592956542969e+01 -4.086542129516601562e+01 1.179584413766860962e-01 1.187018513679504395e+00 3.914930820465087891e-01 8.072550594806671143e-02
3.500000000000000000e+02 2.953192520141601562e+01 -3.915832138061523438e+01 -4.601782187819480896e-02 1.765922784805297852e+00 5.159714818000793457e-01 3.148372173309326172e-01
3.510000000000000000e+02 3.100779914855957031e+01 -3.634891510009765625e+01 -9.078595787286758423e-02 2.116876602172851562e+00 6.078271865844726562e-01 7.276886105537414551e-01
3.520000000000000000e+02 3.101315307617187500e+01 -3.012351799011230469e+01 9.747306108474731445e-01 9.309026002883911133e-01 5.716899633407592773e-01 1.001504182815551758e+00
3.530000000000000000e+02 2.966181755065917969e+01 -3.057160377502441406e+01 4.115535616874694824e-01 4.845571219921112061e-01 2.688331902027130127e-01 5.041130185127258301e-01
3.540000000000000000e+02 2.823645019531250000e+01 -3.081606101989746094e+01 2.684227935969829559e-02 1.528263986110687256e-01 5.390060320496559143e-02 2.639644145965576172e-01
3.550000000000000000e+02 2.677101135253906250e+01 -3.091867256164550781e+01 -1.746726334095001221e-01 1.345657855272293091e-01 -1.203205808997154236e-02 8.784223347902297974e-02
3.560000000000000000e+02 2.699516487121582031e+01 -3.665986251831054688e+01 2.757798135280609131e-01 8.354374766349792480e-01 3.333651721477508545e-01 3.344331681728363037e-01
3.570000000000000000e+02 2.514938163757324219e+01 -3.814912033081054688e+01 2.341695874929428101e-01 7.590022087097167969e-01 2.979515492916107178e-01 1.661260724067687988e-01
3.580000000000000000e+02 6.217994093894958496e-01 -1.914268493652343750e+01 2.032035728916525841e-03 -7.862424254417419434e-01 -2.352631092071533203e-01 -3.009741008281707764e-02
3.590000000000000000e+02 1.801445007324218750e+00 -2.051174736022949219e+01 1.296078879386186600e-02 -6.909300088882446289e-01 -2.033907771110534668e-01 -6.408550590276718140e-02
3.600000000000000000e+02 4.142114162445068359e+00 -2.312847137451171875e+01 6.402073055505752563e-02 -4.625439941883087158e-01 -1.195569783449172974e-01 -6.488393247127532959e-02
3.610000000000000000e+02 9.748114585876464844e+00 -2.640998268127441406e+01 1.093232557177543640e-01 1.216164901852607727e-01 6.928192824125289917e-02 -7.836361229419708252e-02
3.620000000000000000e+02 1.291657638549804688e+01 -2.807592391967773438e+01 9.822100400924682617e-02 2.880689203739166260e-01 1.158869788050651550e-01 -1.684945821762084961e-01
3.630000000000000000e+02 1.627360916137695312e+01 -3.865812301635742188e+01 8.970767259597778320e-02 1.782905906438827515e-01 8.039947599172592163e-02 -9.550976753234863281e-02
3.640000000000000000e+02 1.920343780517578125e+01 -3.991169357299804688e+01 1.795467734336853027e-01 2.969333827495574951e-01 1.429440528154373169e-01 -5.061108991503715515e-02
3.650000000000000000e+02 5.938356518745422363e-01 -2.196159362792968750e+01 2.743911463767290115e-03 -8.967221975326538086e-01 -2.681934833526611328e-01 -1.577845774590969086e-02
3.660000000000000000e+02 1.784352540969848633e+00 -2.326259040832519531e+01 1.553850341588258743e-02 -7.562438249588012695e-01 -2.222115844488143921e-01 -2.665462717413902283e-02
3.670000000000000000e+02 5.898357868194580078e+00 -2.879893875122070312e+01 2.138866484165191650e-02 -3.164774179458618164e-01 -8.852662146091461182e-02 1.058239489793777466e-02
3.680000000000000000e+02 6.437132835388183594e+00 -3.006863975524902344e+01 7.781802210956811905e-03 -2.746787369251251221e-01 -8.006907999515533447e-02 1.035533100366592407e-02
3.690000000000000000e+02 1.275501632690429688e+01 -3.839815521240234375e+01 2.582260034978389740e-02 4.394997656345367432e-02 2.093177288770675659e-02 -6.741240620613098145e-02
3.700000000000000000e+02 1.678625869750976562e+01 -4.122578811645507812e+01 1.229976266622543335e-01 2.201664000749588013e-01 1.029492095112800598e-01 -2.031715214252471924e-02
3.710000000000000000e+02 6.679855585098266602e-01 -2.757327842712402344e+01 3.499467391520738602e-03 -9.124642014503479004e-01 -2.726894319057464600e-01 1.011984888464212418e-02
3.720000000000000000e+02 2.118526458740234375e+00 -2.875786590576171875e+01 3.717424347996711731e-03 -7.365434169769287109e-01 -2.198478132486343384e-01 2.192622050642967224e-02
3.730000000000000000e+02 5.362662792205810547e+00 -3.051423072814941406e+01 -2.375113312155008316e-03 -4.020484983921051025e-01 -1.213270798325538635e-01 2.388543263077735901e-02
3.740000000000000000e+02 5.206133842468261719e+00 -3.252543640136718750e+01 -4.698794335126876831e-03 -4.156537055969238281e-01 -1.261057406663894653e-01 1.857879385352134705e-02
3.750000000000000000e+02 9.265316009521484375e+00 -3.820853805541992188e+01 -7.917103357613086700e-03 -1.691663563251495361e-01 -5.312503874301910400e-02 -2.498378232121467590e-02
3.760000000000000000e+02 1.254074287414550781e+01 -4.120077514648437500e+01 4.180336743593215942e-02 6.505750119686126709e-03 1.449273526668548584e-02 -2.122624963521957397e-02
3.770000000000000000e+02 7.123336195945739746e-01 -2.898034858703613281e+01 -1.578544848598539829e-03 -8.906274437904357910e-01 -2.676617801189422607e-01 1.148344390094280243e-02
3.780000000000000000e+02 2.302335262298583984e+00 -3.018406677246093750e+01 6.845830939710140228e-04 -7.042222619056701660e-01 -2.110613137483596802e-01 2.620114944875240326e-02
3.790000000000000000e+02 8.861361145973205566e-01 -3.471035385131835938e+01 7.442586938850581646e-04 -8.064879179000854492e-01 -2.417230904102325439e-01 1.429111417382955551e-02
3.800000000000000000e+02 8.675280809402465820e-01 -3.613750076293945312e+01 -8.461018092930316925e-03 -7.892565131187438965e-01 -2.393152564764022827e-01 8.201473392546176910e-03
3.810000000000000000e+02 1.284023404121398926e+00 -3.998492050170898438e+01 1.237836014479398727e-02 -7.126660943031311035e-01 -2.100863158702850342e-01 2.524186857044696808e-02
3.820000000000000000e+02 5.060127735137939453e+00 -4.011820220947265625e+01 -1.538460701704025269e-02 -4.787828624248504639e-01 -1.482502371072769165e-01 -1.713506877422332764e-02
3.830000000000000000e+02 8.187588691711425781e+00 -4.105213165283203125e+01 -5.179849453270435333e-03 -2.544933855533599854e-01 -7.790196686983108521e-02 -5.509408190846443176e-03
3.840000000000000000e+02 6.587139606475830078e+00 -3.765225601196289062e+01 -6.898534949868917465e-03 -3.138278126716613770e-01 -9.621790051460266113e-02 -2.442513825371861458e-03
3.850000000000000000e+02 6.693559646606445312e+00 -3.363111877441406250e+01 1.284063560888171196e-03 -2.807545661926269531e-01 -8.384115248918533325e-02 -3.342053096275776625e-04
3.860000000000000000e+02 2.675577640533447266e+00 -3.466303634643554688e+01 -2.732578141149133444e-04 -6.633569598197937012e-01 -1.990890651941299438e-01 2.106478624045848846e-02
3.870000000000000000e+02 2.029870033264160156e+00 -4.159262466430664062e+01 -2.791747450828552246e-02 -7.017154693603515625e-01 -2.188898772001266479e-01 7.916687056422233582e-03
3.880000000000000000e+02 3.310752105712890625e+01 -4.076380538940429688e+01 -4.674875736236572266e-01 2.684915304183959961e+00 6.652283072471618652e-01 1.959172338247299194e-01
3.890000000000000000e+02 3.410123062133789062e+01 -3.754905700683593750e+01 -5.318344831466674805e-01 3.067503690719604492e+00 7.607007622718811035e-01 6.130081415176391602e-01
3.900000000000000000e+02 3.434424972534179688e+01 -3.037557220458984375e+01 5.161281228065490723e-01 3.978850126266479492e+00 1.348493456840515137e+00 1.629212021827697754e+00
3.910000000000000000e+02 3.588738250732421875e+01 -2.736741447448730469e+01 1.620516300201416016e+00 5.340039730072021484e+00 2.088166952133178711e+00 2.074607610702514648e+00
3.920000000000000000e+02 3.740091705322265625e+01 -2.464870643615722656e+01 1.639594554901123047e+00 5.630605697631835938e+00 2.181060075759887695e+00 1.776751279830932617e+00
3.930000000000000000e+02 3.613447570800781250e+01 -2.320586967468261719e+01 6.449807882308959961e-01 6.647084712982177734e+00 2.187619686126708984e+00 1.199957847595214844e+00
3.940000000000000000e+02 3.752231597900390625e+01 -1.912322807312011719e+01 5.792824625968933105e-01 4.657014846801757812e+00 1.570889234542846680e+00 5.572075843811035156e-01
3.950000000000000000e+02 3.614808654785156250e+01 -2.044558715820312500e+01 2.303827702999114990e-01 4.469599246978759766e+00 1.409994721412658691e+00 2.368459850549697876e-01
3.960000000000000000e+02 3.770066452026367188e+01 -1.783438301086425781e+01 5.161480307579040527e-01 4.499086856842041016e+00 1.504570364952087402e+00 3.197804689407348633e-01
3.970000000000000000e+02 3.677361679077148438e+01 -1.518554115295410156e+01 6.627877950668334961e-01 2.958304405212402344e+00 1.086327672004699707e+00 -1.297704875469207764e-01
3.980000000000000000e+02 3.387654876708984375e+01 -1.072237873077392578e+01 4.519995152950286865e-01 5.517417192459106445e-01 3.011223673820495605e-01 6.783398985862731934e-02
3.990000000000000000e+02 3.499335861206054688e+01 -1.318621540069580078e+01 8.276180028915405273e-01 1.378202795982360840e+00 6.617462038993835449e-01 -8.683108538389205933e-02
4.000000000000000000e+02 3.128188133239746094e+01 -1.496233272552490234e+01 1.142307639122009277e+00 -2.208550088107585907e-02 3.360666334629058838e-01 -8.468601107597351074e-02
4.010000000000000000e+02 3.327955627441406250e+01 -1.566291713714599609e+01 8.875412344932556152e-01 2.517147660255432129e-01 3.417768180370330811e-01 -1.904531419277191162e-01
4.020000000000000000e+02 3.421783065795898438e+01 -1.646372032165527344e+01 4.070115387439727783e-01 3.558510541915893555e-01 2.288587838411331177e-01 -3.603661954402923584e-01
4.030000000000000000e+02 3.512263870239257812e+01 -1.730240058898925781e+01 3.410236537456512451e-01 1.697252154350280762e+00 6.114827394485473633e-01 -4.801765978336334229e-01
4.040000000000000000e+02 3.668637084960937500e+01 -1.641556549072265625e+01 4.271746873855590820e-01 3.135871887207031250e+00 1.068914055824279785e+00 -1.149571388959884644e-01
4.050000000000000000e+02 3.777475357055664062e+01 -3.808205032348632812e+01 -8.959343433380126953e-01 3.801170825958251953e+00 8.715709447860717773e-01 3.245803713798522949e-01
4.060000000000000000e+02 3.781574630737304688e+01 -3.523974227905273438e+01 -7.650896906852722168e-01 4.118137836456298828e+00 1.005914449691772461e+00 5.535960793495178223e-01
4.070000000000000000e+02 3.780967712402343750e+01 -3.058805084228515625e+01 -8.619535714387893677e-02 4.891869544982910156e+00 1.441702246665954590e+00 9.151706099510192871e-01
4.080000000000000000e+02 3.561092758178710938e+01 -2.582719993591308594e+01 1.680806159973144531e+00 6.275886058807373047e+00 2.387007713317871094e+00 2.605738639831542969e+00
4.090000000000000000e+02 3.736709976196289062e+01 -2.590306472778320312e+01 1.467705488204956055e+00 5.485962867736816406e+00 2.086100578308105469e+00 1.499821066856384277e+00
4.100000000000000000e+02 4.705183029174804688e+01 -4.095000839233398438e+01 -7.115570306777954102e-01 3.071107387542724609e+00 7.078651189804077148e-01 -1.535399109125137329e-01
4.110000000000000000e+02 4.621863937377929688e+01 -3.782691955566406250e+01 -8.382946848869323730e-01 3.394846916198730469e+00 7.669656872749328613e-01 -4.856375157833099365e-01
4.120000000000000000e+02 4.613055801391601562e+01 -3.493346786499023438e+01 -9.309189319610595703e-01 3.804583549499511719e+00 8.620993494987487793e-01 -6.942560672760009766e-01
4.130000000000000000e+02 4.684816360473632812e+01 -3.061040115356445312e+01 -7.908596992492675781e-01 4.269110202789306641e+00 1.043475031852722168e+00 -9.814534783363342285e-01
4.140000000000000000e+02 4.637107086181640625e+01 -2.568387413024902344e+01 5.647202730178833008e-01 6.975614070892333984e+00 2.262100219726562500e+00 -1.056755185127258301e+00
4.150000000000000000e+02 4.725038528442382812e+01 -2.442675018310546875e+01 2.124650716781616211e+00 7.598368644714355469e+00 2.916905879974365234e+00 -2.831347465515136719e+00
4.160000000000000000e+02 4.519897460937500000e+01 -2.339903450012207031e+01 1.484842300415039062e+00 8.624628067016601562e+00 3.032841205596923828e+00 -4.747290611267089844e-01
4.170000000000000000e+02 4.631332397460937500e+01 -2.160154914855957031e+01 6.361696124076843262e-01 1.235357379913330078e+01 3.896923065185546875e+00 -1.350304484367370605e+00
4.180000000000000000e+02 4.392778015136718750e+01 -1.786533164978027344e+01 1.094972133636474609e+00 9.912149429321289062e+00 3.302136421203613281e+00 9.983484745025634766e-01
4.190000000000000000e+02 4.482340240478515625e+01 -1.681673812866210938e+01 1.069110155105590820e+00 1.091296672821044922e+01 3.594623088836669922e+00 1.265576243400573730e+00
4.200000000000000000e+02 5.160481262207031250e+01 -4.070379257202148438e+01 -6.546466029249131680e-04 1.764908790588378906e+00 5.292762517929077148e-01 -2.738127410411834717e-01
4.210000000000000000e+02 5.012907028198242188e+01 -3.750249099731445312e+01 -3.849027752876281738e-01 2.280916690826416016e+00 5.688042044639587402e-01 -8.055500388145446777e-01
4.220000000000000000e+02 4.929923248291015625e+01 -3.496429443359375000e+01 -6.852520108222961426e-01 2.644465923309326172e+00 5.877641439437866211e-01 -1.078426599502563477e+00
4.230000000000000000e+02 5.111193466186523438e+01 -2.835187911987304688e+01 2.203666418790817261e-01 1.175564646720886230e+00 4.187793731689453125e-01 -7.733364105224609375e-01
4.240000000000000000e+02 5.363119506835937500e+01 -2.970659446716308594e+01 -1.637935042381286621e+00 1.890700757503509521e-01 -4.346594810485839844e-01 -1.251741051673889160e-01
4.250000000000000000e+02 5.011351013183593750e+01 -2.738776779174804688e+01 8.778652548789978027e-01 1.683749556541442871e+00 7.684844732284545898e-01 -1.334052681922912598e+00
4.260000000000000000e+02 5.340056991577148438e+01 -3.627021026611328125e+01 -6.340170651674270630e-02 1.152613043785095215e+00 3.267633914947509766e-01 -8.358253240585327148e-01
4.270000000000000000e+02 5.191324234008789062e+01 -3.414191818237304688e+01 -5.192706584930419922e-01 1.554871916770935059e+00 3.106803894042968750e-01 -1.221733689308166504e+00
4.280000000000000000e+02 5.512524032592773438e+01 -3.022665023803710938e+01 -2.343241214752197266e+00 -1.565805524587631226e-01 -7.499465346336364746e-01 -2.919521927833557129e-01
4.290000000000000000e+02 5.520452117919921875e+01 -3.918355178833007812e+01 4.255122244358062744e-01 9.745665192604064941e-01 4.200236201286315918e-01 -3.690039515495300293e-01
4.300000000000000000e+02 5.828134155273437500e+01 -4.083243942260742188e+01 6.640125513076782227e-01 1.183454751968383789e+00 5.542401671409606934e-01 -2.299875766038894653e-02
4.310000000000000000e+02 5.976512527465820312e+01 -2.924258613586425781e+01 -2.984514236450195312e+00 -5.402764678001403809e-01 -1.057437181472778320e+00 -1.029534578323364258e+00
4.320000000000000000e+02 5.874071502685546875e+01 -3.131149673461914062e+01 -1.661530613899230957e+00 -2.860894501209259033e-01 -5.842860341072082520e-01 -2.958180606365203857e-01
4.330000000000000000e+02 5.675913238525390625e+01 -3.020062637329101562e+01 -2.802965879440307617e+00 -2.173720896244049072e-01 -9.061014056205749512e-01 -4.890088140964508057e-01
4.340000000000000000e+02 5.839415359497070312e+01 -3.775340652465820312e+01 4.888181686401367188e-01 8.702556490898132324e-01 4.077221453189849854e-01 -1.529956161975860596e-01
4.350000000000000000e+02 6.118790817260742188e+01 -3.680257034301757812e+01 3.171308636665344238e-01 1.511906862258911133e+00 5.487112998962402344e-01 2.003520578145980835e-01
4.360000000000000000e+02 6.049359512329101562e+01 -3.484263610839843750e+01 5.903760343790054321e-02 9.381521940231323242e-01 2.991569340229034424e-01 1.822977513074874878e-01
4.370000000000000000e+02 6.351273727416992188e+01 -3.112767601013183594e+01 -1.025831341743469238e+00 2.106075286865234375e+00 3.240731954574584961e-01 6.517339348793029785e-01
4.380000000000000000e+02 6.316027069091796875e+01 -2.661447715759277344e+01 -9.016542434692382812e-01 1.756985485553741455e-01 -2.177867144346237183e-01 -2.124898880720138550e-01
4.390000000000000000e+02 6.693243408203125000e+01 -2.503972816467285156e+01 -4.272336661815643311e-01 5.230089664459228516e+00 1.440856814384460449e+00 1.497105836868286133e+00
4.400000000000000000e+02 6.960727691650390625e+01 -2.301487731933593750e+01 -2.500947415828704834e-01 9.282649040222167969e+00 2.709766149520874023e+00 -5.110407471656799316e-01
4.410000000000000000e+02 7.478603363037109375e+01 -2.524396133422851562e+01 -2.451363354921340942e-01 8.358521461486816406e+00 2.434015512466430664e+00 -1.386056780815124512e+00
4.420000000000000000e+02 7.811293029785156250e+01 -2.443543052673339844e+01 -1.431084796786308289e-02 7.719314098358154297e+00 2.311501026153564453e+00 -8.068925142288208008e-01
4.430000000000000000e+02 7.937867736816406250e+01 -2.074022674560546875e+01 3.089461661875247955e-02 5.846235752105712891e+00 1.763139009475708008e+00 -2.167701870203018188e-01
4.440000000000000000e+02 7.815771484375000000e+01 -2.046546745300292969e+01 1.520683169364929199e-01 6.498464107513427734e+00 1.995159745216369629e+00 -5.647415518760681152e-01
4.450000000000000000e+02 7.935128784179687500e+01 -1.933485603332519531e+01 3.183326870203018188e-02 5.451329708099365234e+00 1.644948840141296387e+00 -1.490304023027420044e-01
4.460000000000000000e+02 7.808236694335937500e+01 -1.610420417785644531e+01 1.900341212749481201e-01 6.094864845275878906e+00 1.885469675064086914e+00 1.266099810600280762e-01
4.470000000000000000e+02 7.437994384765625000e+01 -1.385971546173095703e+01 6.476178765296936035e-01 7.989160537719726562e+00 2.591033458709716797e+00 6.773666143417358398e-01
4.480000000000000000e+02 7.056922912597656250e+01 -1.021541118621826172e+01 -3.563457131385803223e-01 8.292761802673339844e+00 2.380924940109252930e+00 -1.349590532481670380e-02
4.490000000000000000e+02 6.867686462402343750e+01 -7.719802379608154297e+00 -5.099840164184570312e-01 6.691363811492919922e+00 1.854413866996765137e+00 -7.216277122497558594e-01
4.500000000000000000e+02 6.338547515869140625e+01 -6.212394237518310547e+00 2.896587550640106201e-01 2.412826776504516602e+00 8.107456564903259277e-01 -1.212332606315612793e+00
4.510000000000000000e+02 6.162848281860351562e+01 2.275360584259033203e+00 4.731803238391876221e-01 1.008832573890686035e+00 4.446038901805877686e-01 3.065585196018218994e-01
4.520000000000000000e+02 6.110552215576171875e+01 4.964386940002441406e+00 -1.244181692600250244e-01 1.302555054426193237e-01 1.751202042214572430e-03 -6.401354447007179260e-03
4.530000000000000000e+02 6.321922683715820312e+01 6.748840808868408203e+00 3.098950088024139404e-01 9.097381234169006348e-01 3.658899366855621338e-01 5.751582384109497070e-01
4.540000000000000000e+02 6.184675979614257812e+01 4.013057231903076172e+00 1.446874737739562988e-01 8.259185552597045898e-01 2.911818027496337891e-01 3.471659123897552490e-01
4.550000000000000000e+02 6.282499694824218750e+01 -4.096538543701171875e+01 6.096246838569641113e-01 2.221214294433593750e+00 8.492516875267028809e-01 7.939931750297546387e-02
4.560000000000000000e+02 6.379765319824218750e+01 -3.807173156738281250e+01 3.243768215179443359e-01 2.504288673400878906e+00 8.485996723175048828e-01 3.474842607975006104e-01
4.570000000000000000e+02 6.462052917480468750e+01 -3.552865982055664062e+01 -7.949616760015487671e-02 2.925225496292114258e+00 8.537188172340393066e-01 5.372973680496215820e-01
4.580000000000000000e+02 6.607041931152343750e+01 -3.033588027954101562e+01 -1.121132612228393555e+00 4.103351116180419922e+00 8.946655392646789551e-01 8.269888758659362793e-01
4.590000000000000000e+02 6.782247161865234375e+01 -2.636093139648437500e+01 -1.174557924270629883e+00 6.605813980102539062e+00 1.629376888275146484e+00 8.004785776138305664e-01
4.600000000000000000e+02 6.680232238769531250e+01 -2.709595108032226562e+01 -1.108220815658569336e+00 4.933187007904052734e+00 1.147489905357360840e+00 9.102782011032104492e-01
4.610000000000000000e+02 6.748070526123046875e+01 -4.117483520507812500e+01 2.660766541957855225e-01 4.419881820678710938e+00 1.405787467956542969e+00 1.087701544165611267e-01
4.620000000000000000e+02 6.757084655761718750e+01 -3.835490417480468750e+01 6.660904735326766968e-02 4.569981575012207031e+00 1.390977263450622559e+00 2.655333578586578369e-01
4.630000000000000000e+02 6.735733032226562500e+01 -3.553993606567382812e+01 -2.849020659923553467e-01 4.647372722625732422e+00 1.308741092681884766e+00 4.819573163986206055e-01
4.640000000000000000e+02 6.964191436767578125e+01 -2.956257438659667969e+01 -1.106647610664367676e+00 6.739053249359130859e+00 1.689721703529357910e+00 1.418405473232269287e-01
4.650000000000000000e+02 6.884638977050781250e+01 -2.782798385620117188e+01 -1.351353764533996582e+00 6.619393348693847656e+00 1.580411911010742188e+00 1.574733555316925049e-01
4.660000000000000000e+02 7.189986419677734375e+01 -4.116192626953125000e+01 3.540393710136413574e-02 6.687294006347656250e+00 2.016809463500976562e+00 1.942692324519157410e-02
4.670000000000000000e+02 7.112208557128906250e+01 -3.845110702514648438e+01 -5.161254853010177612e-02 6.349883556365966797e+00 1.889481306076049805e+00 1.292929053306579590e-01
4.680000000000000000e+02 7.265323638916015625e+01 -3.443113708496093750e+01 -4.351232349872589111e-01 7.229783535003662109e+00 2.038398027420043945e+00 -2.547148801386356354e-02
4.690000000000000000e+02 7.284319305419921875e+01 -2.976893997192382812e+01 -7.979813814163208008e-01 7.967456340789794922e+00 2.150842428207397461e+00 -5.660541057586669922e-01
4.700000000000000000e+02 7.489326477050781250e+01 -2.781199645996093750e+01 -4.533029496669769287e-01 8.463201522827148438e+00 2.402969360351562500e+00 -1.000153303146362305e+00
4.710000000000000000e+02 7.499823760986328125e+01 -4.042572021484375000e+01 5.197818949818611145e-02 8.415924072265625000e+00 2.540370702743530273e+00 -1.402471363544464111e-01
4.720000000000000000e+02 7.370028686523437500e+01 -3.842763137817382812e+01 -1.122109591960906982e-01 7.508999824523925781e+00 2.219036817550659180e+00 -1.239285990595817566e-01
4.730000000000000000e+02 7.779291534423828125e+01 -3.156336402893066406e+01 -1.103318184614181519e-01 9.285862922668457031e+00 2.752659320831298828e+00 -3.455502688884735107e-01
4.740000000000000000e+02 7.928302764892578125e+01 -2.767615890502929688e+01 2.954788040369749069e-03 8.891524314880371094e+00 2.668343782424926758e+00 -2.887433469295501709e-01
4.750000000000000000e+02 7.785358428955078125e+01 -2.726748847961425781e+01 -1.125817149877548218e-01 8.557938575744628906e+00 2.533607006072998047e+00 -7.273569107055664062e-01
4.760000000000000000e+02 7.936861419677734375e+01 -2.488276863098144531e+01 7.994133047759532928e-03 7.739869594573974609e+00 2.324358940124511719e+00 -3.212341964244842529e-01
4.770000000000000000e+02 7.796876525878906250e+01 -4.165127944946289062e+01 1.851952821016311646e-01 9.743474960327148438e+00 2.978600978851318359e+00 5.218448489904403687e-02
4.780000000000000000e+02 7.918994140625000000e+01 -3.742688369750976562e+01 -7.578585296869277954e-02 1.014058494567871094e+01 3.019439697265625000e+00 6.123715266585350037e-02
4.790000000000000000e+02 7.735631561279296875e+01 -3.810009384155273438e+01 -1.317913830280303955e-01 9.433211326599121094e+00 2.790426015853881836e+00 1.076427400112152100e-01
4.800000000000000000e+02 7.924570465087890625e+01 -3.468190765380859375e+01 -5.202795937657356262e-02 1.021356010437011719e+01 3.048459768295288086e+00 -2.233155630528926849e-02
4.810000000000000000e+02 7.618546295166015625e+01 -3.412688446044921875e+01 -2.626938223838806152e-01 8.752314567565917969e+00 2.546886444091796875e+00 -2.023860961198806763e-01
4.820000000000000000e+02 7.771807861328125000e+01 -3.438474655151367188e+01 -1.097938492894172668e-01 9.508026123046875000e+00 2.819469690322875977e+00 -1.321770399808883667e-01
4.830000000000000000e+02 7.938205718994140625e+01 -1.512558746337890625e+01 4.299050197005271912e-02 5.277250289916992188e+00 1.596072316169738770e+00 9.864893555641174316e-02
4.840000000000000000e+02 7.815026855468750000e+01 -1.471132850646972656e+01 1.120135933160781860e-01 6.172225475311279297e+00 1.885271787643432617e+00 3.217857778072357178e-01
4.850000000000000000e+02 7.476937103271484375e+01 -8.844838142395019531e+00 -2.718997597694396973e-01 7.747094154357910156e+00 2.242558240890502930e+00 7.773384451866149902e-01
4.860000000000000000e+02 7.026556396484375000e+01 -8.928376197814941406e+00 -5.248891711235046387e-01 7.701745510101318359e+00 2.153056859970092773e+00 -1.676654666662216187e-01
4.870000000000000000e+02 6.790972137451171875e+01 -3.260679721832275391e+00 -3.621101677417755127e-01 5.254538536071777344e+00 1.467728495597839355e+00 -3.523331880569458008e-01
4.880000000000000000e+02 6.414404296875000000e+01 1.047428727149963379e+00 2.651841044425964355e-01 2.643049240112304688e+00 8.724700212478637695e-01 2.672485113143920898e-01
4.890000000000000000e+02 6.456102752685546875e+01 4.668771743774414062e+00 -2.865638956427574158e-02 2.900607109069824219e+00 8.615852594375610352e-01 9.237532615661621094e-01
4.900000000000000000e+02 6.235051727294921875e+01 1.385079622268676758e+00 5.489142537117004395e-01 1.514952898025512695e+00 6.191601157188415527e-01 2.872667610645294189e-01
4.910000000000000000e+02 7.942478179931640625e+01 -1.235542392730712891e+01 2.254689298570156097e-02 5.966116428375244141e+00 1.796599030494689941e+00 1.821863651275634766e-01
4.920000000000000000e+02 7.828896331787109375e+01 -1.066944789886474609e+01 -1.190746435895562172e-03 6.864391326904296875e+00 2.058960199356079102e+00 5.251365900039672852e-01
4.930000000000000000e+02 7.588124847412109375e+01 -9.024211883544921875e+00 -1.543072462081909180e-01 7.589660644531250000e+00 2.230606079101562500e+00 7.773891687393188477e-01
4.940000000000000000e+02 7.078331756591796875e+01 -5.515265464782714844e+00 -6.288337111473083496e-01 6.916721820831298828e+00 1.886366486549377441e+00 -2.027339115738868713e-02
4.950000000000000000e+02 6.690454101562500000e+01 -4.070867896080017090e-01 -1.996083408594131470e-01 4.542497634887695312e+00 1.302866816520690918e+00 -6.431980524212121964e-03
4.960000000000000000e+02 6.777949523925781250e+01 3.774188518524169922e+00 -4.945764243602752686e-01 5.411015033721923828e+00 1.474931597709655762e+00 5.559756159782409668e-01
4.970000000000000000e+02 6.425252532958984375e+01 7.677503108978271484e+00 7.302374243736267090e-01 1.581439614295959473e+00 6.935030817985534668e-01 1.118593215942382812e+00
4.980000000000000000e+02 7.942212677001953125e+01 -9.610975265502929688e+00 7.964217104017734528e-03 6.905689239501953125e+00 2.074095964431762695e+00 1.904659867286682129e-01
4.990000000000000000e+02 7.823062896728515625e+01 -6.643666744232177734e+00 -7.696523517370223999e-02 7.669710159301757812e+00 2.277823448181152344e+00 3.777746260166168213e-01
5.000000000000000000e+02 7.569816589355468750e+01 -3.974582433700561523e+00 -2.737429141998291016e-01 7.628962516784667969e+00 2.206565856933593750e+00 3.080776035785675049e-01
5.010000000000000000e+02 6.989163208007812500e+01 3.079931437969207764e-01 -5.637553930282592773e-01 6.168323040008544922e+00 1.681370258331298828e+00 -8.319494314491748810e-03
5.020000000000000000e+02 7.112384796142578125e+01 3.210109710693359375e+00 -6.614848971366882324e-01 6.882475852966308594e+00 1.866297245025634766e+00 -8.769737184047698975e-02
5.030000000000000000e+02 6.651110076904296875e+01 6.230039119720458984e+00 -2.766663134098052979e-01 4.992431640625000000e+00 1.414729595184326172e+00 1.198298096656799316e+00
5.040000000000000000e+02 6.622463989257812500e+01 9.586935043334960938e+00 1.592846870422363281e+00 4.790288925170898438e+00 1.914940714836120605e+00 2.637012481689453125e+00
5.050000000000000000e+02 7.940196228027343750e+01 -5.473190784454345703e+00 -3.543565049767494202e-02 8.024756431579589844e+00 2.396796226501464844e+00 1.150108277797698975e-01
5.060000000000000000e+02 7.816171264648437500e+01 -3.961860656738281250e+00 -8.583008497953414917e-02 7.982369899749755859e+00 2.368961811065673828e+00 2.001127451658248901e-01
5.070000000000000000e+02 7.424486541748046875e+01 1.729113698005676270e+00 -4.216163754463195801e-01 7.365550041198730469e+00 2.083180189132690430e+00 -2.267079800367355347e-01
5.080000000000000000e+02 7.559306335449218750e+01 3.330468654632568359e+00 -2.864332497119903564e-01 7.592439174652099609e+00 2.191801786422729492e+00 -4.014779627323150635e-01
5.090000000000000000e+02 7.123477172851562500e+01 5.666830539703369141e+00 -5.987939834594726562e-01 7.220008373260498047e+00 1.986364245414733887e+00 -1.962043195962905884e-01
5.100000000000000000e+02 6.689415740966796875e+01 8.246250152587890625e+00 1.570780724287033081e-01 6.126015663146972656e+00 1.884928107261657715e+00 1.726694107055664062e+00
5.110000000000000000e+02 6.590160369873046875e+01 7.453099727630615234e+00 2.461002320051193237e-01 4.175938606262207031e+00 1.326611638069152832e+00 1.551005840301513672e+00
5.120000000000000000e+02 7.937232208251953125e+01 -2.714740514755249023e+00 -3.859005495905876160e-02 8.380923271179199219e+00 2.502699851989746094e+00 4.780776798725128174e-02
5.130000000000000000e+02 7.807438659667968750e+01 2.042375952005386353e-01 -6.004370003938674927e-02 8.084957122802734375e+00 2.407474040985107422e+00 -6.414471566677093506e-02
5.140000000000000000e+02 7.680541229248046875e+01 1.732824802398681641e+00 -1.659293323755264282e-01 7.782073974609375000e+00 2.284843444824218750e+00 -2.291890382766723633e-01
5.150000000000000000e+02 7.935253906250000000e+01 8.506911277770996094e+00 5.669318139553070068e-03 6.903765678405761719e+00 2.072830438613891602e+00 -1.875479519367218018e-01
5.160000000000000000e+02 7.666024017333984375e+01 1.043218898773193359e+01 7.920245081186294556e-02 7.181705474853515625e+00 2.178272485733032227e+00 -7.017593979835510254e-01
5.170000000000000000e+02 7.942317962646484375e+01 1.545138931274414062e+01 -2.573240920901298523e-02 5.453793048858642578e+00 1.628418207168579102e+00 2.097059227526187897e-02
5.180000000000000000e+02 7.828645324707031250e+01 1.569960975646972656e+01 1.664330959320068359e-01 6.138872623443603516e+00 1.891591668128967285e+00 2.133587189018726349e-02
5.190000000000000000e+02 7.720819091796875000e+01 1.983618545532226562e+01 1.255256384611129761e-01 6.979506492614746094e+00 2.131509542465209961e+00 6.452251076698303223e-01
5.200000000000000000e+02 7.814273071289062500e+01 2.348402404785156250e+01 -8.009086363017559052e-03 7.418918132781982422e+00 2.223272800445556641e+00 5.124903917312622070e-01
5.210000000000000000e+02 7.773712158203125000e+01 2.622503662109375000e+01 -9.581553190946578979e-02 7.864783763885498047e+00 2.330690622329711914e+00 3.677787482738494873e-01
5.220000000000000000e+02 7.914540863037109375e+01 3.063505172729492188e+01 -4.978200793266296387e-02 8.537183761596679688e+00 2.546220541000366211e+00 3.000750392675399780e-02
5.230000000000000000e+02 7.744261932373046875e+01 3.364822006225585938e+01 -2.879429236054420471e-02 7.977319240570068359e+00 2.384557485580444336e+00 -7.795802503824234009e-02
5.240000000000000000e+02 7.708281707763671875e+01 3.716975402832031250e+01 -5.410257354378700256e-02 7.857998371124267578e+00 2.341168642044067383e+00 -2.070485651493072510e-01
5.250000000000000000e+02 7.510155487060546875e+01 4.034940338134765625e+01 1.171739846467971802e-01 7.171949863433837891e+00 2.186737060546875000e+00 1.529813930392265320e-02
5.260000000000000000e+02 7.877687835693359375e+01 4.011132812500000000e+01 -5.392994731664657593e-02 8.016843795776367188e+00 2.388874053955078125e+00 -1.260520964860916138e-01
5.270000000000000000e+02 7.317456054687500000e+01 3.579354476928710938e+01 7.619246840476989746e-03 6.634729385375976562e+00 1.992704629898071289e+00 -2.248097509145736694e-01
5.280000000000000000e+02 7.308148193359375000e+01 3.370966339111328125e+01 -1.015263125300407410e-01 6.653204917907714844e+00 1.965503573417663574e+00 -2.410052120685577393e-01
5.290000000000000000e+02 7.598502349853515625e+01 2.738121604919433594e+01 -2.954245507717132568e-01 7.747601032257080078e+00 2.235652923583984375e+00 3.016555309295654297e-01
5.300000000000000000e+02 7.507804107666015625e+01 2.394589424133300781e+01 -3.333255350589752197e-01 7.839334011077880859e+00 2.251802444458007812e+00 8.399593234062194824e-01
5.310000000000000000e+02 7.331221008300781250e+01 2.208045005798339844e+01 -1.811172366142272949e-01 8.103674888610839844e+00 2.376767396926879883e+00 9.822483658790588379e-01
5.320000000000000000e+02 7.439091491699218750e+01 1.490445995330810547e+01 8.784133195877075195e-01 7.897085189819335938e+00 2.632649421691894531e+00 -5.357436090707778931e-02
5.330000000000000000e+02 7.482434082031250000e+01 1.310562992095947266e+01 5.677883028984069824e-01 7.635705471038818359e+00 2.461048126220703125e+00 -4.178398251533508301e-01
5.340000000000000000e+02 7.452543640136718750e+01 3.615568637847900391e+00 -4.000595808029174805e-01 7.482288837432861328e+00 2.124668836593627930e+00 -3.750219345092773438e-01
5.350000000000000000e+02 7.807605743408203125e+01 3.047929763793945312e+00 -6.189061328768730164e-02 7.920854091644287109e+00 2.357689142227172852e+00 -2.583908438682556152e-01
5.360000000000000000e+02 7.187888336181640625e+01 4.116666793823242188e+01 2.205522507429122925e-01 6.158759593963623047e+00 1.913793563842773438e+00 -5.776054784655570984e-02
5.370000000000000000e+02 7.050844573974609375e+01 3.590406036376953125e+01 1.156043335795402527e-01 5.681871414184570312e+00 1.739242672920227051e+00 -3.295214474201202393e-01
5.380000000000000000e+02 7.106504058837890625e+01 3.129315757751464844e+01 -3.279699385166168213e-01 6.131159305572509766e+00 1.740956902503967285e+00 -4.407791197299957275e-01
5.390000000000000000e+02 7.231124114990234375e+01 2.789114761352539062e+01 -7.348037958145141602e-01 7.102738380432128906e+00 1.910380363464355469e+00 -1.137058809399604797e-01
5.400000000000000000e+02 6.986686706542968750e+01 2.288770675659179688e+01 -1.260993599891662598e+00 8.511391639709472656e+00 2.175119161605834961e+00 -2.953311204910278320e-01
5.410000000000000000e+02 7.247631835937500000e+01 1.930463027954101562e+01 8.560581803321838379e-01 8.605917930603027344e+00 2.838593006134033203e+00 9.224680662155151367e-01
5.420000000000000000e+02 7.009008026123046875e+01 1.540369224548339844e+01 1.017642378807067871e+00 1.105759525299072266e+01 3.622571229934692383e+00 5.807380080223083496e-01
5.430000000000000000e+02 7.274524688720703125e+01 1.181602668762207031e+01 6.855293512344360352e-01 8.222940444946289062e+00 2.672540903091430664e+00 -4.525186121463775635e-01
5.440000000000000000e+02 7.009916687011718750e+01 9.595640182495117188e+00 2.426078766584396362e-01 8.506417274475097656e+00 2.624707698822021484e+00 1.440195143222808838e-01
5.450000000000000000e+02 7.031106567382812500e+01 5.361923694610595703e+00 -6.595888733863830566e-01 7.066903114318847656e+00 1.922194242477416992e+00 7.316184043884277344e-02
5.460000000000000000e+02 6.743013763427734375e+01 4.124721527099609375e+01 4.373969733715057373e-01 4.765398502349853516e+00 1.560838699340820312e+00 -4.899901151657104492e-02
5.470000000000000000e+02 6.736892700195312500e+01 3.861908340454101562e+01 4.026190042495727539e-01 4.748985290527343750e+00 1.545481324195861816e+00 -1.858201920986175537e-01
5.480000000000000000e+02 6.746436309814453125e+01 3.588117218017578125e+01 2.706666588783264160e-01 4.767966747283935547e+00 1.511590003967285156e+00 -3.274016082286834717e-01
5.490000000000000000e+02 6.875122070312500000e+01 2.347036552429199219e+01 -1.267234325408935547e+00 7.155491828918457031e+00 1.766477227210998535e+00 -1.055345416069030762e+00
5.500000000000000000e+02 6.527576446533203125e+01 2.178580474853515625e+01 -1.459647536277770996e+00 9.810755848884582520e-01 -1.435715854167938232e-01 -4.915586709976196289e-01
5.510000000000000000e+02 6.656380462646484375e+01 2.116289901733398438e+01 5.896416306495666504e-01 2.820023536682128906e+00 1.022899508476257324e+00 -2.046933412551879883e+00
5.520000000000000000e+02 6.877925872802734375e+01 1.984616851806640625e+01 1.692714929580688477e+00 1.195398235321044922e+01 4.094009399414062500e+00 -1.202980995178222656e+00
5.530000000000000000e+02 6.848928833007812500e+01 1.825947189331054688e+01 1.647521853446960449e+00 1.461156272888183594e+01 4.877725124359130859e+00 -1.319741249084472656e+00
5.540000000000000000e+02 6.812870025634765625e+01 1.262573528289794922e+01 1.342654466629028320e+00 1.156933116912841797e+01 3.873595714569091797e+00 2.521507263183593750e+00
5.550000000000000000e+02 6.985891723632812500e+01 1.248552131652832031e+01 1.032108426094055176e+00 9.921336174011230469e+00 3.286033391952514648e+00 4.218314886093139648e-01
5.560000000000000000e+02 6.786336517333984375e+01 8.907445907592773438e+00 -1.453221142292022705e-01 7.356770038604736328e+00 2.163434267044067383e+00 9.981652498245239258e-01
5.570000000000000000e+02 6.363587951660156250e+01 3.828231811523437500e+01 5.210273265838623047e-01 3.736630439758300781e+00 1.277297377586364746e+00 -9.082917124032974243e-02
5.580000000000000000e+02 6.440075683593750000e+01 3.556747436523437500e+01 4.616426825523376465e-01 3.782261133193969727e+00 1.273171067237854004e+00 -2.414482086896896362e-01
5.590000000000000000e+02 6.568865966796875000e+01 3.023735618591308594e+01 1.840728893876075745e-02 3.841163873672485352e+00 1.157871365547180176e+00 -7.654622793197631836e-01
5.600000000000000000e+02 6.523380279541015625e+01 2.699807357788085938e+01 -4.931421875953674316e-01 3.268729686737060547e+00 8.326762914657592773e-01 -1.317000508308410645e+00
5.610000000000000000e+02 6.243055725097656250e+01 2.254688835144042969e+01 -3.405067682266235352e+00 6.635962426662445068e-02 -1.001612424850463867e+00 3.025766909122467041e-01
5.620000000000000000e+02 6.286529541015625000e+01 4.110055160522460938e+01 5.944480895996093750e-01 3.630025863647460938e+00 1.267342209815979004e+00 -3.163098916411399841e-02
5.630000000000000000e+02 6.029471206665039062e+01 3.743510818481445312e+01 5.308115482330322266e-01 3.083951234817504883e+00 1.084428787231445312e+00 1.550477296113967896e-01
5.640000000000000000e+02 5.928630828857421875e+01 3.348390960693359375e+01 4.696709215641021729e-01 2.555639266967773438e+00 9.075930714607238770e-01 3.737827241420745850e-01
5.650000000000000000e+02 6.225521850585937500e+01 2.909548759460449219e+01 1.624724566936492920e-01 2.041734218597412109e+00 6.612620353698730469e-01 -2.588163018226623535e-01
5.660000000000000000e+02 6.096084594726562500e+01 2.272241401672363281e+01 -3.747993469238281250e+00 -2.388553470373153687e-01 -1.196054577827453613e+00 2.044366747140884399e-01
5.670000000000000000e+02 5.948958587646484375e+01 2.266604042053222656e+01 -3.287009716033935547e+00 1.621678937226533890e-03 -9.856163859367370605e-01 -1.421043463051319122e-02
5.680000000000000000e+02 6.387485885620117188e+01 2.222444152832031250e+01 -2.710399389266967773e+00 1.028887927532196045e-02 -8.100331425666809082e-01 1.457104086875915527e-01
5.690000000000000000e+02 5.851521682739257812e+01 4.069800186157226562e+01 4.591591358184814453e-01 3.093329429626464844e+00 1.065746545791625977e+00 8.619835972785949707e-02
5.700000000000000000e+02 5.768658828735351562e+01 3.598802566528320312e+01 4.108546078205108643e-01 2.855106353759765625e+00 9.797883033752441406e-01 4.151571989059448242e-01
5.710000000000000000e+02 5.592239379882812500e+01 3.410820007324218750e+01 2.214135080575942993e-01 2.704119205474853516e+00 8.776598572731018066e-01 6.969804763793945312e-01
5.720000000000000000e+02 5.543372726440429688e+01 3.199589538574218750e+01 5.439459905028343201e-02 2.607798099517822266e+00 7.986577749252319336e-01 9.401183724403381348e-01
5.730000000000000000e+02 5.668881607055664062e+01 2.779007911682128906e+01 -1.728466898202896118e-01 1.868405699729919434e+00 5.086677074432373047e-01 1.329819560050964355e+00
5.740000000000000000e+02 5.471189498901367188e+01 2.326723289489746094e+01 -4.213333129882812500e-01 1.975383758544921875e+00 4.662151336669921875e-01 1.800943613052368164e+00
5.750000000000000000e+02 5.617428970336914062e+01 2.371319770812988281e+01 -8.398212194442749023e-01 1.042505741119384766e+00 6.080534681677818298e-02 1.305651545524597168e+00
5.760000000000000000e+02 5.531694793701171875e+01 3.869649505615234375e+01 2.650743722915649414e-01 2.927297115325927734e+00 9.577114582061767578e-01 2.645803987979888916e-01
5.770000000000000000e+02 5.352931594848632812e+01 3.527374267578125000e+01 -4.708325117826461792e-02 3.001831531524658203e+00 8.864244818687438965e-01 6.212302446365356445e-01
5.780000000000000000e+02 5.309829330444335938e+01 3.192039680480957031e+01 -2.699638009071350098e-01 3.041558265686035156e+00 8.314782977104187012e-01 1.035976648330688477e+00
5.790000000000000000e+02 5.259358596801757812e+01 2.793200492858886719e+01 -7.074455022811889648e-01 3.474387884140014648e+00 8.300827145576477051e-01 1.489688515663146973e+00
5.800000000000000000e+02 5.661741256713867188e+01 2.211588287353515625e+01 -1.537772774696350098e+00 2.923368215560913086e-01 -3.736307919025421143e-01 2.312570065259933472e-01
5.810000000000000000e+02 5.384510421752929688e+01 2.125418663024902344e+01 1.084888577461242676e+00 1.966238021850585938e+00 9.153379797935485840e-01 1.694439768791198730e+00
5.820000000000000000e+02 5.521768951416015625e+01 2.172958374023437500e+01 -4.135110676288604736e-01 6.125454902648925781e-01 5.971031635999679565e-02 7.086084485054016113e-01
5.830000000000000000e+02 5.177811431884765625e+01 4.037987136840820312e+01 1.471192482858896255e-02 3.032127857208251953e+00 9.140518903732299805e-01 1.628199815750122070e-01
5.840000000000000000e+02 5.064832687377929688e+01 3.651351165771484375e+01 -2.088746577501296997e-01 3.110844850540161133e+00 8.705910444259643555e-01 4.917647838592529297e-01
5.850000000000000000e+02 4.894103622436523438e+01 3.409627151489257812e+01 -4.712302088737487793e-01 3.353164911270141602e+00 8.645803928375244141e-01 5.542024970054626465e-01
5.860000000000000000e+02 4.802350234985351562e+01 3.022596740722656250e+01 -8.033385276794433594e-01 3.928123950958251953e+00 9.374356269836425781e-01 5.728961229324340820e-01
5.870000000000000000e+02 5.078399658203125000e+01 2.836419677734375000e+01 -7.687864899635314941e-01 3.824096441268920898e+00 9.165929555892944336e-01 1.193131923675537109e+00
5.880000000000000000e+02 5.126020431518554688e+01 2.404330062866210938e+01 -7.528322935104370117e-01 4.692987918853759766e+00 1.182046651840209961e+00 1.528131723403930664e+00
5.890000000000000000e+02 4.907125091552734375e+01 1.831266784667968750e+01 9.692690968513488770e-01 7.382113933563232422e+00 2.505414962768554688e+00 1.537935256958007812e+00
5.900000000000000000e+02 5.072649002075195312e+01 1.763652992248535156e+01 1.629732012748718262e+00 8.526981353759765625e+00 3.047013998031616211e+00 3.243831634521484375e+00
5.910000000000000000e+02 4.937048721313476562e+01 1.359311676025390625e+01 1.031325817108154297e+00 1.116759395599365234e+01 3.659676074981689453e+00 2.850389480590820312e+00
5.920000000000000000e+02 4.749641418457031250e+01 1.102629756927490234e+01 6.692408919334411621e-01 1.196156597137451172e+01 3.789242029190063477e+00 1.492599487304687500e+00
5.930000000000000000e+02 4.477500152587890625e+01 9.856617927551269531e+00 1.061154007911682129e+00 1.086003875732421875e+01 3.576357841491699219e+00 -2.241136580705642700e-01
5.940000000000000000e+02 4.150659561157226562e+01 1.037396717071533203e+01 1.683498978614807129e+00 8.044852256774902344e+00 2.918505430221557617e+00 -3.014055252075195312e+00
5.950000000000000000e+02 4.206467056274414062e+01 8.963068008422851562e+00 1.408545494079589844e+00 1.086564350128173828e+01 3.682256698608398438e+00 -2.943539619445800781e+00
5.960000000000000000e+02 4.329894256591796875e+01 7.561170101165771484e+00 9.849286079406738281e-01 1.137531757354736328e+01 3.708073854446411133e+00 -1.962065577507019043e+00
5.970000000000000000e+02 4.228840255737304688e+01 7.525113105773925781e+00 7.615548968315124512e-01 1.239932441711425781e+01 3.948263645172119141e+00 -1.965370774269104004e+00
5.980000000000000000e+02 4.722174835205078125e+01 4.048337554931640625e+01 -3.280091285705566406e-01 3.066371440887451172e+00 8.215086460113525391e-01 8.812614530324935913e-02
5.990000000000000000e+02 4.742386245727539062e+01 3.684477233886718750e+01 -3.830700814723968506e-01 3.187584400177001953e+00 8.413543105125427246e-01 2.432334870100021362e-01
6.000000000000000000e+02 4.658097076416015625e+01 3.261073303222656250e+01 -6.600615978240966797e-01 3.600645303726196289e+00 8.821750879287719727e-01 3.781130909919738770e-01
6.010000000000000000e+02 4.467785263061523438e+01 3.091578292846679688e+01 -7.506908774375915527e-01 3.767885446548461914e+00 9.051583409309387207e-01 1.047787368297576904e-01
6.020000000000000000e+02 4.485729980468750000e+01 2.767380905151367188e+01 -8.234809637069702148e-01 4.317592620849609375e+00 1.048233509063720703e+00 -2.220743708312511444e-02
6.030000000000000000e+02 4.708111953735351562e+01 2.511108398437500000e+01 -8.484292030334472656e-01 5.016048431396484375e+00 1.250285744667053223e+00 3.086166083812713623e-01
6.040000000000000000e+02 4.877197265625000000e+01 2.110065269470214844e+01 1.353504061698913574e-01 6.289469718933105469e+00 1.927446126937866211e+00 8.614138960838317871e-01
6.050000000000000000e+02 4.859386444091796875e+01 1.681491851806640625e+01 9.291917085647583008e-01 8.433623313903808594e+00 2.808844566345214844e+00 1.813075780868530273e+00
6.060000000000000000e+02 4.787864685058593750e+01 1.394403839111328125e+01 8.210978507995605469e-01 9.950284957885742188e+00 3.231414794921875000e+00 1.652505397796630859e+00
6.070000000000000000e+02 4.632080078125000000e+01 1.415813159942626953e+01 7.277438044548034668e-01 9.160056114196777344e+00 2.966340065002441406e+00 7.194776535034179688e-01
6.080000000000000000e+02 4.234833526611328125e+01 4.063689804077148438e+01 -4.219062328338623047e-01 2.862308740615844727e+00 7.321207523345947266e-01 -1.648176461458206177e-02
6.090000000000000000e+02 4.453400802612304688e+01 3.516960525512695312e+01 -5.333544015884399414e-01 3.239511013031005859e+00 8.118469715118408203e-01 1.146203428506851196e-01
6.100000000000000000e+02 4.263351821899414062e+01 3.268945312500000000e+01 -6.206443905830383301e-01 3.310341119766235352e+00 8.069089651107788086e-01 -1.120090857148170471e-01
6.110000000000000000e+02 4.131439590454101562e+01 3.051887893676757812e+01 -5.824114084243774414e-01 3.323305845260620117e+00 8.222683072090148926e-01 -3.468009531497955322e-01
6.120000000000000000e+02 4.191645050048828125e+01 2.757064819335937500e+01 -6.125540137290954590e-01 3.745300292968750000e+00 9.398238658905029297e-01 -4.848620295524597168e-01
6.130000000000000000e+02 4.210167312622070312e+01 2.195841026306152344e+01 -1.924279034137725830e-01 4.550840854644775391e+00 1.307523846626281738e+00 -8.675473928451538086e-01
6.140000000000000000e+02 4.170242309570312500e+01 1.859016227722167969e+01 2.787664234638214111e-01 4.871349334716796875e+00 1.545034766197204590e+00 -1.174050569534301758e+00
6.150000000000000000e+02 4.321626663208007812e+01 1.816165542602539062e+01 2.427461743354797363e-01 5.823705196380615234e+00 1.819935321807861328e+00 -8.513636589050292969e-01
6.160000000000000000e+02 4.206694030761718750e+01 1.385891914367675781e+01 8.694911003112792969e-01 6.400265216827392578e+00 2.180926799774169922e+00 -1.561826109886169434e+00
6.170000000000000000e+02 4.255981826782226562e+01 1.533648777008056641e+01 6.333133578300476074e-01 6.130432605743408203e+00 2.029123783111572266e+00 -1.174997568130493164e+00
6.180000000000000000e+02 4.137215423583984375e+01 3.713608551025390625e+01 -4.537165164947509766e-01 2.865450620651245117e+00 7.235202193260192871e-01 -7.490938156843185425e-02
6.190000000000000000e+02 3.992821121215820312e+01 3.411642074584960938e+01 -4.696251451969146729e-01 2.843878269195556641e+00 7.122759222984313965e-01 -2.514974176883697510e-01
6.200000000000000000e+02 3.888234710693359375e+01 3.154571914672851562e+01 -4.436402320861816406e-01 2.811975002288818359e+00 7.105004787445068359e-01 -4.517240822315216064e-01
6.210000000000000000e+02 3.810800170898437500e+01 2.742898178100585938e+01 -3.162152469158172607e-01 2.829940080642700195e+00 7.541174292564392090e-01 -7.869033217430114746e-01
6.220000000000000000e+02 4.079211425781250000e+01 2.284650993347167969e+01 -2.032686918973922729e-01 3.922551631927490234e+00 1.115784883499145508e+00 -1.005938649177551270e+00
6.230000000000000000e+02 4.022110366821289062e+01 1.927367591857910156e+01 2.967605888843536377e-01 3.945465803146362305e+00 1.272667884826660156e+00 -1.326669812202453613e+00
6.240000000000000000e+02 3.928459548950195312e+01 1.666392326354980469e+01 8.099289536476135254e-01 3.292023420333862305e+00 1.230585694313049316e+00 -1.638031482696533203e+00
6.250000000000000000e+02 3.558234405517578125e+01 1.684523200988769531e+01 8.851040601730346680e-01 9.908738732337951660e-01 5.627933740615844727e-01 -9.164140820503234863e-01
6.260000000000000000e+02 3.979292297363281250e+01 1.297859477996826172e+01 1.689758539199829102e+00 4.009643554687500000e+00 1.709820628166198730e+00 -2.239103555679321289e+00
6.270000000000000000e+02 3.869745254516601562e+01 1.397649574279785156e+01 1.520684361457824707e+00 2.534109354019165039e+00 1.216438055038452148e+00 -1.887170910835266113e+00
6.280000000000000000e+02 3.952521133422851562e+01 1.501720046997070312e+01 1.138669848442077637e+00 3.590606212615966797e+00 1.418782830238342285e+00 -1.836430907249450684e+00
6.290000000000000000e+02 3.759008026123046875e+01 4.100550460815429688e+01 -3.239547610282897949e-01 2.341244697570800781e+00 6.051869392395019531e-01 -4.755553230643272400e-02
6.300000000000000000e+02 3.738859939575195312e+01 3.798480987548828125e+01 -3.113768994808197021e-01 2.327068328857421875e+00 6.047074198722839355e-01 -1.790811270475387573e-01
6.310000000000000000e+02 3.670469284057617188e+01 3.501504898071289062e+01 -2.960538268089294434e-01 2.304970741271972656e+00 6.026750802993774414e-01 -3.268458843231201172e-01
6.320000000000000000e+02 3.600285339355468750e+01 3.222353363037109375e+01 -2.685908973217010498e-01 2.237226963043212891e+00 5.905908346176147461e-01 -4.948457479476928711e-01
6.330000000000000000e+02 3.589540863037109375e+01 2.738752174377441406e+01 -1.428983211517333984e-01 2.192498445510864258e+00 6.148800253868103027e-01 -8.085070848464965820e-01
6.340000000000000000e+02 3.646385574340820312e+01 2.347071647644042969e+01 2.217587269842624664e-02 2.303017616271972656e+00 6.975580453872680664e-01 -1.029076337814331055e+00
6.350000000000000000e+02 3.803218460083007812e+01 1.849852752685546875e+01 5.685861110687255859e-01 2.706232786178588867e+00 9.824456572532653809e-01 -1.350388646125793457e+00
6.360000000000000000e+02 3.452938079833984375e+01 1.780385780334472656e+01 6.677540540695190430e-01 7.449448704719543457e-01 4.238096773624420166e-01 -7.215554714202880859e-01
6.370000000000000000e+02 3.660983657836914062e+01 1.588452816009521484e+01 1.085047721862792969e+00 1.255502462387084961e+00 7.021650671958923340e-01 -1.171733140945434570e+00
6.380000000000000000e+02 3.756386184692382812e+01 1.676088905334472656e+01 9.110514521598815918e-01 2.173372268676757812e+00 9.253271222114562988e-01 -1.397383451461791992e+00
6.390000000000000000e+02 3.324741744995117188e+01 4.111336517333984375e+01 -1.309487670660018921e-01 1.709046840667724609e+00 4.734294116497039795e-01 -5.859179794788360596e-02
6.400000000000000000e+02 3.377843093872070312e+01 3.841634750366210938e+01 -1.645552217960357666e-01 1.839653968811035156e+00 5.025296211242675781e-01 -1.902078092098236084e-01
6.410000000000000000e+02 3.329847335815429688e+01 3.565893936157226562e+01 -1.368546038866043091e-01 1.768437504768371582e+00 4.894748628139495850e-01 -2.970411479473114014e-01
6.420000000000000000e+02 3.279980850219726562e+01 3.274869918823242188e+01 -8.720365166664123535e-02 1.619638800621032715e+00 4.597305655479431152e-01 -4.273131191730499268e-01
6.430000000000000000e+02 3.239041137695312500e+01 2.731317329406738281e+01 6.861094385385513306e-03 1.314575672149658203e+00 3.964310288429260254e-01 -6.629981994628906250e-01
6.440000000000000000e+02 3.396768951416015625e+01 2.386403083801269531e+01 8.222367614507675171e-02 1.491787195205688477e+00 4.722032546997070312e-01 -8.390427827835083008e-01
6.450000000000000000e+02 3.212508392333984375e+01 1.974645614624023438e+01 1.630585491657257080e-01 3.980817198753356934e-01 1.683420836925506592e-01 -3.724000751972198486e-01
6.460000000000000000e+02 3.350660705566406250e+01 2.128171539306640625e+01 2.020556777715682983e-01 1.070932149887084961e+00 3.818963766098022461e-01 -7.567534446716308594e-01
6.470000000000000000e+02 3.339672470092773438e+01 1.876148605346679688e+01 4.322408735752105713e-01 5.632316470146179199e-01 2.986417710781097412e-01 -5.331690311431884766e-01
6.480000000000000000e+02 3.070935630798339844e+01 3.955810165405273438e+01 -3.391055017709732056e-02 1.393503308296203613e+00 4.078778326511383057e-01 -1.013323366641998291e-01
6.490000000000000000e+02 2.994509124755859375e+01 3.644363784790039062e+01 1.339225657284259796e-02 1.221984982490539551e+00 3.706131577491760254e-01 -2.077719271183013916e-01
6.500000000000000000e+02 2.948561477661132812e+01 3.335998535156250000e+01 5.073480680584907532e-02 1.107109904289245605e+00 3.473533987998962402e-01 -3.229199647903442383e-01
6.510000000000000000e+02 2.909076881408691406e+01 3.034485054016113281e+01 7.113828510046005249e-02 8.957002162933349609e-01 2.900515496730804443e-01 -3.847577273845672607e-01
6.520000000000000000e+02 2.924862670898437500e+01 2.384017753601074219e+01 -1.544153224676847458e-02 3.894159495830535889e-01 1.121923252940177917e-01 -3.724072277545928955e-01
6.530000000000000000e+02 2.763937568664550781e+01 2.108888435363769531e+01 -4.975610673427581787e-01 1.846878789365291595e-02 -1.437276750802993774e-01 4.833089187741279602e-02
6.540000000000000000e+02 3.081240844726562500e+01 2.231468009948730469e+01 1.023437269032001495e-02 5.504796504974365234e-01 1.682142168283462524e-01 -4.526409506797790527e-01
6.550000000000000000e+02 2.709583091735839844e+01 4.070732879638671875e+01 7.661172747611999512e-02 9.717603921890258789e-01 3.145116269588470459e-01 -4.529717564582824707e-02
6.560000000000000000e+02 2.647708702087402344e+01 3.724169540405273438e+01 1.089252009987831116e-01 8.378183841705322266e-01 2.840230762958526611e-01 -1.419096738100051880e-01
6.570000000000000000e+02 2.610961341857910156e+01 3.399991607666015625e+01 1.294837146997451782e-01 6.798470020294189453e-01 2.427992075681686401e-01 -1.782986819744110107e-01
6.580000000000000000e+02 2.584689712524414062e+01 3.095766830444335938e+01 1.297330260276794434e-01 5.286622643470764160e-01 1.975186020135879517e-01 -2.084212303161621094e-01
6.590000000000000000e+02 2.525057792663574219e+01 2.558818244934082031e+01 -5.411688610911369324e-02 1.373775154352188110e-01 2.497819066047668457e-02 -1.473736912012100220e-01
6.600000000000000000e+02 2.637055969238281250e+01 2.310748672485351562e+01 -3.067867457866668701e-01 7.637526839971542358e-02 -6.912344694137573242e-02 -7.724955677986145020e-02
6.610000000000000000e+02 2.335558891296386719e+01 2.187844848632812500e+01 -8.014820814132690430e-01 -5.819016695022583008e-02 -2.579016685485839844e-01 2.376602962613105774e-02
6.620000000000000000e+02 2.622546386718750000e+01 2.143346405029296875e+01 -6.251554489135742188e-01 -1.511440798640251160e-02 -1.920809447765350342e-01 7.383890450000762939e-02
6.630000000000000000e+02 2.263849449157714844e+01 4.094418334960937500e+01 1.669394820928573608e-01 5.163847804069519043e-01 2.049972862005233765e-01 -1.205099374055862427e-02
6.640000000000000000e+02 2.271444702148437500e+01 3.773979187011718750e+01 1.613392382860183716e-01 4.941802620887756348e-01 1.966558396816253662e-01 -3.341151028871536255e-02
6.650000000000000000e+02 2.257258415222167969e+01 3.448991775512695312e+01 1.589473485946655273e-01 4.074402749538421631e-01 1.699162870645523071e-01 -5.861398950219154358e-02
6.660000000000000000e+02 2.254306221008300781e+01 3.127564430236816406e+01 1.295551806688308716e-01 2.852362394332885742e-01 1.244374290108680725e-01 -4.272882267832756042e-02
6.670000000000000000e+02 2.290670394897460938e+01 2.829414176940917969e+01 5.607954785227775574e-02 1.635048985481262207e-01 6.587533652782440186e-02 -3.283554688096046448e-02
6.680000000000000000e+02 2.331990051269531250e+01 2.366840934753417969e+01 -3.321014940738677979e-01 -5.740428715944290161e-02 -1.168517395853996277e-01 -2.444272115826606750e-02
6.690000000000000000e+02 2.189742660522460938e+01 2.179716682434082031e+01 -7.801085114479064941e-01 -9.528331458568572998e-02 -2.626175582408905029e-01 -8.818909525871276855e-02
6.700000000000000000e+02 1.836359977722167969e+01 4.099966812133789062e+01 1.692373454570770264e-01 2.333443760871887207e-01 1.207745149731636047e-01 7.669969927519559860e-03
6.710000000000000000e+02 1.910400199890136719e+01 3.805883407592773438e+01 1.730123907327651978e-01 2.663690447807312012e-01 1.318144202232360840e-01 1.646566949784755707e-02
6.720000000000000000e+02 1.887045097351074219e+01 3.491912841796875000e+01 1.522795110940933228e-01 2.165011465549468994e-01 1.106342002749443054e-01 4.317422583699226379e-02
6.730000000000000000e+02 1.938277244567871094e+01 2.695755004882812500e+01 -6.266124546527862549e-02 3.745943680405616760e-02 -7.560543250292539597e-03 1.126687228679656982e-01
6.740000000000000000e+02 2.022006988525390625e+01 2.328227615356445312e+01 -3.439247310161590576e-01 -5.499894265085458755e-03 -1.048273891210556030e-01 1.102992817759513855e-01
6.750000000000000000e+02 1.897725296020507812e+01 1.949825286865234375e+01 -1.708211004734039307e-01 -7.943763583898544312e-02 -7.507762312889099121e-02 -1.007170155644416809e-01
6.760000000000000000e+02 1.857835197448730469e+01 1.814972114562988281e+01 -2.360938861966133118e-02 -3.079650737345218658e-02 -1.632176898419857025e-02 -3.405816853046417236e-02
6.770000000000000000e+02 1.907362365722656250e+01 2.114038085937500000e+01 -3.162730634212493896e-01 -3.193154186010360718e-02 -1.044613867998123169e-01 -5.904550850391387939e-02
6.780000000000000000e+02 1.590695571899414062e+01 3.934213256835937500e+01 1.563469022512435913e-01 1.299400478601455688e-01 8.588609099388122559e-02 3.049525991082191467e-02
6.790000000000000000e+02 1.525637435913085938e+01 3.598262405395507812e+01 1.199782118201255798e-01 7.979017496109008789e-02 5.993051454424858093e-02 7.413618266582489014e-02
6.800000000000000000e+02 1.425346851348876953e+01 3.311702346801757812e+01 8.159329742193222046e-02 5.000520125031471252e-02 3.947954997420310974e-02 1.073090136051177979e-01
6.810000000000000000e+02 1.426616477966308594e+01 2.951134300231933594e+01 8.634266443550586700e-03 3.554254770278930664e-02 1.325304433703422546e-02 1.362266838550567627e-01
6.820000000000000000e+02 1.626482009887695312e+01 2.591748046875000000e+01 -1.078103780746459961e-01 6.116857752203941345e-02 -1.399254053831100464e-02 1.371956467628479004e-01
6.830000000000000000e+02 1.720696640014648438e+01 2.293986701965332031e+01 -2.353111952543258667e-01 5.400592833757400513e-02 -5.439158156514167786e-02 6.373805552721023560e-02
6.840000000000000000e+02 1.575809669494628906e+01 1.985486602783203125e+01 -1.438147425651550293e-01 3.737258538603782654e-02 -3.193264827132225037e-02 -9.321126155555248260e-03
6.850000000000000000e+02 1.700774383544921875e+01 1.533605480194091797e+01 -9.406468831002712250e-03 -3.153496189042925835e-03 -3.767989575862884521e-03 -9.505824185907840729e-03
6.860000000000000000e+02 1.699245643615722656e+01 1.381615352630615234e+01 -1.228519366122782230e-03 3.320588264614343643e-03 6.276206695474684238e-04 3.933467087335884571e-04
6.870000000000000000e+02 1.632797622680664062e+01 9.211766242980957031e+00 -2.330156712559983134e-04 2.411966677755117416e-03 6.536853034049272537e-04 3.627629717811942101e-03
6.880000000000000000e+02 1.687875556945800781e+01 6.866371631622314453e+00 -1.799521851353347301e-04 2.154235029593110085e-03 5.922848940826952457e-04 2.843198832124471664e-03
6.890000000000000000e+02 1.519576072692871094e+01 1.646795749664306641e+00 1.388448639772832394e-03 -1.148553128587082028e-04 3.820779675152152777e-04 9.273892501369118690e-04
6.900000000000000000e+02 1.362946319580078125e+01 1.220245003700256348e+00 2.054935554042458534e-03 -2.977397234644740820e-04 5.271587870083749294e-04 7.873744470998644829e-04
6.910000000000000000e+02 1.580670833587646484e+01 8.027755618095397949e-01 1.168534043245017529e-03 -2.067368041025474668e-05 3.443580935709178448e-04 6.017964915372431278e-04
6.920000000000000000e+02 1.720301628112792969e+01 5.777465105056762695e-01 6.721146637573838234e-04 9.850095375441014767e-05 2.311846910743042827e-04 4.422648053150624037e-04
6.930000000000000000e+02 1.908756637573242188e+01 1.202830910682678223e+00 2.645893546286970377e-04 2.888209128286689520e-04 1.660230773268267512e-04 3.009355859830975533e-04
6.940000000000000000e+02 1.950201225280761719e+01 6.862827301025390625e+00 -1.642749120946973562e-04 2.937682671472430229e-03 8.320223423652350903e-04 8.801543117442633957e-06
6.950000000000000000e+02 2.057757949829101562e+01 5.006017684936523438e+00 2.331012001377530396e-05 8.434815681539475918e-04 2.600374864414334297e-04 -1.101975940400734544e-04
6.960000000000000000e+02 1.916929435729980469e+01 8.151877403259277344e+00 -1.477973128203302622e-04 5.121435504406690598e-03 1.492091454565525055e-03 -4.309812793508172035e-04
6.970000000000000000e+02 1.755892562866210938e+01 9.395509719848632812e+00 -3.609615960158407688e-04 4.997600801289081573e-03 1.390991732478141785e-03 2.064286265522241592e-03
6.980000000000000000e+02 1.463012313842773438e+01 1.006056118011474609e+01 -1.556057133711874485e-03 -1.937650493346154690e-03 -1.048112288117408752e-03 2.354507334530353546e-03
6.990000000000000000e+02 1.206440448760986328e+01 4.068886947631835938e+01 1.118232980370521545e-01 1.021741796284914017e-02 3.661221265792846680e-02 2.166087925434112549e-02
7.000000000000000000e+02 1.169198989868164062e+01 3.718597030639648438e+01 8.964868634939193726e-02 -3.576142247766256332e-03 2.582176402211189270e-02 6.625482439994812012e-02
7.010000000000000000e+02 1.150154685974121094e+01 3.425196456909179688e+01 6.603258103132247925e-02 -8.345453068614006042e-03 1.730613783001899719e-02 9.677666425704956055e-02
7.020000000000000000e+02 1.160836315155029297e+01 2.971455574035644531e+01 1.535034389235079288e-03 6.934884935617446899e-03 2.540975809097290039e-03 1.260783225297927856e-01
7.030000000000000000e+02 1.335165596008300781e+01 2.661090660095214844e+01 -6.612929701805114746e-02 3.820843622088432312e-02 -8.376256562769412994e-03 1.313984394073486328e-01
7.040000000000000000e+02 1.247285270690917969e+01 2.273662757873535156e+01 -1.067440956830978394e-01 4.782903566956520081e-02 -1.767451874911785126e-02 7.401125878095626831e-02
7.050000000000000000e+02 1.129368877410888672e+01 1.855641937255859375e+01 -6.329464912414550781e-02 1.488414686173200607e-02 -1.452315039932727814e-02 1.615958102047443390e-02
7.060000000000000000e+02 1.137116241455078125e+01 1.631325531005859375e+01 -4.346750676631927490e-02 5.074908956885337830e-03 -1.151777897030115128e-02 1.656893873587250710e-04
7.070000000000000000e+02 1.295478916168212891e+01 1.257077312469482422e+01 -9.566543623805046082e-03 -5.206026136875152588e-03 -4.431771114468574524e-03 -1.307558035477995872e-03
7.080000000000000000e+02 1.373320388793945312e+01 1.099413299560546875e+01 -2.034217119216918945e-03 -4.748100414872169495e-03 -2.034695353358983994e-03 1.709541305899620056e-03
7.090000000000000000e+02 1.157685661315917969e+01 4.981986999511718750e+00 1.187326968647539616e-03 -1.663750852458178997e-03 -1.429271796951070428e-04 1.045461511239409447e-03
7.100000000000000000e+02 1.210694503784179688e+01 1.490565299987792969e+00 2.702149096876382828e-03 -3.526708169374614954e-04 7.048434927128255367e-04 6.286052521318197250e-04
7.110000000000000000e+02 1.296076107025146484e+01 2.058738946914672852e+00 2.097130753099918365e-03 -4.548715369310230017e-04 4.926777328364551067e-04 1.067071803845465183e-03
7.120000000000000000e+02 6.833286762237548828e+00 3.915629196166992188e+01 4.764249920845031738e-02 -1.240443810820579529e-01 -2.292056381702423096e-02 3.701092675328254700e-02
7.130000000000000000e+02 8.632990837097167969e+00 3.704644393920898438e+01 5.855679512023925781e-02 -7.382730394601821899e-02 -4.581153392791748047e-03 6.660529971122741699e-02
7.140000000000000000e+02 8.946522712707519531e+00 3.239445114135742188e+01 3.010851889848709106e-02 -4.799736663699150085e-02 -5.366654135286808014e-03 1.047113090753555298e-01
7.150000000000000000e+02 8.670402526855468750e+00 2.893801689147949219e+01 -1.443684939295053482e-02 -2.767992019653320312e-02 -1.263503078371286392e-02 1.132585704326629639e-01
7.160000000000000000e+02 8.459111213684082031e+00 2.567117309570312500e+01 -4.120113328099250793e-02 -1.137161348015069962e-02 -1.577182300388813019e-02 9.519695490598678589e-02
7.170000000000000000e+02 8.796920776367187500e+00 2.026227760314941406e+01 -4.968965426087379456e-02 7.660031784325838089e-03 -1.260888762772083282e-02 4.265683889389038086e-02
7.180000000000000000e+02 8.872939109802246094e+00 1.687461471557617188e+01 -3.641450777649879456e-02 3.962780814617872238e-03 -9.735518135130405426e-03 1.276100520044565201e-02
7.190000000000000000e+02 1.042910766601562500e+01 1.465285873413085938e+01 -2.601822838187217712e-02 -6.618194747716188431e-04 -8.004014380276203156e-03 4.003508656751364470e-04
7.200000000000000000e+02 7.725798606872558594e+00 1.075130271911621094e+01 -3.558229189366102219e-03 -4.174223635345697403e-03 -2.319735707715153694e-03 -6.402090657502412796e-04
7.210000000000000000e+02 8.666498184204101562e+00 5.190513610839843750e+00 9.688466670922935009e-04 -1.784848747774958611e-03 -2.448006416670978069e-04 -8.830889128148555756e-04
7.220000000000000000e+02 7.614418506622314453e+00 1.857015252113342285e+00 2.739611314609646797e-03 -3.094307321589440107e-04 7.290542125701904297e-04 -7.637144299224019051e-04
7.230000000000000000e+02 6.884673118591308594e+00 1.863434910774230957e+00 2.598371123895049095e-03 -1.000286720227450132e-04 7.495027384720742702e-04 -1.066804048605263233e-03
7.240000000000000000e+02 8.391963958740234375e+00 2.547320365905761719e+00 2.394807524979114532e-03 -4.943719832226634026e-04 5.701306508854031563e-04 -6.689167348667979240e-04
7.250000000000000000e+02 1.133561611175537109e+01 1.622745633125305176e+00 2.946467604488134384e-03 -2.700507757253944874e-04 8.029250311665236950e-04 4.022205248475074768e-04
7.260000000000000000e+02 5.246973991394042969e+00 3.799022674560546875e+01 2.967314049601554871e-02 -1.560963541269302368e-01 -3.792696073651313782e-02 4.096695408225059509e-02
7.270000000000000000e+02 7.500060558319091797e+00 4.123394012451171875e+01 5.039809644222259521e-02 -1.051587462425231934e-01 -1.642819494009017944e-02 1.726150698959827423e-02
7.280000000000000000e+02 6.447148323059082031e+00 3.617721176147460938e+01 2.811380475759506226e-02 -1.292104870080947876e-01 -3.032900206744670868e-02 5.917667225003242493e-02
7.290000000000000000e+02 6.971658706665039062e+00 3.423125076293945312e+01 3.465870395302772522e-02 -1.013459637761116028e-01 -2.000617608428001404e-02 8.328618854284286499e-02
7.300000000000000000e+02 6.959071159362792969e+00 2.895862007141113281e+01 -5.357351619750261307e-03 -5.325270444154739380e-02 -1.758301630616188049e-02 1.008291095495223999e-01
7.310000000000000000e+02 5.281072139739990234e+00 2.899498367309570312e+01 -4.237813409417867661e-03 -8.297172188758850098e-02 -2.616286091506481171e-02 8.402635157108306885e-02
7.320000000000000000e+02 6.229790687561035156e+00 2.304880142211914062e+01 -2.853441983461380005e-02 -2.015351504087448120e-02 -1.460637990385293961e-02 6.051742285490036011e-02
7.330000000000000000e+02 5.950147151947021484e+00 2.029584503173828125e+01 -2.477615699172019958e-02 -1.093665789812803268e-02 -1.071384456008672714e-02 3.734713047742843628e-02
7.340000000000000000e+02 5.614351272583007812e+00 1.764328002929687500e+01 -1.766370050609111786e-02 -5.982377100735902786e-03 -7.093823514878749847e-03 1.933567598462104797e-02
7.350000000000000000e+02 5.376842498779296875e+00 1.381514930725097656e+01 -8.213811554014682770e-03 -2.664293628185987473e-03 -3.263431601226329803e-03 3.068008460104465485e-03
7.360000000000000000e+02 5.432353973388671875e+00 1.133703994750976562e+01 -4.112689755856990814e-03 -1.781423692591488361e-03 -1.768234069459140301e-03 -8.926956797949969769e-04
7.370000000000000000e+02 4.573220729827880859e+00 7.198436737060546875e+00 2.726049278862774372e-04 -2.024621062446385622e-04 2.104284612869378179e-05 -2.802408998832106590e-03
7.380000000000000000e+02 3.971111774444580078e+00 1.892797231674194336e+00 1.388255623169243336e-03 2.146125625586137176e-04 4.808604717254638672e-04 -1.227792585268616676e-03
7.390000000000000000e+02 4.695176124572753906e+00 2.664227008819580078e+00 1.544918515719473362e-03 1.221692218678072095e-04 5.001263343729078770e-04 -1.653474639169871807e-03
7.400000000000000000e+02 6.156630992889404297e+00 1.871310472488403320e+00 2.216525841504335403e-03 -2.329930139239877462e-04 5.950598279014229774e-04 -1.006293459795415401e-03
7.410000000000000000e+02 1.875305771827697754e+00 3.709339523315429688e+01 9.660785435698926449e-04 -2.509996294975280762e-01 -7.501006126403808594e-02 2.453001029789447784e-02
7.420000000000000000e+02 2.111924886703491211e+00 3.338340759277343750e+01 4.355526063591241837e-03 -2.038141787052154541e-01 -5.983759462833404541e-02 3.499845042824745178e-02
7.430000000000000000e+02 2.192360877990722656e+00 3.049036216735839844e+01 8.434769115410745144e-04 -1.550168544054031372e-01 -4.625201225280761719e-02 4.116586595773696899e-02
7.440000000000000000e+02 2.082951307296752930e+00 2.618226623535156250e+01 -2.866459777578711510e-03 -8.739233762025833130e-02 -2.707763947546482086e-02 3.633665665984153748e-02
7.450000000000000000e+02 1.996528744697570801e+00 2.335304832458496094e+01 -4.024927038699388504e-03 -4.910350963473320007e-02 -1.593853160738945007e-02 2.643345855176448822e-02
7.460000000000000000e+02 1.898065924644470215e+00 1.914898109436035156e+01 -2.947785425931215286e-03 -1.171251945197582245e-02 -4.398091696202754974e-03 1.231404114514589310e-02
7.470000000000000000e+02 1.850197792053222656e+00 1.637583351135253906e+01 -1.661135582253336906e-03 2.435685019008815289e-04 -4.252701473888009787e-04 5.030533764511346817e-03
7.480000000000000000e+02 1.812074780464172363e+00 1.360774230957031250e+01 -4.879923362750560045e-04 4.871339071542024612e-03 1.315003959462046623e-03 6.816224777139723301e-04
7.490000000000000000e+02 1.790072083473205566e+00 1.085064792633056641e+01 2.711623092181980610e-04 5.281840916723012924e-03 1.665900927037000656e-03 -1.212886651046574116e-03
7.500000000000000000e+02 1.871730208396911621e+00 6.582306861877441406e+00 -4.323700268287211657e-04 2.842369722202420235e-03 7.229999173432588577e-04 -1.733545213937759399e-03
7.510000000000000000e+02 3.219392776489257812e+00 2.693308353424072266e+00 1.005109865218400955e-03 4.809463862329721451e-04 4.458168696146458387e-04 -1.392320380546152592e-03
7.520000000000000000e+02 4.388023316860198975e-01 2.192055702209472656e+00 -2.491452032700181007e-04 3.887426864821463823e-04 4.187925151200033724e-05 -2.009167801588773727e-04
7.530000000000000000e+02 7.860003113746643066e-01 4.002793502807617188e+01 5.509118083864450455e-03 -3.157624900341033936e-01 -9.307601302862167358e-02 -6.370836403220891953e-03
7.540000000000000000e+02 1.994140052795410156e+01 4.096456468105316162e-01 1.467903493903577328e-04 1.565663988003507257e-04 9.100703027797862887e-05 6.731764733558520675e-05
7.550000000000000000e+02 2.282767868041992188e+01 1.610400557518005371e+00 1.682811671344097704e-05 -3.411744910408742726e-05 -5.186799626244464889e-06 -2.462336487951688468e-05
7.560000000000000000e+02 2.146179771423339844e+01 3.983620882034301758e+00 -6.907479109941050410e-05 4.096863631275482476e-05 -8.431847163592465222e-06 3.612844921008218080e-07
7.570000000000000000e+02 2.231024742126464844e+01 1.423485994338989258e+00 1.586753205629065633e-05 -3.220091457478702068e-05 -4.900015028397319838e-06 1.494709795224480331e-05
7.580000000000000000e+02 1.856060409545898438e+01 1.091462612152099609e+01 -4.198513925075531006e-04 1.190131995826959610e-02 3.444440662860870361e-03 -2.416671632090583444e-04
7.590000000000000000e+02 1.839363288879394531e+01 1.235027694702148438e+01 1.002620672807097435e-03 1.530380267649888992e-02 4.891926888376474380e-03 4.910907009616494179e-04
7.600000000000000000e+02 1.832219314575195312e+01 1.525853538513183594e+01 1.025702105835080147e-03 1.604664698243141174e-02 5.121704656630754471e-03 -1.076260348781943321e-03
7.610000000000000000e+02 1.707376670837402344e+01 1.683601379394531250e+01 -2.112794481217861176e-02 -1.226605940610170364e-02 -1.001820154488086700e-02 -2.219327725470066071e-02
7.620000000000000000e+02 2.056387329101562500e+01 2.134451103210449219e+01 -4.937346577644348145e-01 -8.839966356754302979e-02 -1.746402978897094727e-01 -1.317717880010604858e-01
7.630000000000000000e+02 4.284988021850585938e+01 5.009741306304931641e+00 -5.775108337402343750e-01 9.722698211669921875e+00 2.743556022644042969e+00 -2.268136262893676758e+00
7.640000000000000000e+02 4.444365310668945312e+01 3.798247575759887695e+00 -6.447789669036865234e-01 1.977562332153320312e+01 5.739253520965576172e+00 -4.300798475742340088e-01
7.650000000000000000e+02 4.541083908081054688e+01 3.126562833786010742e+00 4.196139335632324219e+00 1.817340087890625000e+01 6.710861682891845703e+00 3.084421396255493164e+00
7.660000000000000000e+02 4.691819763183593750e+01 3.052615165710449219e+00 3.176649808883666992e+00 1.293530273437500000e+01 4.833585739135742188e+00 7.997069358825683594e-01
7.670000000000000000e+02 4.714885330200195312e+01 3.944792985916137695e+00 1.817353367805480957e+00 1.357279682159423828e+01 4.617044925689697266e+00 1.092851042747497559e+00
7.680000000000000000e+02 4.597098541259765625e+01 1.862778782844543457e+00 7.520485877990722656e+00 1.420561313629150391e+01 6.517829895019531250e+00 -5.077770352363586426e-01
7.690000000000000000e+02 4.552193069458007812e+01 1.341986179351806641e+00 7.025345325469970703e+00 1.589961528778076172e+01 6.877488613128662109e+00 -1.647740960121154785e+00
7.700000000000000000e+02 4.738999557495117188e+01 2.286543369293212891e+00 4.042193889617919922e+00 1.144978237152099609e+01 4.647592544555664062e+00 -7.632814645767211914e-01
7.710000000000000000e+02 4.738556671142578125e+01 1.280420660972595215e+00 4.256331920623779297e+00 1.056889343261718750e+01 4.447567462921142578e+00 -2.414984703063964844e+00
7.720000000000000000e+02 4.963583374023437500e+01 6.381852626800537109e-01 4.866829872131347656e+00 4.457510948181152344e+00 2.797302246093750000e+00 -3.414193153381347656e+00
7.730000000000000000e+02 5.251158905029296875e+01 2.711050212383270264e-03 6.032828330993652344e+00 -7.792884856462478638e-02 1.786469817161560059e+00 -1.745044253766536713e-02
7.740000000000000000e+02 5.141763305664062500e+01 2.716653794050216675e-02 6.723652839660644531e+00 1.334911942481994629e+00 2.417569398880004883e+00 -1.681159853935241699e+00
7.750000000000000000e+02 4.259821319580078125e+01 4.038866162300109863e-01 2.844173192977905273e+00 6.702241897583007812e+00 2.863924503326416016e+00 5.681700229644775391e+00
7.760000000000000000e+02 5.376050567626953125e+01 9.358674869872629642e-04 4.373610973358154297e+00 2.928801476955413818e-01 1.399947285652160645e+00 2.543133199214935303e-01
7.770000000000000000e+02 5.338784027099609375e+01 -1.241279840469360352e+00 3.689164400100708008e+00 4.429433345794677734e-01 1.239632368087768555e+00 -7.635956406593322754e-01
7.780000000000000000e+02 4.832389831542968750e+01 7.992413520812988281e+00 4.456524252891540527e-01 1.480654239654541016e+01 4.575658321380615234e+00 1.726220130920410156e+00
7.790000000000000000e+02 4.852680206298828125e+01 9.397671699523925781e+00 5.576455593109130859e-01 1.378047943115234375e+01 4.301437377929687500e+00 2.124958515167236328e+00
7.800000000000000000e+02 4.878031921386718750e+01 1.079509544372558594e+01 5.995959043502807617e-01 1.266201114654541016e+01 3.978482007980346680e+00 2.363033771514892578e+00
7.810000000000000000e+02 4.976443099975585938e+01 1.495815753936767578e+01 1.003002524375915527e+00 9.962015151977539062e+00 3.289505243301391602e+00 2.928495168685913086e+00
7.820000000000000000e+02 5.326602554321289062e+01 2.278177261352539062e+01 -3.743993639945983887e-01 3.673962831497192383e+00 9.898689985275268555e-01 2.150662422180175781e+00
7.830000000000000000e+02 5.134965133666992188e+01 1.880579185485839844e+01 2.081846714019775391e+00 7.209213733673095703e+00 2.787317991256713867e+00 3.278594732284545898e+00
7.840000000000000000e+02 3.056978034973144531e+01 -1.211611843109130859e+01 7.610833048820495605e-01 -9.630059450864791870e-02 1.994348168373107910e-01 -1.255264729261398315e-01
7.850000000000000000e+02 3.445023345947265625e+01 -2.785149955749511719e+01 1.994210958480834961e+00 4.505409717559814453e+00 1.949886202812194824e+00 2.496356487274169922e+00
7.860000000000000000e+02 2.533942794799804688e+01 -3.299806976318359375e+01 1.840337514877319336e-01 1.939880549907684326e-01 1.134065464138984680e-01 9.100549668073654175e-02
7.870000000000000000e+02 2.275600242614746094e+01 -3.368352127075195312e+01 1.491421461105346680e-01 1.766789555549621582e-01 9.774632751941680908e-02 -1.389978229999542236e-01
7.880000000000000000e+02 2.272847557067871094e+01 -3.836312103271484375e+01 2.336588948965072632e-01 5.388026237487792969e-01 2.317384630441665649e-01 -1.594379544258117676e-02
7.890000000000000000e+02 1.896414184570312500e+01 -3.090464591979980469e+01 4.399399831891059875e-02 2.636495530605316162e-01 9.229306876659393311e-02 -2.376385927200317383e-01
7.900000000000000000e+02 2.050448989868164062e+01 -3.175334358215332031e+01 1.929963380098342896e-02 2.084835618734359741e-01 6.833495944738388062e-02 -2.245965152978897095e-01
7.910000000000000000e+02 1.670318031311035156e+01 -3.162894439697265625e+01 2.989755570888519287e-02 2.938297688961029053e-01 9.711819887161254883e-02 -2.196854650974273682e-01
7.920000000000000000e+02 1.836405372619628906e+01 -2.858054351806640625e+01 2.714394927024841309e-01 2.512967586517333984e-01 1.568208634853363037e-01 -2.589148879051208496e-01
7.930000000000000000e+02 1.619222831726074219e+01 -2.674787139892578125e+01 3.234619796276092529e-01 3.759178519248962402e-01 2.098139524459838867e-01 -3.451199829578399658e-01
7.940000000000000000e+02 1.428500747680664062e+01 -2.471891784667968750e+01 3.770416378974914551e-01 4.888548552989959717e-01 2.597689628601074219e-01 -4.116242825984954834e-01
7.950000000000000000e+02 1.123038387298583984e+01 -1.584565830230712891e+01 -2.593719400465488434e-03 2.666438519954681396e-01 7.921503484249114990e-02 -6.285220384597778320e-02
7.960000000000000000e+02 1.225641536712646484e+01 -1.502426528930664062e+01 -2.674496965482831001e-03 1.822760105133056641e-01 5.388045683503150940e-02 3.832126967608928680e-03
7.970000000000000000e+02 1.237044525146484375e+01 -1.323916816711425781e+01 -1.286237780004739761e-02 8.318045735359191895e-02 2.109542489051818848e-02 -2.869221754372119904e-02
7.980000000000000000e+02 5.513595962524414062e+01 -8.543345451354980469e+00 -2.644002199172973633e+00 -2.124208658933639526e-01 -8.569269180297851562e-01 7.133321166038513184e-01
7.990000000000000000e+02 5.631673812866210938e+01 -9.197913169860839844e+00 -1.549285769462585449e+00 -3.121400475502014160e-01 -5.584277510643005371e-01 4.971331059932708740e-01
8.000000000000000000e+02 5.864341735839843750e+01 -1.042965793609619141e+01 -8.143129348754882812e-01 -1.006338894367218018e-01 -2.744840383529663086e-01 2.360480278730392456e-01
8.010000000000000000e+02 6.020302581787109375e+01 -9.686381340026855469e+00 -2.706569135189056396e-01 2.205705344676971436e-01 -1.502591464668512344e-02 -2.130125164985656738e-01
8.020000000000000000e+02 6.233971023559570312e+01 -1.148092079162597656e+01 -4.513252675533294678e-01 5.404083803296089172e-02 -1.191853284835815430e-01 -3.903495520353317261e-02
8.030000000000000000e+02 6.352314758300781250e+01 -1.157072925567626953e+01 6.118588447570800781e-01 6.077389121055603027e-01 3.658793270587921143e-01 -7.681514620780944824e-01
8.040000000000000000e+02 6.456891632080078125e+01 -1.106209087371826172e+01 9.885420203208923340e-01 2.203213930130004883e+00 9.575267434120178223e-01 -1.732318520545959473e+00
8.050000000000000000e+02 6.422698211669921875e+01 -6.664968967437744141e+00 2.385598570108413696e-01 3.069318532943725586e+00 9.923635125160217285e-01 -1.321259856224060059e+00
8.060000000000000000e+02 6.269357681274414062e+01 -7.887608528137207031e+00 3.105363249778747559e-01 1.682115674018859863e+00 5.977956056594848633e-01 -1.169618010520935059e+00
8.070000000000000000e+02 5.993908691406250000e+01 -7.186581134796142578e+00 1.401327401399612427e-01 6.857533454895019531e-01 2.477658241987228394e-01 -8.032845258712768555e-01
8.080000000000000000e+02 6.194763565063476562e+01 -4.538065910339355469e+00 6.214480996131896973e-01 1.558548569679260254e+00 6.539990305900573730e-01 -9.851476550102233887e-01
8.090000000000000000e+02 5.570563125610351562e+01 -7.455397129058837891e+00 -2.075182914733886719e+00 8.411876112222671509e-02 -5.973192453384399414e-01 -6.571628451347351074e-01
8.100000000000000000e+02 6.544330596923828125e+01 -1.214266014099121094e+01 2.119669914245605469e+00 3.196802854537963867e+00 1.594941854476928711e+00 -2.470252513885498047e+00
8.110000000000000000e+02 6.639913940429687500e+01 -1.302892780303955078e+01 3.099515914916992188e+00 5.477941989898681641e+00 2.573237419128417969e+00 -3.994830608367919922e+00
8.120000000000000000e+02 6.726536560058593750e+01 -9.890153884887695312e+00 -1.404986381530761719e-01 6.628885269165039062e+00 1.946515917778015137e+00 -1.668444633483886719e+00
8.130000000000000000e+02 6.832050323486328125e+01 -1.053349399566650391e+01 -3.144282698631286621e-01 7.742801666259765625e+00 2.228512048721313477e+00 -1.151983380317687988e+00
8.140000000000000000e+02 6.809846496582031250e+01 -1.172892761230468750e+01 2.910301089286804199e-01 8.043493270874023438e+00 2.500357151031494141e+00 -1.414606451988220215e+00
8.150000000000000000e+02 7.010876464843750000e+01 -1.703363609313964844e+01 2.044914007186889648e+00 1.178285312652587891e+01 4.148330211639404297e+00 -1.097335696220397949e+00
8.160000000000000000e+02 7.509577178955078125e+01 -1.753881835937500000e+01 8.567226529121398926e-01 7.695406913757324219e+00 2.565639019012451172e+00 -2.823991477489471436e-01
8.170000000000000000e+02 7.679887390136718750e+01 -1.877856063842773438e+01 4.508929252624511719e-01 6.962377071380615234e+00 2.223980903625488281e+00 -4.925314188003540039e-01
8.180000000000000000e+02 6.830829620361328125e+01 -1.583111286163330078e+01 2.078059434890747070e+00 1.543075180053710938e+01 5.252643585205078125e+00 -3.330199718475341797e+00
8.190000000000000000e+02 6.987549591064453125e+01 -1.579627799987792969e+01 2.321610927581787109e+00 1.143094539642333984e+01 4.125767230987548828e+00 -5.237281918525695801e-01
8.200000000000000000e+02 6.996289825439453125e+01 -1.890959930419921875e+01 1.848865509033203125e+00 1.303676795959472656e+01 4.465690135955810547e+00 -1.213356703519821167e-01
8.210000000000000000e+02 7.632201385498046875e+01 -2.179311943054199219e+01 3.052414059638977051e-01 7.675643444061279297e+00 2.394265413284301758e+00 -1.127358555793762207e+00
8.220000000000000000e+02 7.480261230468750000e+01 -2.059689140319824219e+01 7.664370536804199219e-01 8.089439392089843750e+00 2.656762838363647461e+00 -1.075794339179992676e+00
8.230000000000000000e+02 6.857151031494140625e+01 -1.857573509216308594e+01 3.510373532772064209e-01 1.563547325134277344e+01 4.795953273773193359e+00 -3.048774600028991699e-01
8.240000000000000000e+02 6.699775695800781250e+01 -2.288104057312011719e+01 1.462030768394470215e+00 5.288012027740478516e+00 2.025012731552124023e+00 2.882025718688964844e+00
8.250000000000000000e+02 6.784113311767578125e+01 -2.197408866882324219e+01 1.962817907333374023e+00 1.095350074768066406e+01 3.874895572662353516e+00 3.283172607421875000e+00
8.260000000000000000e+02 6.868810272216796875e+01 -2.349575042724609375e+01 -8.747310042381286621e-01 9.029008865356445312e+00 2.446283340454101562e+00 1.278306171298027039e-02
8.270000000000000000e+02 6.405301666259765625e+01 -2.763978385925292969e+01 -1.009561061859130859e+00 1.765861153602600098e+00 2.268900275230407715e-01 3.252592682838439941e-01
8.280000000000000000e+02 6.312379455566406250e+01 -2.871296882629394531e+01 -1.369322419166564941e+00 1.270879507064819336e+00 -2.953289821743965149e-02 2.064680904150009155e-01
8.290000000000000000e+02 6.045277023315429688e+01 -3.088285827636718750e+01 -1.508229494094848633e+00 1.563994139432907104e-01 -4.055490195751190186e-01 2.715503424406051636e-02
8.300000000000000000e+02 6.200818634033203125e+01 -2.994574928283691406e+01 -1.528075933456420898e+00 9.094651937484741211e-01 -1.855832338333129883e-01 1.181657686829566956e-01
8.310000000000000000e+02 6.849063873291015625e+01 1.684312438964843750e+01 -1.967327892780303955e-01 1.368012046813964844e+01 4.045016288757324219e+00 3.741880133748054504e-02
8.320000000000000000e+02 4.550909423828125000e+01 -1.352285593748092651e-01 1.827530503273010254e+00 1.455360126495361328e+01 4.914339542388916016e+00 -1.046864390373229980e+00
8.330000000000000000e+02 4.738388824462890625e+01 -2.125468730926513672e+00 5.748703479766845703e-01 8.777589797973632812e+00 2.805737972259521484e+00 -7.873978018760681152e-01
8.340000000000000000e+02 5.025883865356445312e+01 -7.708478927612304688e+00 -3.181781291961669922e+00 2.806711673736572266e+00 -1.125209182500839233e-01 1.074096918106079102e+00
8.350000000000000000e+02 4.358350753784179688e+01 -3.958809375762939453e+00 -1.362225413322448730e+00 9.199125289916992188e+00 2.351069927215576172e+00 2.148198366165161133e+00
8.360000000000000000e+02 4.635196304321289062e+01 -3.106076717376708984e+00 -8.160213828086853027e-01 9.560930252075195312e+00 2.623472690582275391e+00 3.748790621757507324e-01
8.370000000000000000e+02 4.650949478149414062e+01 -7.135955810546875000e+00 -2.850567340850830078e+00 8.179325103759765625e+00 1.598627328872680664e+00 1.183259487152099609e+00
8.380000000000000000e+02 4.960591125488281250e+01 -3.541040897369384766e+00 7.045840024948120117e-01 4.827713966369628906e+00 1.659689307212829590e+00 -4.793523252010345459e-01
8.390000000000000000e+02 5.037999343872070312e+01 -2.461554288864135742e+00 2.309035539627075195e+00 3.721903324127197266e+00 1.809281706809997559e+00 -1.035915613174438477e+00
8.400000000000000000e+02 5.432817840576171875e+01 -2.572402238845825195e+00 2.527416706085205078e+00 7.571164518594741821e-02 7.809385061264038086e-01 -1.059891700744628906e+00
8.410000000000000000e+02 6.072490692138671875e+01 1.447158575057983398e+00 7.616978883743286133e-01 5.957961678504943848e-01 4.072482287883758545e-01 1.562897562980651855e-01
8.420000000000000000e+02 5.695554733276367188e+01 1.326238155364990234e+00 1.113690376281738281e+00 1.250298600643873215e-02 3.378580212593078613e-01 2.616696655750274658e-01
8.430000000000000000e+02 5.655973434448242188e+01 -2.743597507476806641e+00 1.858548521995544434e+00 -1.940099895000457764e-01 4.993615746498107910e-01 -1.143777012825012207e+00
8.440000000000000000e+02 5.686312103271484375e+01 -8.098572731018066406e+00 -1.271998405456542969e+00 2.234243899583816528e-01 -3.145721852779388428e-01 -1.436053067445755005e-01
8.450000000000000000e+02 5.726155090332031250e+01 -2.065021276473999023e+00 2.007084608078002930e+00 -2.747615873813629150e-01 5.196968913078308105e-01 -9.203842282295227051e-01
8.460000000000000000e+02 6.281995010375976562e+01 -3.894341468811035156e+00 5.549942255020141602e-01 2.077594280242919922e+00 7.897765636444091797e-01 -8.727930784225463867e-01
8.470000000000000000e+02 6.836195373535156250e+01 -1.548631191253662109e+00 -3.856273889541625977e-01 5.371879100799560547e+00 1.495875477790832520e+00 -9.160014986991882324e-02
8.480000000000000000e+02 7.124806976318359375e+01 -3.965303182601928711e+00 -5.778223872184753418e-01 6.766729831695556641e+00 1.856672167778015137e+00 2.978671109303832054e-03
8.490000000000000000e+02 1.030868530273437500e+01 -5.396182060241699219e+00 -1.770566105842590332e-01 1.244109217077493668e-02 -4.938465729355812073e-02 -1.685579717159271240e-01
8.500000000000000000e+02 1.155980014801025391e+01 -2.168596982955932617e+00 -2.829293608665466309e-01 2.570199221372604370e-02 -7.716820389032363892e-02 -5.470742285251617432e-02
8.510000000000000000e+02 1.171831226348876953e+01 -5.012015342712402344e+00 -2.172539979219436646e-01 2.598507143557071686e-02 -5.738067999482154846e-02 -1.678643077611923218e-01
8.520000000000000000e+02 1.562487888336181641e+01 -6.310515880584716797e+00 -2.430581301450729370e-01 4.771500453352928162e-02 -5.860294029116630554e-02 -1.933705061674118042e-01
8.530000000000000000e+02 1.905152702331542969e+01 -4.753531932830810547e+00 -4.869541823863983154e-01 4.525053501129150391e-02 -1.325110942125320435e-01 -7.350346446037292480e-02
8.540000000000000000e+02 2.234969329833984375e+01 -4.797509670257568359e+00 -6.082863807678222656e-01 1.077636331319808960e-01 -1.501568257808685303e-01 4.060469195246696472e-02
8.550000000000000000e+02 2.698328781127929688e+01 -6.540832042694091797e+00 -9.562503099441528320e-01 4.080435261130332947e-02 -2.746337950229644775e-01 -1.998129338026046753e-01
8.560000000000000000e+02 2.845030593872070312e+01 -6.046667575836181641e+00 -1.400055170059204102e+00 -1.089692115783691406e-01 -4.527073204517364502e-01 -1.854938715696334839e-01
8.570000000000000000e+02 2.535937881469726562e+01 -5.780785083770751953e+00 -8.692259192466735840e-01 1.855103522539138794e-01 -2.051146775484085083e-01 3.173910826444625854e-02
8.580000000000000000e+02 3.500970077514648438e+01 -4.731410980224609375e+00 -2.528547048568725586e+00 -9.195831418037414551e-02 -7.861515879631042480e-01 -6.552316546440124512e-01
8.590000000000000000e+02 3.664132690429687500e+01 -5.509743690490722656e+00 -1.272733807563781738e+00 7.481889724731445312e-01 -1.573634743690490723e-01 3.330676555633544922e-01
8.600000000000000000e+02 3.631562423706054688e+01 -4.326429843902587891e+00 -2.160543203353881836e+00 4.548822343349456787e-02 -6.345164775848388672e-01 -3.835007846355438232e-01
8.610000000000000000e+02 3.887676620483398438e+01 -3.592680931091308594e+00 1.509411334991455078e-01 1.909294366836547852e+00 6.180706620216369629e-01 1.366415977478027344e+00
8.620000000000000000e+02 3.224620437622070312e+01 -5.419785022735595703e+00 -3.094649791717529297e+00 -1.930859684944152832e-01 -9.863206744194030762e-01 -3.674504160881042480e-01
8.630000000000000000e+02 3.824558639526367188e+01 -1.087079620361328125e+01 -4.258924350142478943e-02 3.836457490921020508e+00 1.138160467147827148e+00 5.041794180870056152e-01
8.640000000000000000e+02 3.494217681884765625e+01 -7.512762546539306641e+00 -7.049787640571594238e-01 5.630773901939392090e-01 -4.257040098309516907e-02 2.505404949188232422e-01
8.650000000000000000e+02 6.948303985595703125e+01 -8.368362426757812500e+00 -6.682466864585876465e-01 7.269292354583740234e+00 1.980313658714294434e+00 -4.598699808120727539e-01
8.660000000000000000e+02 7.013094329833984375e+01 -7.438035488128662109e+00 -5.708193778991699219e-01 7.182567119598388672e+00 1.983524322509765625e+00 -2.161410748958587646e-01
8.670000000000000000e+02 7.594001007080078125e+01 -6.311081886291503906e+00 -2.691284418106079102e-01 7.627773284912109375e+00 2.207593441009521484e+00 5.219427943229675293e-01
8.680000000000000000e+02 3.091972732543945312e+01 -5.366647720336914062e+00 -3.131881475448608398e+00 -2.236138731241226196e-01 -1.006648659706115723e+00 1.014643833041191101e-01
8.690000000000000000e+02 1.251830577850341797e+01 -1.162930965423583984e+01 5.316035076975822449e-02 1.411636639386415482e-02 2.018301561474800110e-02 -1.182682290673255920e-01
8.700000000000000000e+02 1.493578243255615234e+01 -9.291662216186523438e+00 5.769233219325542450e-03 3.670506179332733154e-02 1.274228841066360474e-02 -2.285567522048950195e-01
8.710000000000000000e+02 1.833047485351562500e+01 -1.047889804840087891e+01 1.834074258804321289e-01 1.338699907064437866e-01 9.518322348594665527e-02 -1.980433762073516846e-01
8.720000000000000000e+02 2.732400321960449219e+01 -1.130060100555419922e+01 3.658137023448944092e-01 -6.576586514711380005e-02 9.001435339450836182e-02 -3.139193952083587646e-01
8.730000000000000000e+02 2.925111579895019531e+01 -1.137688922882080078e+01 5.007642507553100586e-01 -1.550168544054031372e-01 1.037242263555526733e-01 -2.528232038021087646e-01
8.740000000000000000e+02 2.516166114807128906e+01 -1.000633907318115234e+01 -6.753977388143539429e-03 5.200997367501258850e-02 1.357679907232522964e-02 -3.299480378627777100e-01
8.750000000000000000e+02 3.333674240112304688e+01 -7.231270790100097656e+00 -1.126939296722412109e+00 -9.948416799306869507e-02 -3.679270148277282715e-01 -9.608325362205505371e-02
8.760000000000000000e+02 3.454330062866210938e+01 -8.850578308105468750e+00 -1.762504279613494873e-01 7.160457372665405273e-01 1.619385927915573120e-01 2.229069173336029053e-01
8.770000000000000000e+02 3.656944656372070312e+01 -1.400282001495361328e+01 6.651309728622436523e-01 2.595286369323730469e+00 9.781252145767211914e-01 -3.827004507184028625e-02
8.780000000000000000e+02 3.563235473632812500e+01 -1.000639533996582031e+01 1.394982486963272095e-01 1.496166229248046875e+00 4.906993508338928223e-01 3.848016560077667236e-01
8.790000000000000000e+02 4.345005035400390625e+01 -1.102959918975830078e+01 -7.823335528373718262e-01 8.138726234436035156e+00 2.206918001174926758e+00 5.884864330291748047e-01
8.800000000000000000e+02 4.080287933349609375e+01 -9.073230743408203125e+00 -1.173757791519165039e+00 6.045069217681884766e+00 1.461393356323242188e+00 1.020306468009948730e+00
8.810000000000000000e+02 7.039103698730468750e+01 -1.115990924835205078e+01 -1.109879240393638611e-01 8.722459793090820312e+00 2.583441495895385742e+00 -1.036927625536918640e-01
8.820000000000000000e+02 7.525805664062500000e+01 -1.081223487854003906e+01 -1.343779079616069794e-02 7.705931663513183594e+00 2.307748079299926758e+00 8.855808377265930176e-01
8.830000000000000000e+02 4.196650028228759766e+00 -1.148702812194824219e+01 -1.760596409440040588e-02 -1.919831037521362305e-01 -6.287672370672225952e-02 -1.750617623329162598e-01
8.840000000000000000e+02 2.734060859680175781e+01 -1.359896373748779297e+01 9.277436137199401855e-01 -6.124975159764289856e-03 2.764855921268463135e-01 -2.127610146999359131e-01
8.850000000000000000e+02 2.604383277893066406e+01 -1.463563632965087891e+01 1.142115235328674316e+00 1.093590864911675453e-03 3.429626524448394775e-01 -1.643293648958206177e-01
8.860000000000000000e+02 4.380827713012695312e+01 -1.433908557891845703e+01 9.541761875152587891e-01 8.749650001525878906e+00 2.911147832870483398e+00 8.526464104652404785e-01
8.870000000000000000e+02 3.782884979248046875e+01 -1.373483753204345703e+01 5.552650094032287598e-01 3.671487092971801758e+00 1.268025636672973633e+00 1.328058987855911255e-01
8.880000000000000000e+02 4.631953716278076172e+00 -1.640175437927246094e+01 2.436830475926399231e-02 -2.742131352424621582e-01 -7.495345175266265869e-02 -1.973423957824707031e-01
8.890000000000000000e+02 3.938619232177734375e+01 -1.658061790466308594e+01 7.471372485160827637e-01 5.426070213317871094e+00 1.851962327957153320e+00 4.617643952369689941e-01
8.900000000000000000e+02 4.509569168090820312e+01 -1.299415111541748047e+01 6.505436301231384277e-01 9.484142303466796875e+00 3.040405750274658203e+00 9.903939366340637207e-01
8.910000000000000000e+02 4.445043087005615234e+00 -1.785393714904785156e+01 3.495123982429504395e-02 -3.310703933238983154e-01 -8.883574604988098145e-02 -1.772697567939758301e-01
8.920000000000000000e+02 8.999729156494140625e+00 -1.732222747802734375e+01 6.592955440282821655e-02 1.546006053686141968e-01 6.615904718637466431e-02 -2.294870615005493164e-01
8.930000000000000000e+02 4.194440364837646484e+00 -2.186958503723144531e+01 6.277716904878616333e-02 -4.384720325469970703e-01 -1.127084642648696899e-01 -9.352261573076248169e-02
8.940000000000000000e+02 9.320492744445800781e+00 -2.015318870544433594e+01 1.705480068922042847e-01 2.102245241403579712e-01 1.142317578196525574e-01 -1.995871067047119141e-01
8.950000000000000000e+02 4.167081356048583984e+00 -2.425856399536132812e+01 5.462106689810752869e-02 -4.810354113578796387e-01 -1.279243081808090210e-01 -3.511398658156394958e-02
8.960000000000000000e+02 1.040616416931152344e+01 -2.519380378723144531e+01 1.501893550157546997e-01 2.676191329956054688e-01 1.253425478935241699e-01 -1.256695240736007690e-01
8.970000000000000000e+02 1.413568305969238281e+01 -2.694998168945312500e+01 2.021564245223999023e-01 3.856783509254455566e-01 1.763504296541213989e-01 -2.732649147510528564e-01
8.980000000000000000e+02 1.203904533386230469e+01 -2.671121597290039062e+01 1.323962807655334473e-01 3.319187760353088379e-01 1.392945200204849243e-01 -1.612823456525802612e-01
8.990000000000000000e+02 4.855986118316650391e+00 -2.688419342041015625e+01 3.556162118911743164e-02 -4.153736531734466553e-01 -1.139436066150665283e-01 -1.536002615466713905e-03
9.000000000000000000e+02 8.474594116210937500e+00 -2.726598930358886719e+01 6.316606700420379639e-02 -3.072682581841945648e-02 9.731773287057876587e-03 -3.499413654208183289e-02
9.010000000000000000e+02 6.249676227569580078e+00 -3.135165786743164062e+01 -1.036127377301454544e-02 -3.143861591815948486e-01 -9.742423146963119507e-02 1.659030839800834656e-02
9.020000000000000000e+02 1.000076007843017578e+01 -3.256312561035156250e+01 -1.339857280254364014e-02 -1.574917882680892944e-02 -8.744325488805770874e-03 -4.869249090552330017e-02
9.030000000000000000e+02 1.229030418395996094e+01 -3.052792549133300781e+01 7.747352588921785355e-03 1.794903725385665894e-01 5.617132037878036499e-02 -1.156220808625221252e-01
9.040000000000000000e+02 2.845793533325195312e+01 -3.485444641113281250e+01 2.850119173526763916e-01 9.896570444107055664e-01 3.824006915092468262e-01 5.730013251304626465e-01
9.050000000000000000e+02 3.324852371215820312e+01 -3.124112701416015625e+01 3.739139735698699951e-01 2.899470567703247070e+00 9.820153713226318359e-01 1.523958563804626465e+00
9.060000000000000000e+02 3.656093978881835938e+01 -3.168616867065429688e+01 -1.166754215955734253e-01 4.258905887603759766e+00 1.242669224739074707e+00 9.956486821174621582e-01
9.070000000000000000e+02 3.888326263427734375e+01 -2.965270042419433594e+01 1.263597905635833740e-01 5.109641075134277344e+00 1.570800304412841797e+00 8.265638947486877441e-01
9.080000000000000000e+02 4.106271743774414062e+01 -3.516388320922851562e+01 -9.415946602821350098e-01 4.351272583007812500e+00 1.022903323173522949e+00 4.812237992882728577e-02
9.090000000000000000e+02 4.666839599609375000e+01 -3.252909469604492188e+01 -9.668955206871032715e-01 4.040661811828613281e+00 9.221299290657043457e-01 -9.192971587181091309e-01
9.100000000000000000e+02 4.998072814941406250e+01 -2.927061462402343750e+01 -3.792101144790649414e-01 2.373686075210571289e+00 5.983428359031677246e-01 -1.206750869750976562e+00
9.110000000000000000e+02 6.440264892578125000e+01 -2.967363929748535156e+01 -1.233743429183959961e+00 2.572122812271118164e+00 4.015138149261474609e-01 6.488753557205200195e-01
9.120000000000000000e+02 6.854096984863281250e+01 -3.232090377807617188e+01 -8.033102154731750488e-01 5.501406192779541016e+00 1.409428834915161133e+00 4.619420766830444336e-01
9.130000000000000000e+02 7.176250457763671875e+01 -3.066976737976074219e+01 -8.755112886428833008e-01 7.409254550933837891e+00 1.960123062133789062e+00 -1.997233927249908447e-01
9.140000000000000000e+02 7.362564086914062500e+01 -3.322039413452148438e+01 -4.449520409107208252e-01 7.772279739379882812e+00 2.198198318481445312e+00 -2.244236022233963013e-01
9.150000000000000000e+02 4.835364913940429688e+01 -2.707314109802246094e+01 7.166910767555236816e-01 3.631678819656372070e+00 1.304510951042175293e+00 -1.905726790428161621e+00
9.160000000000000000e+02 4.363730621337890625e+01 -2.877796745300292969e+01 -2.571323215961456299e-01 5.538989543914794922e+00 1.584557175636291504e+00 5.683250725269317627e-02
9.170000000000000000e+02 2.236918258666992188e+01 -3.028386116027832031e+01 -1.193348914384841919e-01 4.007996991276741028e-02 -2.377647720277309418e-02 -6.299087405204772949e-02
9.180000000000000000e+02 1.714091300964355469e+01 -3.620454788208007812e+01 7.434389740228652954e-02 2.206678837537765503e-01 8.850353211164474487e-02 -1.581634730100631714e-01
9.190000000000000000e+02 3.469672393798828125e+01 -3.466387557983398438e+01 -4.149869382381439209e-01 3.409038543701171875e+00 8.982154726982116699e-01 9.060134291648864746e-01
9.200000000000000000e+02 5.807041931152343750e+01 -3.501490783691406250e+01 8.981985598802566528e-02 3.644530177116394043e-01 1.362818628549575806e-01 -2.061237990856170654e-01
9.210000000000000000e+02 7.153902435302734375e+01 -3.611113739013671875e+01 -2.719765007495880127e-01 6.583845138549804688e+00 1.893560528755187988e+00 1.198348999023437500e-01
9.220000000000000000e+02 7.432592010498046875e+01 -3.527285003662109375e+01 -2.974678874015808105e-01 7.921870708465576172e+00 2.287320852279663086e+00 -1.289062947034835815e-01
9.230000000000000000e+02 4.563443183898925781e+00 -3.681876754760742188e+01 6.125665095169097185e-05 -5.151870846748352051e-01 -1.545377522706985474e-01 -6.278314162045717239e-03
9.240000000000000000e+02 7.065014648437500000e+01 -2.274634742736816406e+01 6.006261110305786133e-01 1.010312747955322266e+01 3.211126089096069336e+00 -9.729241728782653809e-01
9.250000000000000000e+02 6.993057250976562500e+01 -2.010579681396484375e+01 2.064484119415283203e+00 1.147309398651123047e+01 4.061273097991943359e+00 -1.009705141186714172e-01
9.260000000000000000e+02 6.851112365722656250e+01 -1.994925689697265625e+01 1.585379123687744141e+00 1.599168586730957031e+01 5.273119449615478516e+00 1.283443570137023926e+00
9.270000000000000000e+02 7.132793426513671875e+01 -1.235803413391113281e+01 4.355428814888000488e-01 9.100798606872558594e+00 2.860902309417724609e+00 3.684319257736206055e-01
9.280000000000000000e+02 6.985511779785156250e+01 -1.459844779968261719e+01 1.531480073928833008e+00 1.126586341857910156e+01 3.839203119277954102e+00 -4.834215342998504639e-01
9.290000000000000000e+02 7.571846771240234375e+01 -1.361892795562744141e+01 4.079237282276153564e-01 7.428346157073974609e+00 2.350881099700927734e+00 6.747772693634033203e-01
9.300000000000000000e+02 7.430023193359375000e+01 3.529276847839355469e-01 -3.876939117908477783e-01 7.375952243804931641e+00 2.096477508544921875e+00 -8.723735064268112183e-02
9.310000000000000000e+02 7.184391784667968750e+01 2.652197122573852539e+00 -5.786243081092834473e-01 6.960445880889892578e+00 1.914546489715576172e+00 -8.448556065559387207e-02
9.320000000000000000e+02 7.025698089599609375e+01 2.893509626388549805e+00 -5.997120141983032227e-01 6.409860610961914062e+00 1.743044495582580566e+00 2.708042226731777191e-02
9.330000000000000000e+02 6.944168090820312500e+01 4.962600708007812500e+00 -5.847234725952148438e-01 6.501826286315917969e+00 1.775130748748779297e+00 2.475838214159011841e-01
9.340000000000000000e+02 7.935776519775390625e+01 7.104940414428710938e+00 -9.272180031985044479e-04 7.308797836303710938e+00 2.192361116409301758e+00 -1.922025978565216064e-01
9.350000000000000000e+02 7.686646270751953125e+01 4.654972076416015625e+00 -1.529250442981719971e-01 7.648612022399902344e+00 2.248706102371215820e+00 -4.926271438598632812e-01
9.360000000000000000e+02 7.803102111816406250e+01 1.018774032592773438e+01 6.612798571586608887e-02 6.796723842620849609e+00 2.058855533599853516e+00 -4.648965597152709961e-01
9.370000000000000000e+02 7.566698455810546875e+01 8.778481483459472656e+00 2.526650764048099518e-02 7.383925437927246094e+00 2.222757577896118164e+00 -7.981664538383483887e-01
9.380000000000000000e+02 7.125730133056640625e+01 1.096537113189697266e+01 5.325404405593872070e-01 8.746765136718750000e+00 2.783791542053222656e+00 -2.189874202013015747e-01
9.390000000000000000e+02 7.940483856201171875e+01 1.405786895751953125e+01 9.200888872146606445e-02 5.551583290100097656e+00 1.693077683448791504e+00 -8.348706364631652832e-02
9.400000000000000000e+02 7.666452789306640625e+01 1.191626071929931641e+01 2.342239618301391602e-01 6.987747669219970703e+00 2.166591405868530273e+00 -5.229546427726745605e-01
9.410000000000000000e+02 7.137754058837890625e+01 1.222814559936523438e+01 9.405440688133239746e-01 9.128299713134765625e+00 3.020653247833251953e+00 -3.163948655128479004e-01
9.420000000000000000e+02 7.943367767333984375e+01 1.684216117858886719e+01 7.335247844457626343e-02 5.530005455017089844e+00 1.681007385253906250e+00 5.773376300930976868e-02
9.430000000000000000e+02 7.706855773925781250e+01 1.463265514373779297e+01 3.226067125797271729e-01 6.713168144226074219e+00 2.110732555389404297e+00 -1.629906296730041504e-01
9.440000000000000000e+02 6.991957092285156250e+01 1.687209510803222656e+01 1.366968512535095215e+00 1.216253757476806641e+01 4.058851718902587891e+00 -3.016643524169921875e-01
9.450000000000000000e+02 7.827802276611328125e+01 1.986073303222656250e+01 3.457133844494819641e-02 6.655513286590576172e+00 2.007025241851806641e+00 4.887356758117675781e-01
9.460000000000000000e+02 7.563275909423828125e+01 2.030470275878906250e+01 2.597499787807464600e-01 7.435954570770263672e+00 2.308711290359497070e+00 8.780568242073059082e-01
9.470000000000000000e+02 7.047731018066406250e+01 2.109299468994140625e+01 2.037470638751983643e-01 9.537407875061035156e+00 2.922346353530883789e+00 5.482200384140014648e-01
9.480000000000000000e+02 4.791749572753906250e+01 2.302066802978515625e+01 -6.329763531684875488e-01 5.646693229675292969e+00 1.504114985466003418e+00 4.146977961063385010e-01
9.490000000000000000e+02 4.398624420166015625e+01 1.921258354187011719e+01 7.385864853858947754e-02 5.798469543457031250e+00 1.761698484420776367e+00 -5.910889506340026855e-01
9.500000000000000000e+02 3.628856658935546875e+01 2.110925483703613281e+01 2.527441978454589844e-01 2.084226369857788086e+00 7.010912299156188965e-01 -1.108385562896728516e+00
9.510000000000000000e+02 1.561336421966552734e+01 2.295516586303710938e+01 -1.747685074806213379e-01 7.251191139221191406e-02 -3.067697770893573761e-02 7.017805427312850952e-02
9.520000000000000000e+02 1.272093868255615234e+01 1.829739761352539062e+01 -7.792014628648757935e-02 2.105694077908992767e-02 -1.705896109342575073e-02 2.039553597569465637e-03
9.530000000000000000e+02 4.685188770294189453e+00 2.178643989562988281e+01 -1.740187034010887146e-02 -2.427572757005691528e-02 -1.250327937304973602e-02 4.246552661061286926e-02
9.540000000000000000e+02 4.287992954254150391e+00 1.637771415710449219e+01 -8.789190091192722321e-03 -4.793240223079919815e-03 -4.074729047715663910e-03 1.086296048015356064e-02
9.550000000000000000e+02 9.249565124511718750e+00 1.902363586425781250e+01 -5.045565217733383179e-02 7.420295383781194687e-03 -1.291060633957386017e-02 2.849081903696060181e-02
9.560000000000000000e+02 1.276227283477783203e+01 1.675662612915039062e+01 -4.922401160001754761e-02 6.747839506715536118e-03 -1.274285092949867249e-02 -4.052930045872926712e-03
9.570000000000000000e+02 3.854889297485351562e+01 1.749961090087890625e+01 7.196785807609558105e-01 2.902109146118164062e+00 1.086536288261413574e+00 -1.532273173332214355e+00
9.580000000000000000e+02 4.296159362792968750e+01 1.675224304199218750e+01 4.046981930732727051e-01 5.962510108947753906e+00 1.910162568092346191e+00 -1.006143569946289062e+00
9.590000000000000000e+02 4.742380142211914062e+01 1.873329734802246094e+01 4.490522742271423340e-01 7.050989151000976562e+00 2.250012397766113281e+00 7.159402370452880859e-01
9.600000000000000000e+02 6.388846039772033691e-01 2.057381820678710938e+01 -9.198212646879255772e-04 -1.676924340426921844e-02 -5.306719336658716202e-03 5.952888168394565582e-03
9.610000000000000000e+02 7.938778686523437500e+01 2.365447807312011719e+01 -6.426937878131866455e-02 7.470865726470947266e+00 2.221978902816772461e+00 1.948739588260650635e-01
9.620000000000000000e+02 7.654919433593750000e+01 2.110987091064453125e+01 1.218391582369804382e-01 7.377957344055175781e+00 2.249938964843750000e+00 8.286676406860351562e-01
9.630000000000000000e+02 7.198246002197265625e+01 2.218745613098144531e+01 -3.753645420074462891e-01 8.639576911926269531e+00 2.479263782501220703e+00 8.716861605644226074e-01
9.640000000000000000e+02 6.949818420410156250e+01 2.487322425842285156e+01 -1.418203711509704590e+00 7.177221298217773438e+00 1.727705240249633789e+00 -6.806411743164062500e-01
9.650000000000000000e+02 6.564712524414062500e+01 2.319941902160644531e+01 -1.080596327781677246e+00 2.514646768569946289e+00 4.302151203155517578e-01 -1.745606303215026855e+00
9.660000000000000000e+02 6.091869354248046875e+01 2.440895652770996094e+01 -1.396828413009643555e+00 1.289765238761901855e-01 -3.803555667400360107e-01 1.095515936613082886e-01
9.670000000000000000e+02 5.803842926025390625e+01 2.242806243896484375e+01 -2.414571523666381836e+00 6.558654457330703735e-02 -7.046954631805419922e-01 2.814119122922420502e-02
9.680000000000000000e+02 5.084531402587890625e+01 2.603369140625000000e+01 -9.873807430267333984e-01 4.425109863281250000e+00 1.031318783760070801e+00 1.336537241935729980e+00
9.690000000000000000e+02 4.188689422607421875e+01 2.442480087280273438e+01 -4.566937983036041260e-01 4.114738464355468750e+00 1.097413420677185059e+00 -7.437061667442321777e-01
9.700000000000000000e+02 3.783995056152343750e+01 2.220017051696777344e+01 8.179882168769836426e-02 2.788789272308349609e+00 8.611764311790466309e-01 -1.155939102172851562e+00
9.710000000000000000e+02 3.160563659667968750e+01 2.465084075927734375e+01 2.304679527878761292e-02 1.011081218719482422e+00 3.102384209632873535e-01 -6.594437360763549805e-01
9.720000000000000000e+02 3.040084457397460938e+01 2.395257568359375000e+01 1.562725380063056946e-02 7.096570134162902832e-01 2.175852805376052856e-01 -4.971531033515930176e-01
9.730000000000000000e+02 2.172628593444824219e+01 2.355752182006835938e+01 -3.086105585098266602e-01 -7.813834398984909058e-02 -1.160246655344963074e-01 6.445822864770889282e-02
9.740000000000000000e+02 1.987625503540039062e+01 2.515118980407714844e+01 -1.538399457931518555e-01 1.159811951220035553e-02 -4.267254471778869629e-02 1.158463880419731140e-01
9.750000000000000000e+02 1.695619201660156250e+01 2.452206802368164062e+01 -1.864482760429382324e-01 6.925835460424423218e-02 -3.515697270631790161e-02 1.174405738711357117e-01
9.760000000000000000e+02 1.384652042388916016e+01 2.472814941406250000e+01 -1.090904623270034790e-01 5.690034851431846619e-02 -1.565703377127647400e-02 1.112200841307640076e-01
9.770000000000000000e+02 8.896866798400878906e+00 2.258820915222167969e+01 -5.348323285579681396e-02 6.262429524213075638e-03 -1.416624151170253754e-02 6.730164587497711182e-02
9.780000000000000000e+02 4.806489467620849609e+00 2.319124794006347656e+01 -1.992366649210453033e-02 -3.275687992572784424e-02 -1.580416411161422729e-02 5.243553221225738525e-02
9.790000000000000000e+02 6.568439006805419922e-01 2.339576530456542969e+01 -1.543077989481389523e-03 -5.001688003540039062e-02 -1.546798739582300186e-02 9.657317772507667542e-03
9.800000000000000000e+02 7.920120239257812500e+01 2.780965805053710938e+01 -3.063570708036422729e-02 8.336697578430175781e+00 2.491818428039550781e+00 1.010029315948486328e-01
9.810000000000000000e+02 7.075097656250000000e+01 2.746322822570800781e+01 -8.419040441513061523e-01 6.819597721099853516e+00 1.793308138847351074e+00 -4.805829823017120361e-01
9.820000000000000000e+02 6.758712005615234375e+01 3.063488006591796875e+01 -1.940702944993972778e-01 4.816747188568115234e+00 1.386803150177001953e+00 -7.457865476608276367e-01
9.830000000000000000e+02 6.453397369384765625e+01 2.914358711242675781e+01 4.539662040770053864e-04 3.138910055160522461e+00 9.418092370033264160e-01 -8.357673883438110352e-01
9.840000000000000000e+02 6.054523468017578125e+01 2.856589508056640625e+01 2.134063392877578735e-01 1.521357059478759766e+00 5.204290151596069336e-01 1.698812395334243774e-01
9.850000000000000000e+02 5.598388290405273438e+01 2.983564949035644531e+01 -4.854369536042213440e-02 2.354974508285522461e+00 6.919292807579040527e-01 1.205542802810668945e+00
9.860000000000000000e+02 5.363844680786132812e+01 2.652687072753906250e+01 -6.373357176780700684e-01 3.031354665756225586e+00 7.182056903839111328e-01 1.689512491226196289e+00
9.870000000000000000e+02 5.042322540283203125e+01 3.130129814147949219e+01 -5.862787961959838867e-01 3.532748460769653320e+00 8.839409351348876953e-01 8.725911378860473633e-01
9.880000000000000000e+02 3.825518417358398438e+01 2.935006523132324219e+01 -3.888502418994903564e-01 2.834467172622680664e+00 7.336851358413696289e-01 -6.306291222572326660e-01
9.890000000000000000e+02 3.558193969726562500e+01 2.964365005493164062e+01 -1.971632838249206543e-01 2.143595695495605469e+00 5.839297175407409668e-01 -6.672460436820983887e-01
9.900000000000000000e+02 3.241941833496093750e+01 2.983359336853027344e+01 -3.263128548860549927e-02 1.463156580924987793e+00 4.291575849056243896e-01 -5.653093457221984863e-01
9.910000000000000000e+02 2.804886627197265625e+01 2.558540344238281250e+01 4.385710693895816803e-03 4.042476713657379150e-01 1.225900128483772278e-01 -3.547061979770660400e-01
9.920000000000000000e+02 1.927501106262207031e+01 2.882308006286621094e+01 3.785412386059761047e-02 9.289370477199554443e-02 3.922434896230697632e-02 9.197198599576950073e-02
9.930000000000000000e+02 6.835390329360961914e-01 2.622326087951660156e+01 -1.913003507070243359e-03 -9.742937237024307251e-02 -2.980271168053150177e-02 1.302648801356554031e-02
9.940000000000000000e+02 7.913941955566406250e+01 3.205768966674804688e+01 1.783312112092971802e-02 8.551820755004882812e+00 2.570896148681640625e+00 5.330961663275957108e-03
9.950000000000000000e+02 7.329412078857421875e+01 3.182568550109863281e+01 -2.228694409132003784e-01 6.865726470947265625e+00 1.992857098579406738e+00 -2.163389623165130615e-01
9.960000000000000000e+02 7.049233245849609375e+01 3.341320419311523438e+01 -7.462292909622192383e-02 5.833597660064697266e+00 1.727692484855651855e+00 -4.396679997444152832e-01
9.970000000000000000e+02 6.762159729003906250e+01 3.317836761474609375e+01 8.798111230134963989e-02 4.735546112060546875e+00 1.447058200836181641e+00 -5.267552733421325684e-01
9.980000000000000000e+02 6.166598892211914062e+01 3.465208053588867188e+01 5.165819525718688965e-01 3.007961273193359375e+00 1.057363033294677734e+00 3.905435651540756226e-02
9.990000000000000000e+02 1.092377090454101562e+01 3.207725524902343750e+01 4.364399984478950500e-02 -8.654071949422359467e-03 1.049697864800691605e-02 1.175683066248893738e-01
1.000000000000000000e+03 8.738499641418457031e+00 3.059182548522949219e+01 1.410034298896789551e-02 -3.733319416642189026e-02 -6.969856098294258118e-03 1.158524304628372192e-01
1.001000000000000000e+03 5.340003967285156250e+00 3.056402397155761719e+01 4.988015163689851761e-03 -9.609048068523406982e-02 -2.733073942363262177e-02 8.503585308790206909e-02
1.002000000000000000e+03 7.220649719238281250e-01 3.048139953613281250e+01 2.706595696508884430e-04 -1.838166862726211548e-01 -5.506381019949913025e-02 1.547309570014476776e-02
1.003000000000000000e+03 5.188329696655273438e+00 3.385808944702148438e+01 1.548853237181901932e-02 -1.360126137733459473e-01 -3.615722432732582092e-02 6.662847101688385010e-02
1.004000000000000000e+03 6.916620731353759766e-01 3.331760406494140625e+01 -1.342672039754688740e-03 -2.391202002763748169e-01 -7.213886082172393799e-02 1.325322780758142471e-02
1.005000000000000000e+03 7.935514068603515625e+01 3.749856185913085938e+01 -2.383724972605705261e-02 8.313792228698730469e+00 2.486986637115478516e+00 -4.979114606976509094e-02
1.006000000000000000e+03 7.541918945312500000e+01 3.565666961669921875e+01 -2.493480034172534943e-02 7.300331592559814453e+00 2.182619094848632812e+00 -1.267347931861877441e-01
1.007000000000000000e+03 7.092959594726562500e+01 3.851044082641601562e+01 2.188963443040847778e-01 5.857617855072021484e+00 1.822954177856445312e+00 -1.853860169649124146e-01
1.008000000000000000e+03 6.405355334281921387e-01 3.742322158813476562e+01 2.399892779067158699e-03 -3.115768730640411377e-01 -9.275308996438980103e-02 9.590075351297855377e-03
1.009000000000000000e+03 4.227789402008056641e+00 1.504726505279541016e+01 -7.625265512615442276e-03 -2.592617878690361977e-03 -3.065365133807063103e-03 5.497916135936975479e-03
1.010000000000000000e+03 7.852113723754882812e+00 1.417437076568603516e+01 -1.597644574940204620e-02 -2.960324753075838089e-03 -5.681030917912721634e-03 3.885606536641716957e-03
1.011000000000000000e+03 1.303614902496337891e+01 1.386624431610107422e+01 -1.525691151618957520e-02 -6.456854287534952164e-03 -6.514129694551229477e-03 -5.586178507655858994e-03
1.012000000000000000e+03 6.172606348991394043e-01 1.635606193542480469e+01 -8.718000608496367931e-04 6.860719062387943268e-03 1.796675729565322399e-03 1.445941394194960594e-03
1.013000000000000000e+03 4.264205932617187500e+00 9.819493293762207031e+00 -1.554980641230940819e-03 5.904852059757104144e-06 -4.647227178793400526e-04 -2.107922686263918877e-03
1.014000000000000000e+03 7.842750549316406250e+00 1.176202774047851562e+01 -7.584714330732822418e-03 -3.524307394400238991e-03 -3.332706633955240250e-03 -4.465015081223100424e-05
1.015000000000000000e+03 6.055620312690734863e-01 1.354796123504638672e+01 -8.083157008513808250e-04 1.018847431987524033e-02 2.814047504216432571e-03 -3.238165299990214407e-05
1.016000000000000000e+03 8.052000045776367188e+00 5.181528568267822266e+00 1.306583639234304428e-03 -1.675835694186389446e-03 -1.107756033889017999e-04 -1.224363455548882484e-03
1.017000000000000000e+03 1.274958324432373047e+01 8.549371719360351562e+00 -8.394633186981081963e-04 -3.326429054141044617e-03 -1.249767723493278027e-03 1.359827467240393162e-03
1.018000000000000000e+03 1.562289428710937500e+01 7.758583545684814453e+00 -2.227363293059170246e-04 9.244743851013481617e-04 2.105214080074802041e-04 3.333212574943900108e-03
1.019000000000000000e+03 6.058285236358642578e-01 9.334451675415039062e+00 5.622447934001684189e-04 7.137149572372436523e-03 2.309818286448717117e-03 -6.525269709527492523e-04
1.020000000000000000e+03 9.072810173034667969e+00 1.840447783470153809e+00 2.925474895164370537e-03 -2.258865570183843374e-04 8.098765392787754536e-04 -3.620564530137926340e-04
1.021000000000000000e+03 1.056246280670166016e+01 1.748512864112854004e+00 2.967813285067677498e-03 -2.497346722520887852e-04 8.154236129485070705e-04 2.030979230767115951e-04
1.022000000000000000e+03 2.001259803771972656e+01 3.959337711334228516e+00 -2.633799740578979254e-04 1.139554660767316818e-03 2.628524089232087135e-04 1.997758517973124981e-04
1.023000000000000000e+03 1.605205345153808594e+01 2.207825183868408203e+00 9.419997222721576691e-04 9.891690569929778576e-05 3.122749913018196821e-04 1.055483473464846611e-03
1.024000000000000000e+03 6.187858581542968750e-01 6.494565486907958984e+00 5.082290153950452805e-04 3.915610723197460175e-03 1.327151898294687271e-03 -6.571282865479588509e-04
1.025000000000000000e+03 4.815934371948242188e+01 5.162071704864501953e+00 8.039407432079315186e-02 1.379932689666748047e+01 4.163916587829589844e+00 1.101055145263671875e+00
1.026000000000000000e+03 4.486307144165039062e+01 -2.045940017700195312e+01 1.121664404869079590e+00 1.064117240905761719e+01 3.528850793838500977e+00 1.128825694322586060e-01
1.027000000000000000e+03 3.874395751953125000e+01 -2.031823158264160156e+01 8.108036518096923828e-01 5.675470829010009766e+00 1.945882320404052734e+00 1.179381966590881348e+00
1.028000000000000000e+03 4.617613983154296875e+01 -1.729326248168945312e+01 5.313563942909240723e-01 1.334055328369140625e+01 4.161572933197021484e+00 1.224172234535217285e+00
1.029000000000000000e+03 4.389079284667968750e+01 -2.329610824584960938e+01 1.293235182762145996e+00 7.775298595428466797e+00 2.720560073852539062e+00 5.111454129219055176e-01
1.030000000000000000e+03 8.582232475280761719e+00 -2.602754592895507812e+00 -1.633612364530563354e-01 6.875043734908103943e-03 -4.694585874676704407e-02 -7.899202406406402588e-02
1.031000000000000000e+03 4.114662933349609375e+01 -1.236117959022521973e+00 2.682264089584350586e+00 7.115103721618652344e+00 2.939210414886474609e+00 4.139318466186523438e+00
1.032000000000000000e+03 3.762285995483398438e+01 -3.973163366317749023e+00 -1.446137785911560059e+00 3.528503179550170898e-01 -3.279862403869628906e-01 9.495493024587631226e-02
1.033000000000000000e+03 3.366490173339843750e+01 -5.189181804656982422e+00 -2.919447898864746094e+00 -2.711331546306610107e-01 -9.571743011474609375e-01 -6.001944541931152344e-01
1.034000000000000000e+03 2.685950660705566406e+01 -2.780456781387329102e+00 -4.568187296390533447e-01 -1.964645832777023315e-01 -1.959849894046783447e-01 3.033484518527984619e-01
1.035000000000000000e+03 2.324800491333007812e+01 -3.259836196899414062e+00 -6.681127548217773438e-01 6.802403926849365234e-02 -1.800266206264495850e-01 1.206868141889572144e-01
1.036000000000000000e+03 2.239656066894531250e+01 -3.364825010299682617e+00 -6.726002693176269531e-01 5.125756934285163879e-02 -1.864028126001358032e-01 8.219172805547714233e-02
1.037000000000000000e+03 2.155969429016113281e+01 -3.415577888488769531e+00 -6.735625267028808594e-01 6.056861486285924911e-03 -2.002516984939575195e-01 4.565817862749099731e-02
1.038000000000000000e+03 1.831868743896484375e+01 -3.298108100891113281e+00 -6.147004365921020508e-01 -8.482890203595161438e-03 -1.869549900293350220e-01 -3.819585591554641724e-02
1.039000000000000000e+03 1.912202072143554688e+01 -3.357424259185791016e+00 -6.385440230369567871e-01 6.580329034477472305e-03 -1.895891129970550537e-01 -2.181803993880748749e-02
1.040000000000000000e+03 1.675040626525878906e+01 -3.086993932723999023e+00 -5.554943680763244629e-01 5.609527230262756348e-03 -1.649654656648635864e-01 -5.202527344226837158e-02
1.041000000000000000e+03 1.226865482330322266e+01 -2.294360160827636719e+00 -3.190784454345703125e-01 1.721498556435108185e-02 -9.055903553962707520e-02 -5.616630613803863525e-02
1.042000000000000000e+03 1.299190521240234375e+01 -2.424090385437011719e+00 -3.552277684211730957e-01 2.606999874114990234e-02 -9.874732792377471924e-02 -5.350374802947044373e-02
1.043000000000000000e+03 1.372949504852294922e+01 -2.556396722793579102e+00 -3.973325192928314209e-01 1.623452454805374146e-02 -1.143293976783752441e-01 -5.539160594344139099e-02
1.044000000000000000e+03 1.014674758911132812e+01 -1.939548254013061523e+00 -2.198152542114257812e-01 2.174038626253604889e-02 -5.942246317863464355e-02 -5.150982737541198730e-02
1.045000000000000000e+03 7.166538715362548828e+00 -1.849930644035339355e+00 -1.182079836726188660e-01 1.263914862647652626e-03 -3.508321940898895264e-02 -5.482955276966094971e-02
1.046000000000000000e+03 6.409411907196044922e+00 -1.843626499176025391e+00 -9.778382629156112671e-02 -5.382941570132970810e-03 -3.095003031194210052e-02 -5.310078337788581848e-02
1.047000000000000000e+03 7.922221183776855469e+00 -1.856936097145080566e+00 -1.401993483304977417e-01 1.412794343195855618e-03 -4.163596406579017639e-02 -5.481731519103050232e-02
1.048000000000000000e+03 4.158525466918945312e+00 -1.855635046958923340e+00 -4.727663844823837280e-02 -6.799580994993448257e-03 -1.622286625206470490e-02 -3.536440059542655945e-02
1.049000000000000000e+03 2.689628601074218750e+00 -1.928942322731018066e+00 -2.194728329777717590e-02 -1.249215193092823029e-02 -1.033183094114065170e-02 -2.304169721901416779e-02
1.050000000000000000e+03 1.950093746185302734e+00 -2.005294084548950195e+00 -1.288189645856618881e-02 -1.483547501266002655e-02 -8.315211161971092224e-03 -1.576454937458038330e-02
1.051000000000000000e+03 1.834263324737548828e+00 -5.137842178344726562e+00 -1.192817091941833496e-02 -6.722334027290344238e-02 -2.374545298516750336e-02 -4.715513810515403748e-02
1.052000000000000000e+03 1.188461899757385254e+00 -2.096763372421264648e+00 -5.243156570941209793e-03 -1.093564834445714951e-02 -4.853641614317893982e-03 -6.626214832067489624e-03
1.053000000000000000e+03 4.020732641220092773e-01 -2.180131435394287109e+00 -8.488857420161366463e-04 -6.264899857342243195e-04 -4.426127125043421984e-04 -2.017130609601736069e-03
1.054000000000000000e+03 8.213760256767272949e-01 -3.871398162841796875e+01 -6.657668389379978180e-03 -7.442233562469482422e-01 -2.252643108367919922e-01 1.394631993025541306e-02
1.055000000000000000e+03 8.715280890464782715e-01 -3.327798461914062500e+01 2.189657883718609810e-03 -8.277585506439208984e-01 -2.476706653833389282e-01 1.184483803808689117e-02
1.056000000000000000e+03 8.522884845733642578e-01 -3.184111404418945312e+01 -2.862259279936552048e-03 -8.466315269470214844e-01 -2.548481523990631104e-01 1.217893231660127640e-02
1.057000000000000000e+03 6.353912353515625000e-01 -2.617129516601562500e+01 6.459300639107823372e-04 -9.288457632064819336e-01 -2.784599661827087402e-01 5.294982343912124634e-03
1.058000000000000000e+03 1.780595541000366211e+00 -2.189543342590332031e+01 1.413541845977306366e-02 -7.306616902351379395e-01 -2.149578779935836792e-01 -4.627113044261932373e-02
1.059000000000000000e+03 1.854305267333984375e+00 -1.910831832885742188e+01 1.206559967249631882e-02 -6.357413530349731445e-01 -1.871027350425720215e-01 -8.295347541570663452e-02
1.060000000000000000e+03 1.830185174942016602e+00 -1.188623428344726562e+01 -5.176659673452377319e-03 -3.117142021656036377e-01 -9.506726264953613281e-02 -9.933787584304809570e-02
1.061000000000000000e+03 1.743778586387634277e+00 -6.496698379516601562e+00 -7.721628528088331223e-03 -1.044647395610809326e-01 -3.365591168403625488e-02 -6.000136211514472961e-02
1.062000000000000000e+03 2.156062364578247070e+00 -2.998599052429199219e+00 -2.000973187386989594e-02 -2.495773881673812866e-02 -1.349024102091789246e-02 -3.192856535315513611e-02
1.063000000000000000e+03 7.917686462402343750e+01 3.879582595825195312e+01 -1.536412397399544716e-03 8.178068161010742188e+00 2.452959537506103516e+00 -7.118440419435501099e-02
1.064000000000000000e+03 7.778972625732421875e+01 3.818479537963867188e+01 -4.887090623378753662e-02 7.912732601165771484e+00 2.359158515930175781e+00 -1.723364144563674927e-01
1.065000000000000000e+03 7.929695892333984375e+01 3.483030700683593750e+01 -8.119219914078712463e-03 8.500470161437988281e+00 2.547705411911010742e+00 -3.474767506122589111e-02
1.066000000000000000e+03 7.916873168945312500e+01 2.921823883056640625e+01 -1.947051729075610638e-03 8.467601776123046875e+00 2.539696216583251953e+00 7.572005689144134521e-02
1.067000000000000000e+03 7.759463500976562500e+01 2.764785957336425781e+01 -1.383771449327468872e-01 7.970099449157714844e+00 2.349516868591308594e+00 2.987316846847534180e-01
1.068000000000000000e+03 7.791623687744140625e+01 2.482151412963867188e+01 -1.066417694091796875e-01 7.706607818603515625e+00 2.279989719390869141e+00 5.072101354598999023e-01
1.069000000000000000e+03 7.840139007568359375e+01 2.225882911682128906e+01 -7.504559308290481567e-02 7.184349060058593750e+00 2.132791042327880859e+00 4.985493421554565430e-01
1.070000000000000000e+03 7.943896484375000000e+01 1.962151527404785156e+01 5.902430787682533264e-02 6.079001426696777344e+00 1.841407775878906250e+00 1.540600210428237915e-01
1.071000000000000000e+03 7.833919525146484375e+01 1.845083618164062500e+01 1.339996904134750366e-01 6.344920158386230469e+00 1.943675875663757324e+00 3.302673101425170898e-01
1.072000000000000000e+03 7.811723327636718750e+01 1.295503044128417969e+01 1.444706022739410400e-01 6.341789722442626953e+00 1.945878028869628906e+00 -3.115553855895996094e-01
1.073000000000000000e+03 7.935278320312500000e+01 9.900797843933105469e+00 -1.517609972506761551e-02 6.504927158355712891e+00 1.946925282478332520e+00 -1.942894309759140015e-01
1.074000000000000000e+03 7.805451202392578125e+01 8.773321151733398438e+00 -1.186922751367092133e-02 7.062313079833984375e+00 2.115133285522460938e+00 -5.276621580123901367e-01
1.075000000000000000e+03 7.810169982910156250e+01 5.917119979858398438e+00 -5.505970865488052368e-02 7.562661647796630859e+00 2.252280712127685547e+00 -4.294984638690948486e-01
1.076000000000000000e+03 7.807009124755859375e+01 1.619559407234191895e+00 -9.247604757547378540e-02 8.029178619384765625e+00 2.381010770797729492e+00 -1.484990715980529785e-01
1.077000000000000000e+03 7.935512542724609375e+01 7.562820613384246826e-02 -4.196634143590927124e-02 8.441321372985839844e+00 2.519806623458862305e+00 -1.763096824288368225e-02
1.078000000000000000e+03 7.808634948730468750e+01 -1.207207679748535156e+00 -9.018084406852722168e-02 8.097994804382324219e+00 2.402344226837158203e+00 3.714859858155250549e-02
1.079000000000000000e+03 7.820865631103515625e+01 -5.302651882171630859e+00 -6.129065528512001038e-02 7.854513645172119141e+00 2.337966918945312500e+00 2.920302748680114746e-01
1.080000000000000000e+03 7.940920257568359375e+01 -6.851049900054931641e+00 3.238432109355926514e-03 7.721638679504394531e+00 2.317463159561157227e+00 1.450278759002685547e-01
1.081000000000000000e+03 7.823942565917968750e+01 -7.995851516723632812e+00 -4.463480785489082336e-02 7.431695938110351562e+00 2.216118335723876953e+00 4.549304544925689697e-01
1.082000000000000000e+03 7.828340148925781250e+01 -1.199061012268066406e+01 2.660007402300834656e-02 6.569349288940429688e+00 1.978784799575805664e+00 5.148921608924865723e-01
1.083000000000000000e+03 7.708672332763671875e+01 -1.293707466125488281e+01 1.570552736520767212e-01 6.903893947601318359e+00 2.118284702301025391e+00 6.517111659049987793e-01
1.084000000000000000e+03 7.935891723632812500e+01 -1.651694107055664062e+01 2.666069753468036652e-02 5.155797004699707031e+00 1.554737329483032227e+00 2.738835103809833527e-02
1.085000000000000000e+03 7.804850006103515625e+01 -1.754826354980468750e+01 1.992411762475967407e-01 6.146702289581298828e+00 1.903783082962036133e+00 -1.314901262521743774e-01
1.086000000000000000e+03 7.825299835205078125e+01 -2.183421134948730469e+01 9.926506876945495605e-02 6.836239337921142578e+00 2.080651283264160156e+00 -6.989060640335083008e-01
1.087000000000000000e+03 7.940632629394531250e+01 -2.350638198852539062e+01 1.069326791912317276e-02 7.055663585662841797e+00 2.119907140731811523e+00 -3.021746575832366943e-01
1.088000000000000000e+03 7.931850433349609375e+01 -2.627133560180664062e+01 -1.893600635230541229e-02 8.352526664733886719e+00 2.500077009201049805e+00 -2.996096909046173096e-01
1.089000000000000000e+03 7.780101013183593750e+01 -2.872348213195800781e+01 -9.238116443157196045e-02 8.865445137023925781e+00 2.631919384002685547e+00 -6.257792115211486816e-01
1.090000000000000000e+03 7.926985168457031250e+01 -3.048959159851074219e+01 -7.353714201599359512e-03 9.708247184753417969e+00 2.910268068313598633e+00 -1.945291012525558472e-01
1.091000000000000000e+03 7.774709320068359375e+01 -3.296157455444335938e+01 -1.271323710680007935e-01 9.394674301147460938e+00 2.780262470245361328e+00 -2.307805418968200684e-01
1.092000000000000000e+03 7.923420715332031250e+01 -3.606560897827148438e+01 2.188421413302421570e-02 1.021700668334960938e+01 3.071667432785034180e+00 -9.169524535536766052e-03
1.093000000000000000e+03 7.633630371093750000e+01 -3.701979064941406250e+01 -1.671627908945083618e-01 9.034547805786132812e+00 2.660215616226196289e+00 -3.142061829566955566e-02
1.094000000000000000e+03 7.866672515869140625e+01 -4.010770797729492188e+01 -7.607247680425643921e-02 9.822316169738769531e+00 2.923873186111450195e+00 1.511646360158920288e-01
1.095000000000000000e+03 5.380806922912597656e-01 3.615463733673095703e+00 4.120350931771099567e-04 1.242724712938070297e-03 4.964279360137879848e-04 -4.193984786979854107e-04
1.096000000000000000e+03 1.751873731613159180e+00 5.102711677551269531e+00 6.635207682847976685e-04 1.874959911219775677e-03 7.615442154929041862e-04 -1.547424355521798134e-03
1.097000000000000000e+03 1.886162519454956055e+00 8.057367324829101562e+00 6.491863750852644444e-04 3.593800356611609459e-03 1.272895955480635166e-03 -1.793345203623175621e-03
1.098000000000000000e+03 5.988862514495849609e-01 1.074125289916992188e+01 -6.968571105971932411e-04 8.676034398376941681e-03 2.393753267824649811e-03 -6.569285178557038307e-04
1.099000000000000000e+03 1.795113801956176758e+00 1.222798061370849609e+01 -1.257707015611231327e-03 5.436212755739688873e-03 1.253551687113940716e-03 -8.058526436798274517e-04
1.100000000000000000e+03 1.830143451690673828e+00 1.499158954620361328e+01 -2.086704131215810776e-03 3.277907148003578186e-03 3.573608992155641317e-04 2.064872533082962036e-03
1.101000000000000000e+03 1.873404622077941895e+00 1.776079559326171875e+01 -3.117427462711930275e-03 -4.607335198670625687e-03 -2.317428821697831154e-03 7.708421908318996429e-03
1.102000000000000000e+03 6.698308587074279785e-01 2.480924797058105469e+01 1.346251956420019269e-04 -7.228653132915496826e-02 -2.164557203650474548e-02 1.107504684478044510e-02
1.103000000000000000e+03 6.980539560317993164e-01 2.763979530334472656e+01 7.043136865831911564e-04 -1.254442930221557617e-01 -3.742199391126632690e-02 1.416710019111633301e-02
1.104000000000000000e+03 2.172106266021728516e+00 2.904447937011718750e+01 -2.023713459493592381e-04 -1.324982941150665283e-01 -3.981019929051399231e-02 4.278732463717460632e-02
1.105000000000000000e+03 7.166050672531127930e-01 3.190307617187500000e+01 1.646661432459950447e-03 -2.123791575431823730e-01 -6.321974843740463257e-02 1.363035943359136581e-02
1.106000000000000000e+03 1.771971821784973145e+00 3.600956726074218750e+01 2.307786373421549797e-03 -2.481983155012130737e-01 -7.376715540885925293e-02 2.770444191992282867e-02
1.107000000000000000e+03 7.429266571998596191e-01 3.873356246948242188e+01 3.990960773080587387e-03 -3.222689628601074219e-01 -9.548339992761611938e-02 2.625861670821905136e-03
1.108000000000000000e+03 9.806523323059082031e+00 1.821791887283325195e+00 3.109885379672050476e-03 -1.828672393457964063e-04 8.781054057180881500e-04 -1.334974222118034959e-04
1.109000000000000000e+03 9.128970146179199219e+00 2.520668506622314453e+00 2.666665939614176750e-03 -4.748907813336700201e-04 6.575325387530028820e-04 -4.344514454714953899e-04
1.110000000000000000e+03 5.427854537963867188e+00 1.879358291625976562e+00 2.011248841881752014e-03 4.259129127603955567e-05 6.161520141176879406e-04 -1.288792234845459461e-03
1.111000000000000000e+03 3.243495464324951172e+00 1.901207089424133301e+00 8.635054691694676876e-04 1.298807619605213404e-04 2.980158606078475714e-04 -9.278632933273911476e-04
1.112000000000000000e+03 2.523360252380371094e+00 1.910602927207946777e+00 8.408118737861514091e-04 3.842810692731291056e-04 3.675278858281672001e-04 -9.565823711454868317e-04
1.113000000000000000e+03 1.192072749137878418e+00 2.025384664535522461e+00 4.322902168496511877e-05 3.442580054979771376e-04 1.162461048807017505e-04 -2.787738339975476265e-04
1.114000000000000000e+03 1.226196384429931641e+01 2.881514310836791992e+00 1.976830651983618736e-03 -7.094728644005954266e-04 3.802073188126087189e-04 1.124663162045180798e-03
1.115000000000000000e+03 1.287664031982421875e+01 1.355041742324829102e+00 2.486066194251179695e-03 -3.126711526419967413e-04 6.520185270346701145e-04 6.320193060673773289e-04
1.116000000000000000e+03 1.436384773254394531e+01 1.084603667259216309e+00 1.823215046897530556e-03 -1.870288542704656720e-04 4.908558912575244904e-04 6.877006962895393372e-04
1.117000000000000000e+03 1.718144989013671875e+01 1.233136057853698730e+00 5.685975775122642517e-04 7.498520426452159882e-05 1.930748258018866181e-04 7.149330922402441502e-04
1.118000000000000000e+03 1.650742912292480469e+01 6.768101453781127930e-01 8.324279333464801311e-04 -9.126778604695573449e-05 2.223480405518785119e-04 6.209239945746958256e-04
1.119000000000000000e+03 1.789785957336425781e+01 4.967796802520751953e-01 3.915653214789927006e-04 1.166198035207344219e-05 1.209681868203915656e-04 4.183685523457825184e-04
1.120000000000000000e+03 1.926860809326171875e+01 4.025873243808746338e-01 1.216791570186614990e-04 6.745196878910064697e-05 5.673933992511592805e-05 2.134456444764509797e-04
1.121000000000000000e+03 2.129378700256347656e+01 4.100379347801208496e-01 8.166813495336100459e-05 9.988137026084586978e-05 5.446485374704934657e-05 -4.026294118375517428e-05
1.122000000000000000e+03 2.332820701599121094e+01 6.920109987258911133e-01 1.982156391022726893e-05 -8.322502253577113152e-05 -1.902103758766315877e-05 6.624836260016309097e-06
1.123000000000000000e+03 2.394984436035156250e+01 8.754136562347412109e-01 3.760167601285502315e-05 1.532240457891020924e-05 1.587722363183274865e-05 2.671901347639504820e-05
1.124000000000000000e+03 2.216169166564941406e+01 2.249985933303833008e+00 2.443029006826691329e-05 3.828950502793304622e-05 1.881593925645574927e-05 -4.164598976785782725e-06
1.125000000000000000e+03 1.881870841979980469e+01 9.507048606872558594e+00 5.060370313003659248e-04 8.674556389451026917e-03 2.754178130999207497e-03 -1.709123171167448163e-04
1.126000000000000000e+03 1.831583786010742188e+01 1.380189895629882812e+01 -1.687385607510805130e-03 1.749676279723644257e-02 4.742813296616077423e-03 -2.374901232542470098e-04
1.127000000000000000e+03 1.838614273071289062e+01 1.671181106567382812e+01 -1.010882575064897537e-02 4.802658222615718842e-03 -1.591850188560783863e-03 -9.433715604245662689e-03
1.128000000000000000e+03 2.480305099487304688e+01 2.170281219482421875e+01 -6.984567642211914062e-01 -1.359551493078470230e-02 -2.136156708002090454e-01 7.135873287916183472e-02
1.129000000000000000e+03 2.908484077453613281e+01 2.074945068359375000e+01 -3.241761624813079834e-01 1.024480015039443970e-01 -6.651844829320907593e-02 -4.411857202649116516e-02
1.130000000000000000e+03 3.765196609497070312e+01 1.493568706512451172e+01 1.357097864151000977e+00 1.816722631454467773e+00 9.521461725234985352e-01 -1.475556492805480957e+00
1.131000000000000000e+03 4.073613357543945312e+01 1.176005077362060547e+01 1.617652416229248047e+00 5.477495193481445312e+00 2.128544330596923828e+00 -2.707159757614135742e+00
1.132000000000000000e+03 4.224919128417968750e+01 4.175835132598876953e+00 5.363391637802124023e-01 4.345496177673339844e+00 1.464550614356994629e+00 -1.821970105171203613e+00
1.133000000000000000e+03 4.357648086547851562e+01 3.783983945846557617e+00 -7.207458615303039551e-01 1.496916294097900391e+01 4.274525165557861328e+00 -4.235237121582031250e+00
1.134000000000000000e+03 4.304787063598632812e+01 3.967920064926147461e+00 1.633037030696868896e-01 9.057555198669433594e+00 2.766257762908935547e+00 -3.745197534561157227e+00
1.135000000000000000e+03 4.283010864257812500e+01 4.002035140991210938e+00 2.596593201160430908e-01 7.527056217193603516e+00 2.336014509201049805e+00 -3.447000980377197266e+00
1.136000000000000000e+03 4.171265029907226562e+01 4.859691560268402100e-01 2.719369173049926758e+00 4.423146724700927734e+00 2.142754793167114258e+00 3.156377315521240234e+00
1.137000000000000000e+03 4.214288711547851562e+01 6.524385809898376465e-01 2.805487632751464844e+00 3.488450050354003906e+00 1.888181328773498535e+00 3.966778278350830078e+00
1.138000000000000000e+03 4.234772491455078125e+01 6.428310275077819824e-01 2.741738319396972656e+00 4.335919380187988281e+00 2.123297214508056641e+00 4.396198749542236328e+00
1.139000000000000000e+03 4.254317092895507812e+01 6.540354490280151367e-01 3.082503080368041992e+00 5.463868618011474609e+00 2.563911437988281250e+00 5.207041740417480469e+00
1.140000000000000000e+03 4.291222381591796875e+01 5.477511286735534668e-01 2.993370056152343750e+00 8.672500610351562500e+00 3.499761343002319336e+00 6.413395881652832031e+00
1.141000000000000000e+03 4.312728500366210938e+01 4.784379601478576660e-01 2.489668846130371094e+00 1.043939495086669922e+01 3.878719091415405273e+00 6.896019935607910156e+00
1.142000000000000000e+03 6.763217163085937500e+01 2.036138534545898438e+01 1.826525807380676270e+00 9.194194793701171875e+00 3.306216001510620117e+00 -3.335654258728027344e+00
1.143000000000000000e+03 6.850562286376953125e+01 1.541458320617675781e+01 9.497364163398742676e-01 1.420436286926269531e+01 4.546229839324951172e+00 7.227106094360351562e-01
1.144000000000000000e+03 6.709792327880859375e+01 1.053712081909179688e+01 1.717727780342102051e+00 7.959192276000976562e+00 2.903075933456420898e+00 2.999485731124877930e+00
1.145000000000000000e+03 6.527113342285156250e+01 8.616022109985351562e+00 1.255178689956665039e+00 3.041034460067749023e+00 1.288863897323608398e+00 1.850604414939880371e+00
1.146000000000000000e+03 6.217192077636718750e+01 5.841906070709228516e+00 3.679262474179267883e-02 4.349849224090576172e-01 1.415332555770874023e-01 2.205550819635391235e-01
1.147000000000000000e+03 6.084735870361328125e+01 3.166580438613891602e+00 2.419626116752624512e-01 4.786463081836700439e-01 2.161826789379119873e-01 1.975511908531188965e-01
1.148000000000000000e+03 5.904232406616210938e+01 3.134475946426391602e+00 -1.405206974595785141e-02 -1.270631104707717896e-01 -4.233455285429954529e-02 -1.183570995926856995e-01
1.149000000000000000e+03 5.708087921142578125e+01 -3.944301903247833252e-01 2.198684692382812500e+00 -3.699840009212493896e-01 5.486102104187011719e-01 -4.638180732727050781e-01
1.150000000000000000e+03 4.712380981445312500e+01 8.187380790710449219e+00 6.085358262062072754e-01 1.332683849334716797e+01 4.180612087249755859e+00 1.000241160392761230e+00
1.151000000000000000e+03 4.905309677124023438e+01 1.219849777221679688e+01 7.804938554763793945e-01 1.201805019378662109e+01 3.839563131332397461e+00 2.602832078933715820e+00
1.152000000000000000e+03 2.116384124755859375e+01 -1.268873500823974609e+01 5.070928335189819336e-01 3.896507620811462402e-02 1.638173758983612061e-01 -2.420388013124465942e-01
1.153000000000000000e+03 2.482710647583007812e+01 -1.337810039520263672e+01 7.449991703033447266e-01 1.404653955250978470e-02 2.277137190103530884e-01 -2.462868094444274902e-01
1.154000000000000000e+03 2.869952201843261719e+01 -1.485614490509033203e+01 1.305635094642639160e+00 9.742516558617353439e-04 3.919827938079833984e-01 -1.547650843858718872e-01
1.155000000000000000e+03 3.253863143920898438e+01 -1.451764488220214844e+01 1.074238061904907227e+00 1.599366813898086548e-01 3.702524304389953613e-01 -1.009948253631591797e-01
1.156000000000000000e+03 3.609448242187500000e+01 -1.910559654235839844e+01 1.890540122985839844e-01 3.745821475982666016e+00 1.180462718009948730e+00 -1.467255800962448120e-01
1.157000000000000000e+03 3.616798019409179688e+01 -2.182358932495117188e+01 1.005833595991134644e-01 5.234314441680908203e+00 1.600469231605529785e+00 5.587284564971923828e-01
1.158000000000000000e+03 3.592887878417968750e+01 -2.455711746215820312e+01 1.138932585716247559e+00 7.132368087768554688e+00 2.481390237808227539e+00 2.120889663696289062e+00
1.159000000000000000e+03 3.339436721801757812e+01 -2.867649459838867188e+01 1.865378618240356445e+00 2.871159076690673828e+00 1.420961260795593262e+00 2.131553411483764648e+00
1.160000000000000000e+03 3.226133728027343750e+01 -2.947691535949707031e+01 1.550609230995178223e+00 1.831963777542114258e+00 1.014771938323974609e+00 1.536317586898803711e+00
1.161000000000000000e+03 2.528299903869628906e+01 -3.087707328796386719e+01 -2.376499474048614502e-01 -1.061038952320814133e-02 -7.447809725999832153e-02 2.819957584142684937e-02
1.162000000000000000e+03 2.379669761657714844e+01 -3.060400962829589844e+01 -2.156502008438110352e-01 5.259004980325698853e-02 -4.891804605722427368e-02 -1.038972521200776100e-03
1.163000000000000000e+03 2.098855590820312500e+01 -2.988494110107421875e+01 9.802308864891529083e-03 9.031483530998229980e-02 3.003514371812343597e-02 -1.059766560792922974e-01
1.164000000000000000e+03 1.722202682495117188e+01 -2.771560287475585938e+01 3.193658590316772461e-01 3.384678363800048828e-01 1.973501145839691162e-01 -3.109468221664428711e-01
1.165000000000000000e+03 1.253775691986083984e+01 -2.277133369445800781e+01 3.521645367145538330e-01 7.871865034103393555e-01 3.418053090572357178e-01 -4.245287179946899414e-01
1.166000000000000000e+03 1.170204925537109375e+01 -1.948557472229003906e+01 3.101972118020057678e-02 7.452407479286193848e-01 2.328781336545944214e-01 -1.284862607717514038e-01
1.167000000000000000e+03 1.411413955688476562e+01 -1.313677597045898438e+01 2.679795026779174805e-02 -4.668039269745349884e-03 6.638973020017147064e-03 2.573035424575209618e-03
1.168000000000000000e+03 5.746003341674804688e+01 -9.872309684753417969e+00 -9.229646325111389160e-01 -5.735488608479499817e-02 -2.940958440303802490e-01 4.110546708106994629e-01
1.169000000000000000e+03 6.230457305908203125e+01 -1.050052547454833984e+01 4.488970339298248291e-01 4.492796659469604492e-01 2.694530189037322998e-01 -7.217153906822204590e-01
1.170000000000000000e+03 6.725843048095703125e+01 -1.395822525024414062e+01 3.188200473785400391e+00 1.053578853607177734e+01 4.117196559906005859e+00 -4.502840042114257812e+00
1.171000000000000000e+03 6.854650115966796875e+01 -1.716614341735839844e+01 1.231222033500671387e+00 1.641343307495117188e+01 5.293396472930908203e+00 -1.504655838012695312e+00
1.172000000000000000e+03 6.515579223632812500e+01 -2.476938247680664062e+01 2.762618064880371094e-01 1.896150112152099609e+00 6.517235636711120605e-01 1.011844515800476074e+00
1.173000000000000000e+03 6.417743682861328125e+01 -2.570003128051757812e+01 -2.615722119808197021e-01 9.674621820449829102e-01 2.117669880390167236e-01 2.457305341958999634e-01
1.174000000000000000e+03 6.213174057006835938e+01 -2.755221557617187500e+01 -1.418563842773437500e+00 -1.416297554969787598e-01 -4.680580794811248779e-01 -7.266575098037719727e-01
1.175000000000000000e+03 6.103505706787109375e+01 -2.848482894897460938e+01 -2.212933063507080078e+00 -5.449996590614318848e-01 -8.273797631263732910e-01 -9.536385536193847656e-01
1.176000000000000000e+03 5.833278656005859375e+01 -2.975057029724121094e+01 -3.227778196334838867e+00 -4.185641705989837646e-01 -1.093902707099914551e+00 -8.112811446189880371e-01
1.177000000000000000e+03 4.919776153564453125e+01 -2.638733482360839844e+01 1.388080120086669922e+00 2.546100378036499023e+00 1.180254220962524414e+00 -1.734784483909606934e+00
1.178000000000000000e+03 4.825304412841796875e+01 -2.543155860900878906e+01 1.771059393882751465e+00 3.827354907989501953e+00 1.679524302482604980e+00 -2.644095182418823242e+00
1.179000000000000000e+03 4.607278442382812500e+01 -1.875416564941406250e+01 3.688827157020568848e-01 1.294712638854980469e+01 3.994802713394165039e+00 5.954883098602294922e-01
1.180000000000000000e+03 4.683294677734375000e+01 -1.458042049407958984e+01 1.053213715553283691e+00 1.363899803161621094e+01 4.407663822174072266e+00 3.027477025985717773e+00
1.181000000000000000e+03 4.840182495117187500e+01 -9.666184425354003906e+00 -1.269374608993530273e+00 5.491408348083496094e+00 1.266610145568847656e+00 1.348382472991943359e+00
1.182000000000000000e+03 5.123976135253906250e+01 2.013092041015625000e+01 1.417574167251586914e+00 6.213976860046386719e+00 2.289465427398681641e+00 2.389733552932739258e+00
1.183000000000000000e+03 4.250332260131835938e+01 4.628465652465820312e+00 2.154425084590911865e-01 6.066977024078369141e+00 1.884725809097290039e+00 -2.130240440368652344e+00
1.184000000000000000e+03 4.376693725585937500e+01 3.772825479507446289e+00 -9.928479790687561035e-01 1.609636306762695312e+01 4.531054973602294922e+00 -4.054638385772705078e+00
1.185000000000000000e+03 4.295298004150390625e+01 4.481470584869384766e+00 -2.484733611345291138e-01 9.856027603149414062e+00 2.882266283035278320e+00 -2.901115417480468750e+00
1.186000000000000000e+03 4.306605148315429688e+01 -1.305814832448959351e-02 2.082612991333007812e+00 1.035046195983886719e+01 3.729922294616699219e+00 5.921682357788085938e+00
1.187000000000000000e+03 4.479962158203125000e+01 1.630692631006240845e-01 1.244510531425476074e+00 1.697299957275390625e+01 5.465252876281738281e+00 8.008467555046081543e-01
1.188000000000000000e+03 4.272206115722656250e+01 6.255769729614257812e-01 3.230674505233764648e+00 6.842287540435791016e+00 3.021888494491577148e+00 5.955971717834472656e+00
1.189000000000000000e+03 4.324324417114257812e+01 3.894048690795898438e+00 2.164216339588165283e-02 1.114070987701416016e+01 3.348705768585205078e+00 -4.237648963928222656e+00
1.190000000000000000e+03 4.340793609619140625e+01 3.817043781280517578e+00 -5.824369937181472778e-02 1.255729579925537109e+01 3.749715805053710938e+00 -4.233791828155517578e+00
1.191000000000000000e+03 4.342544174194335938e+01 3.780207829549908638e-03 1.483907699584960938e+00 1.246726512908935547e+01 4.185351848602294922e+00 6.079716205596923828e+00
1.192000000000000000e+03 4.397555541992187500e+01 3.807761430740356445e+00 -1.343765974044799805e+00 1.726549339294433594e+01 4.776518344879150391e+00 -3.466686725616455078e+00
1.193000000000000000e+03 4.242873382568359375e+01 4.043547153472900391e+00 5.461196303367614746e-01 4.459088802337646484e+00 1.501562595367431641e+00 -2.317123413085937500e+00
1.194000000000000000e+03 4.194675445556640625e+01 6.920621991157531738e-01 1.971848130226135254e+00 3.192529439926147461e+00 1.549313306808471680e+00 3.470786571502685547e+00
1.195000000000000000e+03 4.176964569091796875e+01 7.515718340873718262e-01 6.358605623245239258e-01 2.508649349212646484e+00 9.433529376983642578e-01 2.507650852203369141e+00
1.196000000000000000e+03 2.197784423828125000e+01 4.476979374885559082e-01 -8.645699381304439157e-06 -2.416079587419517338e-05 -9.841948667599353939e-06 1.284390964428894222e-05
1.197000000000000000e+03 2.146440887451171875e+01 2.373927354812622070e+00 -2.426581704639829695e-05 -5.014209818909876049e-06 -8.784008059592451900e-06 -1.121700370276812464e-05
1.198000000000000000e+03 2.061590003967285156e+01 4.132077693939208984e-01 8.994948075269348919e-06 2.907539055740926415e-05 1.142110158980358392e-05 7.734447717666625977e-05
1.199000000000000000e+03 2.077675247192382812e+01 2.383553504943847656e+00 2.592659484434989281e-06 4.801442846655845642e-04 1.448210823582485318e-04 -1.501650967838941142e-05
1.200000000000000000e+03 2.168342018127441406e+01 1.391947627067565918e+00 8.893241465557366610e-05 1.250570785487070680e-04 6.419684359570965171e-05 -4.401360638439655304e-05
1.201000000000000000e+03 9.423639297485351562e+00 -1.878813385963439941e+00 -1.931539028882980347e-01 1.233200635761022568e-02 -5.424657091498374939e-02 -5.353602766990661621e-02
1.202000000000000000e+03 1.073186969757080078e+01 -2.754185199737548828e+00 -2.396413385868072510e-01 2.610501646995544434e-02 -6.406089663505554199e-02 -8.401675522327423096e-02
1.203000000000000000e+03 1.085247325897216797e+01 -2.049168109893798828e+00 -2.531841099262237549e-01 1.855711080133914948e-02 -7.038810104131698608e-02 -5.565962940454483032e-02
1.204000000000000000e+03 1.133909988403320312e+01 -3.534462213516235352e+00 -2.513627707958221436e-01 2.960657514631748199e-02 -6.652685254812240601e-02 -1.147141978144645691e-01
1.205000000000000000e+03 1.002619838714599609e+01 -2.676489353179931641e+00 -2.148240059614181519e-01 1.747255958616733551e-02 -5.920543149113655090e-02 -8.406567573547363281e-02
1.206000000000000000e+03 1.215047836303710938e+01 -2.982067346572875977e+00 -2.993352711200714111e-01 3.070697374641895294e-02 -8.058848232030868530e-02 -8.944824337959289551e-02
1.207000000000000000e+03 1.782540893554687500e+01 1.190185546875000000e+00 5.351491272449493408e-04 2.014744968619197607e-04 2.209871017839759588e-04 5.088649922981858253e-04
1.208000000000000000e+03 1.858819198608398438e+01 4.291952252388000488e-01 3.187830443494021893e-04 1.649719197303056717e-04 1.451264834031462669e-04 2.467420126777142286e-04
1.209000000000000000e+03 1.552462100982666016e+01 3.220710992813110352e+00 9.768365416675806046e-04 8.165823237504810095e-05 3.175484307575970888e-04 1.496854238212108612e-03
1.210000000000000000e+03 1.971439933776855469e+01 1.286819577217102051e+00 3.762295091291889548e-05 2.262713096570223570e-04 7.916827598819509149e-05 2.551258367020636797e-04
1.211000000000000000e+03 2.266463851928710938e+01 5.452118515968322754e-01 3.969830868300050497e-05 1.935285581566859037e-05 1.771535062289331108e-05 -5.532528666662983596e-05
1.212000000000000000e+03 2.324269866943359375e+01 1.964421391487121582e+00 -5.954154039500281215e-05 -1.183107160613872111e-04 -5.335567402653396130e-05 5.099676400277530774e-06
1.213000000000000000e+03 8.546219825744628906e+00 3.905964374542236328e+00 1.693896832875907421e-03 -1.078387955203652382e-03 1.846526429289951921e-04 -7.359448354691267014e-04
1.214000000000000000e+03 6.913885116577148438e+00 2.589628458023071289e+00 2.129818079993128777e-03 -4.321156011428683996e-04 5.093107465654611588e-04 -1.131723285652697086e-03
1.215000000000000000e+03 4.713322162628173828e+00 3.459457874298095703e+00 1.101391972042620182e-03 -2.496553133823908865e-05 3.229279536753892899e-04 -1.611533225513994694e-03
1.216000000000000000e+03 2.478308200836181641e+00 2.724217891693115234e+00 4.675606614910066128e-04 4.500745271798223257e-04 2.752905420493334532e-04 -9.674674947746098042e-04
1.217000000000000000e+03 6.976470947265625000e+00 3.310022115707397461e+00 1.946903415955603123e-03 -5.240799509920179844e-04 4.268470511306077242e-04 -1.435205456800758839e-03
1.218000000000000000e+03 8.343972206115722656e+00 1.850525498390197754e+00 3.035130212083458900e-03 -1.701936998870223761e-04 8.594809914939105511e-04 -7.090101134963333607e-04
1.219000000000000000e+03 7.653091430664062500e+00 2.567484855651855469e+00 2.444132231175899506e-03 -3.757729718927294016e-04 6.205077515915036201e-04 -1.050903694704174995e-03
1.220000000000000000e+03 4.699062347412109375e+00 1.886531949043273926e+00 1.529021537862718105e-03 -5.930408588028512895e-05 4.409152606967836618e-04 -1.072118408046662807e-03
1.221000000000000000e+03 3.957947254180908203e+00 2.678876161575317383e+00 9.476944105699658394e-04 1.858269824879243970e-04 3.400564310140907764e-04 -1.348660793155431747e-03
1.222000000000000000e+03 3.953951835632324219e+00 3.482429981231689453e+00 1.262175152078270912e-03 3.415770770516246557e-04 4.811256658285856247e-04 -1.920264796353876591e-03
1.223000000000000000e+03 1.703491330146789551e+00 2.648660421371459961e+00 9.007652406580746174e-04 9.376815869472920895e-04 5.515340599231421947e-04 -9.333262569271028042e-04
1.224000000000000000e+03 1.836762785911560059e+00 1.893994450569152832e+00 1.894623419502750039e-04 4.272650985512882471e-04 1.850182306952774525e-04 -6.279774825088679790e-04
1.225000000000000000e+03 1.509093666076660156e+01 9.447157979011535645e-01 1.414931844919919968e-03 -1.993507321458309889e-04 3.646743134595453739e-04 7.783116307109594345e-04
1.226000000000000000e+03 1.588891220092773438e+01 1.481810212135314941e+00 1.064175157807767391e-03 -9.236615005647763610e-05 2.915427321568131447e-04 1.009304774925112724e-03
1.227000000000000000e+03 1.446901226043701172e+01 -2.689722299575805664e+00 -4.328727424144744873e-01 2.333769761025905609e-02 -1.228605136275291443e-01 -5.324301868677139282e-02
1.228000000000000000e+03 1.661416244506835938e+01 -3.826014995574951172e+00 -4.796285331249237061e-01 2.719018049538135529e-02 -1.357315033674240112e-01 -9.010904282331466675e-02
1.229000000000000000e+03 1.432217216491699219e+01 -3.369204521179199219e+00 -3.960338234901428223e-01 2.308490313589572906e-02 -1.118846759200096130e-01 -9.430244565010070801e-02
1.230000000000000000e+03 1.286783790588378906e+01 -3.112575054168701172e+00 -3.317680060863494873e-01 2.385252341628074646e-02 -9.237465262413024902e-02 -9.292604029178619385e-02
1.231000000000000000e+03 5.653048515319824219e+00 -1.841102361679077148e+00 -7.823396474123001099e-02 -4.867228679358959198e-03 -2.493035793304443359e-02 -4.868456721305847168e-02
1.232000000000000000e+03 8.504920959472656250e+00 -3.360461235046386719e+00 -1.555516719818115234e-01 7.423830218613147736e-03 -4.443835467100143433e-02 -1.027050241827964783e-01
1.233000000000000000e+03 4.830780029296875000e+00 -3.221693038940429688e+00 -6.176721677184104919e-02 -2.618114277720451355e-02 -2.638450823724269867e-02 -7.380650192499160767e-02
1.234000000000000000e+03 4.850592136383056641e+00 -2.539911985397338867e+00 -6.117896735668182373e-02 -1.505486667156219482e-02 -2.287014946341514587e-02 -5.704347044229507446e-02
1.235000000000000000e+03 9.946690559387207031e+00 -3.393084287643432617e+00 -2.006702870130538940e-01 2.000731229782104492e-02 -5.419889092445373535e-02 -1.078017875552177429e-01
1.236000000000000000e+03 6.331965446472167969e+00 -2.529299974441528320e+00 -9.794372320175170898e-02 -5.552206654101610184e-03 -3.104877844452857971e-02 -7.011875510215759277e-02
1.237000000000000000e+03 7.082921028137207031e+00 -2.554054021835327148e+00 -1.175759658217430115e-01 -4.348206799477338791e-03 -3.657725080847740173e-02 -7.400777935981750488e-02
1.238000000000000000e+03 3.208881378173828125e+00 -4.208246707916259766e+00 -3.174152225255966187e-02 -4.743960872292518616e-02 -2.375433966517448425e-02 -6.521899253129959106e-02
1.239000000000000000e+03 5.251371860504150391e-01 -3.570753812789916992e+00 -3.602366428822278976e-03 -2.108609676361083984e-02 -7.406538818031549454e-03 -9.751247242093086243e-03
1.240000000000000000e+03 4.702431488037109375e+01 5.280843734741210938e+00 1.911916136741638184e-01 1.472903442382812500e+01 4.476068019866943359e+00 1.327617764472961426e+00
1.241000000000000000e+03 4.564431381225585938e+01 2.461805820465087891e+00 7.833195209503173828e+00 1.554264545440673828e+01 7.012752056121826172e+00 1.521140217781066895e+00
1.242000000000000000e+03 4.405669021606445312e+01 3.140156567096710205e-01 1.042172670364379883e+00 1.697892570495605469e+01 5.406329631805419922e+00 3.966196298599243164e+00
1.243000000000000000e+03 4.525721359252929688e+01 3.866547584533691406e+00 8.129369020462036133e-01 1.834726715087890625e+01 5.748061180114746094e+00 1.872145771980285645e+00
1.244000000000000000e+03 4.411924362182617188e+01 -4.069650769233703613e-01 4.070830941200256348e-01 1.377960491180419922e+01 4.256006717681884766e+00 3.293231964111328125e+00
1.245000000000000000e+03 1.742394256591796875e+01 -3.952913999557495117e+00 -5.057253837585449219e-01 1.195942610502243042e-02 -1.481297761201858521e-01 -8.558106422424316406e-02
1.246000000000000000e+03 1.506557846069335938e+01 -3.504462718963623047e+00 -4.209820628166198730e-01 2.803877554833889008e-02 -1.178829893469810486e-01 -9.302052855491638184e-02
1.247000000000000000e+03 1.986366271972656250e+01 -4.801849842071533203e+00 -5.106694102287292480e-01 3.018862009048461914e-02 -1.441442370414733887e-01 -4.606919363141059875e-02
1.248000000000000000e+03 1.381114006042480469e+01 2.673716545104980469e+00 1.574767054989933968e-03 -4.193904460407793522e-04 3.466129710432142019e-04 1.470564864575862885e-03
1.249000000000000000e+03 1.141660404205322266e+01 2.297525882720947266e+00 2.445221412926912308e-03 -5.246138898655772209e-04 5.761822103522717953e-04 6.572851561941206455e-04
1.250000000000000000e+03 1.219011211395263672e+01 2.181506395339965820e+00 2.439906122162938118e-03 -5.248610395938158035e-04 5.745135131292045116e-04 7.984304684214293957e-04
1.251000000000000000e+03 1.064127540588378906e+01 2.399912595748901367e+00 2.648478839546442032e-03 -5.226345383562147617e-04 6.377533427439630032e-04 2.736235910560935736e-04
1.252000000000000000e+03 1.993319511413574219e+01 -3.385946512222290039e+00 -6.636857986450195312e-01 -1.175948139280080795e-02 -2.026335746049880981e-01 -8.209320716559886932e-03
1.253000000000000000e+03 2.071631622314453125e+01 -4.108311653137207031e+00 -5.997207164764404297e-01 1.731539890170097351e-02 -1.747215837240219116e-01 2.877787919715046883e-03
1.254000000000000000e+03 1.907971000671386719e+01 -4.056945323944091797e+00 -5.584886670112609863e-01 5.824163090437650681e-03 -1.657993495464324951e-01 -4.974311590194702148e-02
1.255000000000000000e+03 1.989756393432617188e+01 -4.091642856597900391e+00 -5.762699246406555176e-01 2.419904060661792755e-02 -1.656212657690048218e-01 -2.611229382455348969e-02
1.256000000000000000e+03 2.322870063781738281e+01 -4.006829261779785156e+00 -6.692434549331665039e-01 1.138093173503875732e-01 -1.666302382946014404e-01 1.100976616144180298e-01
1.257000000000000000e+03 2.495546913146972656e+01 -3.918970584869384766e+00 -7.307332158088684082e-01 1.347825080156326294e-01 -1.787852197885513306e-01 1.801393181085586548e-01
1.258000000000000000e+03 2.591083717346191406e+01 -3.923018932342529297e+00 -7.660254240036010742e-01 8.333536237478256226e-02 -2.048070132732391357e-01 2.200239151716232300e-01
1.259000000000000000e+03 2.410190010070800781e+01 -3.155373334884643555e+00 -6.616886258125305176e-01 1.190874353051185608e-01 -1.627803444862365723e-01 1.542194932699203491e-01
1.260000000000000000e+03 2.483461761474609375e+01 -4.753651142120361328e+00 -7.769018411636352539e-01 1.620394587516784668e-01 -1.844587177038192749e-01 1.233517304062843323e-01
1.261000000000000000e+03 2.407364273071289062e+01 -3.950202465057373047e+00 -6.999841928482055664e-01 1.259145438671112061e-01 -1.722208857536315918e-01 1.390056163072586060e-01
1.262000000000000000e+03 1.933110237121582031e+01 -1.091844749450683594e+01 2.460074275732040405e-01 1.042359024286270142e-01 1.050729975104331970e-01 -1.920646578073501587e-01
1.263000000000000000e+03 6.819078826904296875e+01 2.196955299377441406e+01 -1.623786687850952148e+00 8.148957252502441406e+00 1.957551002502441406e+00 -9.479935765266418457e-01
1.264000000000000000e+03 6.788351440429687500e+01 -1.281028366088867188e+01 7.791187763214111328e-01 9.278243064880371094e+00 3.017208576202392578e+00 -1.877416729927062988e+00
1.265000000000000000e+03 1.509862613677978516e+01 -1.081653022766113281e+01 1.410928368568420410e-01 2.024514414370059967e-02 4.840139672160148621e-02 -1.954202800989151001e-01
1.266000000000000000e+03 7.016674804687500000e+01 -2.140925598144531250e+01 1.290402173995971680e+00 1.076185703277587891e+01 3.615677595138549805e+00 -8.200401067733764648e-01
1.267000000000000000e+03 3.630097579956054688e+01 -1.774820709228515625e+01 4.335711002349853516e-01 3.160312891006469727e+00 1.078165173530578613e+00 -2.143184542655944824e-01
1.268000000000000000e+03 5.187129211425781250e+01 -8.147142410278320312e+00 -5.835326194763183594e+00 -7.762228250503540039e-01 -1.983464837074279785e+00 -1.161347985267639160e+00
1.269000000000000000e+03 5.278934097290039062e+01 -7.341494560241699219e+00 -3.965469121932983398e+00 -8.198364973068237305e-01 -1.435591697692871094e+00 -6.953535079956054688e-01
1.270000000000000000e+03 3.433258438110351562e+01 -1.482446861267089844e+01 9.592708349227905273e-01 7.609647512435913086e-01 5.160706639289855957e-01 -2.795350551605224609e-01
1.271000000000000000e+03 5.113648605346679688e+01 -3.030984306335449219e+01 -7.583312392234802246e-01 1.811408042907714844e+00 3.159230351448059082e-01 -1.121999263763427734e+00
1.272000000000000000e+03 5.343877792358398438e+01 -6.251887321472167969e+00 -9.368461966514587402e-01 -4.905858933925628662e-01 -4.282296299934387207e-01 -9.145678877830505371e-01
1.273000000000000000e+03 5.391365432739257812e+01 -8.028033256530761719e+00 -4.757385730743408203e+00 -5.260562300682067871e-01 -1.585032582283020020e+00 7.178975641727447510e-02
1.274000000000000000e+03 6.312568664550781250e+01 -1.046082305908203125e+01 5.379176735877990723e-01 1.182590842247009277e+00 5.161525607109069824e-01 -1.231935501098632812e+00
1.275000000000000000e+03 4.658053588867187500e+01 -2.309446907043457031e+01 1.482386827468872070e+00 1.045301246643066406e+01 3.580620050430297852e+00 -2.335757732391357422e+00
1.276000000000000000e+03 4.599758911132812500e+01 -2.740237617492675781e+01 -7.432439923286437988e-02 5.695495128631591797e+00 1.686351180076599121e+00 -6.624259352684020996e-01
1.277000000000000000e+03 6.842253112792968750e+01 -1.449497890472412109e+01 2.437239408493041992e+00 1.218582534790039062e+01 4.386919498443603516e+00 -2.877934932708740234e+00
1.278000000000000000e+03 4.505170440673828125e+01 -2.185157394409179688e+01 1.322939991950988770e+00 1.015726566314697266e+01 3.444061756134033203e+00 -4.028950333595275879e-01
1.279000000000000000e+03 4.693635940551757812e+01 -9.621521949768066406e+00 -1.945707440376281738e+00 8.513051986694335938e+00 1.970203280448913574e+00 1.344514489173889160e+00
1.280000000000000000e+03 4.561153030395507812e+01 -1.075387763977050781e+01 -1.017842054367065430e+00 9.011209487915039062e+00 2.398010253906250000e+00 9.225084781646728516e-01
1.281000000000000000e+03 5.847764205932617188e+01 -7.617055892944335938e+00 -3.879788815975189209e-01 3.822931349277496338e-01 -1.705721835605800152e-03 -5.207851529121398926e-01
1.282000000000000000e+03 1.178062343597412109e+01 -2.404037284851074219e+01 2.215338051319122314e-01 4.745633006095886230e-01 2.088291198015213013e-01 -1.969146579504013062e-01
1.283000000000000000e+03 1.004074287414550781e+01 -1.650934028625488281e+01 2.700411248952150345e-03 2.650929689407348633e-01 8.033801615238189697e-02 -1.726212352514266968e-01
1.284000000000000000e+03 3.762766265869140625e+01 -2.327660560607910156e+01 1.173828482627868652e+00 5.669205665588378906e+00 2.052910089492797852e+00 1.740250229835510254e+00
1.285000000000000000e+03 6.132030105590820312e+01 -1.012328624725341797e+01 -1.694942638278007507e-02 3.435647487640380859e-01 9.798459708690643311e-02 -2.860070765018463135e-01
1.286000000000000000e+03 4.722735595703125000e+01 -1.328999614715576172e+01 1.555916547775268555e+00 1.225675773620605469e+01 4.143802165985107422e+00 3.715104579925537109e+00
1.287000000000000000e+03 4.925907897949218750e+01 -8.111004829406738281e+00 -2.987917423248291016e+00 4.720078468322753906e+00 5.196483135223388672e-01 1.026323556900024414e+00
1.288000000000000000e+03 6.889969635009765625e+01 -2.148183250427246094e+01 1.910031676292419434e+00 1.288025283813476562e+01 4.437085151672363281e+00 1.051242113113403320e+00
1.289000000000000000e+03 7.129517364501953125e+01 -2.138850212097167969e+01 1.315989375114440918e+00 9.961076736450195312e+00 3.383119821548461914e+00 -8.933373093605041504e-01
1.290000000000000000e+03 4.683936309814453125e+01 -1.076283359527587891e+01 -1.070868253707885742e+00 9.004942893981933594e+00 2.380222320556640625e+00 1.105707168579101562e+00
1.291000000000000000e+03 4.656807708740234375e+01 -1.191861915588378906e+01 4.037213027477264404e-01 9.368384361267089844e+00 2.931631565093994141e+00 1.491075873374938965e+00
1.292000000000000000e+03 5.393782806396484375e+01 -3.246773910522460938e+01 -8.137225508689880371e-01 5.069416761398315430e-01 -9.203425794839859009e-02 -1.026292324066162109e+00
1.293000000000000000e+03 5.229428100585937500e+01 -2.911190605163574219e+01 -8.322092294692993164e-01 4.628155231475830078e-01 -1.108181029558181763e-01 -3.898023962974548340e-01
1.294000000000000000e+03 5.723432540893554688e+01 -3.206961822509765625e+01 -1.196653962135314941e+00 -3.741517364978790283e-01 -4.712417125701904297e-01 -3.789681792259216309e-01
1.295000000000000000e+03 6.240167236328125000e+01 -3.497023010253906250e+01 -4.456030949950218201e-02 1.872057795524597168e+00 5.482492446899414062e-01 4.648555815219879150e-01
1.296000000000000000e+03 5.245265960693359375e+01 -3.132453536987304688e+01 -1.051204204559326172e+00 1.120271325111389160e+00 2.072015218436717987e-02 -1.147766113281250000e+00
1.297000000000000000e+03 1.143752479553222656e+01 -1.406646537780761719e+01 -3.843489661812782288e-02 1.390134990215301514e-01 3.017358109354972839e-02 -8.436774462461471558e-02
1.298000000000000000e+03 6.111000442504882812e+01 -1.123114585876464844e+01 -6.642579436302185059e-01 2.578888647258281708e-02 -1.915407180786132812e-01 6.837897002696990967e-02
1.299000000000000000e+03 5.906430435180664062e+01 -9.251619338989257812e+00 -5.013157725334167480e-01 2.171252667903900146e-01 -8.525715023279190063e-02 -2.102226950228214264e-02
1.300000000000000000e+03 6.499876403808593750e+01 -2.670805931091308594e+01 -7.679842710494995117e-01 2.570856094360351562e+00 5.408615469932556152e-01 7.439664602279663086e-01
1.301000000000000000e+03 1.519283008575439453e+01 -1.240069007873535156e+01 2.929235398769378662e-01 3.458932973444461823e-03 8.891473710536956787e-02 -7.869719527661800385e-03
1.302000000000000000e+03 6.608891296386718750e+01 -2.382281112670898438e+01 9.107308983802795410e-01 3.428969621658325195e+00 1.301910161972045898e+00 1.734146118164062500e+00
1.303000000000000000e+03 5.797248840332031250e+01 -8.711424827575683594e+00 -9.329065680503845215e-01 1.385470628738403320e-01 -2.383078485727310181e-01 -7.724287360906600952e-02
1.304000000000000000e+03 3.543790817260742188e+01 -5.905719757080078125e+00 -1.644365787506103516e+00 3.449353575706481934e-01 -3.898291289806365967e-01 4.880494251847267151e-02
1.305000000000000000e+03 3.807573699951171875e+01 -2.857357215881347656e+01 7.581771016120910645e-01 5.219530105590820312e+00 1.793312191963195801e+00 1.188219428062438965e+00
1.306000000000000000e+03 6.783159637451171875e+01 -2.421506118774414062e+01 -5.988504290580749512e-01 8.153637886047363281e+00 2.266436338424682617e+00 1.567254066467285156e+00
1.307000000000000000e+03 5.987255096435546875e+01 -1.087133407592773438e+01 -7.376772165298461914e-01 1.847613602876663208e-02 -2.157603204250335693e-01 2.018283605575561523e-01
1.308000000000000000e+03 4.584373092651367188e+01 -1.435325908660888672e+01 1.197119355201721191e+00 1.140792942047119141e+01 3.781514644622802734e+00 2.002625465393066406e+00
1.309000000000000000e+03 4.616758728027343750e+01 -2.019585418701171875e+01 5.778358578681945801e-01 1.311750793457031250e+01 4.108603477478027344e+00 -2.827138304710388184e-01
1.310000000000000000e+03 4.753763198852539062e+01 -2.631248283386230469e+01 7.322812080383300781e-01 5.335680007934570312e+00 1.820388436317443848e+00 -2.062494039535522461e+00
1.311000000000000000e+03 4.907004165649414062e+01 -2.813838958740234375e+01 2.249094694852828979e-01 3.108712434768676758e+00 1.000086545944213867e+00 -1.404151678085327148e+00
1.312000000000000000e+03 2.357411575317382812e+01 -3.233936309814453125e+01 3.348989784717559814e-02 1.067940965294837952e-01 4.208519682288169861e-02 -1.095860749483108521e-01
1.313000000000000000e+03 2.338959693908691406e+01 -1.435523319244384766e+01 8.302048444747924805e-01 -2.104404615238308907e-03 2.484301328659057617e-01 -1.573580652475357056e-01
1.314000000000000000e+03 2.357415962219238281e+01 -1.320753955841064453e+01 6.439624428749084473e-01 3.479975089430809021e-02 2.036286592483520508e-01 -2.560917735099792480e-01
1.315000000000000000e+03 1.964124870300292969e+01 -2.929886054992675781e+01 1.470040082931518555e-01 1.511982679367065430e-01 8.946067839860916138e-02 -1.786413639783859253e-01
1.316000000000000000e+03 2.206393241882324219e+01 -3.209937286376953125e+01 1.632247865200042725e-02 1.610187590122222900e-01 5.320237204432487488e-02 -1.609691679477691650e-01
1.317000000000000000e+03 3.043099975585937500e+01 -3.256664276123046875e+01 3.630640208721160889e-01 1.268482685089111328e+00 4.894640147686004639e-01 9.971136450767517090e-01
1.318000000000000000e+03 3.193604278564453125e+01 -3.197578048706054688e+01 3.235157430171966553e-01 2.269828081130981445e+00 7.780030965805053711e-01 1.345302224159240723e+00
1.319000000000000000e+03 1.042848682403564453e+01 -2.054040336608886719e+01 2.130998969078063965e-01 3.909927308559417725e-01 1.812277883291244507e-01 -2.381647080183029175e-01
1.320000000000000000e+03 3.566153335571289062e+01 -1.622387886047363281e+01 4.742475748062133789e-01 2.266695261001586914e+00 8.222828507423400879e-01 -4.483040869235992432e-01
1.321000000000000000e+03 1.060876560211181641e+01 -1.938077163696289062e+01 1.089407205581665039e-01 5.162532925605773926e-01 1.875582039356231689e-01 -2.195322811603546143e-01
1.322000000000000000e+03 2.081575012207031250e+01 -1.383157062530517578e+01 5.601344704627990723e-01 3.479996696114540100e-02 1.784803271293640137e-01 -2.182881236076354980e-01
1.323000000000000000e+03 2.001077270507812500e+01 -1.230959224700927734e+01 4.634227156639099121e-01 5.313755199313163757e-02 1.549680829048156738e-01 -2.287509441375732422e-01
1.324000000000000000e+03 3.678065109252929688e+01 -2.910672569274902344e+01 6.480509638786315918e-01 4.672962188720703125e+00 1.596303939819335938e+00 1.180627346038818359e+00
1.325000000000000000e+03 2.713280487060546875e+01 -3.305733108520507812e+01 2.607399225234985352e-01 3.045771121978759766e-01 1.695951074361801147e-01 2.422280311584472656e-01
1.326000000000000000e+03 2.234936904907226562e+01 -1.298503780364990234e+01 5.638912916183471680e-01 5.454832222312688828e-03 1.708038449287414551e-01 -2.571362853050231934e-01
1.327000000000000000e+03 2.737311172485351562e+01 -1.475369834899902344e+01 1.258288025856018066e+00 2.785142883658409119e-02 3.858418464660644531e-01 -1.609601825475692749e-01
1.328000000000000000e+03 2.471471786499023438e+01 -1.450026607513427734e+01 1.010384559631347656e+00 3.431314602494239807e-02 3.134093284606933594e-01 -1.574389934539794922e-01
1.329000000000000000e+03 3.377754211425781250e+01 -1.375628757476806641e+01 9.988244771957397461e-01 6.050804257392883301e-01 4.811714589595794678e-01 -9.150666743516921997e-02
1.330000000000000000e+03 2.883689498901367188e+01 -3.291391372680664062e+01 3.315870761871337891e-01 8.652616143226623535e-01 3.590545952320098877e-01 6.601322889328002930e-01
1.331000000000000000e+03 2.858241081237792969e+01 -1.363651466369628906e+01 9.670591950416564941e-01 -1.455552969127893448e-02 2.857511043548583984e-01 -1.577519774436950684e-01
1.332000000000000000e+03 3.751166152954101562e+01 -2.042734909057617188e+01 4.386084973812103271e-01 5.109770298004150391e+00 1.664513587951660156e+00 7.433671951293945312e-01
1.333000000000000000e+03 1.521932792663574219e+01 -2.573912048339843750e+01 3.459597229957580566e-01 4.111688137054443359e-01 2.271385639905929565e-01 -3.758506178855895996e-01
1.334000000000000000e+03 3.765580368041992188e+01 -2.182966995239257812e+01 7.618557214736938477e-01 5.712479114532470703e+00 1.942300438880920410e+00 1.358627080917358398e+00
1.335000000000000000e+03 1.326861190795898438e+01 -2.578974533081054688e+01 2.276874631643295288e-01 4.323302805423736572e-01 1.980053186416625977e-01 -2.805521190166473389e-01
1.336000000000000000e+03 2.877721786499023438e+01 -7.669694423675537109e+00 -8.787752389907836914e-01 -2.065077424049377441e-01 -3.255848884582519531e-01 -4.068659543991088867e-01
1.337000000000000000e+03 6.931365203857421875e+01 2.147217559814453125e+01 -7.147722244262695312e-01 8.564924240112304688e+00 2.355045557022094727e+00 -5.607001855969429016e-02
1.338000000000000000e+03 5.139376068115234375e+01 -1.618319034576416016e+00 3.556598901748657227e+00 2.166944742202758789e+00 1.717063069343566895e+00 -1.082399010658264160e+00
1.339000000000000000e+03 5.220194244384765625e+01 -8.443859219551086426e-01 4.420747756958007812e+00 1.335424780845642090e+00 1.726851701736450195e+00 -1.141198754310607910e+00
1.340000000000000000e+03 3.092473030090332031e+01 -6.392563343048095703e+00 -1.880246520042419434e+00 -3.898953795433044434e-01 -6.810426115989685059e-01 -2.672510743141174316e-01
1.341000000000000000e+03 4.012934875488281250e+01 -3.519051551818847656e+00 4.542452096939086914e-01 4.505371570587158203e+00 1.487884998321533203e+00 2.415252923965454102e+00
1.342000000000000000e+03 4.136167144775390625e+01 -3.756377696990966797e+00 -4.161613583564758301e-01 7.108824729919433594e+00 2.007799148559570312e+00 2.620947599411010742e+00
1.343000000000000000e+03 3.903160095214843750e+01 -4.957271575927734375e+00 -9.813585281372070312e-01 3.518109321594238281e+00 7.610252499580383301e-01 1.932253003120422363e+00
1.344000000000000000e+03 7.940765380859375000e+01 -2.212963104248046875e+01 1.908815093338489532e-02 6.395837783813476562e+00 1.924477815628051758e+00 -2.703367173671722412e-01
1.345000000000000000e+03 7.780385589599609375e+01 -3.015966033935546875e+01 -1.465848237276077271e-01 9.116937637329101562e+00 2.691105842590332031e+00 -4.846502542495727539e-01
1.346000000000000000e+03 7.927009582519531250e+01 -2.908471107482910156e+01 -4.426554962992668152e-02 9.344619750976562500e+00 2.790106296539306641e+00 -2.360793948173522949e-01
1.347000000000000000e+03 7.796555328369140625e+01 -2.581990242004394531e+01 -4.631517827510833740e-02 8.176360130310058594e+00 2.439013481140136719e+00 -8.301525712013244629e-01
1.348000000000000000e+03 7.649518585205078125e+01 -3.914680862426757812e+01 -4.761333018541336060e-02 9.388779640197753906e+00 2.802350044250488281e+00 9.268016554415225983e-03
1.349000000000000000e+03 7.902547454833984375e+01 -3.875771713256835938e+01 1.521315332502126694e-02 9.995695114135742188e+00 3.003272533416748047e+00 8.836410939693450928e-02
1.350000000000000000e+03 7.925496673583984375e+01 -3.328463363647460938e+01 -9.671202860772609711e-03 1.014709472656250000e+01 3.041227102279663086e+00 -8.857978135347366333e-02
1.351000000000000000e+03 7.769606781005859375e+01 -3.575785064697265625e+01 -1.079054623842239380e-01 9.552282333374023438e+00 2.833312988281250000e+00 4.053321201354265213e-03
1.352000000000000000e+03 7.926664733886718750e+01 -3.188866424560546875e+01 -4.619899764657020569e-02 9.977612495422363281e+00 2.979423999786376953e+00 -1.340125948190689087e-01
1.353000000000000000e+03 7.938143157958984375e+01 3.616772079467773438e+01 1.116011012345552444e-02 8.416859626770019531e+00 2.528405904769897461e+00 -3.094318881630897522e-02
1.354000000000000000e+03 7.823696136474609375e+01 -2.312980461120605469e+01 3.928190842270851135e-02 7.292180538177490234e+00 2.199438810348510742e+00 -7.832940816879272461e-01
1.355000000000000000e+03 7.628182983398437500e+01 -2.838509368896484375e+01 -3.191218972206115723e-01 8.613912582397460938e+00 2.488437175750732422e+00 -8.549161553382873535e-01
1.356000000000000000e+03 7.936130523681640625e+01 1.128648853302001953e+01 5.826518684625625610e-02 6.113441467285156250e+00 1.851511955261230469e+00 -1.633076667785644531e-01
1.357000000000000000e+03 7.937945556640625000e+01 1.266887378692626953e+01 -3.722091764211654663e-02 5.797279357910156250e+00 1.728017568588256836e+00 -1.207741126418113708e-01
1.358000000000000000e+03 7.804876708984375000e+01 1.158483409881591797e+01 3.509822115302085876e-02 6.594631671905517578e+00 1.988918900489807129e+00 -4.381833970546722412e-01
1.359000000000000000e+03 7.946402740478515625e+01 2.097015953063964844e+01 -4.062274843454360962e-02 6.486714363098144531e+00 1.933827400207519531e+00 1.955529451370239258e-01
1.360000000000000000e+03 7.945874023437500000e+01 2.230399322509765625e+01 5.562353134155273438e-02 7.005211353302001953e+00 2.118250608444213867e+00 2.083390802145004272e-01
1.361000000000000000e+03 7.822064971923828125e+01 1.432154369354248047e+01 1.043072566390037537e-01 6.216200828552246094e+00 1.896152496337890625e+00 -1.374350488185882568e-01
1.362000000000000000e+03 7.943869781494140625e+01 1.823492240905761719e+01 -2.819503843784332275e-02 5.743969440460205078e+00 1.714732289314270020e+00 1.354600787162780762e-01
1.363000000000000000e+03 7.837057495117187500e+01 2.113212966918945312e+01 8.706995844841003418e-02 6.908359527587890625e+00 2.098628759384155273e+00 5.243487358093261719e-01
1.364000000000000000e+03 7.931188201904296875e+01 2.502326583862304688e+01 3.470448404550552368e-02 7.830192565917968750e+00 2.359469175338745117e+00 1.698248535394668579e-01
1.365000000000000000e+03 7.924890899658203125e+01 2.641139221191406250e+01 -3.663988783955574036e-02 8.127715110778808594e+00 2.427322626113891602e+00 1.621936559677124023e-01
1.366000000000000000e+03 7.739755249023437500e+01 3.056769943237304688e+01 -8.271606266498565674e-02 7.995521068572998047e+00 2.373841524124145508e+00 6.323494762182235718e-02
1.367000000000000000e+03 7.748492431640625000e+01 2.909053993225097656e+01 -1.227049082517623901e-01 8.014748573303222656e+00 2.367613077163696289e+00 1.404648125171661377e-01
1.368000000000000000e+03 7.918427276611328125e+01 3.346692276000976562e+01 -2.792952395975589752e-02 8.543040275573730469e+00 2.554533243179321289e+00 -2.195705194026231766e-03
1.369000000000000000e+03 7.831610870361328125e+01 1.707652282714843750e+01 6.392392516136169434e-02 6.183751106262207031e+00 1.874302506446838379e+00 2.098471224308013916e-01
1.370000000000000000e+03 7.934606170654296875e+01 -1.792198371887207031e+01 5.239890515804290771e-02 5.214904785156250000e+00 1.580191135406494141e+00 -6.581413000822067261e-02
1.371000000000000000e+03 7.720133972167968750e+01 -2.163580131530761719e+01 2.086264789104461670e-01 7.204413414001464844e+00 2.223912000656127930e+00 -9.316870570182800293e-01
1.372000000000000000e+03 7.940654754638671875e+01 -1.373800849914550781e+01 1.573255576658993959e-04 5.561595916748046875e+00 1.668526053428649902e+00 1.631997823715209961e-01
1.373000000000000000e+03 7.942912292480468750e+01 -1.098235797882080078e+01 -1.395495049655437469e-02 6.430411338806152344e+00 1.924936890602111816e+00 2.046814411878585815e-01
1.374000000000000000e+03 7.823124694824218750e+01 -1.334375381469726562e+01 8.256582170724868774e-02 6.329108238220214844e+00 1.923502326011657715e+00 4.358228445053100586e-01
1.375000000000000000e+03 7.941508483886718750e+01 -8.233323097229003906e+00 -2.509440667927265167e-02 7.342124462127685547e+00 2.195109128952026367e+00 1.779723912477493286e-01
1.376000000000000000e+03 7.718129730224609375e+01 -1.165920734405517578e+01 4.606775939464569092e-02 7.045776844024658203e+00 2.127553462982177734e+00 7.132793068885803223e-01
1.377000000000000000e+03 7.938813018798828125e+01 -4.096621990203857422e+00 7.988510653376579285e-03 8.243355751037597656e+00 2.475403308868408203e+00 7.559654861688613892e-02
1.378000000000000000e+03 7.936139678955078125e+01 -1.323741912841796875e+00 1.008639205247163773e-02 8.445907592773437500e+00 2.536798238754272461e+00 1.017610449343919754e-02
1.379000000000000000e+03 7.703728485107421875e+01 -5.198652267456054688e+00 -1.772343218326568604e-01 7.735024452209472656e+00 2.267337083816528320e+00 3.735737800598144531e-01
1.380000000000000000e+03 7.935250091552734375e+01 1.475698828697204590e+00 6.076349876821041107e-03 8.362296104431152344e+00 2.510511636734008789e+00 -6.347878277301788330e-02
1.381000000000000000e+03 7.935262298583984375e+01 2.880627632141113281e+00 -3.707228228449821472e-02 8.205350875854492188e+00 2.450483560562133789e+00 -9.013168513774871826e-02
1.382000000000000000e+03 7.935604858398437500e+01 4.290150165557861328e+00 1.885912963189184666e-03 7.976623058319091797e+00 2.393552780151367188e+00 -1.356952041387557983e-01
1.383000000000000000e+03 7.935951995849609375e+01 5.698168754577636719e+00 -2.616124413907527924e-02 7.670687198638916016e+00 2.293357849121093750e+00 -1.559252291917800903e-01
1.384000000000000000e+03 7.809076690673828125e+01 4.487869262695312500e+00 -7.589935511350631714e-02 7.760890483856201172e+00 2.305497407913208008e+00 -3.291214704513549805e-01
1.385000000000000000e+03 7.680702972412109375e+01 3.911409759521484375e+01 -1.103615015745162964e-02 7.848545074462890625e+00 2.351252794265747070e+00 -1.130709648132324219e-01
1.386000000000000000e+03 7.735196685791015625e+01 3.208474731445312500e+01 -7.775730639696121216e-02 7.982908725738525391e+00 2.371545314788818359e+00 -1.576845534145832062e-02
1.387000000000000000e+03 7.787155151367187500e+01 3.498845672607421875e+01 -5.361818149685859680e-02 8.052441596984863281e+00 2.399646997451782227e+00 -6.573744863271713257e-02
1.388000000000000000e+03 7.809287261962890625e+01 7.343540191650390625e+00 -2.583494223654270172e-02 7.319169998168945312e+00 2.188000440597534180e+00 -4.634352624416351318e-01
1.389000000000000000e+03 7.811457824707031250e+01 -2.600607872009277344e+00 -4.872978106141090393e-02 8.055790901184082031e+00 2.402118444442749023e+00 1.201425343751907349e-01
1.390000000000000000e+03 7.826123809814453125e+01 -9.346025466918945312e+00 -4.104366898536682129e-02 7.157968997955322266e+00 2.135077476501464844e+00 5.083261132240295410e-01
1.391000000000000000e+03 7.806732177734375000e+01 -1.902169036865234375e+01 1.809425801038742065e-01 6.277140140533447266e+00 1.937424778938293457e+00 -3.591997623443603516e-01
1.392000000000000000e+03 3.214546203613281250e+01 -6.690367221832275391e+00 -1.640603184700012207e+00 -3.939673304557800293e-01 -6.103711724281311035e-01 -2.474996596574783325e-01
1.393000000000000000e+03 2.700394058227539062e+01 -3.919562339782714844e+00 -7.763343453407287598e-01 -1.098750010132789612e-01 -2.658627927303314209e-01 3.338690400123596191e-01
1.394000000000000000e+03 5.261513900756835938e+01 2.059008407592773438e+01 1.998511075973510742e+00 4.679857730865478516e+00 2.003510713577270508e+00 2.651813268661499023e+00
1.395000000000000000e+03 5.186317062377929688e+01 2.228261375427246094e+01 -4.873681664466857910e-01 5.036681652069091797e+00 1.364794015884399414e+00 1.646663427352905273e+00
1.396000000000000000e+03 4.848634338378906250e+01 2.398365020751953125e+00 2.603169202804565430e+00 9.029117584228515625e+00 3.489686012268066406e+00 -2.695971488952636719e+00
1.397000000000000000e+03 4.818907546997070312e+01 3.739062070846557617e+00 9.734117984771728516e-01 1.270606899261474609e+01 4.103844165802001953e+00 -3.484727144241333008e-01
1.398000000000000000e+03 6.832081604003906250e+01 1.104241466522216797e+01 1.297969460487365723e+00 9.553965568542480469e+00 3.255580663681030273e+00 1.851853728294372559e+00
1.399000000000000000e+03 5.507550048828125000e+01 -3.949829936027526855e-01 3.259999036788940430e+00 3.481945022940635681e-02 9.884455204010009766e-01 -8.641977608203887939e-02
1.400000000000000000e+03 6.089983367919921875e+01 2.637374496459960938e+01 -3.021452426910400391e-01 7.861509323120117188e-01 1.452017128467559814e-01 1.488316953182220459e-01
1.401000000000000000e+03 4.816582870483398438e+01 -5.659009516239166260e-02 3.911616802215576172e+00 7.491483688354492188e+00 3.420930147171020508e+00 -2.559516191482543945e+00
1.402000000000000000e+03 4.851243972778320312e+01 1.101845979690551758e+00 3.911420822143554688e+00 7.246350288391113281e+00 3.347331285476684570e+00 -3.390432357788085938e+00
1.403000000000000000e+03 4.820024490356445312e+01 6.577225685119628906e+00 2.429867386817932129e-01 1.464993381500244141e+01 4.467875957489013672e+00 1.300083041191101074e+00
1.404000000000000000e+03 4.597289657592773438e+01 5.082553863525390625e+00 -7.468843460083007812e-02 1.571179008483886719e+01 4.691130638122558594e+00 1.199899196624755859e+00
1.405000000000000000e+03 6.416683197021484375e+01 2.375434494018554688e+01 -1.305805802345275879e+00 1.305745005607604980e+00 -1.823414640966802835e-05 -9.965555667877197266e-01
1.406000000000000000e+03 5.629393005371093750e+01 -1.221336245536804199e+00 2.264612436294555664e+00 -1.941274106502532959e-01 6.211454868316650391e-01 -7.168090343475341797e-01
1.407000000000000000e+03 4.698044967651367188e+01 6.731873512268066406e+00 2.197187542915344238e-01 1.421837997436523438e+01 4.331429481506347656e+00 1.239318609237670898e+00
1.408000000000000000e+03 5.768143081665039062e+01 2.408500099182128906e+01 -1.238723039627075195e+00 6.104996800422668457e-01 -1.884670108556747437e-01 9.406434893608093262e-01
1.409000000000000000e+03 6.257217407226562500e+01 2.419338607788085938e+01 -1.458980798721313477e+00 3.031028509140014648e-01 -3.467633724212646484e-01 -3.688758611679077148e-01
1.410000000000000000e+03 5.419763565063476562e+01 2.488352203369140625e+01 -7.048320770263671875e-01 2.812083005905151367e+00 6.321753263473510742e-01 1.938938856124877930e+00
1.411000000000000000e+03 6.286265945434570312e+01 4.861632347106933594e+00 1.048905849456787109e-01 1.319913744926452637e+00 4.274412691593170166e-01 5.790284276008605957e-01
1.412000000000000000e+03 5.927078247070312500e+01 2.434362030029296875e+01 -1.376563310623168945e+00 1.725763380527496338e-01 -3.611961007118225098e-01 6.698780059814453125e-01
1.413000000000000000e+03 5.038988113403320312e+01 2.178052330017089844e+01 -5.894257500767707825e-02 5.674392700195312500e+00 1.684635043144226074e+00 1.208284735679626465e+00
1.414000000000000000e+03 4.985565185546875000e+01 1.958584022521972656e+01 7.074488997459411621e-01 6.918359279632568359e+00 2.287742376327514648e+00 1.506398439407348633e+00
1.415000000000000000e+03 6.388011932373046875e+01 5.727912425994873047e+00 1.645106226205825806e-01 1.944875001907348633e+00 6.328157186508178711e-01 8.848499059677124023e-01
1.416000000000000000e+03 6.489227294921875000e+01 6.601984977722167969e+00 2.022431045770645142e-01 2.999010562896728516e+00 9.603761434555053711e-01 1.265127539634704590e+00
1.417000000000000000e+03 4.815469741821289062e+01 1.539192771911621094e+01 8.931807875633239746e-01 9.372988700866699219e+00 3.079850912094116211e+00 1.780190706253051758e+00
1.418000000000000000e+03 4.601512908935546875e+01 9.807271003723144531e+00 8.122481107711791992e-01 1.164649677276611328e+01 3.737623453140258789e+00 4.273832738399505615e-01
1.419000000000000000e+03 5.986958312988281250e+01 2.275247335433959961e+00 5.077872276306152344e-01 2.180990576744079590e-01 2.177658826112747192e-01 1.095856800675392151e-01
1.420000000000000000e+03 7.007661437988281250e+01 1.389629459381103516e+01 1.507025003433227539e+00 1.057207775115966797e+01 3.623730659484863281e+00 3.896008431911468506e-01
1.421000000000000000e+03 2.126475095748901367e+00 2.760597419738769531e+01 -2.275059465318918228e-03 -1.086455583572387695e-01 -3.327618539333343506e-02 4.013420268893241882e-02
1.422000000000000000e+03 2.180679321289062500e+00 3.194380569458007812e+01 1.961606787517666817e-03 -1.791097819805145264e-01 -5.314445495605468750e-02 4.166227206587791443e-02
1.423000000000000000e+03 1.964808106422424316e+00 3.476150894165039062e+01 1.049865270033478737e-03 -2.257846444845199585e-01 -6.742043048143386841e-02 3.113695234060287476e-02
1.424000000000000000e+03 6.437575221061706543e-01 3.471247482299804688e+01 3.765725763514637947e-03 -2.645148038864135742e-01 -7.822471857070922852e-02 1.077338960021734238e-02
1.425000000000000000e+03 2.323989629745483398e+00 3.821144866943359375e+01 1.529059279710054398e-02 -2.463893741369247437e-01 -6.932963430881500244e-02 2.136575616896152496e-02
1.426000000000000000e+03 2.051052093505859375e+00 -3.778302001953125000e+01 6.556374952197074890e-03 -6.824575662612915039e-01 -2.027703523635864258e-01 2.426529489457607269e-02
1.427000000000000000e+03 7.284117937088012695e-01 -3.749689483642578125e+01 1.214462239295244217e-02 -7.728736400604248047e-01 -2.282187044620513916e-01 1.126131787896156311e-02
1.428000000000000000e+03 6.485767960548400879e-01 2.198396301269531250e+01 -4.594555066432803869e-04 -3.150155767798423767e-02 -9.588303975760936737e-03 7.408262230455875397e-03
1.429000000000000000e+03 2.039821147918701172e+00 2.476665687561035156e+01 -3.846811829134821892e-03 -6.692349910736083984e-02 -2.123109437525272369e-02 3.249088674783706665e-02
1.430000000000000000e+03 7.148967385292053223e-01 2.906038284301757812e+01 -1.131783588789403439e-03 -1.542668938636779785e-01 -4.661960527300834656e-02 1.466187834739685059e-02
1.431000000000000000e+03 6.016486287117004395e-01 3.608189010620117188e+01 -2.750460291281342506e-03 -2.881344556808471680e-01 -8.726547658443450928e-02 9.839206002652645111e-03
1.432000000000000000e+03 7.798815965652465820e-01 -3.040452384948730469e+01 2.526018070057034492e-03 -8.677690625190734863e-01 -2.595729231834411621e-01 1.285682898014783859e-02
1.433000000000000000e+03 2.007387161254882812e+00 -2.737935066223144531e+01 5.668239668011665344e-03 -7.524940371513366699e-01 -2.240477502346038818e-01 1.559214759618043900e-02
1.434000000000000000e+03 5.766180157661437988e-01 -6.450415611267089844e+00 -1.165407593362033367e-03 -9.688323736190795898e-02 -2.941459417343139648e-02 -2.093202807009220123e-02
1.435000000000000000e+03 3.356235265731811523e+00 -3.293292760848999023e+00 -3.311187773942947388e-02 -2.891542389988899231e-02 -1.860819011926651001e-02 -4.946546256542205811e-02
1.436000000000000000e+03 5.887659788131713867e-01 -1.063737964630126953e+01 -1.745478133670985699e-03 -2.935879826545715332e-01 -8.860003948211669922e-02 -3.175687789916992188e-02
1.437000000000000000e+03 1.721009731292724609e+00 -9.181455612182617188e+00 -5.552391987293958664e-03 -2.003758251667022705e-01 -6.177846714854240417e-02 -7.958646118640899658e-02
1.438000000000000000e+03 6.443225741386413574e-01 -1.344741058349609375e+01 -3.387431788723915815e-04 -4.600109755992889404e-01 -1.381049156188964844e-01 -3.855481371283531189e-02
1.439000000000000000e+03 6.482039690017700195e-01 -1.772282028198242188e+01 3.451076569035649300e-03 -7.114307880401611328e-01 -2.123939245939254761e-01 -3.605616465210914612e-02
1.440000000000000000e+03 2.005110263824462891e+00 -1.621823501586914062e+01 3.219923004508018494e-03 -5.008862018585205078e-01 -1.492998898029327393e-01 -1.070386022329330444e-01
1.441000000000000000e+03 6.026191711425781250e-01 -2.055537796020507812e+01 3.732187906280159950e-03 -8.492572307586669922e-01 -2.536575198173522949e-01 -2.335336431860923767e-02
1.442000000000000000e+03 1.934220790863037109e+00 -1.767952537536621094e+01 8.045259863138198853e-03 -5.681153535842895508e-01 -1.680210232734680176e-01 -9.843083471059799194e-02
1.443000000000000000e+03 5.953859090805053711e-01 -2.336352157592773438e+01 3.654445288702845573e-03 -9.258831143379211426e-01 -2.766686081886291504e-01 -8.070402778685092926e-03
1.444000000000000000e+03 1.910858869552612305e+00 -2.601006889343261719e+01 9.289778769016265869e-03 -7.637043595314025879e-01 -2.263243794441223145e-01 8.675909601151943207e-03
1.445000000000000000e+03 4.055116176605224609e+00 -3.385511016845703125e+01 -8.018575026653707027e-04 -5.285112857818603516e-01 -1.587939411401748657e-01 1.292004529386758804e-02
1.446000000000000000e+03 1.628755688667297363e+00 3.690643787384033203e+00 -9.564177162246778607e-05 1.143690780736505985e-03 3.144146758131682873e-04 -1.029751729220151901e-03
1.447000000000000000e+03 1.930057644844055176e+00 2.054215812683105469e+01 -3.942453768104314804e-03 -2.132043056190013885e-02 -7.578865159302949905e-03 1.620161905884742737e-02
1.448000000000000000e+03 6.297582387924194336e-01 1.916613197326660156e+01 -7.923037628643214703e-04 -5.673449020832777023e-03 -1.939725829288363457e-03 3.986334893852472305e-03
1.449000000000000000e+03 6.235613822937011719e-01 1.776041221618652344e+01 -2.838882210198789835e-04 2.042966661974787712e-03 5.277235177345573902e-04 2.819412387907505035e-03
1.450000000000000000e+03 6.116854548454284668e-01 1.495197010040283203e+01 2.060147817246615887e-04 9.398422203958034515e-03 2.881331136450171471e-03 7.575686322525143623e-04
1.451000000000000000e+03 1.804678916931152344e+00 9.472793579101562500e+00 -8.161972509697079659e-04 4.648936446756124496e-03 1.149821793660521507e-03 -1.829441287554800510e-03
1.452000000000000000e+03 6.234688758850097656e-01 7.919352054595947266e+00 -5.269128014333546162e-04 5.487387534230947495e-03 1.488142414018511772e-03 -7.622361299581825733e-04
1.453000000000000000e+03 3.346235513687133789e+00 -3.871667861938476562e+01 5.343765020370483398e-03 -6.463362574577331543e-01 -1.922977417707443237e-01 1.489500049501657486e-02
1.454000000000000000e+03 2.598564863204956055e+00 -3.170661544799804688e+01 -4.591023549437522888e-03 -6.716171503067016602e-01 -2.028624564409255981e-01 2.450172603130340576e-02
1.455000000000000000e+03 1.827568769454956055e+00 -2.463407897949218750e+01 1.548048760741949081e-02 -7.676111459732055664e-01 -2.256391942501068115e-01 -8.215511217713356018e-03
1.456000000000000000e+03 6.098381876945495605e-01 -2.476697540283203125e+01 3.722027176991105080e-03 -9.351347088813781738e-01 -2.794238030910491943e-01 6.197438924573361874e-04
1.457000000000000000e+03 1.998484969139099121e+00 -1.474211406707763672e+01 1.464475877583026886e-03 -4.373869001865386963e-01 -1.307767331600189209e-01 -1.125297844409942627e-01
1.458000000000000000e+03 6.674152612686157227e-01 -1.487013912200927734e+01 -5.432920297607779503e-04 -5.448733568191528320e-01 -1.636250019073486328e-01 -3.957159072160720825e-02
1.459000000000000000e+03 2.920748472213745117e+00 -6.609452724456787109e+00 -2.168949134647846222e-02 -1.010757833719253540e-01 -3.682957962155342102e-02 -9.385208785533905029e-02
1.460000000000000000e+03 5.680451393127441406e-01 -7.850890636444091797e+00 -1.636509201489388943e-03 -1.537182033061981201e-01 -4.660641402006149292e-02 -2.450467646121978760e-02
1.461000000000000000e+03 2.102962732315063477e+00 -3.969755649566650391e+00 -1.457793544977903366e-02 -4.185551777482032776e-02 -1.693003624677658081e-02 -4.011919349431991577e-02
1.462000000000000000e+03 5.815292596817016602e-01 5.063552379608154297e+00 -3.500835737213492393e-04 2.487534424290060997e-03 6.412352668121457100e-04 -5.667327786795794964e-04
1.463000000000000000e+03 5.995492935180664062e-01 1.214488315582275391e+01 4.935095785185694695e-04 9.820247069001197815e-03 3.094126936048269272e-03 -2.764911332633346319e-04
1.464000000000000000e+03 1.964207291603088379e+00 2.194416809082031250e+01 -3.886436345055699348e-03 -3.384080901741981506e-02 -1.131817419081926346e-02 2.211390621960163116e-02
1.465000000000000000e+03 1.735956764221191406e+01 2.129501533508300781e+01 -2.277521491050720215e-01 5.687052756547927856e-02 -5.126448348164558411e-02 1.052745152264833450e-02
1.466000000000000000e+03 1.775402641296386719e+01 1.911651372909545898e+00 3.467834903858602047e-04 2.686225925572216511e-04 1.846218219725415111e-04 8.082632557488977909e-04
1.467000000000000000e+03 2.778623580932617188e+01 2.268212699890136719e+01 -2.366918921470642090e-01 1.531840413808822632e-01 -2.505235746502876282e-02 -1.682713627815246582e-01
1.468000000000000000e+03 1.805955696105957031e+01 6.884699344635009766e+00 -4.379539459478110075e-04 3.181261476129293442e-03 8.229922968894243240e-04 1.301533193327486515e-03
1.469000000000000000e+03 1.724960899353027344e+01 1.080722332000732422e+01 1.771588285919278860e-04 6.037345156073570251e-03 1.864351215772330761e-03 3.032008418813347816e-03
1.470000000000000000e+03 2.238678932189941406e+01 2.967803716659545898e+00 6.027595755853099035e-09 -2.905900873884093016e-05 -8.715894182387273759e-06 8.975292439572513103e-05
1.471000000000000000e+03 1.805964660644531250e+01 5.786260604858398438e+00 -3.123675123788416386e-04 2.072184113785624504e-03 5.279449978843331337e-04 1.500072889029979706e-03
1.472000000000000000e+03 1.941175079345703125e+01 5.617105960845947266e+00 4.548169454210437834e-05 2.077872632071375847e-03 6.370063056237995625e-04 3.007103514391928911e-04
1.473000000000000000e+03 4.369340133666992188e+01 1.167694473266601562e+01 9.163460135459899902e-01 8.853905677795410156e+00 2.931075334548950195e+00 -7.627506852149963379e-01
1.474000000000000000e+03 4.269763565063476562e+01 1.102478027343750000e+01 1.060873985290527344e+00 8.792922019958496094e+00 2.956138849258422852e+00 -1.661879062652587891e+00
1.475000000000000000e+03 1.786270141601562500e+01 8.079180717468261719e+00 -2.363835519645363092e-04 4.410635214298963547e-03 1.252275542356073856e-03 2.188391983509063721e-03
1.476000000000000000e+03 1.844499778747558594e+01 2.473480701446533203e+00 2.769986749626696110e-04 4.389328532852232456e-04 2.147794584743678570e-04 8.206320344470441341e-04
1.477000000000000000e+03 2.093340682983398438e+01 3.232325077056884766e+00 6.798355752835050225e-05 3.154053410980850458e-04 1.150166717707179487e-04 2.197236244683153927e-05
1.478000000000000000e+03 2.924452590942382812e+01 2.238648986816406250e+01 -1.268423646688461304e-01 2.489342838525772095e-01 3.662757575511932373e-02 -2.437684983015060425e-01
1.479000000000000000e+03 3.063172531127929688e+01 2.042389678955078125e+01 -7.758326828479766846e-02 2.691749036312103271e-01 5.747748538851737976e-02 -2.149928808212280273e-01
1.480000000000000000e+03 4.236891937255859375e+01 6.146218776702880859e+00 3.970095887780189514e-02 1.028570079803466797e+01 3.097620725631713867e+00 -1.218766927719116211e+00
1.481000000000000000e+03 3.476435089111328125e+01 2.003030204772949219e+01 3.675694167613983154e-01 1.309263706207275391e+00 5.030499696731567383e-01 -8.946737647056579590e-01
1.482000000000000000e+03 3.244431304931640625e+01 2.286102294921875000e+01 1.102606356143951416e-01 9.566661119461059570e-01 3.200780153274536133e-01 -6.932688951492309570e-01
1.483000000000000000e+03 4.239645767211914062e+01 5.124656677246093750e+00 -2.186637818813323975e-01 7.695407390594482422e+00 2.243023157119750977e+00 -1.521225452423095703e+00
1.484000000000000000e+03 4.328111267089843750e+01 6.333424568176269531e+00 1.076611056923866272e-01 1.179437065124511719e+01 3.570609569549560547e+00 -2.344012737274169922e+00
1.485000000000000000e+03 4.071343612670898438e+01 1.427753067016601562e+01 1.038892745971679688e+00 4.942958354949951172e+00 1.794555306434631348e+00 -1.871497631072998047e+00
1.486000000000000000e+03 3.671113586425781250e+01 1.777549362182617188e+01 7.593927979469299316e-01 1.747479438781738281e+00 7.520616650581359863e-01 -1.192783594131469727e+00
1.487000000000000000e+03 3.850081634521484375e+01 1.583509159088134766e+01 1.052845358848571777e+00 2.630387544631958008e+00 1.104969859123229980e+00 -1.635269999504089355e+00
1.488000000000000000e+03 6.639868164062500000e+01 -1.103280830383300781e+01 3.807337284088134766e-01 5.704911708831787109e+00 1.825693607330322266e+00 -2.327811241149902344e+00
1.489000000000000000e+03 4.649597549438476562e+01 -1.590437030792236328e+01 6.938883662223815918e-01 1.393171691894531250e+01 4.387681484222412109e+00 2.130803346633911133e+00
1.490000000000000000e+03 6.838741302490234375e+01 1.399862289428710938e+01 7.528502941131591797e-01 1.347406673431396484e+01 4.268074989318847656e+00 1.861324310302734375e+00
1.491000000000000000e+03 2.571503829956054688e+01 -4.881239414215087891e+00 -8.817012906074523926e-01 1.379070430994033813e-01 -2.231382727622985840e-01 1.501590013504028320e-01
1.492000000000000000e+03 4.237550354003906250e+01 2.686086297035217285e-01 2.610161781311035156e+00 6.051466464996337891e+00 2.598488569259643555e+00 5.092120170593261719e+00
1.493000000000000000e+03 4.476507186889648438e+01 5.311008453369140625e+00 -8.836331963539123535e-01 1.553356552124023438e+01 4.394979953765869141e+00 -8.250305652618408203e-01
1.494000000000000000e+03 4.278020858764648438e+01 1.802852749824523926e-01 2.520426273345947266e+00 8.153534889221191406e+00 3.202188491821289062e+00 5.935953140258789062e+00
1.495000000000000000e+03 4.322515869140625000e+01 -8.754267692565917969e-01 1.272825717926025391e+00 1.044549274444580078e+01 3.515495538711547852e+00 4.819355010986328125e+00
1.496000000000000000e+03 1.064356899261474609e+01 -3.439177274703979492e+00 -2.283939868211746216e-01 2.100765332579612732e-02 -6.221590191125869751e-02 -1.138439476490020752e-01
1.497000000000000000e+03 9.314204216003417969e+00 -2.629317998886108398e+00 -1.865254640579223633e-01 1.676608063280582428e-02 -5.092781782150268555e-02 -7.979682087898254395e-02
1.498000000000000000e+03 4.472166442871093750e+01 -5.581355094909667969e-01 2.528491318225860596e-01 1.423299217224121094e+01 4.345752239227294922e+00 1.923650979995727539e+00
1.499000000000000000e+03 2.005087089538574219e+01 2.357910156250000000e+00 -1.035404566209763288e-04 4.600514657795429230e-04 1.069532954716123641e-04 3.255525080021470785e-04
1.500000000000000000e+03 1.846346092224121094e+01 1.166956663131713867e+00 2.651462564244866371e-04 1.663275324972346425e-04 1.294421381317079067e-04 5.019886302761733532e-04
1.501000000000000000e+03 2.035676574707031250e+01 1.357890486717224121e+00 1.438187173334881663e-04 2.482965646777302027e-04 1.176345831481739879e-04 4.885995804215781391e-05
1.502000000000000000e+03 1.446796703338623047e+01 1.799324750900268555e+00 1.546358806081116199e-03 -2.529244520701467991e-04 3.880302829202264547e-04 1.156643033027648926e-03
1.503000000000000000e+03 1.654198265075683594e+01 1.327610731124877930e+00 8.678780868649482727e-04 1.068978817784227431e-04 2.924327854998409748e-04 7.496220641769468784e-04
1.504000000000000000e+03 1.716789436340332031e+01 1.888699412345886230e+00 6.664713728241622448e-04 2.635485434439033270e-04 2.790059661492705345e-04 8.291531703434884548e-04
1.505000000000000000e+03 1.124524021148681641e+01 -4.174773693084716797e+00 -2.322089821100234985e-01 2.409822121262550354e-02 -6.243322789669036865e-02 -1.415264904499053955e-01
1.506000000000000000e+03 1.203698635101318359e+01 -3.670107364654541016e+00 -2.766400873661041260e-01 2.588189579546451569e-02 -7.522745430469512939e-02 -1.216225028038024902e-01
1.507000000000000000e+03 6.232345581054687500e+00 3.362950563430786133e+00 1.635426538996398449e-03 -4.872676508966833353e-04 3.444476751610636711e-04 -1.477720681577920914e-03
1.508000000000000000e+03 5.437324047088623047e+00 2.643523216247558594e+00 1.618312904611229897e-03 -1.983056281460449100e-04 4.260021669324487448e-04 -1.352704712189733982e-03
1.509000000000000000e+03 3.926962852478027344e+00 4.310205459594726562e+00 5.605681217275559902e-04 3.561039629857987165e-04 2.750016283243894577e-04 -1.760433195158839226e-03
1.510000000000000000e+03 3.224652051925659180e+00 3.463021278381347656e+00 4.192135529592633247e-04 6.442719022743403912e-04 3.190456191077828407e-04 -1.586893689818680286e-03
1.511000000000000000e+03 9.201096534729003906e+00 3.199287176132202148e+00 2.074459334835410118e-03 -7.915695314295589924e-04 3.848669293802231550e-04 -3.496327844914048910e-04
1.512000000000000000e+03 6.177707195281982422e+00 2.616847038269042969e+00 2.011251403018832207e-03 -1.637670793570578098e-04 5.542453145608305931e-04 -1.479210914112627506e-03
1.513000000000000000e+03 3.948030948638916016e+00 5.217466831207275391e+00 8.102257270365953445e-04 5.336402682587504387e-04 4.031597927678376436e-04 -2.377144759520888329e-03
1.514000000000000000e+03 9.875889778137207031e+00 2.475942850112915039e+00 2.495110500603914261e-03 -4.896664759144186974e-04 6.016331608407199383e-04 -2.208107798651326448e-05
1.515000000000000000e+03 9.951101303100585938e+00 3.145741462707519531e+00 2.351112430915236473e-03 -8.625279297120869160e-04 4.465753736440092325e-04 -3.369834666955284774e-05
1.516000000000000000e+03 1.359244251251220703e+01 -3.241755723953247070e+00 -3.607909977436065674e-01 3.112106956541538239e-02 -9.890098124742507935e-02 -9.325986355543136597e-02
1.517000000000000000e+03 1.419211006164550781e+01 -4.063334941864013672e+00 -3.489995896816253662e-01 3.533044084906578064e-02 -9.410074353218078613e-02 -1.285758912563323975e-01
1.518000000000000000e+03 1.646270561218261719e+01 -4.594326019287109375e+00 -4.061621427536010742e-01 3.524024412035942078e-02 -1.112765669822692871e-01 -1.312761753797531128e-01
1.519000000000000000e+03 1.274494075775146484e+01 -3.814919710159301758e+00 -3.004977703094482422e-01 3.415446355938911438e-02 -7.990299165248870850e-02 -1.248478814959526062e-01
1.520000000000000000e+03 1.346541118621826172e+01 -3.946978569030761719e+00 -3.274490833282470703e-01 2.897217683494091034e-02 -8.954306691884994507e-02 -1.271958053112030029e-01
1.521000000000000000e+03 5.585637092590332031e+00 -2.519541740417480469e+00 -7.930725812911987305e-02 -1.331919338554143906e-02 -2.778793685138225555e-02 -6.507045775651931763e-02
1.522000000000000000e+03 6.993651390075683594e+00 -3.270057678222656250e+00 -1.143851503729820251e-01 -5.165784154087305069e-03 -3.586528077721595764e-02 -9.286145865917205811e-02
1.523000000000000000e+03 3.461664438247680664e+00 -2.598959922790527344e+00 -3.884270042181015015e-02 -1.634480990469455719e-02 -1.655625365674495697e-02 -4.118222370743751526e-02
1.524000000000000000e+03 5.488761901855468750e+00 -3.781827926635742188e+00 -7.654381543397903442e-02 -2.525583095848560333e-02 -3.053989261388778687e-02 -9.223349392414093018e-02
1.525000000000000000e+03 2.845453500747680664e+00 -2.785808801651000977e+00 -2.785469777882099152e-02 -2.311908639967441559e-02 -1.529213506728410721e-02 -3.600452840328216553e-02
1.526000000000000000e+03 4.113859653472900391e+00 -3.322867631912231445e+00 -4.454516619443893433e-02 -3.060939162969589233e-02 -2.254636771976947784e-02 -6.257613748311996460e-02
1.527000000000000000e+03 9.929674148559570312e+00 -4.094296455383300781e+00 -1.926766782999038696e-01 1.413708925247192383e-02 -5.356187745928764343e-02 -1.332388967275619507e-01
1.528000000000000000e+03 7.749638557434082031e+00 -3.323064565658569336e+00 -1.350098699331283569e-01 -2.057908335700631142e-03 -4.112033545970916748e-02 -9.810011833906173706e-02
1.529000000000000000e+03 1.733764648437500000e+01 -4.746914863586425781e+00 -4.208051860332489014e-01 4.076158627867698669e-02 -1.140130758285522461e-01 -1.140257120132446289e-01
1.530000000000000000e+03 1.582921600341796875e+01 -3.657697439193725586e+00 -4.553122222423553467e-01 2.285055816173553467e-02 -1.297384947538375854e-01 -9.773329645395278931e-02
1.531000000000000000e+03 1.476883125305175781e+01 -5.565963745117187500e+00 -2.814441025257110596e-01 4.201857000589370728e-02 -7.182765752077102661e-02 -1.795600503683090210e-01
1.532000000000000000e+03 1.148703765869140625e+01 2.979765653610229492e+00 2.294307807460427284e-03 -8.554001688025891781e-04 4.316722915973514318e-04 7.119360379874706268e-04
1.533000000000000000e+03 1.492417621612548828e+01 -4.181053638458251953e+00 -3.804124295711517334e-01 3.020553104579448700e-02 -1.050620675086975098e-01 -1.267016232013702393e-01
1.534000000000000000e+03 2.068897438049316406e+01 -4.817270278930664062e+00 -5.318150520324707031e-01 5.856745690107345581e-02 -1.419742703437805176e-01 -2.065212465822696686e-02
1.535000000000000000e+03 1.828258323669433594e+01 -5.398168563842773438e+00 -3.982266187667846680e-01 5.679430812597274780e-02 -1.024296954274177551e-01 -1.124537214636802673e-01
1.536000000000000000e+03 2.238701057434082031e+01 -4.063952922821044922e+00 -6.448738574981689453e-01 6.567164510488510132e-02 -1.737606674432754517e-01 7.558906078338623047e-02
1.537000000000000000e+03 1.372135257720947266e+01 1.934599637985229492e+00 1.971786376088857651e-03 -3.654436150100082159e-04 4.819028545171022415e-04 1.002949080429971218e-03
1.538000000000000000e+03 1.303680133819580078e+01 2.777415513992309570e+00 2.004613401368260384e-03 -6.480254232883453369e-04 4.069764108862727880e-04 1.185667002573609352e-03
1.539000000000000000e+03 2.399329948425292969e+01 -4.738027572631835938e+00 -7.032499313354492188e-01 1.559761613607406616e-01 -1.641821265220642090e-01 9.912199527025222778e-02
1.540000000000000000e+03 2.228643608093261719e+01 -5.549847126007080078e+00 -5.569552779197692871e-01 1.168646663427352905e-01 -1.320271790027618408e-01 -3.543337108567357063e-03
1.541000000000000000e+03 2.317453765869140625e+01 -4.774904727935791016e+00 -6.601688861846923828e-01 1.267563104629516602e-01 -1.600237786769866943e-01 7.563334703445434570e-02
1.542000000000000000e+03 1.822474479675292969e+01 -4.725902557373046875e+00 -4.572577476501464844e-01 2.459456957876682281e-02 -1.297989636659622192e-01 -9.956979751586914062e-02
1.543000000000000000e+03 1.387762069702148438e+01 3.444280862808227539e+00 1.585503341630101204e-03 -5.977086839266121387e-04 2.963384031318128109e-04 1.545192906633019447e-03
1.544000000000000000e+03 7.124026489257812500e+01 -1.572127437591552734e+01 1.661807060241699219e+00 1.014400386810302734e+01 3.541743278503417969e+00 -2.890843152999877930e-01
1.545000000000000000e+03 6.886239624023437500e+01 -1.318072986602783203e+01 1.085178971290588379e+00 9.607820510864257812e+00 3.207899808883666992e+00 -1.088650226593017578e+00
1.546000000000000000e+03 6.447319030761718750e+01 -9.088434219360351562e+00 3.075555562973022461e-01 2.806713581085205078e+00 9.342807531356811523e-01 -1.671250224113464355e+00
1.547000000000000000e+03 5.462599563598632812e+01 -1.568283915519714355e+00 3.039255142211914062e+00 6.559156626462936401e-02 9.314540028572082520e-01 -8.093354701995849609e-01
1.548000000000000000e+03 4.583149719238281250e+01 3.795114457607269287e-01 3.071243524551391602e+00 1.394155025482177734e+01 5.103837966918945312e+00 -1.673511385917663574e+00
1.549000000000000000e+03 4.513440322875976562e+01 4.673107624053955078e+00 -7.005982995033264160e-01 1.677729606628417969e+01 4.823009490966796875e+00 8.015672117471694946e-02
1.550000000000000000e+03 4.617869949340820312e+01 4.044722080230712891e+00 1.741592049598693848e+00 1.572895526885986328e+01 5.241164207458496094e+00 2.195547819137573242e+00
1.551000000000000000e+03 4.648764419555664062e+01 -4.891775175929069519e-02 2.634157419204711914e+00 1.176473045349121094e+01 4.319666385650634766e+00 -1.835200071334838867e+00
1.552000000000000000e+03 4.622109985351562500e+01 9.338178634643554688e-01 4.499178886413574219e+00 1.317839241027832031e+01 5.303271293640136719e+00 -1.868912577629089355e+00
1.553000000000000000e+03 4.660071563720703125e+01 2.115927219390869141e+00 6.115334987640380859e+00 1.250555515289306641e+01 5.586266994476318359e+00 -1.750870235264301300e-02
1.554000000000000000e+03 4.619977188110351562e+01 3.274517059326171875e+00 3.320017337799072266e+00 1.497319602966308594e+01 5.487963676452636719e+00 1.896842718124389648e+00
1.555000000000000000e+03 1.774728965759277344e+01 3.692121505737304688e+00 -1.572798828419763595e-05 8.599503198638558388e-04 2.532667131163179874e-04 1.296991482377052307e-03
1.556000000000000000e+03 9.524602890014648438e+00 -1.913157272338867188e+01 1.399431824684143066e-01 2.154516428709030151e-01 1.066184490919113159e-01 -2.154294252395629883e-01
1.557000000000000000e+03 4.348610305786132812e+01 4.179358482360839844e+00 -7.395848035812377930e-01 1.298653888702392578e+01 3.674086093902587891e+00 -3.556307315826416016e+00
1.558000000000000000e+03 2.393203735351562500e+01 -1.099936103820800781e+01 2.244690805673599243e-01 5.659198015928268433e-02 8.431831747293472290e-02 -3.080953359603881836e-01
1.559000000000000000e+03 5.891415786743164062e+01 1.336006879806518555e+00 9.803639054298400879e-01 -5.022757500410079956e-02 2.790409028530120850e-01 5.972130969166755676e-02
1.560000000000000000e+03 6.259394454956054688e+01 3.045349359512329102e+00 2.625527977943420410e-01 1.482789278030395508e+00 5.236026048660278320e-01 4.978952407836914062e-01
1.561000000000000000e+03 1.677713394165039062e+01 -1.074183654785156250e+01 2.062387615442276001e-01 1.479911208152770996e-01 1.062689647078514099e-01 -2.167034000158309937e-01
1.562000000000000000e+03 1.514017391204833984e+01 -3.076628684997558594e+01 3.673063591122627258e-02 2.826746702194213867e-01 9.582159668207168579e-02 -1.895404756069183350e-01
1.563000000000000000e+03 1.624117279052734375e+01 -2.915404510498046875e+01 1.380281448364257812e-01 3.308609724044799805e-01 1.406667381525039673e-01 -2.275205552577972412e-01
1.564000000000000000e+03 2.615490341186523438e+01 -6.120498657226562500e+00 -1.021340966224670410e+00 1.763973683118820190e-01 -2.534830868244171143e-01 -8.810090273618698120e-02
1.565000000000000000e+03 2.785111045837402344e+01 -7.051267623901367188e+00 -1.019492626190185547e+00 -5.777532607316970825e-02 -3.231803774833679199e-01 -2.374330013990402222e-01
1.566000000000000000e+03 6.124424743652343750e+01 -8.465167999267578125e+00 2.291132509708404541e-01 7.744134068489074707e-01 3.010579943656921387e-01 -6.972326040267944336e-01
1.567000000000000000e+03 6.042485427856445312e+01 -8.591656684875488281e+00 -3.327147278469055891e-04 5.816603899002075195e-01 1.743983030319213867e-01 -4.969188868999481201e-01
1.568000000000000000e+03 3.763184356689453125e+01 -2.721833992004394531e+01 1.061545372009277344e+00 5.326705932617187500e+00 1.916475296020507812e+00 1.352257370948791504e+00
1.569000000000000000e+03 1.253140544891357422e+01 -1.013280391693115234e+01 2.198681607842445374e-02 7.487203460186719894e-03 8.842205628752708435e-03 -1.802460998296737671e-01
1.570000000000000000e+03 1.427195358276367188e+01 -1.159222888946533203e+01 1.853900700807571411e-01 -2.347417362034320831e-02 4.857476800680160522e-02 -1.428861916065216064e-01
1.571000000000000000e+03 2.376042175292968750e+01 -1.208360767364501953e+01 4.487192630767822266e-01 1.963917165994644165e-02 1.405075341463088989e-01 -2.949256598949432373e-01
1.572000000000000000e+03 6.753345489501953125e+01 2.411662101745605469e+01 -1.519495248794555664e+00 5.694595813751220703e+00 1.252530097961425781e+00 -1.406887292861938477e+00
1.573000000000000000e+03 6.699380493164062500e+01 2.257491302490234375e+01 -1.204777717590332031e+00 5.788822174072265625e+00 1.375213384628295898e+00 -2.380905389785766602e+00
1.574000000000000000e+03 2.952331542968750000e+01 -1.238428688049316406e+01 7.471038699150085449e-01 -1.100856661796569824e-01 1.911054551601409912e-01 -1.720625758171081543e-01
1.575000000000000000e+03 5.763752746582031250e+01 -4.419539928436279297e+00 9.314286112785339355e-01 3.668706864118576050e-02 2.904347181320190430e-01 -1.258109092712402344e+00
1.576000000000000000e+03 4.415514755249023438e+01 -1.265994644165039062e+01 2.212098985910415649e-01 8.829706192016601562e+00 2.715274810791015625e+00 7.166425585746765137e-01
1.577000000000000000e+03 1.887972450256347656e+01 -1.185258579254150391e+01 4.354516267776489258e-01 1.092400625348091125e-01 1.634075045585632324e-01 -1.936131268739700317e-01
1.578000000000000000e+03 1.740060424804687500e+01 -9.943437576293945312e+00 1.050874218344688416e-01 1.341795623302459717e-01 7.178010046482086182e-02 -2.024676650762557983e-01
1.579000000000000000e+03 6.280183029174804688e+01 -3.295158767700195312e+01 -5.297986865043640137e-01 1.861392855644226074e+00 3.994782567024230957e-01 5.206636786460876465e-01
1.580000000000000000e+03 2.071565246582031250e+01 -1.027758312225341797e+01 1.379066705703735352e-01 8.688975125551223755e-02 6.743893027305603027e-02 -2.118814587593078613e-01
1.581000000000000000e+03 6.842820739746093750e+01 7.471605300903320312e+00 -2.444997876882553101e-01 6.724425315856933594e+00 1.943977594375610352e+00 7.293941974639892578e-01
1.582000000000000000e+03 2.038558578491210938e+01 -1.128334140777587891e+01 3.181224167346954346e-01 7.686983793973922729e-02 1.184976771473884583e-01 -2.174676805734634399e-01
1.583000000000000000e+03 6.940838623046875000e+01 -2.469268608093261719e+01 -5.769235491752624512e-01 8.424824714660644531e+00 2.354370355606079102e+00 2.159895151853561401e-01
1.584000000000000000e+03 2.730146980285644531e+01 -1.244671726226806641e+01 6.485229134559631348e-01 -1.929101906716823578e-02 1.887695640325546265e-01 -2.513051331043243408e-01
1.585000000000000000e+03 4.321930694580078125e+01 1.264122295379638672e+01 7.709662914276123047e-01 8.165975570678710938e+00 2.681082725524902344e+00 -1.017266392707824707e+00
1.586000000000000000e+03 4.207408142089843750e+01 1.237224292755126953e+01 1.015470504760742188e+00 7.194166660308837891e+00 2.462891101837158203e+00 -1.869940638542175293e+00
1.587000000000000000e+03 1.836591339111328125e+01 2.482725143432617188e+01 -1.821200996637344360e-01 3.177593648433685303e-02 -4.510325193405151367e-02 1.285861432552337646e-01
1.588000000000000000e+03 1.875234794616699219e+01 2.304933166503906250e+01 -3.151797950267791748e-01 4.875175282359123230e-02 -7.992841303348541260e-02 7.549560070037841797e-02
1.589000000000000000e+03 6.429707336425781250e+01 2.817728281021118164e+00 7.172391563653945923e-02 2.791821241378784180e+00 8.590635657310485840e-01 6.186352968215942383e-01
1.590000000000000000e+03 1.705439376831054688e+01 1.229275131225585938e+01 -1.048878883011639118e-03 5.060009192675352097e-03 1.203339081257581711e-03 1.348637626506388187e-03
1.591000000000000000e+03 3.554509353637695312e+01 -2.977581787109375000e+01 3.896694183349609375e-01 4.428692817687988281e+00 1.445508718490600586e+00 1.351495981216430664e+00
1.592000000000000000e+03 2.494643211364746094e+01 -1.224756431579589844e+01 5.087443590164184570e-01 3.287072107195854187e-02 1.624845266342163086e-01 -2.958251833915710449e-01
1.593000000000000000e+03 2.608613967895507812e+01 -1.350805854797363281e+01 8.561914563179016113e-01 2.716513350605964661e-02 2.650069892406463623e-01 -2.283541858196258545e-01
1.594000000000000000e+03 3.424624633789062500e+01 -6.410001754760742188e+00 -1.543681025505065918e+00 2.177560701966285706e-02 -4.565716385841369629e-01 -7.679572701454162598e-02
1.595000000000000000e+03 3.698563385009765625e+01 -6.715662002563476562e+00 -8.530173301696777344e-01 1.678903341293334961e+00 2.477657943964004517e-01 9.301133751869201660e-01
1.596000000000000000e+03 7.630132293701171875e+01 -3.122773933410644531e+01 -2.773329317569732666e-01 8.743741035461425781e+00 2.539922475814819336e+00 -4.679733216762542725e-01
1.597000000000000000e+03 7.617783355712890625e+01 -3.261312103271484375e+01 -2.417846769094467163e-01 8.752919197082519531e+00 2.553340435028076172e+00 -3.600121736526489258e-01
1.598000000000000000e+03 7.509365844726562500e+01 -3.027922248840332031e+01 -4.257391989231109619e-01 8.472270965576171875e+00 2.413959503173828125e+00 -6.388372778892517090e-01
1.599000000000000000e+03 7.719277191162109375e+01 1.594204330444335938e+01 2.842299342155456543e-01 6.668596267700195312e+00 2.085847854614257812e+00 9.859586507081985474e-02
1.600000000000000000e+03 7.644438934326171875e+01 -2.681735420227050781e+01 -2.015518993139266968e-01 8.408322334289550781e+00 2.462031126022338867e+00 -1.082834959030151367e+00
1.601000000000000000e+03 7.686887359619140625e+01 -2.385969734191894531e+01 1.505416701547801495e-03 7.859323978424072266e+00 2.358248949050903320e+00 -1.185408353805541992e+00
1.602000000000000000e+03 7.663758850097656250e+01 -2.528956604003906250e+01 -1.144371330738067627e-01 8.162718772888183594e+00 2.414484500885009766e+00 -1.135003328323364258e+00
1.603000000000000000e+03 7.631862640380859375e+01 -2.988638687133789062e+01 -2.970785498619079590e-01 8.683994293212890625e+00 2.516074657440185547e+00 -6.544630527496337891e-01
1.604000000000000000e+03 7.690201568603515625e+01 2.307753562927246094e+01 -1.078954339027404785e-01 7.562180519104003906e+00 2.236285448074340820e+00 7.797507643699645996e-01
1.605000000000000000e+03 7.565355682373046875e+01 2.243091583251953125e+01 -9.206497669219970703e-02 7.641300678253173828e+00 2.264770746231079102e+00 9.185093045234680176e-01
1.606000000000000000e+03 7.712132263183593750e+01 -2.269554138183593750e+01 1.342301964759826660e-01 7.475757598876953125e+00 2.282996177673339844e+00 -1.107342481613159180e+00
1.607000000000000000e+03 7.622610473632812500e+01 2.592265129089355469e+01 -3.033375144004821777e-01 7.778882026672363281e+00 2.242663383483886719e+00 5.543959736824035645e-01
1.608000000000000000e+03 7.650284576416015625e+01 2.446144485473632812e+01 -1.795356124639511108e-01 7.670773506164550781e+00 2.247371435165405273e+00 6.657041907310485840e-01
1.609000000000000000e+03 7.679767608642578125e+01 1.332271003723144531e+01 2.642468512058258057e-01 6.939488887786865234e+00 2.161120653152465820e+00 -3.688215017318725586e-01
1.610000000000000000e+03 7.556063079833984375e+01 3.040736389160156250e+01 -2.179686427116394043e-01 7.565449714660644531e+00 2.204244375228881836e+00 1.098879985511302948e-02
1.611000000000000000e+03 7.675827789306640625e+01 8.947116851806640625e+00 2.043450623750686646e-02 7.287145137786865234e+00 2.192273855209350586e+00 -6.581432223320007324e-01
1.612000000000000000e+03 7.677082824707031250e+01 -1.719998359680175781e+01 4.924892187118530273e-01 6.850004673004150391e+00 2.202748298645019531e+00 -1.031419113278388977e-01
1.613000000000000000e+03 7.690581512451171875e+01 -1.425572013854980469e+01 2.635127902030944824e-01 6.854299068450927734e+00 2.135343551635742188e+00 4.852226674556732178e-01
1.614000000000000000e+03 7.681182098388671875e+01 -1.568548393249511719e+01 3.855858147144317627e-01 6.859897136688232422e+00 2.173644781112670898e+00 2.594798207283020020e-01
1.615000000000000000e+03 7.706890106201171875e+01 -6.477836132049560547e+00 -1.581283509731292725e-01 7.651270866394042969e+00 2.247942686080932617e+00 5.119750499725341797e-01
1.616000000000000000e+03 7.705541229248046875e+01 -7.792799949645996094e+00 -1.275340616703033447e-01 7.531951427459716797e+00 2.221325159072875977e+00 6.104727983474731445e-01
1.617000000000000000e+03 7.680854034423828125e+01 2.939670681953430176e-01 -1.892237514257431030e-01 7.823009490966796875e+00 2.290135860443115234e+00 -8.345896750688552856e-02
1.618000000000000000e+03 7.681238555908203125e+01 -1.133755922317504883e+00 -1.612827777862548828e-01 7.820141315460205078e+00 2.297657489776611328e+00 3.949390351772308350e-02
1.619000000000000000e+03 7.730813598632812500e+01 1.861882591247558594e+01 2.105672210454940796e-01 6.767707824707031250e+00 2.093482494354248047e+00 4.863852560520172119e-01
1.620000000000000000e+03 7.748066711425781250e+01 2.182276153564453125e+01 -2.437548246234655380e-03 7.197862148284912109e+00 2.158627510070800781e+00 7.173169255256652832e-01
1.621000000000000000e+03 7.689028930664062500e+01 7.499063491821289062e+00 -8.363503217697143555e-02 7.408144474029541016e+00 2.197352886199951172e+00 -6.728755235671997070e-01
1.622000000000000000e+03 7.688597106933593750e+01 6.092503547668457031e+00 -1.119111627340316772e-01 7.532334327697753906e+00 2.226126909255981445e+00 -5.531811118125915527e-01
1.623000000000000000e+03 7.682908630371093750e+01 3.190129756927490234e+00 -1.772597730159759521e-01 7.735898971557617188e+00 2.267591714859008789e+00 -3.342239856719970703e-01
1.624000000000000000e+03 7.684622955322265625e+01 -2.545410633087158203e+00 -1.701429635286331177e-01 7.815539360046386719e+00 2.293618917465209961e+00 1.639428585767745972e-01
1.625000000000000000e+03 7.693346405029296875e+01 -3.905047178268432617e+00 -1.480539888143539429e-01 7.774068832397460938e+00 2.287804365158081055e+00 2.777808904647827148e-01
1.626000000000000000e+03 7.708296966552734375e+01 -9.128095626831054688e+00 -9.541372954845428467e-02 7.381790161132812500e+00 2.185912847518920898e+00 6.962487101554870605e-01
1.627000000000000000e+03 7.715760803222656250e+01 -1.040794372558593750e+01 -2.073484659194946289e-02 7.210245132446289062e+00 2.156853199005126953e+00 7.291423678398132324e-01
1.628000000000000000e+03 7.699237823486328125e+01 -2.031614303588867188e+01 3.300866484642028809e-01 7.091882228851318359e+00 2.226590633392333984e+00 -7.838971614837646484e-01
1.629000000000000000e+03 7.720007324218750000e+01 1.731830024719238281e+01 2.466419488191604614e-01 6.720766544342041016e+00 2.090222597122192383e+00 3.081819415092468262e-01
1.630000000000000000e+03 3.785559463500976562e+01 -5.189211845397949219e+00 -8.078302145004272461e-01 1.695248365402221680e+00 2.662254571914672852e-01 1.209793925285339355e+00
1.631000000000000000e+03 4.428203582763671875e+01 6.336429595947265625e+00 -1.608120203018188477e-01 1.331128883361816406e+01 3.945142984390258789e+00 -1.626405000686645508e+00
1.632000000000000000e+03 2.979271697998046875e+01 -1.357764053344726562e+01 1.004346132278442383e+00 -6.907450407743453979e-02 2.805814743041992188e-01 -8.672653138637542725e-02
1.633000000000000000e+03 4.011658096313476562e+01 1.609764862060546875e+01 7.763994336128234863e-01 4.210976600646972656e+00 1.496212720870971680e+00 -1.613600254058837891e+00
1.634000000000000000e+03 4.769902801513671875e+01 1.247334194183349609e+01 8.548988103866577148e-01 1.087698745727539062e+01 3.519565820693969727e+00 1.675272345542907715e+00
1.635000000000000000e+03 5.021143722534179688e+01 1.631242752075195312e+01 1.296309351921081543e+00 9.261414527893066406e+00 3.167317152023315430e+00 3.015071392059326172e+00
1.636000000000000000e+03 5.501316452026367188e+01 2.723005104064941406e+01 -4.604930281639099121e-01 2.455216407775878906e+00 5.984170436859130859e-01 1.704416275024414062e+00
1.637000000000000000e+03 3.725462436676025391e+00 3.051885986328125000e+01 3.116075182333588600e-03 -1.288028359413146973e-01 -3.770602867007255554e-02 6.601800024509429932e-02
1.638000000000000000e+03 3.716433525085449219e+00 3.204034805297851562e+01 5.831895396113395691e-03 -1.469029486179351807e-01 -4.232131689786911011e-02 5.985422432422637939e-02
1.639000000000000000e+03 3.384402990341186523e+00 2.328943252563476562e+01 -9.478458203375339508e-03 -4.306452721357345581e-02 -1.576289534568786621e-02 4.190293326973915100e-02
1.640000000000000000e+03 3.467087030410766602e+00 2.470564270019531250e+01 -1.004157494753599167e-02 -5.706756189465522766e-02 -2.013274095952510834e-02 4.879644513130187988e-02
1.641000000000000000e+03 3.796924829483032227e+00 3.713196182250976562e+01 1.263779588043689728e-02 -1.931482404470443726e-01 -5.415313318371772766e-02 4.050225019454956055e-02
1.642000000000000000e+03 3.629614830017089844e+00 2.756521987915039062e+01 -5.549642257392406464e-03 -9.023199975490570068e-02 -2.873449213802814484e-02 6.175098568201065063e-02
1.643000000000000000e+03 3.688120841979980469e+00 2.902377510070800781e+01 -1.330711646005511284e-03 -1.069794148206710815e-01 -3.249303624033927917e-02 6.489952653646469116e-02
1.644000000000000000e+03 3.485038042068481445e+00 -2.846880722045898438e+01 1.535057555884122849e-02 -5.852670669555664062e-01 -1.709749549627304077e-01 2.505174465477466583e-02
1.645000000000000000e+03 3.205548286437988281e+00 -2.579477500915527344e+01 2.524198405444622040e-02 -6.044214963912963867e-01 -1.737538427114486694e-01 -4.955183714628219604e-03
1.646000000000000000e+03 3.694361925125122070e+00 -2.982206344604492188e+01 -1.112640835344791412e-03 -5.652082562446594238e-01 -1.698962599039077759e-01 2.565466612577438354e-02
1.647000000000000000e+03 3.087973117828369141e+00 -5.383423328399658203e+00 -2.738681621849536896e-02 -7.064615935087203979e-02 -2.940989285707473755e-02 -8.161215484142303467e-02
1.648000000000000000e+03 2.924626827239990234e+00 -1.040144729614257812e+01 -1.229921821504831314e-02 -2.126257568597793579e-01 -6.747749447822570801e-02 -1.323815286159515381e-01
1.649000000000000000e+03 2.867432594299316406e+00 -9.123179435729980469e+00 -1.553635206073522568e-02 -1.737734228372573853e-01 -5.679293349385261536e-02 -1.201153695583343506e-01
1.650000000000000000e+03 3.155802726745605469e+00 -1.307903766632080078e+01 -7.051534950733184814e-03 -2.873940765857696533e-01 -8.833368122577667236e-02 -1.564216762781143188e-01
1.651000000000000000e+03 3.022000789642333984e+00 -1.170055866241455078e+01 -1.256929431110620499e-02 -2.510560750961303711e-01 -7.908760756254196167e-02 -1.442790031433105469e-01
1.652000000000000000e+03 2.982273101806640625e+00 -2.050883674621582031e+01 3.257169947028160095e-02 -5.494440197944641113e-01 -1.550616919994354248e-01 -9.944301098585128784e-02
1.653000000000000000e+03 3.056571006774902344e+00 -1.913085174560546875e+01 2.452987618744373322e-02 -5.004772543907165527e-01 -1.427842229604721069e-01 -1.225238442420959473e-01
1.654000000000000000e+03 2.965916872024536133e+00 -2.316596603393554688e+01 3.787824138998985291e-02 -6.053766608238220215e-01 -1.702495366334915161e-01 -4.527015239000320435e-02
1.655000000000000000e+03 2.969697475433349609e+00 -2.185543060302734375e+01 3.267915546894073486e-02 -5.853721499443054199e-01 -1.658078879117965698e-01 -7.161904126405715942e-02
1.656000000000000000e+03 4.849287509918212891e+00 -2.825368881225585938e+01 2.822700329124927521e-02 -4.279972910881042480e-01 -1.199310868978500366e-01 9.489485993981361389e-03
1.657000000000000000e+03 4.180704593658447266e+00 -3.124596977233886719e+01 -5.934902466833591461e-03 -5.133613944053649902e-01 -1.557888835668563843e-01 1.786000281572341919e-02
1.658000000000000000e+03 2.609575033187866211e+00 -3.322404098510742188e+01 2.601411426439881325e-03 -6.629115343093872070e-01 -1.980930417776107788e-01 2.471925131976604462e-02
1.659000000000000000e+03 3.075929164886474609e+00 1.638577842712402344e+01 -5.844116676598787308e-03 -3.336908994242548943e-03 -2.754307584837079048e-03 7.599548902362585068e-03
1.660000000000000000e+03 3.127458095550537109e+00 1.774890327453613281e+01 -6.143092643469572067e-03 -7.652336731553077698e-03 -4.138628952205181122e-03 1.324139628559350967e-02
1.661000000000000000e+03 3.009268045425415039e+00 1.366602325439453125e+01 -3.257990581914782524e-03 1.124011469073593616e-03 -6.401937571354210377e-04 1.229321002028882504e-03
1.662000000000000000e+03 3.037354230880737305e+00 1.502381706237792969e+01 -3.283154917880892754e-03 -6.273229373618960381e-04 -1.173143391497433186e-03 4.472007043659687042e-03
1.663000000000000000e+03 3.078618764877319336e+00 6.473548889160156250e+00 5.390153382904827595e-04 1.255074981600046158e-03 5.382270901463925838e-04 -2.461523283272981644e-03
1.664000000000000000e+03 3.030765295028686523e+00 -2.447080612182617188e+01 3.266669064760208130e-02 -6.079793572425842285e-01 -1.725938022136688232e-01 -1.975294016301631927e-02
1.665000000000000000e+03 3.357368469238281250e+00 -1.618062210083007812e+01 1.212284434586763382e-02 -3.797833323478698730e-01 -1.102981418371200562e-01 -1.640687584877014160e-01
1.666000000000000000e+03 3.337245941162109375e+00 -1.458869838714599609e+01 1.803274499252438545e-04 -3.253122270107269287e-01 -9.753957390785217285e-02 -1.670564115047454834e-01
1.667000000000000000e+03 2.858007669448852539e+00 -7.858072280883789062e+00 -1.619187556207180023e-02 -1.361472010612487793e-01 -4.570171982049942017e-02 -1.073520407080650330e-01
1.668000000000000000e+03 2.901292324066162109e+00 5.181865692138671875e+00 8.799685019766911864e-05 1.203244552016258240e-03 3.873724199365824461e-04 -1.885510399006307125e-03
1.669000000000000000e+03 2.986741065979003906e+00 1.097243022918701172e+01 -1.591165200807154179e-03 2.330680843442678452e-03 2.218547306256368756e-04 -1.626225304789841175e-03
1.670000000000000000e+03 2.988929986953735352e+00 1.231445121765136719e+01 -1.084007672034204006e-03 1.975917723029851913e-03 2.675730502232909203e-04 -1.035818568198010325e-04
1.671000000000000000e+03 3.246361255645751953e+00 2.049090957641601562e+01 -8.650357834994792938e-03 -2.122331410646438599e-02 -8.962101303040981293e-03 2.609978429973125458e-02
1.672000000000000000e+03 3.311616420745849609e+00 2.188149833679199219e+01 -1.050209905952215195e-02 -3.092212416231632233e-02 -1.242726668715476990e-02 3.284263610839843750e-02
1.673000000000000000e+03 3.183737277984619141e+00 1.911645317077636719e+01 -8.572832681238651276e-03 -1.345746964216232300e-02 -6.609090603888034821e-03 1.833130046725273132e-02
1.674000000000000000e+03 3.064197778701782227e+00 8.399314880371093750e+00 -7.336391718126833439e-04 1.767747453413903713e-03 3.102324844803661108e-04 -2.654114039614796638e-03
1.675000000000000000e+03 2.999835014343261719e+00 9.660089492797851562e+00 1.793195697246119380e-04 2.358856378123164177e-03 7.614528294652700424e-04 -1.815940951928496361e-03
1.676000000000000000e+03 2.843417930603027344e+01 -1.248129272460937500e+01 7.091675996780395508e-01 -8.694129437208175659e-02 1.866678893566131592e-01 -2.145344465970993042e-01
1.677000000000000000e+03 7.119561004638671875e+01 -2.025104331970214844e+01 1.461992979049682617e+00 1.043994617462158203e+01 3.570581912994384766e+00 -1.082834005355834961e+00
1.678000000000000000e+03 7.064017486572265625e+01 -1.815942192077636719e+01 1.820427060127258301e+00 1.200241851806640625e+01 4.146853446960449219e+00 -5.083320736885070801e-01
1.679000000000000000e+03 8.381926536560058594e+00 -1.624600601196289062e+01 1.717470958828926086e-02 6.545827537775039673e-02 2.478989586234092712e-02 -2.290607541799545288e-01
1.680000000000000000e+03 1.054265880584716797e+01 -1.738270187377929688e+01 4.880445823073387146e-02 3.249305784702301025e-01 1.121205091476440430e-01 -1.581242233514785767e-01
1.681000000000000000e+03 6.891040802001953125e+01 9.360610961914062500e+00 1.093817502260208130e-01 7.708498001098632812e+00 2.345363855361938477e+00 5.595626831054687500e-01
1.682000000000000000e+03 4.342210388183593750e+01 -1.954152107238769531e+01 1.334766387939453125e+00 8.856358528137207031e+00 3.057337522506713867e+00 8.180077075958251953e-01
1.683000000000000000e+03 4.378262710571289062e+01 -2.206604194641113281e+01 1.533856034278869629e+00 8.259047508239746094e+00 2.937870979309082031e+00 5.308099389076232910e-01
1.684000000000000000e+03 6.545113372802734375e+01 -9.988549232482910156e+00 4.538578689098358154e-01 4.178260803222656250e+00 1.389635682106018066e+00 -2.063459157943725586e+00
1.685000000000000000e+03 4.589259719848632812e+01 8.408621788024902344e+00 6.544800400733947754e-01 1.253705692291259766e+01 3.957461118698120117e+00 2.664606869220733643e-01
1.686000000000000000e+03 4.728903198242187500e+01 9.609005928039550781e+00 6.930735707283020020e-01 1.266799354553222656e+01 4.008320331573486328e+00 1.179199099540710449e+00
1.687000000000000000e+03 6.461608123779296875e+01 2.537354087829589844e+01 -7.132750749588012695e-01 2.259678602218627930e+00 4.639210402965545654e-01 -1.345760226249694824e+00
1.688000000000000000e+03 6.284285736083984375e+01 2.604430770874023438e+01 -3.922964036464691162e-01 1.316174030303955078e+00 2.771632969379425049e-01 -6.610635519027709961e-01
1.689000000000000000e+03 5.725827789306640625e+01 2.586190605163574219e+01 -4.889398515224456787e-01 1.166008114814758301e+00 2.031204849481582642e-01 1.364639043807983398e+00
1.690000000000000000e+03 5.567437362670898438e+01 2.540631675720214844e+01 -5.637943744659423828e-01 1.844576716423034668e+00 3.842346966266632080e-01 1.697848916053771973e+00
1.691000000000000000e+03 4.370779037475585938e+01 -1.599913120269775391e+01 1.151184201240539551e+00 9.133058547973632812e+00 3.085272789001464844e+00 1.071323752403259277e+00
1.692000000000000000e+03 1.569242477416992188e+01 1.689153480529785156e+01 -4.497195780277252197e-02 -8.919189684092998505e-03 -1.616734452545642853e-02 -3.230414167046546936e-02
1.693000000000000000e+03 1.567245674133300781e+01 1.537609195709228516e+01 -1.771960221230983734e-02 -6.279771216213703156e-03 -7.199811749160289764e-03 -1.096297521144151688e-02
1.694000000000000000e+03 1.900234603881835938e+01 4.502726078033447266e+00 -3.124981012661010027e-04 1.214148593135178089e-03 2.704951330088078976e-04 9.118014131672680378e-04
1.695000000000000000e+03 1.940594291687011719e+01 2.127053022384643555e+00 2.272378042107447982e-04 4.206287267152220011e-04 1.943599636433646083e-04 3.564757935237139463e-04
1.696000000000000000e+03 2.662377929687500000e+01 -5.107846736907958984e+00 -1.097831010818481445e+00 9.733550995588302612e-02 -3.001486659049987793e-01 2.138680815696716309e-01
1.697000000000000000e+03 2.463392829895019531e+01 -5.522893905639648438e+00 -7.821673154830932617e-01 1.847616285085678101e-01 -1.792217046022415161e-01 4.266091063618659973e-02
1.698000000000000000e+03 3.874056243896484375e+01 -2.583409690856933594e+01 1.305220365524291992e+00 5.464231014251708984e+00 2.030835390090942383e+00 1.467760086059570312e+00
1.699000000000000000e+03 4.571199417114257812e+01 7.045094966888427734e+00 6.619115173816680908e-02 1.373481369018554688e+01 4.140301227569580078e+00 1.121161133050918579e-01
1.700000000000000000e+03 6.914071655273437500e+01 -1.200196647644042969e+01 1.335429549217224121e-01 9.073771476745605469e+00 2.762194395065307617e+00 -8.043735623359680176e-01
1.701000000000000000e+03 2.682036590576171875e+01 2.481711196899414062e+01 -7.740744203329086304e-02 2.499804496765136719e-01 5.177190527319908142e-02 -2.249874174594879150e-01
1.702000000000000000e+03 7.016799926757812500e+01 -2.425587081909179688e+01 -5.330418944358825684e-01 9.274700164794921875e+00 2.622497558593750000e+00 -3.821543157100677490e-01
1.703000000000000000e+03 1.565899848937988281e+01 1.382047080993652344e+01 -6.918834056705236435e-03 -5.242272280156612396e-03 -3.648331854492425919e-03 -4.841419868171215057e-03
1.704000000000000000e+03 5.629315948486328125e+01 -6.354716300964355469e+00 -4.683315753936767578e-01 4.489203542470932007e-02 -1.270318627357482910e-01 -1.225376844406127930e+00
1.705000000000000000e+03 3.285782623291015625e+01 -8.298755645751953125e+00 -4.725297689437866211e-01 -1.289486140012741089e-01 -1.804435104131698608e-01 -7.290215790271759033e-02
1.706000000000000000e+03 5.274277877807617188e+01 2.442879676818847656e+01 -8.301334977149963379e-01 3.855606555938720703e+00 9.076418876647949219e-01 1.738128185272216797e+00
1.707000000000000000e+03 3.977855682373046875e+01 -2.014372825622558594e+01 1.043698191642761230e+00 5.999183177947998047e+00 2.112864494323730469e+00 1.202166676521301270e+00
1.708000000000000000e+03 4.966724777221679688e+01 2.359387397766113281e+01 -7.842989563941955566e-01 5.412535190582275391e+00 1.388470888137817383e+00 1.044852972030639648e+00
1.709000000000000000e+03 6.598374938964843750e+01 -2.586875152587890625e+01 -4.965586364269256592e-01 3.881680250167846680e+00 1.015536427497863770e+00 1.084807634353637695e+00
1.710000000000000000e+03 6.870298004150390625e+01 -2.550371742248535156e+01 -1.148571014404296875e+00 7.229851245880126953e+00 1.824384093284606934e+00 9.998606145381927490e-02
1.711000000000000000e+03 6.553860473632812500e+01 5.471723079681396484e+00 -1.248006448149681091e-01 3.755269289016723633e+00 1.089140534400939941e+00 1.069538950920104980e+00
1.712000000000000000e+03 4.564645767211914062e+01 -9.683756828308105469e+00 -1.909337162971496582e+00 8.816566467285156250e+00 2.072168588638305664e+00 7.399499416351318359e-01
1.713000000000000000e+03 3.917757797241210938e+01 -6.200115680694580078e+00 -1.106886029243469238e+00 3.973465204238891602e+00 8.599737286567687988e-01 1.632525682449340820e+00
1.714000000000000000e+03 3.492254257202148438e+01 -1.568821620941162109e+01 7.545785307884216309e-01 1.421169757843017578e+00 6.527245044708251953e-01 -5.459489822387695312e-01
1.715000000000000000e+03 4.332352447509765625e+01 8.922273635864257812e+00 1.351419806480407715e+00 1.054613780975341797e+01 3.569267272949218750e+00 -1.459883451461791992e+00
1.716000000000000000e+03 7.151013946533203125e+01 1.573088741302490234e+01 1.506603598594665527e+00 9.641277313232421875e+00 3.344364166259765625e+00 -1.029407083988189697e-01
1.717000000000000000e+03 7.115642547607421875e+01 1.824536895751953125e+01 1.297015666961669922e+00 9.894992828369140625e+00 3.357602596282958984e+00 5.716173648834228516e-01
1.718000000000000000e+03 2.126409339904785156e+01 -3.514470291137695312e+01 1.532629877328872681e-01 2.880517542362213135e-01 1.323944181203842163e-01 -1.533594280481338501e-01
1.719000000000000000e+03 6.747282409667968750e+01 6.910808086395263672e+00 -4.305794537067413330e-01 5.947329044342041016e+00 1.655024766921997070e+00 8.425344228744506836e-01
1.720000000000000000e+03 7.147274017333984375e+01 -1.682973480224609375e+01 1.878096580505371094e+00 1.021949863433837891e+01 3.629278659820556641e+00 -1.087473481893539429e-01
1.721000000000000000e+03 1.001132392883300781e+01 -2.181626701354980469e+01 2.276890873908996582e-01 2.911337018013000488e-01 1.556468456983566284e-01 -1.875579506158828735e-01
1.722000000000000000e+03 1.255053997039794922e+01 -2.472585678100585938e+01 2.178322672843933105e-01 5.377542972564697266e-01 2.266759723424911499e-01 -2.695975899696350098e-01
1.723000000000000000e+03 3.740421295166015625e+01 1.976310920715332031e+01 3.926779031753540039e-01 2.428588390350341797e+00 8.463798761367797852e-01 -1.245736837387084961e+00
1.724000000000000000e+03 3.583193206787109375e+01 1.887118148803710938e+01 5.542813539505004883e-01 1.535907864570617676e+00 6.270567774772644043e-01 -1.041149497032165527e+00
1.725000000000000000e+03 4.133205795288085938e+01 -4.913879871368408203e+00 -1.221045017242431641e+00 6.755433082580566406e+00 1.660316348075866699e+00 2.197647333145141602e+00
1.726000000000000000e+03 6.985741424560546875e+01 1.107279586791992188e+01 6.731205582618713379e-01 9.248997688293457031e+00 2.976635456085205078e+00 3.094848394393920898e-01
1.727000000000000000e+03 3.207278442382812500e+01 -1.303462314605712891e+01 9.872349500656127930e-01 8.036783337593078613e-02 3.202808201313018799e-01 -4.659515991806983948e-02
1.728000000000000000e+03 4.442202377319335938e+01 1.082695770263671875e+01 9.294915199279785156e-01 9.934512138366699219e+00 3.259201288223266602e+00 -4.056827127933502197e-01
1.729000000000000000e+03 4.894927597045898438e+01 -4.521432220935821533e-01 3.844160079956054688e+00 6.085059165954589844e+00 2.978765726089477539e+00 -2.230504274368286133e+00
1.730000000000000000e+03 5.899903488159179688e+01 2.619927024841308594e+01 -3.868519663810729980e-01 8.335736393928527832e-01 1.340164989233016968e-01 7.768942713737487793e-01
1.731000000000000000e+03 5.821014785766601562e+01 -1.379695892333984375e+00 1.748946070671081543e+00 -9.605336189270019531e-02 4.958678185939788818e-01 -6.288577914237976074e-01
1.732000000000000000e+03 4.495152282714843750e+01 -2.514602661132812500e+01 7.700425386428833008e-01 7.230197906494140625e+00 2.400072097778320312e+00 -1.316868811845779419e-01
1.733000000000000000e+03 1.790313148498535156e+01 4.735119342803955078e+00 5.940251139691099524e-05 1.473697135224938393e-03 4.599298990797251463e-04 1.189923030324280262e-03
1.734000000000000000e+03 3.909287643432617188e+01 -2.365749549865722656e+01 1.379560470581054688e+00 5.786516189575195312e+00 2.149822950363159180e+00 1.636580109596252441e+00
1.735000000000000000e+03 1.424645996093750000e+01 1.984288024902343750e+01 -1.249118968844413757e-01 3.849155828356742859e-02 -2.592610195279121399e-02 3.841324709355831146e-03
1.736000000000000000e+03 1.732298660278320312e+01 1.976872253417968750e+01 -1.971082240343093872e-01 3.289388865232467651e-02 -4.926430061459541321e-02 -5.288596451282501221e-02
1.737000000000000000e+03 2.940760231018066406e+01 -6.725357532501220703e+00 -1.341309189796447754e+00 -3.702235519886016846e-01 -5.134598016738891602e-01 -2.266499996185302734e-01
1.738000000000000000e+03 5.259190750122070312e+01 -3.476852655410766602e+00 1.755271911621093750e+00 9.722327589988708496e-01 8.182514309883117676e-01 -9.246649146080017090e-01
1.739000000000000000e+03 4.973735427856445312e+01 -3.142134857177734375e+01 -8.895986676216125488e-01 2.776755809783935547e+00 5.661470890045166016e-01 -1.272234082221984863e+00
1.740000000000000000e+03 5.179878997802734375e+01 -6.480987548828125000e+00 -1.357866168022155762e+00 2.907797396183013916e-01 -3.201259076595306396e-01 -1.302338838577270508e-01
1.741000000000000000e+03 4.641389846801757812e+01 1.263325023651123047e+01 7.459166049957275391e-01 1.015013504028320312e+01 3.268815517425537109e+00 7.931933403015136719e-01
1.742000000000000000e+03 2.490029907226562500e+01 2.350109100341796875e+01 -3.468029499053955078e-01 -6.027716677635908127e-03 -1.058491989970207214e-01 -5.309538915753364563e-02
1.743000000000000000e+03 2.148060417175292969e+01 2.553537750244140625e+01 -1.233443543314933777e-01 2.512303367257118225e-02 -2.946639619767665863e-02 6.536193937063217163e-02
1.744000000000000000e+03 6.991156768798828125e+01 1.825992965698242188e+01 1.650303006172180176e+00 1.040606403350830078e+01 3.616910219192504883e+00 -4.452289342880249023e-01
1.745000000000000000e+03 4.849159240722656250e+01 -1.984317660331726074e+00 1.682402491569519043e+00 6.812622547149658203e+00 2.548507452011108398e+00 -1.235890030860900879e+00
1.746000000000000000e+03 4.957889556884765625e+01 -1.409411430358886719e+00 2.908336877822875977e+00 4.955584526062011719e+00 2.359176397323608398e+00 -1.668651700019836426e+00
1.747000000000000000e+03 1.564551258087158203e+01 1.220178604125976562e+01 -2.058939775452017784e-03 -1.187490532174706459e-03 -9.739291272126138210e-04 1.978192944079637527e-03
1.748000000000000000e+03 7.115648651123046875e+01 -1.461508274078369141e+01 1.636557340621948242e+00 9.720354080200195312e+00 3.407073259353637695e+00 1.178058087825775146e-01
1.749000000000000000e+03 7.134688568115234375e+01 1.951479339599609375e+01 9.369077086448669434e-01 9.237334251403808594e+00 3.052272558212280273e+00 4.564687609672546387e-01
1.750000000000000000e+03 2.800351142883300781e+01 2.412803077697753906e+01 -6.861270964145660400e-02 2.541957497596740723e-01 5.567491054534912109e-02 -2.904838323593139648e-01
1.751000000000000000e+03 1.718441009521484375e+01 1.831978988647460938e+01 -8.463241904973983765e-02 -2.007529698312282562e-02 -3.141231462359428406e-02 -6.483292579650878906e-02
1.752000000000000000e+03 1.572659873962402344e+01 1.837817573547363281e+01 -1.054907813668251038e-01 2.079532854259014130e-02 -2.540863491594791412e-02 -3.369638323783874512e-02
1.753000000000000000e+03 4.210845565795898438e+01 -3.873464763164520264e-01 2.411573171615600586e+00 6.916374683380126953e+00 2.798384428024291992e+00 4.781259536743164062e+00
1.754000000000000000e+03 4.251816558837890625e+01 -1.389428228139877319e-01 2.467235565185546875e+00 7.465266227722167969e+00 2.979750633239746094e+00 5.467555046081542969e+00
1.755000000000000000e+03 4.341336441040039062e+01 5.400286197662353516e+00 -6.332819461822509766e-01 1.245483589172363281e+01 3.546466112136840820e+00 -2.603521585464477539e+00
1.756000000000000000e+03 4.263291549682617188e+01 4.330828189849853516e+00 3.127096593379974365e-01 6.540612220764160156e+00 2.055996417999267578e+00 -2.400287151336669922e+00
1.757000000000000000e+03 4.327575302124023438e+01 4.421746730804443359e+00 -6.459010839462280273e-01 1.175454235076904297e+01 3.332592248916625977e+00 -3.507542371749877930e+00
1.758000000000000000e+03 4.442856979370117188e+01 4.443024158477783203e+00 -1.178303837776184082e+00 1.690213775634765625e+01 4.717150211334228516e+00 -1.093978881835937500e+00
1.759000000000000000e+03 4.282834625244140625e+01 -5.041390061378479004e-01 1.779135465621948242e+00 9.056115150451660156e+00 3.250575304031372070e+00 5.390053749084472656e+00
1.760000000000000000e+03 9.238684654235839844e+00 -3.377528190612792969e+00 -1.807752400636672974e-01 1.090393681079149246e-02 -5.096139386296272278e-02 -1.066868379712104797e-01
1.761000000000000000e+03 1.059484100341796875e+01 -4.085357189178466797e+00 -2.096170336008071899e-01 2.320904098451137543e-02 -5.592239648103713989e-02 -1.328167468309402466e-01
1.762000000000000000e+03 1.953300094604492188e+01 3.222930908203125000e+00 1.009744446491822600e-04 6.133270799182355404e-04 2.142904413631185889e-04 4.656746750697493553e-04
1.763000000000000000e+03 1.112970352172851562e+01 -4.740687370300292969e+00 -2.104591280221939087e-01 2.445716597139835358e-02 -5.580059066414833069e-02 -1.546621769666671753e-01
1.764000000000000000e+03 1.002849388122558594e+01 3.818973541259765625e+00 1.792710390873253345e-03 -1.145621761679649353e-03 1.941266091307625175e-04 9.837074321694672108e-05
1.765000000000000000e+03 7.073679924011230469e+00 4.013730049133300781e+00 1.552276313304901123e-03 -8.556836983188986778e-04 2.089777844958007336e-04 -1.395846018567681313e-03
1.766000000000000000e+03 1.190941143035888672e+01 -4.349532127380371094e+00 -2.504322528839111328e-01 3.170369938015937805e-02 -6.561856716871261597e-02 -1.446741968393325806e-01
1.767000000000000000e+03 7.720680713653564453e+00 3.266851425170898438e+00 1.944143557921051979e-03 -7.171142497099936008e-04 3.681087982840836048e-04 -1.036575413309037685e-03
1.768000000000000000e+03 8.462168693542480469e+00 3.233375310897827148e+00 2.262598602101206779e-03 -7.740844739601016045e-04 4.465542442630976439e-04 -7.890016422607004642e-04
1.769000000000000000e+03 9.280256271362304688e+00 3.875025272369384766e+00 2.065709792077541351e-03 -1.233161194249987602e-03 2.497645618859678507e-04 -4.030400596093386412e-04
1.770000000000000000e+03 5.703080177307128906e+00 4.973531723022460938e+00 1.131275086663663387e-03 -6.007585907354950905e-04 1.591549371369183064e-04 -2.169606043025851250e-03
1.771000000000000000e+03 5.557559967041015625e+00 4.192358016967773438e+00 1.196386991068720818e-03 -4.198851820547133684e-04 2.329505223315209150e-04 -1.782707637175917625e-03
1.772000000000000000e+03 5.477027893066406250e+00 3.416105270385742188e+00 1.550101325847208500e-03 -1.198792597278952599e-04 4.290666256565600634e-04 -1.857647206634283066e-03
1.773000000000000000e+03 6.327050209045410156e+00 4.100317955017089844e+00 1.511562033556401730e-03 -5.885184509679675102e-04 2.769130805972963572e-04 -1.810203306376934052e-03
1.774000000000000000e+03 3.055312633514404297e+00 4.196060657501220703e+00 1.281809061765670776e-03 9.673300082795321941e-04 6.747417501173913479e-04 -1.904689706861972809e-03
1.775000000000000000e+03 1.481019878387451172e+01 -4.862946033477783203e+00 -3.248170018196105957e-01 4.038661718368530273e-02 -8.532911539077758789e-02 -1.572910249233245850e-01
1.776000000000000000e+03 1.261141777038574219e+01 -4.532078266143798828e+00 -2.660125195980072021e-01 2.784410305321216583e-02 -7.145052403211593628e-02 -1.521934419870376587e-01
1.777000000000000000e+03 4.196105480194091797e+00 -4.151373386383056641e+00 -4.917546361684799194e-02 -4.340035095810890198e-02 -2.777274325489997864e-02 -8.277776092290878296e-02
1.778000000000000000e+03 6.254589557647705078e+00 -3.211145639419555664e+00 -9.563031047582626343e-02 -1.382062118500471115e-02 -3.283527866005897522e-02 -8.626652508974075317e-02
1.779000000000000000e+03 7.664855003356933594e+00 -4.096770763397216797e+00 -1.266026794910430908e-01 -5.053296219557523727e-03 -3.949679434299468994e-02 -1.199794560670852661e-01
1.780000000000000000e+03 9.305496215820312500e+00 -4.933997631072998047e+00 -1.601108312606811523e-01 4.693667870014905930e-03 -4.662515223026275635e-02 -1.526785045862197876e-01
1.781000000000000000e+03 8.458549499511718750e+00 -4.152155399322509766e+00 -1.491432040929794312e-01 8.510884363204240799e-04 -4.448763281106948853e-02 -1.254301965236663818e-01
1.782000000000000000e+03 4.065141677856445312e+00 -6.778244018554687500e+00 -3.539173677563667297e-02 -9.104429930448532104e-02 -3.793080896139144897e-02 -1.225416287779808044e-01
1.783000000000000000e+03 5.535325050354003906e+00 -3.176242828369140625e+00 -7.919508963823318481e-02 -1.622257009148597717e-02 -2.862529829144477844e-02 -7.952897995710372925e-02
1.784000000000000000e+03 6.728671550750732422e+00 -4.761242389678955078e+00 -9.776082634925842285e-02 -2.326994203031063080e-02 -3.630923107266426086e-02 -1.276810020208358765e-01
1.785000000000000000e+03 4.899240493774414062e+00 -3.852310895919799805e+00 -6.413310766220092773e-02 -2.890386432409286499e-02 -2.791109122335910797e-02 -8.686440438032150269e-02
1.786000000000000000e+03 6.882388114929199219e+00 -4.007797241210937500e+00 -1.068864762783050537e-01 -1.507855206727981567e-02 -3.658950701355934143e-02 -1.104063838720321655e-01
1.787000000000000000e+03 1.408735656738281250e+01 -4.776062965393066406e+00 -3.099649250507354736e-01 3.543527424335479736e-02 -8.235889673233032227e-02 -1.566026061773300171e-01
1.788000000000000000e+03 1.308901786804199219e+01 4.272846698760986328e+00 1.681944588199257851e-03 -1.199058373458683491e-03 1.448658731533214450e-04 1.542119774967432022e-03
1.789000000000000000e+03 1.231191062927246094e+01 3.589359045028686523e+00 1.976553816348314285e-03 -1.083372160792350769e-03 2.679545141290873289e-04 1.151357661001384258e-03
1.790000000000000000e+03 1.548417949676513672e+01 -5.562484741210937500e+00 -2.903023362159729004e-01 5.142075195908546448e-02 -7.166447490453720093e-02 -1.789303570985794067e-01
1.791000000000000000e+03 1.567117786407470703e+01 -4.336046218872070312e+00 -3.898136019706726074e-01 3.153599053621292114e-02 -1.074832826852798462e-01 -1.255013793706893921e-01
1.792000000000000000e+03 1.389545154571533203e+01 4.243165493011474609e+00 1.093718572519719601e-03 -6.426254985854029655e-04 1.353279076283797622e-04 2.057986799627542496e-03
1.793000000000000000e+03 1.071476936340332031e+01 3.068811893463134766e+00 2.132879337295889854e-03 -8.133192895911633968e-04 3.958680026698857546e-04 4.404635692480951548e-04
1.794000000000000000e+03 1.610806274414062500e+01 -5.254176616668701172e+00 -3.464507162570953369e-01 3.894039988517761230e-02 -9.225309640169143677e-02 -1.545943617820739746e-01
1.795000000000000000e+03 1.534290599822998047e+01 2.406424760818481445e+00 1.088208169676363468e-03 -7.031633140286430717e-05 3.053675463888794184e-04 1.420720363967120647e-03
1.796000000000000000e+03 4.425012588500976562e+01 5.004375934600830078e+00 -1.236982464790344238e+00 1.535427856445312500e+01 4.235188961029052734e+00 -1.775625824928283691e+00
1.797000000000000000e+03 4.363780975341796875e+01 -5.137339830398559570e-01 7.030096054077148438e-01 1.261915302276611328e+01 3.996648788452148438e+00 4.614154815673828125e+00
1.798000000000000000e+03 4.399608612060546875e+01 -1.021724820137023926e+00 2.398646473884582520e-01 1.191113281250000000e+01 3.645299196243286133e+00 3.174091815948486328e+00
1.799000000000000000e+03 2.065914726257324219e+01 -5.531404495239257812e+00 -4.763219952583312988e-01 6.951520591974258423e-02 -1.220420375466346741e-01 -4.306820407509803772e-02
1.800000000000000000e+03 1.583520603179931641e+01 -1.004323768615722656e+01 1.215681359171867371e-01 1.056889817118644714e-01 6.817713379859924316e-02 -2.334194481372833252e-01
1.801000000000000000e+03 1.338305854797363281e+01 -1.084487247467041016e+01 7.027022540569305420e-02 -8.201128803193569183e-03 1.862072944641113281e-02 -1.463976651430130005e-01
1.802000000000000000e+03 1.980987930297851562e+01 -5.544985294342041016e+00 -4.332491755485534668e-01 7.320574671030044556e-02 -1.080130264163017273e-01 -8.168387413024902344e-02
1.803000000000000000e+03 1.154307174682617188e+01 3.662479639053344727e+00 1.776144723407924175e-03 -1.078711822628974915e-03 2.092298818752169609e-04 9.377612732350826263e-04
1.804000000000000000e+03 1.078249263763427734e+01 3.740437030792236328e+00 2.097100717946887016e-03 -1.270768116228282452e-03 2.478997921571135521e-04 4.213897045701742172e-04
1.805000000000000000e+03 2.311390495300292969e+01 -5.590705871582031250e+00 -6.182848811149597168e-01 1.573763340711593628e-01 -1.382725685834884644e-01 9.693555533885955811e-03
1.806000000000000000e+03 2.428086853027343750e+01 -7.304703712463378906e+00 -5.306282043457031250e-01 1.484744101762771606e-01 -1.146461367607116699e-01 -1.555299758911132812e-01
1.807000000000000000e+03 1.698576927185058594e+01 2.522076606750488281e+00 3.627707192208617926e-04 4.336170095484703779e-04 2.389163128100335598e-04 1.085447962395846844e-03
1.808000000000000000e+03 4.542362594604492188e+01 -1.386161804199218750e+00 -8.580812811851501465e-02 1.231937122344970703e+01 3.670068979263305664e+00 5.897483229637145996e-01
1.809000000000000000e+03 1.834707069396972656e+01 1.855841398239135742e+00 3.711567842401564121e-04 3.857104748021811247e-04 2.270601835334673524e-04 5.464805872179567814e-04
1.810000000000000000e+03 1.637765312194824219e+01 2.981840133666992188e+00 6.565084913745522499e-04 2.648177614901214838e-04 2.763978845905512571e-04 1.523476792499423027e-03
1.811000000000000000e+03 2.147468566894531250e+01 -5.547506809234619141e+00 -5.073622465133666992e-01 9.587858617305755615e-02 -1.234451010823249817e-01 -2.652339451014995575e-02
1.812000000000000000e+03 4.656863784790039062e+01 1.511757493019104004e+00 5.725147247314453125e+00 1.247875595092773438e+01 5.461171150207519531e+00 -1.524939179420471191e+00
1.813000000000000000e+03 2.303715896606445312e+01 -9.797358512878417969e+00 7.047551218420267105e-03 9.558518975973129272e-02 3.078982234001159668e-02 -2.637407183647155762e-01
1.814000000000000000e+03 2.147440528869628906e+01 -1.160052108764648438e+01 3.521229028701782227e-01 4.027236998081207275e-02 1.177185773849487305e-01 -2.487235069274902344e-01
1.815000000000000000e+03 1.879031944274902344e+01 -9.681823730468750000e+00 6.175904348492622375e-02 1.183994784951210022e-01 5.404755473136901855e-02 -1.886152923107147217e-01
1.816000000000000000e+03 7.298604583740234375e+01 -1.786476135253906250e+01 1.527828335762023926e+00 9.069246292114257812e+00 3.179122209548950195e+00 -4.283189177513122559e-01
1.817000000000000000e+03 7.244786071777343750e+01 -1.566345024108886719e+01 1.534853219985961914e+00 9.127002716064453125e+00 3.198556900024414062e+00 2.525629699230194092e-01
1.818000000000000000e+03 2.391449546813964844e+01 -5.524631977081298828e+00 -6.923022866249084473e-01 1.683966070413589478e-01 -1.571716964244842529e-01 3.468961641192436218e-02
1.819000000000000000e+03 1.588172912597656250e+01 1.061659908294677734e+01 -3.656610497273504734e-04 -2.138796844519674778e-04 -1.738622231641784310e-04 2.410290995612740517e-03
1.820000000000000000e+03 1.520662593841552734e+01 8.858330726623535156e+00 5.709879915229976177e-04 -1.020403578877449036e-03 -1.348246732959523797e-04 3.098441055044531822e-03
1.821000000000000000e+03 1.886112976074218750e+01 1.918657660484313965e+00 1.024213634082116187e-04 3.906515776179730892e-04 1.479218917666003108e-04 5.115429521538317204e-04
1.822000000000000000e+03 3.983237838745117188e+01 -1.928068351745605469e+01 1.082518577575683594e+00 6.044653415679931641e+00 2.138151645660400391e+00 1.019002676010131836e+00
1.823000000000000000e+03 3.876711654663085938e+01 -1.915406227111816406e+01 7.186903357505798340e-01 5.453954696655273438e+00 1.851793408393859863e+00 7.886961698532104492e-01
1.824000000000000000e+03 1.160950469970703125e+01 -1.240358161926269531e+01 7.297285366803407669e-03 4.405316337943077087e-02 1.540513429790735245e-02 -9.662827849388122559e-02
1.825000000000000000e+03 7.607129669189453125e+01 -3.559961318969726562e+01 -1.875591576099395752e-01 8.840308189392089844e+00 2.595824718475341797e+00 -1.423335969448089600e-01
1.826000000000000000e+03 7.475737762451171875e+01 -3.387881088256835938e+01 -3.109010159969329834e-01 8.246522903442382812e+00 2.380686521530151367e+00 -2.181942909955978394e-01
1.827000000000000000e+03 7.132381439208984375e+01 9.658179283142089844e+00 1.709739267826080322e-01 8.314843177795410156e+00 2.545744895935058594e+00 -3.881271779537200928e-01
1.828000000000000000e+03 1.426239585876464844e+01 1.686964607238769531e+01 -5.898695811629295349e-02 8.437124080955982208e-03 -1.516494993120431900e-02 -1.759204454720020294e-02
1.829000000000000000e+03 1.432065391540527344e+01 1.536595916748046875e+01 -2.551684156060218811e-02 -6.725103594362735748e-03 -9.672584012150764465e-03 -1.383242942392826080e-02
1.830000000000000000e+03 7.360485839843750000e+01 -2.062440490722656250e+01 9.712989330291748047e-01 8.677300453186035156e+00 2.894579887390136719e+00 -1.269037246704101562e+00
1.831000000000000000e+03 5.105234146118164062e+00 -2.368280792236328125e+01 8.126994967460632324e-02 -3.559529483318328857e-01 -8.240489661693572998e-02 -6.279716640710830688e-02
1.832000000000000000e+03 7.114408874511718750e+01 -2.409657859802246094e+01 -6.511101126670837402e-01 9.004392623901367188e+00 2.505984783172607422e+00 -1.105127096176147461e+00
1.833000000000000000e+03 3.620090866088867188e+01 -1.282267475128173828e+01 6.520755887031555176e-01 2.296740770339965820e+00 8.846449255943298340e-01 2.675019577145576477e-02
1.834000000000000000e+03 4.444632339477539062e+01 -1.508716487884521484e+01 1.185783624649047852e+00 9.842086791992187500e+00 3.308361291885375977e+00 1.186751484870910645e+00
1.835000000000000000e+03 4.283169937133789062e+01 -1.691508102416992188e+01 1.220936894416809082e+00 8.398738861083984375e+00 2.885902643203735352e+00 9.619891643524169922e-01
1.836000000000000000e+03 7.001281738281250000e+01 -1.339368343353271484e+01 1.128933668136596680e+00 1.012489032745361328e+01 3.376147270202636719e+00 -4.092794358730316162e-01
1.837000000000000000e+03 1.998232460021972656e+01 -9.095709800720214844e+00 -4.133170470595359802e-02 1.098119840025901794e-01 2.054408378899097443e-02 -1.832156032323837280e-01
1.838000000000000000e+03 7.551260375976562500e+01 1.398923587799072266e+01 5.122315287590026855e-01 7.296555995941162109e+00 2.342636346817016602e+00 -3.371171355247497559e-01
1.839000000000000000e+03 7.366078948974609375e+01 1.390044116973876953e+01 8.632595539093017578e-01 8.040671348571777344e+00 2.671179294586181641e+00 -3.291390240192413330e-01
1.840000000000000000e+03 1.653802490234375000e+01 -9.305337905883789062e+00 7.229675073176622391e-03 1.158457398414611816e-01 3.692262619733810425e-02 -2.179691195487976074e-01
1.841000000000000000e+03 7.340360260009765625e+01 -1.365478897094726562e+01 6.571336388587951660e-01 8.443973541259765625e+00 2.730332136154174805e+00 6.297461390495300293e-01
1.842000000000000000e+03 4.439541244506835938e+01 -2.699688720703125000e+01 6.375576555728912354e-02 6.247706413269042969e+00 1.893438577651977539e+00 3.110695816576480865e-02
1.843000000000000000e+03 3.925456237792968750e+01 -2.708168792724609375e+01 8.860386610031127930e-01 5.470304012298583984e+00 1.906902909278869629e+00 1.201812505722045898e+00
1.844000000000000000e+03 3.983825302124023438e+01 -2.256280708312988281e+01 1.273891687393188477e+00 5.950926303863525391e+00 2.167445421218872070e+00 1.544452667236328125e+00
1.845000000000000000e+03 1.418162822723388672e+01 -1.005971813201904297e+01 8.076366782188415527e-02 1.659354940056800842e-02 2.920716442167758942e-02 -2.039384096860885620e-01
1.846000000000000000e+03 1.170531654357910156e+01 -9.460586547851562500e+00 -3.909707441926002502e-02 6.317066960036754608e-03 -9.834002703428268433e-03 -1.934054940938949585e-01
1.847000000000000000e+03 1.433720970153808594e+01 1.385398197174072266e+01 -1.235959306359291077e-02 -5.112273618578910828e-03 -5.241560284048318863e-03 -4.322060849517583847e-03
1.848000000000000000e+03 7.612621307373046875e+01 1.737487030029296875e+01 4.249845445156097412e-01 7.176293373107910156e+00 2.280383348464965820e+00 4.066487550735473633e-01
1.849000000000000000e+03 7.376016235351562500e+01 1.665419006347656250e+01 8.710325956344604492e-01 8.222661972045898438e+00 2.728108406066894531e+00 3.103978931903839111e-01
1.850000000000000000e+03 5.318304538726806641e+00 -2.167193412780761719e+01 8.768403530120849609e-02 -3.145682215690612793e-01 -6.806525588035583496e-02 -1.146845966577529907e-01
1.851000000000000000e+03 4.482955932617187500e+00 1.905701255798339844e+01 -1.375971268862485886e-02 -1.203881576657295227e-02 -7.739558350294828415e-03 2.453486435115337372e-02
1.852000000000000000e+03 7.899144649505615234e+00 -1.813404655456542969e+01 8.131754398345947266e-02 2.046274766325950623e-02 3.053408674895763397e-02 -2.244387120008468628e-01
1.853000000000000000e+03 9.783613204956054688e+00 -1.386017704010009766e+01 -3.695045411586761475e-02 9.537432342767715454e-02 1.752716116607189178e-02 -1.638244837522506714e-01
1.854000000000000000e+03 8.818309783935546875e+00 -1.453999328613281250e+01 -2.752403356134891510e-02 6.579737365245819092e-02 1.148200128227472305e-02 -2.045344412326812744e-01
1.855000000000000000e+03 8.787569046020507812e+00 -2.127044486999511719e+01 1.996572464704513550e-01 1.438354253768920898e-01 1.030477955937385559e-01 -1.937936246395111084e-01
1.856000000000000000e+03 6.938468170166015625e+01 -1.089421844482421875e+01 -1.784522831439971924e-01 8.389507293701171875e+00 2.463316440582275391e+00 -5.547359585762023926e-01
1.857000000000000000e+03 4.281051635742187500e+01 -1.509127807617187500e+01 9.549812078475952148e-01 7.976539134979248047e+00 2.679456233978271484e+00 7.695565223693847656e-01
1.858000000000000000e+03 4.481637954711914062e+01 -1.410531234741210938e+01 1.017056703567504883e+00 9.881041526794433594e+00 3.269429683685302734e+00 1.211894631385803223e+00
1.859000000000000000e+03 4.623299407958984375e+01 1.121715068817138672e+01 8.559700250625610352e-01 1.088134479522705078e+01 3.521194458007812500e+00 6.779298782348632812e-01
1.860000000000000000e+03 1.591133689880371094e+01 6.797824382781982422e+00 3.610069397836923599e-04 6.167647079564630985e-04 2.933314826805144548e-04 2.555862534791231155e-03
1.861000000000000000e+03 1.667118644714355469e+01 7.973932743072509766e+00 -1.104280727304285392e-05 2.008720766752958298e-03 5.993033410049974918e-04 2.552930731326341629e-03
1.862000000000000000e+03 7.444165039062500000e+01 6.269002437591552734e+00 -3.042916953563690186e-01 7.659874439239501953e+00 2.206674814224243164e+00 -6.336262822151184082e-01
1.863000000000000000e+03 3.170805549621582031e+01 -7.926344394683837891e+00 -6.582825779914855957e-01 -2.838339209556579590e-01 -2.826349437236785889e-01 -2.128593474626541138e-01
1.864000000000000000e+03 6.308531570434570312e+01 -9.178685188293457031e+00 3.270173966884613037e-01 1.644575715065002441e+00 5.914779305458068848e-01 -1.216734766960144043e+00
1.865000000000000000e+03 6.193067169189453125e+01 -7.914054393768310547e+00 2.353032529354095459e-01 1.421559333801269531e+00 4.970587790012359619e-01 -1.011546969413757324e+00
1.866000000000000000e+03 4.176074218750000000e+01 -2.214138412475585938e+01 1.342847347259521484e+00 6.856950759887695312e+00 2.459939479827880859e+00 1.265323162078857422e+00
1.867000000000000000e+03 4.035191345214843750e+01 -2.441611289978027344e+01 1.250766634941101074e+00 5.860838890075683594e+00 2.133481740951538086e+00 1.423258900642395020e+00
1.868000000000000000e+03 5.570448303222656250e+01 -3.402589035034179688e+01 -2.791696190834045410e-01 2.730214893817901611e-01 -1.844444777816534042e-03 -7.153709530830383301e-01
1.869000000000000000e+03 2.613077163696289062e+01 -1.236762237548828125e+01 5.767014026641845703e-01 -4.280578345060348511e-03 1.717262566089630127e-01 -2.908976078033447266e-01
1.870000000000000000e+03 2.836136627197265625e+01 -1.142727375030517578e+01 4.441960155963897705e-01 -1.132766976952552795e-01 9.927579760551452637e-02 -2.759233713150024414e-01
1.871000000000000000e+03 4.249322509765625000e+01 -3.903613328933715820e+00 -8.764939308166503906e-01 8.101492881774902344e+00 2.167499780654907227e+00 2.339472532272338867e+00
1.872000000000000000e+03 5.212108993530273438e+01 -2.608170032501220703e+00 2.549189805984497070e+00 1.507324457168579102e+00 1.216954231262207031e+00 -1.005348205566406250e+00
1.873000000000000000e+03 5.238754653930664062e+01 -5.597853660583496094e+00 -4.206234514713287354e-01 1.578940749168395996e-01 -7.881881296634674072e-02 -5.260323882102966309e-01
1.874000000000000000e+03 4.123798370361328125e+01 1.573460388183593750e+01 6.741927266120910645e-01 5.163399219512939453e+00 1.751277565956115723e+00 -1.520598292350769043e+00
1.875000000000000000e+03 5.459735870361328125e+00 -1.248578071594238281e+01 -1.990815065801143646e-02 -1.468004435300827026e-01 -5.001258105039596558e-02 -2.063757181167602539e-01
1.876000000000000000e+03 3.808958816528320312e+01 -6.411158561706542969e+00 -1.021409749984741211e+00 2.820665359497070312e+00 5.397766828536987305e-01 1.314963102340698242e+00
1.877000000000000000e+03 7.514907836914062500e+01 -2.654693222045898438e+01 -3.856384158134460449e-01 8.524547576904296875e+00 2.441672801971435547e+00 -1.207873702049255371e+00
1.878000000000000000e+03 4.283700942993164062e+01 -2.280204200744628906e+01 1.352764844894409180e+00 7.441943168640136719e+00 2.638412475585937500e+00 9.751986265182495117e-01
1.879000000000000000e+03 4.185173511505126953e+00 1.242123413085937500e+01 -3.864173544570803642e-03 -4.775929555762559175e-04 -1.302529941312968731e-03 4.649961920222267509e-05
1.880000000000000000e+03 7.475855255126953125e+01 -7.606843471527099609e+00 -3.060456812381744385e-01 7.658246040344238281e+00 2.205660104751586914e+00 6.335305571556091309e-01
1.881000000000000000e+03 7.555266571044921875e+01 3.458375334739685059e-01 -2.897308468818664551e-01 7.576146125793457031e+00 2.185924530029296875e+00 -1.064310446381568909e-01
1.882000000000000000e+03 7.565427398681640625e+01 -1.678326034545898438e+01 7.265749573707580566e-01 7.443113803863525391e+00 2.450906753540039062e+00 -4.546357318758964539e-02
1.883000000000000000e+03 7.471463012695312500e+01 -1.657870101928710938e+01 1.075465083122253418e+00 7.850795269012451172e+00 2.677878141403198242e+00 2.239220775663852692e-02
1.884000000000000000e+03 7.488288879394531250e+01 9.758346557617187500e+00 8.425617963075637817e-02 7.688340663909912109e+00 2.331779003143310547e+00 -8.085181713104248047e-01
1.885000000000000000e+03 7.350121307373046875e+01 9.473115921020507812e+00 9.546297043561935425e-02 7.919807910919189453e+00 2.404581308364868164e+00 -7.895379066467285156e-01
1.886000000000000000e+03 7.364422607421875000e+01 2.368437576293945312e+01 -4.607394635677337646e-01 8.062375068664550781e+00 2.280490875244140625e+00 7.761396169662475586e-01
1.887000000000000000e+03 4.294055175781250000e+01 -1.863071250915527344e+01 1.324316263198852539e+00 8.564969062805175781e+00 2.966785669326782227e+00 8.450863361358642578e-01
1.888000000000000000e+03 3.934991073608398438e+01 -7.365850448608398438e+00 -1.100436210632324219e+00 4.455673217773437500e+00 1.006571173667907715e+00 1.492013812065124512e+00
1.889000000000000000e+03 4.816434478759765625e+01 -8.307860374450683594e+00 -2.780776739120483398e+00 6.464344978332519531e+00 1.105070471763610840e+00 9.803328514099121094e-01
1.890000000000000000e+03 4.687244415283203125e+01 -8.357372283935546875e+00 -2.628570556640625000e+00 7.904093742370605469e+00 1.582656979560852051e+00 1.163850665092468262e+00
1.891000000000000000e+03 5.797652435302734375e+01 -6.011931419372558594e+00 1.436532437801361084e-01 2.576304972171783447e-01 1.203851252794265747e-01 -1.100448727607727051e+00
1.892000000000000000e+03 5.741520309448242188e+01 -7.013667583465576172e+00 -7.687131166458129883e-01 2.672756612300872803e-01 -1.504312455654144287e-01 -8.155261278152465820e-01
1.893000000000000000e+03 4.034020233154296875e+01 -7.222102165222167969e+00 -1.401224613189697266e+00 5.542487144470214844e+00 1.242378711700439453e+00 1.550676107406616211e+00
1.894000000000000000e+03 4.363187026977539062e+01 1.010276508331298828e+01 1.102401375770568848e+00 1.001766586303710938e+01 3.336020231246948242e+00 -1.071615219116210938e+00
1.895000000000000000e+03 4.405544281005859375e+01 1.311464595794677734e+01 7.582683563232421875e-01 8.405836105346679688e+00 2.749231338500976562e+00 -5.717997550964355469e-01
1.896000000000000000e+03 3.602325677871704102e+00 3.355828475952148438e+01 7.426875177770853043e-03 -1.660835742950439453e-01 -4.759700968861579895e-02 5.749579891562461853e-02
1.897000000000000000e+03 3.325201034545898438e+00 3.502154159545898438e+01 8.267733268439769745e-03 -1.927596926689147949e-01 -5.534758791327476501e-02 4.692059382796287537e-02
1.898000000000000000e+03 3.541748809814453125e+01 -1.429876708984375000e+01 7.816746234893798828e-01 1.842437386512756348e+00 7.872335910797119141e-01 -2.320288717746734619e-01
1.899000000000000000e+03 7.107794952392578125e+01 -1.915825080871582031e+01 2.103512763977050781e+00 1.011280441284179688e+01 3.664895057678222656e+00 -6.311027407646179199e-01
1.900000000000000000e+03 7.027976226806640625e+01 -2.539945983886718750e+01 -1.122708678245544434e+00 8.304460525512695312e+00 2.154525756835937500e+00 -7.189251780509948730e-01
1.901000000000000000e+03 7.117230987548828125e+01 1.700161170959472656e+01 1.603778481483459473e+00 9.465168952941894531e+00 3.320684194564819336e+00 2.869413793087005615e-01
1.902000000000000000e+03 6.502690887451171875e+01 -2.849500846862792969e+01 -1.115110158920288086e+00 2.991835355758666992e+00 5.630175471305847168e-01 7.099778056144714355e-01
1.903000000000000000e+03 9.405945777893066406e+00 -2.335339736938476562e+01 2.198027372360229492e-01 1.825494468212127686e-01 1.207056567072868347e-01 -1.276126354932785034e-01
1.904000000000000000e+03 9.176181793212890625e+00 -2.502203750610351562e+01 1.310835480690002441e-01 8.125555515289306641e-02 6.370172649621963501e-02 -7.546690106391906738e-02
1.905000000000000000e+03 5.113053894042968750e+01 -7.252270698547363281e+00 -2.267270565032958984e+00 7.777833938598632812e-01 -4.468461573123931885e-01 5.815382003784179688e-01
1.906000000000000000e+03 4.446554565429687500e+01 7.409117698669433594e+00 4.729379415512084961e-01 1.231302928924560547e+01 3.835789918899536133e+00 -1.175096988677978516e+00
1.907000000000000000e+03 4.462854766845703125e+01 8.639554023742675781e+00 8.509709239006042480e-01 1.158693695068359375e+01 3.731372356414794922e+00 -6.287735700607299805e-01
1.908000000000000000e+03 5.123772430419921875e+01 -3.330175161361694336e+00 1.623641133308410645e+00 2.451874017715454102e+00 1.222654581069946289e+00 -6.711554527282714844e-01
1.909000000000000000e+03 4.329080581665039062e+01 1.367082977294921875e+01 6.807424426078796387e-01 7.757282257080078125e+00 2.531407356262207031e+00 -9.866662025451660156e-01
1.910000000000000000e+03 1.155574703216552734e+01 -2.532499313354492188e+01 1.858724355697631836e-01 3.267151713371276855e-01 1.537762731313705444e-01 -1.608075648546218872e-01
1.911000000000000000e+03 5.512690353393554688e+01 -5.693477630615234375e+00 -1.629410684108734131e-01 -2.134067565202713013e-01 -1.129043474793434143e-01 -1.239569664001464844e+00
1.912000000000000000e+03 5.394099044799804688e+01 -5.196308612823486328e+00 2.561425566673278809e-01 -5.389745533466339111e-02 6.067353114485740662e-02 -1.287288069725036621e+00
1.913000000000000000e+03 6.541448974609375000e+01 -3.188665390014648438e+01 -8.430508375167846680e-01 3.694413900375366211e+00 8.554089665412902832e-01 7.520157098770141602e-01
1.914000000000000000e+03 4.724520492553710938e+01 -1.536253988742828369e-01 2.972297191619873047e+00 9.700550079345703125e+00 3.801854133605957031e+00 -2.422222614288330078e+00
1.915000000000000000e+03 4.819404983520507812e+01 -9.731599092483520508e-01 2.506617546081542969e+00 7.526926994323730469e+00 3.010063409805297852e+00 -1.832966685295104980e+00
1.916000000000000000e+03 4.700890350341796875e+01 1.731693649291992188e+01 6.563806533813476562e-01 7.638758182525634766e+00 2.488541603088378906e+00 7.161557078361511230e-01
1.917000000000000000e+03 4.641175460815429688e+01 1.582796096801757812e+01 6.577085256576538086e-01 8.213550567626953125e+00 2.661377906799316406e+00 6.030159592628479004e-01
1.918000000000000000e+03 1.971584129333496094e+01 -1.000473117828369141e+01 1.143812239170074463e-01 1.100899502635002136e-01 6.734135001897811890e-02 -2.042162865400314331e-01
1.919000000000000000e+03 3.812601470947265625e+01 -3.306262969970703125e+01 -6.089825630187988281e-01 4.422564983367919922e+00 1.144074678421020508e+00 6.098443865776062012e-01
1.920000000000000000e+03 3.272011947631835938e+01 -1.123993682861328125e+01 6.198454499244689941e-01 1.961494386196136475e-01 2.447984665632247925e-01 -4.103862866759300232e-02
1.921000000000000000e+03 3.451854324340820312e+01 -1.190843677520751953e+01 6.828390359878540039e-01 9.858575463294982910e-01 5.006089806556701660e-01 6.415733695030212402e-02
1.922000000000000000e+03 2.810945701599121094e+01 -8.549718856811523438e+00 -4.205835461616516113e-01 -1.516509950160980225e-01 -1.716703623533248901e-01 -3.726319968700408936e-01
1.923000000000000000e+03 5.798135375976562500e+01 4.285762012004852295e-01 1.717393398284912109e+00 -2.565281391143798828e-01 4.382595717906951904e-01 -6.123345717787742615e-02
1.924000000000000000e+03 1.424460601806640625e+01 1.835891914367675781e+01 -8.473750203847885132e-02 1.817373000085353851e-02 -1.996913179755210876e-02 -1.017876248806715012e-02
1.925000000000000000e+03 5.569899368286132812e+01 -2.119194030761718750e+00 2.428653955459594727e+00 -1.779403835535049438e-01 6.752140522003173828e-01 -9.424609541893005371e-01
1.926000000000000000e+03 6.887160491943359375e+01 -9.383705139160156250e+00 -4.275313317775726318e-01 7.363405704498291016e+00 2.080762386322021484e+00 -7.712575197219848633e-01
1.927000000000000000e+03 7.285108947753906250e+01 2.057398223876953125e+01 4.360491633415222168e-01 8.486695289611816406e+00 2.676823377609252930e+00 9.095743894577026367e-01
1.928000000000000000e+03 3.794632339477539062e+01 -1.649312400817871094e+01 5.912362933158874512e-01 4.184992313385009766e+00 1.432868599891662598e+00 1.317248940467834473e-01
1.929000000000000000e+03 3.901753616333007812e+01 -1.794960975646972656e+01 8.503882884979248047e-01 5.346115589141845703e+00 1.858951091766357422e+00 6.307342648506164551e-01
1.930000000000000000e+03 4.855980682373046875e+01 -3.018638229370117188e+01 -6.750792264938354492e-01 3.565950870513916016e+00 8.672614693641662598e-01 -1.261805415153503418e+00
1.931000000000000000e+03 5.093006515502929688e+01 -3.254720687866210938e+01 -7.952994704246520996e-01 1.915776729583740234e+00 3.361431658267974854e-01 -1.302233576774597168e+00
1.932000000000000000e+03 5.234759521484375000e+01 2.615444374084472656e+01 -8.054438829421997070e-01 3.785670518875122070e+00 8.940680027008056641e-01 1.620695710182189941e+00
1.933000000000000000e+03 4.745015144348144531e+00 3.552070999145507812e+01 1.695092208683490753e-02 -1.510940194129943848e-01 -4.024292901158332825e-02 5.657801032066345215e-02
1.934000000000000000e+03 4.910594940185546875e+01 2.564399719238281250e+01 -9.454405903816223145e-01 4.787391662597656250e+00 1.152585268020629883e+00 8.846459984779357910e-01
1.935000000000000000e+03 4.703751754760742188e+01 2.045272636413574219e+01 2.178655751049518585e-02 6.402697086334228516e+00 1.927345037460327148e+00 3.498554229736328125e-01
1.936000000000000000e+03 1.443914127349853516e+01 -3.268836212158203125e+01 3.931001760065555573e-03 2.096961289644241333e-01 6.408814340829849243e-02 -1.560706198215484619e-01
1.937000000000000000e+03 5.054720687866210938e+01 -4.221425533294677734e+00 5.446468591690063477e-01 3.221194982528686523e+00 1.129752516746520996e+00 -2.547019124031066895e-01
1.938000000000000000e+03 7.516102600097656250e+01 -3.773948287963867188e+01 -1.569931954145431519e-01 8.495043754577636719e+00 2.501415014266967773e+00 -2.069624066352844238e-01
1.939000000000000000e+03 2.326299667358398438e+01 2.578448867797851562e+01 -7.106918841600418091e-02 4.722906276583671570e-02 -7.152038626372814178e-03 -1.700442284345626831e-02
1.940000000000000000e+03 6.356636047363281250e+01 2.775421333312988281e+01 -4.978344962000846863e-02 2.155318737030029297e+00 6.316605806350708008e-01 -7.206293344497680664e-01
1.941000000000000000e+03 1.567079639434814453e+01 4.102631092071533203e+00 6.113737472333014011e-04 2.153833775082603097e-04 2.480271214153617620e-04 2.076972508803009987e-03
1.942000000000000000e+03 1.690638542175292969e+01 5.860925674438476562e+00 -4.219181573716923594e-05 1.657154061831533909e-03 4.844886716455221176e-04 1.886556274257600307e-03
1.943000000000000000e+03 6.803078460693359375e+01 5.631444931030273438e+00 -4.757724106311798096e-01 5.956296920776367188e+00 1.644157409667968750e+00 7.133103609085083008e-01
1.944000000000000000e+03 1.163923358917236328e+01 -2.905473327636718750e+01 5.834571644663810730e-02 2.035828679800033569e-01 7.857857644557952881e-02 -1.024607717990875244e-01
1.945000000000000000e+03 2.345138740539550781e+01 -3.650643539428710938e+01 2.739298939704895020e-01 4.316384792327880859e-01 2.116705030202865601e-01 3.399788215756416321e-02
1.946000000000000000e+03 2.472472190856933594e+01 -3.494979095458984375e+01 2.616715133190155029e-01 3.619946837425231934e-01 1.870998591184616089e-01 8.508552610874176025e-02
1.947000000000000000e+03 3.986092090606689453e+00 -7.900263309478759766e+00 -3.132882341742515564e-02 -1.160377562046051025e-01 -4.420997574925422668e-02 -1.365534514188766479e-01
1.948000000000000000e+03 6.346457481384277344e+00 -6.311273097991943359e+00 -7.630891352891921997e-02 -4.757970571517944336e-02 -3.716658428311347961e-02 -1.541852205991744995e-01
1.949000000000000000e+03 5.991551208496093750e+01 4.917940199375152588e-01 1.185367584228515625e+00 3.000050485134124756e-01 4.456117749214172363e-01 -5.526386201381683350e-02
1.950000000000000000e+03 3.614015579223632812e+00 7.577161312103271484e+00 3.552181296981871128e-04 1.298883231356739998e-03 4.962303792126476765e-04 -1.915654400363564491e-03
1.951000000000000000e+03 2.723725700378417969e+01 -8.006742477416992188e+00 -6.177851557731628418e-01 -2.954766154289245605e-02 -1.941998451948165894e-01 -3.822136521339416504e-01
1.952000000000000000e+03 2.561492538452148438e+01 -7.014068603515625000e+00 -6.908404231071472168e-01 1.280208081007003784e-01 -1.688458919525146484e-01 -1.837072968482971191e-01
1.953000000000000000e+03 6.357567596435546875e+01 3.850450277328491211e+00 1.311914473772048950e-01 2.067937374114990234e+00 6.597386598587036133e-01 6.763137578964233398e-01
1.954000000000000000e+03 6.525432586669921875e+01 3.574092388153076172e+00 -1.213667988777160645e-01 3.507858753204345703e+00 1.015947580337524414e+00 7.393387556076049805e-01
1.955000000000000000e+03 7.346179199218750000e+01 2.508033180236816406e+01 -7.707514166831970215e-01 7.818693637847900391e+00 2.114382743835449219e+00 4.422601163387298584e-01
1.956000000000000000e+03 7.090096282958984375e+01 2.236370849609375000e+01 -8.967285156250000000e-01 8.475795745849609375e+00 2.273720026016235352e+00 4.862257838249206543e-01
1.957000000000000000e+03 3.591481781005859375e+01 -7.089565753936767578e+00 -7.935733795166015625e-01 9.420413374900817871e-01 4.454039409756660461e-02 4.852011799812316895e-01
1.958000000000000000e+03 5.527990722656250000e+01 -3.042595386505126953e+00 1.943187594413757324e+00 -6.227982044219970703e-02 5.642723441123962402e-01 -1.239335894584655762e+00
1.959000000000000000e+03 6.748637390136718750e+01 -2.852699089050292969e+01 -1.293678998947143555e+00 5.524233818054199219e+00 1.269166350364685059e+00 6.674777865409851074e-01
1.960000000000000000e+03 6.984194183349609375e+01 -2.668493080139160156e+01 -1.141829133033752441e+00 7.835872650146484375e+00 2.008213043212890625e+00 -3.885056823492050171e-02
1.961000000000000000e+03 5.453215599060058594e+00 -3.496903610229492188e+01 -1.556335110217332840e-02 -4.174877703189849854e-01 -1.299153268337249756e-01 1.669604144990444183e-02
1.962000000000000000e+03 7.457302093505859375e+01 4.897598743438720703e+00 -3.478455841541290283e-01 7.527494430541992188e+00 2.153894662857055664e+00 -5.533484220504760742e-01
1.963000000000000000e+03 7.552957916259765625e+01 1.824395656585693359e+00 -3.000684380531311035e-01 7.596778392791748047e+00 2.189013004302978516e+00 -2.346325963735580444e-01
1.964000000000000000e+03 6.712161254882812500e+01 4.998856544494628906e+00 -4.638469517230987549e-01 5.151442050933837891e+00 1.406278491020202637e+00 7.183065414428710938e-01
1.965000000000000000e+03 6.861323547363281250e+01 4.425415515899658203e+00 -6.467943191528320312e-01 6.041065216064453125e+00 1.618281245231628418e+00 3.386477530002593994e-01
1.966000000000000000e+03 4.352015686035156250e+01 -2.078933334350585938e+01 1.413905620574951172e+00 8.792811393737792969e+00 3.062015295028686523e+00 6.748223900794982910e-01
1.967000000000000000e+03 6.688468933105468750e+01 3.081032276153564453e+00 -3.745771944522857666e-01 4.706171035766601562e+00 1.299478173255920410e+00 5.275467634201049805e-01
1.968000000000000000e+03 4.205272293090820312e+01 4.435648918151855469e+00 2.627891898155212402e-01 4.399011135101318359e+00 1.398540139198303223e+00 -5.925347208976745605e-01
1.969000000000000000e+03 4.211302566528320312e+01 2.103691101074218750e-01 2.240719079971313477e+00 4.957136631011962891e+00 2.159356832504272461e+00 4.082886695861816406e+00
1.970000000000000000e+03 4.238214492797851562e+01 -9.743058085441589355e-01 2.269264459609985352e+00 7.789928913116455078e+00 3.017757892608642578e+00 4.681077957153320312e+00
1.971000000000000000e+03 1.060784721374511719e+01 -4.663434982299804688e+00 -2.012328207492828369e-01 1.712121441960334778e-02 -5.523348227143287659e-02 -1.535683125257492065e-01
1.972000000000000000e+03 9.221691131591796875e+00 -4.142099380493164062e+00 -1.664746850728988647e-01 9.990369901061058044e-03 -4.694529250264167786e-02 -1.291330009698867798e-01
1.973000000000000000e+03 4.361141967773437500e+01 -2.117773532867431641e+00 -1.815013289451599121e-01 1.020261096954345703e+01 3.006332874298095703e+00 2.957788944244384766e+00
1.974000000000000000e+03 4.460897445678710938e+01 -1.306813836097717285e+00 -1.964320987462997437e-01 1.233794021606445312e+01 3.642452239990234375e+00 2.035811424255371094e+00
1.975000000000000000e+03 4.759328842163085938e+00 4.274673938751220703e+00 1.169866882264614105e-03 9.460937144467607141e-05 3.793428768403828144e-04 -2.186005003750324249e-03
1.976000000000000000e+03 9.355399131774902344e+00 4.549365997314453125e+00 1.424488145858049393e-03 -1.466614427044987679e-03 -1.263789090444333851e-05 -2.977140538860112429e-04
1.977000000000000000e+03 7.922403812408447266e+00 4.590634346008300781e+00 1.384904840961098671e-03 -1.278809038922190666e-03 3.182872023899108171e-05 -1.137172454036772251e-03
1.978000000000000000e+03 7.813255786895751953e+00 3.945595026016235352e+00 1.865442027337849140e-03 -1.018915325403213501e-03 2.539580164011567831e-04 -1.177056459710001945e-03
1.979000000000000000e+03 5.947052478790283203e+00 5.763260364532470703e+00 8.005900890566408634e-04 -8.184874313883483410e-04 -5.369203336158534512e-06 -1.938877743668854237e-03
1.980000000000000000e+03 7.210580825805664062e+00 4.692862510681152344e+00 1.445963629521429539e-03 -1.176043413579463959e-03 8.097607496893033385e-05 -1.564872218295931816e-03
1.981000000000000000e+03 8.627542495727539062e+00 4.558534622192382812e+00 1.818663207814097404e-03 -1.589871942996978760e-03 6.863736780360341072e-05 -7.786413189023733139e-04
1.982000000000000000e+03 4.867713928222656250e+00 5.115516662597656250e+00 7.636506925337016582e-04 -1.402932248311117291e-04 1.870072446763515472e-04 -2.055646851658821106e-03
1.983000000000000000e+03 1.308689308166503906e+01 3.515609025955200195e+00 1.530414097942411900e-03 -7.495086756534874439e-04 2.342716179555281997e-04 1.586018595844507217e-03
1.984000000000000000e+03 1.232289791107177734e+01 4.304072856903076172e+00 1.378552871756255627e-03 -1.185759552754461765e-03 5.783799861092120409e-05 1.416479819454252720e-03
1.985000000000000000e+03 1.334730243682861328e+01 -4.674914836883544922e+00 -2.843016088008880615e-01 3.696217387914657593e-02 -7.420182973146438599e-02 -1.584227830171585083e-01
1.986000000000000000e+03 7.571658134460449219e+00 -4.894821643829345703e+00 -1.156300678849220276e-01 -1.506101526319980621e-02 -3.920732438564300537e-02 -1.386524736881256104e-01
1.987000000000000000e+03 5.935420036315917969e+00 -4.579463005065917969e+00 -8.033420145511627197e-02 -3.085293434560298920e-02 -3.335614129900932312e-02 -1.130570918321609497e-01
1.988000000000000000e+03 6.536430358886718750e+00 -5.522258281707763672e+00 -8.747915178537368774e-02 -3.405494615435600281e-02 -3.646022826433181763e-02 -1.413733810186386108e-01
1.989000000000000000e+03 5.261102676391601562e+00 -4.311900615692138672e+00 -7.151067256927490234e-02 -3.241538628935813904e-02 -3.117781691253185272e-02 -9.945742785930633545e-02
1.990000000000000000e+03 4.738329410552978516e+00 -4.872755527496337891e+00 -5.525762215256690979e-02 -4.646505042910575867e-02 -3.051680140197277069e-02 -1.023817658424377441e-01
1.991000000000000000e+03 2.289401054382324219e+01 -6.396229743957519531e+00 -5.326597094535827637e-01 1.543381065130233765e-01 -1.134964823722839355e-01 -5.384150892496109009e-02
1.992000000000000000e+03 1.681111145019531250e+01 4.886700630187988281e+00 7.179783278843387961e-05 1.059977686963975430e-03 3.395326784811913967e-04 2.046062843874096870e-03
1.993000000000000000e+03 1.475011920928955078e+01 4.207150459289550781e+00 1.122774323448538780e-03 -2.869843447115272284e-04 2.507369790691882372e-04 1.867967774160206318e-03
1.994000000000000000e+03 8.455520629882812500e+00 -4.991670608520507812e+00 -1.351175308227539062e-01 -2.834450453519821167e-03 -4.138559475541114807e-02 -1.491023302078247070e-01
1.995000000000000000e+03 1.244116306304931641e+01 -5.270084857940673828e+00 -2.304172664880752563e-01 3.131301328539848328e-02 -5.973127484321594238e-02 -1.747736930847167969e-01
1.996000000000000000e+03 4.693893051147460938e+01 5.344836115837097168e-01 3.635002374649047852e+00 1.073518753051757812e+01 4.311057090759277344e+00 -2.519708633422851562e+00
1.997000000000000000e+03 4.726485443115234375e+01 -1.119552493095397949e+00 1.854125738143920898e+00 9.121995925903320312e+00 3.292836427688598633e+00 -1.506764531135559082e+00
1.998000000000000000e+03 2.039739036560058594e+01 -6.886872768402099609e+00 -3.068831562995910645e-01 1.000602096319198608e-01 -6.204688176512718201e-02 -1.179006099700927734e-01
1.999000000000000000e+03 1.402297973632812500e+01 -5.503068923950195312e+00 -2.534121870994567871e-01 4.261614009737968445e-02 -6.323881447315216064e-02 -1.854345500469207764e-01
2.000000000000000000e+03 1.571722888946533203e+01 -8.571583747863769531e+00 -4.005131497979164124e-02 9.015213698148727417e-02 1.503024622797966003e-02 -2.357899695634841919e-01
2.001000000000000000e+03 1.745847892761230469e+01 -5.568982601165771484e+00 -3.658786714076995850e-01 4.333162680268287659e-02 -9.676411747932434082e-02 -1.385267823934555054e-01
2.002000000000000000e+03 5.345895767211914062e+00 -6.070980548858642578e+00 -6.157625839114189148e-02 -5.845808610320091248e-02 -3.601030260324478149e-02 -1.359371393918991089e-01
2.003000000000000000e+03 5.974467754364013672e+00 7.710545063018798828e+00 -1.453696459066122770e-04 -1.965741394087672234e-03 -6.333332858048379421e-04 -2.518722321838140488e-03
2.004000000000000000e+03 1.084831333160400391e+01 4.410251140594482422e+00 1.558938412927091122e-03 -1.529074739664793015e-03 8.959098522609565407e-06 5.956799141131341457e-04
2.005000000000000000e+03 1.696341705322265625e+01 -6.701815605163574219e+00 -2.535278499126434326e-01 6.794957071542739868e-02 -5.567348748445510864e-02 -1.770678460597991943e-01
2.006000000000000000e+03 2.356609725952148438e+01 -6.808012962341308594e+00 -5.810084342956542969e-01 1.760513931512832642e-01 -1.214871183037757874e-01 -9.869284182786941528e-02
2.007000000000000000e+03 1.011085605621337891e+01 4.499843120574951172e+00 1.847905339673161507e-03 -1.691442448645830154e-03 4.693888331530615687e-05 2.795627187879290432e-05
2.008000000000000000e+03 1.990882492065429688e+01 -6.281282901763916016e+00 -3.736098110675811768e-01 7.640569657087326050e-02 -8.916123211383819580e-02 -9.782043099403381348e-02
2.009000000000000000e+03 1.879152870178222656e+01 -7.683763504028320312e+00 -1.694013178348541260e-01 1.019840389490127563e-01 -2.022518217563629150e-02 -1.745306104421615601e-01
2.010000000000000000e+03 2.486302947998046875e+01 -6.575063705444335938e+00 -7.435874342918395996e-01 1.894661933183670044e-01 -1.662363857030868530e-01 -1.140027269721031189e-01
2.011000000000000000e+03 4.215534591674804688e+01 -8.582898139953613281e+00 -1.672612309455871582e+00 7.267534255981445312e+00 1.678476572036743164e+00 1.064922928810119629e+00
2.012000000000000000e+03 4.342216873168945312e+01 -7.665503501892089844e+00 -2.246155261993408203e+00 8.234472274780273438e+00 1.796495079994201660e+00 1.231208801269531250e+00
2.013000000000000000e+03 8.225802421569824219e+00 -1.358119392395019531e+01 -2.816681750118732452e-02 6.781237665563821793e-03 -6.415673997253179550e-03 -2.053430229425430298e-01
2.014000000000000000e+03 7.809867858886718750e+00 -1.517720699310302734e+01 -4.521114460658282042e-04 1.588064478710293770e-03 3.407859185244888067e-04 -2.241481393575668335e-01
2.015000000000000000e+03 7.165547943115234375e+01 -8.837668418884277344e+00 -4.920390546321868896e-01 7.881700515747070312e+00 2.216898441314697266e+00 2.541851997375488281e-01
2.016000000000000000e+03 7.021062469482421875e+01 -1.223461151123046875e+01 2.035519182682037354e-01 9.197113037109375000e+00 2.820199489593505859e+00 -1.024419367313385010e-01
2.017000000000000000e+03 2.140819549560546875e+01 -6.321479797363281250e+00 -4.587404727935791016e-01 1.049215793609619141e-01 -1.061456725001335144e-01 -5.626637861132621765e-02
2.018000000000000000e+03 2.288043594360351562e+01 -7.602604389190673828e+00 -3.621024489402770996e-01 1.367783248424530029e-01 -6.759723275899887085e-02 -1.542505174875259399e-01
2.019000000000000000e+03 5.409159088134765625e+01 -4.234665393829345703e+00 1.070836305618286133e+00 9.399413317441940308e-02 3.494491279125213623e-01 -1.161207675933837891e+00
2.020000000000000000e+03 5.575698089599609375e+01 -4.584582805633544922e+00 8.688030838966369629e-01 -7.073539495468139648e-02 2.394203096628189087e-01 -1.437189221382141113e+00
2.021000000000000000e+03 6.974756622314453125e+01 -9.861709594726562500e+00 -4.992004632949829102e-01 8.026128768920898438e+00 2.258078575134277344e+00 -4.182043969631195068e-01
2.022000000000000000e+03 5.690355300903320312e+01 -5.290016651153564453e+00 3.717645406723022461e-01 -2.045494690537452698e-02 1.053928732872009277e-01 -1.243995785713195801e+00
2.023000000000000000e+03 1.874048423767089844e+01 3.599490880966186523e+00 1.438007166143506765e-04 9.670830331742763519e-04 3.332651394885033369e-04 6.035186816006898880e-04
2.024000000000000000e+03 4.215914916992187500e+01 -2.079494285583496094e+01 1.496029376983642578e+00 7.368742465972900391e+00 2.659431457519531250e+00 1.009455680847167969e+00
2.025000000000000000e+03 5.200193023681640625e+01 -4.103683948516845703e+00 1.121884942054748535e+00 1.247576236724853516e+00 7.108383774757385254e-01 -6.328637599945068359e-01
2.026000000000000000e+03 2.976392364501953125e+01 -8.429153442382812500e+00 -4.529578685760498047e-01 -3.436202406883239746e-01 -2.389734387397766113e-01 -3.504378497600555420e-01
2.027000000000000000e+03 1.893794631958007812e+01 2.862532377243041992e+00 -1.192044146591797471e-04 7.457841420546174049e-04 1.879739138530567288e-04 6.529245292767882347e-04
2.028000000000000000e+03 7.233901214599609375e+01 -1.461912631988525391e+01 1.139837503433227539e+00 9.103236198425292969e+00 3.072922229766845703e+00 2.983969748020172119e-01
2.029000000000000000e+03 1.421964645385742188e+01 8.345209121704101562e+00 -3.735151258297264576e-04 -1.802351558580994606e-03 -6.527600344270467758e-04 2.592168981209397316e-03
2.030000000000000000e+03 5.618596649169921875e+01 -3.568154573440551758e+00 1.540249228477478027e+00 -2.037689834833145142e-01 4.009440839290618896e-01 -1.240494966506958008e+00
2.031000000000000000e+03 1.656981277465820312e+01 -7.945901870727539062e+00 -1.286578625440597534e-01 8.936122059822082520e-02 -1.178899500519037247e-02 -2.049942463636398315e-01
2.032000000000000000e+03 6.987151336669921875e+01 6.577539443969726562e+00 -5.342999100685119629e-01 7.066742897033691406e+00 1.959732890129089355e+00 1.042275577783584595e-01
2.033000000000000000e+03 6.704927921295166016e+00 -1.850159454345703125e+01 8.529037237167358398e-02 -1.016522422432899475e-01 -4.908559843897819519e-03 -2.180796116590499878e-01
2.034000000000000000e+03 7.335362434387207031e+00 -1.688009834289550781e+01 4.349360242486000061e-02 -3.811783343553543091e-02 1.612729975022375584e-03 -2.309995144605636597e-01
2.035000000000000000e+03 1.469000816345214844e+01 3.358890056610107422e+00 1.086947857402265072e-03 -2.185532794101163745e-04 2.605183981359004974e-04 1.831481233239173889e-03
2.036000000000000000e+03 4.452029037475585938e+01 1.226171588897705078e+01 8.488799333572387695e-01 9.031086921691894531e+00 2.963989973068237305e+00 -3.055154979228973389e-01
2.037000000000000000e+03 5.143243408203125000e+01 -4.910180568695068359e+00 2.560989558696746826e-01 1.774002313613891602e+00 6.090303659439086914e-01 -1.949802339076995850e-01
2.038000000000000000e+03 4.995001220703125000e+01 -5.207228660583496094e+00 -6.908352971076965332e-01 4.082539558410644531e+00 1.017511367797851562e+00 2.274717539548873901e-01
2.039000000000000000e+03 6.353765869140625000e+01 -8.429424285888671875e+00 3.341122865676879883e-01 2.235910177230834961e+00 7.710067033767700195e-01 -1.295613288879394531e+00
2.040000000000000000e+03 1.472016811370849609e+01 7.400838851928710938e+00 8.852640748955309391e-04 -1.304328907281160355e-03 -1.257194671779870987e-04 2.970037050545215607e-03
2.041000000000000000e+03 1.588966083526611328e+01 5.968227386474609375e+00 3.609988198149949312e-04 5.869505112059414387e-04 2.843848196789622307e-04 2.905371133238077164e-03
2.042000000000000000e+03 7.247918701171875000e+01 1.632654762268066406e+01 1.223013162612915039e+00 8.731112480163574219e+00 2.986237764358520508e+00 3.600759506225585938e-01
2.043000000000000000e+03 7.223722076416015625e+01 1.817343902587890625e+01 1.269244432449340820e+00 8.690697669982910156e+00 2.987982511520385742e+00 4.397514760494232178e-01
2.044000000000000000e+03 1.796776771545410156e+01 -9.230730056762695312e+00 -2.210633130744099617e-03 1.264327913522720337e-01 3.726664930582046509e-02 -1.966797709465026855e-01
2.045000000000000000e+03 1.724059867858886719e+01 -8.643157005310058594e+00 -4.349230602383613586e-02 1.136968359351158142e-01 2.106135897338390350e-02 -2.083648890256881714e-01
2.046000000000000000e+03 4.155546951293945312e+01 -2.685587167739868164e+00 5.464937686920166016e-01 7.068915843963623047e+00 2.284622907638549805e+00 2.701909780502319336e+00
2.047000000000000000e+03 1.329514312744140625e+01 -9.355593681335449219e+00 -1.328436937183141708e-02 9.400381706655025482e-03 -1.165196066722273827e-03 -2.026297599077224731e-01
2.048000000000000000e+03 5.389132976531982422e+00 1.257117366790771484e+01 -4.543652758002281189e-03 -2.308993134647607803e-03 -2.055793767794966698e-03 1.403618138283491135e-03
2.049000000000000000e+03 4.205871582031250000e+00 1.111914157867431641e+01 -1.378326793201267719e-03 -1.664289738982915878e-04 -4.634267243091017008e-04 -9.304936975240707397e-04
2.050000000000000000e+03 1.969274330139160156e+01 -7.362422466278076172e+00 -2.633959352970123291e-01 1.049623861908912659e-01 -4.753006249666213989e-02 -1.417152136564254761e-01
2.051000000000000000e+03 7.689880371093750000e+00 -2.044259262084960938e+01 1.459386348724365234e-01 -2.815938740968704224e-02 3.533377498388290405e-02 -1.837951987981796265e-01
2.052000000000000000e+03 2.282343101501464844e+01 -1.080430126190185547e+01 2.035404890775680542e-01 5.344362556934356689e-02 7.709523290395736694e-02 -2.739446759223937988e-01
2.053000000000000000e+03 6.595249938964843750e+01 2.422683000564575195e+00 -2.049045115709304810e-01 4.060485839843750000e+00 1.156674504280090332e+00 5.578556060791015625e-01
2.054000000000000000e+03 1.171151161193847656e+01 -1.087494945526123047e+01 1.881018630228936672e-03 1.163035351783037186e-02 4.053411539644002914e-03 -1.525794565677642822e-01
2.055000000000000000e+03 7.352874755859375000e+01 -2.221912574768066406e+01 5.546360611915588379e-01 8.620002746582031250e+00 2.752391576766967773e+00 -1.374674797058105469e+00
2.056000000000000000e+03 7.471967315673828125e+01 -2.282777023315429688e+01 2.169231176376342773e-01 8.345136642456054688e+00 2.568617820739746094e+00 -1.511792778968811035e+00
2.057000000000000000e+03 4.153301715850830078e+00 8.593640327453613281e+00 -1.047319601639173925e-04 1.383767812512814999e-04 1.009344669000711292e-05 -2.561253961175680161e-03
2.058000000000000000e+03 1.667408370971679688e+01 3.886404991149902344e+00 4.587212170008569956e-04 6.842385628260672092e-04 3.428879426792263985e-04 1.480633858591318130e-03
2.059000000000000000e+03 2.175531768798828125e+01 -1.055189132690429688e+01 1.768263727426528931e-01 8.183193206787109375e-02 7.759749144315719604e-02 -2.479314059019088745e-01
2.060000000000000000e+03 7.219315338134765625e+01 -1.913436126708984375e+01 1.591304421424865723e+00 9.799072265625000000e+00 3.417113065719604492e+00 -8.667436838150024414e-01
2.061000000000000000e+03 7.596382904052734375e+01 -1.246323490142822266e+01 1.684913635253906250e-01 7.379067420959472656e+00 2.264267683029174805e+00 7.828544974327087402e-01
2.062000000000000000e+03 7.576797485351562500e+01 7.590625286102294922e+00 -9.773889929056167603e-02 7.488517284393310547e+00 2.217233419418334961e+00 -7.024455070495605469e-01
2.063000000000000000e+03 3.835513687133789062e+01 -7.599760532379150391e+00 -8.506965041160583496e-01 3.406757593154907227e+00 7.668183445930480957e-01 1.240881919860839844e+00
2.064000000000000000e+03 2.876339149475097656e+01 -1.063218498229980469e+01 2.340814620256423950e-01 -1.477130204439163208e-01 2.591053023934364319e-02 -3.153266608715057373e-01
2.065000000000000000e+03 9.125862121582031250e+00 -1.294732093811035156e+01 -3.680102154612541199e-02 3.726293891668319702e-02 1.385746145388111472e-04 -1.863166987895965576e-01
2.066000000000000000e+03 6.940937042236328125e+01 7.899885654449462891e+00 -3.690792322158813477e-01 7.604792118072509766e+00 2.170713901519775391e+00 3.720709383487701416e-01
2.067000000000000000e+03 7.045640563964843750e+01 8.192933082580566406e+00 -3.605979979038238525e-01 7.757530212402343750e+00 2.219079732894897461e+00 -8.189517259597778320e-02
2.068000000000000000e+03 4.558628082275390625e+01 -8.595870971679687500e+00 -2.452017068862915039e+00 8.888216972351074219e+00 1.930859923362731934e+00 9.908954501152038574e-01
2.069000000000000000e+03 5.028854370117187500e+01 -6.718586444854736328e+00 -1.919442415237426758e+00 3.137156724929809570e+00 3.653142750263214111e-01 7.423759698867797852e-01
2.070000000000000000e+03 4.852542114257812500e+01 -7.199268817901611328e+00 -2.811149358749389648e+00 5.946554183959960938e+00 9.406215548515319824e-01 1.175857424736022949e+00
2.071000000000000000e+03 4.215463256835937500e+01 -1.405248260498046875e+01 6.296185255050659180e-01 7.341135025024414062e+00 2.391226053237915039e+00 5.757710337638854980e-01
2.072000000000000000e+03 5.344760417938232422e+00 3.219486999511718750e+01 1.442338526248931885e-02 -1.175650954246520996e-01 -3.094251453876495361e-02 8.150651305913925171e-02
2.073000000000000000e+03 4.464775848388671875e+01 1.787320899963378906e+01 3.156480193138122559e-01 6.609462261199951172e+00 2.077533006668090820e+00 -3.133911788463592529e-01
2.074000000000000000e+03 4.849670410156250000e+01 -3.214391708374023438e+00 3.873692750930786133e-01 6.644196510314941406e+00 2.109469652175903320e+00 -4.498858451843261719e-01
2.075000000000000000e+03 1.573735141754150391e+01 5.072179317474365234e+00 5.487320013344287872e-04 4.220796981826424599e-04 2.912435156758874655e-04 2.042209263890981674e-03
2.076000000000000000e+03 7.458172607421875000e+01 -1.559374046325683594e+01 9.606464505195617676e-01 8.009148597717285156e+00 2.690938472747802734e+00 2.915293276309967041e-01
2.077000000000000000e+03 7.564106750488281250e+01 -1.552665328979492188e+01 6.360573172569274902e-01 7.360270500183105469e+00 2.398898363113403320e+00 3.105018734931945801e-01
2.078000000000000000e+03 5.900122070312500000e+01 -6.614582061767578125e+00 -7.606644928455352783e-02 4.990369677543640137e-01 1.268911510705947876e-01 -9.065502285957336426e-01
2.079000000000000000e+03 7.256245422363281250e+01 -2.552246284484863281e+01 -7.613239288330078125e-01 8.445512771606445312e+00 2.305256605148315430e+00 -1.182095289230346680e+00
2.080000000000000000e+03 7.600786590576171875e+01 1.504579925537109375e+01 5.266419649124145508e-01 7.152776241302490234e+00 2.303825616836547852e+00 -1.049029380083084106e-01
2.081000000000000000e+03 7.402037048339843750e+01 1.132276058197021484e+01 3.813124299049377441e-01 7.987525939941406250e+00 2.510651588439941406e+00 -7.317484021186828613e-01
2.082000000000000000e+03 4.846339035034179688e+01 -5.473375797271728516e+00 -1.673891067504882812e+00 6.264263629913330078e+00 1.377111792564392090e+00 7.118437290191650391e-01
2.083000000000000000e+03 3.634363555908203125e+01 -8.314593315124511719e+00 -3.718143701553344727e-01 1.643482446670532227e+00 3.815004229545593262e-01 6.488153934478759766e-01
2.084000000000000000e+03 5.137611865997314453e+00 8.234999656677246094e+00 -1.561269746161997318e-04 -5.472464254125952721e-04 -2.110120258294045925e-04 -2.008048817515373230e-03
2.085000000000000000e+03 3.159146308898925781e+01 -9.110548019409179688e+00 -1.936558783054351807e-01 -2.466521114110946655e-01 -1.320924013853073120e-01 -1.866777539253234863e-01
2.086000000000000000e+03 3.416912460327148438e+01 -8.003655433654785156e+00 -5.786467194557189941e-01 3.174943327903747559e-01 -7.834570854902267456e-02 9.720775485038757324e-02
2.087000000000000000e+03 7.374520111083984375e+01 -1.666340637207031250e+01 1.249586224555969238e+00 8.470962524414062500e+00 2.916164636611938477e+00 2.931417524814605713e-02
2.088000000000000000e+03 4.252016448974609375e+01 -6.145195960998535156e+00 -2.015232086181640625e+00 7.910192012786865234e+00 1.768488049507141113e+00 1.732565522193908691e+00
2.089000000000000000e+03 4.497036743164062500e+01 -4.434628963470458984e+00 -1.801309347152709961e+00 9.352071762084960938e+00 2.265228748321533203e+00 1.380620479583740234e+00
2.090000000000000000e+03 3.161523818969726562e+01 -1.174085807800292969e+01 7.077796459197998047e-01 -3.522333921864628792e-03 2.112772017717361450e-01 -9.866043925285339355e-02
2.091000000000000000e+03 3.326520538330078125e+01 -1.250732040405273438e+01 8.818628787994384766e-01 4.008441865444183350e-01 3.848121166229248047e-01 -5.307438224554061890e-02
2.092000000000000000e+03 2.627257919311523438e+01 -1.007617378234863281e+01 3.597338497638702393e-02 -1.454831194132566452e-02 6.427521817386150360e-03 -3.603282570838928223e-01
2.093000000000000000e+03 2.960506629943847656e+01 -1.004367637634277344e+01 1.225962042808532715e-01 -2.378086000680923462e-01 -3.456372022628784180e-02 -3.195280134677886963e-01
2.094000000000000000e+03 7.519844818115234375e+01 1.581537532806396484e+01 6.829462647438049316e-01 7.523970127105712891e+00 2.462074756622314453e+00 6.793776154518127441e-02
2.095000000000000000e+03 7.333513641357421875e+01 1.566547203063964844e+01 1.208196401596069336e+00 8.221222877502441406e+00 2.828825712203979492e+00 -1.216836622916162014e-03
2.096000000000000000e+03 4.004108428955078125e+00 -9.072961807250976562e+00 -2.489791810512542725e-02 -1.429860144853591919e-01 -5.036517977714538574e-02 -1.507956385612487793e-01
2.097000000000000000e+03 5.071321010589599609e+00 -7.949903011322021484e+00 -4.354246705770492554e-02 -9.470955282449722290e-02 -4.147560521960258484e-02 -1.582621335983276367e-01
2.098000000000000000e+03 4.285708999633789062e+01 -2.619881820678710938e+01 5.712361931800842285e-01 6.298002719879150391e+00 2.060771703720092773e+00 7.500208020210266113e-01
2.099000000000000000e+03 7.472491455078125000e+01 -3.257608413696289062e+01 -4.087150990962982178e-01 8.290357589721679688e+00 2.364492893218994141e+00 -3.165488839149475098e-01
2.100000000000000000e+03 4.534075164794921875e+01 1.262524986267089844e+01 8.063411712646484375e-01 9.630030632019042969e+00 3.130911588668823242e+00 2.788872420787811279e-01
2.101000000000000000e+03 4.145943069458007812e+01 1.717778396606445312e+01 4.428798556327819824e-01 5.027808189392089844e+00 1.641206502914428711e+00 -1.300509095191955566e+00
2.102000000000000000e+03 7.419438171386718750e+01 -6.325730800628662109e+00 -4.483852684497833252e-01 7.583724975585937500e+00 2.140601873397827148e+00 4.975880682468414307e-01
2.103000000000000000e+03 7.406369018554687500e+01 7.558719158172607422e+00 -1.772851049900054932e-01 7.632102012634277344e+00 2.236444950103759766e+00 -7.286780476570129395e-01
2.104000000000000000e+03 7.566261291503906250e+01 6.264865398406982422e+00 -1.879923790693283081e-01 7.550317764282226562e+00 2.208697557449340820e+00 -6.974520683288574219e-01
2.105000000000000000e+03 5.800478458404541016e+00 1.895781135559082031e+01 -2.335434406995773315e-02 -8.098640479147434235e-03 -9.435895830392837524e-03 2.711046859622001648e-02
2.106000000000000000e+03 6.065838813781738281e+00 2.166084289550781250e+01 -2.959783747792243958e-02 -1.526168081909418106e-02 -1.345785614103078842e-02 4.784640297293663025e-02
2.107000000000000000e+03 6.584154129028320312e+00 1.394179916381835938e+01 -9.990666061639785767e-03 -3.256090451031923294e-03 -3.974027000367641449e-03 4.492378793656826019e-03
2.108000000000000000e+03 7.452230834960937500e+01 -2.404659461975097656e+01 -1.754382252693176270e-02 8.426389694213867188e+00 2.522653818130493164e+00 -1.442977428436279297e+00
2.109000000000000000e+03 7.575264739990234375e+01 -2.339175987243652344e+01 5.911855027079582214e-02 7.981364727020263672e+00 2.412144899368286133e+00 -1.281548142433166504e+00
2.110000000000000000e+03 4.060449218750000000e+01 -2.646974182128906250e+01 8.332669734954833984e-01 5.675161838531494141e+00 1.952528595924377441e+00 1.162247896194458008e+00
2.111000000000000000e+03 6.252858161926269531e+00 -1.471674823760986328e+01 -3.529379609972238541e-03 -1.195325553417205811e-01 -3.691858053207397461e-02 -2.241201549768447876e-01
2.112000000000000000e+03 5.770489692687988281e+00 -1.364988517761230469e+01 -1.631651259958744049e-02 -1.375683844089508057e-01 -4.616546630859375000e-02 -2.152316868305206299e-01
2.113000000000000000e+03 4.902342224121093750e+01 -3.290032958984375000e+01 -8.226066231727600098e-01 3.026728868484497070e+00 6.612366437911987305e-01 -1.226411223411560059e+00
2.114000000000000000e+03 4.782178497314453125e+01 -2.871650505065917969e+01 -2.942730486392974854e-01 4.308182716369628906e+00 1.204172849655151367e+00 -1.279483437538146973e+00
2.115000000000000000e+03 4.517176818847656250e+01 1.157035446166992188e+01 8.106985688209533691e-01 1.007698917388916016e+01 3.266306400299072266e+00 1.128609031438827515e-01
2.116000000000000000e+03 6.616442871093750000e+01 2.476202011108398438e+01 -1.082395792007446289e+00 4.093564510345458984e+00 9.033505916595458984e-01 -1.844818592071533203e+00
2.117000000000000000e+03 6.332975387573242188e+01 2.016349077224731445e+00 3.387750089168548584e-01 2.048213481903076172e+00 7.160965800285339355e-01 4.295511245727539062e-01
2.118000000000000000e+03 7.349797058105468750e+01 1.894591140747070312e+01 8.118221163749694824e-01 8.205671310424804688e+00 2.705247879028320312e+00 6.611509919166564941e-01
2.119000000000000000e+03 1.573207187652587891e+01 2.136373519897460938e+01 -1.823240965604782104e-01 5.369685217738151550e-02 -3.858817368745803833e-02 2.040188945829868317e-02
2.120000000000000000e+03 1.417857837677001953e+01 2.135297393798828125e+01 -1.371565014123916626e-01 5.497257411479949951e-02 -2.465517632663249969e-02 3.998944908380508423e-02
2.121000000000000000e+03 6.829554748535156250e+01 2.572262954711914062e+01 -1.081063508987426758e+00 5.914498805999755859e+00 1.450030684471130371e+00 -1.276492118835449219e+00
2.122000000000000000e+03 7.029819488525390625e+00 3.060209846496582031e+01 6.497063674032688141e-03 -6.882298737764358521e-02 -1.869777590036392212e-02 1.006286963820457458e-01
2.123000000000000000e+03 7.169756317138671875e+01 1.351674938201904297e+01 1.088926553726196289e+00 8.963802337646484375e+00 3.015818834304809570e+00 -6.735786050558090210e-02
2.124000000000000000e+03 7.425487518310546875e+01 -1.087262630462646484e+00 -4.077347517013549805e-01 7.338199138641357422e+00 2.079139232635498047e+00 1.426972262561321259e-02
2.125000000000000000e+03 7.553265380859375000e+01 -1.103165626525878906e+00 -2.947614789009094238e-01 7.597243309020996094e+00 2.190744638442993164e+00 3.782294318079948425e-02
2.126000000000000000e+03 4.018010330200195312e+01 1.720455551147460938e+01 5.741913914680480957e-01 4.133431911468505859e+00 1.412286996841430664e+00 -1.452862620353698730e+00
2.127000000000000000e+03 6.619621276855468750e+01 4.301948070526123047e+00 -3.209120333194732666e-01 4.392057418823242188e+00 1.221343636512756348e+00 8.648023605346679688e-01
2.128000000000000000e+03 7.059613800048828125e+01 2.414340019226074219e+01 -1.137254238128662109e+00 7.670856475830078125e+00 1.960080742835998535e+00 -1.322814971208572388e-01
2.129000000000000000e+03 1.062142372131347656e+01 -3.035102653503417969e+01 6.827232893556356430e-03 7.919339090585708618e-02 2.580618672072887421e-02 -6.058606877923011780e-02
2.130000000000000000e+03 1.239430809020996094e+01 -3.271457672119140625e+01 -5.511919502168893814e-03 1.451592743396759033e-01 4.189420863986015320e-02 -1.030472740530967712e-01
2.131000000000000000e+03 5.398199462890625000e+01 2.922146224975585938e+01 -3.965327739715576172e-01 2.932707309722900391e+00 7.608523368835449219e-01 1.351283311843872070e+00
2.132000000000000000e+03 6.338496398925781250e+01 3.017337226867675781e+01 2.349240034818649292e-01 2.779810667037963867e+00 9.044204354286193848e-01 -5.750383138656616211e-01
2.133000000000000000e+03 3.551407337188720703e+00 2.612899398803710938e+01 -7.319746073335409164e-03 -7.223667949438095093e-02 -2.386692725121974945e-02 5.673338100314140320e-02
2.134000000000000000e+03 3.906757736206054688e+01 2.071589469909667969e+01 1.685953736305236816e-01 3.335592269897460938e+00 1.051256299018859863e+00 -1.285429000854492188e+00
2.135000000000000000e+03 7.394327545166015625e+01 -8.176136016845703125e+00 -3.917967081069946289e-01 7.760296821594238281e+00 2.210550069808959961e+00 6.394344568252563477e-01
2.136000000000000000e+03 7.595166778564453125e+01 -5.203622341156005859e+00 -2.604703307151794434e-01 7.621476173400878906e+00 2.208301782608032227e+00 4.319056868553161621e-01
2.137000000000000000e+03 7.568610382080078125e+01 4.802536010742187500e+00 -2.631287574768066406e-01 7.610387802124023438e+00 2.204177618026733398e+00 -5.190079212188720703e-01
2.138000000000000000e+03 7.392433166503906250e+01 2.828524827957153320e+00 -4.111988246440887451e-01 7.411730766296386719e+00 2.100159645080566406e+00 -2.927056849002838135e-01
2.139000000000000000e+03 6.669823455810546875e+01 -3.322240447998046875e+01 -6.618952155113220215e-01 4.318194866180419922e+00 1.096889853477478027e+00 6.460990905761718750e-01
2.140000000000000000e+03 2.563144302368164062e+01 2.810324668884277344e+01 7.642926275730133057e-02 3.480347096920013428e-01 1.273391991853713989e-01 -1.955262273550033569e-01
2.141000000000000000e+03 4.378188133239746094e+00 1.771512985229492188e+01 -1.284860353916883469e-02 -7.669242564588785172e-03 -6.155353505164384842e-03 1.623240113258361816e-02
2.142000000000000000e+03 6.267663002014160156e+00 -1.739937591552734375e+01 4.922792315483093262e-02 -1.358424425125122070e-01 -2.598435431718826294e-02 -2.249897867441177368e-01
2.143000000000000000e+03 7.550809478759765625e+01 -2.459283828735351562e+01 -9.927732497453689575e-02 8.264975547790527344e+00 2.449709415435791016e+00 -1.419270753860473633e+00
2.144000000000000000e+03 7.391573333740234375e+01 -2.877770996093750000e+01 -6.664184331893920898e-01 8.259934425354003906e+00 2.278054714202880859e+00 -7.980257272720336914e-01
2.145000000000000000e+03 4.194423198699951172e+00 1.373077678680419922e+01 -4.203380085527896881e-03 -1.382621703669428825e-03 -1.675800536759197712e-03 2.871895208954811096e-03
2.146000000000000000e+03 5.394552707672119141e+00 1.506707763671875000e+01 -9.878441691398620605e-03 -3.400718793272972107e-03 -3.983748145401477814e-03 7.307744584977626801e-03
2.147000000000000000e+03 7.238105773925781250e+01 -3.992331504821777344e+00 -5.786905884742736816e-01 7.112933635711669922e+00 1.960272908210754395e+00 1.418627351522445679e-01
2.148000000000000000e+03 7.554756927490234375e+01 -2.565567016601562500e+00 -2.787978649139404297e-01 7.594932556152343750e+00 2.194840431213378906e+00 1.786729991436004639e-01
2.149000000000000000e+03 7.299903106689453125e+01 1.583095431327819824e+00 -5.154408216476440430e-01 7.169036388397216797e+00 1.996078610420227051e+00 -1.349506676197052002e-01
2.150000000000000000e+03 5.748463630676269531e+00 -1.634007263183593750e+01 3.069898486137390137e-02 -1.744762063026428223e-01 -4.313316941261291504e-02 -2.228999137878417969e-01
2.151000000000000000e+03 7.605577850341796875e+01 -1.029625988006591797e+01 -7.861046493053436279e-02 7.515794277191162109e+00 2.231155157089233398e+00 8.362681269645690918e-01
2.152000000000000000e+03 6.051049423217773438e+01 -6.289484500885009766e+00 2.925251126289367676e-01 9.048731327056884766e-01 3.592194914817810059e-01 -9.964872598648071289e-01
2.153000000000000000e+03 2.618852043151855469e+01 -1.122575950622558594e+01 3.106922507286071777e-01 6.382241845130920410e-04 9.339914470911026001e-02 -3.168666064739227295e-01
2.154000000000000000e+03 2.416527938842773438e+01 -9.128442764282226562e+00 -1.560079306364059448e-01 1.067736446857452393e-01 -1.477028336375951767e-02 -2.854579687118530273e-01
2.155000000000000000e+03 7.254393768310546875e+01 1.073170661926269531e+01 4.142232239246368408e-01 8.338174819946289062e+00 2.625719308853149414e+00 -6.684634685516357422e-01
2.156000000000000000e+03 7.397490692138671875e+01 -3.116879653930664062e+01 -5.630813241004943848e-01 8.130869865417480469e+00 2.270336627960205078e+00 -4.633104801177978516e-01
2.157000000000000000e+03 4.016282272338867188e+01 -3.064785194396972656e+01 -2.718343734741210938e-01 5.082231044769287109e+00 1.443119049072265625e+00 5.716410875320434570e-01
2.158000000000000000e+03 4.104370117187500000e+01 -2.922609519958496094e+01 3.668736666440963745e-02 5.361173629760742188e+00 1.619358420372009277e+00 6.436445713043212891e-01
2.159000000000000000e+03 6.368738651275634766e+00 -2.638417625427246094e+01 5.795371904969215393e-02 -2.495748251676559448e-01 -5.748633295297622681e-02 -1.662482693791389465e-02
2.160000000000000000e+03 4.896304130554199219e+00 -2.941566467285156250e+01 1.317660207860171795e-03 -4.417941868305206299e-01 -1.321429610252380371e-01 1.281594019383192062e-02
2.161000000000000000e+03 7.477124786376953125e+01 2.552375602722167969e+01 -5.025838017463684082e-01 7.763294696807861328e+00 2.178213357925415039e+00 5.080966353416442871e-01
2.162000000000000000e+03 7.371016693115234375e+01 -3.677400588989257812e+01 -1.146722733974456787e-01 7.611316680908203125e+00 2.248993158340454102e+00 -8.162909001111984253e-02
2.163000000000000000e+03 4.625166416168212891e+00 -1.418852424621582031e+01 -2.815000247210264206e-03 -2.250165045261383057e-01 -6.834945082664489746e-02 -1.992325782775878906e-01
2.164000000000000000e+03 6.251435852050781250e+01 4.289159774780273438e-01 6.280416250228881836e-01 1.671421170234680176e+00 6.898388266563415527e-01 8.629743009805679321e-02
2.165000000000000000e+03 3.298900222778320312e+01 2.544473457336425781e+01 4.804351180791854858e-02 1.266077876091003418e+00 3.942364156246185303e-01 -7.688940167427062988e-01
2.166000000000000000e+03 7.584990692138671875e+01 -7.587131977081298828e+00 -2.563548088073730469e-01 7.621107101440429688e+00 2.209425687789916992e+00 6.614961624145507812e-01
2.167000000000000000e+03 4.120656013488769531e+00 -2.053729057312011719e+01 5.274636298418045044e-02 -4.213718175888061523e-01 -1.105876341462135315e-01 -1.243454888463020325e-01
2.168000000000000000e+03 5.359530448913574219e+00 -1.944559860229492188e+01 6.201605126261711121e-02 -2.804975211620330811e-01 -6.554444134235382080e-02 -1.675707995891571045e-01
2.169000000000000000e+03 3.866707992553710938e+01 -8.729706764221191406e+00 -7.063258290290832520e-01 3.967463493347167969e+00 9.783412814140319824e-01 1.033215284347534180e+00
2.170000000000000000e+03 4.585112571716308594e+00 2.040907859802246094e+01 -1.744344644248485565e-02 -1.744880527257919312e-02 -1.046767551451921463e-02 3.209519758820533752e-02
2.171000000000000000e+03 2.087148284912109375e+01 2.766147041320800781e+01 1.727323746308684349e-03 8.423854410648345947e-02 2.578976005315780640e-02 6.405743956565856934e-02
2.172000000000000000e+03 4.497044372558593750e+01 1.384387302398681641e+01 6.964255571365356445e-01 8.603918075561523438e+00 2.790102958679199219e+00 -9.557149372994899750e-03
2.173000000000000000e+03 7.316922760009765625e+01 1.793216514587402344e+01 9.348173737525939941e-01 8.360835075378417969e+00 2.788695812225341797e+00 6.845268607139587402e-01
2.174000000000000000e+03 7.444967651367187500e+01 -1.904015350341796875e+01 1.092521190643310547e+00 8.170796394348144531e+00 2.778995275497436523e+00 -7.907997965812683105e-01
2.175000000000000000e+03 1.166941928863525391e+01 1.500061893463134766e+01 -2.739801257848739624e-02 -9.470370132476091385e-04 -8.503515273332595825e-03 -1.979196676984429359e-03
2.176000000000000000e+03 1.424157333374023438e+01 1.232323932647705078e+01 -5.157537292689085007e-03 -5.646666511893272400e-03 -3.241261234506964684e-03 -1.632472616620361805e-03
2.177000000000000000e+03 3.507245635986328125e+01 2.241988372802734375e+01 1.590701490640640259e-01 1.756446957588195801e+00 5.746551156044006348e-01 -9.740670323371887207e-01
2.178000000000000000e+03 7.539317321777343750e+01 1.205554485321044922e+01 3.136633932590484619e-01 7.455959320068359375e+00 2.330886840820312500e+00 -6.509849429130554199e-01
2.179000000000000000e+03 7.437875366210937500e+01 -1.466247272491455078e+01 7.779945731163024902e-01 7.999080657958984375e+00 2.633122682571411133e+00 4.623292088508605957e-01
2.180000000000000000e+03 4.522947311401367188e+00 -2.546974945068359375e+01 4.507231339812278748e-02 -4.473693072795867920e-01 -1.206891015172004700e-01 -1.554062590003013611e-02
2.181000000000000000e+03 7.041248798370361328e+00 -2.400870513916015625e+01 1.269396096467971802e-01 -1.367990523576736450e-01 -2.957832999527454376e-03 -7.189148664474487305e-02
2.182000000000000000e+03 8.087295532226562500e+00 -2.270971107482910156e+01 1.673675179481506348e-01 -9.732562117278575897e-03 4.729048907756805420e-02 -1.202942654490470886e-01
2.183000000000000000e+03 5.209862709045410156e+00 2.750288391113281250e+01 -9.186082519590854645e-03 -6.651125103235244751e-02 -2.270920015871524811e-02 8.016709983348846436e-02
2.184000000000000000e+03 4.950199604034423828e+00 2.461374282836914062e+01 -1.647210307419300079e-02 -4.306551814079284668e-02 -1.786128617823123932e-02 6.364580988883972168e-02
2.185000000000000000e+03 7.428794860839843750e+01 9.012598991394042969e+00 4.042150452733039856e-02 7.640342712402343750e+00 2.304229259490966797e+00 -7.405677437782287598e-01
2.186000000000000000e+03 6.894094848632812500e+01 6.160443782806396484e+00 -6.622137427330017090e-01 6.739080905914306641e+00 1.823060154914855957e+00 3.834726214408874512e-01
2.187000000000000000e+03 4.162525939941406250e+01 -3.133796453475952148e-01 1.794158816337585449e+00 5.963548660278320312e+00 2.327312231063842773e+00 3.626229763031005859e+00
2.188000000000000000e+03 1.383663368225097656e+01 5.054409503936767578e+00 1.355763990432024002e-03 -1.182010862976312637e-03 5.212593896430917084e-05 2.039396902546286583e-03
2.189000000000000000e+03 2.063331222534179688e+01 -6.232334136962890625e+00 -4.189349710941314697e-01 1.086345985531806946e-01 -9.309010952711105347e-02 -8.881952613592147827e-02
2.190000000000000000e+03 1.084482288360595703e+01 -5.146554946899414062e+00 -1.857914179563522339e-01 2.094769477844238281e-02 -4.945311695337295532e-02 -1.645376980304718018e-01
2.191000000000000000e+03 1.102651405334472656e+01 -6.776210784912109375e+00 -1.414746344089508057e-01 1.159208733588457108e-02 -3.896476328372955322e-02 -1.986260265111923218e-01
2.192000000000000000e+03 8.377374649047851562e+00 5.678771972656250000e+00 1.411102828569710255e-03 -1.961064990609884262e-03 -1.649886544328182936e-04 -7.202439592219889164e-04
2.193000000000000000e+03 6.478541374206542969e+00 4.828117847442626953e+00 1.203329884447157383e-03 -8.983736624941229820e-04 9.148685785476118326e-05 -1.685127033852040768e-03
2.194000000000000000e+03 4.151251316070556641e+00 6.210405349731445312e+00 3.008933854289352894e-04 4.818643210455775261e-04 2.348273119423538446e-04 -2.226062351837754250e-03
2.195000000000000000e+03 5.096950531005859375e+00 5.984880924224853516e+00 7.248701294884085655e-04 -5.057717789895832539e-04 6.572950223926454782e-05 -2.499768743291497231e-03
2.196000000000000000e+03 1.392938709259033203e+01 6.965577125549316406e+00 1.709229836706072092e-04 -1.451339921914041042e-03 -3.841251018457114697e-04 2.434570109471678734e-03
2.197000000000000000e+03 1.366691398620605469e+01 5.842777252197265625e+00 6.679571815766394138e-04 -1.200148137286305428e-03 -1.596572983544319868e-04 2.240308094769716263e-03
2.198000000000000000e+03 9.632987022399902344e+00 -5.614206314086914062e+00 -1.455119848251342773e-01 5.349993240088224411e-03 -4.204859584569931030e-02 -1.707939803600311279e-01
2.199000000000000000e+03 9.395094871520996094e+00 5.239416599273681641e+00 1.582219614647328854e-03 -2.129220170900225639e-03 -1.641001726966351271e-04 -4.502029623836278915e-04
2.200000000000000000e+03 2.503164482116699219e+01 -7.798169612884521484e+00 -5.330512523651123047e-01 1.373897045850753784e-01 -1.186984628438949585e-01 -2.258942127227783203e-01
2.201000000000000000e+03 7.449916362762451172e+00 -5.693769931793212891e+00 -1.034149155020713806e-01 -2.349092438817024231e-02 -3.807175159454345703e-02 -1.546272784471511841e-01
2.202000000000000000e+03 2.371362304687500000e+01 -8.052757263183593750e+00 -3.800455927848815918e-01 1.488049924373626709e-01 -6.937218457460403442e-02 -2.107296884059906006e-01
2.203000000000000000e+03 1.596426391601562500e+01 -7.159137725830078125e+00 -1.775098741054534912e-01 7.942023873329162598e-02 -2.942688949406147003e-02 -2.136888504028320312e-01
2.204000000000000000e+03 1.401941680908203125e+01 -8.525813102722167969e+00 -4.363928362727165222e-02 3.684014454483985901e-02 -2.039742190390825272e-03 -2.235249727964401245e-01
2.205000000000000000e+03 1.157681751251220703e+01 4.335742950439453125e+00 1.877520466223359108e-03 -1.601098454557359219e-03 8.292659913422539830e-05 9.395780507475137711e-04
2.206000000000000000e+03 1.784271430969238281e+01 -6.321743011474609375e+00 -2.895795404911041260e-01 7.919291406869888306e-02 -6.311599165201187134e-02 -1.585576087236404419e-01
2.207000000000000000e+03 1.400453853607177734e+01 -6.226475238800048828e+00 -2.150520384311676025e-01 3.427241742610931396e-02 -5.423388630151748657e-02 -2.000217437744140625e-01
2.208000000000000000e+03 1.323841190338134766e+01 -5.428108215332031250e+00 -2.414189875125885010e-01 3.030981868505477905e-02 -6.333275139331817627e-02 -1.786523759365081787e-01
2.209000000000000000e+03 2.501113319396972656e+01 -9.048568725585937500e+00 -2.134230434894561768e-01 6.413070112466812134e-02 -4.478770121932029724e-02 -3.028188645839691162e-01
2.210000000000000000e+03 2.640532684326171875e+01 -7.501685619354248047e+00 -7.304119467735290527e-01 8.104494214057922363e-02 -1.948101073503494263e-01 -2.501054108142852783e-01
2.211000000000000000e+03 1.208391475677490234e+01 9.259537696838378906e+00 -6.687846034765243530e-04 -4.684212617576122284e-03 -1.605899073183536530e-03 1.470863702706992626e-03
2.212000000000000000e+03 1.361531352996826172e+01 9.259211540222167969e+00 -1.810516696423292160e-04 -3.871324472129344940e-03 -1.215712865814566612e-03 2.254661638289690018e-03
2.213000000000000000e+03 3.772066116333007812e+01 -9.056789398193359375e+00 -3.972085416316986084e-01 3.114338874816894531e+00 8.151391148567199707e-01 8.339041471481323242e-01
2.214000000000000000e+03 5.954484176635742188e+01 -5.680669784545898438e+00 4.769085943698883057e-01 6.107209920883178711e-01 3.262888789176940918e-01 -1.072169899940490723e+00
2.215000000000000000e+03 5.946872329711914062e+01 -8.163496971130371094e+00 -2.996979057788848877e-01 3.959713578224182129e-01 2.888203226029872894e-02 -4.951313734054565430e-01
2.216000000000000000e+03 4.171117401123046875e+01 -1.594245243072509766e+01 9.625520110130310059e-01 7.142900943756103516e+00 2.431635856628417969e+00 7.053703069686889648e-01
2.217000000000000000e+03 7.321180343627929688e+00 -6.499678611755371094e+00 -9.183642268180847168e-02 -3.212392330169677734e-02 -3.718810528516769409e-02 -1.682177484035491943e-01
2.218000000000000000e+03 1.316449737548828125e+01 -6.213341236114501953e+00 -1.962725371122360229e-01 3.260742872953414917e-02 -4.909953102469444275e-02 -1.990907937288284302e-01
2.219000000000000000e+03 1.490075683593750000e+01 -7.745054244995117188e+00 -1.241484209895133972e-01 4.633355885744094849e-02 -2.334445901215076447e-02 -2.226667851209640503e-01
2.220000000000000000e+03 4.350160598754882812e+01 -2.469443130493164062e+01 9.615356922149658203e-01 7.170066356658935547e+00 2.439480543136596680e+00 6.506787538528442383e-01
2.221000000000000000e+03 4.221933364868164062e+01 -2.405138206481933594e+01 1.168871045112609863e+00 6.590844154357910156e+00 2.327914476394653320e+00 1.136570334434509277e+00
2.222000000000000000e+03 3.054225349426269531e+01 -9.442876815795898438e+00 -9.305237978696823120e-02 -2.796515226364135742e-01 -1.118111684918403625e-01 -2.647021710872650146e-01
2.223000000000000000e+03 3.261191940307617188e+01 -9.381362915039062500e+00 -3.406624495983123779e-02 5.601445678621530533e-03 -8.539440110325813293e-03 -7.167368382215499878e-02
2.224000000000000000e+03 1.862040901184082031e+01 -5.978670597076416016e+00 -3.672571778297424316e-01 6.162435561418533325e-02 -9.168983995914459229e-02 -1.183072999119758606e-01
2.225000000000000000e+03 1.849384307861328125e+01 -8.643897056579589844e+00 -5.749275907874107361e-02 1.136437803506851196e-01 1.684530638158321381e-02 -1.889722794294357300e-01
2.226000000000000000e+03 2.098602867126464844e+01 -9.265450477600097656e+00 -2.153813093900680542e-02 1.145130768418312073e-01 2.789248339831829071e-02 -2.131006270647048950e-01
2.227000000000000000e+03 4.530819702148437500e+01 -3.797889232635498047e+00 -1.466584920883178711e+00 9.757293701171875000e+00 2.487212657928466797e+00 1.224493741989135742e+00
2.228000000000000000e+03 4.450307464599609375e+01 -2.131219148635864258e+00 -5.887282490730285645e-01 1.114475917816162109e+01 3.166809320449829102e+00 2.053289413452148438e+00
2.229000000000000000e+03 5.556957244873046875e+00 1.011471080780029297e+01 -1.325591583736240864e-03 -1.722075510770082474e-03 -9.143001516349613667e-04 -1.403678557835519314e-03
2.230000000000000000e+03 7.333105468750000000e+01 -1.912264633178710938e+01 1.472602248191833496e+00 8.638042449951171875e+00 3.033193349838256836e+00 -7.785225510597229004e-01
2.231000000000000000e+03 7.558302307128906250e+01 -1.882092666625976562e+01 8.111429214477539062e-01 7.550353527069091797e+00 2.508449077606201172e+00 -5.651673078536987305e-01
2.232000000000000000e+03 6.204911041259765625e+01 -6.282807350158691406e+00 3.878169357776641846e-01 1.581797361373901367e+00 5.908843278884887695e-01 -1.094010114669799805e+00
2.233000000000000000e+03 6.335445404052734375e+01 -7.903689146041870117e-01 5.168249607086181641e-01 2.229923248291015625e+00 8.240244984626770020e-01 -1.842096894979476929e-01
2.234000000000000000e+03 6.502205657958984375e+01 1.785571813583374023e+00 2.066433243453502655e-02 3.329808712005615234e+00 1.005141854286193848e+00 4.128107428550720215e-01
2.235000000000000000e+03 7.340830993652343750e+01 -1.463949203491210938e+01 1.051406860351562500e+00 8.484066009521484375e+00 2.860641717910766602e+00 4.891596436500549316e-01
2.236000000000000000e+03 7.296578216552734375e+01 7.305991649627685547e+00 -3.234341442584991455e-01 7.819607734680175781e+00 2.248852014541625977e+00 -5.983644723892211914e-01
2.237000000000000000e+03 4.257761001586914062e+01 -2.916270017623901367e+00 -6.998778879642486572e-02 8.367794990539550781e+00 2.489342212677001953e+00 2.973186731338500977e+00
2.238000000000000000e+03 4.359455490112304688e+01 -4.986918926239013672e+00 -1.807978272438049316e+00 8.763842582702636719e+00 2.086759328842163086e+00 1.814330935478210449e+00
2.239000000000000000e+03 5.379798889160156250e+00 -1.129761886596679688e+01 -3.040282614529132843e-02 -1.360300034284591675e-01 -4.992984980344772339e-02 -1.974671632051467896e-01
2.240000000000000000e+03 7.423126983642578125e+01 -1.005471801757812500e+01 -1.447498351335525513e-01 7.907509803771972656e+00 2.328827857971191406e+00 8.000596165657043457e-01
2.241000000000000000e+03 1.831664848327636719e+01 -7.010674476623535156e+00 -2.585242986679077148e-01 8.883824944496154785e-02 -5.090581625699996948e-02 -1.557128280401229858e-01
2.242000000000000000e+03 6.054190826416015625e+01 -1.332203745841979980e+00 1.222014784812927246e+00 6.973800659179687500e-01 5.758184790611267090e-01 -4.529947042465209961e-01
2.243000000000000000e+03 6.157606887817382812e+01 7.426340579986572266e-01 8.297303318977355957e-01 1.027903079986572266e+00 5.572900176048278809e-01 9.328392893075942993e-02
2.244000000000000000e+03 6.644463062286376953e+00 1.159172725677490234e+01 -4.510794766247272491e-03 -3.385114483535289764e-03 -2.368772635236382484e-03 2.370955771766602993e-04
2.245000000000000000e+03 6.622988700866699219e+00 1.275896644592285156e+01 -8.422283455729484558e-03 -3.098703688010573387e-03 -3.456296166405081749e-03 1.235166448168456554e-03
2.246000000000000000e+03 1.002442646026611328e+01 -4.770918369293212891e+00 -1.775154173374176025e-01 1.546419132500886917e-02 -4.861536994576454163e-02 -1.509456336498260498e-01
2.247000000000000000e+03 5.484428024291992188e+01 -3.912024974822998047e+00 1.507310509681701660e+00 -1.300148218870162964e-01 4.131886959075927734e-01 -1.355274915695190430e+00
2.248000000000000000e+03 4.364614868164062500e+01 -6.058386325836181641e+00 -2.296617507934570312e+00 8.609566688537597656e+00 1.893884658813476562e+00 1.601609110832214355e+00
2.249000000000000000e+03 6.070791721343994141e+00 -2.093715286254882812e+01 1.069207340478897095e-01 -2.172499895095825195e-01 -3.309877589344978333e-02 -1.474520266056060791e-01
2.250000000000000000e+03 6.989669322967529297e+00 -2.173106956481933594e+01 1.351153701543807983e-01 -1.238765493035316467e-01 3.371647326275706291e-03 -1.385576426982879639e-01
2.251000000000000000e+03 1.517694282531738281e+01 6.488775253295898438e+00 4.832727427128702402e-05 2.754075685515999794e-04 9.712045721244066954e-05 2.720927121117711067e-03
2.252000000000000000e+03 5.472754955291748047e+00 6.861507415771484375e+00 3.858808195218443871e-04 -6.684511317871510983e-04 -8.477109076920896769e-05 -2.117232186719775200e-03
2.253000000000000000e+03 7.084940338134765625e+01 6.888229846954345703e+00 -4.689415395259857178e-01 7.571508884429931641e+00 2.130770206451416016e+00 -1.047730445861816406e-01
2.254000000000000000e+03 7.248172760009765625e+01 9.609982490539550781e+00 1.138842403888702393e-01 8.168618202209472656e+00 2.484750747680664062e+00 -5.760851502418518066e-01
2.255000000000000000e+03 2.003896522521972656e+01 -8.185016632080078125e+00 -1.552361249923706055e-01 1.144660785794258118e-01 -1.223101466894149780e-02 -1.730986386537551880e-01
2.256000000000000000e+03 6.777640819549560547e+00 -1.319265270233154297e+01 -2.206090465188026428e-02 -7.947838306427001953e-02 -3.046178631484508514e-02 -2.160842418670654297e-01
2.257000000000000000e+03 5.330408477783203125e+01 -3.263897657394409180e+00 1.934774518013000488e+00 5.817481875419616699e-01 7.549568414688110352e-01 -1.087477087974548340e+00
2.258000000000000000e+03 5.286899185180664062e+01 -4.740433692932128906e+00 7.070171236991882324e-01 3.247197568416595459e-01 3.095210790634155273e-01 -8.925724029541015625e-01
2.259000000000000000e+03 7.120544433593750000e+01 -1.349321365356445312e+01 8.896673321723937988e-01 9.528247833251953125e+00 3.125374555587768555e+00 3.264861702919006348e-01
2.260000000000000000e+03 1.010367202758789062e+01 -1.080231189727783203e+01 -3.471999615430831909e-02 7.857372052967548370e-03 -8.058787323534488678e-03 -1.795237660408020020e-01
2.261000000000000000e+03 1.085225296020507812e+01 -1.158740043640136719e+01 -1.061131805181503296e-02 2.980100549757480621e-02 5.756906699389219284e-03 -1.548435539007186890e-01
2.262000000000000000e+03 3.675408172607421875e+01 -9.571353912353515625e+00 -9.853811562061309814e-02 2.297885894775390625e+00 6.598043441772460938e-01 5.273362398147583008e-01
2.263000000000000000e+03 3.958576202392578125e+01 -8.475267410278320312e+00 -1.021583557128906250e+00 4.831932544708251953e+00 1.143104672431945801e+00 1.208244919776916504e+00
2.264000000000000000e+03 2.752190208435058594e+01 -9.374735832214355469e+00 -1.696828156709671021e-01 -8.580826222896575928e-02 -7.664732635021209717e-02 -3.917019367218017578e-01
2.265000000000000000e+03 5.975058555603027344e+00 9.106427192687988281e+00 -1.729781622998416424e-03 -1.984220230951905251e-03 -1.114200567826628685e-03 -2.250477671623229980e-03
2.266000000000000000e+03 7.805006980895996094e+00 -2.555369377136230469e+01 1.113497316837310791e-01 -5.867720395326614380e-02 1.580175757408142090e-02 -4.962102323770523071e-02
2.267000000000000000e+03 4.931694412231445312e+01 -6.229415416717529297e+00 -1.841421246528625488e+00 4.936939239501953125e+00 9.286553263664245605e-01 9.051089882850646973e-01
2.268000000000000000e+03 3.109291076660156250e+01 -1.058596324920654297e+01 4.123699665069580078e-01 -1.275793761014938354e-01 8.543717861175537109e-02 -1.775388568639755249e-01
2.269000000000000000e+03 4.438852310180664062e+01 -8.756562232971191406e+00 -2.146544218063354492e+00 8.616522789001464844e+00 1.940993428230285645e+00 8.685456514358520508e-01
2.270000000000000000e+03 4.448961257934570312e+01 -1.082080173492431641e+01 -1.056803226470947266e+00 8.763846397399902344e+00 2.312113046646118164e+00 5.638787746429443359e-01
2.271000000000000000e+03 4.911721420288085938e+01 -4.655472755432128906e+00 -6.687210798263549805e-01 5.400319576263427734e+00 1.419479489326477051e+00 2.550342082977294922e-01
2.272000000000000000e+03 3.014289283752441406e+01 -1.100816059112548828e+01 4.478529691696166992e-01 -1.856177598237991333e-01 7.867056876420974731e-02 -2.163038700819015503e-01
2.273000000000000000e+03 2.406927490234375000e+01 -9.990880012512207031e+00 2.289872430264949799e-02 6.447021663188934326e-02 2.621068246662616730e-02 -2.929794490337371826e-01
2.274000000000000000e+03 6.005767822265625000e+01 -4.704030513763427734e+00 7.014757990837097168e-01 7.050243020057678223e-01 4.219500422477722168e-01 -1.044833421707153320e+00
2.275000000000000000e+03 5.891442108154296875e+01 -2.480834245681762695e+00 1.475234866142272949e+00 1.775846332311630249e-01 4.958458244800567627e-01 -8.561094403266906738e-01
2.276000000000000000e+03 4.545261001586914062e+01 -1.185200119018554688e+01 -2.336462438106536865e-01 9.408214569091796875e+00 2.752370357513427734e+00 9.145582318305969238e-01
2.277000000000000000e+03 4.604033279418945312e+01 -5.565304160118103027e-01 1.602245092391967773e+00 1.227771568298339844e+01 4.163988113403320312e+00 -1.212918639183044434e+00
2.278000000000000000e+03 5.468152523040771484e+00 1.634516906738281250e+01 -1.502850744873285294e-02 -4.209280479699373245e-03 -5.771336611360311508e-03 1.165789272636175156e-02
2.279000000000000000e+03 9.279180526733398438e+00 -1.144811725616455078e+01 -3.393179550766944885e-02 5.910361651331186295e-03 -8.406430482864379883e-03 -1.904891282320022583e-01
2.280000000000000000e+03 3.945680999755859375e+01 -1.505480003356933594e+01 6.730116009712219238e-01 5.188290119171142578e+00 1.758390426635742188e+00 3.225534260272979736e-01
2.281000000000000000e+03 6.798950958251953125e+01 -8.744810104370117188e+00 -5.306759476661682129e-01 6.597613811492919922e+00 1.820081353187561035e+00 -9.961619377136230469e-01
2.282000000000000000e+03 2.506348800659179688e+01 -1.112420177459716797e+01 2.726452946662902832e-01 1.573414914309978485e-02 8.651383221149444580e-02 -3.268798589706420898e-01
2.283000000000000000e+03 4.152844619750976562e+01 -2.530005073547363281e+01 9.938925504684448242e-01 6.231253623962402344e+00 2.167543888092041016e+00 1.159493327140808105e+00
2.284000000000000000e+03 1.318458366394042969e+01 -7.061055183410644531e+00 -1.446790993213653564e-01 2.725571021437644958e-02 -3.522701561450958252e-02 -2.134441733360290527e-01
2.285000000000000000e+03 6.787681579589843750e+00 -1.576788806915283203e+01 1.021896675229072571e-02 -7.654044032096862793e-02 -1.989644207060337067e-02 -2.292560786008834839e-01
2.286000000000000000e+03 6.051219463348388672e+00 -2.278825569152832031e+01 1.085585355758666992e-01 -2.525669634342193604e-01 -4.320253059267997742e-02 -9.511066973209381104e-02
2.287000000000000000e+03 3.801688766479492188e+01 -1.511695766448974609e+01 5.809671282768249512e-01 4.002936840057373047e+00 1.375171184539794922e+00 8.467742055654525757e-02
2.288000000000000000e+03 3.706202697753906250e+01 -1.146924209594726562e+01 2.378082126379013062e-01 2.700723409652709961e+00 8.815594911575317383e-01 3.836820125579833984e-01
2.289000000000000000e+03 1.321745681762695312e+01 6.492877960205078125e+00 1.181834959425032139e-03 -2.232594881206750870e-03 -3.152280114591121674e-04 2.293887315317988396e-03
2.290000000000000000e+03 1.258131790161132812e+01 7.154542922973632812e+00 1.494004536652937531e-04 -2.628061221912503242e-03 -7.435982115566730499e-04 1.476559322327375412e-03
2.291000000000000000e+03 3.736102294921875000e+01 -1.254870319366455078e+01 4.172264933586120605e-01 3.139237642288208008e+00 1.066939234733581543e+00 2.257466316223144531e-01
2.292000000000000000e+03 7.446203613281250000e+01 -4.261109352111816406e+00 -4.118862450122833252e-01 7.452826023101806641e+00 2.112282037734985352e+00 3.141309022903442383e-01
2.293000000000000000e+03 5.914362716674804688e+01 -5.248480439186096191e-01 1.533122539520263672e+00 1.274422742426395416e-02 4.637600183486938477e-01 -4.042940139770507812e-01
2.294000000000000000e+03 4.235488510131835938e+01 -1.953126907348632812e+01 1.303580880165100098e+00 7.914945602416992188e+00 2.765558004379272461e+00 9.452172517776489258e-01
2.295000000000000000e+03 6.296019744873046875e+01 -7.017650127410888672e+00 3.656323254108428955e-01 2.112578630447387695e+00 7.434633374214172363e-01 -1.153774142265319824e+00
2.296000000000000000e+03 6.590675354003906250e+00 1.627931022644042969e+01 -1.848656684160232544e-02 -3.232710761949419975e-03 -6.515783257782459259e-03 1.288207620382308960e-02
2.297000000000000000e+03 7.351589202880859375e+01 4.870619773864746094e+00 -4.542061388492584229e-01 7.500354290008544922e+00 2.113844394683837891e+00 -4.306046664714813232e-01
2.298000000000000000e+03 7.273040771484375000e+01 3.629170417785644531e+00 -5.253224968910217285e-01 7.274137973785400391e+00 2.024644613265991211e+00 -2.657985389232635498e-01
2.299000000000000000e+03 7.171731567382812500e+01 -2.249566459655761719e+01 5.036590695381164551e-01 9.236358642578125000e+00 2.922005176544189453e+00 -1.331924200057983398e+00
2.300000000000000000e+03 7.395475006103515625e+01 2.008692169189453125e+01 4.432177245616912842e-01 7.952232360839843750e+00 2.518635034561157227e+00 9.913113117218017578e-01
2.301000000000000000e+03 7.645045471191406250e+01 1.922928047180175781e+01 2.639409899711608887e-01 7.256770133972167969e+00 2.256213188171386719e+00 6.683289408683776855e-01
2.302000000000000000e+03 1.912195205688476562e+01 -8.964607238769531250e+00 -3.507261723279953003e-02 1.167819425463676453e-01 2.451279759407043457e-02 -1.904736906290054321e-01
2.303000000000000000e+03 3.968439865112304688e+01 -2.536457252502441406e+01 1.229655385017395020e+00 5.742767333984375000e+00 2.091726779937744141e+00 1.452985525131225586e+00
2.304000000000000000e+03 4.638280105590820312e+01 -2.177451133728027344e+00 -4.962118715047836304e-02 1.015113639831542969e+01 3.030454397201538086e+00 -2.139684855937957764e-01
2.305000000000000000e+03 4.736816787719726562e+01 -3.189559936523437500e+00 -2.300226539373397827e-01 8.319255828857421875e+00 2.426769971847534180e+00 -1.854614466428756714e-01
2.306000000000000000e+03 6.889538288116455078e+00 2.740611076354980469e+01 -1.976535096764564514e-02 -4.398265853524208069e-02 -1.912440173327922821e-02 9.376996755599975586e-02
2.307000000000000000e+03 7.141082000732421875e+01 -2.733150672912597656e+01 -1.099389195442199707e+00 7.896679401397705078e+00 2.039186954498291016e+00 -6.379482150077819824e-01
2.308000000000000000e+03 7.139801788330078125e+01 -2.559654235839843750e+01 -7.586241960525512695e-01 8.720874786376953125e+00 2.388674974441528320e+00 -7.504133582115173340e-01
2.309000000000000000e+03 7.428179931640625000e+01 1.230492687225341797e+01 5.867803096771240234e-01 7.723400592803955078e+00 2.493054151535034180e+00 -5.421119928359985352e-01
2.310000000000000000e+03 7.308979034423828125e+01 1.288808345794677734e+01 7.583352923393249512e-01 8.420311927795410156e+00 2.753594160079956055e+00 -4.618640542030334473e-01
2.311000000000000000e+03 7.615822601318359375e+01 -1.137186717987060547e+01 9.169966727495193481e-02 7.378354549407958984e+00 2.241016387939453125e+00 8.274831771850585938e-01
2.312000000000000000e+03 7.486597442626953125e+01 -1.190099620819091797e+01 1.949355453252792358e-01 7.809228897094726562e+00 2.401249408721923828e+00 8.588685393333435059e-01
2.313000000000000000e+03 1.296993827819824219e+01 1.526193332672119141e+01 -3.244607895612716675e-02 4.427242965903133154e-04 -9.601006284356117249e-03 -8.171087130904197693e-03
2.314000000000000000e+03 1.052923679351806641e+01 1.353938674926757812e+01 -1.598365418612957001e-02 -4.036504775285720825e-03 -6.006047595292329788e-03 5.905714715481735766e-05
2.315000000000000000e+03 4.267676925659179688e+01 -3.043082237243652344e+01 -5.115212202072143555e-01 5.189346313476562500e+00 1.403347611427307129e+00 1.452886015176773071e-01
2.316000000000000000e+03 4.520684814453125000e+01 -2.994161796569824219e+01 -6.834585070610046387e-01 5.109763145446777344e+00 1.327891349792480469e+00 -4.352484345436096191e-01
2.317000000000000000e+03 7.407196807861328125e+01 -2.673773765563964844e+01 -5.969769954681396484e-01 8.373694419860839844e+00 2.333015203475952148e+00 -1.152200102806091309e+00
2.318000000000000000e+03 7.042768096923828125e+01 2.615686607360839844e+01 -1.045480370521545410e+00 6.904081344604492188e+00 1.757580399513244629e+00 -4.501188695430755615e-01
2.319000000000000000e+03 7.579686737060546875e+01 1.848273277282714844e+01 4.127540290355682373e-01 7.247277736663818359e+00 2.298009634017944336e+00 6.366513371467590332e-01
2.320000000000000000e+03 5.095082283020019531e+00 2.605043220520019531e+01 -1.617440022528171539e-02 -5.523172020912170410e-02 -2.142183668911457062e-02 7.208860665559768677e-02
2.321000000000000000e+03 6.719437599182128906e+00 2.591824913024902344e+01 -2.251312695443630219e-02 -3.379560634493827820e-02 -1.689261943101882935e-02 8.571108430624008179e-02
2.322000000000000000e+03 3.539640426635742188e+01 -8.663991928100585938e+00 -2.502998113632202148e-01 1.087822318077087402e+00 2.512567341327667236e-01 3.995811939239501953e-01
2.323000000000000000e+03 1.069004631042480469e+01 -2.772439765930175781e+01 7.291710376739501953e-02 1.714757531881332397e-01 7.331785559654235840e-02 -8.570429682731628418e-02
2.324000000000000000e+03 5.793736934661865234e+00 -2.489327812194824219e+01 8.385840803384780884e-02 -2.969011664390563965e-01 -6.391283124685287476e-02 -3.756051883101463318e-02
2.325000000000000000e+03 7.439508819580078125e+01 2.698424911499023438e+01 -5.526942610740661621e-01 7.587709426879882812e+00 2.110504627227783203e+00 2.937968969345092773e-01
2.326000000000000000e+03 7.849389076232910156e+00 -2.983172035217285156e+01 1.347169093787670135e-02 -1.266433596611022949e-01 -3.395149856805801392e-02 -1.433264371007680893e-02
2.327000000000000000e+03 7.359152984619140625e+01 8.593270301818847656e+00 -8.076319098472595215e-02 7.918202877044677734e+00 2.351232051849365234e+00 -7.404721975326538086e-01
2.328000000000000000e+03 7.243932342529296875e+01 -1.242922401428222656e+01 3.711988329887390137e-01 8.697814941406250000e+00 2.720704078674316406e+00 6.605347990989685059e-01
2.329000000000000000e+03 3.662364959716796875e+01 2.565912055969238281e+01 -1.248062774538993835e-01 2.361733675003051758e+00 6.710782051086425781e-01 -9.258848428726196289e-01
2.330000000000000000e+03 3.531896209716796875e+01 2.485083770751953125e+01 -2.594444341957569122e-02 2.004228115081787109e+00 5.934851169586181641e-01 -9.060006737709045410e-01
2.331000000000000000e+03 3.938309478759765625e+01 1.828222274780273438e+01 4.481134414672851562e-01 3.576854705810546875e+00 1.207490444183349609e+00 -1.454260587692260742e+00
2.332000000000000000e+03 4.736125564575195312e+01 -2.742026329040527344e+01 -5.395878478884696960e-02 5.237515449523925781e+00 1.555067062377929688e+00 -1.417754650115966797e+00
2.333000000000000000e+03 6.685705566406250000e+01 2.646631622314453125e+01 -9.291934967041015625e-01 4.585729598999023438e+00 1.096960902214050293e+00 -1.340156078338623047e+00
2.334000000000000000e+03 1.715739250183105469e+01 2.852518653869628906e+01 1.408106763847172260e-03 7.818562537431716919e-02 2.387811988592147827e-02 1.323370784521102905e-01
2.335000000000000000e+03 3.422683715820312500e+01 2.650289535522460938e+01 -5.741062760353088379e-02 1.736478805541992188e+00 5.037204623222351074e-01 -7.509465217590332031e-01
2.336000000000000000e+03 6.790792083740234375e+01 -3.028070449829101562e+01 -1.150455355644226074e+00 5.396473884582519531e+00 1.273805499076843262e+00 4.929722547531127930e-01
2.337000000000000000e+03 4.064072799682617188e+01 -1.977450752258300781e+01 1.231867909431457520e+00 6.508277893066406250e+00 2.322043657302856445e+00 1.125657200813293457e+00
2.338000000000000000e+03 7.374503326416015625e+01 1.036069393157958984e+01 2.786394655704498291e-01 7.821880817413330078e+00 2.430155992507934570e+00 -6.745759248733520508e-01
2.339000000000000000e+03 6.736523437500000000e+01 2.839673423767089844e+01 -5.333514213562011719e-01 4.756129264831542969e+00 1.266833424568176270e+00 -1.143568873405456543e+00
2.340000000000000000e+03 4.243222045898437500e+01 -7.363482475280761719e+00 -2.027457952499389648e+00 7.706801891326904297e+00 1.703803181648254395e+00 1.430094599723815918e+00
2.341000000000000000e+03 4.135978317260742188e+01 -7.221880912780761719e+00 -1.661685824394226074e+00 6.676587581634521484e+00 1.504470467567443848e+00 1.538116693496704102e+00
2.342000000000000000e+03 7.137610626220703125e+01 -1.023567390441894531e+01 -2.585664689540863037e-01 8.363275527954101562e+00 2.431412696838378906e+00 2.788344025611877441e-01
2.343000000000000000e+03 7.254926300048828125e+01 -1.116165161132812500e+01 3.277916461229324341e-02 8.426777839660644531e+00 2.537867069244384766e+00 6.703111529350280762e-01
2.344000000000000000e+03 4.159493255615234375e+01 -3.196886253356933594e+01 -5.938102006912231445e-01 4.893686294555664062e+00 1.289962887763977051e+00 2.243461012840270996e-01
2.345000000000000000e+03 6.195357894897460938e+01 3.097132873535156250e+01 4.326364099979400635e-01 2.433918952941894531e+00 8.599666357040405273e-01 -8.842441439628601074e-02
2.346000000000000000e+03 5.856540298461914062e+01 2.823329162597656250e+01 5.857294425368309021e-02 1.468872189521789551e+00 4.582335650920867920e-01 8.747772574424743652e-01
2.347000000000000000e+03 7.085640907287597656e+00 3.235532760620117188e+01 2.192801050841808319e-02 -7.815396040678024292e-02 -1.686778478324413300e-02 9.646927565336227417e-02
2.348000000000000000e+03 7.407140350341796875e+01 -1.776509475708007812e+01 1.279109716415405273e+00 8.208033561706542969e+00 2.846142768859863281e+00 -3.757852315902709961e-01
2.349000000000000000e+03 1.026143932342529297e+01 1.570031929016113281e+01 -3.058810532093048096e-02 2.272120211273431778e-03 -8.494796231389045715e-03 5.880068987607955933e-03
2.350000000000000000e+03 7.030194854736328125e+01 -3.142178153991699219e+01 -8.967406749725341797e-01 6.675806045532226562e+00 1.733719706535339355e+00 2.374720200896263123e-02
2.351000000000000000e+03 7.506995391845703125e+01 -5.614498615264892578e+00 -3.273023366928100586e-01 7.597228527069091797e+00 2.180977821350097656e+00 4.672358632087707520e-01
2.352000000000000000e+03 7.161114501953125000e+01 -7.068729877471923828e+00 -5.808231234550476074e-01 7.441240787506103516e+00 2.058125257492065430e+00 1.253063827753067017e-01
2.353000000000000000e+03 7.329186248779296875e+01 6.094687461853027344e+00 -4.087982773780822754e-01 7.554341793060302734e+00 2.143662929534912109e+00 -5.523402690887451172e-01
2.354000000000000000e+03 5.112659931182861328e+00 -9.006258964538574219e+00 -3.927703574299812317e-02 -1.110396832227706909e-01 -4.509501531720161438e-02 -1.726430952548980713e-01
2.355000000000000000e+03 7.601605415344238281e+00 2.285836791992187500e+01 -4.254598170518875122e-02 -8.488394320011138916e-03 -1.531031262129545212e-02 6.533948332071304321e-02
2.356000000000000000e+03 6.462402820587158203e+00 2.446449279785156250e+01 -3.047356754541397095e-02 -2.651502750813961029e-02 -1.709657721221446991e-02 7.365979254245758057e-02
2.357000000000000000e+03 7.239922332763671875e+01 -2.042044448852539062e+01 1.357933402061462402e+00 9.150954246520996094e+00 3.152666330337524414e+00 -9.878327846527099609e-01
2.358000000000000000e+03 7.540402984619140625e+01 -2.211267662048339844e+01 3.509913980960845947e-01 7.933785438537597656e+00 2.485433101654052734e+00 -1.378347039222717285e+00
2.359000000000000000e+03 7.461576080322265625e+01 -1.297857570648193359e+01 3.982871472835540771e-01 7.913708686828613281e+00 2.493598699569702148e+00 7.594572305679321289e-01
2.360000000000000000e+03 7.225378417968750000e+01 -2.387651824951171875e+01 -9.135074913501739502e-02 9.141358375549316406e+00 2.715002298355102539e+00 -1.344197273254394531e+00
2.361000000000000000e+03 7.367911529541015625e+01 -2.536676025390625000e+01 -4.822721779346466064e-01 8.663621902465820312e+00 2.454404830932617188e+00 -1.348583459854125977e+00
2.362000000000000000e+03 7.047727966308593750e+01 1.726899743080139160e+00 -6.252892017364501953e-01 6.497087478637695312e+00 1.761539578437805176e+00 2.701125480234622955e-02
2.363000000000000000e+03 7.305102539062500000e+01 3.790760040283203125e-01 -4.905670583248138428e-01 7.102034091949462891e+00 1.983440041542053223e+00 -8.748927712440490723e-02
2.364000000000000000e+03 7.265273094177246094e+00 -1.416270637512207031e+01 -2.141588926315307617e-02 -4.138531535863876343e-02 -1.884036138653755188e-02 -2.230003327131271362e-01
2.365000000000000000e+03 6.412059307098388672e+00 -1.226464080810546875e+01 -3.132715821266174316e-02 -9.533004462718963623e-02 -3.799716010689735413e-02 -2.101278156042098999e-01
2.366000000000000000e+03 6.718280792236328125e+00 5.553645133972167969e+00 1.060658250935375690e-03 -1.458395854569971561e-03 -1.193212592625059187e-04 -1.973430626094341278e-03
2.367000000000000000e+03 7.422228813171386719e+00 5.356705665588378906e+00 1.180933089926838875e-03 -1.413098303601145744e-03 -6.964956992305815220e-05 -1.289747771807014942e-03
2.368000000000000000e+03 7.757900714874267578e+00 5.997642040252685547e+00 7.909724954515695572e-04 -2.113382564857602119e-03 -3.967230441048741341e-04 -1.677127205766737461e-03
2.369000000000000000e+03 1.472664833068847656e+01 5.128593444824218750e+00 5.628453800454735756e-04 -1.748844661051407456e-04 1.163882625405676663e-04 2.522125141695141792e-03
2.370000000000000000e+03 1.297787666320800781e+01 -7.942448139190673828e+00 -9.746510535478591919e-02 2.037278190255165100e-02 -2.312769740819931030e-02 -2.161509245634078979e-01
2.371000000000000000e+03 9.223844528198242188e+00 -6.075222969055175781e+00 -1.313943564891815186e-01 -2.798789646476507187e-03 -4.025794565677642822e-02 -1.756666749715805054e-01
2.372000000000000000e+03 9.958031654357910156e+00 -6.195909976959228516e+00 -1.420107930898666382e-01 4.402629099786281586e-03 -4.128244891762733459e-02 -1.856163889169692993e-01
2.373000000000000000e+03 9.510983467102050781e+00 5.887695312500000000e+00 1.028604921884834766e-03 -2.217562869191169739e-03 -3.566874074749648571e-04 -1.412080018781125546e-04
2.374000000000000000e+03 1.424752807617187500e+01 -6.946405410766601562e+00 -1.576617509126663208e-01 4.656338691711425781e-02 -3.332951292395591736e-02 -2.133819758892059326e-01
2.375000000000000000e+03 1.745364761352539062e+01 -7.426814556121826172e+00 -1.743022501468658447e-01 9.570421278476715088e-02 -2.357941120862960815e-02 -1.910217851400375366e-01
2.376000000000000000e+03 1.094571113586425781e+01 5.076290607452392578e+00 1.521571539342403412e-03 -2.152777509763836861e-03 -1.893618173198774457e-04 4.722924786619842052e-04
2.377000000000000000e+03 1.226892185211181641e+01 5.040616035461425781e+00 1.700831577181816101e-03 -1.828181440941989422e-03 -3.820495840045623481e-05 1.310784020461142063e-03
2.378000000000000000e+03 4.191889572143554688e+01 -1.697380542755126953e+00 1.895832180976867676e+00 6.839658260345458984e+00 2.620647192001342773e+00 3.553591966629028320e+00
2.379000000000000000e+03 1.021999454498291016e+01 5.204449653625488281e+00 1.143938046880066395e-03 -1.922923140227794647e-03 -2.336955512873828411e-04 2.537194523029029369e-04
2.380000000000000000e+03 2.232636451721191406e+01 -8.501994132995605469e+00 -2.134184390306472778e-01 1.326654106378555298e-01 -2.422590740025043488e-02 -2.048833668231964111e-01
2.381000000000000000e+03 4.631385040283203125e+01 -1.281870365142822266e+00 7.535197138786315918e-01 1.123379898071289062e+01 3.596195459365844727e+00 -9.194895029067993164e-01
2.382000000000000000e+03 5.153194904327392578e+00 -6.968662738800048828e+00 -5.249099805951118469e-02 -7.625771313905715942e-02 -3.862461447715759277e-02 -1.462676376104354858e-01
2.383000000000000000e+03 1.913302040100097656e+01 -8.320775032043457031e+00 -1.315225958824157715e-01 1.061601862311363220e-01 -7.608722429722547531e-03 -1.663698107004165649e-01
2.384000000000000000e+03 4.274271011352539062e+01 -2.034420013427734375e+00 4.983236789703369141e-01 8.860952377319335938e+00 2.807782888412475586e+00 3.485409736633300781e+00
2.385000000000000000e+03 1.220450305938720703e+01 -6.033132553100585938e+00 -1.839588284492492676e-01 2.613894827663898468e-02 -4.734596237540245056e-02 -1.925880759954452515e-01
2.386000000000000000e+03 1.798301696777343750e+01 -8.086612701416015625e+00 -1.342707574367523193e-01 1.073144897818565369e-01 -8.086878806352615356e-03 -1.810991317033767700e-01
2.387000000000000000e+03 6.192232608795166016e+00 -7.137951850891113281e+00 -6.608254462480545044e-02 -5.995951965451240540e-02 -3.781262040138244629e-02 -1.650172024965286255e-01
2.388000000000000000e+03 8.272126197814941406e+00 -6.650975704193115234e+00 -1.023569777607917786e-01 -2.041038312017917633e-02 -3.683020547032356262e-02 -1.793272495269775391e-01
2.389000000000000000e+03 1.444574546813964844e+01 6.085436344146728516e+00 1.111805089749395847e-03 -1.036094734445214272e-03 2.271311495860572904e-05 2.560089575126767159e-03
2.390000000000000000e+03 2.229466629028320312e+01 -7.009653568267822266e+00 -4.310589432716369629e-01 1.475293487310409546e-01 -8.505887538194656372e-02 -1.083522364497184753e-01
2.391000000000000000e+03 2.131969642639160156e+01 -7.191909313201904297e+00 -3.333729505538940430e-01 1.259846687316894531e-01 -6.221648678183555603e-02 -1.354990005493164062e-01
2.392000000000000000e+03 7.321240997314453125e+01 -9.133894920349121094e+00 -3.480709493160247803e-01 7.984268665313720703e+00 2.290859222412109375e+00 6.374089717864990234e-01
2.393000000000000000e+03 7.242070770263671875e+01 1.467887020111083984e+01 1.153828382492065430e+00 9.031943321228027344e+00 3.055731773376464844e+00 -6.769060343503952026e-02
2.394000000000000000e+03 6.093451023101806641e+00 -7.990820884704589844e+00 -5.732295662164688110e-02 -7.325516641139984131e-02 -3.917343541979789734e-02 -1.759792119264602661e-01
2.395000000000000000e+03 6.117603683471679688e+01 -3.342869043350219727e+00 9.095512628555297852e-01 1.097459554672241211e+00 6.021032333374023438e-01 -7.753979563713073730e-01
2.396000000000000000e+03 7.128856658935546875e+00 -1.189805316925048828e+01 -3.469975665211677551e-02 -6.070512905716896057e-02 -2.862146496772766113e-02 -2.094142585992813110e-01
2.397000000000000000e+03 5.284349441528320312e+00 -1.013404083251953125e+01 -3.249231725931167603e-02 -1.234864965081214905e-01 -4.679364338517189026e-02 -1.855896115303039551e-01
2.398000000000000000e+03 7.325112915039062500e+01 -7.114495277404785156e+00 -4.798448383808135986e-01 7.661046028137207031e+00 2.154360294342041016e+00 4.598156213760375977e-01
2.399000000000000000e+03 4.537025833129882812e+01 -7.550843238830566406e+00 -2.661906719207763672e+00 8.708435058593750000e+00 1.813958644866943359e+00 1.131694674491882324e+00
2.400000000000000000e+03 4.756508255004882812e+01 -6.328883647918701172e+00 -2.338258981704711914e+00 7.301986217498779297e+00 1.489118099212646484e+00 1.087008953094482422e+00
2.401000000000000000e+03 1.475247955322265625e+01 -6.324001789093017578e+00 -2.174616754055023193e-01 5.745215341448783875e-02 -4.800285398960113525e-02 -2.016981095075607300e-01
2.402000000000000000e+03 7.007641792297363281e+00 9.606204032897949219e+00 -1.132282428443431854e-03 -3.219759324565529823e-03 -1.305612502619624138e-03 -1.340697286650538445e-03
2.403000000000000000e+03 6.733241081237792969e+00 1.051386928558349609e+01 -4.093494731932878494e-03 -3.030138555914163589e-03 -2.137090079486370087e-03 -1.284369500353932381e-03
2.404000000000000000e+03 6.551126956939697266e+00 -1.978058052062988281e+01 1.001168638467788696e-01 -1.413985043764114380e-01 -1.238449010998010635e-02 -1.908406615257263184e-01
2.405000000000000000e+03 5.163473129272460938e+00 -2.058484649658203125e+01 7.570683211088180542e-02 -3.208081424236297607e-01 -7.353039085865020752e-02 -1.442951261997222900e-01
2.406000000000000000e+03 4.539219665527343750e+01 -3.015815496444702148e+00 -1.083701252937316895e+00 1.029738616943359375e+01 2.764105319976806641e+00 1.038573741912841797e+00
2.407000000000000000e+03 6.931044006347656250e+01 3.338307380676269531e+00 -5.912927985191345215e-01 6.167033672332763672e+00 1.672722339630126953e+00 2.595208585262298584e-01
2.408000000000000000e+03 1.197397136688232422e+01 7.895146846771240234e+00 5.165988695807754993e-04 -3.830465720966458321e-03 -9.941600728780031204e-04 1.540310215204954147e-03
2.409000000000000000e+03 4.402080154418945312e+01 -6.972232341766357422e+00 -2.419054746627807617e+00 8.572548866271972656e+00 1.846048235893249512e+00 1.331241726875305176e+00
2.410000000000000000e+03 1.110257148742675781e+01 -7.537697792053222656e+00 -1.056720986962318420e-01 8.774541318416595459e-03 -2.906926721334457397e-02 -2.016796171665191650e-01
2.411000000000000000e+03 6.492115020751953125e+01 2.024427950382232666e-01 1.613980382680892944e-01 3.229743242263793945e+00 1.017342448234558105e+00 7.402892410755157471e-02
2.412000000000000000e+03 4.353124237060546875e+01 -1.387694597244262695e+00 1.796634197235107422e-01 1.113164043426513672e+01 3.393391132354736328e+00 3.537643194198608398e+00
2.413000000000000000e+03 4.103514862060546875e+01 -2.332501792907714844e+01 1.353979587554931641e+00 6.363597393035888672e+00 2.315273046493530273e+00 1.384485363960266113e+00
2.414000000000000000e+03 4.821432876586914062e+01 -4.465133190155029297e+00 -9.598923921585083008e-01 6.727013587951660156e+00 1.730136394500732422e+00 3.917201459407806396e-01
2.415000000000000000e+03 1.239909839630126953e+01 -8.743667602539062500e+00 -4.159437865018844604e-02 1.390300970524549484e-02 -8.307410404086112976e-03 -2.059981673955917358e-01
2.416000000000000000e+03 1.089536857604980469e+01 -8.796514511108398438e+00 -6.105136498808860779e-02 5.168556701391935349e-03 -1.676484197378158569e-02 -2.017303556203842163e-01
2.417000000000000000e+03 4.447860336303710938e+01 -2.992680549621582031e+00 -1.059530854225158691e+00 1.022444057464599609e+01 2.749472856521606445e+00 1.883975386619567871e+00
2.418000000000000000e+03 6.563745880126953125e+01 7.501936554908752441e-01 -3.395418450236320496e-02 3.793619632720947266e+00 1.127899646759033203e+00 2.196307033300399780e-01
2.419000000000000000e+03 2.202115440368652344e+01 -9.522699356079101562e+00 -8.469014428555965424e-03 8.943356573581695557e-02 2.428936585783958435e-02 -2.258088290691375732e-01
2.420000000000000000e+03 2.446893692016601562e+01 -8.454884529113769531e+00 -3.369478583335876465e-01 1.097373813390731812e-01 -6.816314160823822021e-02 -2.680565714836120605e-01
2.421000000000000000e+03 6.553070831298828125e+01 -6.254137992858886719e+00 1.202076394110918045e-02 3.997200489044189453e+00 1.202766418457031250e+00 -1.213553190231323242e+00
2.422000000000000000e+03 3.584960556030273438e+01 -1.148140907287597656e+01 4.041123092174530029e-01 1.866044998168945312e+00 6.810472011566162109e-01 1.922573745250701904e-01
2.423000000000000000e+03 2.662433815002441406e+01 -8.985874176025390625e+00 -2.818808257579803467e-01 -1.155532430857419968e-02 -8.803084492683410645e-02 -3.471021354198455811e-01
2.424000000000000000e+03 2.577506065368652344e+01 -8.421658515930175781e+00 -3.862457275390625000e-01 6.861723959445953369e-02 -9.528854489326477051e-02 -3.290003538131713867e-01
2.425000000000000000e+03 6.270238876342773438e+01 -5.539456844329833984e+00 4.645425379276275635e-01 2.011711835861206055e+00 7.428763508796691895e-01 -1.040841937065124512e+00
2.426000000000000000e+03 6.387797927856445312e+01 -7.569833278656005859e+00 2.993089556694030762e-01 2.538870096206665039e+00 8.514536619186401367e-01 -1.430752038955688477e+00
2.427000000000000000e+03 6.538638114929199219e+00 1.510184478759765625e+01 -1.524834055453538895e-02 -3.074642037972807884e-03 -5.496894940733909607e-03 6.872846279293298721e-03
2.428000000000000000e+03 1.093159770965576172e+01 -1.014489269256591797e+01 -2.335280925035476685e-02 7.068507373332977295e-03 -4.885290283709764481e-03 -1.863832920789718628e-01
2.429000000000000000e+03 8.531220436096191406e+00 -1.064134216308593750e+01 -4.800329729914665222e-02 -2.349232509732246399e-02 -2.144868671894073486e-02 -1.999481469392776489e-01
2.430000000000000000e+03 7.352768707275390625e+01 -1.259874534606933594e+01 4.704067111015319824e-01 8.309042930603027344e+00 2.633834838867187500e+00 7.739833593368530273e-01
2.431000000000000000e+03 5.707341003417968750e+01 -3.528123378753662109e+00 1.468873262405395508e+00 -1.370936632156372070e-01 3.995338976383209229e-01 -1.222806811332702637e+00
2.432000000000000000e+03 3.898897552490234375e+01 -9.796810150146484375e+00 -4.996090829372406006e-01 4.347325325012207031e+00 1.154314875602722168e+00 8.038432002067565918e-01
2.433000000000000000e+03 4.099309921264648438e+01 -2.069557571411132812e+01 1.270275712013244629e+00 6.659437656402587891e+00 2.378913879394531250e+00 1.246989130973815918e+00
2.434000000000000000e+03 4.276573562622070312e+01 -1.243715000152587891e+01 -6.268816441297531128e-02 7.672980308532714844e+00 2.283087730407714844e+00 5.582057833671569824e-01
2.435000000000000000e+03 4.051144027709960938e+01 -1.330800724029541016e+01 3.026510179042816162e-01 5.834216594696044922e+00 1.841060280799865723e+00 3.941889405250549316e-01
2.436000000000000000e+03 1.302736759185791016e+01 5.045725345611572266e+00 1.064929063431918621e-03 -1.348234247416257858e-03 -8.499155228491872549e-05 1.891335239633917809e-03
2.437000000000000000e+03 8.494477272033691406e+00 -1.937198066711425781e+01 1.327563971281051636e-01 1.031886041164398193e-01 7.078349590301513672e-02 -2.277683764696121216e-01
2.438000000000000000e+03 4.198835372924804688e+01 -1.786806869506835938e+01 1.208977818489074707e+00 7.801302433013916016e+00 2.703083992004394531e+00 9.114370942115783691e-01
2.439000000000000000e+03 4.023716354370117188e+01 -1.828245735168457031e+01 9.713358879089355469e-01 6.198561668395996094e+00 2.150969266891479492e+00 8.554811477661132812e-01
2.440000000000000000e+03 4.090240097045898438e+01 -1.470192241668701172e+01 6.702314615249633789e-01 6.314469337463378906e+00 2.095410346984863281e+00 4.558160305023193359e-01
2.441000000000000000e+03 1.336008453369140625e+01 7.772545337677001953e+00 7.649534964002668858e-04 -3.059827722609043121e-03 -6.884622271172702312e-04 2.340181265026330948e-03
2.442000000000000000e+03 6.018744659423828125e+01 -2.488667726516723633e+00 1.209444046020507812e+00 5.829634070396423340e-01 5.377222299575805664e-01 -7.194163203239440918e-01
2.443000000000000000e+03 3.452804565429687500e+01 -9.915278434753417969e+00 1.738084256649017334e-01 8.591112494468688965e-01 3.098759055137634277e-01 1.694282591342926025e-01
2.444000000000000000e+03 4.124868774414062500e+01 -8.258337020874023438e+00 -1.513116717338562012e+00 6.547639369964599609e+00 1.510356783866882324e+00 1.251816749572753906e+00
2.445000000000000000e+03 1.269715023040771484e+01 1.147283649444580078e+01 -5.243391264230012894e-03 -6.207054015249013901e-03 -3.435133723542094231e-03 -1.250970992259681225e-03
2.446000000000000000e+03 7.155458831787109375e+01 8.361121177673339844e+00 -2.025800496339797974e-01 8.061478614807128906e+00 2.357669591903686523e+00 -3.927063047885894775e-01
2.447000000000000000e+03 7.075762271881103516e+00 -2.802739715576171875e+01 4.596496745944023132e-02 -1.759691834449768066e-01 -3.900126740336418152e-02 -9.149552322924137115e-03
2.448000000000000000e+03 7.666726112365722656e+00 -1.268674182891845703e+01 -3.438997641205787659e-02 -3.022090159356594086e-02 -1.938326284289360046e-02 -2.111259847879409790e-01
2.449000000000000000e+03 3.356961441040039062e+01 -9.692502975463867188e+00 1.091800034046173096e-01 1.982998400926589966e-01 9.224395453929901123e-02 7.108644396066665649e-02
2.450000000000000000e+03 7.530448150634765625e+01 1.079783725738525391e+01 2.325451225042343140e-01 7.393231391906738281e+00 2.287732839584350586e+00 -6.810696721076965332e-01
2.451000000000000000e+03 7.263479614257812500e+01 8.465925216674804688e+00 -1.077212020754814148e-01 7.871037483215332031e+00 2.328994989395141602e+00 -6.317755579948425293e-01
2.452000000000000000e+03 6.935499572753906250e+01 -6.800830364227294922e+00 -6.440176367759704590e-01 6.674502849578857422e+00 1.809145569801330566e+00 -4.165695011615753174e-01
2.453000000000000000e+03 3.374762058258056641e+00 -2.713296890258789062e+01 1.630663499236106873e-02 -6.007575988769531250e-01 -1.753352880477905273e-01 1.036020833998918533e-02
2.454000000000000000e+03 1.281032657623291016e+01 1.978447723388671875e+01 -9.631036221981048584e-02 3.339930996298789978e-02 -1.887331530451774597e-02 2.277902886271476746e-02
2.455000000000000000e+03 6.427969360351562500e+01 -5.349183082580566406e-01 2.742471396923065186e-01 2.848978757858276367e+00 9.369677901268005371e-01 -5.495490878820419312e-02
2.456000000000000000e+03 7.267409515380859375e+01 -3.203154373168945312e+01 -6.641852855682373047e-01 7.554035186767578125e+00 2.066955089569091797e+00 -2.213043570518493652e-01
2.457000000000000000e+03 5.855308151245117188e+01 -5.128224849700927734e+00 5.162963867187500000e-01 3.145991563796997070e-01 2.492686659097671509e-01 -1.114547729492187500e+00
2.458000000000000000e+03 5.905368804931640625e+01 -4.338149547576904297e+00 9.491218328475952148e-01 3.655774891376495361e-01 3.944098055362701416e-01 -1.153672814369201660e+00
2.459000000000000000e+03 7.154503631591796875e+01 2.536956977844238281e+01 -1.111236333847045898e+00 7.630900859832763672e+00 1.955899357795715332e+00 -3.847972676157951355e-02
2.460000000000000000e+03 1.402564048767089844e+01 2.294376754760742188e+01 -1.410912871360778809e-01 5.480931699275970459e-02 -2.588459104299545288e-02 7.119863480329513550e-02
2.461000000000000000e+03 7.941708564758300781e+00 2.420637512207031250e+01 -4.052866622805595398e-02 -8.845151402056217194e-03 -1.481214445084333420e-02 7.764912396669387817e-02
2.462000000000000000e+03 3.205432510375976562e+01 -1.015162944793701172e+01 2.815710902214050293e-01 -3.880138695240020752e-02 7.283090800046920776e-02 -1.104530692100524902e-01
2.463000000000000000e+03 3.734240722656250000e+01 -7.921443462371826172e+00 -6.333397030830383301e-01 2.505305528640747070e+00 5.615897178649902344e-01 9.032591581344604492e-01
2.464000000000000000e+03 7.461804199218750000e+01 2.137329101562500000e+01 8.779451996088027954e-02 7.937048435211181641e+00 2.407452821731567383e+00 9.666010737419128418e-01
2.465000000000000000e+03 7.230398559570312500e+01 -9.883988380432128906e+00 -3.614249229431152344e-01 8.178070068359375000e+00 2.344993591308593750e+00 4.905838668346405029e-01
2.466000000000000000e+03 7.242314147949218750e+01 -8.023886680603027344e+00 -5.521574616432189941e-01 7.742030620574951172e+00 2.156961917877197266e+00 3.558958470821380615e-01
2.467000000000000000e+03 4.397102737426757812e+01 1.482082653045654297e+01 5.982409119606018066e-01 7.557610988616943359e+00 2.446755409240722656e+00 -5.665886402130126953e-01
2.468000000000000000e+03 7.266899871826171875e+01 -1.673899269104003906e+01 1.647451162338256836e+00 8.984435081481933594e+00 3.189565896987915039e+00 -2.136851549148559570e-01
2.469000000000000000e+03 7.183393859863281250e+01 -1.794515991210937500e+01 2.054152965545654297e+00 9.668367385864257812e+00 3.516756057739257812e+00 -5.762298107147216797e-01
2.470000000000000000e+03 9.352891921997070312e+00 -2.901190376281738281e+01 3.390437737107276917e-02 1.424390170723199844e-02 1.444448437541723251e-02 -4.391002655029296875e-02
2.471000000000000000e+03 7.135607910156250000e+01 -2.912341690063476562e+01 -1.012181997299194336e+00 7.646618366241455078e+00 1.990330934524536133e+00 -3.639131486415863037e-01
2.472000000000000000e+03 6.895731353759765625e+01 2.837539482116699219e+01 -7.243567109107971191e-01 5.682411670684814453e+00 1.487416505813598633e+00 -8.583405613899230957e-01
2.473000000000000000e+03 3.905355072021484375e+01 -3.176063346862792969e+01 -3.276316821575164795e-01 4.785062789916992188e+00 1.337229371070861816e+00 6.170213818550109863e-01
2.474000000000000000e+03 7.072568511962890625e+01 4.240286350250244141e+00 -6.086643934249877930e-01 6.753842830657958984e+00 1.843553543090820312e+00 -3.431390598416328430e-02
2.475000000000000000e+03 7.222663116455078125e+01 5.904463768005371094e+00 -5.001749992370605469e-01 7.540778160095214844e+00 2.112180948257446289e+00 -3.613245189189910889e-01
2.476000000000000000e+03 5.916572952270507812e+01 -3.507495641708374023e+00 1.090217709541320801e+00 3.637941181659698486e-01 4.362035691738128662e-01 -9.901912808418273926e-01
2.477000000000000000e+03 8.739830970764160156e+00 2.728225135803222656e+01 -2.616679668426513672e-02 -1.601079665124416351e-02 -1.265327818691730499e-02 1.062142774462699890e-01
2.478000000000000000e+03 6.112566757202148438e+01 -5.363166809082031250e+00 5.952537655830383301e-01 1.151062965393066406e+00 5.238950252532958984e-01 -1.015198469161987305e+00
2.479000000000000000e+03 6.199998855590820312e+01 -1.663400173187255859e+00 8.489814996719360352e-01 1.420482397079467773e+00 6.808391213417053223e-01 -4.721009731292724609e-01
2.480000000000000000e+03 7.283617401123046875e+01 2.638195419311523438e+01 -7.271114587783813477e-01 7.482308864593505859e+00 2.026559352874755859e+00 1.117210462689399719e-01
2.481000000000000000e+03 4.505563735961914062e+01 2.423379707336425781e+01 -6.755352020263671875e-01 4.975067138671875000e+00 1.289859533309936523e+00 -2.060059309005737305e-01
2.482000000000000000e+03 4.069374847412109375e+01 2.136699867248535156e+01 -2.253590896725654602e-02 4.046761989593505859e+00 1.207267761230468750e+00 -1.102872729301452637e+00
2.483000000000000000e+03 1.096892929077148438e+01 6.178014278411865234e+00 6.089205271564424038e-04 -2.537051914259791374e-03 -5.784393870271742344e-04 4.659063997678458691e-04
2.484000000000000000e+03 8.740047454833984375e+00 7.270910263061523438e+00 -3.736900180228985846e-05 -3.118005581200122833e-03 -9.466123883612453938e-04 -1.264917664229869843e-03
2.485000000000000000e+03 6.308283805847167969e+00 6.552216053009033203e+00 6.131274858489632607e-04 -1.739100669510662556e-03 -3.377919783815741539e-04 -2.303227083757519722e-03
2.486000000000000000e+03 7.277333259582519531e+00 8.071915626525878906e+00 -1.872384455054998398e-04 -3.089428180828690529e-03 -9.829999180510640144e-04 -2.177403075620532036e-03
2.487000000000000000e+03 4.293394470214843750e+01 -1.347123622894287109e+00 1.207295894622802734e+00 8.847532272338867188e+00 3.016448497772216797e+00 4.043056011199951172e+00
2.488000000000000000e+03 1.177841949462890625e+01 6.614210128784179688e+00 1.283146091736853123e-03 -2.995431423187255859e-03 -5.136855761520564556e-04 1.325171673670411110e-03
2.489000000000000000e+03 1.293288898468017578e+01 5.837988853454589844e+00 1.244552549906075001e-03 -2.056273631751537323e-03 -2.435162896290421486e-04 1.629485748708248138e-03
2.490000000000000000e+03 7.676813125610351562e+00 -8.550243377685546875e+00 -7.016961276531219482e-02 -4.075738042593002319e-02 -3.327810019254684448e-02 -1.963143497705459595e-01
2.491000000000000000e+03 1.007789707183837891e+01 -6.842877388000488281e+00 -1.232281252741813660e-01 3.304434241726994514e-03 -3.597710654139518738e-02 -1.916708946228027344e-01
2.492000000000000000e+03 4.434333038330078125e+01 -7.786397457122802734e+00 -2.449544668197631836e+00 8.685493469238281250e+00 1.870784521102905273e+00 1.085074424743652344e+00
2.493000000000000000e+03 1.213087177276611328e+01 5.828083515167236328e+00 7.232949137687683105e-04 -2.009955700486898422e-03 -3.859982825815677643e-04 1.431097858585417271e-03
2.494000000000000000e+03 6.772903442382812500e+00 7.319448471069335938e+00 1.571686589159071445e-04 -1.768569462001323700e-03 -4.834202409256249666e-04 -1.437869039364159107e-03
2.495000000000000000e+03 4.717957687377929688e+01 -4.358575820922851562e+00 -1.327733516693115234e+00 8.097893714904785156e+00 2.031048059463500977e+00 5.254745483398437500e-01
2.496000000000000000e+03 4.451387786865234375e+01 -3.831016540527343750e+00 -1.429090261459350586e+00 9.632748603820800781e+00 2.461097717285156250e+00 1.680761575698852539e+00
2.497000000000000000e+03 7.223656654357910156e+00 -7.333275318145751953e+00 -7.888762652873992920e-02 -4.317830875515937805e-02 -3.661978244781494141e-02 -1.806010752916336060e-01
2.498000000000000000e+03 1.206018066406250000e+01 -6.829450130462646484e+00 -1.434495747089385986e-01 2.152801491320133209e-02 -3.657646477222442627e-02 -2.027169913053512573e-01
2.499000000000000000e+03 1.074621295928955078e+01 -6.040810585021972656e+00 -1.528752297163009644e-01 1.450013741850852966e-02 -4.151252657175064087e-02 -1.857270896434783936e-01
2.500000000000000000e+03 6.991194248199462891e+00 -8.777070999145507812e+00 -5.760465562343597412e-02 -5.989277735352516174e-02 -3.524922952055931091e-02 -1.953412741422653198e-01
2.501000000000000000e+03 9.208307266235351562e+00 -7.482393741607666016e+00 -9.701033681631088257e-02 -1.234288327395915985e-02 -3.280596435070037842e-02 -1.941697895526885986e-01
2.502000000000000000e+03 6.419617652893066406e+00 -1.137924194335937500e+01 -3.219436854124069214e-02 -9.282846748828887939e-02 -3.750685229897499084e-02 -2.068343013525009155e-01
2.503000000000000000e+03 4.457234573364257812e+01 -5.092692375183105469e+00 -2.038614749908447266e+00 9.135757446289062500e+00 2.129142761230468750e+00 1.578558683395385742e+00
2.504000000000000000e+03 6.482953643798828125e+01 -3.305246114730834961e+00 1.776636987924575806e-01 3.357708215713500977e+00 1.060611605644226074e+00 -6.254876852035522461e-01
2.505000000000000000e+03 6.370470428466796875e+01 -3.514513254165649414e+00 4.722457230091094971e-01 2.521045207977294922e+00 8.979873061180114746e-01 -7.494138479232788086e-01
2.506000000000000000e+03 7.185450744628906250e+01 3.520007610321044922e+00 -6.035722494125366211e-01 7.045311927795410156e+00 1.932521820068359375e+00 -1.796990334987640381e-01
2.507000000000000000e+03 6.994721984863281250e+01 3.910526037216186523e+00 -6.932932138442993164e-01 6.636758804321289062e+00 1.783039569854736328e+00 1.353841423988342285e-01
2.508000000000000000e+03 3.811457824707031250e+01 -1.001101112365722656e+01 -2.970322370529174805e-01 3.563348770141601562e+00 9.798949956893920898e-01 6.950377225875854492e-01
2.509000000000000000e+03 6.381859302520751953e+00 -9.845975875854492188e+00 -4.367767646908760071e-02 -8.570566773414611816e-02 -3.881500288844108582e-02 -1.980092376470565796e-01
2.510000000000000000e+03 4.169942855834960938e+01 -1.291611576080322266e+01 1.814836412668228149e-01 6.846055984497070312e+00 2.108261823654174805e+00 4.123005270957946777e-01
2.511000000000000000e+03 1.176396560668945312e+01 1.259093093872070312e+01 -9.891958907246589661e-03 -6.426576524972915649e-03 -4.895560443401336670e-03 -1.932129613123834133e-03
2.512000000000000000e+03 1.208610820770263672e+01 1.067915344238281250e+01 -2.414674963802099228e-03 -5.934576969593763351e-03 -2.504775533452630043e-03 7.301924051716923714e-04
2.513000000000000000e+03 7.892879009246826172e+00 1.723622131347656250e+01 -2.945744805037975311e-02 -2.622322354000061750e-04 -8.915903978049755096e-03 1.798323541879653931e-02
2.514000000000000000e+03 7.646427154541015625e+00 1.523590564727783203e+01 -1.810976490378379822e-02 -2.233424456790089607e-03 -6.102956365793943405e-03 8.155601099133491516e-03
2.515000000000000000e+03 6.803933620452880859e+00 1.749964904785156250e+01 -2.551901526749134064e-02 -2.621483290567994118e-03 -8.442149497568607330e-03 1.878745481371879578e-02
2.516000000000000000e+03 7.596027374267578125e+00 1.618826293945312500e+01 -2.435226552188396454e-02 -1.121398876421153545e-03 -7.642099168151617050e-03 1.119796093553304672e-02
2.517000000000000000e+03 4.460327911376953125e+01 -5.858098506927490234e+00 -2.328411579132080078e+00 8.869688987731933594e+00 1.962383270263671875e+00 1.476248264312744141e+00
2.518000000000000000e+03 6.660371398925781250e+01 1.126690626144409180e+00 -2.418181598186492920e-01 4.412300586700439453e+00 1.251144647598266602e+00 2.580868899822235107e-01
2.519000000000000000e+03 6.575872802734375000e+01 -3.936551511287689209e-01 -3.505532070994377136e-02 3.852276802062988281e+00 1.145166397094726562e+00 -1.612793467938899994e-02
2.520000000000000000e+03 2.329470634460449219e+01 -8.874020576477050781e+00 -1.721656322479248047e-01 1.052370667457580566e-01 -2.007856965065002441e-02 -2.445135414600372314e-01
2.521000000000000000e+03 7.234867095947265625e+01 -2.171185493469238281e+01 8.251118063926696777e-01 9.326471328735351562e+00 3.045474767684936523e+00 -1.474344849586486816e+00
2.522000000000000000e+03 1.153926849365234375e+01 -8.189130783081054688e+00 -9.180334210395812988e-02 8.423361927270889282e-03 -2.501399442553520203e-02 -2.089565396308898926e-01
2.523000000000000000e+03 4.043917083740234375e+01 -8.237806320190429688e+00 -1.237400650978088379e+00 5.636805534362792969e+00 1.319821476936340332e+00 1.305154800415039062e+00
2.524000000000000000e+03 1.064192295074462891e+01 1.138172245025634766e+01 -5.496486090123653412e-03 -6.163304205983877182e-03 -3.497936995700001717e-03 -1.039866241626441479e-03
2.525000000000000000e+03 1.288478469848632812e+01 1.003592300415039062e+01 -2.357299672439694405e-03 -4.183463286608457565e-03 -1.962228910997509956e-03 8.541470160707831383e-04
2.526000000000000000e+03 2.118786239624023438e+01 -8.205487251281738281e+00 -2.044217586517333984e-01 1.159757450222969055e-01 -2.653380483388900757e-02 -1.604795902967453003e-01
2.527000000000000000e+03 8.319803237915039062e+00 9.200468063354492188e+00 -9.248915011994540691e-04 -4.129924811422824860e-03 -1.516444841399788857e-03 -9.256693883799016476e-04
2.528000000000000000e+03 7.921126842498779297e+00 1.295060253143310547e+01 -9.789464063942432404e-03 -3.802746534347534180e-03 -4.077663179486989975e-03 1.939925714395940304e-03
2.529000000000000000e+03 6.858264160156250000e+01 2.570404767990112305e+00 -5.694172382354736328e-01 5.730430126190185547e+00 1.548303842544555664e+00 2.254715412855148315e-01
2.530000000000000000e+03 7.787114620208740234e+00 -1.130914211273193359e+01 -3.813271224498748779e-02 -3.980197757482528687e-02 -2.338040620088577271e-02 -2.079815268516540527e-01
2.531000000000000000e+03 8.243510246276855469e+00 -7.454513549804687500e+00 -9.079883247613906860e-02 -2.483404055237770081e-02 -3.468986228108406067e-02 -1.889358907938003540e-01
2.532000000000000000e+03 4.124484252929687500e+01 -1.061274051666259766e+01 -6.926584243774414062e-01 6.339545249938964844e+00 1.694066047668457031e+00 6.522467136383056641e-01
2.533000000000000000e+03 4.322828292846679688e+01 -8.793299674987792969e+00 -1.866104960441589355e+00 8.035033226013183594e+00 1.850678563117980957e+00 9.883418083190917969e-01
2.534000000000000000e+03 7.142964172363281250e+01 -1.124132919311523438e+01 -1.230548769235610962e-01 8.662110328674316406e+00 2.561716794967651367e+00 3.382966220378875732e-01
2.535000000000000000e+03 7.373217010498046875e+01 -1.135051345825195312e+01 4.922387003898620605e-02 8.150979995727539062e+00 2.460061073303222656e+00 8.164338469505310059e-01
2.536000000000000000e+03 2.817288398742675781e+01 -9.950597763061523438e+00 5.709258839488029480e-02 -1.506615132093429565e-01 -2.807067707180976868e-02 -3.559202849864959717e-01
2.537000000000000000e+03 3.994350433349609375e+01 -9.551718711853027344e+00 -7.935497164726257324e-01 5.282392978668212891e+00 1.346652984619140625e+00 9.077064990997314453e-01
2.538000000000000000e+03 6.503775787353515625e+01 -7.151877880096435547e+00 1.865745894610881805e-02 3.647888183593750000e+00 1.099963665008544922e+00 -1.337530016899108887e+00
2.539000000000000000e+03 7.188621520996093750e+01 7.113628864288330078e+00 -4.346223771572113037e-01 7.630832672119140625e+00 2.158863067626953125e+00 -3.932755291461944580e-01
2.540000000000000000e+03 6.138801193237304688e+01 -7.056118965148925781e+00 3.493978679180145264e-01 1.163617014884948730e+00 4.539044499397277832e-01 -9.420022964477539062e-01
2.541000000000000000e+03 3.912626266479492188e+01 -1.212543678283691406e+01 1.112800762057304382e-01 4.605489253997802734e+00 1.415030837059020996e+00 4.108251333236694336e-01
2.542000000000000000e+03 3.805151748657226562e+01 -1.185826492309570312e+01 1.607730239629745483e-01 3.783458709716796875e+00 1.183269500732421875e+00 3.446028232574462891e-01
2.543000000000000000e+03 4.668888854980468750e+01 -5.434179306030273438e+00 -2.113146781921386719e+00 8.219615936279296875e+00 1.831940650939941406e+00 9.303742051124572754e-01
2.544000000000000000e+03 4.589165496826171875e+01 -6.190947532653808594e+00 -2.461036443710327148e+00 8.569166183471679688e+00 1.832438945770263672e+00 1.250484347343444824e+00
2.545000000000000000e+03 9.250065803527832031e+00 1.322672176361083984e+01 -1.472628675401210785e-02 -3.423127578571438789e-03 -5.444824229925870895e-03 5.170501535758376122e-04
2.546000000000000000e+03 9.260733604431152344e+00 1.551183223724365234e+01 -2.709069289267063141e-02 2.554605598561465740e-04 -8.050570264458656311e-03 6.399388425052165985e-03
2.547000000000000000e+03 1.177030086517333984e+01 1.375743293762207031e+01 -1.984804868698120117e-02 -2.908915048465132713e-03 -6.827089469879865646e-03 -3.107947297394275665e-03
2.548000000000000000e+03 6.636374664306640625e+01 -7.043553829193115234e+00 -2.211939394474029541e-01 4.796651363372802734e+00 1.372637271881103516e+00 -1.268049836158752441e+00
2.549000000000000000e+03 6.714947509765625000e+01 -7.927237987518310547e+00 -3.571022748947143555e-01 5.861104011535644531e+00 1.651200532913208008e+00 -1.252779960632324219e+00
2.550000000000000000e+03 7.091237640380859375e+01 -8.052574157714843750e+00 -6.716309189796447754e-01 7.570740699768066406e+00 2.069732904434204102e+00 -2.454363182187080383e-02
2.551000000000000000e+03 7.001264953613281250e+01 -6.001326084136962891e+00 -5.991075038909912109e-01 6.759059906005859375e+00 1.847985744476318359e+00 -2.613873183727264404e-01
2.552000000000000000e+03 6.578812599182128906e+00 8.432337760925292969e+00 -2.027671143878251314e-04 -2.033796859905123711e-03 -6.709691951982676983e-04 -1.470225979574024677e-03
2.553000000000000000e+03 5.203412055969238281e+00 -1.532711887359619141e+01 9.647679398767650127e-04 -2.081807702779769897e-01 -6.216479837894439697e-02 -2.114768773317337036e-01
2.554000000000000000e+03 7.295191955566406250e+01 -2.719276428222656250e+01 -7.798269391059875488e-01 8.389446258544921875e+00 2.282885789871215820e+00 -9.469812512397766113e-01
2.555000000000000000e+03 4.030354690551757812e+01 -1.200232791900634766e+01 -5.951218679547309875e-02 5.627621650695800781e+00 1.670432806015014648e+00 4.133758842945098877e-01
2.556000000000000000e+03 3.997350692749023438e+01 2.532486724853515625e+01 -3.748964667320251465e-01 3.482839584350585938e+00 9.323829412460327148e-01 -8.264564871788024902e-01
2.557000000000000000e+03 3.759515762329101562e+01 2.453330039978027344e+01 -1.070222854614257812e-01 2.673094511032104492e+00 7.698216438293457031e-01 -1.001794695854187012e+00
2.558000000000000000e+03 7.157781982421875000e+01 4.529753684997558594e+00 -6.095585823059082031e-01 7.203233718872070312e+00 1.978102564811706543e+00 -1.745834350585937500e-01
2.559000000000000000e+03 4.244939422607421875e+01 -1.139419269561767578e+01 -5.721698999404907227e-01 7.406319618225097656e+00 2.050245046615600586e+00 5.113743543624877930e-01
2.560000000000000000e+03 6.358491516113281250e+01 -5.361937999725341797e+00 3.779398202896118164e-01 2.597046136856079102e+00 8.924958109855651855e-01 -1.093672156333923340e+00
2.561000000000000000e+03 6.220140457153320312e+01 -2.820689201354980469e+00 7.789253592491149902e-01 1.646919369697570801e+00 7.277534008026123047e-01 -7.013153433799743652e-01
2.562000000000000000e+03 7.364285945892333984e+00 8.827410697937011719e+00 -1.885799225419759750e-03 -2.816359978169202805e-03 -1.410647761076688766e-03 -1.506012165918946266e-03
2.563000000000000000e+03 7.442266845703125000e+01 1.838746833801269531e+01 6.939573287963867188e-01 7.805136203765869141e+00 2.549728155136108398e+00 7.140837311744689941e-01
2.564000000000000000e+03 7.494422912597656250e+01 1.935114669799804688e+01 4.406695961952209473e-01 7.731883525848388672e+00 2.451766014099121094e+00 7.760092020034790039e-01
2.565000000000000000e+03 1.271140575408935547e+01 2.124211692810058594e+01 -1.118941754102706909e-01 3.905461356043815613e-02 -2.185186743736267090e-02 4.167849197983741760e-02
2.566000000000000000e+03 1.133920192718505859e+01 2.102133941650390625e+01 -8.622872084379196167e-02 3.245183452963829041e-02 -1.613306626677513123e-02 4.736249521374702454e-02
2.567000000000000000e+03 4.443220520019531250e+01 -9.800288200378417969e+00 -1.688035368919372559e+00 8.725924491882324219e+00 2.111366748809814453e+00 8.000295162200927734e-01
2.568000000000000000e+03 1.153303146362304688e+01 1.975619888305664062e+01 -8.367154002189636230e-02 2.498218789696693420e-02 -1.760680414736270905e-02 2.643952518701553345e-02
2.569000000000000000e+03 4.620862960815429688e+01 -1.313457202911376953e+01 1.223478436470031738e+00 1.067247772216796875e+01 3.568786859512329102e+00 2.079095602035522461e+00
2.570000000000000000e+03 1.028164100646972656e+01 2.904730796813964844e+01 -6.687170360237360001e-03 -1.052119862288236618e-02 -5.162511020898818970e-03 1.230223774909973145e-01
2.571000000000000000e+03 1.068409061431884766e+01 2.752391815185546875e+01 -3.734486177563667297e-02 4.895408637821674347e-03 -9.734835475683212280e-03 1.201969012618064880e-01
2.572000000000000000e+03 4.301913070678710938e+01 2.056539535522460938e+01 -6.878501921892166138e-02 5.118079662322998047e+00 1.514788389205932617e+00 -7.871677279472351074e-01
2.573000000000000000e+03 4.150350952148437500e+01 1.995352745056152344e+01 8.539683371782302856e-02 4.570473670959472656e+00 1.396761178970336914e+00 -1.089716315269470215e+00
2.574000000000000000e+03 4.528814315795898438e+01 -5.504724979400634766e+00 -2.282428741455078125e+00 8.919977188110351562e+00 1.991264581680297852e+00 1.270525574684143066e+00
2.575000000000000000e+03 4.459939575195312500e+01 1.628206443786621094e+01 4.808033704757690430e-01 7.186544418334960938e+00 2.300204277038574219e+00 -2.864742577075958252e-01
2.576000000000000000e+03 1.060945320129394531e+01 2.377866935729980469e+01 -7.137832045555114746e-02 2.475648187100887299e-02 -1.398655213415622711e-02 8.564453572034835815e-02
2.577000000000000000e+03 7.184881591796875000e+01 2.955184173583984375e+01 -5.113358497619628906e-01 6.712801933288574219e+00 1.860439896583557129e+00 -3.445020318031311035e-01
2.578000000000000000e+03 6.942845153808593750e+01 3.007764244079589844e+01 -3.898244798183441162e-01 5.622723102569580078e+00 1.569869637489318848e+00 -6.945042014122009277e-01
2.579000000000000000e+03 9.924015998840332031e+00 2.498961067199707031e+01 -5.466657131910324097e-02 9.563644416630268097e-03 -1.353087741881608963e-02 9.704898297786712646e-02
2.580000000000000000e+03 9.304452896118164062e+00 2.377330970764160156e+01 -5.571964010596275330e-02 3.116037463769316673e-03 -1.578108035027980804e-02 8.005858212709426880e-02
2.581000000000000000e+03 4.538948822021484375e+01 1.989536666870117188e+01 -1.094843912869691849e-02 6.122628211975097656e+00 1.833503961563110352e+00 -2.106045633554458618e-01
2.582000000000000000e+03 7.129838562011718750e+01 -3.311313629150390625e+01 -6.285832524299621582e-01 6.896034240722656250e+00 1.880235314369201660e+00 4.065699502825737000e-02
2.583000000000000000e+03 1.054373264312744141e+01 1.740294075012207031e+01 -5.026027560234069824e-02 1.100928150117397308e-02 -1.177529804408550262e-02 1.151955686509609222e-02
2.584000000000000000e+03 9.361886024475097656e+00 1.791182518005371094e+01 -4.515394195914268494e-02 7.146183401346206665e-03 -1.140232756733894348e-02 2.000401169061660767e-02
2.585000000000000000e+03 6.511023712158203125e+01 -1.446369647979736328e+00 1.762201935052871704e-01 3.461085081100463867e+00 1.091191530227661133e+00 -2.009133994579315186e-01
2.586000000000000000e+03 9.973059654235839844e+00 7.361886978149414062e+00 -1.838124444475397468e-04 -3.332247724756598473e-03 -1.054818043485283852e-03 -4.663627187255769968e-04
2.587000000000000000e+03 7.521123886108398438e+00 6.988686084747314453e+00 2.868982846848666668e-04 -2.509670564904808998e-03 -6.668316782452166080e-04 -1.980026485398411751e-03
2.588000000000000000e+03 1.021717929840087891e+01 5.867785930633544922e+00 1.548674888908863068e-03 -2.604642417281866074e-03 -3.167902468703687191e-04 2.102630678564310074e-04
2.589000000000000000e+03 9.374361038208007812e+00 7.881262779235839844e+00 3.421044384595006704e-04 -3.710556076839566231e-03 -1.010535517707467079e-03 -1.153484845417551696e-04
2.590000000000000000e+03 7.068533420562744141e+00 6.274153709411621094e+00 7.440769113600254059e-04 -1.570865628309547901e-03 -2.480366092640906572e-04 -1.380254165269434452e-03
2.591000000000000000e+03 1.008320331573486328e+01 -8.288446426391601562e+00 -8.715419471263885498e-02 -4.162387456744909286e-03 -2.739497460424900055e-02 -2.043501734733581543e-01
2.592000000000000000e+03 6.993694782257080078e+00 -1.063387012481689453e+01 -4.396687820553779602e-02 -7.116281241178512573e-02 -3.453890606760978699e-02 -2.040675878524780273e-01
2.593000000000000000e+03 1.196601009368896484e+01 -7.587492942810058594e+00 -1.105575934052467346e-01 1.761414296925067902e-02 -2.788303606212139130e-02 -2.088909447193145752e-01
2.594000000000000000e+03 4.498142623901367188e+01 -6.645154953002929688e+00 -2.675472974777221680e+00 8.782236099243164062e+00 1.832028985023498535e+00 1.341996669769287109e+00
2.595000000000000000e+03 4.140879440307617188e+01 -1.175037097930908203e+01 -3.084495365619659424e-01 6.492929935455322266e+00 1.855344176292419434e+00 5.365085601806640625e-01
2.596000000000000000e+03 1.017847537994384766e+01 -7.572862625122070312e+00 -1.063874736428260803e-01 2.188062993809580803e-03 -3.125982359051704407e-02 -2.004443109035491943e-01
2.597000000000000000e+03 4.618010711669921875e+01 -4.041213989257812500e+00 -1.437191605567932129e+00 9.188598632812500000e+00 2.325422048568725586e+00 7.749658823013305664e-01
2.598000000000000000e+03 6.130048751831054688e+00 -8.892563819885253906e+00 -4.894138127565383911e-02 -8.401548862457275391e-02 -3.988705947995185852e-02 -1.851500272750854492e-01
2.599000000000000000e+03 7.245053863525390625e+01 -6.020373821258544922e+00 -6.121038198471069336e-01 7.352826595306396484e+00 2.022216796875000000e+00 2.362010627985000610e-01
2.600000000000000000e+03 1.043640708923339844e+01 1.945006179809570312e+01 -6.434684991836547852e-02 1.898469217121601105e-02 -1.360864657908678055e-02 3.171653300523757935e-02
2.601000000000000000e+03 9.731728553771972656e+00 2.184131431579589844e+01 -6.436081230640411377e-02 1.632408984005451202e-02 -1.441101636737585068e-02 5.991853773593902588e-02
2.602000000000000000e+03 1.171395397186279297e+01 1.150731945037841797e+01 -7.307469379156827927e-03 -5.103521049022674561e-03 -3.723297035321593285e-03 -6.665984983555972576e-04
2.603000000000000000e+03 1.041707706451416016e+01 1.033884620666503906e+01 -3.993438091129064560e-03 -4.830063786357641220e-03 -2.647050656378269196e-03 9.739618690218776464e-05
2.604000000000000000e+03 4.580274200439453125e+01 -4.864570140838623047e+00 -1.935583114624023438e+00 9.011807441711425781e+00 2.122867345809936523e+00 1.135661721229553223e+00
2.605000000000000000e+03 4.355915069580078125e+01 -3.002758026123046875e+00 -7.453660368919372559e-01 9.607386589050292969e+00 2.658606290817260742e+00 2.444454908370971680e+00
2.606000000000000000e+03 8.804051399230957031e+00 1.158900451660156250e+01 -7.176808547228574753e-03 -5.147210787981748581e-03 -3.697205800563097000e-03 -4.774756962433457375e-04
2.607000000000000000e+03 9.500867843627929688e+00 1.223387908935546875e+01 -8.735258132219314575e-03 -4.677664488554000854e-03 -4.023876972496509552e-03 2.478091628290712833e-04
2.608000000000000000e+03 6.607777404785156250e+01 -5.124245166778564453e+00 -1.301005929708480835e-01 4.306797504425048828e+00 1.253009080886840820e+00 -8.901330232620239258e-01
2.609000000000000000e+03 6.564556884765625000e+01 -7.908013820648193359e+00 9.872266091406345367e-03 4.269665718078613281e+00 1.283861398696899414e+00 -1.548732876777648926e+00
2.610000000000000000e+03 1.135212516784667969e+01 8.544862747192382812e+00 -1.085400115698575974e-03 -4.169038031250238419e-03 -1.576331444084644318e-03 3.043824108317494392e-04
2.611000000000000000e+03 9.254786491394042969e+00 9.576814651489257812e+00 -3.031377913430333138e-03 -4.369467496871948242e-03 -2.220253692939877510e-03 -5.860205274075269699e-04
2.612000000000000000e+03 7.952599525451660156e+00 9.987442970275878906e+00 -3.780163126066327095e-03 -3.848714288324117661e-03 -2.288663294166326523e-03 -1.379501423798501492e-03
2.613000000000000000e+03 7.251347351074218750e+01 4.734042167663574219e+00 -5.709466934204101562e-01 7.327404975891113281e+00 2.026937484741210938e+00 -3.425930738449096680e-01
2.614000000000000000e+03 7.363313293457031250e+01 3.757040977478027344e+00 -5.121634602546691895e-01 7.382489681243896484e+00 2.061097860336303711e+00 -3.872570991516113281e-01
2.615000000000000000e+03 4.220674514770507812e+01 -1.033742427825927734e+01 -1.034691333770751953e+00 7.266960620880126953e+00 1.869680762290954590e+00 7.038449048995971680e-01
2.616000000000000000e+03 9.162514686584472656e+00 1.440450000762939453e+01 -1.867285370826721191e-02 -2.273187041282653809e-03 -6.283812224864959717e-03 4.338160157203674316e-03
2.617000000000000000e+03 6.492234039306640625e+01 -4.573288440704345703e+00 1.510316580533981323e-01 3.519624233245849609e+00 1.101196765899658203e+00 -8.762930035591125488e-01
2.618000000000000000e+03 7.411154747009277344e+00 2.153637123107910156e+01 -3.922875970602035522e-02 -4.268954973667860031e-03 -1.304931472986936569e-02 5.209640786051750183e-02
2.619000000000000000e+03 1.061539840698242188e+01 1.246324729919433594e+01 -1.239301171153783798e-02 -4.392050206661224365e-03 -5.035518668591976166e-03 -1.004109857603907585e-03
2.620000000000000000e+03 4.325484466552734375e+01 -9.959901809692382812e+00 -1.364691615104675293e+00 7.961200237274169922e+00 1.978952527046203613e+00 6.590910553932189941e-01
2.621000000000000000e+03 6.632044982910156250e+01 -8.925449371337890625e+00 -1.050758734345436096e-01 5.039316177368164062e+00 1.480272173881530762e+00 -1.686427950859069824e+00
2.622000000000000000e+03 6.859432220458984375e+01 -6.024159908294677734e+00 -5.203025341033935547e-01 6.185539722442626953e+00 1.699571132659912109e+00 -5.969604253768920898e-01
2.623000000000000000e+03 6.704092407226562500e+01 -6.052949428558349609e+00 -3.387202322483062744e-01 5.293541431427001953e+00 1.486446380615234375e+00 -9.426201581954956055e-01
2.624000000000000000e+03 1.123147392272949219e+01 7.313015937805175781e+00 -7.021360943326726556e-05 -3.267179243266582489e-03 -1.001217868179082870e-03 4.919109051115810871e-04
2.625000000000000000e+03 1.136158657073974609e+01 5.564085483551025391e+00 1.641448121517896652e-03 -2.361479215323925018e-03 -2.160093426937237382e-04 1.018402748741209507e-03
2.626000000000000000e+03 4.020309829711914062e+01 -1.072631740570068359e+01 -5.043170452117919922e-01 5.495976924896240234e+00 1.497498035430908203e+00 6.493204236030578613e-01
2.627000000000000000e+03 9.178092956542968750e+00 -6.776093006134033203e+00 -1.138631924986839294e-01 -8.068103343248367310e-03 -3.657938912510871887e-02 -1.872759163379669189e-01
2.628000000000000000e+03 6.721473693847656250e+01 -1.963790416717529297e+00 -2.383400201797485352e-01 4.805335044860839844e+00 1.370098471641540527e+00 -2.527286410331726074e-01
2.629000000000000000e+03 9.359801292419433594e+00 -1.001246643066406250e+01 -4.530071467161178589e-02 -1.092073693871498108e-02 -1.686643436551094055e-02 -2.005636543035507202e-01
2.630000000000000000e+03 6.937902069091796875e+01 -5.217236042022705078e+00 -5.874198079109191895e-01 6.310535430908203125e+00 1.716934680938720703e+00 -3.215799629688262939e-01
2.631000000000000000e+03 7.160602569580078125e+00 1.879026412963867188e+01 -3.057817555963993073e-02 -2.473631873726844788e-03 -9.915541857481002808e-03 2.874123491346836090e-02
2.632000000000000000e+03 1.097243785858154297e+01 2.238178825378417969e+01 -8.150222152471542358e-02 2.512480132281780243e-02 -1.691322587430477142e-02 6.711743772029876709e-02
2.633000000000000000e+03 1.035326099395751953e+01 3.043958091735839844e+01 5.157820880413055420e-03 -1.390225626528263092e-02 -2.623330801725387573e-03 1.207967475056648254e-01
2.634000000000000000e+03 1.138946437835693359e+01 2.590183830261230469e+01 -5.912068858742713928e-02 2.137247845530509949e-02 -1.132446248084306717e-02 1.111683100461959839e-01
2.635000000000000000e+03 9.744953155517578125e+00 1.643338966369628906e+01 -3.415221348404884338e-02 2.094076946377754211e-03 -9.617441333830356598e-03 7.987931370735168457e-03
2.636000000000000000e+03 8.404475212097167969e+00 1.585848331451416016e+01 -2.392782643437385559e-02 -1.619519433006644249e-03 -7.664203643798828125e-03 8.994349278509616852e-03
2.637000000000000000e+03 4.345708847045898438e+01 2.600193595886230469e+01 -6.758731603622436523e-01 4.302798271179199219e+00 1.088077545166015625e+00 -3.804172873497009277e-01
2.638000000000000000e+03 4.615178680419921875e+01 2.230810546875000000e+01 -3.883382678031921387e-01 5.629617691040039062e+00 1.572383880615234375e+00 -3.028984554111957550e-02
2.639000000000000000e+03 6.843035888671875000e+01 7.352015972137451172e-01 -4.550179243087768555e-01 5.414579391479492188e+00 1.487868428230285645e+00 7.902426272630691528e-02
2.640000000000000000e+03 7.248028564453125000e+01 2.427188682556152344e+01 -8.100032210350036621e-01 7.924995422363281250e+00 2.134497642517089844e+00 4.796182811260223389e-01
2.641000000000000000e+03 1.052317142486572266e+01 6.813086509704589844e+00 1.120860455557703972e-03 -3.253776347264647484e-03 -6.398747791536152363e-04 5.406324053183197975e-04
2.642000000000000000e+03 8.759490013122558594e+00 8.440883636474609375e+00 -1.314384513534605503e-03 -3.576612100005149841e-03 -1.467298949137330055e-03 -1.356416847556829453e-03
2.643000000000000000e+03 6.601897430419921875e+01 -2.683851957321166992e+00 -4.782480001449584961e-02 4.097245693206787109e+00 1.214826345443725586e+00 -4.482819736003875732e-01
2.644000000000000000e+03 7.288732147216796875e+01 2.622012853622436523e+00 -5.297380685806274414e-01 7.154012680053710938e+00 1.987282395362854004e+00 -2.255463898181915283e-01
2.645000000000000000e+03 7.372708320617675781e+00 2.016519927978515625e+01 -3.818514943122863770e-02 -3.014822024852037430e-03 -1.235999166965484619e-02 3.855317831039428711e-02
2.646000000000000000e+03 7.169515991210937500e+01 -5.014893531799316406e+00 -5.571619868278503418e-01 7.095627307891845703e+00 1.961539626121520996e+00 6.586741656064987183e-02
2.647000000000000000e+03 7.025501251220703125e+01 -4.548402309417724609e+00 -5.589552521705627441e-01 6.557504177093505859e+00 1.799564719200134277e+00 -1.618439108133316040e-01
2.648000000000000000e+03 1.251823139190673828e+01 2.832681465148925781e+01 -2.131879702210426331e-02 2.150270156562328339e-02 5.517172030522488058e-05 1.328579783439636230e-01
2.649000000000000000e+03 8.527855873107910156e+00 1.064294910430908203e+01 -4.514137282967567444e-03 -4.076621960848569870e-03 -2.577227773144841194e-03 -4.661094280891120434e-04
2.650000000000000000e+03 8.323361396789550781e+00 1.834493827819824219e+01 -3.945592790842056274e-02 3.402104135602712631e-03 -1.081614755094051361e-02 2.558401785790920258e-02
2.651000000000000000e+03 1.070721054077148438e+01 9.097326278686523438e+00 -1.059131813235580921e-03 -4.709458909928798676e-03 -1.730577321723103523e-03 6.789379986003041267e-04
2.652000000000000000e+03 8.056068420410156250e+00 7.744909286499023438e+00 1.058701673173345625e-04 -2.942873630672693253e-03 -8.511010673828423023e-04 -7.970837177708745003e-04
2.653000000000000000e+03 7.220409393310546875e+00 -9.475663185119628906e+00 -5.464248359203338623e-02 -5.877724662423133850e-02 -3.402591869235038757e-02 -2.001790553331375122e-01
2.654000000000000000e+03 8.429054260253906250e+00 -8.295702934265136719e+00 -7.575276494026184082e-02 -2.755919098854064941e-02 -3.099358640611171722e-02 -1.984459310770034790e-01
2.655000000000000000e+03 6.687900543212890625e+01 -4.046416282653808594e+00 -2.117160111665725708e-01 4.795980930328369141e+00 1.375279426574707031e+00 -6.346475481986999512e-01
2.656000000000000000e+03 1.133387374877929688e+01 9.916721343994140625e+00 -2.885324647650122643e-03 -5.143290851265192032e-03 -2.408584579825401306e-03 -4.036493191961199045e-04
2.657000000000000000e+03 1.008397579193115234e+01 2.065377807617187500e+01 -6.695517152547836304e-02 1.552928797900676727e-02 -1.542776636779308319e-02 4.469013586640357971e-02
2.658000000000000000e+03 8.648449897766113281e+00 2.149258804321289062e+01 -5.156711861491203308e-02 3.201352665200829506e-03 -1.450973004102706909e-02 5.323598533868789673e-02
2.659000000000000000e+03 1.005815792083740234e+01 8.450562477111816406e+00 -1.171930227428674698e-03 -4.052314441651105881e-03 -1.567273284308612347e-03 -5.458779050968587399e-04
2.660000000000000000e+03 1.209530067443847656e+01 2.430882263183593750e+01 -8.744388073682785034e-02 3.437076508998870850e-02 -1.592193357646465302e-02 9.609039127826690674e-02
2.661000000000000000e+03 6.937338256835937500e+01 -1.200256466865539551e+00 -5.155371427536010742e-01 5.949035167694091797e+00 1.630049347877502441e+00 -4.062335193157196045e-02
2.662000000000000000e+03 9.390691757202148438e+00 1.044507122039794922e+01 -3.768197027966380119e-03 -5.477340426295995712e-03 -2.773661166429519653e-03 -9.253533207811415195e-04
2.663000000000000000e+03 1.003692531585693359e+01 9.506727218627929688e+00 -2.228200668469071388e-03 -5.030726548284292221e-03 -2.177678048610687256e-03 -6.589072290807962418e-04
2.664000000000000000e+03 6.934277343750000000e+01 1.401517152786254883e+00 -5.323454737663269043e-01 5.883720397949218750e+00 1.605412483215332031e+00 1.411906629800796509e-01
2.665000000000000000e+03 7.074932861328125000e+01 5.778199434280395508e-01 -5.532704591751098633e-01 6.441167354583740234e+00 1.766368985176086426e+00 -1.728127710521221161e-02
2.666000000000000000e+03 7.160732269287109375e+01 2.331967353820800781e+01 -8.913633227348327637e-01 8.305915832519531250e+00 2.224365711212158203e+00 3.623764216899871826e-01
2.667000000000000000e+03 6.478556060791015625e+01 -8.065234184265136719e+00 2.423226684331893921e-01 3.503000020980834961e+00 1.123596787452697754e+00 -1.641738533973693848e+00
2.668000000000000000e+03 6.787089538574218750e+01 -6.937162399291992188e+00 -5.040832161903381348e-01 5.936377525329589844e+00 1.629688262939453125e+00 -8.343634605407714844e-01
2.669000000000000000e+03 4.669265365600585938e+01 2.724098587036132812e+01 -9.059488773345947266e-01 4.499628543853759766e+00 1.078103899955749512e+00 2.941235601902008057e-01
2.670000000000000000e+03 6.866815185546875000e+01 -4.313621044158935547e+00 -4.683965146541595459e-01 5.850971698760986328e+00 1.614772558212280273e+00 -4.200154244899749756e-01
2.671000000000000000e+03 6.779621887207031250e+01 -5.116661071777343750e+00 -4.350993931293487549e-01 5.486893653869628906e+00 1.515538215637207031e+00 -6.428737640380859375e-01
2.672000000000000000e+03 9.623973846435546875e+00 1.137868785858154297e+01 -7.598094642162322998e-03 -4.286159761250019073e-03 -3.565276274457573891e-03 -6.514076376333832741e-04
2.673000000000000000e+03 1.064812564849853516e+01 7.916367053985595703e+00 3.906129568349570036e-04 -4.037174396216869354e-03 -1.093968399800360203e-03 6.454556714743375778e-04
2.674000000000000000e+03 7.339160919189453125e+01 -4.995712757110595703e+00 -4.787679612636566162e-01 7.392437458038330078e+00 2.074100732803344727e+00 2.845480740070343018e-01
2.675000000000000000e+03 9.521787643432617188e+00 8.949432373046875000e+00 -4.999726079404354095e-04 -4.639731720089912415e-03 -1.541911275126039982e-03 -1.226802851306274533e-04
2.676000000000000000e+03 6.762280273437500000e+01 1.778890132904052734e+00 -4.044822454452514648e-01 5.053236484527587891e+00 1.394626259803771973e+00 3.159829974174499512e-01
2.677000000000000000e+03 6.906850433349609375e+01 -1.678682863712310791e-01 -4.758848845958709717e-01 5.784950733184814453e+00 1.592719674110412598e+00 1.413245312869548798e-02
2.678000000000000000e+03 1.552631568908691406e+01 2.463354873657226562e+01 -1.463443338871002197e-01 6.467900425195693970e-02 -2.449959889054298401e-02 1.150851249694824219e-01
2.679000000000000000e+03 6.962359619140625000e+01 -3.613120317459106445e+00 -5.525575280189514160e-01 6.148413658142089844e+00 1.678756833076477051e+00 -1.876347661018371582e-01
2.680000000000000000e+03 6.892567443847656250e+01 -2.643792390823364258e+00 -4.555283784866333008e-01 5.790693759918212891e+00 1.600549578666687012e+00 -2.019627392292022705e-01
2.681000000000000000e+03 7.066361999511718750e+01 -2.926054954528808594e+00 -5.549709796905517578e-01 6.526205539703369141e+00 1.791370391845703125e+00 -7.065328210592269897e-02
2.682000000000000000e+03 6.983249664306640625e+01 -2.079614877700805664e+00 -5.283548831939697266e-01 6.107099533081054688e+00 1.673623323440551758e+00 -7.346258312463760376e-02
2.683000000000000000e+03 7.184022521972656250e+01 4.887139201164245605e-01 -5.748970508575439453e-01 6.813045978546142578e+00 1.871444702148437500e+00 -2.057175338268280029e-02
2.684000000000000000e+03 7.176275634765625000e+01 1.665961623191833496e+00 -5.612250566482543945e-01 6.833726406097412109e+00 1.881750345230102539e+00 -9.741623699665069580e-02
2.685000000000000000e+03 7.144353485107421875e+01 -1.942291975021362305e+00 -5.664939284324645996e-01 6.698019981384277344e+00 1.839457869529724121e+00 1.678668893873691559e-02
2.686000000000000000e+03 7.177250671386718750e+01 -7.125213742256164551e-01 -5.213271975517272949e-01 6.772572517395019531e+00 1.875373482704162598e+00 -3.346914798021316528e-02
2.687000000000000000e+03 7.035334014892578125e+01 -1.309817314147949219e+00 -5.358104705810546875e-01 6.311846256256103516e+00 1.732810735702514648e+00 -6.816010922193527222e-02
2.688000000000000000e+03 7.419199371337890625e+01 -2.672487497329711914e+00 -4.146783053874969482e-01 7.385715961456298828e+00 2.091311216354370117e+00 1.620655804872512817e-01
2.689000000000000000e+03 1.527276325225830078e+01 2.756605529785156250e+01 -4.273335263133049011e-02 5.690922960638999939e-02 4.252762068063020706e-03 1.444691717624664307e-01
2.690000000000000000e+03 7.298991394042968750e+01 -9.740446209907531738e-01 -4.900607168674468994e-01 7.091411590576171875e+00 1.980405211448669434e+00 2.512235008180141449e-02
2.691000000000000000e+03 1.781227111816406250e+01 -3.410014724731445312e+01 7.083877176046371460e-02 2.569716274738311768e-01 9.834311902523040771e-02 -2.190563529729843140e-01
2.692000000000000000e+03 6.483808898925781250e+01 -3.345619201660156250e+01 -5.006126761436462402e-01 3.249850273132324219e+00 8.247713446617126465e-01 6.914260387420654297e-01
2.693000000000000000e+03 1.753617095947265625e+01 -3.006062126159667969e+01 7.689352333545684814e-02 3.074483275413513184e-01 1.153025552630424500e-01 -2.287563979625701904e-01
2.694000000000000000e+03 4.600409317016601562e+01 1.834167671203613281e+01 3.050853013992309570e-01 6.860474586486816406e+00 2.149667978286743164e+00 6.997465342283248901e-02
2.695000000000000000e+03 5.869853591918945312e+01 -3.285715866088867188e+01 -5.798324942588806152e-01 -1.111033633351325989e-01 -2.072807550430297852e-01 -1.369802802801132202e-01
2.696000000000000000e+03 3.201437759399414062e+01 -3.399206924438476562e+01 -8.933983743190765381e-03 2.349400997161865234e+00 7.021401524543762207e-01 1.114213585853576660e+00
2.697000000000000000e+03 7.539781188964843750e+01 3.379648208618164062e+01 -7.784605771303176880e-02 7.397560119628906250e+00 2.195914268493652344e+00 -1.275163143873214722e-01
2.698000000000000000e+03 7.540479278564453125e+01 3.204626083374023438e+01 -1.551621109247207642e-01 7.432999134063720703e+00 2.183351039886474609e+00 -8.385676890611648560e-02
2.699000000000000000e+03 2.682161808013916016e+00 -3.623941802978515625e+01 9.816227247938513756e-04 -6.619892716407775879e-01 -1.983022838830947876e-01 3.035053052008152008e-02
2.700000000000000000e+03 7.366281127929687500e+01 3.008642387390136719e+01 -4.098840057849884033e-01 7.092389106750488281e+00 2.004751443862915039e+00 -1.042593345046043396e-01
2.701000000000000000e+03 7.402717590332031250e+01 2.847254562377929688e+01 -4.510758519172668457e-01 7.399007320404052734e+00 2.084379434585571289e+00 5.174302682280540466e-02
2.702000000000000000e+03 7.572508239746093750e+01 3.751285552978515625e+01 -2.153495699167251587e-02 7.442884445190429688e+00 2.226404905319213867e+00 -4.314384981989860535e-02
2.703000000000000000e+03 2.953949928283691406e+01 2.508449554443359375e+01 2.985794330015778542e-03 6.154586076736450195e-01 1.855333298444747925e-01 -4.426885247230529785e-01
2.704000000000000000e+03 7.576326751708984375e+01 2.885852813720703125e+01 -2.921435236930847168e-01 7.646878719329833984e+00 2.206420660018920898e+00 1.790116876363754272e-01
2.705000000000000000e+03 6.967976379394531250e+01 -3.452455139160156250e+01 -4.687547981739044189e-01 5.837298870086669922e+00 1.610563278198242188e+00 2.145502567291259766e-01
2.706000000000000000e+03 7.830273628234863281e+00 -3.196899414062500000e+01 -1.289122924208641052e-02 -1.681671291589736938e-01 -5.431750789284706116e-02 -9.444626048207283020e-03
2.707000000000000000e+03 9.042986869812011719e+00 3.449979782104492188e+01 5.147218704223632812e-02 -4.904490709304809570e-02 7.281838916242122650e-04 9.260872751474380493e-02
2.708000000000000000e+03 3.049291229248046875e+01 2.644386482238769531e+01 4.228341951966285706e-02 9.411866068840026855e-01 2.950410246849060059e-01 -5.300490260124206543e-01
2.709000000000000000e+03 7.374465942382812500e+01 3.805308532714843750e+01 7.989104837179183960e-02 6.669084548950195312e+00 2.024692773818969727e+00 -1.396019458770751953e-01
2.710000000000000000e+03 4.340456008911132812e+01 2.304068374633789062e+01 -3.985037207603454590e-01 4.807720661163330078e+00 1.322764992713928223e+00 -6.198769807815551758e-01
2.711000000000000000e+03 2.842111968994140625e+01 2.761334228515625000e+01 7.120122015476226807e-02 6.488275527954101562e-01 2.160086184740066528e-01 -3.949995338916778564e-01
2.712000000000000000e+03 1.281774520874023438e+01 3.111988830566406250e+01 2.719328366219997406e-02 1.543517038226127625e-02 1.278853602707386017e-02 1.248781606554985046e-01
2.713000000000000000e+03 4.613467407226562500e+01 2.913684463500976562e+01 -8.395403027534484863e-01 4.085052013397216797e+00 9.736535549163818359e-01 2.893907129764556885e-01
2.714000000000000000e+03 4.871226119995117188e+01 2.787031745910644531e+01 -9.193291068077087402e-01 4.349831581115722656e+00 1.029150724411010742e+00 7.581093311309814453e-01
2.715000000000000000e+03 9.710206031799316406e+00 -3.537113571166992188e+01 -8.752272464334964752e-03 -8.616102486848831177e-02 -2.847398817539215088e-02 -3.847531601786613464e-02
2.716000000000000000e+03 1.262950229644775391e+01 -3.545175170898437500e+01 -2.840534318238496780e-03 8.542291820049285889e-02 2.477471530437469482e-02 -9.488497674465179443e-02
2.717000000000000000e+03 5.729908370971679688e+01 3.247253417968750000e+01 2.947680354118347168e-01 2.461537122726440430e+00 8.268916010856628418e-01 7.334966063499450684e-01
2.718000000000000000e+03 4.322085952758789062e+01 2.915259552001953125e+01 -7.252038717269897461e-01 3.840635299682617188e+00 9.346294403076171875e-01 -2.329115569591522217e-01
2.719000000000000000e+03 1.625898933410644531e+01 3.094310188293457031e+01 5.797954276204109192e-02 8.126141130924224854e-02 4.177228733897209167e-02 1.171197742223739624e-01
2.720000000000000000e+03 1.496730041503906250e+01 -3.476345062255859375e+01 1.853956840932369232e-02 1.849337816238403320e-01 6.104200705885887146e-02 -1.511874496936798096e-01
2.721000000000000000e+03 1.910887718200683594e+01 3.151394462585449219e+01 9.542980045080184937e-02 1.485251784324645996e-01 7.318649441003799438e-02 6.659753620624542236e-02
2.722000000000000000e+03 6.449091339111328125e+01 3.150741958618164062e+01 2.285482734441757202e-01 3.468895912170410156e+00 1.109233260154724121e+00 -5.834589004516601562e-01
2.723000000000000000e+03 4.041017532348632812e+01 2.873298072814941406e+01 -5.268042683601379395e-01 3.287362337112426758e+00 8.281673789024353027e-01 -5.202447175979614258e-01
2.724000000000000000e+03 7.342201232910156250e+01 -2.382487678527832031e+01 -4.631492309272289276e-03 8.610342979431152344e+00 2.581713438034057617e+00 -1.558093190193176270e+00
2.725000000000000000e+03 1.821510887145996094e+01 -3.243255615234375000e+01 1.865233667194843292e-02 2.751031219959259033e-01 8.812664449214935303e-02 -2.369460463523864746e-01
2.726000000000000000e+03 4.452409362792968750e+01 2.147174644470214844e+01 -2.230599522590637207e-01 5.465262413024902344e+00 1.572660803794860840e+00 -4.147008955478668213e-01
2.727000000000000000e+03 1.032743573188781738e+00 4.112403869628906250e+01 -6.138934753835201263e-03 -3.135268092155456543e-01 -9.589972347021102905e-02 2.990701177623122931e-04
2.728000000000000000e+03 4.261388397216796875e+01 3.999489545822143555e+00 3.947795927524566650e-01 6.253121852874755859e+00 1.994370341300964355e+00 -2.674745559692382812e+00
2.729000000000000000e+03 4.385106658935546875e+01 4.002658843994140625e+00 -1.277649521827697754e+00 1.652780723571777344e+01 4.575047492980957031e+00 -3.432603597640991211e+00
2.730000000000000000e+03 4.334569549560546875e+01 4.536488056182861328e-01 2.302650928497314453e+00 1.152774238586425781e+01 4.149117946624755859e+00 6.994782924652099609e+00
2.731000000000000000e+03 4.148893356323242188e+01 3.162746727466583252e-01 1.434299707412719727e+00 4.296952247619628906e+00 1.719375610351562500e+00 2.110598802566528320e+00
2.732000000000000000e+03 7.800848388671875000e+01 4.164472961425781250e+01 1.454439759254455566e-01 7.952730178833007812e+00 2.429452180862426758e+00 -4.095844551920890808e-02
2.733000000000000000e+03 4.164006423950195312e+01 7.743024826049804688e-01 -2.875801920890808105e-01 2.607875108718872070e+00 6.960884332656860352e-01 1.071397542953491211e+00
2.734000000000000000e+03 4.539272308349609375e+01 -6.923179626464843750e-01 4.350721240043640137e-01 1.382507896423339844e+01 4.278045177459716797e+00 7.637538760900497437e-02
2.735000000000000000e+03 4.634198760986328125e+01 2.697234630584716797e+00 4.996129989624023438e+00 1.375390052795410156e+01 5.625009059906005859e+00 8.779910802841186523e-01
2.736000000000000000e+03 2.753016853332519531e+01 -5.491071224212646484e+00 -1.470922231674194336e+00 8.494565635919570923e-02 -4.157929420471191406e-01 6.949463486671447754e-02
2.737000000000000000e+03 6.716613769531250000e+01 -1.205371665954589844e+01 6.244184970855712891e-01 7.939144611358642578e+00 2.569068908691406250e+00 -2.412483215332031250e+00
2.738000000000000000e+03 7.010610961914062500e+01 1.967558288574218750e+01 1.254715561866760254e+00 9.798790931701660156e+00 3.316051959991455078e+00 4.417030215263366699e-01
2.739000000000000000e+03 5.050194931030273438e+01 -4.599121809005737305e-01 5.199386119842529297e+00 2.909858226776123047e+00 2.432773351669311523e+00 -2.095754861831665039e+00
2.740000000000000000e+03 2.102344894409179688e+01 1.379595875740051270e+00 3.793186920120206196e-08 6.761234544683247805e-05 2.029508141276892275e-05 9.232998127117753029e-05
2.741000000000000000e+03 1.664334678649902344e+01 1.974331378936767578e+00 7.908911211416125298e-04 8.767415420152246952e-05 2.635695855133235455e-04 1.098791835829615593e-03
2.742000000000000000e+03 1.405093312263488770e+00 -3.272604227066040039e+00 -8.097301237285137177e-03 -3.085714392364025116e-02 -1.168633345514535904e-02 -2.196790464222431183e-02
2.743000000000000000e+03 1.458371448516845703e+01 2.557437419891357422e+00 1.490536844357848167e-03 -2.595586993265897036e-04 3.692934405989944935e-04 1.296511967666447163e-03
2.744000000000000000e+03 3.271029949188232422e+00 4.157160186767578125e+01 2.001005457714200020e-03 -2.573835849761962891e-01 -7.661477476358413696e-02 2.296227961778640747e-03
2.745000000000000000e+03 2.317421436309814453e+00 3.964025115966796875e+01 1.362873241305351257e-02 -2.669868171215057373e-01 -7.600742578506469727e-02 1.848507486283779144e-02
2.746000000000000000e+03 2.803499937057495117e+00 3.631072616577148438e+01 5.677113309502601624e-03 -2.132635563611984253e-01 -6.227593123912811279e-02 3.400008752942085266e-02
2.747000000000000000e+03 7.293664455413818359e+00 -3.532529449462890625e+01 -1.974060572683811188e-02 -2.662510573863983154e-01 -8.579750359058380127e-02 -9.189191274344921112e-03
2.748000000000000000e+03 7.704455566406250000e+01 3.584876632690429688e+01 -5.804722011089324951e-02 7.906427860260009766e+00 2.354514122009277344e+00 -1.026923209428787231e-01
2.749000000000000000e+03 7.816276550292968750e+01 3.721940231323242188e+01 -1.337061915546655655e-02 8.116517066955566406e+00 2.430943965911865234e+00 -8.939304202795028687e-02
2.750000000000000000e+03 7.819615936279296875e+01 3.610163497924804688e+01 1.649766787886619568e-02 8.157636642456054688e+00 2.452240228652954102e+00 -1.126375272870063782e-01
2.751000000000000000e+03 1.070071506500244141e+01 -1.829583740234375000e+01 6.694395840167999268e-02 4.258541464805603027e-01 1.478394269943237305e-01 -1.464302390813827515e-01
2.752000000000000000e+03 4.243691444396972656e+00 3.973333358764648438e+01 3.107450716197490692e-02 -1.989108771085739136e-01 -5.035091191530227661e-02 1.753113232553005219e-02
2.753000000000000000e+03 3.047533416748046875e+01 -7.444658756256103516e+00 -1.072640419006347656e+00 -4.575378000736236572e-01 -4.590534567832946777e-01 -2.993497848510742188e-01
2.754000000000000000e+03 3.573634338378906250e+01 -1.528203010559082031e+01 6.873790025711059570e-01 2.071795463562011719e+00 8.277522921562194824e-01 -2.314169555902481079e-01
2.755000000000000000e+03 4.358074188232421875e+01 3.971755027770996094e+00 -6.450356841087341309e-01 1.449475097656250000e+01 4.154914379119873047e+00 -3.578772068023681641e+00
2.756000000000000000e+03 4.386851882934570312e+01 4.343186378479003906e+00 -1.225652813911437988e+00 1.606731033325195312e+01 4.452497482299804688e+00 -2.925855875015258789e+00
2.757000000000000000e+03 2.527016401290893555e+00 3.605284929275512695e+00 3.284035774413496256e-04 8.720062323845922947e-04 3.601229400373995304e-04 -1.470567309297621250e-03
2.758000000000000000e+03 4.415661621093750000e+01 5.558967590332031250e+00 -7.340537309646606445e-01 1.406880474090576172e+01 4.000425338745117188e+00 -1.878317356109619141e+00
2.759000000000000000e+03 4.368509674072265625e+01 4.803443431854248047e+00 -1.203868508338928223e+00 1.379024505615234375e+01 3.775912761688232422e+00 -2.760034322738647461e+00
2.760000000000000000e+03 6.069212341308593750e+01 -3.279149627685546875e+01 -5.808269977569580078e-01 7.161677479743957520e-01 4.060223698616027832e-02 2.876983284950256348e-01
2.761000000000000000e+03 7.769230651855468750e+01 -3.702732086181640625e+01 -4.255690425634384155e-02 9.554950714111328125e+00 2.853718042373657227e+00 2.572449110448360443e-02
2.762000000000000000e+03 6.383284759521484375e+01 -9.943726539611816406e+00 3.988713920116424561e-01 2.004921197891235352e+00 7.211378216743469238e-01 -1.455766797065734863e+00
2.763000000000000000e+03 4.542480087280273438e+01 -2.183621406555175781e+00 -6.056519746780395508e-01 1.119389152526855469e+01 3.176471710205078125e+00 8.300682306289672852e-01
2.764000000000000000e+03 7.234408569335937500e+01 -1.355506229400634766e+01 9.308351278305053711e-01 8.881630897521972656e+00 2.943739652633666992e+00 5.451000332832336426e-01
2.765000000000000000e+03 1.955628585815429688e+01 -3.356919097900390625e+01 7.065771520137786865e-02 2.502490878105163574e-01 9.627203643321990967e-02 -2.368337661027908325e-01
2.766000000000000000e+03 7.167611694335937500e+01 2.083555412292480469e+01 4.448607265949249268e-01 8.579898834228515625e+00 2.707427740097045898e+00 8.858878612518310547e-01
2.767000000000000000e+03 5.321298599243164062e+01 -3.994677305221557617e+00 1.281252861022949219e+00 4.501614570617675781e-01 5.194243192672729492e-01 -1.076665639877319336e+00
2.768000000000000000e+03 1.770413398742675781e+01 2.724821805953979492e+00 5.044506397098302841e-04 4.995155031792819500e-04 3.011898370459675789e-04 8.532447391189634800e-04
2.769000000000000000e+03 4.529677200317382812e+01 5.957216262817382812e+00 -3.738716244697570801e-01 1.462698268890380859e+01 4.275933265686035156e+00 -2.509728074073791504e-01
2.770000000000000000e+03 4.635726928710937500e+01 -2.904061698913574219e+01 -5.176923871040344238e-01 5.077964782714843750e+00 1.368081688880920410e+00 -8.419395685195922852e-01
2.771000000000000000e+03 5.412443161010742188e+01 -3.422960519790649414e+00 1.996956706047058105e+00 3.169920146465301514e-01 6.941846013069152832e-01 -1.338652253150939941e+00
2.772000000000000000e+03 3.485209655761718750e+01 -3.224160385131835938e+01 -2.088713049888610840e-01 3.776888608932495117e+00 1.070405125617980957e+00 1.162941575050354004e+00
2.773000000000000000e+03 6.578266143798828125e+01 -2.770405197143554688e+01 -1.045687198638916016e+00 3.836418151855468750e+00 8.372192978858947754e-01 8.070243597030639648e-01
2.774000000000000000e+03 6.617119598388671875e+01 -2.883139419555664062e+01 -1.212894082069396973e+00 4.256460666656494141e+00 9.130699634552001953e-01 7.626104950904846191e-01
2.775000000000000000e+03 3.375297927856445312e+01 -8.718808174133300781e+00 -2.750014662742614746e-01 2.126980125904083252e-01 -1.869103312492370605e-02 3.245703130960464478e-02
2.776000000000000000e+03 6.939027404785156250e+01 2.695832252502441406e+01 -1.022643208503723145e+00 6.078306674957275391e+00 1.516699075698852539e+00 -7.493894100189208984e-01
2.777000000000000000e+03 6.579995727539062500e+01 2.859182548522949219e+01 -2.973422408103942871e-01 3.860817670822143555e+00 1.069042563438415527e+00 -9.789756536483764648e-01
2.778000000000000000e+03 6.006025695800781250e+01 3.096166419982910156e+01 4.108385741710662842e-01 2.215517044067382812e+00 7.879067063331604004e-01 3.398419618606567383e-01
2.779000000000000000e+03 5.799893188476562500e+01 3.037960815429687500e+01 2.730474174022674561e-01 2.067178010940551758e+00 7.020676136016845703e-01 7.753395438194274902e-01
2.780000000000000000e+03 7.353601074218750000e+01 -1.562451171875000000e+01 1.240724086761474609e+00 8.419906616210937500e+00 2.898189306259155273e+00 1.786279827356338501e-01
2.781000000000000000e+03 1.779706001281738281e+01 2.658674430847167969e+01 -8.278612047433853149e-02 5.498107522726058960e-02 -8.341513574123382568e-03 1.307819187641143799e-01
2.782000000000000000e+03 4.079976272583007812e+01 -1.705671501159667969e+01 1.055457830429077148e+00 6.487183094024658203e+00 2.262792348861694336e+00 6.869678497314453125e-01
2.783000000000000000e+03 6.256885528564453125e+01 -9.790026664733886719e+00 2.799694836139678955e-01 1.129314184188842773e+00 4.227850735187530518e-01 -9.586620330810546875e-01
2.784000000000000000e+03 3.946746444702148438e+01 -2.850405311584472656e+01 4.879078269004821777e-01 5.339108943939208984e+00 1.748105049133300781e+00 9.658989310264587402e-01
2.785000000000000000e+03 6.179589843750000000e+01 -9.232758522033691406e+00 2.128485590219497681e-01 9.251791238784790039e-01 3.414083123207092285e-01 -8.553158640861511230e-01
2.786000000000000000e+03 6.238265228271484375e+01 -8.606508255004882812e+00 3.263263106346130371e-01 1.404541611671447754e+00 5.192604064941406250e-01 -1.020688891410827637e+00
2.787000000000000000e+03 4.005351257324218750e+01 -2.100267601013183594e+01 1.169008255004882812e+00 6.095511913299560547e+00 2.179355859756469727e+00 1.295488953590393066e+00
2.788000000000000000e+03 4.067841339111328125e+01 -2.166242599487304688e+01 1.335727453231811523e+00 6.454407215118408203e+00 2.337040424346923828e+00 1.365182757377624512e+00
2.789000000000000000e+03 2.731427955627441406e+01 -1.024965286254882812e+01 9.356068819761276245e-02 -6.875433772802352905e-02 7.441903464496135712e-03 -3.451748490333557129e-01
2.790000000000000000e+03 4.019466018676757812e+01 2.708213806152343750e+01 -4.679798781871795654e-01 3.430988788604736328e+00 8.889026641845703125e-01 -6.866866946220397949e-01
2.791000000000000000e+03 6.459248352050781250e+01 -5.699598312377929688e+00 1.111913770437240601e-01 3.317084312438964844e+00 1.028482675552368164e+00 -1.083837032318115234e+00
2.792000000000000000e+03 7.215779113769531250e+01 1.716114997863769531e+01 1.234721899032592773e+00 9.228534698486328125e+00 3.138977050781250000e+00 3.614865243434906006e-01
2.793000000000000000e+03 6.294767761230468750e+01 3.262737655639648438e+01 4.463397562503814697e-01 2.938235044479370117e+00 1.015372395515441895e+00 -1.933998167514801025e-01
2.794000000000000000e+03 2.419399642944335938e+01 -6.143087863922119141e+00 -6.733098626136779785e-01 1.758913099765777588e-01 -1.492255628108978271e-01 -2.690613642334938049e-02
2.795000000000000000e+03 7.523981475830078125e+01 1.768029785156250000e+01 6.122549772262573242e-01 7.516403675079345703e+00 2.438597440719604492e+00 4.338657259941101074e-01
2.796000000000000000e+03 4.366511535644531250e+01 -1.196532917022705078e+01 -2.927281260490417480e-01 8.284325599670410156e+00 2.397479295730590820e+00 4.759481847286224365e-01
2.797000000000000000e+03 4.449174499511718750e+01 -1.178310203552246094e+01 -2.805686295032501221e-01 8.860953330993652344e+00 2.574115276336669922e+00 6.689883470535278320e-01
2.798000000000000000e+03 7.096848297119140625e+01 -9.488472938537597656e+00 -5.457157492637634277e-01 8.061923027038574219e+00 2.254862070083618164e+00 4.872745648026466370e-02
2.799000000000000000e+03 5.838689804077148438e+01 -3.793055772781372070e+00 1.192757964134216309e+00 1.287119239568710327e-01 3.964409530162811279e-01 -1.078225255012512207e+00
2.800000000000000000e+03 3.910856246948242188e+01 2.360657501220703125e+01 -1.449935138225555420e-01 3.283012151718139648e+00 9.414055943489074707e-01 -1.060142397880554199e+00
2.801000000000000000e+03 7.590011596679687500e+01 -2.037573051452636719e+01 5.002583265304565430e-01 7.541137695312500000e+00 2.412418842315673828e+00 -1.005200147628784180e+00
2.802000000000000000e+03 7.614514923095703125e+01 1.612961578369140625e+01 4.736109077930450439e-01 7.056578159332275391e+00 2.259056806564331055e+00 1.584429293870925903e-01
2.803000000000000000e+03 6.074188232421875000e+01 -7.744662761688232422e+00 6.558693945407867432e-02 8.386843204498291016e-01 2.712813913822174072e-01 -8.220646977424621582e-01
2.804000000000000000e+03 1.549615287780761719e+01 -4.958136081695556641e+00 -3.561633527278900146e-01 3.938443213701248169e-02 -9.503367543220520020e-02 -1.499188393354415894e-01
2.805000000000000000e+03 6.143127441406250000e+00 -3.895889520645141602e+00 -9.135193377733230591e-02 -1.823411509394645691e-02 -3.287581354379653931e-02 -1.008250266313552856e-01
2.806000000000000000e+03 7.034159851074218750e+01 2.885562896728515625e+01 -6.523218750953674316e-01 6.387961864471435547e+00 1.720692038536071777e+00 -4.722080528736114502e-01
2.807000000000000000e+03 7.399119567871093750e+01 1.752478027343750000e+01 9.123207926750183105e-01 7.975781440734863281e+00 2.666430711746215820e+00 3.990052044391632080e-01
2.808000000000000000e+03 3.811957550048828125e+01 2.579342079162597656e+01 -2.281788736581802368e-01 2.828688144683837891e+00 7.801527976989746094e-01 -9.214041829109191895e-01
2.809000000000000000e+03 7.293803405761718750e+01 1.703036308288574219e+01 1.290186882019042969e+00 8.306178092956542969e+00 2.878909587860107422e+00 2.248373627662658691e-01
2.810000000000000000e+03 2.219272422790527344e+01 -6.295156002044677734e+00 -4.833061099052429199e-01 1.337855458259582520e-01 -1.048561632633209229e-01 -5.001937970519065857e-02
2.811000000000000000e+03 5.791749954223632812e+01 -2.962036609649658203e+00 1.461386203765869141e+00 -7.421169430017471313e-02 4.161523580551147461e-01 -1.027862787246704102e+00
2.812000000000000000e+03 6.018231964111328125e+01 -3.609505176544189453e+00 1.059523820877075195e+00 6.813513040542602539e-01 5.222625136375427246e-01 -1.006809473037719727e+00
2.813000000000000000e+03 3.739039993286132812e+01 -1.050666141510009766e+01 1.986233703792095184e-02 2.942230463027954102e+00 8.886278271675109863e-01 4.889142811298370361e-01
2.814000000000000000e+03 6.103618240356445312e+01 -2.029834687709808350e-01 1.041905164718627930e+00 8.051450252532958984e-01 5.541150569915771484e-01 -1.345704793930053711e-01
2.815000000000000000e+03 6.221029663085937500e+01 -5.930073261260986328e-01 8.235970139503479004e-01 1.537313580513000488e+00 7.082731723785400391e-01 -1.930531561374664307e-01
2.816000000000000000e+03 7.520623779296875000e+01 -1.443363571166992188e+01 5.476616621017456055e-01 7.609514236450195312e+00 2.447152853012084961e+00 5.471068024635314941e-01
2.817000000000000000e+03 6.496573638916015625e+01 3.321885681152343750e+01 2.623730599880218506e-01 3.801580429077148438e+00 1.219186067581176758e+00 -4.433941841125488281e-01
2.818000000000000000e+03 7.463488006591796875e+01 1.681886672973632812e+01 8.290248513221740723e-01 7.647379875183105469e+00 2.542921304702758789e+00 3.866764008998870850e-01
2.819000000000000000e+03 7.491719818115234375e+01 8.135893821716308594e+00 -1.168389841914176941e-01 7.731976509094238281e+00 2.284541130065917969e+00 -8.168793320655822754e-01
2.820000000000000000e+03 1.019880485534667969e+01 -9.446371078491210938e+00 -5.712472647428512573e-02 -1.965173054486513138e-03 -1.772697083652019501e-02 -1.962593495845794678e-01
2.821000000000000000e+03 9.586167335510253906e+00 -8.806419372558593750e+00 -6.476749479770660400e-02 -1.071284525096416473e-02 -2.264410071074962616e-02 -2.039442360401153564e-01
2.822000000000000000e+03 6.373068237304687500e+01 -4.430239200592041016e+00 3.651383817195892334e-01 2.554359912872314453e+00 8.758495450019836426e-01 -9.001389145851135254e-01
2.823000000000000000e+03 7.043037891387939453e+00 -8.089301109313964844e+00 -6.624203175306320190e-02 -5.160180851817131042e-02 -3.535315394401550293e-02 -1.873883605003356934e-01
2.824000000000000000e+03 6.351615905761718750e+01 1.696415990591049194e-01 4.852017760276794434e-01 2.238615512847900391e+00 8.171452283859252930e-01 1.011700630187988281e-01
2.825000000000000000e+03 6.421986389160156250e+01 -2.204028606414794922e+00 3.474224209785461426e-01 2.910443544387817383e+00 9.773597717285156250e-01 -4.018179178237915039e-01
2.826000000000000000e+03 6.332558822631835938e+01 -2.603581190109252930e+00 5.079213380813598633e-01 2.405968427658081055e+00 8.741669058799743652e-01 -5.743355751037597656e-01
2.827000000000000000e+03 1.914226722717285156e+01 -6.615198612213134766e+00 -3.036303818225860596e-01 8.420418202877044678e-02 -6.582786142826080322e-02 -1.321475803852081299e-01
2.828000000000000000e+03 7.074662780761718750e+01 -6.498606681823730469e+00 -6.650356650352478027e-01 7.126877784729003906e+00 1.938552618026733398e+00 -7.521119713783264160e-02
2.829000000000000000e+03 7.752118110656738281e+00 -1.002981185913085938e+01 -4.704348370432853699e-02 -4.471126943826675415e-02 -2.752642706036567688e-02 -2.037119716405868530e-01
2.830000000000000000e+03 7.969834804534912109e+00 -9.331841468811035156e+00 -5.969955027103424072e-02 -3.634597733616828918e-02 -2.881365828216075897e-02 -2.024448215961456299e-01
2.831000000000000000e+03 8.205115318298339844e+00 6.628155708312988281e+00 8.072103955782949924e-04 -2.385783940553665161e-03 -4.735720285680145025e-04 -8.082678541541099548e-04
2.832000000000000000e+03 8.853718757629394531e+00 6.217556476593017578e+00 7.173262420110404491e-04 -2.578628482297062874e-03 -5.583906895481050014e-04 -1.025968464091420174e-03
2.833000000000000000e+03 6.326818466186523438e+01 -1.718206405639648438e+00 5.587687492370605469e-01 2.345080852508544922e+00 8.711548447608947754e-01 -3.708676695823669434e-01
2.834000000000000000e+03 9.277839660644531250e+00 -8.170786857604980469e+00 -8.991298079490661621e-02 -1.058179140090942383e-02 -3.014843165874481201e-02 -2.000404745340347290e-01
2.835000000000000000e+03 8.801140785217285156e+00 -9.170370101928710938e+00 -6.487700343132019043e-02 -2.158102206885814667e-02 -2.593740820884704590e-02 -2.014175355434417725e-01
2.836000000000000000e+03 7.276462554931640625e+01 -2.519396781921386719e+00 -4.950351715087890625e-01 7.080559730529785156e+00 1.975657343864440918e+00 8.012404292821884155e-02
2.837000000000000000e+03 9.361158370971679688e+00 6.816194534301757812e+00 9.265274857170879841e-04 -2.983982209116220474e-03 -6.172364228405058384e-04 -1.349894446320831776e-04
2.838000000000000000e+03 9.902629852294921875e+00 6.381824016571044922e+00 4.329247458372265100e-04 -2.682069083675742149e-03 -6.747432635165750980e-04 -3.626757243182510138e-04
2.839000000000000000e+03 7.065968322753906250e+01 -3.806532919406890869e-01 -5.463727712631225586e-01 6.393926143646240234e+00 1.754266023635864258e+00 -2.239961177110671997e-03
2.840000000000000000e+03 6.806932830810546875e+01 -2.995600104331970215e-01 -4.073309600353240967e-01 5.245957374572753906e+00 1.451588034629821777e+00 2.501015923917293549e-02
2.841000000000000000e+03 1.771456718444824219e+01 -1.730482935905456543e+00 -7.606416344642639160e-01 1.447653397917747498e-03 -2.277581989765167236e-01 7.427417486906051636e-02
2.842000000000000000e+03 1.610380172729492188e+01 -2.246368169784545898e+00 -5.751127004623413086e-01 -4.345404449850320816e-03 -1.738374382257461548e-01 3.380700945854187012e-04
2.843000000000000000e+03 1.839386558532714844e+01 -2.573463201522827148e+00 -7.082540392875671387e-01 -6.612276192754507065e-03 -2.144598960876464844e-01 -3.386465134099125862e-03
2.844000000000000000e+03 1.696483802795410156e+01 -1.623387813568115234e+00 -6.964319348335266113e-01 -1.604793965816497803e-02 -2.137439548969268799e-01 6.717912852764129639e-02
2.845000000000000000e+03 1.846432685852050781e+01 -1.836017131805419922e+00 -8.525083065032958984e-01 -2.878049388527870178e-02 -2.643866539001464844e-01 6.394668668508529663e-02
2.846000000000000000e+03 1.763043975830078125e+01 -2.465977191925048828e+00 -6.840439438819885254e-01 -9.343991056084632874e-03 -2.080163806676864624e-01 -1.317128189839422703e-03
2.847000000000000000e+03 1.621526145935058594e+01 -1.514777898788452148e+00 -6.407446265220642090e-01 -1.678633736446499825e-03 -1.927269846200942993e-01 6.737006455659866333e-02
2.848000000000000000e+03 1.686704444885253906e+01 -2.356930017471313477e+00 -6.291108727455139160e-01 1.218959875404834747e-02 -1.850763857364654541e-01 7.205131463706493378e-03
2.849000000000000000e+03 1.922108840942382812e+01 -1.901556968688964844e+00 -8.977069258689880371e-01 -6.948881316930055618e-03 -2.713967561721801758e-01 3.948469087481498718e-02
2.850000000000000000e+03 2.075429344177246094e+01 -2.688717842102050781e+00 -7.816029191017150879e-01 -1.689729280769824982e-02 -2.395500689744949341e-01 7.795727346092462540e-03
2.851000000000000000e+03 1.917129516601562500e+01 -2.640394687652587891e+00 -7.375444769859313965e-01 -2.946339733898639679e-02 -2.301023602485656738e-01 1.067237928509712219e-02
2.852000000000000000e+03 2.154723358154296875e+01 -2.711827993392944336e+00 -7.411096692085266113e-01 -8.102986961603164673e-03 -2.247638106346130371e-01 2.428995631635189056e-02
2.853000000000000000e+03 2.151402282714843750e+01 -1.970406651496887207e+00 -9.181844592094421387e-01 -3.284566476941108704e-02 -2.853090465068817139e-01 3.358764573931694031e-03
2.854000000000000000e+03 1.998429870605468750e+01 -1.925167441368103027e+00 -8.879657983779907227e-01 -1.160561945289373398e-02 -2.698714137077331543e-01 2.307539992034435272e-02
2.855000000000000000e+03 1.996217155456542969e+01 -2.664836645126342773e+00 -7.723236680030822754e-01 4.327033180743455887e-03 -2.303989976644515991e-01 1.924446970224380493e-02
2.856000000000000000e+03 2.074875450134277344e+01 -1.948217391967773438e+00 -8.928452134132385254e-01 1.056646648794412613e-02 -2.646836042404174805e-01 2.304025366902351379e-02
2.857000000000000000e+03 2.611742591857910156e+01 -1.812861442565917969e+00 -1.519907116889953613e-01 -7.121232151985168457e-02 -6.696090847253799438e-02 9.768063575029373169e-02
2.858000000000000000e+03 2.535475349426269531e+01 -1.400197505950927734e+00 -1.344174146652221680e-01 1.649116538465023041e-02 -3.537787497043609619e-02 4.680583253502845764e-02
2.859000000000000000e+03 2.464254951477050781e+01 -1.533933281898498535e+00 -3.083965182304382324e-01 5.024897865951061249e-03 -9.101148694753646851e-02 4.267427325248718262e-02
2.860000000000000000e+03 2.386987686157226562e+01 -1.667217731475830078e+00 -4.837140440940856934e-01 3.276391327381134033e-02 -1.352850347757339478e-01 4.229432903230190277e-03
2.861000000000000000e+03 2.308257675170898438e+01 -1.796454071998596191e+00 -6.454232931137084961e-01 6.048560026101768017e-04 -1.934455335140228271e-01 -2.736617252230644226e-02
2.862000000000000000e+03 2.229188537597656250e+01 -1.919883370399475098e+00 -8.304681777954101562e-01 -5.491615738719701767e-03 -2.507879436016082764e-01 -3.244209662079811096e-02
2.863000000000000000e+03 2.236002731323242188e+01 -2.659403562545776367e+00 -7.116759419441223145e-01 -5.650217179208993912e-03 -2.151978462934494019e-01 6.979421526193618774e-02
2.864000000000000000e+03 2.559163856506347656e+01 -2.120468139648437500e+00 -3.928430676460266113e-01 -2.742516435682773590e-02 -1.260804682970046997e-01 1.805337667465209961e-01
2.865000000000000000e+03 2.483724784851074219e+01 -2.259016275405883789e+00 -4.953875541687011719e-01 8.201485872268676758e-02 -1.240118071436882019e-01 1.416492015123367310e-01
2.866000000000000000e+03 2.402239036560058594e+01 -2.397113323211669922e+00 -5.812012553215026855e-01 6.012578308582305908e-02 -1.563226282596588135e-01 1.118999719619750977e-01
2.867000000000000000e+03 2.319290542602539062e+01 -2.531162023544311523e+00 -6.751248240470886230e-01 6.418026983737945557e-02 -1.832833588123321533e-01 8.782077580690383911e-02
2.868000000000000000e+03 2.371628379821777344e+01 -9.129138588905334473e-01 -1.969429649761877954e-05 -5.370990402298048139e-05 -2.202126051997765899e-05 -1.440112214368127752e-06
2.869000000000000000e+03 2.216311264038085938e+01 -4.021605253219604492e-01 1.565503953315783292e-05 5.845051055075600743e-05 2.223166484327521175e-05 -4.909103881800547242e-05
2.870000000000000000e+03 2.297673416137695312e+01 -1.029608249664306641e+00 -2.076434248010627925e-05 5.855298149981535971e-05 1.133659225160954520e-05 -2.106051215378101915e-05
2.871000000000000000e+03 2.288781547546386719e+01 -2.915260493755340576e-01 3.265157033638388384e-07 -7.777779683237895370e-05 -2.323538501514121890e-05 -5.690335456165485084e-06
2.872000000000000000e+03 2.359944915771484375e+01 -1.773885339498519897e-01 1.328008875134401023e-05 4.435912705957889557e-05 1.729176437947899103e-05 1.194746005239721853e-06
2.873000000000000000e+03 2.222411346435546875e+01 -1.142714738845825195e+00 -5.032296758145093918e-05 -6.843996379757300019e-05 -3.562888014130294323e-05 -3.291193934273906052e-06
2.874000000000000000e+03 2.425791740417480469e+01 -6.540381163358688354e-02 -3.962115079048089683e-05 -2.952066824946086854e-05 -2.074254734907299280e-05 -2.546172072470653802e-05
2.875000000000000000e+03 2.440266609191894531e+01 -7.983722686767578125e-01 1.296160280617186800e-05 3.288057996542192996e-05 1.375265492242760956e-05 -1.530287408968433738e-05
2.876000000000000000e+03 2.494900894165039062e+01 -5.251957774162292480e-01 -3.323666760479682125e-06 -1.366941978631075472e-05 -5.097925622976617888e-06 4.802590865438105538e-06
2.877000000000000000e+03 2.074404335021972656e+01 -1.171212673187255859e+00 -9.049438813235610723e-05 -5.785303801530972123e-05 -4.450422784429974854e-05 6.380119430104969069e-06
2.878000000000000000e+03 2.073850631713867188e+01 -4.307121932506561279e-01 3.394988016225397587e-05 9.078514267457649112e-05 3.742050830624066293e-05 -1.710127980913966894e-05
2.879000000000000000e+03 2.144596099853515625e+01 -4.485336542129516602e-01 -3.618323898990638554e-05 -4.898689439869485795e-05 -2.555104038037825376e-05 6.554661922564264387e-06
2.880000000000000000e+03 1.932354164123535156e+01 -3.847304880619049072e-01 1.159335442935116589e-04 1.056793626048602164e-04 6.648387352470308542e-05 7.692640792811289430e-05
2.881000000000000000e+03 2.000878715515136719e+01 -1.149096250534057617e+00 -6.518878944916650653e-05 6.982864579185843468e-05 1.391957084706518799e-06 8.888504453352652490e-06
2.882000000000000000e+03 1.927374839782714844e+01 -1.123568177223205566e+00 -4.610385440173558891e-05 -5.933845022809691727e-05 -3.163269138894975185e-05 2.640787533891852945e-05
2.883000000000000000e+03 2.147916603088378906e+01 -1.189865589141845703e+00 -5.516246528713963926e-05 7.154761988203972578e-05 4.915547378914197907e-06 -2.207311626989394426e-05
2.884000000000000000e+03 2.003091430664062500e+01 -4.094271957874298096e-01 5.305367267283145338e-06 -3.009351530636195093e-05 -7.436444320774171501e-06 5.082283314550295472e-05
2.885000000000000000e+03 1.706781387329101562e+01 -8.498843908309936523e-01 4.089685389772057533e-04 6.607134127989411354e-05 1.425119698978960514e-04 6.659311475232243538e-05
2.886000000000000000e+03 1.780313491821289062e+01 -9.543285965919494629e-01 1.805561623768880963e-04 -7.946409459691494703e-05 3.032762288057710975e-05 5.703340502805076540e-05
2.887000000000000000e+03 1.633273124694824219e+01 -7.435764670372009277e-01 6.622502114623785019e-04 -9.209859854308888316e-05 1.710454962449148297e-04 4.723910387838259339e-05
2.888000000000000000e+03 1.853857803344726562e+01 -1.058050036430358887e+00 5.336667891242541373e-05 7.536746852565556765e-05 3.862024459522217512e-05 4.953012467012740672e-05
2.889000000000000000e+03 1.860903930664062500e+01 -3.206039965152740479e-01 1.711120712570846081e-04 -2.759689414233434945e-05 4.305455149733461440e-05 1.541440724395215511e-04
2.890000000000000000e+03 1.644419097900390625e+01 -1.198618113994598389e-02 8.390529546886682510e-04 1.164977675216505304e-05 2.552108198869973421e-04 3.060697054024785757e-04
2.891000000000000000e+03 1.788726234436035156e+01 -2.188344895839691162e-01 3.732713521458208561e-04 7.769188960082828999e-05 1.352889812551438808e-04 2.051298215519636869e-04
2.892000000000000000e+03 1.716560745239257812e+01 -1.163421869277954102e-01 5.376684712246060371e-04 -7.363882468780502677e-05 1.392089034197852015e-04 2.887618902605026960e-04
2.893000000000000000e+03 1.425216674804687500e+01 3.718594610691070557e-01 1.860901946201920509e-03 -1.857703609857708216e-04 5.025394493713974953e-04 3.929269441869109869e-04
2.894000000000000000e+03 1.486107063293457031e+01 -4.904564023017883301e-01 1.432642457075417042e-03 -8.128979970933869481e-05 4.054057935718446970e-04 -3.073077823501080275e-05
2.895000000000000000e+03 1.338883495330810547e+01 -2.235203832387924194e-01 2.416356932371854782e-03 -5.494596189237199724e-05 7.084233220666646957e-04 -1.719220308586955070e-04
2.896000000000000000e+03 1.498471641540527344e+01 2.391885817050933838e-01 1.513964729383587837e-03 -7.209095929283648729e-05 4.325621412135660648e-04 3.490432864055037498e-04
2.897000000000000000e+03 1.559718132019042969e+01 -6.234676241874694824e-01 1.022060518153011799e-03 4.398755118018016219e-05 3.198144258931279182e-04 1.662429713178426027e-05
2.898000000000000000e+03 1.571725749969482422e+01 1.068236008286476135e-01 1.120969885960221291e-03 -1.421291963197290897e-04 2.936522068921476603e-04 3.810727794189006090e-04
2.899000000000000000e+03 1.351961708068847656e+01 5.048320889472961426e-01 2.322293352335691452e-03 -1.407045492669567466e-04 6.544766365550458431e-04 3.009634092450141907e-04
2.900000000000000000e+03 1.412495326995849609e+01 -3.571392297744750977e-01 1.925086718983948231e-03 3.249689325457438827e-05 5.872750771231949329e-04 -9.854954259935766459e-05
2.901000000000000000e+03 1.115447902679443359e+01 1.927391290664672852e-01 4.076738841831684113e-03 6.463778117904439569e-05 1.242412952706217766e-03 -4.560196830425411463e-04
2.902000000000000000e+03 1.124617767333984375e+01 9.282501339912414551e-01 3.499630140140652657e-03 -1.451726275263354182e-04 1.006337231956422329e-03 1.620871771592646837e-04
2.903000000000000000e+03 1.040858840942382812e+01 3.243718445301055908e-01 4.792092368006706238e-03 1.089207216864451766e-04 1.470303977839648724e-03 -4.232164064887911081e-04
2.904000000000000000e+03 1.190096187591552734e+01 5.598175525665283203e-02 3.500380320474505424e-03 -1.827479354687966406e-05 1.044631702825427055e-03 -3.521687467582523823e-04
2.905000000000000000e+03 1.277217197418212891e+01 6.438671946525573730e-01 2.688470995053648949e-03 -2.042601117864251137e-04 7.452632999047636986e-04 2.924494328908622265e-04
2.906000000000000000e+03 1.264777946472167969e+01 -8.565847575664520264e-02 2.970961853861808777e-03 3.948191078961826861e-05 9.031331283040344715e-04 -2.664909698069095612e-04
2.907000000000000000e+03 1.048394012451171875e+01 1.062875509262084961e+00 3.600739873945713043e-03 4.487422847887501121e-05 1.093684229999780655e-03 2.996093280671630055e-05
2.908000000000000000e+03 1.200900745391845703e+01 7.885000705718994141e-01 3.148854942992329597e-03 -1.620565308257937431e-04 8.960394770838320255e-04 1.632585044717416167e-04
2.909000000000000000e+03 9.734361648559570312e+00 1.127145886421203613e+00 3.611756255850195885e-03 4.912453732686117291e-05 1.098264241591095924e-03 -2.108981425408273935e-04
2.910000000000000000e+03 8.896935462951660156e+00 3.830009996891021729e-01 4.621844273060560226e-03 -4.876905950368382037e-05 1.371922553516924381e-03 -1.382801274303346872e-04
2.911000000000000000e+03 8.138064384460449219e+00 3.806286156177520752e-01 4.299019929021596909e-03 1.086927295546047390e-05 1.292966771870851517e-03 -1.863305951701477170e-04
2.912000000000000000e+03 7.379830837249755859e+00 3.796389997005462646e-01 3.863473189994692802e-03 -2.611906347738113254e-05 1.151206204667687416e-03 -1.921280636452138424e-04
2.913000000000000000e+03 5.863903999328613281e+00 3.757120370864868164e-01 2.836731262505054474e-03 4.321731466916389763e-05 8.639845764264464378e-04 -2.195380657212808728e-04
2.914000000000000000e+03 5.320739269256591797e+00 1.112017512321472168e+00 2.145381178706884384e-03 2.858466359612066299e-05 6.521897157654166222e-04 -6.798712420277297497e-04
2.915000000000000000e+03 4.347909450531005859e+00 3.707045614719390869e-01 1.677931053563952446e-03 1.335606648353859782e-04 5.434475024230778217e-04 -1.919151109177619219e-04
2.916000000000000000e+03 2.832280635833740234e+00 3.607113361358642578e-01 6.390874623320996761e-04 2.213559782830998302e-04 2.581330190878361464e-04 -1.011881977319717407e-04
2.917000000000000000e+03 2.076677560806274414e+00 3.580510318279266357e-01 2.504744916222989559e-04 -1.717707782518118620e-04 2.361111546633765101e-05 -2.370769507251679897e-04
2.918000000000000000e+03 2.381986141204833984e+00 1.098051071166992188e+00 5.082690622657537460e-04 2.989920030813664198e-04 2.421783283352851868e-04 -3.997944586444646120e-04
2.919000000000000000e+03 1.333416581153869629e+00 3.665323555469512939e-01 9.591106936568394303e-05 2.276206359965726733e-04 9.705950651550665498e-05 3.837079202639870346e-05
2.920000000000000000e+03 1.661404132843017578e+00 1.106532335281372070e+00 3.637592890299856663e-04 2.310940908500924706e-05 1.160606116172857583e-04 -3.762265550903975964e-04
2.921000000000000000e+03 6.549507379531860352e-01 3.948049247264862061e-01 -3.621972573455423117e-04 -2.818045904859900475e-04 -1.932005543494597077e-04 -3.276307543274015188e-04
2.922000000000000000e+03 3.114910125732421875e+00 1.100711345672607422e+00 9.427830809727311134e-04 -3.501916580717079341e-05 2.723291690926998854e-04 -7.356405258178710938e-04
2.923000000000000000e+03 3.589553356170654297e+00 3.676617443561553955e-01 1.090292353183031082e-03 -1.578974042786285281e-04 2.797184861265122890e-04 -3.398667904548346996e-04
2.924000000000000000e+03 5.106146812438964844e+00 3.720174431800842285e-01 2.249182201921939850e-03 -9.159249748336151242e-05 6.472768727689981461e-04 -3.292002365924417973e-04
2.925000000000000000e+03 6.055817127227783203e+00 1.115712046623229980e+00 2.584479749202728271e-03 -7.519302744185552001e-05 7.527859997935593128e-04 -8.179920841939747334e-04
2.926000000000000000e+03 6.621888637542724609e+00 3.785927593708038330e-01 3.386184806004166603e-03 -2.964595114463008940e-05 1.006961683742702007e-03 -2.702734782360494137e-04
2.927000000000000000e+03 8.261940002441406250e+00 1.120628595352172852e+00 3.550173481926321983e-03 -1.080336587619967759e-04 1.032641972415149212e-03 -4.270149802323430777e-04
2.928000000000000000e+03 8.998131752014160156e+00 1.123000979423522949e+00 3.819098463281989098e-03 -1.016223791339143645e-06 1.145424670539796352e-03 -4.287514311727136374e-04
2.929000000000000000e+03 9.655843734741210938e+00 3.871458470821380615e-01 5.035889800637960434e-03 1.552210451336577535e-04 1.557333278469741344e-03 -2.421979734208434820e-04
2.930000000000000000e+03 7.526385784149169922e+00 1.119639039039611816e+00 3.326372010633349419e-03 -8.155401883414015174e-05 9.734454215504229069e-04 -6.246301927603781223e-04
2.931000000000000000e+03 6.791122913360595703e+00 1.118592739105224609e+00 2.950059948489069939e-03 -6.820146518293768167e-05 8.645575726404786110e-04 -6.067615468055009842e-04
2.932000000000000000e+03 4.585180759429931641e+00 1.110704541206359863e+00 1.731756026856601238e-03 -6.259388464968651533e-05 5.007486324757337570e-04 -8.720219484530389309e-04
2.933000000000000000e+03 3.849503755569458008e+00 1.107661724090576172e+00 1.288964645937085152e-03 1.468140835640951991e-04 4.307336348574608564e-04 -6.189162377268075943e-04
2.934000000000000000e+03 1.005617380142211914e+00 1.134804964065551758e+00 3.882368619088083506e-04 1.312249514739960432e-04 1.558385556563735008e-04 -1.410511467838659883e-04
2.935000000000000000e+03 3.521488606929779053e-01 9.576021432876586914e-01 3.737598599400371313e-04 2.576763799879699945e-04 1.894308661576360464e-04 1.361461909255012870e-04
2.936000000000000000e+03 1.473077964782714844e+01 -1.259489893913269043e+00 -5.055424571037292480e-01 5.820935475639998913e-04 -1.514881104230880737e-01 6.059140712022781372e-02
2.937000000000000000e+03 1.399090099334716797e+01 -1.125491499900817871e+00 -4.458962678909301758e-01 -1.148567348718643188e-02 -1.372145861387252808e-01 4.983414337038993835e-02
2.938000000000000000e+03 1.312020874023437500e+01 -1.719582676887512207e+00 -3.766959011554718018e-01 6.000077351927757263e-03 -1.112087517976760864e-01 -1.061728224158287048e-02
2.939000000000000000e+03 1.535054302215576172e+01 -2.123512268066406250e+00 -5.237126350402832031e-01 1.252632588148117065e-02 -1.533558815717697144e-01 -1.984358765184879303e-03
2.940000000000000000e+03 1.547062015533447266e+01 -1.393221139907836914e+00 -5.768017768859863281e-01 -1.753629371523857117e-02 -1.783014237880706787e-01 6.343238055706024170e-02
2.941000000000000000e+03 1.460713481903076172e+01 -1.989134907722473145e+00 -4.770120680332183838e-01 3.459132742136716843e-03 -1.420658826828002930e-01 -6.217183079570531845e-03
2.942000000000000000e+03 1.325099086761474609e+01 -9.912301898002624512e-01 -3.897682726383209229e-01 1.927991281263530254e-03 -1.163520812988281250e-01 4.434877634048461914e-02
2.943000000000000000e+03 1.386368751525878906e+01 -1.854490160942077637e+00 -4.236754477024078369e-01 1.639018394052982330e-02 -1.221855729818344116e-01 -5.014065187424421310e-03
2.944000000000000000e+03 1.105858802795410156e+01 -5.865809917449951172e-01 -2.424772679805755615e-01 -4.894609563052654266e-03 -7.421156018972396851e-02 2.046887390315532684e-02
2.945000000000000000e+03 1.167972469329833984e+01 -1.452614903450012207e+00 -2.908877730369567871e-01 7.784722838550806046e-03 -8.493091166019439697e-02 -1.726179756224155426e-02
2.946000000000000000e+03 1.025387477874755859e+01 -1.193646550178527832e+00 -2.212003320455551147e-01 1.218913309276103973e-02 -6.270336359739303589e-02 -2.227425947785377502e-02
2.947000000000000000e+03 1.239226341247558594e+01 -1.585148334503173828e+00 -3.311087489128112793e-01 1.691403426229953766e-02 -9.425841271877288818e-02 -1.214612182229757309e-02
2.948000000000000000e+03 1.251665687561035156e+01 -8.556226491928100586e-01 -3.383486568927764893e-01 -8.617042563855648041e-03 -1.040897145867347717e-01 3.498696535825729370e-02
2.949000000000000000e+03 1.178777027130126953e+01 -7.200965881347656250e-01 -2.886426150798797607e-01 3.844950348138809204e-03 -8.543930202722549438e-02 2.955858968198299408e-02
2.950000000000000000e+03 1.096688938140869141e+01 -1.322091937065124512e+00 -2.509292662143707275e-01 1.869693771004676819e-02 -6.966970115900039673e-02 -1.990391500294208527e-02
2.951000000000000000e+03 1.032922649383544922e+01 -4.551429152488708496e-01 -1.951150596141815186e-01 9.566742926836013794e-03 -5.566449463367462158e-02 1.129312440752983093e-02
2.952000000000000000e+03 8.732760429382324219e+00 -1.120617032051086426e+00 -1.604471802711486816e-01 3.047971520572900772e-03 -4.721976444125175476e-02 -2.840278111398220062e-02
2.953000000000000000e+03 8.744119644165039062e+00 -3.806170821189880371e-01 -1.574828326702117920e-01 4.455214831978082657e-03 -4.590828716754913330e-02 -8.981415070593357086e-03
2.954000000000000000e+03 9.557686805725097656e+00 -3.860147297382354736e-01 -1.698471903800964355e-01 1.291098655201494694e-03 -5.056682974100112915e-02 -2.248276257887482643e-03
2.955000000000000000e+03 7.929113388061523438e+00 -3.783791959285736084e-01 -1.350067853927612305e-01 -2.730941865593194962e-03 -4.132131859660148621e-02 -1.066193729639053345e-02
2.956000000000000000e+03 6.294783592224121094e+00 -3.763209879398345947e-01 -8.362592011690139771e-02 -3.101871814578771591e-03 -2.601833827793598175e-02 -1.064719073474407196e-02
2.957000000000000000e+03 5.471644878387451172e+00 -3.752553761005401611e-01 -5.899359285831451416e-02 2.140183933079242706e-03 -1.705602370202541351e-02 -1.054019667208194733e-02
2.958000000000000000e+03 4.613348007202148438e+00 -3.803671598434448242e-01 -3.641792759299278259e-02 -2.647416898980736732e-03 -1.171960309147834778e-02 -8.976773358881473541e-03
2.959000000000000000e+03 3.732568025588989258e+00 -3.332802653312683105e-01 -1.903062500059604645e-02 1.781050523277372122e-04 -5.655755754560232162e-03 -6.387345027178525925e-03
2.960000000000000000e+03 3.565870285034179688e+00 -8.610453605651855469e-01 -2.571043185889720917e-02 -3.464923240244388580e-03 -8.752605877816677094e-03 -1.442492753267288208e-02
2.961000000000000000e+03 2.136041402816772461e+00 -7.255376577377319336e-01 -6.274427287280559540e-03 -2.396278781816363335e-03 -2.601211890578269958e-03 -3.484834451228380203e-03
2.962000000000000000e+03 1.105533838272094727e+00 -3.810451924800872803e-01 2.275824779644608498e-03 -1.986236078664660454e-03 8.687664376338943839e-05 4.171895852778106928e-04
2.963000000000000000e+03 3.938522040843963623e-01 -5.564679503440856934e-01 5.445418646559119225e-04 1.786424196325242519e-03 6.992897833697497845e-04 9.821759304031729698e-04
2.964000000000000000e+03 6.703363060951232910e-01 -1.121045231819152832e+00 -1.699007698334753513e-03 3.352309577167034149e-04 -4.091330338269472122e-04 6.831618375144898891e-04
2.965000000000000000e+03 9.509115219116210938e+00 -1.126014709472656250e+00 -1.892168521881103516e-01 1.577241159975528717e-02 -5.203333124518394470e-02 -2.167022973299026489e-02
2.966000000000000000e+03 7.954967498779296875e+00 -1.118379235267639160e+00 -1.378085166215896606e-01 4.464010242372751236e-03 -4.000335186719894409e-02 -3.301692381501197815e-02
2.967000000000000000e+03 7.175180912017822266e+00 -1.117205142974853516e+00 -1.153787598013877869e-01 -2.304522553458809853e-03 -3.530498594045639038e-02 -3.355342894792556763e-02
2.968000000000000000e+03 6.395063877105712891e+00 -1.116320967674255371e+00 -9.287537634372711182e-02 9.165683877654373646e-04 -2.758764289319515228e-02 -3.314722329378128052e-02
2.969000000000000000e+03 5.609138011932373047e+00 -1.115255355834960938e+00 -7.204597443342208862e-02 -4.397858399897813797e-03 -2.293314971029758453e-02 -2.981765940785408020e-02
2.970000000000000000e+03 4.788054466247558594e+00 -1.120367169380187988e+00 -5.194887518882751465e-02 -1.339229755103588104e-03 -1.598643139004707336e-02 -2.675903774797916412e-02
2.971000000000000000e+03 4.061712265014648438e+00 -1.217836499214172363e+00 -3.806418180465698242e-02 -7.548605557531118393e-03 -1.368383597582578659e-02 -2.312286943197250366e-02
2.972000000000000000e+03 3.415162801742553711e+00 -1.287765026092529297e+00 -2.733271569013595581e-02 -5.894058384001255035e-03 -9.968032129108905792e-03 -2.200184017419815063e-02
2.973000000000000000e+03 2.701009988784790039e+00 -1.257357716560363770e+00 -1.827356591820716858e-02 -7.831270806491374969e-03 -7.831450551748275757e-03 -1.453083753585815430e-02
2.974000000000000000e+03 1.974916696548461914e+00 -1.234486579895019531e+00 -7.838831283152103424e-03 -5.955293774604797363e-03 -4.138237331062555313e-03 -6.389051210135221481e-03
2.975000000000000000e+03 7.112113475799560547e+00 -3.772051930427551270e-01 -1.092744469642639160e-01 3.013043897226452827e-03 -3.187842294573783875e-02 -1.158788707107305527e-02
2.976000000000000000e+03 2.813032150268554688e+00 -7.646003365516662598e-01 -1.187445502728223801e-02 -2.496375702321529388e-03 -4.311249125748872757e-03 -8.315792307257652283e-03
2.977000000000000000e+03 2.897913694381713867e+00 -2.672426402568817139e-01 -4.017873201519250870e-03 -2.583387773483991623e-03 -1.980378292500972748e-03 -2.667001681402325630e-03
2.978000000000000000e+03 1.625427722930908203e+00 -5.587234497070312500e-01 9.120866161538287997e-05 -1.288908882997930050e-03 -3.593100409489125013e-04 9.770211763679981232e-04
2.979000000000000000e+03 1.293549656867980957e+00 -1.184639215469360352e+00 -2.847226802259683609e-03 -2.979312092065811157e-03 -1.747961738146841526e-03 -1.346220611594617367e-03
2.980000000000000000e+03 2.151047229766845703e+00 -2.510510981082916260e-01 3.626687685027718544e-03 1.854667789302766323e-03 1.644406700506806374e-03 -1.658393768593668938e-03
2.981000000000000000e+03 4.374455261230468750e+01 2.132836341857910156e+00 3.104485893249511719e+01 3.248358488082885742e+00 1.028796482086181641e+01 7.707775592803955078e+00
2.982000000000000000e+03 4.374594116210937500e+01 2.113438129425048828e+00 3.143753051757812500e+01 1.177838706970214844e+01 1.296477508544921875e+01 1.951444244384765625e+01
2.983000000000000000e+03 4.375107192993164062e+01 2.094679832458496094e+00 3.049916458129882812e+01 2.168106269836425781e+01 1.565406799316406250e+01 2.455294227600097656e+01
2.984000000000000000e+03 4.375975418090820312e+01 2.077278137207031250e+00 2.747509956359863281e+01 3.267817687988281250e+01 1.804598236083984375e+01 2.746644210815429688e+01
2.985000000000000000e+03 4.377165603637695312e+01 2.061897277832031250e+00 2.431190490722656250e+01 4.327293395996093750e+01 2.027545166015625000e+01 2.746827125549316406e+01
2.986000000000000000e+03 4.378632354736328125e+01 2.049124479293823242e+00 2.054507637023925781e+01 5.325061798095703125e+01 2.213870811462402344e+01 2.503670120239257812e+01
2.987000000000000000e+03 4.380319213867187500e+01 2.039447546005249023e+00 1.776158905029296875e+01 6.101593780517578125e+01 2.363325881958007812e+01 2.059080505371093750e+01
2.988000000000000000e+03 4.382162094116210938e+01 2.033236265182495117e+00 1.617258071899414062e+01 6.636653137207031250e+01 2.476173400878906250e+01 1.454247951507568359e+01
2.989000000000000000e+03 4.384090423583984375e+01 2.030727624893188477e+00 1.659762382507324219e+01 6.883390808105468750e+01 2.562946128845214844e+01 8.001184463500976562e+00
2.990000000000000000e+03 4.386030960083007812e+01 2.032017230987548828e+00 1.851442337036132812e+01 6.834705352783203125e+01 2.605844306945800781e+01 1.733890533447265625e+00
2.991000000000000000e+03 4.387909317016601562e+01 2.037056207656860352e+00 2.194698143005371094e+01 6.567061614990234375e+01 2.628528022766113281e+01 -3.154672622680664062e+00
2.992000000000000000e+03 4.389653778076171875e+01 2.045651912689208984e+00 2.687194824218750000e+01 6.152663803100585938e+01 2.651957511901855469e+01 -6.407340049743652344e+00
2.993000000000000000e+03 4.391197967529296875e+01 2.057476043701171875e+00 3.106943702697753906e+01 5.636206054687500000e+01 2.622944831848144531e+01 -7.858083724975585938e+00
2.994000000000000000e+03 4.392482757568359375e+01 2.072077274322509766e+00 3.571825790405273438e+01 5.193979263305664062e+01 2.629741668701171875e+01 -7.224321842193603516e+00
2.995000000000000000e+03 4.393458557128906250e+01 2.088897943496704102e+00 3.931120681762695312e+01 4.812960052490234375e+01 2.623224258422851562e+01 -5.156704902648925781e+00
2.996000000000000000e+03 4.394089126586914062e+01 2.107295989990234375e+00 4.156713485717773438e+01 4.504965591430664062e+01 2.598503875732421875e+01 -1.986965417861938477e+00
2.997000000000000000e+03 4.394349670410156250e+01 2.126568317413330078e+00 4.281925964355468750e+01 4.460406875610351562e+01 2.622699928283691406e+01 1.709020614624023438e+00
2.998000000000000000e+03 4.394230270385742188e+01 2.145979404449462891e+00 4.218427276611328125e+01 4.485121154785156250e+01 2.611064529418945312e+01 5.898234367370605469e+00
2.999000000000000000e+03 4.393735885620117188e+01 2.164788007736206055e+00 4.038257217407226562e+01 4.736379623413085938e+01 2.632390975952148438e+01 9.424012184143066406e+00
3.000000000000000000e+03 4.392884826660156250e+01 2.182275772094726562e+00 3.686879348754882812e+01 5.111635208129882812e+01 2.639554405212402344e+01 1.221386051177978516e+01
3.001000000000000000e+03 4.391710281372070312e+01 2.197775125503540039e+00 3.215618515014648438e+01 5.598263931274414062e+01 2.644164657592773438e+01 1.353387737274169922e+01
3.002000000000000000e+03 4.390256500244140625e+01 2.210693836212158203e+00 2.685643959045410156e+01 6.131259536743164062e+01 2.645071029663085938e+01 1.291820621490478516e+01
3.003000000000000000e+03 4.388579177856445312e+01 2.220538854598999023e+00 2.116337585449218750e+01 6.609343719482421875e+01 2.617704391479492188e+01 1.024705886840820312e+01
3.004000000000000000e+03 4.386742782592773438e+01 2.226934194564819336e+00 1.631386756896972656e+01 6.955405426025390625e+01 2.576037597656250000e+01 5.554648399353027344e+00
3.005000000000000000e+03 4.384816741943359375e+01 2.229635477066040039e+00 1.268411636352539062e+01 7.067683410644531250e+01 2.500828552246093750e+01 -5.776917338371276855e-01
3.006000000000000000e+03 4.382875061035156250e+01 2.228539943695068359e+00 1.078159332275390625e+01 6.893550872802734375e+01 2.391513061523437500e+01 -7.544726371765136719e+00
3.007000000000000000e+03 4.380991744995117188e+01 2.223689079284667969e+00 1.079919147491455078e+01 6.424864196777343750e+01 2.251435089111328125e+01 -1.409062004089355469e+01
3.008000000000000000e+03 4.379238891601562500e+01 2.215268373489379883e+00 1.254343509674072266e+01 5.655684661865234375e+01 2.073008346557617188e+01 -1.966396522521972656e+01
3.009000000000000000e+03 4.377683258056640625e+01 2.203598976135253906e+00 1.506360435485839844e+01 4.682139587402343750e+01 1.856550025939941406e+01 -2.319946479797363281e+01
3.010000000000000000e+03 4.376383972167968750e+01 2.189126968383789062e+00 1.891866302490234375e+01 3.542069244384765625e+01 1.630180740356445312e+01 -2.418200683593750000e+01
3.011000000000000000e+03 4.375391006469726562e+01 2.172404766082763672e+00 2.192134475708007812e+01 2.330610656738281250e+01 1.356823539733886719e+01 -2.249331283569335938e+01
3.012000000000000000e+03 4.374742507934570312e+01 2.154070854187011719e+00 2.719563865661621094e+01 9.501608848571777344e+00 1.100917434692382812e+01 -1.429676151275634766e+01
