# el_label, x, y, sXX, sYY, sZZ, sXY
1.000000000000000000e+00 9.702937126159667969e+00 -2.983934059739112854e-02 4.528568744659423828e+00 -2.349616050720214844e+00 6.536857485771179199e-01 -1.746009707450866699e+00
2.000000000000000000e+00 9.504896163940429688e+00 -4.973223432898521423e-02 6.143405437469482422e+00 1.027807235717773438e+00 2.151363849639892578e+00 1.185259222984313965e+00
3.000000000000000000e+00 9.306854248046875000e+00 -6.962513178586959839e-02 3.964809894561767578e+00 -3.989553451538085938e-01 1.069756388664245605e+00 3.240078091621398926e-01
4.000000000000000000e+00 9.108813285827636719e+00 -8.951802551746368408e-02 3.069771528244018555e+00 2.422669827938079834e-01 9.936115145683288574e-01 4.642200171947479248e-01
5.000000000000000000e+00 9.714455604553222656e+00 -8.718428760766983032e-02 1.723273086547851562e+01 -1.966210842132568359e+00 4.579956054687500000e+00 3.131393671035766602e+00
6.000000000000000000e+00 9.524093627929687500e+00 -1.453071534633636475e-01 9.088294982910156250e+00 6.614747643470764160e-01 2.924930810928344727e+00 2.214002847671508789e+00
7.000000000000000000e+00 9.333730697631835938e+00 -2.034300118684768677e-01 8.026528358459472656e+00 9.788299798965454102e-01 2.701607465744018555e+00 2.678972005844116211e+00
8.000000000000000000e+00 9.143367767333984375e+00 -2.615528702735900879e-01 6.228950977325439453e+00 2.705705761909484863e-01 1.949856400489807129e+00 1.914965271949768066e+00
9.000000000000000000e+00 9.736933708190917969e+00 -1.411830335855484009e-01 2.078717422485351562e+01 2.929771661758422852e+00 7.115084171295166016e+00 9.863055229187011719e+00
1.000000000000000000e+01 9.561555862426757812e+00 -2.353050708770751953e-01 1.368661308288574219e+01 2.007778644561767578e+00 4.708317756652832031e+00 5.897102355957031250e+00
1.100000000000000000e+01 9.386178970336914062e+00 -3.294270932674407959e-01 1.001300144195556641e+01 2.320478677749633789e+00 3.700043916702270508e+00 4.794740200042724609e+00
1.200000000000000000e+01 9.210802078247070312e+00 -4.235491156578063965e-01 8.656796455383300781e+00 2.075999259948730469e+00 3.219838619232177734e+00 4.485194683074951172e+00
1.300000000000000000e+01 9.769508361816406250e+00 -1.897630989551544189e-01 2.123024368286132812e+01 9.582273483276367188e+00 9.243755340576171875e+00 1.475745677947998047e+01
1.400000000000000000e+01 9.615847587585449219e+00 -3.162718117237091064e-01 1.451887798309326172e+01 6.122199058532714844e+00 6.192322731018066406e+00 9.693235397338867188e+00
1.500000000000000000e+01 9.462185859680175781e+00 -4.427805542945861816e-01 1.161227035522460938e+01 5.005549907684326172e+00 4.985345840454101562e+00 7.778858661651611328e+00
1.600000000000000000e+01 9.308525085449218750e+00 -5.692892670631408691e-01 9.480306625366210938e+00 4.453019142150878906e+00 4.179997920989990234e+00 6.657209873199462891e+00
1.700000000000000000e+01 9.810929298400878906e+00 -2.310599088668823242e-01 1.873352241516113281e+01 1.761713027954101562e+01 1.090519618988037109e+01 1.746857833862304688e+01
1.800000000000000000e+01 9.684882164001464844e+00 -3.850998580455780029e-01 1.395658969879150391e+01 1.148466110229492188e+01 7.632375240325927734e+00 1.236559009552001953e+01
1.900000000000000000e+01 9.558835029602050781e+00 -5.391398072242736816e-01 1.106744861602783203e+01 9.194194793701171875e+00 6.078493118286132812e+00 9.942987442016601562e+00
2.000000000000000000e+01 9.432787895202636719e+00 -6.931797266006469727e-01 9.366580963134765625e+00 7.906668663024902344e+00 5.181974887847900391e+00 8.700195312500000000e+00
2.100000000000000000e+01 9.859606742858886719e+00 -2.634885013103485107e-01 1.563884735107421875e+01 2.556017684936523438e+01 1.235970687866210938e+01 1.768581962585449219e+01
2.200000000000000000e+01 9.766011238098144531e+00 -4.391474723815917969e-01 1.194331455230712891e+01 1.746535301208496094e+01 8.822600364685058594e+00 1.323454189300537109e+01
2.300000000000000000e+01 9.672415733337402344e+00 -6.148064732551574707e-01 9.779718399047851562e+00 1.406826305389404297e+01 7.154394626617431641e+00 1.106135749816894531e+01
2.400000000000000000e+01 9.578820228576660156e+00 -7.904654741287231445e-01 8.122534751892089844e+00 1.208629989624023438e+01 6.062650680541992188e+00 9.566358566284179688e+00
2.500000000000000000e+01 9.913672447204589844e+00 -2.858042120933532715e-01 1.257325363159179688e+01 3.249100112915039062e+01 1.351927566528320312e+01 1.554956340789794922e+01
2.600000000000000000e+01 9.856121063232421875e+00 -4.763403236865997314e-01 9.958972930908203125e+00 2.312996673583984375e+01 9.926682472229003906e+00 1.246133422851562500e+01
2.700000000000000000e+01 9.798569679260253906e+00 -6.668764352798461914e-01 7.964445590972900391e+00 1.883287048339843750e+01 8.039195060729980469e+00 1.059898090362548828e+01
2.800000000000000000e+01 9.741018295288085938e+00 -8.574125766754150391e-01 6.734819889068603516e+00 1.642196655273437500e+01 6.947035789489746094e+00 9.443294525146484375e+00
2.900000000000000000e+01 9.971052169799804688e+00 -2.971505522727966309e-01 1.090442752838134766e+01 3.762075805664062500e+01 1.455755615234375000e+01 1.184064483642578125e+01
3.000000000000000000e+01 9.951753616333007812e+00 -4.952509105205535889e-01 8.310470581054687500e+00 2.771239852905273438e+01 1.080686092376708984e+01 1.018027591705322266e+01
3.100000000000000000e+01 9.932455062866210938e+00 -6.933512687683105469e-01 6.659659862518310547e+00 2.298499488830566406e+01 8.893396377563476562e+00 8.937502861022949219e+00
3.200000000000000000e+01 9.913155555725097656e+00 -8.914516568183898926e-01 5.485810756683349609e+00 1.992674446105957031e+01 7.623766422271728516e+00 8.008066177368164062e+00
3.300000000000000000e+01 1.002954196929931641e+01 -2.970920503139495850e-01 1.073890495300292969e+01 4.048078918457031250e+01 1.536590862274169922e+01 7.351687908172607422e+00
3.400000000000000000e+01 1.004923725128173828e+01 -4.951534271240234375e-01 7.825067996978759766e+00 3.086940193176269531e+01 1.160834121704101562e+01 7.054803371429443359e+00
3.500000000000000000e+01 1.006893157958984375e+01 -6.932148337364196777e-01 6.078833103179931641e+00 2.582083511352539062e+01 9.569900512695312500e+00 6.340664863586425781e+00
3.600000000000000000e+01 1.008862686157226562e+01 -8.912761807441711426e-01 4.937145709991455078e+00 2.266346549987792969e+01 8.280182838439941406e+00 5.750107288360595703e+00
3.700000000000000000e+01 1.008689880371093750e+01 -2.856309711933135986e-01 1.226197242736816406e+01 4.123215103149414062e+01 1.604823684692382812e+01 3.106547832489013672e+00
3.800000000000000000e+01 1.014483070373535156e+01 -4.760516285896301270e-01 8.535588264465332031e+00 3.229794692993164062e+01 1.225006008148193359e+01 3.642397880554199219e+00
3.900000000000000000e+01 1.020276355743408203e+01 -6.664722561836242676e-01 6.580424308776855469e+00 2.732006645202636719e+01 1.017014789581298828e+01 3.427336692810058594e+00
4.000000000000000000e+01 1.026069545745849609e+01 -8.568928837776184082e-01 5.318302631378173828e+00 2.406964492797851562e+01 8.816384315490722656e+00 3.216559648513793945e+00
4.100000000000000000e+01 1.014091968536376953e+01 -2.632071673870086670e-01 1.506710338592529297e+01 4.025902557373046875e+01 1.659783935546875000e+01 -2.408083826303482056e-01
4.200000000000000000e+01 1.023486614227294922e+01 -4.386786222457885742e-01 1.036625289916992188e+01 3.217883682250976562e+01 1.276352691650390625e+01 6.235169768333435059e-01
4.300000000000000000e+01 1.032881259918212891e+01 -6.141500473022460938e-01 8.132665634155273438e+00 2.743137168884277344e+01 1.066921138763427734e+01 7.937243580818176270e-01
4.400000000000000000e+01 1.042275905609130859e+01 -7.896215319633483887e-01 6.637118816375732422e+00 2.424307250976562500e+01 9.264057159423828125e+00 7.975775003433227539e-01
4.500000000000000000e+01 1.018953227996826172e+01 -2.306813150644302368e-01 1.839274787902832031e+01 3.817268753051757812e+01 1.696963119506835938e+01 -2.274442672729492188e+00
4.600000000000000000e+01 1.031588745117187500e+01 -3.844688534736633301e-01 1.311723136901855469e+01 3.089896392822265625e+01 1.320485877990722656e+01 -1.467890143394470215e+00
4.700000000000000000e+01 1.044224262237548828e+01 -5.382564067840576172e-01 1.036813831329345703e+01 2.639570999145507812e+01 1.102915477752685547e+01 -1.140950679779052734e+00
4.800000000000000000e+01 1.056859779357910156e+01 -6.920439004898071289e-01 8.697439193725585938e+00 2.347372436523437500e+01 9.651349067687988281e+00 -9.288731813430786133e-01
4.900000000000000000e+01 1.023087024688720703e+01 -1.893017292022705078e-01 2.188407707214355469e+01 3.578808212280273438e+01 1.730164718627929688e+01 -2.831021547317504883e+00
5.000000000000000000e+01 1.038478469848632812e+01 -3.155028820037841797e-01 1.602626609802246094e+01 2.883987426757812500e+01 1.345984268188476562e+01 -2.422571659088134766e+00
5.100000000000000000e+01 1.053869819641113281e+01 -4.417040348052978516e-01 1.306922721862792969e+01 2.480660629272460938e+01 1.136275005340576172e+01 -1.972601056098937988e+00
5.200000000000000000e+01 1.069261169433593750e+01 -5.679051876068115234e-01 1.098062229156494141e+01 2.195109367370605469e+01 9.879514694213867188e+00 -1.776557207107543945e+00
5.300000000000000000e+01 1.026334762573242188e+01 -1.406566202640533447e-01 2.468068122863769531e+01 3.339893341064453125e+01 1.742388343811035156e+01 -2.193991184234619141e+00
5.400000000000000000e+01 1.043891334533691406e+01 -2.344277054071426392e-01 1.881874465942382812e+01 2.684860038757324219e+01 1.370020389556884766e+01 -2.048201322555541992e+00
5.500000000000000000e+01 1.061447906494140625e+01 -3.281987905502319336e-01 1.544678306579589844e+01 2.290654373168945312e+01 1.150599765777587891e+01 -1.777030229568481445e+00
5.600000000000000000e+01 1.079004383087158203e+01 -4.219698905944824219e-01 1.328614234924316406e+01 2.048035049438476562e+01 1.012994766235351562e+01 -1.553822278976440430e+00
5.700000000000000000e+01 1.028571796417236328e+01 -8.661302924156188965e-02 2.669133567810058594e+01 3.177672195434570312e+01 1.754041671752929688e+01 -5.286347866058349609e-01
5.800000000000000000e+01 1.047619628906250000e+01 -1.443550437688827515e-01 2.069941711425781250e+01 2.510623931884765625e+01 1.374169635772705078e+01 -6.781046986579895020e-01
5.900000000000000000e+01 1.066667461395263672e+01 -2.020970582962036133e-01 1.725275993347167969e+01 2.154000091552734375e+01 1.163782882690429688e+01 -5.736784934997558594e-01
6.000000000000000000e+01 1.085715293884277344e+01 -2.598390877246856689e-01 1.486872577667236328e+01 1.911922264099121094e+01 1.019638442993164062e+01 -4.923083186149597168e-01
6.100000000000000000e+01 1.029712104797363281e+01 -2.924515865743160248e-02 2.742235183715820312e+01 3.079284286499023438e+01 1.746455764770507812e+01 1.685972929000854492e+00
6.200000000000000000e+01 1.049520206451416016e+01 -4.874193295836448669e-02 2.151282882690429688e+01 2.437222480773925781e+01 1.376551628112792969e+01 1.420460581779479980e+00
6.300000000000000000e+01 1.069328308105468750e+01 -6.823870539665222168e-02 1.788903999328613281e+01 2.075386047363281250e+01 1.159287071228027344e+01 1.187751770019531250e+00
6.400000000000000000e+01 1.089136409759521484e+01 -8.773547410964965820e-02 1.558472633361816406e+01 1.845149421691894531e+01 1.021086597442626953e+01 1.155005574226379395e+00
6.500000000000000000e+01 1.029712104797363281e+01 2.924515865743160248e-02 2.690991973876953125e+01 3.094894218444824219e+01 1.735765838623046875e+01 4.122671604156494141e+00
6.600000000000000000e+01 1.049520206451416016e+01 4.874193295836448669e-02 2.090683555603027344e+01 2.449542808532714844e+01 1.362067890167236328e+01 3.642549991607666016e+00
6.700000000000000000e+01 1.069328308105468750e+01 6.823870539665222168e-02 1.736911773681640625e+01 2.102529525756835938e+01 1.151832389831542969e+01 3.172993183135986328e+00
6.800000000000000000e+01 1.089136409759521484e+01 8.773547410964965820e-02 1.502755546569824219e+01 1.849117088317871094e+01 1.005561733245849609e+01 2.821029424667358398e+00
6.900000000000000000e+01 1.028571796417236328e+01 8.661302924156188965e-02 2.501570892333984375e+01 3.201701354980468750e+01 1.710981750488281250e+01 6.315817356109619141e+00
7.000000000000000000e+01 1.047619628906250000e+01 1.443550437688827515e-01 1.900100135803222656e+01 2.569456672668457031e+01 1.340867042541503906e+01 5.498503684997558594e+00
7.100000000000000000e+01 1.066667461395263672e+01 2.020970582962036133e-01 1.568102455139160156e+01 2.203196334838867188e+01 1.131389617919921875e+01 4.772727012634277344e+00
7.200000000000000000e+01 1.085715293884277344e+01 2.598390877246856689e-01 1.345872688293457031e+01 1.951665306091308594e+01 9.892614364624023438e+00 4.280062198638916016e+00
7.300000000000000000e+01 1.026334762573242188e+01 1.406566202640533447e-01 2.186922645568847656e+01 3.397343826293945312e+01 1.675279998779296875e+01 7.807995796203613281e+00
7.400000000000000000e+01 1.043891334533691406e+01 2.344277054071426392e-01 1.605265045166015625e+01 2.759917449951171875e+01 1.309554767608642578e+01 6.472896575927734375e+00
7.500000000000000000e+01 1.061447906494140625e+01 3.281987905502319336e-01 1.305314636230468750e+01 2.363784790039062500e+01 1.100729846954345703e+01 5.594302654266357422e+00
7.600000000000000000e+01 1.079004383087158203e+01 4.219698905944824219e-01 1.125192737579345703e+01 2.103581809997558594e+01 9.686323165893554688e+00 4.977528572082519531e+00
7.700000000000000000e+01 1.023087024688720703e+01 1.893017292022705078e-01 1.781154632568359375e+01 3.653507614135742188e+01 1.630398750305175781e+01 8.101396560668945312e+00
7.800000000000000000e+01 1.038478469848632812e+01 3.155028820037841797e-01 1.246579647064208984e+01 2.971427345275878906e+01 1.265402126312255859e+01 6.288322925567626953e+00
7.900000000000000000e+01 1.053869819641113281e+01 4.417040348052978516e-01 1.000270366668701172e+01 2.546599578857421875e+01 1.064060974121093750e+01 5.302839279174804688e+00
8.000000000000000000e+01 1.069261169433593750e+01 5.679051876068115234e-01 8.401822090148925781e+00 2.260802841186523438e+01 9.302954673767089844e+00 4.656880378723144531e+00
8.100000000000000000e+01 1.018953227996826172e+01 2.306813150644302368e-01 1.326616477966308594e+01 3.912931442260742188e+01 1.571864414215087891e+01 6.901415348052978516e+00
8.200000000000000000e+01 1.031588745117187500e+01 3.844688534736633301e-01 8.897500038146972656e+00 3.150045204162597656e+01 1.211938571929931641e+01 4.776298999786376953e+00
8.300000000000000000e+01 1.044224262237548828e+01 5.382564067840576172e-01 6.903837680816650391e+00 2.694915962219238281e+01 1.015589904785156250e+01 3.891387462615966797e+00
8.400000000000000000e+01 1.056859779357910156e+01 6.920439004898071289e-01 5.606122016906738281e+00 2.390712738037109375e+01 8.853974342346191406e+00 3.373425006866455078e+00
8.500000000000000000e+01 1.014091968536376953e+01 2.632071673870086670e-01 8.994358062744140625e+00 4.099293518066406250e+01 1.499618721008300781e+01 4.110125541687011719e+00
8.600000000000000000e+01 1.023486614227294922e+01 4.386786222457885742e-01 5.853724956512451172e+00 3.241938781738281250e+01 1.148193359375000000e+01 2.093668699264526367e+00
8.700000000000000000e+01 1.032881259918212891e+01 6.141500473022460938e-01 4.313174247741699219e+00 2.754095840454101562e+01 9.556240081787109375e+00 1.540165543556213379e+00
8.800000000000000000e+01 1.042275905609130859e+01 7.896215319633483887e-01 3.419293403625488281e+00 2.441839027404785156e+01 8.351305007934570312e+00 1.270895838737487793e+00
8.900000000000000000e+01 1.008689880371093750e+01 2.856309711933135986e-01 5.745370388031005859e+00 4.145398712158203125e+01 1.415980625152587891e+01 -5.240726098418235779e-02
9.000000000000000000e+01 1.014483070373535156e+01 4.760516285896301270e-01 3.769481658935546875e+00 3.191793441772460938e+01 1.070622444152832031e+01 -1.312688112258911133e+00
9.100000000000000000e+01 1.020276355743408203e+01 6.664722561836242676e-01 2.679737091064453125e+00 2.693541145324707031e+01 8.884544372558593750e+00 -1.412358760833740234e+00
9.200000000000000000e+01 1.026069545745849609e+01 8.568928837776184082e-01 2.005407810211181641e+00 2.367765045166015625e+01 7.704917430877685547e+00 -1.371109008789062500e+00
9.300000000000000000e+01 1.002954196929931641e+01 2.970920503139495850e-01 4.049173831939697266e+00 3.980959701538085938e+01 1.315763092041015625e+01 -4.887165546417236328e+00
9.400000000000000000e+01 1.004923725128173828e+01 4.951534271240234375e-01 2.940366268157958984e+00 2.983772850036621094e+01 9.833428382873535156e+00 -4.913435935974121094e+00
9.500000000000000000e+01 1.006893157958984375e+01 6.932148337364196777e-01 2.119760751724243164e+00 2.483839035034179688e+01 8.087445259094238281e+00 -4.434784412384033203e+00
9.600000000000000000e+01 1.008862686157226562e+01 8.912761807441711426e-01 1.541580200195312500e+00 2.175351142883300781e+01 6.988527774810791016e+00 -4.026690006256103516e+00
9.700000000000000000e+01 9.971052169799804688e+00 2.971505522727966309e-01 4.189101219177246094e+00 3.590128707885742188e+01 1.202711677551269531e+01 -9.579979896545410156e+00
9.800000000000000000e+01 9.951753616333007812e+00 4.952509105205535889e-01 3.303718566894531250e+00 2.606178092956542969e+01 8.809650421142578125e+00 -7.978765964508056641e+00
9.900000000000000000e+01 9.932455062866210938e+00 6.933512687683105469e-01 2.538399457931518555e+00 2.148087692260742188e+01 7.205782890319824219e+00 -6.995895862579345703e+00
1.000000000000000000e+02 9.913155555725097656e+00 8.914516568183898926e-01 2.039681434631347656e+00 1.859545898437500000e+01 6.190542221069335938e+00 -6.151843547821044922e+00
1.010000000000000000e+02 9.913672447204589844e+00 2.858042120933532715e-01 5.771070480346679688e+00 2.986596870422363281e+01 1.069111156463623047e+01 -1.300021743774414062e+01
1.020000000000000000e+02 9.856121063232421875e+00 4.763403236865997314e-01 4.631303787231445312e+00 2.102387046813964844e+01 7.696552753448486328e+00 -1.007251167297363281e+01
1.030000000000000000e+02 9.798569679260253906e+00 6.668764352798461914e-01 3.597027301788330078e+00 1.699136543273925781e+01 6.176517486572265625e+00 -8.425568580627441406e+00
1.040000000000000000e+02 9.741018295288085938e+00 8.574125766754150391e-01 3.067453861236572266e+00 1.469786071777343750e+01 5.329594612121582031e+00 -7.426899433135986328e+00
1.050000000000000000e+02 9.859606742858886719e+00 2.634885013103485107e-01 8.355331420898437500e+00 2.240632438659667969e+01 9.228497505187988281e+00 -1.454465198516845703e+01
1.060000000000000000e+02 9.766011238098144531e+00 4.391474723815917969e-01 6.064435958862304688e+00 1.521289443969726562e+01 6.383199214935302734e+00 -1.055801773071289062e+01
1.070000000000000000e+02 9.672415733337402344e+00 6.148064732551574707e-01 4.990481853485107422e+00 1.206488800048828125e+01 5.116611003875732422e+00 -8.661582946777343750e+00
1.080000000000000000e+02 9.578820228576660156e+00 7.904654741287231445e-01 4.014045715332031250e+00 1.024623298645019531e+01 4.278083801269531250e+00 -7.356562614440917969e+00
1.090000000000000000e+02 9.810929298400878906e+00 2.310599088668823242e-01 1.043886756896972656e+01 1.457208347320556641e+01 7.503284931182861328e+00 -1.366566467285156250e+01
1.100000000000000000e+02 9.684882164001464844e+00 3.850998580455780029e-01 7.259348392486572266e+00 9.323506355285644531e+00 4.974856376647949219e+00 -9.482339859008789062e+00
1.110000000000000000e+02 9.558835029602050781e+00 5.391398072242736816e-01 5.628031730651855469e+00 7.335751056671142578e+00 3.889134883880615234e+00 -7.385941982269287109e+00
1.120000000000000000e+02 9.432787895202636719e+00 6.931797266006469727e-01 4.682883262634277344e+00 6.260869503021240234e+00 3.283125638961791992e+00 -6.381240844726562500e+00
1.130000000000000000e+02 9.769508361816406250e+00 1.897630989551544189e-01 1.133932781219482422e+01 7.165540218353271484e+00 5.551460266113281250e+00 -1.061963176727294922e+01
1.140000000000000000e+02 9.615847587585449219e+00 3.162718117237091064e-01 6.838659763336181641e+00 4.352293014526367188e+00 3.357285976409912109e+00 -6.780664920806884766e+00
1.150000000000000000e+02 9.462185859680175781e+00 4.427805542945861816e-01 5.287284374237060547e+00 3.470299720764160156e+00 2.627275228500366211e+00 -5.254290580749511719e+00
1.160000000000000000e+02 9.308525085449218750e+00 5.692892670631408691e-01 4.090388298034667969e+00 3.306470632553100586e+00 2.219057798385620117e+00 -4.339176654815673828e+00
1.170000000000000000e+02 9.736933708190917969e+00 1.411830335855484009e-01 9.061874389648437500e+00 1.580075502395629883e+00 3.192584991455078125e+00 -5.952288150787353516e+00
1.180000000000000000e+02 9.561555862426757812e+00 2.353050708770751953e-01 4.833197116851806641e+00 6.721356511116027832e-01 1.651599764823913574e+00 -3.282311677932739258e+00
1.190000000000000000e+02 9.386178970336914062e+00 3.294270932674407959e-01 2.756360292434692383e+00 1.374084353446960449e+00 1.239133358001708984e+00 -2.518790006637573242e+00
1.200000000000000000e+02 9.210802078247070312e+00 4.235491156578063965e-01 2.417051315307617188e+00 1.351074218750000000e+00 1.130437731742858887e+00 -2.427565097808837891e+00
1.210000000000000000e+02 9.714455604553222656e+00 8.718428760766983032e-02 3.604269266128540039e+00 -2.433804988861083984e+00 3.511392474174499512e-01 -1.982384026050567627e-01
1.220000000000000000e+02 9.524093627929687500e+00 1.453071534633636475e-01 -8.889645338058471680e-01 -7.694903016090393066e-02 -2.897740602493286133e-01 -1.856745183467864990e-01
1.230000000000000000e+02 9.333730697631835938e+00 2.034300118684768677e-01 -2.057043313980102539e-01 5.567514300346374512e-01 1.053141281008720398e-01 -1.026754975318908691e+00
1.240000000000000000e+02 9.143367767333984375e+00 2.615528702735900879e-01 -6.984327435493469238e-01 1.505347434431314468e-02 -2.050137817859649658e-01 -4.689537584781646729e-01
1.250000000000000000e+02 9.702937126159667969e+00 2.983934059739112854e-02 -1.087528514862060547e+01 -2.267842531204223633e+00 -3.942938327789306641e+00 3.071799516677856445e+00
1.260000000000000000e+02 9.504896163940429688e+00 4.973223432898521423e-02 -4.823056221008300781e+00 7.683337926864624023e-01 -1.216416835784912109e+00 -2.134416401386260986e-01
1.270000000000000000e+02 9.306854248046875000e+00 6.962513178586959839e-02 -4.822227478027343750e+00 -3.713051974773406982e-01 -1.558059692382812500e+00 3.295062780380249023e-01
1.280000000000000000e+02 9.108813285827636719e+00 8.951802551746368408e-02 -4.418068408966064453e+00 1.630376875400543213e-01 -1.276509165763854980e+00 1.350252330303192139e-01
1.290000000000000000e+02 1.158342361450195312e-01 -9.552106857299804688e-01 3.188864095136523247e-03 -8.011660724878311157e-02 -2.307832241058349609e-02 -2.189333550631999969e-02
1.300000000000000000e+02 9.452310949563980103e-02 -5.196542143821716309e-01 -2.085379965137690306e-04 -1.553079206496477127e-02 -4.721798934042453766e-03 -8.995813317596912384e-03
1.310000000000000000e+02 8.047272264957427979e-02 -3.348883092403411865e-01 -3.801152342930436134e-03 1.101590241887606680e-04 -1.107297954149544239e-03 -7.150307646952569485e-04
1.320000000000000000e+02 6.704595088958740234e-01 -1.189597725868225098e+00 -1.255295518785715103e-02 -1.067239567637443542e-01 -3.578307479619979858e-02 -1.335243731737136841e-01
1.330000000000000000e+02 4.989198446273803711e-01 -1.392871141433715820e+00 -3.224649699404835701e-03 -1.460607945919036865e-01 -4.478563368320465088e-02 -1.220768913626670837e-01
1.340000000000000000e+02 6.919136643409729004e-01 -1.388064265251159668e+00 -2.643748745322227478e-02 -1.322783678770065308e-01 -4.761475697159767151e-02 -1.304481923580169678e-01
1.350000000000000000e+02 2.494502544403076172e+00 -1.354987144470214844e+00 -2.626864053308963776e-02 4.762882366776466370e-02 6.408054847270250320e-03 -1.893218606710433960e-01
1.360000000000000000e+02 2.919969081878662109e+00 -1.376239299774169922e+00 1.013248693197965622e-02 7.690217345952987671e-02 2.611039765179157257e-02 -1.488214284181594849e-01
1.370000000000000000e+02 2.470916032791137695e+00 -1.059127449989318848e+00 -1.424614787101745605e-01 2.068482153117656708e-02 -3.653299435973167419e-02 -1.884120553731918335e-01
1.380000000000000000e+02 2.876306295394897461e+00 -9.978117346763610840e-01 -1.792095452547073364e-01 3.957924619317054749e-02 -4.188909009099006653e-02 -1.635521203279495239e-01
1.390000000000000000e+02 2.802544832229614258e+00 -6.208453774452209473e-01 -3.492799699306488037e-01 9.416411630809307098e-03 -1.019590720534324646e-01 -1.432349532842636108e-01
1.400000000000000000e+02 3.299050569534301758e+00 -1.486306041479110718e-01 -7.671003937721252441e-01 6.493871915154159069e-04 -2.299352884292602539e-01 -3.849662095308303833e-02
1.410000000000000000e+02 3.092912435531616211e+00 -1.450943201780319214e-01 -7.170436382293701172e-01 2.162255812436342239e-03 -2.144644111394882202e-01 -4.064324870705604553e-02
1.420000000000000000e+02 3.699659109115600586e+00 -1.269613206386566162e-01 -8.615040183067321777e-01 -3.071981715038418770e-03 -2.593728005886077881e-01 -3.460691869258880615e-02
1.430000000000000000e+02 3.894185304641723633e+00 -1.247326359152793884e-01 -9.077794551849365234e-01 1.038171630352735519e-02 -2.692193090915679932e-01 -2.684057131409645081e-02
1.440000000000000000e+02 5.521253585815429688e+00 -1.368425250053405762e+00 7.839535474777221680e-01 2.790670394897460938e-01 3.189061880111694336e-01 5.155199170112609863e-01
1.450000000000000000e+02 5.718832492828369141e+00 -1.378246426582336426e+00 9.563952684402465820e-01 3.293052017688751221e-01 3.857101500034332275e-01 6.097046732902526855e-01
1.460000000000000000e+02 5.892667293548583984e+00 -1.387828886508941650e-01 -9.823734760284423828e-01 1.124760601669549942e-02 -2.913377583026885986e-01 1.375277806073427200e-02
1.470000000000000000e+02 5.484801769256591797e+00 -1.456770151853561401e-01 -1.030767917633056641e+00 1.293497253209352493e-02 -3.053498864173889160e-01 2.836410421878099442e-03
1.480000000000000000e+02 6.314941406250000000e+00 -1.399257540702819824e+00 1.521384596824645996e+00 4.990887939929962158e-01 6.061420440673828125e-01 1.027868747711181641e+00
1.490000000000000000e+02 6.297612190246582031e+00 -1.303483098745346069e-01 -8.964264392852783203e-01 1.216608379036188126e-02 -2.652781009674072266e-01 2.596006169915199280e-02
1.500000000000000000e+02 6.114730358123779297e+00 -1.392511487007141113e+00 1.329946398735046387e+00 3.814148902893066406e-01 5.134083628654479980e-01 8.473437428474426270e-01
1.510000000000000000e+02 6.672454357147216797e+00 -1.408431291580200195e+00 1.757435679435729980e+00 6.369476318359375000e-01 7.183150053024291992e-01 1.261265397071838379e+00
1.520000000000000000e+02 7.689256191253662109e+00 -1.350958108901977539e+00 3.344757318496704102e+00 1.313531279563903809e+00 1.397486567497253418e+00 2.525245428085327148e+00
1.530000000000000000e+02 8.410909652709960938e+00 -3.483122587203979492e-01 2.697773694992065430e+00 1.580995470285415649e-01 8.567619919776916504e-01 1.040696859359741211e+00
1.540000000000000000e+02 8.302818298339843750e+00 -1.324055194854736328e+00 4.661433696746826172e+00 2.513317346572875977e+00 2.152425289154052734e+00 3.950609445571899414e+00
1.550000000000000000e+02 9.688844680786132812e+00 -1.044457077980041504e+00 5.773748874664306641e+00 1.475136756896972656e+01 6.157534599304199219e+00 8.504986763000488281e+00
1.560000000000000000e+02 1.025903892517089844e+01 -1.133519649505615234e+00 4.055905342102050781e+00 2.083860397338867188e+01 7.468352794647216797e+00 3.793801784515380859e+00
1.570000000000000000e+02 1.073481464385986328e+01 -1.144141316413879395e+00 5.332185745239257812e+00 1.964694213867187500e+01 7.493738174438476562e+00 1.896084249019622803e-01
1.580000000000000000e+02 1.108393096923828125e+01 -2.791437804698944092e-01 1.319791793823242188e+01 1.707227897644042969e+01 9.081059455871582031e+00 -2.798991501331329346e-01
1.590000000000000000e+02 1.110609245300292969e+01 -8.639926463365554810e-02 1.373602390289306641e+01 1.664391517639160156e+01 9.113981246948242188e+00 1.141038894653320312e+00
1.600000000000000000e+02 1.125073242187500000e+01 3.355023860931396484e-01 1.100148868560791016e+01 1.608655357360839844e+01 8.126412391662597656e+00 3.408953666687011719e+00
1.610000000000000000e+02 1.096120643615722656e+01 5.763402581214904785e-01 9.157831192016601562e+00 1.928339958190917969e+01 8.532368659973144531e+00 4.456886768341064453e+00
1.620000000000000000e+02 1.065928459167480469e+01 8.806247115135192871e-01 4.180103778839111328e+00 2.179867172241210938e+01 7.793632984161376953e+00 2.574943304061889648e+00
1.630000000000000000e+02 9.162257194519042969e+00 1.101857781410217285e+00 3.302712202072143555e+00 5.428502082824707031e+00 2.619364261627197266e+00 -4.961933135986328125e+00
1.640000000000000000e+02 8.909451484680175781e+00 1.364026308059692383e+00 2.788235187530517578e+00 4.607971191406250000e+00 2.218862056732177734e+00 -4.190510272979736328e+00
1.650000000000000000e+02 8.948912620544433594e+00 3.158051371574401855e-01 -8.321784734725952148e-01 2.079253196716308594e-01 -1.872759461402893066e-01 -5.488432645797729492e-01
1.660000000000000000e+02 8.910804748535156250e+00 1.078275069594383240e-01 -4.225142955780029297e+00 -1.114285737276077271e-01 -1.300971388816833496e+00 1.592204123735427856e-01
1.670000000000000000e+02 8.536369323730468750e+00 3.947198987007141113e-01 -1.357351422309875488e+00 1.748543977737426758e-01 -3.547491133213043213e-01 -2.691860795021057129e-01
1.680000000000000000e+02 9.712758064270019531e+00 1.387733101844787598e+00 1.686219573020935059e+00 1.303099536895751953e+01 4.415164470672607422e+00 -5.363747119903564453e+00
1.690000000000000000e+02 9.905720710754394531e+00 1.375819563865661621e+00 1.178132057189941406e+00 1.518452548980712891e+01 4.908797264099121094e+00 -4.607901096343994141e+00
1.700000000000000000e+02 8.702444076538085938e+00 1.370556354522705078e+00 2.649304389953613281e+00 3.384968996047973633e+00 1.810281991958618164e+00 -3.484525680541992188e+00
1.710000000000000000e+02 8.508754730224609375e+00 1.347165107727050781e-01 -3.964238882064819336e+00 -1.941728405654430389e-02 -1.195096850395202637e+00 1.191836819052696228e-01
1.720000000000000000e+02 8.101596832275390625e+00 1.356433868408203125e+00 1.613202333450317383e+00 1.418514966964721680e+00 9.095152020454406738e-01 -1.741702556610107422e+00
1.730000000000000000e+02 8.103774070739746094e+00 1.460121721029281616e-01 -3.779684305191040039e+00 -3.290092945098876953e-02 -1.143775582313537598e+00 8.117426186800003052e-02
1.740000000000000000e+02 5.695895671844482422e+00 1.386821031570434570e+00 -3.936391174793243408e-01 1.130063980817794800e-01 -8.418980985879898071e-02 2.566940784454345703e-01
1.750000000000000000e+02 5.114307403564453125e+00 1.096266388893127441e+00 -8.247674703598022461e-01 1.999688521027565002e-02 -2.414311766624450684e-01 3.910371363162994385e-01
1.760000000000000000e+02 5.508736133575439453e+00 1.152617573738098145e+00 -7.451374530792236328e-01 5.404158681631088257e-02 -2.073287665843963623e-01 3.385283648967742920e-01
1.770000000000000000e+02 3.705371618270874023e+00 1.385451078414916992e+00 -4.432348012924194336e-01 -1.587001048028469086e-02 -1.377314478158950806e-01 4.883146584033966064e-01
1.780000000000000000e+02 3.707933187484741211e+00 1.598374396562576294e-01 -1.279025197029113770e+00 -2.409067470580339432e-03 -3.844302892684936523e-01 9.698982536792755127e-02
1.790000000000000000e+02 4.129785537719726562e+00 8.771088123321533203e-01 -9.017269015312194824e-01 -1.198485842905938625e-03 -2.708775997161865234e-01 4.037974774837493896e-01
1.800000000000000000e+02 3.529339075088500977e+00 6.908538937568664551e-01 -8.524256348609924316e-01 -1.554306410253047943e-02 -2.603906095027923584e-01 3.249219357967376709e-01
1.810000000000000000e+02 3.317279100418090820e+00 1.370108008384704590e+00 -4.297899305820465088e-01 -3.943222388625144958e-02 -1.407666504383087158e-01 4.872950017452239990e-01
1.820000000000000000e+02 3.117893695831298828e+00 1.336868524551391602e+00 -4.079527258872985840e-01 -3.926339000463485718e-02 -1.341648399829864502e-01 4.792342185974121094e-01
1.830000000000000000e+02 3.043033838272094727e+00 8.875674605369567871e-01 -5.969302058219909668e-01 -2.529468201100826263e-02 -1.866674572229385376e-01 3.810256123542785645e-01
1.840000000000000000e+02 2.487853288650512695e+00 1.092489838600158691e+00 -3.843791186809539795e-01 -5.640745908021926880e-02 -1.322359740734100342e-01 3.999942243099212646e-01
1.850000000000000000e+02 2.895749568939208984e+00 1.686940938234329224e-01 -8.206567764282226562e-01 -2.579134190455079079e-03 -2.469707876443862915e-01 8.341594040393829346e-02
1.860000000000000000e+02 2.300387144088745117e+00 1.371603012084960938e+00 -2.725418210029602051e-01 -8.813117444515228271e-02 -1.082018986344337463e-01 4.347147643566131592e-01
1.870000000000000000e+02 9.027634263038635254e-01 1.380576014518737793e+00 -7.902795821428298950e-02 -1.798083037137985229e-01 -7.765087485313415527e-02 2.326314896345138550e-01
1.880000000000000000e+02 7.064817547798156738e-01 1.379356741905212402e+00 -4.221700131893157959e-02 -2.230646908283233643e-01 -7.958450913429260254e-02 1.842697858810424805e-01
1.890000000000000000e+02 5.074881911277770996e-01 1.412107199430465698e-01 -3.469300456345081329e-03 -7.257017772644758224e-03 -3.217895515263080597e-03 6.932185962796211243e-03
1.900000000000000000e+02 1.111962795257568359e+00 1.164401471614837646e-01 -6.747306883335113525e-02 -6.219294387847185135e-03 -2.210770919919013977e-02 1.992344669997692108e-02
1.910000000000000000e+02 3.042126297950744629e-01 1.387158036231994629e+00 -1.617865823209285736e-02 -2.248253226280212402e-01 -7.230119407176971436e-02 9.557093679904937744e-02
1.920000000000000000e+02 1.001381948590278625e-01 9.661881327629089355e-01 -7.177375257015228271e-03 -4.361418262124061584e-02 -1.523746736347675323e-02 1.674578525125980377e-02
1.930000000000000000e+02 9.696643054485321045e-02 7.573472261428833008e-01 5.602481542155146599e-04 -1.469208300113677979e-02 -4.239550326019525528e-03 9.241457097232341766e-03
1.940000000000000000e+02 9.930790960788726807e-02 3.400205671787261963e-01 -6.884754984639585018e-04 3.826145548373460770e-03 9.413009975105524063e-04 -1.339647453278303146e-03
1.950000000000000000e+02 9.669021517038345337e-02 5.493029952049255371e-01 -4.812967032194137573e-03 2.310222625965252519e-04 -1.374583458527922630e-03 4.459460731595754623e-03
1.960000000000000000e+02 3.021513521671295166e-01 1.321522593498229980e-01 2.132936147972941399e-03 -1.616740832105278969e-03 1.548585860291495919e-04 -1.722989691188558936e-04
1.970000000000000000e+02 9.223401546478271484e-01 1.477951705455780029e-01 -3.949799016118049622e-02 -8.058922830969095230e-04 -1.209116447716951370e-02 1.505416445434093475e-02
1.980000000000000000e+02 1.470306277275085449e+00 1.393156498670578003e-01 -1.918663680553436279e-01 -8.240092545747756958e-03 -6.003193557262420654e-02 4.032571613788604736e-02
1.990000000000000000e+02 1.504559159278869629e+00 1.359539151191711426e+00 -1.511346250772476196e-01 -1.463912129402160645e-01 -8.925775438547134399e-02 3.239012956619262695e-01
2.000000000000000000e+02 1.882001399993896484e+00 1.690664887428283691e-01 -3.463223874568939209e-01 -1.444971421733498573e-03 -1.043302118778228760e-01 6.380637735128402710e-02
2.010000000000000000e+02 1.675266385078430176e+00 1.561140567064285278e-01 -2.662969231605529785e-01 -1.238819863647222519e-02 -8.360553532838821411e-02 5.613853409886360168e-02
2.020000000000000000e+02 2.088147163391113281e+00 1.728044748306274414e-01 -4.262629747390747070e-01 -4.394683986902236938e-03 -1.291972994804382324e-01 6.700786203145980835e-02
2.030000000000000000e+02 1.910987615585327148e+00 1.378558754920959473e+00 -2.108652889728546143e-01 -1.185734197497367859e-01 -9.883160889148712158e-02 3.843818008899688721e-01
2.040000000000000000e+02 3.938179492950439453e+00 4.657450318336486816e-01 -1.174052834510803223e+00 -1.145071443170309067e-02 -3.556510806083679199e-01 2.511059045791625977e-01
2.050000000000000000e+02 4.308200359344482422e+00 1.459887772798538208e-01 -1.645576596260070801e+00 8.409116417169570923e-03 -4.911502301692962646e-01 9.286110848188400269e-02
2.060000000000000000e+02 5.096124649047851562e+00 1.248127669095993042e-01 -2.145794391632080078e+00 5.407853052020072937e-03 -6.421159505844116211e-01 8.192767947912216187e-02
2.070000000000000000e+02 6.690669059753417969e+00 1.378771901130676270e+00 1.752972230315208435e-02 3.128463923931121826e-01 9.911283105611801147e-02 -1.349316090345382690e-01
2.080000000000000000e+02 7.113923072814941406e+00 3.806204199790954590e-01 -2.416661977767944336e+00 7.708471734076738358e-03 -7.226860523223876953e-01 1.675158888101577759e-01
2.090000000000000000e+02 7.700154304504394531e+00 1.426025778055191040e-01 -3.617372035980224609e+00 -1.851807348430156708e-02 -1.090767025947570801e+00 1.035982593894004822e-01
2.100000000000000000e+02 7.701015472412109375e+00 6.891489624977111816e-01 -9.674035310745239258e-01 1.104476526379585266e-01 -2.570867836475372314e-01 -1.214307695627212524e-01
2.110000000000000000e+02 9.123010635375976562e+00 7.135878205299377441e-01 3.401558637619018555e+00 2.791644573211669922e+00 1.857960939407348633e+00 -3.828754425048828125e+00
2.120000000000000000e+02 9.280339241027832031e+00 8.688903450965881348e-01 3.870017051696777344e+00 5.454401493072509766e+00 2.797325611114501953e+00 -5.312139511108398438e+00
2.130000000000000000e+02 1.029301166534423828e+01 1.328771829605102539e+00 1.012982130050659180e+00 1.879157257080078125e+01 5.941366195678710938e+00 -1.986513733863830566e+00
2.140000000000000000e+02 1.085127162933349609e+01 -7.153082489967346191e-01 9.540731430053710938e+00 2.000398635864257812e+01 8.863415718078613281e+00 -1.506561398506164551e+00
2.150000000000000000e+02 1.038669395446777344e+01 -1.044695854187011719e+00 4.678234577178955078e+00 2.185822105407714844e+01 7.960936546325683594e+00 2.437075376510620117e+00
2.160000000000000000e+02 1.023865318298339844e+01 -1.373344063758850098e+00 3.204111337661743164e+00 1.864183044433593750e+01 6.553782463073730469e+00 4.201444625854492188e+00
2.170000000000000000e+02 8.705793380737304688e+00 -4.061450958251953125e-01 4.488593101501464844e+00 5.292849540710449219e-01 1.505363464355468750e+00 1.804165005683898926e+00
2.180000000000000000e+02 7.281956672668457031e+00 -1.351641416549682617e+00 2.684328556060791016e+00 8.341094255447387695e-01 1.055531382560729980e+00 1.862207293510437012e+00
2.190000000000000000e+02 6.853759765625000000e+00 -1.359755992889404297e+00 2.007120132446289062e+00 6.827541589736938477e-01 8.069623112678527832e-01 1.416578650474548340e+00
2.200000000000000000e+02 6.702738761901855469e+00 -1.331013590097427368e-01 -7.565004825592041016e-01 1.999886520206928253e-02 -2.209504842758178711e-01 4.832809790968894958e-02
2.210000000000000000e+02 5.115441322326660156e+00 -1.330337047576904297e+00 5.374777913093566895e-01 2.151957750320434570e-01 2.258020788431167603e-01 3.322306275367736816e-01
2.220000000000000000e+02 2.153861999511718750e+00 -1.689965426921844482e-01 -4.023932516574859619e-01 1.472269091755151749e-02 -1.163011714816093445e-01 -5.694786831736564636e-02
2.230000000000000000e+02 2.294748306274414062e+00 -1.361813902854919434e+00 -3.939794003963470459e-02 2.092753164470195770e-02 -5.541122052818536758e-03 -1.971631944179534912e-01
2.240000000000000000e+02 1.729924559593200684e+00 -4.902286231517791748e-01 -2.258223593235015869e-01 -1.482326444238424301e-02 -7.219368964433670044e-02 -1.234678030014038086e-01
2.250000000000000000e+02 1.307962417602539062e+00 -1.655665636062622070e-01 -1.687898486852645874e-01 -2.797169843688607216e-03 -5.147610604763031006e-02 -3.910273686051368713e-02
2.260000000000000000e+02 1.026552543044090271e-01 -1.392542600631713867e+00 8.851039223372936249e-03 -1.489243358373641968e-01 -4.202198982238769531e-02 -1.110529340803623199e-02
2.270000000000000000e+02 9.305203437805175781e+00 -8.744363784790039062e-01 7.956331729888916016e+00 7.180444717407226562e+00 4.541032791137695312e+00 7.766228199005126953e+00
2.280000000000000000e+02 1.704760074615478516e+00 -1.067720770835876465e+00 -9.719695150852203369e-02 -3.072333894670009613e-02 -3.837608546018600464e-02 -1.992942541837692261e-01
2.290000000000000000e+02 3.718739748001098633e+00 4.421119987964630127e-01 -1.083377599716186523e+00 -4.589424002915620804e-03 -3.263900876045227051e-01 2.421154826879501343e-01
2.300000000000000000e+02 9.469409942626953125e+00 9.639760851860046387e-01 3.653898715972900391e+00 9.098015785217285156e+00 3.825574398040771484e+00 -6.580563068389892578e+00
2.310000000000000000e+02 3.109212875366210938e+00 -1.420225858688354492e+00 3.411608561873435974e-02 9.442759305238723755e-02 3.856310620903968811e-02 -1.037265360355377197e-01
2.320000000000000000e+02 3.673345804214477539e+00 -1.356542825698852539e+00 1.091568768024444580e-01 9.506211429834365845e-02 6.126569956541061401e-02 -2.623899281024932861e-02
2.330000000000000000e+02 9.901885986328125000e+00 -1.074750423431396484e+00 4.709684371948242188e+00 1.820151901245117188e+01 6.873361110687255859e+00 7.316251277923583984e+00
2.340000000000000000e+02 1.107758998870849609e+01 1.039674431085586548e-01 1.353671646118164062e+01 1.701446723937988281e+01 9.165354728698730469e+00 2.568589925765991211e+00
2.350000000000000000e+02 1.089429092407226562e+01 9.207270741462707520e-01 5.187232971191406250e+00 1.970792579650878906e+01 7.468547344207763672e+00 3.435856819152832031e+00
2.360000000000000000e+02 1.080690765380859375e+01 1.168788671493530273e+00 3.125751495361328125e+00 1.890450668334960938e+01 6.609077453613281250e+00 2.069557189941406250e+00
2.370000000000000000e+02 1.065894412994384766e+01 1.228479743003845215e+00 2.147628784179687500e+00 1.973271751403808594e+01 6.564104080200195312e+00 9.238738417625427246e-01
2.380000000000000000e+02 1.009926033020019531e+01 1.109326839447021484e+00 1.256793737411499023e+00 1.942815208435058594e+01 6.205483436584472656e+00 -3.712379217147827148e+00
2.390000000000000000e+02 9.517053604125976562e+00 1.392658829689025879e+00 2.316306829452514648e+00 1.035453414916992188e+01 3.801252365112304688e+00 -5.678623676300048828e+00
2.400000000000000000e+02 7.899786949157714844e+00 1.355904221534729004e+00 1.305789113044738770e+00 1.063767910003662109e+00 7.108671069145202637e-01 -1.364810347557067871e+00
2.410000000000000000e+02 7.492914676666259766e+00 1.346846580505371094e+00 7.430209517478942871e-01 6.756378412246704102e-01 4.255976378917694092e-01 -7.780740261077880859e-01
2.420000000000000000e+02 6.091519355773925781e+00 1.358504295349121094e+00 -3.231851756572723389e-01 1.640048027038574219e-01 -4.775410890579223633e-02 1.429195851087570190e-01
2.430000000000000000e+02 4.462540626525878906e+00 1.066448926925659180e+00 -7.943599224090576172e-01 1.103795692324638367e-02 -2.349965870380401611e-01 4.354755282402038574e-01
2.440000000000000000e+02 4.094229698181152344e+00 1.372979164123535156e+00 -4.966848790645599365e-01 1.709511619992554188e-03 -1.484926044940948486e-01 4.870637655258178711e-01
2.450000000000000000e+02 1.286486506462097168e+00 1.162464618682861328e+00 -1.430770605802536011e-01 -1.287215352058410645e-01 -8.153957873582839966e-02 2.672579586505889893e-01
2.460000000000000000e+02 1.014702394604682922e-01 1.391971230506896973e+00 1.074213534593582153e-02 -1.058782339096069336e-01 -2.854083105921745300e-02 3.739704610779881477e-03
2.470000000000000000e+02 1.003239825367927551e-01 1.273108571767807007e-01 9.608077816665172577e-04 9.620230412110686302e-04 5.768492701463401318e-04 -1.061856863088905811e-03
2.480000000000000000e+02 7.329292297363281250e-01 4.319826960563659668e-01 -5.901004001498222351e-02 -2.994502708315849304e-02 -2.668652124702930450e-02 5.324186757206916809e-02
2.490000000000000000e+02 1.386239290237426758e+00 3.766362667083740234e-01 -1.844231188297271729e-01 -1.890910044312477112e-02 -6.099966168403625488e-02 1.091771200299263000e-01
2.500000000000000000e+02 2.292985677719116211e+00 1.655435413122177124e-01 -5.145529508590698242e-01 -8.646100759506225586e-03 -1.569597274065017700e-01 7.534597814083099365e-02
2.510000000000000000e+02 2.695286035537719727e+00 1.684379279613494873e-01 -7.199944853782653809e-01 -8.868021541275084019e-04 -2.162643820047378540e-01 8.202645182609558105e-02
2.520000000000000000e+02 3.501118183135986328e+00 4.493677020072937012e-01 -9.835411906242370605e-01 -1.108528580516576767e-02 -2.983879446983337402e-01 2.381251305341720581e-01
2.530000000000000000e+02 4.504174232482910156e+00 1.370491534471511841e-01 -1.766721606254577637e+00 -5.077505484223365784e-03 -5.315397381782531738e-01 8.847583830356597900e-02
2.540000000000000000e+02 5.468919277191162109e+00 4.039701819419860840e-01 -1.909745097160339355e+00 -1.233098935335874557e-02 -5.766228437423706055e-01 2.251711040735244751e-01
2.550000000000000000e+02 5.696718215942382812e+00 1.538996994495391846e-01 -2.495563983917236328e+00 -7.020269520580768585e-03 -7.507752776145935059e-01 1.037598624825477600e-01
2.560000000000000000e+02 6.107610225677490234e+00 1.532623320817947388e-01 -2.731503963470458984e+00 -6.510002072900533676e-03 -8.214042186737060547e-01 1.075977608561515808e-01
2.570000000000000000e+02 6.509176254272460938e+00 1.416981220245361328e-01 -2.984061717987060547e+00 6.282405927777290344e-03 -8.933337926864624023e-01 1.054710000753402710e-01
2.580000000000000000e+02 6.906415462493896484e+00 1.331113576889038086e-01 -3.220895051956176758e+00 -1.673380471765995026e-02 -9.712886214256286621e-01 1.027673482894897461e-01
2.590000000000000000e+02 8.711063385009765625e+00 1.229138299822807312e-01 -4.078016281127929688e+00 3.377788513898849487e-02 -1.213271498680114746e+00 1.117287203669548035e-01
2.600000000000000000e+02 1.103953266143798828e+01 2.695617675781250000e-01 1.247290611267089844e+01 1.780725479125976562e+01 9.084048271179199219e+00 3.855569362640380859e+00
2.610000000000000000e+02 1.114456081390380859e+01 7.576981186866760254e-01 7.288223266601562500e+00 1.763333511352539062e+01 7.476467609405517578e+00 4.016775131225585938e+00
2.620000000000000000e+02 1.048062229156494141e+01 1.001647591590881348e+00 2.462898492813110352e+00 2.189544486999511719e+01 7.307503223419189453e+00 6.367170214653015137e-01
2.630000000000000000e+02 8.897590637207031250e+00 -1.108529567718505859e-01 2.273444414138793945e+00 -1.206096708774566650e-01 6.458503603935241699e-01 3.940836787223815918e-01
2.640000000000000000e+02 9.020002365112304688e+00 -6.818686127662658691e-01 7.626350402832031250e+00 2.684885740280151367e+00 3.093370914459228516e+00 4.900454521179199219e+00
2.650000000000000000e+02 9.486912727355957031e+00 -9.693363308906555176e-01 7.123667716979980469e+00 1.081785678863525391e+01 5.382457256317138672e+00 8.670180320739746094e+00
2.660000000000000000e+02 1.111808109283447266e+01 -4.630428850650787354e-01 1.175232315063476562e+01 1.718395423889160156e+01 8.680883407592773438e+00 -9.208114147186279297e-01
2.670000000000000000e+02 8.106524467468261719e+00 -1.612324267625808716e-01 5.642843842506408691e-01 -9.349106997251510620e-02 1.412379890680313110e-01 2.364355325698852539e-01
2.680000000000000000e+02 6.295588970184326172e+00 -3.674811720848083496e-01 -3.453813791275024414e-01 1.463377941399812698e-02 -9.922428429126739502e-02 1.291558295488357544e-01
2.690000000000000000e+02 5.241594791412353516e+00 -4.145678877830505371e-01 -5.750428438186645508e-01 2.853596210479736328e-02 -1.639520674943923950e-01 3.037527389824390411e-02
2.700000000000000000e+02 4.866126537322998047e+00 -3.414294123649597168e-01 -7.447963953018188477e-01 1.079052686691284180e-02 -2.202017605304718018e-01 -1.836578734219074249e-02
2.710000000000000000e+02 2.643744945526123047e+00 -3.284434974193572998e-01 -4.767140150070190430e-01 -6.290399469435214996e-04 -1.432029157876968384e-01 -9.508474171161651611e-02
2.720000000000000000e+02 2.499970436096191406e+00 -9.817486256361007690e-02 -5.597592592239379883e-01 -4.850458353757858276e-03 -1.693829149007797241e-01 -2.629472687840461731e-02
2.730000000000000000e+02 1.716540455818176270e+00 -1.788551807403564453e-01 -2.816404998302459717e-01 -5.699966102838516235e-03 -8.620214462280273438e-02 -5.242111906409263611e-02
2.740000000000000000e+02 9.602549672126770020e-02 -1.283648163080215454e-01 1.165457535535097122e-03 6.885376642458140850e-04 5.561985890381038189e-04 4.744740726891905069e-04
2.750000000000000000e+02 1.071215724945068359e+01 -8.493782281875610352e-01 7.536190986633300781e+00 2.119725608825683594e+01 8.620034217834472656e+00 -8.141394257545471191e-01
2.760000000000000000e+02 8.993978500366210938e+00 -1.087878465652465820e+00 6.526437282562255859e+00 5.166136741638183594e+00 3.507772207260131836e+00 6.229227542877197266e+00
2.770000000000000000e+02 1.125597381591796875e+01 -6.092246174812316895e-01 1.019821166992187500e+01 1.628035736083984375e+01 7.943570137023925781e+00 -1.273384213447570801e+00
2.780000000000000000e+02 9.019884109497070312e+00 5.161942839622497559e-01 1.702637672424316406e+00 8.230257034301757812e-01 7.576990127563476562e-01 -1.850225448608398438e+00
2.790000000000000000e+02 1.082630920410156250e+01 7.334623932838439941e-01 6.831872940063476562e+00 2.061304283142089844e+01 8.233474731445312500e+00 4.099239826202392578e+00
2.800000000000000000e+02 9.552035331726074219e+00 1.194209575653076172e+00 2.652244329452514648e+00 1.061586761474609375e+01 3.980433464050292969e+00 -6.090178012847900391e+00
2.810000000000000000e+02 1.088972091674804688e+01 -1.027581930160522461e+00 6.604502677917480469e+00 1.904944801330566406e+01 7.696185111999511719e+00 -7.649929523468017578e-01
2.820000000000000000e+02 1.125513172149658203e+01 5.939059853553771973e-01 8.895930290222167969e+00 1.672912216186523438e+01 7.687515735626220703e+00 4.081802368164062500e+00
2.830000000000000000e+02 1.131819057464599609e+01 -4.570733904838562012e-01 1.123695278167724609e+01 1.541248321533203125e+01 7.994830608367919922e+00 -5.752893090248107910e-01
2.840000000000000000e+02 1.102915954589843750e+01 -8.932558894157409668e-01 7.958311080932617188e+00 1.807008934020996094e+01 7.808519840240478516e+00 -1.334113121032714844e+00
2.850000000000000000e+02 1.134174919128417969e+01 -2.807932198047637939e-01 1.174198055267333984e+01 1.503823184967041016e+01 8.034063339233398438e+00 1.363313049077987671e-01
2.860000000000000000e+02 1.139057826995849609e+01 2.890876829624176025e-01 1.072347640991210938e+01 1.518965339660644531e+01 7.773939132690429688e+00 2.951692581176757812e+00
2.870000000000000000e+02 1.119312572479248047e+01 1.874526739120483398e-01 1.225811386108398438e+01 1.621527099609375000e+01 8.542015075683593750e+00 2.852959871292114258e+00
2.880000000000000000e+02 1.041065502166748047e+01 -1.317460656166076660e+00 3.503495931625366211e+00 1.961871719360351562e+01 6.936663627624511719e+00 2.673972606658935547e+00
2.890000000000000000e+02 1.009277725219726562e+01 -1.060697197914123535e+00 4.257697105407714844e+00 2.084462928771972656e+01 7.530697822570800781e+00 5.382645606994628906e+00
2.900000000000000000e+02 9.907473564147949219e+00 1.121070504188537598e+00 1.653752923011779785e+00 1.669728851318359375e+01 5.505312442779541016e+00 -5.409902572631835938e+00
2.910000000000000000e+02 1.048631954193115234e+01 1.271646022796630859e+00 1.522658109664916992e+00 1.967951583862304688e+01 6.360651969909667969e+00 -3.913328945636749268e-01
2.920000000000000000e+02 1.057286930084228516e+01 -1.239858627319335938e+00 4.233502388000488281e+00 1.974210548400878906e+01 7.192682266235351562e+00 1.360200047492980957e+00
2.930000000000000000e+02 8.883888125419616699e-01 -1.356295228004455566e+00 -1.922334916889667511e-02 -1.025157421827316284e-01 -3.652172908186912537e-02 -1.574990898370742798e-01
2.940000000000000000e+02 3.040100336074829102e-01 -1.391423225402832031e+00 -2.510881982743740082e-02 -2.220284044742584229e-01 -7.414116710424423218e-02 -7.702565193176269531e-02
2.950000000000000000e+02 1.093045949935913086e+00 -1.335810899734497070e+00 -3.543018177151679993e-02 -9.556907415390014648e-02 -3.929977491497993469e-02 -1.767268478870391846e-01
2.960000000000000000e+02 1.500203132629394531e+00 -1.350065231323242188e+00 -3.418561071157455444e-02 -5.969563499093055725e-02 -2.816437371075153351e-02 -2.012943625450134277e-01
2.970000000000000000e+02 2.097192764282226562e+00 -1.366299629211425781e+00 -3.577856346964836121e-02 8.843482472002506256e-03 -8.080524392426013947e-03 -2.127724140882492065e-01
2.980000000000000000e+02 2.692356586456298828e+00 -1.078049063682556152e+00 -1.268169283866882324e-01 3.284269943833351135e-02 -2.819226682186126709e-02 -1.827462464570999146e-01
2.990000000000000000e+02 3.324770212173461914e+00 -1.174355626106262207e+00 -6.025865301489830017e-02 5.795399472117424011e-02 -6.913975230418145657e-04 -1.038045808672904968e-01
3.000000000000000000e+02 4.124855041503906250e+00 -1.150144219398498535e+00 3.981743752956390381e-02 9.143680334091186523e-02 3.937627375125885010e-02 3.189090173691511154e-03
3.010000000000000000e+02 4.673169612884521484e+00 -1.339155793190002441e+00 3.135371804237365723e-01 1.834931522607803345e-01 1.491090953350067139e-01 1.959468871355056763e-01
3.020000000000000000e+02 6.360189914703369141e+00 -1.196414113044738770e+00 1.319883108139038086e+00 3.175913989543914795e-01 4.912423491477966309e-01 8.025548458099365234e-01
3.030000000000000000e+02 8.068883895874023438e+00 -1.039474606513977051e+00 4.030332565307617188e+00 1.291867733001708984e+00 1.596660017967224121e+00 2.659527301788330078e+00
3.040000000000000000e+02 8.091531753540039062e+00 -1.341143488883972168e+00 4.166933059692382812e+00 2.046461582183837891e+00 1.864018440246582031e+00 3.400432109832763672e+00
3.050000000000000000e+02 8.518143653869628906e+00 -1.328126549720764160e+00 5.139612674713134766e+00 3.223104238510131836e+00 2.508815050125122070e+00 4.608718872070312500e+00
3.060000000000000000e+02 9.530289649963378906e+00 -1.405190467834472656e+00 4.573803901672363281e+00 1.180700016021728516e+01 4.914241313934326172e+00 7.317508697509765625e+00
3.070000000000000000e+02 9.200761795043945312e+00 -1.108575105667114258e+00 6.651341438293457031e+00 7.171994209289550781e+00 4.147000789642333984e+00 7.234274387359619141e+00
3.080000000000000000e+02 9.713594436645507812e+00 -1.432682633399963379e+00 4.052077770233154297e+00 1.381945133209228516e+01 5.361458778381347656e+00 7.119919776916503906e+00
3.090000000000000000e+02 1.005361557006835938e+01 -1.406605482101440430e+00 3.294469594955444336e+00 1.711180686950683594e+01 6.121882915496826172e+00 5.248350620269775391e+00
3.100000000000000000e+02 8.696110725402832031e+00 1.115810751914978027e+00 2.483798980712890625e+00 2.320940971374511719e+00 1.441421985626220703e+00 -2.902246713638305664e+00
3.110000000000000000e+02 8.318943977355957031e+00 1.107985258102416992e+00 1.537173032760620117e+00 1.162945270538330078e+00 8.100354671478271484e-01 -1.704209208488464355e+00
3.120000000000000000e+02 8.301010131835937500e+00 1.368102073669433594e+00 1.921986341476440430e+00 1.814454197883605957e+00 1.120932221412658691e+00 -2.202771902084350586e+00
3.130000000000000000e+02 7.696302413940429688e+00 1.353312492370605469e+00 9.359603524208068848e-01 7.647408246994018555e-01 5.102103352546691895e-01 -9.986721277236938477e-01
3.140000000000000000e+02 7.086571216583251953e+00 1.363262772560119629e+00 3.431175649166107178e-01 4.507678449153900146e-01 2.381656318902969360e-01 -3.871049582958221436e-01
3.150000000000000000e+02 6.295311927795410156e+00 1.356781244277954102e+00 -2.586100697517395020e-01 1.876524090766906738e-01 -2.128730341792106628e-02 8.410856127738952637e-02
3.160000000000000000e+02 6.853132724761962891e+00 1.123047709465026855e+00 -3.393712043762207031e-01 2.141737788915634155e-01 -3.755922615528106689e-02 -5.327811092138290405e-02
3.170000000000000000e+02 5.500124454498291016e+00 1.383009076118469238e+00 -4.294469058513641357e-01 9.868048131465911865e-02 -9.922992438077926636e-02 3.118897378444671631e-01
3.180000000000000000e+02 5.101686954498291016e+00 1.365977764129638672e+00 -5.079984068870544434e-01 6.855237483978271484e-02 -1.318338066339492798e-01 3.829667270183563232e-01
3.190000000000000000e+02 4.679098129272460938e+00 1.089977860450744629e+00 -8.113468885421752930e-01 7.468060124665498734e-03 -2.411636561155319214e-01 4.173262417316436768e-01
3.200000000000000000e+02 4.692054748535156250e+00 1.359875679016113281e+00 -5.372406244277954102e-01 3.915961459279060364e-02 -1.494242995977401733e-01 4.376165866851806641e-01
3.210000000000000000e+02 4.073109626770019531e+00 1.115261077880859375e+00 -6.784338355064392090e-01 -3.768695751205086708e-03 -2.046607732772827148e-01 4.425155818462371826e-01
3.220000000000000000e+02 4.261375904083251953e+00 1.089777827262878418e+00 -7.602559328079223633e-01 -4.913365934044122696e-03 -2.295507937669754028e-01 4.375241994857788086e-01
3.230000000000000000e+02 3.370482921600341797e+00 1.137103438377380371e+00 -5.348486304283142090e-01 -3.117453120648860931e-02 -1.698069423437118530e-01 4.529889523983001709e-01
3.240000000000000000e+02 3.355420589447021484e+00 8.239315748214721680e-01 -7.342865467071533203e-01 -1.607058010995388031e-02 -2.251071333885192871e-01 3.697328567504882812e-01
3.250000000000000000e+02 2.907274961471557617e+00 1.331713795661926270e+00 -3.668386042118072510e-01 -5.548112094402313232e-02 -1.266959160566329956e-01 4.659400880336761475e-01
3.260000000000000000e+02 2.497857809066772461e+00 1.363923430442810059e+00 -2.981301248073577881e-01 -8.568127453327178955e-02 -1.151434183120727539e-01 4.421188533306121826e-01
3.270000000000000000e+02 1.712112069129943848e+00 1.357282161712646484e+00 -1.833613812923431396e-01 -1.288007646799087524e-01 -9.364864230155944824e-02 3.572818040847778320e-01
3.280000000000000000e+02 5.158184766769409180e-01 1.148278355598449707e+00 -3.208585828542709351e-02 -1.568801552057266235e-01 -5.668980255722999573e-02 1.196739152073860168e-01
3.290000000000000000e+02 5.066074728965759277e-01 1.382435321807861328e+00 -2.924253791570663452e-02 -1.701528877019882202e-01 -5.981862917542457581e-02 1.325079500675201416e-01
3.300000000000000000e+02 1.299041390419006348e+00 -1.344434380531311035e+00 -3.344910219311714172e-02 -6.731060892343521118e-02 -3.022791258990764618e-02 -1.909807026386260986e-01
3.310000000000000000e+02 1.699975848197937012e+00 -1.355569839477539062e+00 -3.276788070797920227e-02 -2.968169562518596649e-02 -1.873487234115600586e-02 -2.136825025081634521e-01
3.320000000000000000e+02 1.902339577674865723e+00 -1.086406946182250977e+00 -9.335167706012725830e-02 -9.647725149989128113e-03 -3.089982271194458008e-02 -2.071987688541412354e-01
3.330000000000000000e+02 3.901492595672607422e+00 -1.116383552551269531e+00 -1.996058039367198944e-02 8.657277375459671021e-02 1.998365670442581177e-02 -3.705988824367523193e-02
3.340000000000000000e+02 4.295088768005371094e+00 -1.396833062171936035e+00 2.583284080028533936e-01 1.852335631847381592e-01 1.330685913562774658e-01 1.231336519122123718e-01
3.350000000000000000e+02 4.898310184478759766e+00 -1.326452493667602539e+00 4.054324626922607422e-01 1.801935732364654541e-01 1.756878048181533813e-01 2.608674764633178711e-01
3.360000000000000000e+02 5.189235210418701172e+00 -1.027584314346313477e+00 2.332644611597061157e-01 1.230629533529281616e-01 1.068982258439064026e-01 2.003376781940460205e-01
3.370000000000000000e+02 5.320949077606201172e+00 -1.354625225067138672e+00 6.786791086196899414e-01 2.274071425199508667e-01 2.718258798122406006e-01 4.048933684825897217e-01
3.380000000000000000e+02 5.764801025390625000e+00 -1.137822866439819336e+00 7.141572833061218262e-01 2.326398640871047974e-01 2.840391397476196289e-01 4.648716151714324951e-01
3.390000000000000000e+02 7.065707683563232422e+00 -1.340578079223632812e+00 2.320671558380126953e+00 7.575182318687438965e-01 9.234569072723388672e-01 1.606541752815246582e+00
3.400000000000000000e+02 7.867691516876220703e+00 -1.045733809471130371e+00 3.512796163558959961e+00 9.576627612113952637e-01 1.341137647628784180e+00 2.229536771774291992e+00
3.410000000000000000e+02 8.726363182067871094e+00 -1.351821899414062500e+00 5.520368576049804688e+00 4.408990383148193359e+00 2.978807687759399414e+00 5.498845100402832031e+00
3.420000000000000000e+02 9.130440711975097656e+00 -1.369238615036010742e+00 5.482366561889648438e+00 7.506906032562255859e+00 3.896781682968139648e+00 6.861059665679931641e+00
3.430000000000000000e+02 9.318794250488281250e+00 1.382393121719360352e+00 2.642466068267822266e+00 8.038977622985839844e+00 3.204433202743530273e+00 -5.357212543487548828e+00
3.440000000000000000e+02 9.116800308227539062e+00 1.368067383766174316e+00 2.804695129394531250e+00 6.125008583068847656e+00 2.678911209106445312e+00 -4.777984619140625000e+00
3.450000000000000000e+02 7.289333343505859375e+00 1.351579427719116211e+00 5.781902074813842773e-01 5.187278985977172852e-01 3.290754556655883789e-01 -5.623026490211486816e-01
3.460000000000000000e+02 6.666684150695800781e+00 1.139312386512756348e+00 -4.085507094860076904e-01 1.584964841604232788e-01 -7.501626759767532349e-02 2.226590365171432495e-02
3.470000000000000000e+02 5.690845012664794922e+00 1.169502496719360352e+00 -6.932032108306884766e-01 6.261324137449264526e-02 -1.891769915819168091e-01 3.096469640731811523e-01
3.480000000000000000e+02 4.897675514221191406e+00 1.088674783706665039e+00 -8.315094709396362305e-01 2.888119779527187347e-02 -2.407884895801544189e-01 4.113711714744567871e-01
3.490000000000000000e+02 3.899146795272827148e+00 1.380541920661926270e+00 -4.702474474906921387e-01 -4.040733445435762405e-03 -1.422864496707916260e-01 4.876814186573028564e-01
3.500000000000000000e+02 3.887932062149047852e+00 1.137910962104797363e+00 -6.304984688758850098e-01 -9.462919086217880249e-03 -1.919884085655212402e-01 4.527579545974731445e-01
3.510000000000000000e+02 1.941070795059204102e+00 1.156734108924865723e+00 -2.520614564418792725e-01 -9.339243173599243164e-02 -1.036361679434776306e-01 3.586806952953338623e-01
3.520000000000000000e+02 9.954800605773925781e+00 -1.239313125610351562e+00 3.942753791809082031e+00 1.756394577026367188e+01 6.452010154724121094e+00 6.368892669677734375e+00
3.530000000000000000e+02 5.880936145782470703e+00 -3.953866362571716309e-01 -4.597351253032684326e-01 1.199600659310817719e-02 -1.343217343091964722e-01 7.860745489597320557e-02
3.540000000000000000e+02 7.868466854095458984e+00 -4.396730363368988037e-01 1.579501152038574219e+00 9.254697710275650024e-02 5.016144514083862305e-01 6.192907691001892090e-01
3.550000000000000000e+02 8.323198318481445312e+00 4.218527972698211670e-01 -1.599047183990478516e+00 5.503829941153526306e-02 -4.632026553153991699e-01 -1.208914220333099365e-01
3.560000000000000000e+02 7.904225349426269531e+00 4.247169494628906250e-01 -1.978415608406066895e+00 4.387187957763671875e-02 -5.803630948066711426e-01 2.587187848985195160e-02
3.570000000000000000e+02 4.701137542724609375e+00 1.260974556207656860e-01 -1.893339633941650391e+00 7.498168386518955231e-03 -5.657524466514587402e-01 8.612149208784103394e-02
3.580000000000000000e+02 7.303282260894775391e+00 1.354932188987731934e-01 -3.436739683151245117e+00 -8.190315216779708862e-03 -1.033478975296020508e+00 8.099484443664550781e-02
3.590000000000000000e+02 7.303153038024902344e+00 -1.278868615627288818e-01 -4.341127276420593262e-01 -7.063578348606824875e-03 -1.323528885841369629e-01 9.774967283010482788e-02
3.600000000000000000e+02 6.533110141754150391e+00 4.080563485622406006e-01 -2.265181303024291992e+00 1.547289174050092697e-02 -6.749125123023986816e-01 2.049046605825424194e-01
3.610000000000000000e+02 7.104721069335937500e+00 1.325948536396026611e-01 -3.339155197143554688e+00 2.525734342634677887e-02 -9.941693544387817383e-01 9.733691811561584473e-02
3.620000000000000000e+02 8.112528800964355469e+00 4.328442811965942383e-01 -1.784463644027709961e+00 3.582078218460083008e-02 -5.245928764343261719e-01 -1.912900432944297791e-02
3.630000000000000000e+02 8.929835319519042969e+00 -3.179746866226196289e-01 5.139512538909912109e+00 4.874080419540405273e-01 1.688076138496398926e+00 1.805836200714111328e+00
3.640000000000000000e+02 8.596513748168945312e+00 -2.476141005754470825e-01 2.407425403594970703e+00 2.517511248588562012e-01 7.977529168128967285e-01 6.357445120811462402e-01
3.650000000000000000e+02 8.319588661193847656e+00 -1.394328922033309937e-01 8.022226095199584961e-01 -2.081107348203659058e-02 2.344234734773635864e-01 1.558421850204467773e-01
3.660000000000000000e+02 7.896694183349609375e+00 -1.483428627252578735e-01 2.612667679786682129e-01 1.126189753413200378e-01 1.121657267212867737e-01 2.270096242427825928e-01
3.670000000000000000e+02 4.690986156463623047e+00 -1.297260075807571411e-01 -1.021195411682128906e+00 1.256755646318197250e-02 -3.025883734226226807e-01 -1.548918988555669785e-02
3.680000000000000000e+02 2.994648516178131104e-01 3.495013415813446045e-01 -7.229181472212076187e-03 -1.150368340313434601e-02 -5.619859322905540466e-03 4.654090851545333862e-03
3.690000000000000000e+02 2.688107252120971680e+00 -1.198066771030426025e-01 -6.114649176597595215e-01 3.714719496201723814e-04 -1.833280473947525024e-01 -2.960376068949699402e-02
3.700000000000000000e+02 3.072667360305786133e+00 -4.050358831882476807e-01 -5.179160833358764648e-01 1.881163101643323898e-03 -1.548104733228683472e-01 -9.821265935897827148e-02
3.710000000000000000e+02 3.301852226257324219e+00 -4.238827824592590332e-01 -5.488222241401672363e-01 1.227561850100755692e-02 -1.609639823436737061e-01 -9.285695105791091919e-02
3.720000000000000000e+02 3.299222469329833984e+00 1.583903282880783081e-01 -1.042795538902282715e+00 -5.977618639008142054e-05 -3.128565847873687744e-01 9.082116931676864624e-02
3.730000000000000000e+02 3.911753177642822266e+00 1.607409417629241943e-01 -1.399460673332214355e+00 -2.835902851074934006e-04 -4.199232757091522217e-01 9.842096269130706787e-02
3.740000000000000000e+02 2.494956493377685547e+00 1.634936779737472534e-01 -6.182013750076293945e-01 -1.244720653630793095e-03 -1.858338266611099243e-01 8.100997656583786011e-02
3.750000000000000000e+02 3.097318887710571289e+00 1.619818061590194702e-01 -9.255766868591308594e-01 -5.248974077403545380e-03 -2.792477011680603027e-01 8.816186338663101196e-02
3.760000000000000000e+02 3.199888706207275391e+00 6.661611199378967285e-01 -7.520818114280700684e-01 -1.820866763591766357e-02 -2.310871481895446777e-01 3.182461261749267578e-01
3.770000000000000000e+02 3.502358675003051758e+00 -1.408780515193939209e-01 -8.143374919891357422e-01 3.260902361944317818e-03 -2.433229684829711914e-01 -3.500738739967346191e-02
3.780000000000000000e+02 2.450752735137939453e+00 -2.514180839061737061e-01 -4.659787118434906006e-01 -2.556197112426161766e-03 -1.405604779720306396e-01 -7.429379969835281372e-02
3.790000000000000000e+02 1.939509868621826172e+00 -1.946533620357513428e-01 -3.450293242931365967e-01 -3.485194407403469086e-03 -1.045543551445007324e-01 -5.748306587338447571e-02
3.800000000000000000e+02 1.963103652000427246e+00 -5.278034210205078125e-01 -2.600817084312438965e-01 1.865804661065340042e-03 -7.746476680040359497e-02 -1.356613934040069580e-01
3.810000000000000000e+02 6.975221633911132812e-01 -1.828634589910507202e-01 -4.197835922241210938e-02 -6.432689726352691650e-03 -1.452331431210041046e-02 -2.414071559906005859e-02
3.820000000000000000e+02 2.311627268791198730e-01 -3.789996504783630371e-01 -8.740610443055629730e-03 -1.469269115477800369e-02 -7.029990665614604950e-03 -1.245745457708835602e-02
3.830000000000000000e+02 4.852280616760253906e-01 -1.750710308551788330e-01 -1.814445294439792633e-02 -9.477562271058559418e-03 -8.286604657769203186e-03 -1.562193501740694046e-02
3.840000000000000000e+02 1.108332395553588867e+00 -1.638900786638259888e-01 -1.208629161119461060e-01 -3.439574968069791794e-03 -3.729074820876121521e-02 -3.486292064189910889e-02
3.850000000000000000e+02 5.902637958526611328e+00 1.572605222463607788e-01 -2.611925125122070312e+00 2.111021894961595535e-03 -7.829442024230957031e-01 1.064306572079658508e-01
3.860000000000000000e+02 6.129099369049072266e+00 4.393589794635772705e-01 -2.083275079727172852e+00 6.474080495536327362e-03 -6.230403184890747070e-01 2.367898374795913696e-01
3.870000000000000000e+02 4.142144203186035156e+00 4.426609277725219727e-01 -1.263709425926208496e+00 8.516914676874876022e-04 -3.788573443889617920e-01 2.478185892105102539e-01
3.880000000000000000e+02 6.708186626434326172e+00 1.365282684564590454e-01 -3.103221178054809570e+00 4.675655160099267960e-03 -9.295637011528015137e-01 9.636117517948150635e-02
3.890000000000000000e+02 7.697260856628417969e+00 -1.324286907911300659e-01 -1.188436429947614670e-02 -5.548330955207347870e-03 -5.229808390140533447e-03 1.494883149862289429e-01
3.900000000000000000e+02 7.104060173034667969e+00 -1.367662101984024048e-01 -5.725771784782409668e-01 4.227350279688835144e-02 -1.590911000967025757e-01 6.882531940937042236e-02
3.910000000000000000e+02 5.630605220794677734e+00 -8.765625953674316406e-01 2.653771340847015381e-01 1.196534931659698486e-01 1.155091822147369385e-01 2.600261569023132324e-01
3.920000000000000000e+02 5.046647071838378906e+00 -3.743271827697753906e-01 -6.812408566474914551e-01 1.201845053583383560e-02 -2.007667124271392822e-01 1.597706926986575127e-03
3.930000000000000000e+02 4.523074150085449219e+00 3.954443335533142090e-01 -1.506685018539428711e+00 1.178300124593079090e-03 -4.516520202159881592e-01 2.298153191804885864e-01
3.940000000000000000e+02 4.711832046508789062e+00 3.474344015121459961e-01 -1.654840826988220215e+00 -3.465723944827914238e-03 -4.974919855594635010e-01 2.084947079420089722e-01
3.950000000000000000e+02 7.698516368865966797e+00 4.180117547512054443e-01 -2.190792560577392578e+00 5.386231094598770142e-02 -6.410791277885437012e-01 7.150989025831222534e-02
3.960000000000000000e+02 6.700313091278076172e+00 -3.808155059814453125e-01 -2.204236947000026703e-02 3.237842768430709839e-02 3.100817324593663216e-03 1.931057870388031006e-01
3.970000000000000000e+02 6.088542938232421875e+00 -3.830642998218536377e-01 -4.171867668628692627e-01 3.966300562024116516e-02 -1.132571324706077576e-01 1.031631976366043091e-01
3.980000000000000000e+02 4.089779376983642578e+00 -1.334567815065383911e-01 -9.426499009132385254e-01 -1.028722152113914490e-02 -2.858811318874359131e-01 -2.812314964830875397e-02
3.990000000000000000e+02 1.088611483573913574e-01 -1.175893902778625488e+00 -3.641811199486255646e-04 -1.187741458415985107e-01 -3.574149683117866516e-02 -1.824122667312622070e-02
4.000000000000000000e+02 1.197042241692543030e-01 -7.250900864601135254e-01 -7.872028276324272156e-03 -4.371750727295875549e-02 -1.547686010599136353e-02 -1.817766390740871429e-02
4.010000000000000000e+02 3.080295920372009277e-01 1.164847373962402344e+00 5.727180745452642441e-03 -1.173635646700859070e-01 -3.349091485142707825e-02 5.321856588125228882e-02
4.020000000000000000e+02 3.398019671440124512e-01 -9.332243800163269043e-01 -1.875435374677181244e-02 -8.400297909975051880e-02 -3.082720004022121429e-02 -5.691589787602424622e-02
4.030000000000000000e+02 1.505174279212951660e+00 -1.053133010864257812e+00 -8.617334067821502686e-02 -3.361203521490097046e-02 -3.593561425805091858e-02 -1.930067539215087891e-01
4.040000000000000000e+02 9.072464108467102051e-01 -1.675877422094345093e-01 -7.592716068029403687e-02 -3.406405681744217873e-03 -2.380006946623325348e-02 -3.074234910309314728e-02
4.050000000000000000e+02 3.997492194175720215e-01 -4.502246081829071045e-01 -2.559226937592029572e-02 -2.513313852250576019e-02 -1.521762181073427200e-02 -2.967967838048934937e-02
4.060000000000000000e+02 6.008073329925537109e+00 -9.523974061012268066e-01 6.011070609092712402e-01 1.655934303998947144e-01 2.300101518630981445e-01 4.282105863094329834e-01
4.070000000000000000e+02 8.651900291442871094e+00 8.789014220237731934e-01 1.852831125259399414e+00 1.413837552070617676e+00 9.800006151199340820e-01 -2.103415727615356445e+00
4.080000000000000000e+02 1.731535434722900391e+00 7.469242811203002930e-01 -2.697848677635192871e-01 -5.283246561884880066e-02 -9.678520262241363525e-02 2.409762591123580933e-01
4.090000000000000000e+02 3.018066883087158203e-01 9.518908262252807617e-01 -1.493780314922332764e-02 -8.223388344049453735e-02 -2.915150485932826996e-02 5.077122151851654053e-02
4.100000000000000000e+02 6.622801303863525391e+00 9.074098467826843262e-01 -9.863589406013488770e-01 8.431733399629592896e-02 -2.706124782562255859e-01 1.504032164812088013e-01
4.110000000000000000e+02 5.909246444702148438e+00 4.538686871528625488e-01 -1.966720223426818848e+00 -6.957050412893295288e-03 -5.921031832695007324e-01 2.472275793552398682e-01
4.120000000000000000e+02 6.162439823150634766e+00 7.207787036895751953e-01 -1.456405401229858398e+00 2.036747708916664124e-02 -4.308113753795623779e-01 2.561260163784027100e-01
4.130000000000000000e+02 6.994360446929931641e+00 8.569750189781188965e-01 -9.010904431343078613e-01 1.231814697384834290e-01 -2.333726882934570312e-01 6.427003443241119385e-02
4.140000000000000000e+02 5.450508117675781250e+00 -8.567239046096801758e-01 1.513298302888870239e-01 1.044359803199768066e-01 7.672974467277526855e-02 1.865737885236740112e-01
4.150000000000000000e+02 2.871636390686035156e+00 7.811645865440368652e-01 -6.039768457412719727e-01 -2.474360354244709015e-02 -1.886161267757415771e-01 3.367087543010711670e-01
4.160000000000000000e+02 5.379126071929931641e+00 -1.084372639656066895e+00 4.106630980968475342e-01 1.543601453304290771e-01 1.695069670677185059e-01 3.066737055778503418e-01
4.170000000000000000e+02 1.398319959640502930e+00 7.668839693069458008e-01 -1.904937177896499634e-01 -6.189325824379920959e-02 -7.571609318256378174e-02 2.079593241214752197e-01
4.180000000000000000e+02 6.539139270782470703e+00 -7.426691055297851562e-01 6.858770251274108887e-01 1.373591870069503784e-01 2.469708770513534546e-01 4.496802091598510742e-01
4.190000000000000000e+02 8.926049232482910156e+00 1.086104631423950195e+00 3.042183637619018555e+00 3.504690647125244141e+00 1.964062333106994629e+00 -3.864836931228637695e+00
4.200000000000000000e+02 8.306077003479003906e+00 -5.263161063194274902e-01 3.405988693237304688e+00 3.519657254219055176e-01 1.127386331558227539e+00 1.429314136505126953e+00
4.210000000000000000e+02 7.307789921760559082e-01 8.630416393280029297e-01 -6.226122751832008362e-02 -9.624092280864715576e-02 -4.755064472556114197e-02 1.195580661296844482e-01
4.220000000000000000e+02 1.100474834442138672e+00 1.160607099533081055e+00 -1.147789880633354187e-01 -1.266381442546844482e-01 -7.242514193058013916e-02 2.315142899751663208e-01
4.230000000000000000e+02 7.306941032409667969e+00 3.945715725421905518e-01 -2.391937971115112305e+00 4.742226377129554749e-02 -7.033547163009643555e-01 1.578730791807174683e-01
4.240000000000000000e+02 7.039049625396728516e+00 -1.044562935829162598e+00 1.820506215095520020e+00 4.098393917083740234e-01 6.691036820411682129e-01 1.128307700157165527e+00
4.250000000000000000e+02 1.023482680320739746e-01 1.177505373954772949e+00 4.170445725321769714e-03 -8.140400052070617676e-02 -2.317006699740886688e-02 1.940839551389217377e-02
4.260000000000000000e+02 2.894755125045776367e+00 4.842920303344726562e-01 -7.072447538375854492e-01 -1.416539121419191360e-02 -2.164230495691299438e-01 2.357777208089828491e-01
4.270000000000000000e+02 2.489332199096679688e+00 -7.762782573699951172e-01 -2.543885707855224609e-01 1.489858236163854599e-02 -7.184699922800064087e-02 -1.750780791044235229e-01
4.280000000000000000e+02 2.900695800781250000e-01 7.499809861183166504e-01 -1.248622592538595200e-02 -4.630007222294807434e-02 -1.763588935136795044e-02 3.374972566962242126e-02
4.290000000000000000e+02 5.359550952911376953e+00 8.854522109031677246e-01 -1.111013770103454590e+00 1.057046465575695038e-02 -3.301330208778381348e-01 3.581342697143554688e-01
4.300000000000000000e+02 5.542640686035156250e+00 9.272234439849853516e-01 -1.058151364326477051e+00 3.654482588171958923e-02 -3.064819574356079102e-01 3.384803831577301025e-01
4.310000000000000000e+02 2.289767265319824219e+00 4.532178044319152832e-01 -4.812834560871124268e-01 -1.513806451112031937e-02 -1.489264518022537231e-01 1.918021291494369507e-01
4.320000000000000000e+02 5.462149143218994141e+00 -6.578353047370910645e-01 -1.484373062849044800e-01 6.589753180742263794e-02 -2.476193197071552277e-02 1.247243136167526245e-01
4.330000000000000000e+02 2.269171953201293945e+00 -1.086358547210693359e+00 -1.234817728400230408e-01 1.019649300724267960e-02 -3.398558497428894043e-02 -2.006215155124664307e-01
4.340000000000000000e+02 2.378907203674316406e+00 6.428192853927612305e-01 -4.738566279411315918e-01 -2.315152809023857117e-02 -1.491024494171142578e-01 2.672954499721527100e-01
4.350000000000000000e+02 6.141150951385498047e+00 -8.237398862838745117e-01 5.038496255874633789e-01 1.464772224426269531e-01 1.950980573892593384e-01 3.791997134685516357e-01
4.360000000000000000e+02 6.323180675506591797e+00 1.092329025268554688e+00 -7.001795172691345215e-01 9.055157750844955444e-02 -1.828883737325668335e-01 1.772304177284240723e-01
4.370000000000000000e+02 1.305986762046813965e+00 -1.038612484931945801e+00 -7.511741667985916138e-02 -5.842152982950210571e-02 -4.006168246269226074e-02 -1.806734502315521240e-01
4.380000000000000000e+02 8.587377548217773438e+00 -7.035877108573913574e-01 5.256614208221435547e+00 1.155988812446594238e+00 1.923780798912048340e+00 2.879817247390747070e+00
4.390000000000000000e+02 8.888291358947753906e+00 8.244770765304565430e-01 2.619415044784545898e+00 2.086839437484741211e+00 1.411876440048217773e+00 -2.884947538375854492e+00
4.400000000000000000e+02 9.206407070159912109e-01 -9.558174610137939453e-01 -6.040937453508377075e-02 -7.590676844120025635e-02 -4.089484363794326782e-02 -1.422081291675567627e-01
4.410000000000000000e+02 7.071588516235351562e+00 -7.870962619781494141e-01 1.381201386451721191e+00 2.374714016914367676e-01 4.856018424034118652e-01 7.722542285919189453e-01
4.420000000000000000e+02 6.807122230529785156e+00 8.832761049270629883e-01 -9.620957374572753906e-01 8.985804766416549683e-02 -2.616713047027587891e-01 1.137389913201332092e-01
4.430000000000000000e+02 2.893933951854705811e-01 5.528285503387451172e-01 -1.358985062688589096e-02 -2.217053622007369995e-02 -1.072811614722013474e-02 1.423284783959388733e-02
4.440000000000000000e+02 8.357096672058105469e+00 7.064750790596008301e-01 3.547929823398590088e-01 4.721949398517608643e-01 2.480963766574859619e-01 -8.514950275421142578e-01
4.450000000000000000e+02 8.270479202270507812e+00 -1.023632287979125977e+00 4.600625514984130859e+00 1.560460329055786133e+00 1.848325729370117188e+00 3.128623485565185547e+00
4.460000000000000000e+02 7.560356140136718750e+00 -5.348212122917175293e-01 1.459017872810363770e+00 1.920423507690429688e-01 4.953180551528930664e-01 6.511130928993225098e-01
4.470000000000000000e+02 7.259362220764160156e+00 1.051796913146972656e+00 -2.642758190631866455e-01 2.812563776969909668e-01 5.094166845083236694e-03 -2.251335978507995605e-01
4.480000000000000000e+02 7.634734630584716797e+00 -7.674847245216369629e-01 2.300352096557617188e+00 3.415634334087371826e-01 7.925746440887451172e-01 1.177595853805541992e+00
4.490000000000000000e+02 7.500674247741699219e+00 -1.233047172427177429e-01 -2.445723712444305420e-01 3.994107246398925781e-02 -6.138939037919044495e-02 1.220271214842796326e-01
4.500000000000000000e+02 8.504671096801757812e+00 -5.204694271087646484e-01 4.139439105987548828e+00 7.451154589653015137e-01 1.465366482734680176e+00 1.878825664520263672e+00
4.510000000000000000e+02 8.111049652099609375e+00 1.055274009704589844e+00 1.015490174293518066e+00 8.310336470603942871e-01 5.539571642875671387e-01 -1.207076430320739746e+00
4.520000000000000000e+02 7.257553100585937500e+00 -1.072890400886535645e+00 2.250070333480834961e+00 5.942149162292480469e-01 8.532855510711669922e-01 1.420978665351867676e+00
4.530000000000000000e+02 7.485047340393066406e+00 1.028296947479248047e+00 -3.914675861597061157e-02 3.001365065574645996e-01 7.829692214727401733e-02 -3.701708614826202393e-01
4.540000000000000000e+02 7.503221988677978516e+00 -3.444402813911437988e-01 5.398964285850524902e-01 1.714559458196163177e-02 1.671126186847686768e-01 3.216852545738220215e-01
4.550000000000000000e+02 7.271910309791564941e-01 -4.768870770931243896e-01 -5.597006529569625854e-02 -2.596695348620414734e-02 -2.458110637962818146e-02 -6.672300398349761963e-02
4.560000000000000000e+02 5.073539614677429199e-01 3.733407557010650635e-01 -2.107427269220352173e-02 -1.695976965129375458e-02 -1.141021214425563812e-02 1.887085847556591034e-02
4.570000000000000000e+02 5.345447063446044922e-01 -5.940663814544677734e-01 -3.190422430634498596e-02 -4.193465411663055420e-02 -2.215166389942169189e-02 -5.764890462160110474e-02
4.580000000000000000e+02 8.786366462707519531e+00 -1.085190057754516602e+00 6.016094684600830078e+00 3.758384227752685547e+00 2.932343721389770508e+00 5.225074768066406250e+00
4.590000000000000000e+02 8.593629837036132812e+00 -1.034714937210083008e+00 5.607356548309326172e+00 2.429429054260253906e+00 2.411035776138305664e+00 4.246243000030517578e+00
4.600000000000000000e+02 6.814255237579345703e+00 -9.600764513015747070e-01 1.412612080574035645e+00 3.151454627513885498e-01 5.183272361755371094e-01 8.624917864799499512e-01
4.610000000000000000e+02 6.570720672607421875e+00 6.667274236679077148e-01 -1.584841370582580566e+00 2.071560733020305634e-02 -4.692377150058746338e-01 2.314579784870147705e-01
4.620000000000000000e+02 1.317675113677978516e+00 -7.443127632141113281e-01 -1.156626492738723755e-01 -2.633365429937839508e-02 -4.259889200329780579e-02 -1.483450829982757568e-01
4.630000000000000000e+02 1.223283410072326660e+00 8.314480781555175781e-01 -1.505066305398941040e-01 -8.273587375879287720e-02 -6.997275352478027344e-02 1.966904252767562866e-01
4.640000000000000000e+02 1.124009132385253906e+00 9.628332853317260742e-01 -1.316851228475570679e-01 -1.037032008171081543e-01 -7.061649113893508911e-02 2.092437148094177246e-01
4.650000000000000000e+02 1.105970025062561035e+00 -1.018557906150817871e+00 -5.701104924082756042e-02 -5.692392587661743164e-02 -3.418049216270446777e-02 -1.587117910385131836e-01
4.660000000000000000e+02 6.378637790679931641e+00 -9.857322573661804199e-01 9.910752773284912109e-01 2.283597886562347412e-01 3.658305108547210693e-01 6.310476660728454590e-01
4.670000000000000000e+02 5.866957187652587891e+00 1.163851737976074219e+00 -6.575581431388854980e-01 6.885909289121627808e-02 -1.766097247600555420e-01 2.725907564163208008e-01
4.680000000000000000e+02 1.514773011207580566e+00 -7.613509893417358398e-01 -1.394843757152557373e-01 -2.997102774679660797e-02 -5.083661898970603943e-02 -1.632239222526550293e-01
4.690000000000000000e+02 1.444802045822143555e+00 9.431028366088867188e-01 -1.873457431793212891e-01 -8.650101721286773682e-02 -8.215402811765670776e-02 2.469701021909713745e-01
4.700000000000000000e+02 5.619352817535400391e+00 7.003617882728576660e-01 -1.459655642509460449e+00 -2.351665898459032178e-04 -4.379672408103942871e-01 3.080769479274749756e-01
4.710000000000000000e+02 5.872273445129394531e+00 -6.479326486587524414e-01 2.338599786162376404e-02 8.609992265701293945e-02 3.284577652812004089e-02 1.978312879800796509e-01
4.720000000000000000e+02 1.927343726158142090e+00 -8.159897327423095703e-01 -1.839642077684402466e-01 -1.196048501878976822e-02 -5.877741053700447083e-02 -1.837060302495956421e-01
4.730000000000000000e+02 1.836697220802307129e+00 4.731300473213195801e-01 -3.220553696155548096e-01 -2.324440516531467438e-02 -1.035899296402931213e-01 1.744028329849243164e-01
4.740000000000000000e+02 4.484950065612792969e+00 -4.092569947242736816e-01 -6.611939072608947754e-01 2.062575146555900574e-02 -1.921704411506652832e-01 -3.080936335027217865e-02
4.750000000000000000e+02 5.682041645050048828e+00 4.423465132713317871e-01 -1.911809086799621582e+00 -5.855359602719545364e-03 -5.752993226051330566e-01 2.397601157426834106e-01
4.760000000000000000e+02 2.226099729537963867e+00 -6.453637480735778809e-01 -2.730147540569305420e-01 -7.758050342090427876e-04 -8.213716745376586914e-02 -1.559884250164031982e-01
4.770000000000000000e+02 2.478810548782348633e+00 4.491901397705078125e-01 -5.575267672538757324e-01 -1.435826718807220459e-02 -1.715655028820037842e-01 1.978730410337448120e-01
4.780000000000000000e+02 5.702065944671630859e+00 9.720186591148376465e-01 -1.018618226051330566e+00 2.610359154641628265e-02 -2.977543771266937256e-01 3.261362910270690918e-01
4.790000000000000000e+02 9.861344695091247559e-01 4.200553297996520996e-01 -9.930353611707687378e-02 -2.540340274572372437e-02 -3.741208091378211975e-02 8.034881204366683960e-02
4.800000000000000000e+02 6.865882396697998047e+00 -6.946779489517211914e-01 9.443129301071166992e-01 1.315128356218338013e-01 3.227477371692657471e-01 5.498747229576110840e-01
4.810000000000000000e+02 2.091331005096435547e+00 -1.111598134040832520e+00 -1.059893444180488586e-01 8.712764247320592403e-04 -3.153542056679725647e-02 -1.973466277122497559e-01
4.820000000000000000e+02 7.375257492065429688e+00 -5.870767831802368164e-01 1.315669894218444824e+00 1.371146738529205322e-01 4.358353614807128906e-01 6.433253884315490723e-01
4.830000000000000000e+02 8.118208885192871094e+00 7.375722527503967285e-01 -9.739221632480621338e-02 3.049058020114898682e-01 6.225407868623733521e-02 -5.835679769515991211e-01
4.840000000000000000e+02 7.182654380798339844e+00 8.083785176277160645e-01 -9.428102374076843262e-01 1.032005026936531067e-01 -2.518829107284545898e-01 2.894406393170356750e-02
4.850000000000000000e+02 8.061659812927246094e+00 -7.544200420379638672e-01 3.410333633422851562e+00 5.556536316871643066e-01 1.189796209335327148e+00 1.752821207046508789e+00
4.860000000000000000e+02 2.288366317749023438e+00 1.105708003044128418e+00 -3.305810987949371338e-01 -7.181168347597122192e-02 -1.207178309559822083e-01 3.790703415870666504e-01
4.870000000000000000e+02 1.893611550331115723e+00 8.765718936920166016e-01 -3.007133901119232178e-01 -5.270439758896827698e-02 -1.060253381729125977e-01 2.822875380516052246e-01
4.880000000000000000e+02 5.572792530059814453e+00 -1.114845037460327148e+00 5.807347297668457031e-01 1.813113391399383545e-01 2.286138236522674561e-01 3.639308512210845947e-01
4.890000000000000000e+02 3.494744300842285156e+00 -7.762568593025207520e-01 -3.189321160316467285e-01 2.735936269164085388e-02 -8.747182786464691162e-02 -1.033611595630645752e-01
4.900000000000000000e+02 4.491045475006103516e+00 -1.396871507167816162e-01 -1.001686930656433105e+00 -4.402551800012588501e-03 -3.018268346786499023e-01 -2.334327436983585358e-02
4.910000000000000000e+02 6.093074798583984375e+00 -6.247726082801818848e-01 1.099360287189483643e-01 5.642659589648246765e-02 4.990878701210021973e-02 2.300057262182235718e-01
4.920000000000000000e+02 1.616156101226806641e+00 4.187647104263305664e-01 -2.498153299093246460e-01 -2.601643279194831848e-02 -8.274953067302703857e-02 1.396067738533020020e-01
4.930000000000000000e+02 8.265336036682128906e+00 -7.771984934806823730e-01 4.013691902160644531e+00 8.581812977790832520e-01 1.461562037467956543e+00 2.230458736419677734e+00
4.940000000000000000e+02 3.040254831314086914e+00 -6.597338318824768066e-01 -3.618026077747344971e-01 1.415267866104841232e-02 -1.042949780821800232e-01 -1.342631578445434570e-01
4.950000000000000000e+02 3.182293653488159180e+00 -1.286990880966186523e+00 2.483301330357789993e-03 9.003514051437377930e-02 2.775553241372108459e-02 -1.165490299463272095e-01
4.960000000000000000e+02 3.700124979019165039e+00 -8.394787311553955078e-01 -2.635793685913085938e-01 3.565599769353866577e-02 -6.837701797485351562e-02 -9.326466917991638184e-02
4.970000000000000000e+02 3.234292745590209961e+00 -8.975617885589599609e-01 -2.365149706602096558e-01 3.179052099585533142e-02 -6.141733750700950623e-02 -1.241978928446769714e-01
4.980000000000000000e+02 4.274090766906738281e+00 6.616340279579162598e-01 -1.127008676528930664e+00 -9.537087753415107727e-03 -3.409637212753295898e-01 3.279630243778228760e-01
4.990000000000000000e+02 4.685798168182373047e+00 8.589065670967102051e-01 -1.038080215454101562e+00 1.726559177041053772e-02 -3.062443733215332031e-01 4.040625095367431641e-01
5.000000000000000000e+02 4.787053108215332031e+00 -5.285969376564025879e-01 -4.878355860710144043e-01 1.756158284842967987e-02 -1.410821974277496338e-01 2.598502440378069878e-03
5.010000000000000000e+02 5.083986759185791016e+00 3.485971391201019287e-01 -1.836267590522766113e+00 -7.754336111247539520e-04 -5.511128902435302734e-01 2.000509202480316162e-01
5.020000000000000000e+02 3.631146907806396484e+00 8.523319959640502930e-01 -7.807416915893554688e-01 -1.690713316202163696e-02 -2.392946481704711914e-01 3.978768885135650635e-01
5.030000000000000000e+02 4.899170875549316406e+00 1.217303648591041565e-01 -2.022643804550170898e+00 -5.327143240720033646e-03 -6.083912849426269531e-01 8.268890529870986938e-02
5.040000000000000000e+02 4.058701515197753906e+00 -3.757579624652862549e-01 -6.855934858322143555e-01 9.712843224406242371e-03 -2.027641981840133667e-01 -5.836803838610649109e-02
5.050000000000000000e+02 4.264520168304443359e+00 -4.013584554195404053e-01 -6.599135994911193848e-01 9.656334295868873596e-03 -1.950771808624267578e-01 -4.631787165999412537e-02
5.060000000000000000e+02 3.877544403076171875e+00 -3.376358151435852051e-01 -6.976741552352905273e-01 2.395269926637411118e-03 -2.085836678743362427e-01 -6.551390141248703003e-02
5.070000000000000000e+02 3.712341070175170898e+00 1.157479882240295410e+00 -5.830981731414794922e-01 -1.483178138732910156e-02 -1.793789863586425781e-01 4.589953124523162842e-01
5.080000000000000000e+02 4.289303779602050781e+00 -1.402549445629119873e-01 -9.757114052772521973e-01 9.563224390149116516e-03 -2.898444533348083496e-01 -2.643597312271595001e-02
5.090000000000000000e+02 7.154691219329833984e-01 1.531558632850646973e-01 -1.914051361382007599e-02 -9.831257630139589310e-04 -6.037091836333274841e-03 1.413894165307283401e-02
5.100000000000000000e+02 1.283971667289733887e+00 1.132958233356475830e-01 -1.287868469953536987e-01 -2.125862520188093185e-03 -3.927381336688995361e-02 2.958323247730731964e-02
5.110000000000000000e+02 1.194373726844787598e+00 2.879570126533508301e-01 -1.338149607181549072e-01 -1.377049181610345840e-02 -4.427563399076461792e-02 7.546725869178771973e-02
5.120000000000000000e+02 1.338330149650573730e+00 5.902330279350280762e-01 -1.749070286750793457e-01 -3.835710883140563965e-02 -6.397923827171325684e-02 1.461937576532363892e-01
5.130000000000000000e+02 2.866396605968475342e-01 -1.433311402797698975e-01 -3.623162396252155304e-03 -5.518700461834669113e-03 -2.742558950558304787e-03 -3.914846107363700867e-03
5.140000000000000000e+02 9.295687675476074219e-01 -4.499128460884094238e-01 -8.908537030220031738e-02 -1.845830306410789490e-02 -3.226310014724731445e-02 -7.866206765174865723e-02
5.150000000000000000e+02 1.123660087585449219e+00 -4.487942457199096680e-01 -1.142011806368827820e-01 -1.432973146438598633e-02 -3.855927288532257080e-02 -9.163498133420944214e-02
5.160000000000000000e+02 1.509488821029663086e+00 -1.704776585102081299e-01 -2.235411405563354492e-01 -6.702077575027942657e-03 -6.907296180725097656e-02 -4.456908628344535828e-02
5.170000000000000000e+02 1.318691968917846680e+00 -4.570011496543884277e-01 -1.526018530130386353e-01 -1.673715002834796906e-02 -5.080170184373855591e-02 -1.054983884096145630e-01
5.180000000000000000e+02 1.519290566444396973e+00 -4.702608585357666016e-01 -1.880619525909423828e-01 -9.025471284985542297e-03 -5.912622809410095215e-02 -1.160089299082756042e-01
5.190000000000000000e+02 2.330801010131835938e+00 -1.092834845185279846e-01 -4.860419332981109619e-01 8.511023595929145813e-03 -1.432592719793319702e-01 -3.343371301889419556e-02
5.200000000000000000e+02 2.330002546310424805e+00 -4.076521396636962891e-01 -3.744925558567047119e-01 5.477346479892730713e-03 -1.107045635581016541e-01 -1.172440573573112488e-01
5.210000000000000000e+02 2.854635238647460938e+00 -3.763575851917266846e-01 -5.032526850700378418e-01 -8.854172774590551853e-04 -1.512414366006851196e-01 -9.875581413507461548e-02
5.220000000000000000e+02 2.888637542724609375e+00 -1.353092640638351440e-01 -6.620023846626281738e-01 -8.244920521974563599e-03 -2.010741829872131348e-01 -3.736823797225952148e-02
5.230000000000000000e+02 3.525556325912475586e+00 -4.008805751800537109e-01 -6.000018119812011719e-01 3.881618904415518045e-04 -1.798841059207916260e-01 -8.365127444267272949e-02
5.240000000000000000e+02 3.712824344635009766e+00 -3.425129950046539307e-01 -6.746271252632141113e-01 1.304455008357763290e-02 -1.984747648239135742e-01 -6.541946530342102051e-02
5.250000000000000000e+02 3.153147101402282715e-01 -1.170158624649047852e+00 1.891160383820533752e-02 -1.319364011287689209e-01 -3.390743955969810486e-02 -6.403180956840515137e-02
5.260000000000000000e+02 1.098998665809631348e+00 1.383973240852355957e+00 -9.846094250679016113e-02 -1.763340234756469727e-01 -8.243849128484725952e-02 2.631753981113433838e-01
5.270000000000000000e+02 9.132696986198425293e-01 1.139184236526489258e+00 -7.676958292722702026e-02 -1.529738306999206543e-01 -6.892301887273788452e-02 1.972095817327499390e-01
5.280000000000000000e+02 1.297700524330139160e+00 1.380959510803222656e+00 -1.259754002094268799e-01 -1.569577902555465698e-01 -8.487995713949203491e-02 2.968224287033081055e-01
5.290000000000000000e+02 2.104677677154541016e+00 1.142934083938598633e+00 -2.884076535701751709e-01 -7.886927574872970581e-02 -1.101830825209617615e-01 3.724509775638580322e-01
5.300000000000000000e+02 2.105922222137451172e+00 1.380057573318481445e+00 -2.399396151304244995e-01 -1.068251654505729675e-01 -1.040294319391250610e-01 4.144497215747833252e-01
5.310000000000000000e+02 2.472120761871337891e+00 8.260114192962646484e-01 -4.609242975711822510e-01 -3.670919686555862427e-02 -1.492900550365447998e-01 3.319550156593322754e-01
5.320000000000000000e+02 2.684350728988647461e+00 1.070449829101562500e+00 -4.282118976116180420e-01 -4.870759695768356323e-02 -1.430758535861968994e-01 4.183586239814758301e-01
5.330000000000000000e+02 5.014388561248779297e-01 -1.180073738098144531e+00 -2.599690295755863190e-02 -1.351175457239151001e-01 -4.833433404564857483e-02 -1.073299795389175415e-01
5.340000000000000000e+02 1.898589730262756348e+00 -1.361667275428771973e+00 -4.368312284350395203e-02 -1.222374103963375092e-02 -1.677205972373485565e-02 -2.059581279754638672e-01
5.350000000000000000e+02 2.706937789916992188e+00 -1.351746082305908203e+00 -3.069817461073398590e-02 5.281438678503036499e-02 6.634863559156656265e-03 -1.597154587507247925e-01
5.360000000000000000e+02 3.278998136520385742e+00 -1.419653534889221191e+00 6.006035581231117249e-02 1.007140874862670898e-01 4.823233187198638916e-02 -9.496176242828369141e-02
5.370000000000000000e+02 3.459973573684692383e+00 -1.375302791595458984e+00 5.431278795003890991e-02 1.136618629097938538e-01 5.039239674806594849e-02 -5.524919554591178894e-02
5.380000000000000000e+02 3.894383430480957031e+00 -1.369561672210693359e+00 1.549630910158157349e-01 1.226878240704536438e-01 8.329527825117111206e-02 5.167533643543720245e-03
5.390000000000000000e+02 4.101588249206542969e+00 -1.380870103836059570e+00 2.148869186639785767e-01 1.497365534305572510e-01 1.093870401382446289e-01 5.507926642894744873e-02
5.400000000000000000e+02 4.473862648010253906e+00 -1.373406052589416504e+00 2.997793555259704590e-01 1.731323301792144775e-01 1.418735086917877197e-01 1.551036089658737183e-01
5.410000000000000000e+02 4.413926601409912109e+00 -9.825900197029113770e-01 -3.477924317121505737e-02 8.183292299509048462e-02 1.411610469222068787e-02 3.357880935072898865e-02
5.420000000000000000e+02 4.651007652282714844e+00 -1.034792780876159668e+00 9.440691769123077393e-02 9.496510028839111328e-02 5.681160464882850647e-02 8.958457410335540771e-02
5.430000000000000000e+02 2.698109626770019531e+00 1.353659868240356445e+00 -3.238989114761352539e-01 -6.816592812538146973e-02 -1.176194474101066589e-01 4.543327689170837402e-01
5.440000000000000000e+02 3.203837871551513672e+00 1.046766161918640137e+00 -5.506781339645385742e-01 -3.536675125360488892e-02 -1.758134514093399048e-01 4.301570355892181396e-01
5.450000000000000000e+02 3.536650180816650391e+00 1.156954050064086914e+00 -5.562586188316345215e-01 -2.589216642081737518e-02 -1.746452450752258301e-01 4.647692441940307617e-01
5.460000000000000000e+02 3.511688947677612305e+00 1.383489131927490234e+00 -4.355626106262207031e-01 -2.109730988740921021e-02 -1.369979828596115112e-01 4.860010445117950439e-01
5.470000000000000000e+02 4.290624618530273438e+00 1.364819407463073730e+00 -5.135982632637023926e-01 1.575210876762866974e-02 -1.493538320064544678e-01 4.688363671302795410e-01
5.480000000000000000e+02 4.488964080810546875e+00 1.358513236045837402e+00 -5.303669571876525879e-01 2.176108583807945251e-02 -1.525817662477493286e-01 4.494228363037109375e-01
5.490000000000000000e+02 4.898042678833007812e+00 1.361506700515747070e+00 -5.290084481239318848e-01 4.359816014766693115e-02 -1.456230878829956055e-01 4.080388545989990234e-01
5.500000000000000000e+02 5.317640781402587891e+00 1.127145648002624512e+00 -7.833496332168579102e-01 4.791817441582679749e-02 -2.206294387578964233e-01 3.686576187610626221e-01
5.510000000000000000e+02 5.302229404449462891e+00 1.374965667724609375e+00 -4.778961837291717529e-01 7.261901348829269409e-02 -1.215831488370895386e-01 3.417494893074035645e-01
5.520000000000000000e+02 6.038267612457275391e+00 1.127481818199157715e+00 -6.806927919387817383e-01 9.513203799724578857e-02 -1.756682246923446655e-01 2.504052519798278809e-01
5.530000000000000000e+02 5.891308784484863281e+00 1.382144212722778320e+00 -3.487077057361602783e-01 1.428319513797760010e-01 -6.176272407174110413e-02 1.947070509195327759e-01
5.540000000000000000e+02 5.990163803100585938e+00 9.407597780227661133e-01 -1.065915107727050781e+00 3.253532573580741882e-02 -3.100139200687408447e-01 2.856501340866088867e-01
5.550000000000000000e+02 6.492058277130126953e+00 1.148414731025695801e+00 -4.726607501506805420e-01 1.613374650478363037e-01 -9.339698404073715210e-02 9.119165688753128052e-02
5.560000000000000000e+02 6.495021343231201172e+00 1.377065539360046387e+00 -1.288666427135467529e-01 2.353361845016479492e-01 3.194086626172065735e-02 -2.386658638715744019e-02
5.570000000000000000e+02 6.886942863464355469e+00 1.372913599014282227e+00 1.594670861959457397e-01 3.524763286113739014e-01 1.535830199718475342e-01 -2.581023871898651123e-01
5.580000000000000000e+02 7.049162387847900391e+00 1.097934365272521973e+00 -2.946680486202239990e-01 2.449533194303512573e-01 -1.491442136466503143e-02 -1.370464712381362915e-01
5.590000000000000000e+02 7.699464797973632812e+00 1.070272088050842285e+00 3.352910578250885010e-01 4.754596650600433350e-01 2.432252168655395508e-01 -6.264223456382751465e-01
5.600000000000000000e+02 7.895280361175537109e+00 1.076510429382324219e+00 6.700177788734436035e-01 5.748419165611267090e-01 3.734578788280487061e-01 -8.801147341728210449e-01
5.610000000000000000e+02 8.438706398010253906e+00 9.416235089302062988e-01 1.407759785652160645e+00 1.067956447601318359e+00 7.427148818969726562e-01 -1.659986734390258789e+00
5.620000000000000000e+02 8.499334335327148438e+00 1.141542434692382812e+00 2.122697353363037109e+00 1.866244196891784668e+00 1.196682453155517578e+00 -2.357180118560791016e+00
5.630000000000000000e+02 8.500323295593261719e+00 1.375605583190917969e+00 2.257128000259399414e+00 2.441165924072265625e+00 1.409488201141357422e+00 -2.758889913558959961e+00
5.640000000000000000e+02 9.372192382812500000e+00 1.157221794128417969e+00 3.139429092407226562e+00 8.275691032409667969e+00 3.424535989761352539e+00 -5.853978633880615234e+00
5.650000000000000000e+02 1.009897041320800781e+01 1.360965251922607422e+00 9.326198101043701172e-01 1.718374633789062500e+01 5.434909820556640625e+00 -3.522522687911987305e+00
5.660000000000000000e+02 1.029183864593505859e+01 1.070809483528137207e+00 1.457148551940917969e+00 2.116472816467285156e+01 6.786562919616699219e+00 -1.634898662567138672e+00
5.670000000000000000e+02 1.094621753692626953e+01 1.065440058708190918e+00 3.861189603805541992e+00 1.877719116210937500e+01 6.791513919830322266e+00 2.785278081893920898e+00
5.680000000000000000e+02 1.105038261413574219e+01 9.287655949592590332e-01 5.690849304199218750e+00 1.850782966613769531e+01 7.259603977203369141e+00 3.772439002990722656e+00
5.690000000000000000e+02 1.134867191314697266e+01 4.438386559486389160e-01 1.012771987915039062e+01 1.576008892059326172e+01 7.766342639923095703e+00 3.589523792266845703e+00
5.700000000000000000e+02 1.137658119201660156e+01 1.111932620406150818e-01 1.162560653686523438e+01 1.507312297821044922e+01 8.009618759155273438e+00 2.187565326690673828e+00
5.710000000000000000e+02 1.135768222808837891e+01 -8.660465478897094727e-02 1.207959842681884766e+01 1.504810714721679688e+01 8.138311386108398438e+00 1.170196533203125000e+00
5.720000000000000000e+02 1.114956474304199219e+01 -7.495307922363281250e-01 9.203277587890625000e+00 1.706764984130859375e+01 7.881278038024902344e+00 -1.415555238723754883e+00
5.730000000000000000e+02 1.055389499664306641e+01 -9.605528712272644043e-01 5.830166816711425781e+00 2.198547935485839844e+01 8.344693183898925781e+00 5.707306265830993652e-01
5.740000000000000000e+02 9.789915084838867188e+00 -1.310788512229919434e+00 4.177370071411132812e+00 1.537887954711914062e+01 5.866874694824218750e+00 7.119731903076171875e+00
5.750000000000000000e+02 9.878663063049316406e+00 -1.433499455451965332e+00 3.418066263198852539e+00 1.603634834289550781e+01 5.836324691772460938e+00 6.244349002838134766e+00
5.760000000000000000e+02 9.613013267517089844e+00 -1.223307251930236816e+00 5.171164512634277344e+00 1.330399227142333984e+01 5.542547225952148438e+00 7.862834453582763672e+00
5.770000000000000000e+02 9.401084899902343750e+00 -1.164552330970764160e+00 6.189920902252197266e+00 1.002179050445556641e+01 4.863513469696044922e+00 8.002285957336425781e+00
5.780000000000000000e+02 9.330183982849121094e+00 -1.384363412857055664e+00 5.162510871887207031e+00 9.586580276489257812e+00 4.424727439880371094e+00 7.319539070129394531e+00
5.790000000000000000e+02 8.930303573608398438e+00 -1.360448479652404785e+00 5.572516441345214844e+00 5.904321193695068359e+00 3.443051338195800781e+00 6.243762493133544922e+00
5.800000000000000000e+02 8.432847976684570312e+00 -8.934742808341979980e-01 4.845435619354248047e+00 1.533706903457641602e+00 1.913742780685424805e+00 3.102766036987304688e+00
5.810000000000000000e+02 7.889681339263916016e+00 -1.347106099128723145e+00 3.772185325622558594e+00 1.673615574836730957e+00 1.633740305900573730e+00 2.960304975509643555e+00
5.820000000000000000e+02 7.666182994842529297e+00 -1.057257175445556641e+00 3.124283552169799805e+00 8.023985028266906738e-01 1.178004622459411621e+00 1.925741553306579590e+00
5.830000000000000000e+02 7.463826179504394531e+00 -1.071149468421936035e+00 2.655055046081542969e+00 6.074293255805969238e-01 9.787452816963195801e-01 1.601718544960021973e+00
5.840000000000000000e+02 7.487630367279052734e+00 -1.353373289108276367e+00 3.029304504394531250e+00 1.100006103515625000e+00 1.238793134689331055e+00 2.200980424880981445e+00
5.850000000000000000e+02 6.558133602142333984e+00 -1.260167956352233887e+00 1.608986258506774902e+00 4.370586872100830078e-01 6.138134598731994629e-01 1.053982019424438477e+00
5.860000000000000000e+02 6.502818107604980469e+00 -1.416561841964721680e+00 1.625813007354736328e+00 5.288653373718261719e-01 6.464034914970397949e-01 1.105050921440124512e+00
5.870000000000000000e+02 5.915615558624267578e+00 -1.386669874191284180e+00 1.131927967071533203e+00 3.790269196033477783e-01 4.532864689826965332e-01 7.386419773101806641e-01
5.880000000000000000e+02 6.147385597229003906e+00 -1.184150934219360352e+00 1.059474468231201172e+00 2.991582751274108887e-01 4.075897932052612305e-01 6.835642457008361816e-01
5.890000000000000000e+02 5.952733516693115234e+00 -1.164222836494445801e+00 8.764720559120178223e-01 2.416540682315826416e-01 3.354378342628479004e-01 5.604091286659240723e-01
5.900000000000000000e+02 2.070889949798583984e+00 4.941557049751281738e-01 -4.012365341186523438e-01 -1.795838586986064911e-02 -1.257584691047668457e-01 1.979659944772720337e-01
5.910000000000000000e+02 4.889294624328613281e+00 -1.243731975555419922e-01 -1.031679272651672363e+00 -7.755619939416646957e-03 -3.118304908275604248e-01 -1.279484946280717850e-02
5.920000000000000000e+02 5.086661815643310547e+00 -1.319323629140853882e-01 -1.039388418197631836e+00 8.071790449321269989e-03 -3.093949854373931885e-01 -1.078728027641773224e-02
5.930000000000000000e+02 5.283787727355957031e+00 -1.421496123075485229e-01 -1.039731264114379883e+00 -1.886993064545094967e-03 -3.124854862689971924e-01 -7.020005956292152405e-03
5.940000000000000000e+02 5.454619407653808594e+00 -4.220358133316040039e-01 -5.122509598731994629e-01 9.477332234382629395e-03 -1.508320868015289307e-01 3.889883309602737427e-02
5.950000000000000000e+02 5.032251358032226562e+00 -9.147278070449829102e-01 7.381885498762130737e-02 8.969727158546447754e-02 4.905483871698379517e-02 1.353257000446319580e-01
5.960000000000000000e+02 5.672704696655273438e+00 -4.032779037952423096e-01 -4.927977621555328369e-01 3.223995864391326904e-02 -1.381673365831375122e-01 5.768629908561706543e-02
5.970000000000000000e+02 5.689333438873291016e+00 -1.425580382347106934e-01 -1.010100126266479492e+00 -4.190304782241582870e-03 -3.042871356010437012e-01 7.697851397097110748e-03
5.980000000000000000e+02 6.094984531402587891e+00 -1.345948725938796997e-01 -9.440325498580932617e-01 -3.481161082163453102e-03 -2.842541038990020752e-01 1.901564188301563263e-02
5.990000000000000000e+02 6.499288082122802734e+00 -3.624794781208038330e-01 -2.272272557020187378e-01 3.623011708259582520e-02 -5.729914084076881409e-02 1.533726155757904053e-01
6.000000000000000000e+02 6.500439167022705078e+00 -1.290287375450134277e-01 -8.339389562606811523e-01 -1.488456968218088150e-03 -2.506282329559326172e-01 3.445842489600181580e-02
6.010000000000000000e+02 6.907692909240722656e+00 -4.148274362087249756e-01 2.443940639495849609e-01 6.465396285057067871e-02 9.271440654993057251e-02 2.771737575531005859e-01
6.020000000000000000e+02 6.903815746307373047e+00 -1.389468610286712646e-01 -6.689708828926086426e-01 -1.569035276770591736e-02 -2.053983658552169800e-01 5.239222571253776550e-02
6.030000000000000000e+02 7.121029853820800781e+00 -4.067460894584655762e-01 4.187550842761993408e-01 3.359951823949813843e-02 1.357063800096511841e-01 3.012882769107818604e-01
6.040000000000000000e+02 7.673297882080078125e+00 -3.812748491764068604e-01 1.051341533660888672e+00 1.682281047105789185e-01 3.658708930015563965e-01 5.250909924507141113e-01
6.050000000000000000e+02 8.090831756591796875e+00 -4.654213786125183105e-01 2.402044296264648438e+00 2.148129642009735107e-01 7.850571870803833008e-01 9.435136914253234863e-01
6.060000000000000000e+02 8.513357162475585938e+00 -9.385216236114501953e-02 1.050079941749572754e+00 -4.184468183666467667e-03 3.137686252593994141e-01 1.271641254425048828e-01
6.070000000000000000e+02 8.694006919860839844e+00 -9.929644316434860229e-02 1.673134565353393555e+00 1.985727548599243164e-01 5.615121722221374512e-01 3.713053166866302490e-01
6.080000000000000000e+02 8.780900955200195312e+00 -5.805974006652832031e-01 5.925353527069091797e+00 1.246656775474548340e+00 2.151602983474731445e+00 2.945327758789062500e+00
6.090000000000000000e+02 9.002408027648925781e+00 -5.003924965858459473e-01 7.096399307250976562e+00 1.422547817230224609e+00 2.555684089660644531e+00 3.625473976135253906e+00
6.100000000000000000e+02 2.677865982055664062e+00 4.797182679176330566e-01 -6.193379163742065430e-01 -1.440108101814985275e-02 -1.901216953992843628e-01 2.204634696245193481e-01
6.110000000000000000e+02 3.502223491668701172e+00 1.595564931631088257e-01 -1.158777475357055664e+00 -4.371964838355779648e-03 -3.489448130130767822e-01 9.331672638654708862e-02
6.120000000000000000e+02 4.110939979553222656e+00 1.544675827026367188e-01 -1.519817709922790527e+00 -9.849888738244771957e-04 -4.562408030033111572e-01 9.816579520702362061e-02
6.130000000000000000e+02 4.331385135650634766e+00 4.170958399772644043e-01 -1.400425195693969727e+00 -2.870334777981042862e-03 -4.209886491298675537e-01 2.394338250160217285e-01
6.140000000000000000e+02 4.723761558532714844e+00 6.832276582717895508e-01 -1.246076583862304688e+00 -4.430606961250305176e-03 -3.751521408557891846e-01 3.285463154315948486e-01
6.150000000000000000e+02 5.272310256958007812e+00 3.729754388332366943e-01 -1.886308073997497559e+00 -9.177990723401308060e-04 -5.661677718162536621e-01 2.158774882555007935e-01
6.160000000000000000e+02 5.293497562408447266e+00 1.325630992650985718e-01 -2.261330366134643555e+00 -8.094483986496925354e-03 -6.808274388313293457e-01 8.344548940658569336e-02
6.170000000000000000e+02 5.232282638549804688e+00 6.048842072486877441e-01 -1.524573802947998047e+00 -6.313476245850324631e-03 -4.592661559581756592e-01 2.996605336666107178e-01
6.180000000000000000e+02 8.746415138244628906e+00 3.600572347640991211e-01 -1.103145360946655273e+00 6.953352689743041992e-02 -3.100835382938385010e-01 -3.805664181709289551e-01
6.190000000000000000e+02 8.305797576904296875e+00 1.427644640207290649e-01 -3.858619689941406250e+00 -2.562877256423234940e-03 -1.158354759216308594e+00 1.068322286009788513e-01
6.200000000000000000e+02 7.901810646057128906e+00 1.449706256389617920e-01 -3.709008932113647461e+00 3.862228989601135254e-02 -1.101115942001342773e+00 8.920369297266006470e-02
6.210000000000000000e+02 7.500181674957275391e+00 4.128713011741638184e-01 -2.328704357147216797e+00 -2.085747011005878448e-02 -7.048685550689697266e-01 1.243739873170852661e-01
6.220000000000000000e+02 7.501165390014648438e+00 1.396588683128356934e-01 -3.521364688873291016e+00 -3.469118149951100349e-03 -1.057450056076049805e+00 8.944047987461090088e-02
6.230000000000000000e+02 6.921849727630615234e+00 3.830473423004150391e-01 -2.419256925582885742e+00 7.985709235072135925e-03 -7.233813405036926270e-01 1.674326956272125244e-01
6.240000000000000000e+02 6.729214191436767578e+00 3.933477997779846191e-01 -2.361147165298461914e+00 3.057683818042278290e-03 -7.074268460273742676e-01 1.973220258951187134e-01
6.250000000000000000e+02 6.333845615386962891e+00 4.256263971328735352e-01 -2.180880069732666016e+00 1.177346683107316494e-03 -6.539108157157897949e-01 2.122995853424072266e-01
6.260000000000000000e+02 6.309340953826904297e+00 1.476686298847198486e-01 -2.856449842453002930e+00 5.412379396148025990e-04 -8.567726016044616699e-01 1.115850210189819336e-01
6.270000000000000000e+02 5.493331432342529297e+00 1.431408077478408813e-01 -2.377003431320190430e+00 -7.297715637832880020e-03 -7.152903676033020020e-01 9.490785002708435059e-02
6.280000000000000000e+02 8.807046890258789062e+00 5.908421874046325684e-01 1.220518231391906738e+00 7.725496888160705566e-01 5.979203581809997559e-01 -1.519221425056457520e+00
6.290000000000000000e+02 9.641102790832519531e+00 1.027891039848327637e+00 2.816097497940063477e+00 1.258319854736328125e+01 4.619788646697998047e+00 -6.661447525024414062e+00
6.300000000000000000e+02 9.723552703857421875e+00 1.164067268371582031e+00 2.158107519149780273e+00 1.372993946075439453e+01 4.766414165496826172e+00 -6.097050666809082031e+00
6.310000000000000000e+02 9.169920921325683594e+00 -7.426183819770812988e-01 8.128040313720703125e+00 4.450736999511718750e+00 3.773633241653442383e+00 6.332913398742675781e+00
6.320000000000000000e+02 9.013514518737792969e+00 -8.671277761459350586e-01 7.187458992004394531e+00 4.311857700347900391e+00 3.449795007705688477e+00 5.898961067199707031e+00
6.330000000000000000e+02 1.013618946075439453e+01 -1.204873919486999512e+00 3.760877132415771484e+00 1.933710289001464844e+01 6.929393768310546875e+00 4.909036159515380859e+00
6.340000000000000000e+02 1.096621036529541016e+01 -5.681729912757873535e-01 1.129483032226562500e+01 1.854114723205566406e+01 8.950793266296386719e+00 -1.514172315597534180e+00
6.350000000000000000e+02 1.110134124755859375e+01 4.364140033721923828e-01 1.071433734893798828e+01 1.768684387207031250e+01 8.520354270935058594e+00 4.075135707855224609e+00
6.360000000000000000e+02 1.073451900482177734e+01 1.042677521705627441e+00 3.488363504409790039e+00 2.038691902160644531e+01 7.162584781646728516e+00 2.109678506851196289e+00
6.370000000000000000e+02 7.196813225746154785e-01 1.133157849311828613e+00 -5.838651955127716064e-02 -1.321406811475753784e-01 -5.715816095471382141e-02 1.548703312873840332e-01
6.380000000000000000e+02 5.095959901809692383e-01 9.234093427658081055e-01 -2.067382074892520905e-02 -9.175696223974227905e-02 -3.372923657298088074e-02 7.518071681261062622e-02
6.390000000000000000e+02 9.473596811294555664e-01 8.759135007858276367e-01 -9.728291630744934082e-02 -8.287633210420608521e-02 -5.404777452349662781e-02 1.495324671268463135e-01
6.400000000000000000e+02 8.585849761962890625e+00 6.451504826545715332e-01 7.343002557754516602e-01 5.545883178710937500e-01 3.866665661334991455e-01 -1.103789448738098145e+00
6.410000000000000000e+02 3.430184721946716309e-01 -6.891425848007202148e-01 -5.445678252726793289e-03 -5.210128426551818848e-02 -1.726408861577510834e-02 -4.661957547068595886e-02
6.420000000000000000e+02 8.211489915847778320e-01 -1.136243939399719238e+00 -3.181751072406768799e-02 -8.904340863227844238e-02 -3.625827655196189880e-02 -1.442159861326217651e-01
6.430000000000000000e+02 7.618465423583984375e-01 -8.771122694015502930e-01 -3.503419831395149231e-02 -6.926390528678894043e-02 -3.128943219780921936e-02 -1.091579347848892212e-01
6.440000000000000000e+02 1.128251910209655762e+00 -7.265512347221374512e-01 -1.005493849515914917e-01 -3.928478434681892395e-02 -4.195025190711021423e-02 -1.353775560855865479e-01
6.450000000000000000e+02 7.798145771026611328e+00 8.820459842681884766e-01 -7.184028625488281250e-02 3.051477968692779541e-01 6.999225169420242310e-02 -4.682974815368652344e-01
6.460000000000000000e+02 7.292043209075927734e+00 6.492977738380432129e-01 -1.396768927574157715e+00 7.537816464900970459e-02 -3.964172303676605225e-01 5.759258940815925598e-02
6.470000000000000000e+02 7.491149425506591797e+00 7.071627378463745117e-01 -1.088342070579528809e+00 1.184246987104415894e-01 -2.909752130508422852e-01 -4.216200113296508789e-02
6.480000000000000000e+02 7.897399425506591797e+00 6.969326734542846680e-01 -6.509056091308593750e-01 2.048438340425491333e-01 -1.338185369968414307e-01 -2.965288758277893066e-01
6.490000000000000000e+02 7.121828079223632812e+00 6.090865731239318848e-01 -1.710519671440124512e+00 4.288672655820846558e-02 -5.002898573875427246e-01 1.294560134410858154e-01
6.500000000000000000e+02 6.947204589843750000e+00 6.253395080566406250e-01 -1.688202381134033203e+00 3.688481077551841736e-02 -4.953952431678771973e-01 1.802595555782318115e-01
6.510000000000000000e+02 6.761960983276367188e+00 6.432615518569946289e-01 -1.633512377738952637e+00 4.233876243233680725e-02 -4.773520827293395996e-01 2.052212208509445190e-01
6.520000000000000000e+02 6.371105194091796875e+00 7.061058282852172852e-01 -1.486142754554748535e+00 2.368820086121559143e-02 -4.387363791465759277e-01 2.511908113956451416e-01
6.530000000000000000e+02 5.778918266296386719e+00 8.067899346351623535e-01 -1.331159830093383789e+00 1.607116498053073883e-02 -3.945266008377075195e-01 2.949005365371704102e-01
6.540000000000000000e+02 5.950025081634521484e+00 7.224904298782348633e-01 -1.438325166702270508e+00 1.090269722044467926e-02 -4.282267391681671143e-01 2.765699923038482666e-01
6.550000000000000000e+02 5.419727802276611328e+00 6.486015915870666504e-01 -1.514731764793395996e+00 2.933437237516045570e-03 -4.535395205020904541e-01 3.097998201847076416e-01
6.560000000000000000e+02 5.058570861816406250e+00 5.610458850860595703e-01 -1.526203751564025879e+00 9.300590492784976959e-03 -4.550709426403045654e-01 2.918716967105865479e-01
6.570000000000000000e+02 6.443637371063232422e+00 9.457973241806030273e-01 -9.522002339363098145e-01 6.393577903509140015e-02 -2.664793431758880615e-01 1.737794876098632812e-01
6.580000000000000000e+02 8.837642669677734375e+00 -7.290750741958618164e-01 6.543341159820556641e+00 1.999467372894287109e+00 2.562842607498168945e+00 3.996627330780029297e+00
6.590000000000000000e+02 8.703968048095703125e+00 -8.356453180313110352e-01 5.930935382843017578e+00 2.124857425689697266e+00 2.416737794876098633e+00 3.882045984268188477e+00
6.600000000000000000e+02 8.839380264282226562e+00 -8.827289342880249023e-01 6.723701477050781250e+00 2.975559234619140625e+00 2.909778356552124023e+00 4.944673061370849609e+00
6.610000000000000000e+02 7.849783420562744141e+00 -7.420578598976135254e-01 2.803193569183349609e+00 4.582743048667907715e-01 9.784403443336486816e-01 1.393848657608032227e+00
6.620000000000000000e+02 7.432171344757080078e+00 -8.125846982002258301e-01 2.041649580001831055e+00 4.078272581100463867e-01 7.348430156707763672e-01 1.138369321823120117e+00
6.630000000000000000e+02 7.247812271118164062e+00 -8.348821401596069336e-01 1.805484890937805176e+00 3.163549304008483887e-01 6.365519165992736816e-01 9.789031744003295898e-01
6.640000000000000000e+02 6.707566261291503906e+00 -1.137985229492187500e+00 1.612017750740051270e+00 3.894739747047424316e-01 6.004475355148315430e-01 9.794155359268188477e-01
6.650000000000000000e+02 6.152390956878662109e+00 9.818547368049621582e-01 -9.138692617416381836e-01 6.563264876604080200e-02 -2.544710040092468262e-01 2.356656938791275024e-01
6.660000000000000000e+02 5.166089534759521484e+00 8.400604128837585449e-01 -1.160641908645629883e+00 1.195759978145360947e-02 -3.446052968502044678e-01 3.674030900001525879e-01
6.670000000000000000e+02 4.488036632537841797e+00 7.870783209800720215e-01 -1.073164701461791992e+00 -2.058265032246708870e-03 -3.225668966770172119e-01 3.715774714946746826e-01
6.680000000000000000e+02 3.789488315582275391e+00 9.651583433151245117e-01 -7.313714027404785156e-01 -1.390497013926506042e-02 -2.235829085111618042e-01 4.370868802070617676e-01
6.690000000000000000e+02 3.485383033752441406e+00 9.789987802505493164e-01 -6.671929359436035156e-01 -1.841735094785690308e-02 -2.056830823421478271e-01 4.312941133975982666e-01
6.700000000000000000e+02 3.102208375930786133e+00 4.528451859951019287e-01 -8.002154231071472168e-01 -1.008806657046079636e-02 -2.430910468101501465e-01 2.294456213712692261e-01
6.710000000000000000e+02 2.668821096420288086e+00 7.853702306747436523e-01 -5.331005454063415527e-01 -2.701930329203605652e-02 -1.680359542369842529e-01 3.300604224205017090e-01
6.720000000000000000e+02 2.879905700683593750e+00 1.040180444717407227e+00 -4.784454107284545898e-01 -3.665750473737716675e-02 -1.545308679342269897e-01 4.239125847816467285e-01
6.730000000000000000e+02 2.283032178878784180e+00 8.337278962135314941e-01 -3.989271223545074463e-01 -4.217587038874626160e-02 -1.323308944702148438e-01 3.166919946670532227e-01
6.740000000000000000e+02 2.023591279983520508e+00 9.913223981857299805e-01 -3.161861002445220947e-01 -6.637023389339447021e-02 -1.147668957710266113e-01 3.403314650058746338e-01
6.750000000000000000e+02 1.773169398307800293e+00 1.094848155975341797e+00 -2.329390347003936768e-01 -9.271102398633956909e-02 -9.769502282142639160e-02 3.226839005947113037e-01
6.760000000000000000e+02 1.610540509223937988e+00 9.875396490097045898e-01 -2.131841182708740234e-01 -8.317859470844268799e-02 -8.890881389379501343e-02 2.811287939548492432e-01
6.770000000000000000e+02 7.322433948516845703e+00 -3.674551546573638916e-01 4.765158891677856445e-01 8.394343405961990356e-02 1.681377887725830078e-01 2.971639335155487061e-01
6.780000000000000000e+02 7.189186573028564453e+00 -6.365131139755249023e-01 1.180826425552368164e+00 1.747735738754272461e-01 4.066799879074096680e-01 6.410493254661560059e-01
6.790000000000000000e+02 6.494585990905761719e+00 -5.667870044708251953e-01 2.064520269632339478e-01 3.422836959362030029e-02 7.220412045717239380e-02 2.714467942714691162e-01
6.800000000000000000e+02 6.665716648101806641e+00 -6.086487770080566406e-01 4.986533224582672119e-01 1.229178458452224731e-01 1.864713430404663086e-01 4.000648856163024902e-01
6.810000000000000000e+02 5.662438392639160156e+00 -6.451626420021057129e-01 -9.437487274408340454e-02 4.421117156744003296e-02 -1.504911016672849655e-02 1.517028212547302246e-01
6.820000000000000000e+02 5.153976440429687500e+00 -6.769131422042846680e-01 -2.006673812866210938e-01 5.490232631564140320e-02 -4.372951760888099670e-02 7.671793550252914429e-02
6.830000000000000000e+02 4.689115524291992188e+00 -3.678166568279266357e-01 -6.999694108963012695e-01 2.491716761142015457e-03 -2.092432975769042969e-01 -2.339885383844375610e-02
6.840000000000000000e+02 4.881676197052001953e+00 -8.163195252418518066e-01 -1.201299726963043213e-01 6.426215171813964844e-02 -1.676034554839134216e-02 6.605618447065353394e-02
6.850000000000000000e+02 4.461433410644531250e+00 -6.964415907859802246e-01 -3.295772075653076172e-01 3.301383927464485168e-02 -8.896901458501815796e-02 -1.921865902841091156e-02
6.860000000000000000e+02 4.224597930908203125e+00 -6.622968316078186035e-01 -3.855262398719787598e-01 3.836394473910331726e-02 -1.041486933827400208e-01 -3.918718546628952026e-02
6.870000000000000000e+02 3.801926136016845703e+00 -5.143706202507019043e-01 -5.256575942039489746e-01 6.437509786337614059e-03 -1.557660400867462158e-01 -7.670649141073226929e-02
6.880000000000000000e+02 3.630661249160766602e+00 -6.272665858268737793e-01 -4.217656850814819336e-01 2.490343153476715088e-02 -1.190586760640144348e-01 -1.003257706761360168e-01
6.890000000000000000e+02 2.568556547164916992e+00 -5.380747914314270020e-01 -3.640619218349456787e-01 1.176409641630016267e-04 -1.091832816600799561e-01 -1.360357552766799927e-01
6.900000000000000000e+02 1.276379942893981934e+00 9.805626869201660156e-01 -1.606392860412597656e-01 -9.285137057304382324e-02 -7.604719698429107666e-02 2.312390953302383423e-01
6.910000000000000000e+02 1.473438262939453125e+00 1.130170464515686035e+00 -1.819696873426437378e-01 -1.101675927639007568e-01 -8.764118701219558716e-02 2.948536872863769531e-01
6.920000000000000000e+02 6.174290180206298828e+00 -9.929761886596679688e-01 8.418302536010742188e-01 2.132206410169601440e-01 3.165152668952941895e-01 5.341864228248596191e-01
6.930000000000000000e+02 5.829972267150878906e+00 -8.968052864074707031e-01 4.205006062984466553e-01 1.258224248886108398e-01 1.638969033956527710e-01 3.294055163860321045e-01
6.940000000000000000e+02 5.305361270904541016e+00 -7.824894189834594727e-01 -3.304271399974822998e-02 5.573875829577445984e-02 6.808813195675611496e-03 1.319133192300796509e-01
6.950000000000000000e+02 4.869118213653564453e+00 -1.037578105926513672e+00 1.509340852499008179e-01 1.159372851252555847e-01 8.006140589714050293e-02 1.275444775819778442e-01
6.960000000000000000e+02 4.970853805541992188e+00 -6.024886965751647949e-01 -3.570706248283386230e-01 3.835048899054527283e-02 -9.561604261398315430e-02 3.261757269501686096e-02
6.970000000000000000e+02 6.597208976745605469e+00 -9.410620927810668945e-01 1.117096304893493652e+00 2.090863883495330811e-01 3.978548049926757812e-01 6.823363900184631348e-01
6.980000000000000000e+02 1.099483966827392578e+00 6.637505888938903809e-01 -1.321896016597747803e-01 -5.156181380152702332e-02 -5.512542650103569031e-02 1.403511613607406616e-01
6.990000000000000000e+02 4.873821258544921875e+00 8.694833517074584961e-01 -1.068068623542785645e+00 4.726352635771036148e-03 -3.190026879310607910e-01 3.929326236248016357e-01
7.000000000000000000e+02 4.735702037811279297e+00 5.310602784156799316e-01 -1.468192696571350098e+00 -6.394331809133291245e-03 -4.423761069774627686e-01 2.634083628654479980e-01
7.010000000000000000e+02 4.781222641468048096e-01 7.325435876846313477e-01 -3.611022979021072388e-02 -6.755045056343078613e-02 -3.109820373356342316e-02 6.332542002201080322e-02
7.020000000000000000e+02 6.524793505668640137e-01 6.480366587638854980e-01 -5.675700679421424866e-02 -4.871552065014839172e-02 -3.164175897836685181e-02 7.448296248912811279e-02
7.030000000000000000e+02 5.329104065895080566e-01 -9.645437002182006836e-01 -9.863860905170440674e-03 -8.380848914384841919e-02 -2.810170501470565796e-02 -9.015531092882156372e-02
7.040000000000000000e+02 7.783585786819458008e-01 -7.012048959732055664e-01 -5.735244601964950562e-02 -4.946212098002433777e-02 -3.204436972737312317e-02 -9.728857129812240601e-02
7.050000000000000000e+02 6.917028427124023438e-01 -1.030764341354370117e+00 -4.969821870326995850e-02 -8.929611742496490479e-02 -4.169829934835433960e-02 -1.297129988670349121e-01
7.060000000000000000e+02 6.293925642967224121e-01 -7.808761000633239746e-01 -4.137910157442092896e-02 -6.217598915100097656e-02 -3.106652759015560150e-02 -8.675150573253631592e-02
7.070000000000000000e+02 9.472883939743041992e-01 -7.062159180641174316e-01 -6.883989274501800537e-02 -3.910635039210319519e-02 -3.238387405872344971e-02 -1.159830689430236816e-01
7.080000000000000000e+02 4.776030778884887695e-01 5.666073560714721680e-01 -3.147576004266738892e-02 -3.478577360510826111e-02 -1.987846009433269501e-02 3.461992368102073669e-02
7.090000000000000000e+02 1.538459300994873047e+00 6.425859332084655762e-01 -2.276351898908615112e-01 -4.192991182208061218e-02 -8.086953312158584595e-02 1.897660940885543823e-01
7.100000000000000000e+02 5.843770027160644531e+00 9.733428359031677246e-01 -1.032034039497375488e+00 4.071732237935066223e-02 -2.973949909210205078e-01 3.094668090343475342e-01
7.110000000000000000e+02 4.688058853149414062e+00 -7.520776391029357910e-01 -2.585105001926422119e-01 5.122962966561317444e-02 -6.218426302075386047e-02 1.377779897302389145e-02
7.120000000000000000e+02 1.718168497085571289e+00 -7.818244099617004395e-01 -1.613375544548034668e-01 -1.096465066075325012e-02 -5.169066414237022400e-02 -1.749048680067062378e-01
7.130000000000000000e+02 2.141017913818359375e+00 -8.937534093856811523e-01 -1.712045669555664062e-01 8.314343169331550598e-03 -4.886706545948982239e-02 -1.947785764932632446e-01
7.140000000000000000e+02 3.295278072357177734e+00 4.408143162727355957e-01 -9.068357944488525391e-01 -8.520677685737609863e-03 -2.746069431304931641e-01 2.292040586471557617e-01
7.150000000000000000e+02 3.908945798873901367e+00 7.542336583137512207e-01 -9.480125904083251953e-01 -1.105979178100824356e-02 -2.877217233180999756e-01 3.584442734718322754e-01
7.160000000000000000e+02 4.898604869842529297e+00 3.364383876323699951e-01 -1.766472101211547852e+00 8.163520134985446930e-03 -5.274925827980041504e-01 2.003282606601715088e-01
7.170000000000000000e+02 4.172647476196289062e+00 -9.147674441337585449e-01 -1.552378833293914795e-01 5.973919853568077087e-02 -2.864960394799709320e-02 -2.838102728128433228e-02
7.180000000000000000e+02 4.341487407684326172e+00 -1.208051443099975586e+00 1.482425779104232788e-01 1.288633048534393311e-01 8.313176780939102173e-02 6.143150478601455688e-02
7.190000000000000000e+02 3.930785894393920898e+00 -8.624976873397827148e-01 -2.328861057758331299e-01 5.361652374267578125e-02 -5.378087237477302551e-02 -6.319524347782135010e-02
7.200000000000000000e+02 3.666007995605468750e+00 -1.085257411003112793e+00 -8.977681398391723633e-02 6.770147383213043213e-02 -6.622601300477981567e-03 -7.158987224102020264e-02
7.210000000000000000e+02 3.434339046478271484e+00 -1.001948237419128418e+00 -1.538655906915664673e-01 5.000452697277069092e-02 -3.115832060575485229e-02 -1.149784401059150696e-01
7.220000000000000000e+02 3.152985572814941406e+00 -1.041568875312805176e+00 -1.479826420545578003e-01 5.112644657492637634e-02 -2.905685827136039734e-02 -1.437278091907501221e-01
7.230000000000000000e+02 3.014698266983032227e+00 -1.173652768135070801e+00 -8.543477207422256470e-02 4.991120845079421997e-02 -1.065706834197044373e-02 -1.419077813625335693e-01
7.240000000000000000e+02 3.278838396072387695e+00 -6.853585243225097656e-01 -3.534198105335235596e-01 1.995797082781791687e-02 -1.000385507941246033e-01 -1.275536268949508667e-01
7.250000000000000000e+02 5.003881931304931641e+00 7.624759674072265625e-01 -1.213561058044433594e+00 1.325485645793378353e-03 -3.636706769466400146e-01 3.543832302093505859e-01
7.260000000000000000e+02 4.868101119995117188e+00 7.044153809547424316e-01 -1.271461725234985352e+00 -8.624989539384841919e-03 -3.840259909629821777e-01 3.319426476955413818e-01
7.270000000000000000e+02 2.721965551376342773e+00 -8.490000367164611816e-01 -2.507914900779724121e-01 1.641486957669258118e-02 -7.031299173831939697e-02 -1.689928919076919556e-01
7.280000000000000000e+02 6.305780887603759766e+00 -5.861872434616088867e-01 1.479766070842742920e-01 7.505723088979721069e-02 6.691014766693115234e-02 2.458919882774353027e-01
7.290000000000000000e+02 6.341193199157714844e+00 -7.839299440383911133e-01 5.852208733558654785e-01 1.082334294915199280e-01 2.080363035202026367e-01 4.243085980415344238e-01
7.300000000000000000e+02 2.076251029968261719e+00 7.923982143402099609e-01 -3.478991687297821045e-01 -4.877264425158500671e-02 -1.190015450119972229e-01 2.863983511924743652e-01
7.310000000000000000e+02 3.048688173294067383e+00 -8.854083418846130371e-01 -2.318338602781295776e-01 2.342310920357704163e-02 -6.252322345972061157e-02 -1.490761637687683105e-01
7.320000000000000000e+02 3.992599487304687500e+00 -6.138769388198852539e-01 -4.401969611644744873e-01 2.191109582781791687e-02 -1.254857629537582397e-01 -6.665525585412979126e-02
7.330000000000000000e+02 4.893347263336181641e+00 5.319082140922546387e-01 -1.499426841735839844e+00 -1.129978918470442295e-03 -4.501670300960540771e-01 2.765893340110778809e-01
7.340000000000000000e+02 4.594274997711181641e+00 5.978508591651916504e-01 -1.319477915763854980e+00 -4.331904638092964888e-04 -3.959733247756958008e-01 2.948723137378692627e-01
7.350000000000000000e+02 3.709774494171142578e+00 6.789032220840454102e-01 -9.382502436637878418e-01 -1.625399664044380188e-02 -2.863512635231018066e-01 3.214079439640045166e-01
7.360000000000000000e+02 5.494205355644226074e-01 -1.034067058563232422e+01 -1.638882420957088470e-02 6.641199588775634766e-01 1.943193376064300537e-01 6.213218718767166138e-02
7.370000000000000000e+02 1.107841587066650391e+01 -1.418718624114990234e+01 -6.712378859519958496e-01 1.108429241180419922e+01 3.123916387557983398e+00 6.576936244964599609e-01
7.380000000000000000e+02 1.561386203765869141e+01 -1.234466838836669922e+01 -7.674489498138427734e+00 -5.935860872268676758e-01 -2.480422735214233398e+00 -7.068666219711303711e-01
7.390000000000000000e+02 1.293775844573974609e+01 -2.085868120193481445e+00 4.063384532928466797e+00 1.018291854858398438e+01 4.273890972137451172e+00 -9.491779804229736328e-01
7.400000000000000000e+02 2.017340087890625000e+01 5.826764106750488281e+00 6.681380271911621094e-01 4.586137294769287109e+00 1.576282620429992676e+00 -1.436941385269165039e+00
7.410000000000000000e+02 2.174926567077636719e+01 3.463943958282470703e+00 8.157775998115539551e-01 1.626480102539062500e+00 7.326773405075073242e-01 -1.060560464859008789e+00
7.420000000000000000e+02 1.960919380187988281e+01 7.149466514587402344e+00 5.482883453369140625e-01 6.686722755432128906e+00 2.170503377914428711e+00 -1.495644092559814453e+00
7.430000000000000000e+02 1.811525344848632812e+01 8.284618377685546875e+00 1.672421842813491821e-01 9.133992195129394531e+00 2.790370464324951172e+00 -3.311886191368103027e-01
7.440000000000000000e+02 1.847220993041992188e+01 1.398455810546875000e+01 8.462689816951751709e-02 1.360555744171142578e+01 4.107055187225341797e+00 -1.376520395278930664e-01
7.450000000000000000e+02 1.948469161987304688e+01 2.010743522644042969e+01 3.019325494766235352e+00 8.231015205383300781e+00 3.375102281570434570e+00 3.424720048904418945e+00
7.460000000000000000e+02 2.046631622314453125e+01 2.368707847595214844e+01 -9.044756293296813965e-01 4.426514625549316406e+00 1.056611657142639160e+00 2.257669687271118164e+00
7.470000000000000000e+02 1.615675735473632812e+01 3.199879264831542969e+01 -7.367390990257263184e-01 4.520953178405761719e+00 1.135264277458190918e+00 3.045963644981384277e-01
7.480000000000000000e+02 1.743681144714355469e+01 4.103047943115234375e+01 -2.838768661022186279e-01 3.746431112289428711e+00 1.038766264915466309e+00 5.502555891871452332e-02
7.490000000000000000e+02 1.267600631713867188e+01 4.116561889648437500e+01 -3.590024411678314209e-01 4.254014492034912109e+00 1.168503642082214355e+00 -1.308799348771572113e-02
7.500000000000000000e+02 1.291159534454345703e+01 3.837707519531250000e+01 -4.104558229446411133e-01 4.299940109252929688e+00 1.166845321655273438e+00 -2.955914288759231567e-02
7.510000000000000000e+02 8.111647605895996094e+00 3.118864250183105469e+01 -4.359971284866333008e-01 4.662911891937255859e+00 1.268074393272399902e+00 -6.223569512367248535e-01
7.520000000000000000e+02 1.310382556915283203e+01 1.733325576782226562e+01 9.616261720657348633e-01 7.339650154113769531e+00 2.490382909774780273e+00 -4.458595812320709229e-01
7.530000000000000000e+02 1.446970558166503906e+01 1.186257457733154297e+01 4.005822241306304932e-01 9.189148902893066406e+00 2.876919269561767578e+00 4.096830189228057861e-01
7.540000000000000000e+02 1.377537965774536133e+00 3.405755043029785156e+00 5.907255038619041443e-02 -5.076129436492919922e-01 -1.345621198415756226e-01 3.406566083431243896e-01
7.550000000000000000e+02 1.108758258819580078e+01 1.234381675720214844e+00 3.608938455581665039e+00 1.775920104980468750e+01 6.410441875457763672e+00 2.751045227050781250e+00
7.560000000000000000e+02 9.525178909301757812e+00 -1.668587565422058105e+00 3.758587837219238281e+00 1.154225730895996094e+01 4.590253829956054688e+00 6.770332813262939453e+00
7.570000000000000000e+02 1.308434867858886719e+01 -1.289879131317138672e+01 -1.624975562095642090e+00 6.747741699218750000e+00 1.536829829216003418e+00 1.968198895454406738e+00
7.580000000000000000e+02 1.443481922149658203e+01 -1.282303619384765625e+01 -2.042667150497436523e+00 2.958085536956787109e+00 2.746255397796630859e-01 9.967050552368164062e-01
7.590000000000000000e+02 1.626461625099182129e+00 -1.166981601715087891e+01 -8.646658062934875488e-02 1.625536084175109863e+00 4.617208540439605713e-01 4.465738683938980103e-02
7.600000000000000000e+02 5.783898234367370605e-01 -1.715393829345703125e+01 -1.235356368124485016e-02 6.276947855949401855e-01 1.846023648977279663e-01 3.701396286487579346e-02
7.610000000000000000e+02 1.125497817993164062e+01 -2.200839996337890625e+01 1.505639553070068359e+00 1.106280326843261719e+01 3.770532846450805664e+00 -1.332822203636169434e+00
7.620000000000000000e+02 1.167794513702392578e+01 -1.807246971130371094e+01 8.042359948158264160e-01 1.810494804382324219e+01 5.672755241394042969e+00 4.166207611560821533e-01
7.630000000000000000e+02 1.164497375488281250e+01 -1.939847755432128906e+01 4.414473176002502441e-01 1.603222274780273438e+01 4.942101001739501953e+00 -1.013288021087646484e+00
7.640000000000000000e+02 8.884357452392578125e+00 -1.987293434143066406e+01 1.556900739669799805e+00 9.197410583496093750e+00 3.226293325424194336e+00 1.058403849601745605e+00
7.650000000000000000e+02 1.769194483757019043e+00 -1.836795997619628906e+01 1.230654045939445496e-01 2.047669172286987305e+00 6.512203812599182129e-01 2.982807755470275879e-01
7.660000000000000000e+02 6.462907195091247559e-01 -2.396475219726562500e+01 2.873062342405319214e-02 3.030747175216674805e+00 9.178433418273925781e-01 3.439514338970184326e-01
7.670000000000000000e+02 1.237710380554199219e+01 -2.493985366821289062e+01 -3.964636921882629395e-01 6.971473693847656250e+00 1.972503066062927246e+00 -1.265567421913146973e+00
7.680000000000000000e+02 1.733113288879394531e+01 -2.767782211303710938e+01 -6.527001857757568359e-01 3.535749018192291260e-01 -8.973758667707443237e-02 3.036123327910900116e-02
7.690000000000000000e+02 1.430183696746826172e+01 -2.474161529541015625e+01 9.134707450866699219e-01 2.892729282379150391e+00 1.141860008239746094e+00 -1.595450878143310547e+00
7.700000000000000000e+02 2.001250982284545898e+00 -2.653045845031738281e+01 -7.439241558313369751e-02 4.715942859649658203e+00 1.392465114593505859e+00 8.950304985046386719e-01
7.710000000000000000e+02 6.965164542198181152e-01 -3.078400039672851562e+01 -2.124210447072982788e-02 6.059405803680419922e+00 1.811449050903320312e+00 2.126142084598541260e-01
7.720000000000000000e+02 1.210381221771240234e+01 -3.801295089721679688e+01 -2.799240946769714355e-01 3.576303482055664062e+00 9.889137744903564453e-01 -1.608926504850387573e-01
7.730000000000000000e+02 1.640143966674804688e+01 -3.487066650390625000e+01 -4.106705784797668457e-01 1.979158163070678711e+00 4.705462753772735596e-01 -5.200802087783813477e-01
7.740000000000000000e+02 2.497640609741210938e+01 -3.464381027221679688e+01 -3.986718654632568359e-01 1.509293615818023682e-01 -7.432275265455245972e-02 2.934645116329193115e-01
7.750000000000000000e+02 2.522536087036132812e+01 -3.075686264038085938e+01 -2.693873643875122070e+00 -2.107545584440231323e-01 -8.713884353637695312e-01 2.935147285461425781e-01
7.760000000000000000e+02 2.362350273132324219e+01 -3.224996566772460938e+01 -1.420500278472900391e+00 -2.275176644325256348e-01 -4.944053888320922852e-01 1.918833106756210327e-01
7.770000000000000000e+02 2.106873321533203125e+01 -2.985016250610351562e+01 -2.318287611007690430e+00 -1.987134367227554321e-01 -7.551003098487854004e-01 5.952460169792175293e-01
7.780000000000000000e+02 1.972956657409667969e+01 -2.925646781921386719e+01 -1.903360486030578613e+00 -1.944231688976287842e-01 -6.293351054191589355e-01 5.453450083732604980e-01
7.790000000000000000e+02 9.747138023376464844e+00 -3.272458267211914062e+01 -8.419623970985412598e-01 4.922844886779785156e+00 1.224264740943908691e+00 1.093312725424766541e-01
7.800000000000000000e+02 1.108352088928222656e+01 -2.986915969848632812e+01 -1.234818816184997559e+00 5.297050952911376953e+00 1.218669533729553223e+00 -5.432530306279659271e-03
7.810000000000000000e+02 2.435893535614013672e+00 -3.460661697387695312e+01 -1.101137325167655945e-01 6.355153560638427734e+00 1.873512029647827148e+00 2.863318324089050293e-01
7.820000000000000000e+02 8.856930732727050781e-01 -3.755600357055664062e+01 -3.774782270193099976e-02 6.969638347625732422e+00 2.079567193984985352e+00 -9.431704878807067871e-03
7.830000000000000000e+02 7.755715370178222656e+00 -3.640949249267578125e+01 -3.821459710597991943e-01 4.991781711578369141e+00 1.382890701293945312e+00 1.835268735885620117e-01
7.840000000000000000e+02 2.710301399230957031e+00 -3.846315002441406250e+01 -1.390660405158996582e-01 6.572752475738525391e+00 1.930105924606323242e+00 -3.963170573115348816e-02
7.850000000000000000e+02 2.754822731018066406e+01 -4.102365493774414062e+01 1.083267107605934143e-01 1.190635323524475098e+00 3.896886110305786133e-01 1.720117330551147461e-01
7.860000000000000000e+02 2.785377311706542969e+01 -3.636851882934570312e+01 -2.444681972265243530e-01 1.029043912887573242e+00 2.353727221488952637e-01 7.327589988708496094e-01
7.870000000000000000e+02 3.211464691162109375e+01 -2.923409461975097656e+01 1.002885818481445312e+00 1.862254500389099121e+00 8.595420718193054199e-01 1.422888398170471191e+00
7.880000000000000000e+02 2.951467514038085938e+01 -3.032047271728515625e+01 -1.365740537643432617e+00 2.467564046382904053e-01 -3.356952667236328125e-01 2.037145793437957764e-01
7.890000000000000000e+02 4.412761306762695312e+01 -2.863879585266113281e+01 6.541126221418380737e-02 7.399595260620117188e+00 2.239501953125000000e+00 -1.062504768371582031e+00
7.900000000000000000e+02 4.484385299682617188e+01 -2.286486625671386719e+01 2.325232744216918945e+00 9.948013305664062500e+00 3.681973695755004883e+00 -1.392866015434265137e+00
7.910000000000000000e+02 4.618616104125976562e+01 -1.851380920410156250e+01 1.322287768125534058e-01 1.218364334106445312e+01 3.694761514663696289e+00 6.076784133911132812e-01
7.920000000000000000e+02 4.122094726562500000e+01 -1.262255311012268066e+00 3.122644901275634766e+00 1.203445339202880859e+01 4.547129631042480469e+00 5.118495941162109375e+00
7.930000000000000000e+02 4.235359191894531250e+01 2.666657686233520508e+00 8.369778394699096680e-01 1.817692947387695312e+01 5.704172611236572266e+00 2.021497249603271484e+00
7.940000000000000000e+02 4.175258255004882812e+01 -1.220844686031341553e-02 2.074986219406127930e+00 1.538623809814453125e+01 5.238367080688476562e+00 4.720067977905273438e+00
7.950000000000000000e+02 4.734979248046875000e+01 -4.124806594848632812e+01 -9.731982946395874023e-01 4.480583190917968750e+00 1.052215456962585449e+00 -2.053496092557907104e-01
7.960000000000000000e+02 4.274554061889648438e+01 -3.856945037841796875e+01 -1.541914224624633789e+00 5.545821189880371094e+00 1.201172113418579102e+00 -2.915458679199218750e-01
7.970000000000000000e+02 4.753227615356445312e+01 -2.981815910339355469e+01 -4.028184339404106140e-02 5.682171344757080078e+00 1.692566871643066406e+00 -1.948063611984252930e+00
7.980000000000000000e+02 4.991386795043945312e+01 -2.742781066894531250e+01 1.984099268913269043e+00 3.224220752716064453e+00 1.562495946884155273e+00 -2.578387498855590820e+00
7.990000000000000000e+02 4.817541122436523438e+01 -2.538947296142578125e+01 2.965121746063232422e+00 5.923577308654785156e+00 2.666609764099121094e+00 -4.031232357025146484e+00
8.000000000000000000e+02 4.554004669189453125e+01 -2.391747283935546875e+01 2.290018081665039062e+00 9.730506896972656250e+00 3.606157541275024414e+00 -1.834858894348144531e+00
8.010000000000000000e+02 4.679875946044921875e+01 -1.451207733154296875e+01 1.148038268089294434e+00 1.285966968536376953e+01 4.202312469482421875e+00 2.986394166946411133e+00
8.020000000000000000e+02 4.724371337890625000e+01 -1.319726181030273438e+01 1.702006459236145020e+00 1.182662105560302734e+01 4.058588504791259766e+00 3.807838916778564453e+00
8.030000000000000000e+02 4.459178924560546875e+01 -1.353798103332519531e+01 1.329584836959838867e+00 9.737204551696777344e+00 3.320036649703979492e+00 1.597384691238403320e+00
8.040000000000000000e+02 4.784172058105468750e+01 -1.192449665069580078e+01 2.153173685073852539e+00 9.478732109069824219e+00 3.489571809768676758e+00 4.027122974395751953e+00
8.050000000000000000e+02 4.961355972290039062e+01 -9.709318161010742188e+00 6.560395359992980957e-01 2.928351163864135742e+00 1.075317263603210449e+00 1.727931380271911621e+00
8.060000000000000000e+02 5.075717544555664062e+01 -8.825059890747070312e+00 -8.515308499336242676e-01 1.063310742378234863e+00 6.353397667407989502e-02 2.616234719753265381e-01
8.070000000000000000e+02 5.207970046997070312e+01 -8.080895423889160156e+00 -2.451833724975585938e+00 -3.906043618917465210e-02 -7.472682595252990723e-01 -1.818084567785263062e-01
8.080000000000000000e+02 5.365962219238281250e+01 -7.873769760131835938e+00 -2.486067533493041992e+00 -3.440952003002166748e-01 -8.490488529205322266e-01 1.406363099813461304e-01
8.090000000000000000e+02 5.637801742553710938e+01 -9.167016029357910156e+00 -1.177147626876831055e+00 -3.233686387538909912e-01 -4.501549005508422852e-01 6.036683320999145508e-01
8.100000000000000000e+02 5.871043014526367188e+01 -1.039222335815429688e+01 -1.014367699623107910e+00 -1.217906028032302856e-01 -3.408474922180175781e-01 4.174683392047882080e-01
8.110000000000000000e+02 6.120022583007812500e+01 -1.116137027740478516e+01 -1.145498275756835938e+00 -9.584766812622547150e-03 -3.465248942375183105e-01 2.307642996311187744e-01
8.120000000000000000e+02 6.250792312622070312e+01 -1.138818931579589844e+01 -1.062279820442199707e+00 1.604907810688018799e-01 -2.705366909503936768e-01 4.815668985247612000e-02
8.130000000000000000e+02 7.146445465087890625e+01 -1.210070729255676270e+00 -5.504852533340454102e-01 6.714483737945556641e+00 1.849199533462524414e+00 2.687604725360870361e-02
8.140000000000000000e+02 7.934294891357421875e+01 2.808013916015625000e+00 -2.267727814614772797e-02 8.511735916137695312e+00 2.546717405319213867e+00 -1.011240631341934204e-01
8.150000000000000000e+02 7.803392791748046875e+01 4.250761985778808594e+00 -6.292139738798141479e-02 8.046994209289550781e+00 2.395221948623657227e+00 -3.482699096202850342e-01
8.160000000000000000e+02 7.932850646972656250e+01 8.397763252258300781e+00 2.235454507172107697e-02 7.180860042572021484e+00 2.160964250564575195e+00 -1.917131394147872925e-01
8.170000000000000000e+02 7.793179321289062500e+01 1.130360317230224609e+01 6.038918346166610718e-02 6.947733879089355469e+00 2.102437019348144531e+00 -4.376242756843566895e-01
8.180000000000000000e+02 7.935893249511718750e+01 1.677502441406250000e+01 9.100295603275299072e-02 5.978867053985595703e+00 1.820960998535156250e+00 7.878065854310989380e-02
8.190000000000000000e+02 6.641770172119140625e+01 2.147971534729003906e+01 -1.574533283710479736e-01 3.398403406143188477e+00 9.722850322723388672e-01 -1.810496211051940918e+00
8.200000000000000000e+02 6.851807403564453125e+01 1.831514739990234375e+01 1.433505058288574219e+00 1.464271259307861328e+01 4.822865486145019531e+00 -1.077647447586059570e+00
8.210000000000000000e+02 7.000459289550781250e+01 1.806653785705566406e+01 1.688071250915527344e+00 1.096814537048339844e+01 3.796864986419677734e+00 -5.002416372299194336e-01
8.220000000000000000e+02 6.954755401611328125e+01 1.280588531494140625e+01 1.212168097496032715e+00 1.069891262054443359e+01 3.573324203491210938e+00 7.736017107963562012e-01
8.230000000000000000e+02 6.836309051513671875e+01 1.131666469573974609e+01 1.467487335205078125e+00 1.021407318115234375e+01 3.504468202590942383e+00 2.052672386169433594e+00
8.240000000000000000e+02 6.802815246582031250e+01 1.271360778808593750e+01 1.344949841499328613e+00 1.217346858978271484e+01 4.055525302886962891e+00 2.811975002288818359e+00
8.250000000000000000e+02 6.809173583984375000e+01 9.307461738586425781e+00 1.487046927213668823e-01 8.039235115051269531e+00 2.456381797790527344e+00 1.066665053367614746e+00
8.260000000000000000e+02 6.628907775878906250e+01 9.678686141967773438e+00 1.795476913452148438e+00 5.342864990234375000e+00 2.141502618789672852e+00 2.926670789718627930e+00
8.270000000000000000e+02 6.430698394775390625e+01 7.712655067443847656e+00 9.741552472114562988e-01 1.877505064010620117e+00 8.554980754852294922e-01 1.388189673423767090e+00
8.280000000000000000e+02 6.189300155639648438e+01 3.953861713409423828e+00 2.622458636760711670e-01 1.024286508560180664e+00 3.859597146511077881e-01 5.412917733192443848e-01
8.290000000000000000e+02 5.675865936279296875e+01 1.294545412063598633e+00 7.077544331550598145e-01 1.130593195557594299e-01 2.462441176176071167e-01 2.030704766511917114e-01
8.300000000000000000e+02 5.515520858764648438e+01 -8.390232086181640625e+00 -1.774015665054321289e+00 -3.756755888462066650e-01 -6.449073553085327148e-01 4.983788728713989258e-01
8.310000000000000000e+02 5.113045883178710938e+01 -3.828179550170898438e+01 -1.902340799570083618e-01 3.130842208862304688e+00 8.821824789047241211e-01 -8.649104237556457520e-01
8.320000000000000000e+02 5.417962265014648438e+01 -2.977618598937988281e+01 -1.196087241172790527e+00 2.578502297401428223e-01 -2.814711034297943115e-01 -4.252034425735473633e-01
8.330000000000000000e+02 4.947883987426757812e+01 -3.063797569274902344e+01 -3.295455500483512878e-02 4.169427871704101562e+00 1.240942001342773438e+00 -2.076713800430297852e+00
8.340000000000000000e+02 6.124417877197265625e+01 -3.831391906738281250e+01 6.801934242248535156e-01 2.216388225555419922e+00 8.689745068550109863e-01 2.421448230743408203e-01
8.350000000000000000e+02 5.733321380615234375e+01 -3.822499084472656250e+01 6.697986721992492676e-01 1.629271745681762695e+00 6.897211074829101562e-01 -3.059687316417694092e-01
8.360000000000000000e+02 5.702744293212890625e+01 -2.987228965759277344e+01 -2.573059320449829102e+00 -1.314563304185867310e-01 -8.113546967506408691e-01 -3.131437003612518311e-01
8.370000000000000000e+02 5.434140396118164062e+01 -3.166166877746582031e+01 -2.795928120613098145e-01 8.377088308334350586e-01 1.674347966909408569e-01 -1.292239904403686523e+00
8.380000000000000000e+02 6.455339813232421875e+01 -3.773103713989257812e+01 3.554256856441497803e-01 3.249696016311645508e+00 1.081536531448364258e+00 4.616531729698181152e-01
8.390000000000000000e+02 6.934769439697265625e+01 -2.802596664428710938e+01 -9.719724059104919434e-01 6.960982322692871094e+00 1.796702980995178223e+00 3.599344193935394287e-01
8.400000000000000000e+02 6.715014648437500000e+01 -2.248612785339355469e+01 1.991802573204040527e+00 7.181777000427246094e+00 2.752074003219604492e+00 3.803716897964477539e+00
8.410000000000000000e+02 6.892732238769531250e+01 -2.534946250915527344e+01 -7.155284881591796875e-01 8.111645698547363281e+00 2.218835115432739258e+00 8.502457141876220703e-01
8.420000000000000000e+02 6.540625762939453125e+01 -2.487554931640625000e+01 7.288571000099182129e-01 3.226156473159790039e+00 1.186504125595092773e+00 1.629602193832397461e+00
8.430000000000000000e+02 6.210758590698242188e+01 -2.764724922180175781e+01 -8.144778609275817871e-01 4.004172980785369873e-01 -1.242181658744812012e-01 -1.279218792915344238e-01
8.440000000000000000e+02 5.843318939208984375e+01 -2.965886306762695312e+01 -2.730403661727905273e+00 -2.939344942569732666e-01 -9.073014259338378906e-01 -5.302117466926574707e-01
8.450000000000000000e+02 6.509475708007812500e+01 -2.969981002807617188e+01 -7.794076800346374512e-01 3.512611150741577148e+00 8.199610114097595215e-01 9.890698194503784180e-01
8.460000000000000000e+02 6.383952331542968750e+01 -3.062140083312988281e+01 -7.257069349288940430e-01 2.643885135650634766e+00 5.754534602165222168e-01 9.159343242645263672e-01
8.470000000000000000e+02 6.637787628173828125e+01 -4.080725479125976562e+01 3.643822073936462402e-01 4.138216972351074219e+00 1.350779771804809570e+00 1.197376176714897156e-01
8.480000000000000000e+02 6.924919128417968750e+01 -3.930648803710937500e+01 1.058598607778549194e-01 5.300325870513916016e+00 1.621855616569519043e+00 1.783160716295242310e-01
8.490000000000000000e+02 7.922606658935546875e+01 -3.344920730590820312e+01 -4.015745222568511963e-02 8.907341957092285156e+00 2.660155296325683594e+00 -6.603097170591354370e-02
8.500000000000000000e+02 7.796088409423828125e+01 -3.062109947204589844e+01 -8.832588046789169312e-02 8.229972839355468750e+00 2.442494153976440430e+00 -3.534422218799591064e-01
8.510000000000000000e+02 7.929553985595703125e+01 -2.643020820617675781e+01 -1.600407558726146817e-04 7.370250701904296875e+00 2.211027145385742188e+00 -2.646768689155578613e-01
8.520000000000000000e+02 7.802006530761718750e+01 -2.346830749511718750e+01 4.836483299732208252e-02 6.782308101654052734e+00 2.049201726913452148e+00 -6.506806612014770508e-01
8.530000000000000000e+02 7.936707305908203125e+01 -2.222401809692382812e+01 3.023160621523857117e-02 5.817389488220214844e+00 1.754286289215087891e+00 -2.180230319499969482e-01
8.540000000000000000e+02 6.751216888427734375e+01 -1.443717861175537109e+01 2.393561124801635742e+00 1.039282131195068359e+01 3.835914611816406250e+00 -4.009044170379638672e+00
8.550000000000000000e+02 6.956741333007812500e+01 -1.703325653076171875e+01 1.730796337127685547e+00 1.251280307769775391e+01 4.273079872131347656e+00 -8.283644914627075195e-01
8.560000000000000000e+02 6.837125396728515625e+01 -1.854603004455566406e+01 2.391321361064910889e-01 1.576439762115478516e+01 4.801058769226074219e+00 6.054316088557243347e-02
8.570000000000000000e+02 6.828587341308593750e+01 -1.996919631958007812e+01 1.613780617713928223e+00 1.722634506225585938e+01 5.652037620544433594e+00 1.897401928901672363e+00
8.580000000000000000e+02 6.787119293212890625e+01 -2.129906272888183594e+01 2.953098058700561523e+00 1.375219440460205078e+01 5.011587619781494141e+00 4.227628231048583984e+00
8.590000000000000000e+02 6.836421203613281250e+01 -2.294747352600097656e+01 3.624638020992279053e-01 1.008824729919433594e+01 3.135213375091552734e+00 1.571499586105346680e+00
8.600000000000000000e+02 7.811990356445312500e+01 -4.166572570800781250e+01 1.540050208568572998e-01 8.671753883361816406e+00 2.647727489471435547e+00 4.327224195003509521e-02
8.610000000000000000e+02 7.822216796875000000e+01 -1.659676933288574219e+01 1.424807608127593994e-01 6.014043807983398438e+00 1.846957325935363770e+00 2.523928582668304443e-01
8.620000000000000000e+02 7.938319396972656250e+01 -1.251034450531005859e+01 -9.176527149975299835e-03 6.413288593292236328e+00 1.921233654022216797e+00 2.406256496906280518e-01
8.630000000000000000e+02 7.338295745849609375e+01 -5.708418846130371094e+00 -5.530800223350524902e-01 7.515290737152099609e+00 2.088663101196289062e+00 3.571786284446716309e-01
8.640000000000000000e+02 6.838969421386718750e+01 -1.293098068237304688e+01 4.538886621594429016e-02 9.249103546142578125e+00 2.788347721099853516e+00 -1.128891587257385254e+00
8.650000000000000000e+02 6.686427307128906250e+01 -1.329912853240966797e+01 1.652124881744384766e+00 6.290432929992675781e+00 2.382767438888549805e+00 -3.104259490966796875e+00
8.660000000000000000e+02 6.683899688720703125e+01 -1.014408588409423828e+01 -5.818212032318115234e-01 5.343477249145507812e+00 1.428496837615966797e+00 -1.333395361900329590e+00
8.670000000000000000e+02 7.814591217041015625e+01 -9.655858039855957031e+00 -5.115166679024696350e-02 7.509065151214599609e+00 2.237374067306518555e+00 5.607241392135620117e-01
8.680000000000000000e+02 7.937471008300781250e+01 -5.544996261596679688e+00 -2.654851600527763367e-02 8.512892723083496094e+00 2.545903444290161133e+00 1.120097786188125610e-01
8.690000000000000000e+02 7.806116485595703125e+01 -2.724195718765258789e+00 -7.315432280302047729e-02 8.402423858642578125e+00 2.498780727386474609e+00 8.733959496021270752e-02
8.700000000000000000e+02 7.810115814208984375e+01 1.961966323852539062e+01 4.876704141497612000e-02 7.105052947998046875e+00 2.146146059036254883e+00 5.684913396835327148e-01
8.710000000000000000e+02 7.935527038574218750e+01 2.370273017883300781e+01 5.483086220920085907e-03 8.013225555419921875e+00 2.405612707138061523e+00 2.190971374511718750e-01
8.720000000000000000e+02 7.281624603271484375e+01 3.214081192016601562e+01 -2.258611023426055908e-01 6.933380126953125000e+00 2.012255668640136719e+00 -3.534581065177917480e-01
8.730000000000000000e+02 6.225874328613281250e+01 4.092920303344726562e+01 6.638485789299011230e-01 3.607649564743041992e+00 1.281449437141418457e+00 -2.491604536771774292e-02
8.740000000000000000e+02 5.740261077880859375e+01 4.113781356811523438e+01 5.548630356788635254e-01 2.935050964355468750e+00 1.046974182128906250e+00 9.533210843801498413e-02
8.750000000000000000e+02 5.262460708618164062e+01 4.102923965454101562e+01 1.741599440574645996e-01 2.985344171524047852e+00 9.478512406349182129e-01 1.111286804080009460e-01
8.760000000000000000e+02 5.311395645141601562e+01 3.808531570434570312e+01 1.812570691108703613e-01 2.952449798583984375e+00 9.401120543479919434e-01 3.585529625415802002e-01
8.770000000000000000e+02 5.316770935058593750e+01 2.923966026306152344e+01 -5.824167728424072266e-01 3.131678819656372070e+00 7.647786140441894531e-01 1.375165939331054688e+00
8.780000000000000000e+02 5.380832290649414062e+01 2.127996635437011719e+01 8.608982563018798828e-01 2.052049398422241211e+00 8.738843202590942383e-01 1.729743480682373047e+00
8.790000000000000000e+02 5.000818634033203125e+01 1.488621044158935547e+01 1.056255459785461426e+00 1.018125915527343750e+01 3.371254444122314453e+00 3.252881050109863281e+00
8.800000000000000000e+02 5.264231872558593750e+01 2.056921005249023438e+01 1.950441360473632812e+00 4.897219181060791016e+00 2.054298162460327148e+00 2.733107805252075195e+00
8.810000000000000000e+02 5.514435195922851562e+01 2.181504249572753906e+01 -6.595407724380493164e-01 7.360413074493408203e-01 2.295017242431640625e-02 7.592466473579406738e-01
8.820000000000000000e+02 5.801352691650390625e+01 2.242908096313476562e+01 -2.765605449676513672e+00 1.660547554492950439e-01 -7.798652052879333496e-01 1.296793110668659210e-02
8.830000000000000000e+02 6.084263610839843750e+01 2.400896072387695312e+01 -2.107674121856689453e+00 -1.419831663370132446e-01 -6.748971939086914062e-01 2.089146971702575684e-01
8.840000000000000000e+02 6.505609893798828125e+01 2.501348686218261719e+01 -1.240979790687561035e+00 2.891800403594970703e+00 4.952461719512939453e-01 -1.506290197372436523e+00
8.850000000000000000e+02 6.779205322265625000e+01 2.146571159362792969e+01 -2.945264875888824463e-01 7.332777023315429688e+00 2.111475229263305664e+00 -1.958042979240417480e+00
8.860000000000000000e+02 6.897338104248046875e+01 2.361212921142578125e+01 -1.529831528663635254e+00 7.489558696746826172e+00 1.787918210029602051e+00 -1.054256916046142578e+00
8.870000000000000000e+02 7.494608306884765625e+01 2.289863395690917969e+01 -2.843482196331024170e-01 8.192498207092285156e+00 2.372444868087768555e+00 9.868622422218322754e-01
8.880000000000000000e+02 7.934777832031250000e+01 2.926942825317382812e+01 2.642134204506874084e-02 9.036437988281250000e+00 2.718858003616333008e+00 5.210073664784431458e-02
8.890000000000000000e+02 7.132398986816406250e+01 3.850616455078125000e+01 2.333403974771499634e-01 6.185155868530273438e+00 1.925548791885375977e+00 -1.731739044189453125e-01
8.900000000000000000e+02 7.937545776367187500e+01 3.201540756225585938e+01 2.270966582000255585e-02 9.098496437072753906e+00 2.736361980438232422e+00 -2.613973338156938553e-03
8.910000000000000000e+02 7.901782226562500000e+01 3.741672515869140625e+01 5.892232060432434082e-03 8.705257415771484375e+00 2.613345146179199219e+00 -9.439648687839508057e-02
8.920000000000000000e+02 7.658206176757812500e+01 3.789447402954101562e+01 -5.405960604548454285e-02 8.010681152343750000e+00 2.386986255645751953e+00 -7.627961784601211548e-02
8.930000000000000000e+02 4.252495574951171875e+01 4.058368301391601562e+01 -1.885462850332260132e-01 2.980104684829711914e+00 8.374674916267395020e-01 -2.295376360416412354e-02
8.940000000000000000e+02 4.589223098754882812e+01 3.013446426391601562e+01 -8.604605197906494141e-01 4.042768955230712891e+00 9.546924829483032227e-01 1.223251372575759888e-01
8.950000000000000000e+02 4.498206710815429688e+01 2.111979103088378906e+01 -5.036641359329223633e-01 5.895841121673583984e+00 1.617653131484985352e+00 -3.327572941780090332e-01
8.960000000000000000e+02 3.983337020874023438e+01 1.455822181701660156e+01 6.835373044013977051e-01 3.828598260879516602e+00 1.353640675544738770e+00 -1.657503485679626465e+00
8.970000000000000000e+02 4.087059783935546875e+01 1.128130435943603516e+01 1.658085823059082031e+00 6.159981250762939453e+00 2.345420122146606445e+00 -2.851505756378173828e+00
8.980000000000000000e+02 4.579842758178710938e+01 1.217776203155517578e+01 7.363877296447753906e-01 9.948346138000488281e+00 3.205420255661010742e+00 1.212241053581237793e+00
8.990000000000000000e+02 4.230864715576171875e+01 9.008086204528808594e+00 1.524606227874755859e+00 1.314472484588623047e+01 4.400799274444580078e+00 -2.457979202270507812e+00
9.000000000000000000e+02 4.271738433837890625e+01 6.701652526855468750e+00 7.675072550773620605e-01 1.591120529174804688e+01 5.003613948822021484e+00 -8.658779263496398926e-01
9.010000000000000000e+02 4.304505538940429688e+01 1.104942917823791504e+00 1.701588749885559082e+00 1.478261756896972656e+01 4.945261955261230469e+00 2.323438644409179688e+00
9.020000000000000000e+02 4.261952209472656250e+01 5.361093521118164062e+00 2.124125063419342041e-01 1.613821220397949219e+01 4.905187129974365234e+00 1.425856500864028931e-01
9.030000000000000000e+02 4.813636779785156250e+01 5.113415718078613281e+00 2.814683616161346436e-01 1.222984790802001953e+01 3.753394842147827148e+00 3.969197571277618408e-01
9.040000000000000000e+02 4.854093170166015625e+01 9.420337677001953125e+00 6.222962141036987305e-01 1.205025482177734375e+01 3.801765441894531250e+00 2.198807001113891602e+00
9.050000000000000000e+02 4.723507690429687500e+01 1.288340091705322266e+01 7.904615402221679688e-01 1.011309814453125000e+01 3.271067857742309570e+00 1.856424212455749512e+00
9.060000000000000000e+02 4.959663391113281250e+01 1.355039691925048828e+01 1.156586885452270508e+00 1.126540756225585938e+01 3.726598262786865234e+00 3.170028209686279297e+00
9.070000000000000000e+02 5.082137680053710938e+01 1.753451156616210938e+01 1.558695435523986816e+00 8.911055564880371094e+00 3.140925407409667969e+00 3.417170524597167969e+00
9.080000000000000000e+02 3.959090423583984375e+01 1.679616737365722656e+01 1.503258198499679565e-01 3.623508453369140625e+00 1.132150292396545410e+00 -1.338189601898193359e+00
9.090000000000000000e+02 3.749599456787109375e+01 4.092127609252929688e+01 -3.866718336939811707e-02 2.644677639007568359e+00 7.818031311035156250e-01 -7.834461331367492676e-02
9.100000000000000000e+02 4.176956558227539062e+01 3.701250839233398438e+01 -2.908414900302886963e-01 3.039465427398681641e+00 8.245871663093566895e-01 -1.356161534786224365e-01
9.110000000000000000e+02 3.397272491455078125e+01 3.230841445922851562e+01 -2.468238025903701782e-02 2.201937675476074219e+00 6.531766057014465332e-01 -4.405399858951568604e-01
9.120000000000000000e+02 3.380061340332031250e+01 2.144256782531738281e+01 -8.146128654479980469e-01 1.106407284736633301e+00 8.753833919763565063e-02 -6.548056602478027344e-01
9.130000000000000000e+02 3.389879226684570312e+01 1.807859611511230469e+01 -4.553618729114532471e-01 1.734978854656219482e-01 -8.455919474363327026e-02 1.129791699349880219e-02
9.140000000000000000e+02 3.564328765869140625e+01 1.853477096557617188e+01 -2.762436866760253906e-01 1.169386863708496094e+00 2.679429650306701660e-01 -6.279603838920593262e-01
9.150000000000000000e+02 3.714271545410156250e+01 1.543466472625732422e+01 6.411134004592895508e-01 1.183734297752380371e+00 5.474542975425720215e-01 -8.749411702156066895e-01
9.160000000000000000e+02 3.609119415283203125e+01 1.636259460449218750e+01 2.930120527744293213e-01 7.289627790451049805e-01 3.065924644470214844e-01 -5.537492632865905762e-01
9.170000000000000000e+02 3.261965942382812500e+01 4.095862197875976562e+01 1.617421954870223999e-01 2.373265743255615234e+00 7.605023384094238281e-01 -4.229430109262466431e-02
9.180000000000000000e+02 3.297419357299804688e+01 3.793035888671875000e+01 1.251395642757415771e-01 2.351709842681884766e+00 7.430548071861267090e-01 -1.488622575998306274e-01
9.190000000000000000e+02 2.997231674194335938e+01 2.905174064636230469e+01 8.617955446243286133e-02 1.375561714172363281e+00 4.385223686695098877e-01 -1.345834434032440186e-01
9.200000000000000000e+02 2.476088333129882812e+01 2.166122245788574219e+01 -2.594282150268554688e+00 1.068831793963909149e-02 -7.750781178474426270e-01 5.820716619491577148e-01
9.210000000000000000e+02 2.893012046813964844e+01 2.062759208679199219e+01 -2.423174858093261719e+00 -1.868255883455276489e-01 -7.830001115798950195e-01 5.587325096130371094e-01
9.220000000000000000e+02 2.936032104492187500e+01 2.197710227966308594e+01 -1.600629568099975586e+00 7.792676985263824463e-02 -4.568108320236206055e-01 1.290636807680130005e-01
9.230000000000000000e+02 3.274486541748046875e+01 1.884543418884277344e+01 -9.360751509666442871e-01 6.018074229359626770e-03 -2.790171205997467041e-01 2.962415218353271484e-01
9.240000000000000000e+02 2.243692588806152344e+01 4.069080352783203125e+01 -2.607320062816143036e-02 3.023401975631713867e+00 8.991986513137817383e-01 1.042695418000221252e-01
9.250000000000000000e+02 2.835763549804687500e+01 2.832086372375488281e+01 9.472216665744781494e-02 1.196430444717407227e+00 3.873457908630371094e-01 8.076439797878265381e-02
9.260000000000000000e+02 2.196972656250000000e+01 2.185806465148925781e+01 -3.530735373497009277e-01 1.412430286407470703e+00 3.178070187568664551e-01 1.557052016258239746e+00
9.270000000000000000e+02 2.336062812805175781e+01 2.185183525085449219e+01 -2.118654251098632812e+00 -7.973993569612503052e-02 -6.595183014869689941e-01 6.806504726409912109e-01
9.280000000000000000e+02 2.617132186889648438e+01 2.140522193908691406e+01 -2.781368970870971680e+00 -1.884978264570236206e-01 -8.909600973129272461e-01 5.514245033264160156e-01
9.290000000000000000e+02 2.005604982376098633e+00 4.165304946899414062e+01 -3.801095299422740936e-03 4.886939525604248047e+00 1.464941501617431641e+00 -1.114386017434298992e-03
9.300000000000000000e+02 4.187058925628662109e+00 3.805257797241210938e+01 -1.011132001876831055e-01 4.695967674255371094e+00 1.378456354141235352e+00 -1.837699860334396362e-01
9.310000000000000000e+02 2.345352411270141602e+00 3.569909667968750000e+01 -5.411462858319282532e-02 4.649595260620117188e+00 1.378644108772277832e+00 -1.596531271934509277e-01
9.320000000000000000e+02 2.089747428894042969e+00 2.875878906250000000e+01 -4.449048265814781189e-02 3.879144906997680664e+00 1.150396347045898438e+00 -3.969279229640960693e-01
9.330000000000000000e+02 1.983982920646667480e+00 2.313003349304199219e+01 -9.640317410230636597e-03 2.761165618896484375e+00 8.254575729370117188e-01 -5.232724547386169434e-01
9.340000000000000000e+02 1.800380587577819824e+00 1.748785400390625000e+01 1.845907419919967651e-02 1.444079756736755371e+00 4.387616515159606934e-01 -4.415028095245361328e-01
9.350000000000000000e+02 1.590075731277465820e+00 1.197215366363525391e+01 5.745424423366785049e-03 2.477260380983352661e-01 7.604143768548965454e-02 -3.090610802173614502e-01
9.360000000000000000e+02 1.587052702903747559e+00 9.148447990417480469e+00 4.094143956899642944e-02 -1.745660901069641113e-01 -4.008739441633224487e-02 -2.251499891281127930e-01
9.370000000000000000e+02 6.112182617187500000e+01 4.936794757843017578e+00 1.173082590103149414e-01 3.406013548374176025e-01 1.373728811740875244e-01 1.913742423057556152e-01
9.380000000000000000e+02 5.793169403076171875e+01 2.134043693542480469e+00 3.020814061164855957e-01 2.396875061094760895e-02 9.781505167484283447e-02 1.352886408567428589e-01
9.390000000000000000e+02 5.555216598510742188e+01 -3.403236627578735352e+00 1.086202025413513184e+00 -1.005603894591331482e-01 2.956924736499786377e-01 -2.124847173690795898e-01
9.400000000000000000e+02 5.130748367309570312e+01 -6.658175587654113770e-02 2.177052497863769531e+00 1.001163363456726074e+00 9.534648060798645020e-01 -8.800401091575622559e-01
9.410000000000000000e+02 5.006447982788085938e+01 -8.037446975708007812e+00 -1.260609626770019531e+00 3.059453725814819336e+00 5.396532416343688965e-01 1.204709529876708984e+00
9.420000000000000000e+02 5.052494812011718750e+01 -1.723703861236572266e+00 1.244308829307556152e+00 2.774018764495849609e+00 1.205498218536376953e+00 -6.913013458251953125e-01
9.430000000000000000e+02 4.847753906250000000e+01 2.210265398025512695e+00 1.663525581359863281e+00 9.406311035156250000e+00 3.320950984954833984e+00 -2.549068927764892578e+00
9.440000000000000000e+02 4.819974517822265625e+01 3.664935350418090820e+00 1.027192831039428711e+00 1.293519210815429688e+01 4.188715457916259766e+00 -1.213768720626831055e+00
9.450000000000000000e+02 4.050106048583984375e+01 -2.333105802536010742e+00 1.513376832008361816e+00 6.734001636505126953e+00 2.474213361740112305e+00 3.508558988571166992e+00
9.460000000000000000e+02 4.170780944824218750e+01 -2.587779998779296875e+00 -7.566625475883483887e-01 1.059871673583984375e+01 2.952616453170776367e+00 2.099038362503051758e+00
9.470000000000000000e+02 4.019113540649414062e+01 -3.525306463241577148e+00 -8.478582501411437988e-01 5.617151260375976562e+00 1.430787801742553711e+00 2.386998891830444336e+00
9.480000000000000000e+02 3.483024978637695312e+01 -4.766615867614746094e+00 -4.420310974121093750e+00 -3.033439517021179199e-01 -1.417096495628356934e+00 -1.356157183647155762e+00
9.490000000000000000e+02 3.632464599609375000e+01 -5.651233673095703125e+00 -2.350949048995971680e+00 6.926112174987792969e-01 -4.975013434886932373e-01 -2.811040878295898438e-01
9.500000000000000000e+02 3.207916259765625000e+01 -5.303736209869384766e+00 -2.676795482635498047e+00 -1.676791757345199585e-01 -8.533424139022827148e-01 -1.137299656867980957e+00
9.510000000000000000e+02 2.914930343627929688e+01 -1.339591979980468750e+01 1.084605336189270020e+00 6.987429261207580566e-01 5.350044965744018555e-01 -1.833030223846435547e+00
9.520000000000000000e+02 2.591573143005371094e+01 -2.026318550109863281e+00 3.000496864318847656e+00 2.782299280166625977e+00 1.734838843345642090e+00 -2.777946949005126953e+00
9.530000000000000000e+02 2.500573921203613281e+01 -9.748981595039367676e-01 2.480576276779174805e+00 2.653923988342285156e+00 1.540350079536437988e+00 -2.529614686965942383e+00
9.540000000000000000e+02 2.417277908325195312e+01 1.304315328598022461e-01 1.843136429786682129e+00 2.274928808212280273e+00 1.235419511795043945e+00 -1.939361572265625000e+00
9.550000000000000000e+02 1.819195938110351562e+01 1.952617073059082031e+01 1.965573191642761230e+00 1.079866695404052734e+01 3.829272031784057617e+00 1.946017980575561523e+00
9.560000000000000000e+02 2.035989570617675781e+01 2.075178146362304688e+01 2.497572183609008789e+00 3.335100889205932617e+00 1.749801993370056152e+00 3.279928207397460938e+00
9.570000000000000000e+02 1.685310745239257812e+01 -1.214659023284912109e+01 -9.236632347106933594e+00 -1.030445933341979980e+00 -3.080123424530029297e+00 8.845390081405639648e-01
9.580000000000000000e+02 2.054353713989257812e+01 -1.240015888214111328e+01 -3.757452249526977539e+00 5.424430370330810547e-01 -9.645027518272399902e-01 1.710425168275833130e-01
9.590000000000000000e+02 1.977416038513183594e+01 -1.334708404541015625e+01 -3.326020002365112305e+00 -1.927248388528823853e-01 -1.055623412132263184e+00 1.258642196655273438e+00
9.600000000000000000e+02 2.089268684387207031e+01 -1.385901355743408203e+01 -2.786901950836181641e+00 -1.235959455370903015e-01 -8.731493949890136719e-01 6.544534564018249512e-01
9.610000000000000000e+02 2.135168647766113281e+01 -1.281268882751464844e+01 -2.856836080551147461e+00 5.299983024597167969e-01 -6.980513334274291992e-01 3.354013860225677490e-01
9.620000000000000000e+02 2.888105773925781250e+01 -1.478089809417724609e+01 9.733972549438476562e-01 1.963690668344497681e-01 3.509298861026763916e-01 -7.599987983703613281e-01
9.630000000000000000e+02 3.303427505493164062e+01 -1.562031078338623047e+01 5.620199203491210938e+00 2.941780090332031250e+00 2.568593740463256836e+00 -3.193801164627075195e+00
9.640000000000000000e+02 3.415989303588867188e+01 -1.641948127746582031e+01 5.261109828948974609e+00 4.801026821136474609e+00 3.018640995025634766e+00 -4.606059074401855469e+00
9.650000000000000000e+02 3.574486923217773438e+01 -1.606906700134277344e+01 3.049948692321777344e+00 7.266269683837890625e+00 3.094865560531616211e+00 -2.197837591171264648e+00
9.660000000000000000e+02 3.775534820556640625e+01 -6.572868347167968750e+00 -1.522040486335754395e+00 3.027396440505981445e+00 4.516068100929260254e-01 1.011295676231384277e+00
9.670000000000000000e+02 3.649526596069335938e+01 -6.920692443847656250e+00 -1.078055143356323242e+00 1.629715323448181152e+00 1.654980778694152832e-01 1.996322870254516602e-01
9.680000000000000000e+02 2.961113166809082031e+01 -1.066199684143066406e+01 7.294728159904479980e-01 1.443431138992309570e+00 6.518712043762207031e-01 -3.062218904495239258e+00
9.690000000000000000e+02 2.742236518859863281e+01 -6.252779006958007812e+00 1.437697052955627441e+00 2.436466932296752930e+00 1.162249207496643066e+00 -2.408851623535156250e+00
9.700000000000000000e+02 2.612459182739257812e+01 -1.452478694915771484e+01 -1.087020158767700195e+00 1.081540510058403015e-01 -2.936598360538482666e-01 -3.343371450901031494e-01
9.710000000000000000e+02 3.602320861816406250e+01 -1.911897277832031250e+01 2.064885616302490234e+00 1.292033195495605469e+01 4.495564937591552734e+00 -2.620894193649291992e+00
9.720000000000000000e+02 3.512439727783203125e+01 -1.726874160766601562e+01 4.230758190155029297e+00 8.740301132202148438e+00 3.891317844390869141e+00 -4.780671596527099609e+00
9.730000000000000000e+02 4.599948120117187500e+01 -1.976306533813476562e+01 7.210423350334167480e-01 1.284212398529052734e+01 4.068950176239013672e+00 -3.770907819271087646e-01
9.740000000000000000e+02 3.606806564331054688e+01 -2.041698265075683594e+01 3.075482845306396484e-01 1.194532585144042969e+01 3.675862312316894531e+00 -5.675752162933349609e-01
9.750000000000000000e+02 3.686786270141601562e+01 -2.437584304809570312e+01 1.878859877586364746e+00 1.075440692901611328e+01 3.789980173110961914e+00 1.507086992263793945e+00
9.760000000000000000e+02 3.585029602050781250e+01 -2.522949981689453125e+01 1.802969098091125488e+00 1.080430030822753906e+01 3.782180786132812500e+00 2.832124948501586914e+00
9.770000000000000000e+02 3.325097656250000000e+01 -2.841009140014648438e+01 1.840603828430175781e+00 3.205918312072753906e+00 1.513956665992736816e+00 2.435411691665649414e+00
9.780000000000000000e+02 3.273154067993164062e+01 -3.050791931152343750e+01 -1.507495343685150146e-01 3.117284536361694336e+00 8.899604678153991699e-01 1.797010540962219238e+00
9.790000000000000000e+02 2.725881767272949219e+01 -3.443823623657226562e+01 -4.480983614921569824e-01 6.123313903808593750e-01 4.926990717649459839e-02 7.490560412406921387e-01
9.800000000000000000e+02 2.668114852905273438e+01 -3.076402091979980469e+01 -2.398698329925537109e+00 9.304144419729709625e-03 -7.168182730674743652e-01 1.363816559314727783e-01
9.810000000000000000e+02 1.151304244995117188e+01 -2.612234115600585938e+01 -9.567044377326965332e-01 6.401236534118652344e+00 1.633359551429748535e+00 -1.209607645869255066e-01
9.820000000000000000e+02 1.167775821685791016e+01 -2.067749404907226562e+01 1.136637091636657715e+00 1.389842510223388672e+01 4.510518550872802734e+00 -2.066338062286376953e+00
9.830000000000000000e+02 6.820530700683593750e+01 -1.168991565704345703e+01 -3.794047236442565918e-01 8.012301445007324219e+00 2.289869070053100586e+00 -1.332801580429077148e+00
9.840000000000000000e+02 1.096545600891113281e+01 -1.404660344123840332e+00 4.476013183593750000e+00 1.726594352722167969e+01 6.522586822509765625e+00 -8.352860063314437866e-02
9.850000000000000000e+02 2.060699272155761719e+01 -2.100348711013793945e+00 3.027156114578247070e+00 2.143356084823608398e+00 1.551153659820556641e+00 -2.043601751327514648e+00
9.860000000000000000e+02 2.241726684570312500e+01 -1.296457767486572266e+01 -2.493769645690917969e+00 4.932362139225006104e-01 -6.001600027084350586e-01 -1.358764767646789551e-01
9.870000000000000000e+02 5.226493835449218750e+01 -2.430168628692626953e+00 1.345118165016174316e+00 1.069589495658874512e+00 7.244123220443725586e-01 -2.113978564739227295e-01
9.880000000000000000e+02 6.406637573242187500e+01 -6.117871284484863281e+00 7.419038098305463791e-03 2.689572572708129883e+00 8.090974688529968262e-01 -7.073817849159240723e-01
9.890000000000000000e+02 6.319427490234375000e+01 3.279037773609161377e-01 3.519041538238525391e-01 2.176144123077392578e+00 7.584144473075866699e-01 3.331297338008880615e-01
9.900000000000000000e+02 3.056955718994140625e+01 -1.355921840667724609e+01 2.099684476852416992e+00 9.212002754211425781e-01 9.062653779983520508e-01 -2.263882398605346680e+00
9.910000000000000000e+02 4.363525772094726562e+01 -3.340208816528320312e+01 -1.120334029197692871e+00 6.292320728302001953e+00 1.551596045494079590e+00 -7.087234258651733398e-01
9.920000000000000000e+02 7.221138000488281250e+01 -2.987545776367187500e+01 -7.413199543952941895e-01 7.418682098388671875e+00 2.003208637237548828e+00 -2.481456845998764038e-01
9.930000000000000000e+02 6.760084533691406250e+01 5.540431499481201172e+00 -4.013356268405914307e-01 5.813129901885986328e+00 1.623538255691528320e+00 7.710766196250915527e-01
9.940000000000000000e+02 7.415575408935546875e+01 3.073878049850463867e+00 -3.682330250740051270e-01 7.606195449829101562e+00 2.171388864517211914e+00 -3.488004803657531738e-01
9.950000000000000000e+02 6.373708724975585938e+01 3.914668798446655273e+00 1.834188401699066162e-01 2.344920635223388672e+00 7.585018873214721680e-01 8.708563446998596191e-01
9.960000000000000000e+02 5.779904937744140625e+01 -7.140995502471923828e+00 -4.105167090892791748e-01 3.888929635286331177e-02 -1.114882230758666992e-01 -1.823748499155044556e-01
9.970000000000000000e+02 6.376621627807617188e+01 2.220446968078613281e+01 -3.362298965454101562e+00 1.105694621801376343e-01 -9.755188226699829102e-01 3.275482654571533203e-01
9.980000000000000000e+02 6.506869506835937500e+01 3.034640693664550781e+01 4.319066181778907776e-02 3.575237751007080078e+00 1.085528492927551270e+00 -7.642837166786193848e-01
9.990000000000000000e+02 5.922579956054687500e+01 3.069809532165527344e+01 3.200680911540985107e-01 2.030871629714965820e+00 7.052819132804870605e-01 4.544067382812500000e-01
1.000000000000000000e+03 5.713763809204101562e+01 3.199343299865722656e+01 2.237305641174316406e-01 2.439418554306030273e+00 7.989447116851806641e-01 7.576928734779357910e-01
1.001000000000000000e+03 5.091733932495117188e+01 2.343714523315429688e+01 -8.717976808547973633e-01 5.175548553466796875e+00 1.291125297546386719e+00 1.383810400962829590e+00
1.002000000000000000e+03 4.510149765014648438e+01 2.301483154296875000e+01 -8.760163784027099609e-01 5.423255443572998047e+00 1.364171743392944336e+00 -3.396060466766357422e-01
1.003000000000000000e+03 3.566674804687500000e+01 2.235955238342285156e+01 -6.105989217758178711e-01 1.901673078536987305e+00 3.873222470283508301e-01 -9.918460845947265625e-01
1.004000000000000000e+03 2.339866828918457031e+01 2.345163917541503906e+01 -3.492505252361297607e-01 7.602959871292114258e-01 1.233136355876922607e-01 1.504204034805297852e+00
1.005000000000000000e+03 1.945921325683593750e+01 2.146932220458984375e+01 -4.751004576683044434e-01 8.492039680480957031e+00 2.405081987380981445e+00 2.673482179641723633e+00
1.006000000000000000e+03 7.588040351867675781e+00 2.614567756652832031e+01 -3.143011033535003662e-01 4.653510093688964844e+00 1.301762700080871582e+00 -1.033225297927856445e+00
1.007000000000000000e+03 7.771856784820556641e+00 3.305995559692382812e+01 -3.762697875499725342e-01 4.611247062683105469e+00 1.270493149757385254e+00 -4.694637358188629150e-01
1.008000000000000000e+03 1.828437995910644531e+01 2.897035217285156250e+01 -8.779677748680114746e-01 4.522272109985351562e+00 1.093291282653808594e+00 8.508565425872802734e-01
1.009000000000000000e+03 1.842903137207031250e+01 1.671138000488281250e+01 4.038026928901672363e-01 1.462001705169677734e+01 4.507145881652832031e+00 1.261299490928649902e+00
1.010000000000000000e+03 9.597328186035156250e+00 2.051333236694335938e+01 1.726018935441970825e-01 5.311645984649658203e+00 1.645274400711059570e+00 -1.207000494003295898e+00
1.011000000000000000e+03 7.214816284179687500e+01 3.402722549438476562e+01 -6.629043072462081909e-02 6.553537845611572266e+00 1.946174144744873047e+00 -3.762601613998413086e-01
1.012000000000000000e+03 6.059243392944335938e+01 3.220538711547851562e+01 4.361863732337951660e-01 2.450209617614746094e+00 8.659188151359558105e-01 1.860100179910659790e-01
1.013000000000000000e+03 4.325294876098632812e+01 3.208691406250000000e+01 -6.559220552444458008e-01 3.558410406112670898e+00 8.707464933395385742e-01 -2.027269154787063599e-01
1.014000000000000000e+03 3.876909255981445312e+01 2.803361129760742188e+01 -5.612323284149169922e-01 3.043481111526489258e+00 7.446746230125427246e-01 -8.767090439796447754e-01
1.015000000000000000e+03 3.124242210388183594e+01 3.184624099731445312e+01 1.458922028541564941e-01 1.863053083419799805e+00 6.026835441589355469e-01 -2.283222526311874390e-01
1.016000000000000000e+03 2.527618217468261719e+01 3.126618194580078125e+01 7.415086776018142700e-02 2.147756099700927734e+00 6.665720939636230469e-01 5.520318150520324707e-01
1.017000000000000000e+03 2.168791770935058594e+00 3.160237884521484375e+01 -4.574001580476760864e-02 4.273865222930908203e+00 1.268437623977661133e+00 -2.990926504135131836e-01
1.018000000000000000e+03 1.868679237365722656e+01 1.124665164947509766e+01 1.730529069900512695e-01 1.230590057373046875e+01 3.743686199188232422e+00 -1.118939042091369629e+00
1.019000000000000000e+03 1.422178268432617188e+01 1.297412681579589844e+01 5.949197411537170410e-01 8.867577552795410156e+00 2.838749170303344727e+00 2.691228985786437988e-01
1.020000000000000000e+03 1.738407373428344727e+00 1.609641838073730469e+01 2.437254972755908966e-02 1.118472456932067871e+00 3.428535163402557373e-01 -4.055022299289703369e-01
1.021000000000000000e+03 4.633871841430664062e+01 -1.719871330261230469e+01 4.836472570896148682e-01 1.255976581573486328e+01 3.913023710250854492e+00 1.090787172317504883e+00
1.022000000000000000e+03 4.668014526367187500e+01 -2.313051605224609375e+01 2.069678068161010742e+00 1.196827507019042969e+01 4.211386203765869141e+00 -3.704653739929199219e+00
1.023000000000000000e+03 4.619773101806640625e+01 -2.192996406555175781e+01 1.322101354598999023e+00 1.276107597351074219e+01 4.224953174591064453e+00 -2.189075231552124023e+00
1.024000000000000000e+03 1.445462703704833984e-01 -1.995569705963134766e+00 -3.664036514237523079e-03 -3.443973362445831299e-01 -1.044184118509292603e-01 -2.518291026353836060e-02
1.025000000000000000e+03 5.191534161567687988e-01 -1.631959438323974609e+00 -9.367848746478557587e-03 -1.792214810848236084e-01 -5.657679960131645203e-02 -1.096400544047355652e-01
1.026000000000000000e+03 2.694852352142333984e+00 -1.689787864685058594e+00 1.102396100759506226e-01 1.061309054493904114e-01 6.491115689277648926e-02 -1.339730024337768555e-01
1.027000000000000000e+03 1.999397873878479004e+00 -4.169214630126953125e+01 1.184296756982803345e-01 6.814111709594726562e+00 2.079762458801269531e+00 -3.249000012874603271e-02
1.028000000000000000e+03 1.282752633094787598e+00 -4.022183990478515625e+01 -8.344668895006179810e-02 6.862618923187255859e+00 2.033751726150512695e+00 -8.219717442989349365e-02
1.029000000000000000e+03 4.137279033660888672e+00 -3.837894058227539062e+01 -1.731677502393722534e-01 6.236178398132324219e+00 1.818903207778930664e+00 2.488281428813934326e-01
1.030000000000000000e+03 8.405957818031311035e-01 -3.621285629272460938e+01 -3.425429388880729675e-02 6.954417705535888672e+00 2.076049089431762695e+00 4.937740042805671692e-02
1.031000000000000000e+03 8.063796758651733398e-01 -3.486343002319335938e+01 -1.718904450535774231e-02 6.851167678833007812e+00 2.050193548202514648e+00 9.433700144290924072e-02
1.032000000000000000e+03 2.523290157318115234e+00 -3.593931579589843750e+01 -1.330359876155853271e-01 6.450710773468017578e+00 1.895302414894104004e+00 1.840628981590270996e-01
1.033000000000000000e+03 7.686583399772644043e-01 -3.351015853881835938e+01 -2.619702182710170746e-02 6.671346187591552734e+00 1.993544816970825195e+00 1.314971596002578735e-01
1.034000000000000000e+03 6.774172782897949219e-01 -2.941815185546875000e+01 -2.261754870414733887e-02 5.611265182495117188e+00 1.676594257354736328e+00 2.564859986305236816e-01
1.035000000000000000e+03 6.700994968414306641e-01 -2.805865097045898438e+01 -1.719566248357295990e-02 5.066822528839111328e+00 1.514888048171997070e+00 2.991966903209686279e-01
1.036000000000000000e+03 2.014734745025634766e+00 -2.787423133850097656e+01 -8.504084497690200806e-02 5.144647121429443359e+00 1.517881870269775391e+00 7.923753857612609863e-01
1.037000000000000000e+03 6.652933359146118164e-01 -2.669946670532226562e+01 -8.954787626862525940e-03 4.442198753356933594e+00 1.329973101615905762e+00 3.274288475513458252e-01
1.038000000000000000e+03 6.340211629867553711e-01 -2.259884452819824219e+01 -5.481848493218421936e-03 2.329485177993774414e+00 6.972010135650634766e-01 3.155505061149597168e-01
1.039000000000000000e+03 6.207938194274902344e-01 -2.123762893676757812e+01 6.227887049317359924e-02 1.694324135780334473e+00 5.269808769226074219e-01 2.626172006130218506e-01
1.040000000000000000e+03 1.857836365699768066e+00 -2.107188987731933594e+01 1.016552224755287170e-01 2.749325752258300781e+00 8.552943468093872070e-01 6.963999867439270020e-01
1.041000000000000000e+03 6.068776845932006836e-01 -1.987627029418945312e+01 -4.354033619165420532e-03 1.183586955070495605e+00 3.537698686122894287e-01 1.901305019855499268e-01
1.042000000000000000e+03 5.651793479919433594e-01 -1.579492378234863281e+01 5.140227824449539185e-02 5.789936780929565430e-01 1.891187876462936401e-01 -2.612260635942220688e-03
1.043000000000000000e+03 5.523924231529235840e-01 -1.443845558166503906e+01 -2.323700487613677979e-02 6.314491629600524902e-01 1.824636608362197876e-01 -4.431716352701187134e-02
1.044000000000000000e+03 1.650644540786743164e+00 -1.434974861145019531e+01 3.316657617688179016e-02 1.670775771141052246e+00 5.111827254295349121e-01 -6.035812199115753174e-02
1.045000000000000000e+03 5.452869534492492676e-01 -1.308105468750000000e+01 1.012036018073558807e-02 7.140141129493713379e-01 2.172403335571289062e-01 -2.469433471560478210e-02
1.046000000000000000e+03 5.137413740158081055e-01 -8.970359802246093750e+00 -2.779694506898522377e-03 4.780240356922149658e-01 1.425732970237731934e-01 8.608767390251159668e-02
1.047000000000000000e+03 4.526658356189727783e-01 -7.619867801666259766e+00 -2.192444726824760437e-02 1.842166930437088013e-01 4.868767410516738892e-02 1.192750111222267151e-01
1.048000000000000000e+03 1.261722326278686523e+00 -6.298806190490722656e+00 1.721885986626148224e-02 4.006740450859069824e-01 1.253678649663925171e-01 3.014372587203979492e-01
1.049000000000000000e+03 7.262826538085937500e+01 -4.088161087036132812e+01 5.655985325574874878e-02 6.498814582824707031e+00 1.966612339019775391e+00 3.983275219798088074e-02
1.050000000000000000e+03 5.223109436035156250e+01 -4.106409454345703125e+01 5.752307176589965820e-02 2.778942584991455078e+00 8.509396910667419434e-01 -3.114174306392669678e-01
1.051000000000000000e+03 3.255046081542968750e+01 -4.093102264404296875e+01 -7.925950288772583008e-01 3.227991580963134766e+00 7.306190133094787598e-01 3.232612311840057373e-01
1.052000000000000000e+03 1.261327648162841797e+01 -4.100692749023437500e+01 -1.177865490317344666e-01 3.276146411895751953e+00 9.475079774856567383e-01 -7.527174800634384155e-02
1.053000000000000000e+03 7.838636016845703125e+01 4.020411682128906250e+01 -3.890029713511466980e-02 8.415941238403320312e+00 2.513112306594848633e+00 -1.685715913772583008e-01
1.054000000000000000e+03 7.798241424560546875e+01 4.173222351074218750e+01 2.205525040626525879e-01 8.316507339477539062e+00 2.561117887496948242e+00 -6.181903183460235596e-02
1.055000000000000000e+03 7.860525512695312500e+01 3.876497268676757812e+01 -4.922329634428024292e-02 8.548383712768554688e+00 2.549747943878173828e+00 -1.336686164140701294e-01
1.056000000000000000e+03 7.928509521484375000e+01 3.473974609375000000e+01 2.482563257217407227e-02 8.965135574340820312e+00 2.696988344192504883e+00 -3.633048757910728455e-02
1.057000000000000000e+03 7.784995269775390625e+01 3.449299621582031250e+01 -6.086058914661407471e-02 8.502058029174804688e+00 2.532359361648559570e+00 -9.637105464935302734e-02
1.058000000000000000e+03 7.934409332275390625e+01 3.338372421264648438e+01 -4.073904082179069519e-02 9.046714782714843750e+00 2.701792955398559570e+00 -2.753814309835433960e-02
1.059000000000000000e+03 7.937142944335937500e+01 3.064453697204589844e+01 -5.030176043510437012e-02 9.097412109375000000e+00 2.714133024215698242e+00 2.527196705341339111e-02
1.060000000000000000e+03 7.801797485351562500e+01 2.930297660827636719e+01 -1.006482690572738647e-01 8.614314079284667969e+00 2.554099559783935547e+00 1.130507662892341614e-01
1.061000000000000000e+03 7.932966613769531250e+01 2.648319435119628906e+01 1.886248961091041565e-02 8.694905281066894531e+00 2.614130496978759766e+00 1.405301690101623535e-01
1.062000000000000000e+03 7.660063934326171875e+01 2.504117012023925781e+01 -2.449123263359069824e-01 8.166249275207519531e+00 2.376401185989379883e+00 5.856555104255676270e-01
1.063000000000000000e+03 7.933789062500000000e+01 2.509082412719726562e+01 -4.876078665256500244e-02 8.399607658386230469e+00 2.505254030227661133e+00 1.718422919511795044e-01
1.064000000000000000e+03 7.937420654296875000e+01 2.092380523681640625e+01 -5.648952443152666092e-03 7.070395946502685547e+00 2.119424104690551758e+00 2.404595315456390381e-01
1.065000000000000000e+03 7.937266540527343750e+01 1.954556465148925781e+01 4.422398284077644348e-02 6.613645076751708984e+00 1.997360706329345703e+00 1.944599896669387817e-01
1.066000000000000000e+03 7.811574554443359375e+01 2.096365737915039062e+01 3.005602583289146423e-02 7.390868663787841797e+00 2.226277351379394531e+00 5.640906095504760742e-01
1.067000000000000000e+03 7.937055206298828125e+01 1.816361999511718750e+01 -1.689329370856285095e-02 6.231714248657226562e+00 1.864446282386779785e+00 1.706808358430862427e-01
1.068000000000000000e+03 7.931224060058593750e+01 1.400218963623046875e+01 1.018726304173469543e-01 5.945913791656494141e+00 1.814335942268371582e+00 -6.565137207508087158e-02
1.069000000000000000e+03 7.930207061767578125e+01 1.260997581481933594e+01 -4.040675237774848938e-02 6.134300231933593750e+00 1.828168034553527832e+00 -1.118055805563926697e-01
1.070000000000000000e+03 7.930884552001953125e+01 1.120560455322265625e+01 7.792834937572479248e-02 6.411417007446289062e+00 1.946803569793701172e+00 -1.610403060913085938e-01
1.071000000000000000e+03 7.933457183837890625e+01 7.001321315765380859e+00 -2.006379887461662292e-02 7.578811645507812500e+00 2.267624378204345703e+00 -1.918586939573287964e-01
1.072000000000000000e+03 7.933948516845703125e+01 5.604192256927490234e+00 -8.475123904645442963e-03 7.944356441497802734e+00 2.380764245986938477e+00 -1.620526015758514404e-01
1.073000000000000000e+03 7.802260589599609375e+01 5.659283638000488281e+00 -6.291607022285461426e-02 7.842555522918701172e+00 2.333891868591308594e+00 -4.417752027511596680e-01
1.074000000000000000e+03 7.934276580810546875e+01 4.205451011657714844e+00 -1.273417472839355469e-02 8.260274887084960938e+00 2.474262237548828125e+00 -1.394368112087249756e-01
1.075000000000000000e+03 7.934072113037109375e+01 2.237382531166076660e-02 -2.470437623560428619e-02 8.801552772521972656e+00 2.633054494857788086e+00 -3.361494094133377075e-02
1.076000000000000000e+03 7.934469604492187500e+01 -1.368726968765258789e+00 -6.570211611688137054e-03 8.843555450439453125e+00 2.651095390319824219e+00 -1.186371548101305962e-03
1.077000000000000000e+03 7.936515808105468750e+01 -4.153395175933837891e+00 -7.506259251385927200e-03 8.705434799194335938e+00 2.609378576278686523e+00 7.311302423477172852e-02
1.078000000000000000e+03 7.938021087646484375e+01 -8.326656341552734375e+00 -2.052039094269275665e-02 7.864077568054199219e+00 2.353067159652709961e+00 1.880746781826019287e-01
1.079000000000000000e+03 7.937924957275390625e+01 -1.111602115631103516e+01 1.371389837004244328e-03 6.927811145782470703e+00 2.078754663467407227e+00 2.306913733482360840e-01
1.080000000000000000e+03 7.940329742431640625e+01 -1.529038715362548828e+01 4.340559244155883789e-03 5.482999324798583984e+00 1.646201968193054199e+00 1.691049784421920776e-01
1.081000000000000000e+03 7.940441131591796875e+01 -1.806292152404785156e+01 1.594926044344902039e-02 5.066381454467773438e+00 1.524699330329895020e+00 1.044250372797250748e-02
1.082000000000000000e+03 7.934265136718750000e+01 -2.361970138549804688e+01 1.332489959895610809e-02 6.327040195465087891e+00 1.902109503746032715e+00 -2.631852626800537109e-01
1.083000000000000000e+03 7.931486511230468750e+01 -2.502203559875488281e+01 -4.433408845216035843e-03 6.859691143035888672e+00 2.056577444076538086e+00 -2.694488763809204102e-01
1.084000000000000000e+03 7.930747222900390625e+01 -2.924126434326171875e+01 -5.874970927834510803e-03 8.227938652038574219e+00 2.466619014739990234e+00 -1.932513713836669922e-01
1.085000000000000000e+03 7.927877044677734375e+01 -3.204629898071289062e+01 5.051158368587493896e-04 8.767283439636230469e+00 2.630336761474609375e+00 -1.035647243261337280e-01
1.086000000000000000e+03 7.911643218994140625e+01 -3.627850341796875000e+01 -8.861419558525085449e-02 9.034102439880371094e+00 2.683646440505981445e+00 -7.721848785877227783e-03
1.087000000000000000e+03 7.912124633789062500e+01 -3.768532180786132812e+01 -5.799100268632173538e-03 8.980952262878417969e+00 2.692545890808105469e+00 7.201872020959854126e-02
1.088000000000000000e+03 7.920430755615234375e+01 -3.900183486938476562e+01 7.500011473894119263e-02 8.892635345458984375e+00 2.690290689468383789e+00 2.111072465777397156e-02
1.089000000000000000e+03 7.900362396240234375e+01 -4.022726440429687500e+01 -1.437695175409317017e-01 8.749905586242675781e+00 2.581840991973876953e+00 1.136168614029884338e-01
1.090000000000000000e+03 6.117657184600830078e+00 3.817251205444335938e+01 -1.917500197887420654e-01 4.570184230804443359e+00 1.313530325889587402e+00 -1.999837905168533325e-01
1.091000000000000000e+03 2.760265159606933594e+01 4.068326568603515625e+01 1.527110040187835693e-01 2.525614500045776367e+00 8.034976124763488770e-01 4.175355657935142517e-02
1.092000000000000000e+03 4.766719436645507812e+01 4.062121963500976562e+01 -1.261420398950576782e-01 3.075591802597045898e+00 8.848348855972290039e-01 8.212039619684219360e-02
1.093000000000000000e+03 6.751549530029296875e+01 3.787088394165039062e+01 4.500718414783477783e-01 4.810009002685546875e+00 1.578024268150329590e+00 -2.737143039703369141e-01
1.094000000000000000e+03 3.676382899284362793e-01 1.661193966865539551e+00 -2.721662446856498718e-02 -2.383239716291427612e-01 -7.966218143701553345e-02 1.304989308118820190e-01
1.095000000000000000e+03 4.485646247863769531e+00 1.679058551788330078e+00 -2.621413469314575195e-01 6.366524845361709595e-02 -5.954283103346824646e-02 4.442657530307769775e-01
1.096000000000000000e+03 1.213474273681640625e+00 6.409574508666992188e+00 7.019682973623275757e-02 -7.405875921249389648e-01 -2.011172324419021606e-01 4.003686364740133286e-03
1.097000000000000000e+03 5.215926766395568848e-01 9.236153602600097656e+00 1.163739617913961411e-02 -1.086810827255249023e+00 -3.225520253181457520e-01 -8.512932807207107544e-02
1.098000000000000000e+03 5.334509611129760742e-01 1.205774116516113281e+01 1.375743537209928036e-03 -5.418673157691955566e-01 -1.621474772691726685e-01 -1.142845749855041504e-01
1.099000000000000000e+03 5.826973915100097656e-01 1.626365661621093750e+01 1.030841940519167110e-05 4.374724328517913818e-01 1.312448233366012573e-01 -1.449192315340042114e-01
1.100000000000000000e+03 6.031091213226318359e-01 1.767151260375976562e+01 1.393526606261730194e-02 8.098456263542175293e-01 2.471342682838439941e-01 -1.638163179159164429e-01
1.101000000000000000e+03 6.538141965866088867e-01 2.191046142578125000e+01 -2.302700886502861977e-03 2.013164520263671875e+00 6.032585501670837402e-01 -1.888493150472640991e-01
1.102000000000000000e+03 6.597199440002441406e-01 2.331793594360351562e+01 -1.701120636425912380e-03 2.413983345031738281e+00 7.236846685409545898e-01 -1.844459623098373413e-01
1.103000000000000000e+03 6.647863984107971191e-01 2.472554206848144531e+01 -6.058044382371008396e-04 2.804087877273559570e+00 8.410446047782897949e-01 -1.822186559438705444e-01
1.104000000000000000e+03 6.955734491348266602e-01 2.896667098999023438e+01 -1.036693900823593140e-02 3.822206974029541016e+00 1.143552064895629883e+00 -1.427188217639923096e-01
1.105000000000000000e+03 7.073342204093933105e-01 3.038284492492675781e+01 -9.073692373931407928e-03 4.084198474884033203e+00 1.222537517547607422e+00 -1.233261674642562866e-01
1.106000000000000000e+03 2.137357234954833984e+00 3.018317794799804688e+01 -4.549941793084144592e-02 4.097245216369628906e+00 1.215523719787597656e+00 -3.530964553356170654e-01
1.107000000000000000e+03 7.135723829269409180e-01 3.179534721374511719e+01 -6.290211807936429977e-03 4.309421062469482422e+00 1.290939211845397949e+00 -1.082204431295394897e-01
1.108000000000000000e+03 7.825862169265747070e-01 3.600022506713867188e+01 -1.103973016142845154e-02 4.753583908081054688e+00 1.422763228416442871e+00 -5.015825107693672180e-02
1.109000000000000000e+03 2.704230308532714844e+00 3.824567413330078125e+01 -4.764430969953536987e-02 4.755444049835205078e+00 1.412339925765991211e+00 -8.917369693517684937e-02
1.110000000000000000e+03 9.827939867973327637e-01 3.874981307983398438e+01 -2.443596487864851952e-03 4.865890026092529297e+00 1.459033966064453125e+00 -2.636813931167125702e-02
1.111000000000000000e+03 1.290075778961181641e+00 4.012069320678710938e+01 -1.856636442244052887e-02 4.884687900543212891e+00 1.459836483001708984e+00 -8.756623603403568268e-03
1.112000000000000000e+03 2.879904508590698242e+00 1.628720641136169434e+00 -2.464793622493743896e-01 -6.557606905698776245e-02 -9.361662715673446655e-02 5.060988068580627441e-01
1.113000000000000000e+03 2.066986322402954102e+00 1.650938034057617188e+00 -1.724727898836135864e-01 -1.431437879800796509e-01 -9.468497335910797119e-02 4.272904694080352783e-01
1.114000000000000000e+03 1.744978308677673340e+00 1.789722561836242676e+00 -1.321838796138763428e-01 -1.775498390197753906e-01 -9.292011708021163940e-02 4.163975715637207031e-01
1.115000000000000000e+03 1.508145928382873535e+00 1.610172271728515625e+00 -1.307060271501541138e-01 -1.783918589353561401e-01 -9.272936731576919556e-02 3.645876646041870117e-01
1.116000000000000000e+03 1.330630779266357422e+00 1.842707753181457520e+00 -7.454161345958709717e-02 -2.468817830085754395e-01 -9.642701596021652222e-02 3.613052368164062500e-01
1.117000000000000000e+03 7.481448054313659668e-01 1.625305056571960449e+00 -5.683938413858413696e-02 -2.504166066646575928e-01 -9.217679500579833984e-02 2.286113649606704712e-01
1.118000000000000000e+03 5.669534802436828613e-01 1.661272525787353516e+00 -4.634070396423339844e-02 -2.828458845615386963e-01 -9.875597059726715088e-02 1.632007956504821777e-01
1.119000000000000000e+03 1.152055644989013672e+01 -7.251144647598266602e-01 9.090761184692382812e+00 1.468973350524902344e+01 7.134148597717285156e+00 -1.113635182380676270e+00
1.120000000000000000e+03 1.142391014099121094e+01 -9.192999005317687988e-01 7.997556686401367188e+00 1.538349056243896484e+01 7.014314174652099609e+00 -1.285883307456970215e+00
1.121000000000000000e+03 1.198306369781494141e+01 -3.976211845874786377e-01 9.251269340515136719e+00 1.231435203552246094e+01 6.469686508178710938e+00 1.649462282657623291e-01
1.122000000000000000e+03 1.164793109893798828e+01 3.676730096340179443e-01 9.667293548583984375e+00 1.408322525024414062e+01 7.125155448913574219e+00 2.828063488006591797e+00
1.123000000000000000e+03 1.136018371582031250e+01 9.240307807922363281e-01 6.256886005401611328e+00 1.621280479431152344e+01 6.740907192230224609e+00 3.668282508850097656e+00
1.124000000000000000e+03 1.102743244171142578e+01 1.852953195571899414e+00 1.270569086074829102e+00 1.596469020843505859e+01 5.170577526092529297e+00 9.499098062515258789e-01
1.125000000000000000e+03 1.076686954498291016e+01 1.537702679634094238e+00 1.433836460113525391e+00 1.768764305114746094e+01 5.736443519592285156e+00 6.171243190765380859e-01
1.126000000000000000e+03 1.055720806121826172e+01 1.643338084220886230e+00 8.286354541778564453e-01 1.708721733093261719e+01 5.374755382537841797e+00 -7.018550634384155273e-01
1.127000000000000000e+03 6.374009323120117188e+01 2.366856765747070312e+01 -1.763069868087768555e+00 6.181352734565734863e-01 -3.434803783893585205e-01 -5.939758419990539551e-01
1.128000000000000000e+03 6.514637756347656250e+01 2.189490318298339844e+01 -2.143715620040893555e+00 4.663561284542083740e-01 -5.032078623771667480e-01 -2.073745429515838623e-01
1.129000000000000000e+03 6.821163940429687500e+01 1.977706336975097656e+01 1.840668559074401855e+00 1.138316917419433594e+01 3.967151165008544922e+00 -2.309537172317504883e+00
1.130000000000000000e+03 6.833812713623046875e+01 1.540505123138427734e+01 8.593753576278686523e-01 1.493301963806152344e+01 4.737718582153320312e+00 8.656200766563415527e-01
1.131000000000000000e+03 6.820971679687500000e+01 1.402913093566894531e+01 7.139631509780883789e-01 1.423919582366943359e+01 4.485947608947753906e+00 2.154818773269653320e+00
1.132000000000000000e+03 6.716262054443359375e+01 1.067522239685058594e+01 1.910378098487854004e+00 8.621435165405273438e+00 3.159543991088867188e+00 3.221527338027954102e+00
1.133000000000000000e+03 6.533169555664062500e+01 8.674144744873046875e+00 1.514958143234252930e+00 3.439461231231689453e+00 1.486325860023498535e+00 2.117823839187622070e+00
1.134000000000000000e+03 6.326441574096679688e+01 6.767276287078857422e+00 5.743304491043090820e-01 1.170768857002258301e+00 5.235297679901123047e-01 8.088383674621582031e-01
1.135000000000000000e+03 6.220486450195312500e+01 5.839371681213378906e+00 2.807770371437072754e-01 6.455878019332885742e-01 2.779094576835632324e-01 4.645150005817413330e-01
1.136000000000000000e+03 5.900558853149414062e+01 3.072271823883056641e+00 1.317660063505172729e-01 7.466923445463180542e-02 6.193057447671890259e-02 3.594996035099029541e-02
1.137000000000000000e+03 5.544851303100585938e+01 5.562791228294372559e-01 1.209319949150085449e+00 7.650983333587646484e-02 3.857489228248596191e-01 3.296326994895935059e-01
1.138000000000000000e+03 4.814407730102539062e+01 6.551844596862792969e+00 3.237525522708892822e-01 1.218048763275146484e+01 3.751271963119506836e+00 9.996663928031921387e-01
1.139000000000000000e+03 4.826897430419921875e+01 7.995179176330566406e+00 5.576333999633789062e-01 1.237753772735595703e+01 3.880551338195800781e+00 1.611639857292175293e+00
1.140000000000000000e+03 4.922323226928710938e+01 1.219255542755126953e+01 8.232468962669372559e-01 1.172578907012939453e+01 3.764710903167724609e+00 2.808265686035156250e+00
1.141000000000000000e+03 5.041413497924804688e+01 1.621758460998535156e+01 1.317183136940002441e+00 9.646743774414062500e+00 3.289177894592285156e+00 3.272721767425537109e+00
1.142000000000000000e+03 5.122490692138671875e+01 2.020166015625000000e+01 1.339098930358886719e+00 6.322499752044677734e+00 2.298479557037353516e+00 2.339385032653808594e+00
1.143000000000000000e+03 5.948231124877929688e+01 2.259261512756347656e+01 -3.811578512191772461e+00 -7.641212642192840576e-02 -1.166397213935852051e+00 -1.940271072089672089e-02
1.144000000000000000e+03 6.093868637084960938e+01 2.261328887939453125e+01 -4.432363510131835938e+00 -1.871028244495391846e-01 -1.385839819908142090e+00 2.447202205657958984e-01
1.145000000000000000e+03 3.026425170898437500e+01 2.015039443969726562e+01 -2.167382001876831055e+00 -2.026079744100570679e-01 -7.109969854354858398e-01 5.906172394752502441e-01
1.146000000000000000e+03 3.153888130187988281e+01 1.954789352416992188e+01 -1.565839052200317383e+00 -1.943080127239227295e-01 -5.280441045761108398e-01 4.923263490200042725e-01
1.147000000000000000e+03 3.501330184936523438e+01 1.724995231628417969e+01 -4.447744786739349365e-02 4.679121971130371094e-01 1.270304322242736816e-01 -2.451833933591842651e-01
1.148000000000000000e+03 3.815691757202148438e+01 1.446437740325927734e+01 9.633867144584655762e-01 1.771826863288879395e+00 8.205640912055969238e-01 -1.304292082786560059e+00
1.149000000000000000e+03 3.911890029907226562e+01 1.344559574127197266e+01 1.267771005630493164e+00 2.714814901351928711e+00 1.194775819778442383e+00 -1.758157610893249512e+00
1.150000000000000000e+03 4.164559555053710938e+01 1.014519309997558594e+01 1.617371201515197754e+00 9.152370452880859375e+00 3.230922460556030273e+00 -3.293841838836669922e+00
1.151000000000000000e+03 4.334017562866210938e+01 8.122431755065917969e+00 1.486718297004699707e+00 1.371451091766357422e+01 4.560369014739990234e+00 -7.978582382202148438e-01
1.152000000000000000e+03 4.249816131591796875e+01 4.015023708343505859e+00 3.421069383621215820e-01 1.692335319519042969e+01 5.179637908935546875e+00 7.476111650466918945e-01
1.153000000000000000e+03 4.210906982421875000e+01 1.317449688911437988e+00 1.308741092681884766e+00 1.739673423767089844e+01 5.611642360687255859e+00 3.615046977996826172e+00
1.154000000000000000e+03 3.879564666748046875e+01 -3.671412944793701172e+00 -1.690942883491516113e+00 1.945017695426940918e+00 7.622244209051132202e-02 9.598429799079895020e-01
1.155000000000000000e+03 3.347732925415039062e+01 -5.105755805969238281e+00 -4.147985935211181641e+00 -4.621059894561767578e-01 -1.383027553558349609e+00 -1.345296859741210938e+00
1.156000000000000000e+03 3.063659286499023438e+01 -5.305863857269287109e+00 4.746830165386199951e-01 3.653288185596466064e-01 2.520035505294799805e-01 -1.459418416023254395e+00
1.157000000000000000e+03 2.788942337036132812e+01 -4.144716262817382812e+00 3.445103168487548828e+00 3.039895057678222656e+00 1.945499420166015625e+00 -3.058086872100830078e+00
1.158000000000000000e+03 2.491869544982910156e+01 -2.701434373855590820e+00 2.843579292297363281e+00 2.128268718719482422e+00 1.491554379463195801e+00 -2.472864389419555664e+00
1.159000000000000000e+03 2.339660453796386719e+01 1.263784050941467285e+00 1.148663759231567383e+00 1.616450190544128418e+00 8.295341730117797852e-01 -1.423611760139465332e+00
1.160000000000000000e+03 2.259260940551757812e+01 2.368828773498535156e+00 1.002736926078796387e+00 1.380050063133239746e+00 7.148361206054687500e-01 -1.097039103507995605e+00
1.161000000000000000e+03 2.090871810913085938e+01 4.598274707794189453e+00 7.758781313896179199e-01 2.689546108245849609e+00 1.039627313613891602e+00 -1.197015166282653809e+00
1.162000000000000000e+03 1.918976211547851562e+01 8.505726814270019531e+00 3.491534590721130371e-01 8.653749465942382812e+00 2.700870990753173828e+00 -1.667228221893310547e+00
1.163000000000000000e+03 1.888776397705078125e+01 9.873941421508789062e+00 5.433982014656066895e-01 1.096067619323730469e+01 3.451222419738769531e+00 -1.497074365615844727e+00
1.164000000000000000e+03 1.855295944213867188e+01 1.261715698242187500e+01 3.143299520015716553e-01 1.311641025543212891e+01 4.029222011566162109e+00 -6.083578467369079590e-01
1.165000000000000000e+03 1.843788909912109375e+01 1.534912014007568359e+01 3.312613368034362793e-01 1.386156940460205078e+01 4.257849216461181641e+00 4.561533927917480469e-01
1.166000000000000000e+03 1.850319671630859375e+01 1.803522109985351562e+01 1.841283321380615234e+00 1.373199558258056641e+01 4.671983718872070312e+00 2.851480722427368164e+00
1.167000000000000000e+03 2.212059211730957031e+01 -1.415854549407958984e+01 -2.484085798263549805e+00 1.344775706529617310e-01 -7.048825025558471680e-01 3.988972008228302002e-01
1.168000000000000000e+03 2.476241493225097656e+01 -1.441891765594482422e+01 -1.872331500053405762e+00 1.173333823680877686e-01 -5.264994502067565918e-01 -1.488329023122787476e-01
1.169000000000000000e+03 2.749882125854492188e+01 -1.463887977600097656e+01 -1.369493752717971802e-01 1.867055594921112061e-01 1.492685731500387192e-02 -5.280436873435974121e-01
1.170000000000000000e+03 3.168504905700683594e+01 -1.516159629821777344e+01 3.939093112945556641e+00 8.945297598838806152e-01 1.450086832046508789e+00 -1.772922158241271973e+00
1.171000000000000000e+03 3.026367950439453125e+01 -1.496612262725830078e+01 2.168999671936035156e+00 3.731178641319274902e-01 7.626352310180664062e-01 -1.013249635696411133e+00
1.172000000000000000e+03 3.618418502807617188e+01 -2.303092193603515625e+01 8.862234354019165039e-01 1.222746086120605469e+01 3.934105157852172852e+00 1.132650971412658691e+00
1.173000000000000000e+03 2.380022048950195312e+01 -3.054541778564453125e+01 -2.706193208694458008e+00 -1.217664256691932678e-01 -8.483878970146179199e-01 4.660744071006774902e-01
1.174000000000000000e+03 1.846291732788085938e+01 -2.854208755493164062e+01 -1.340241909027099609e+00 1.582149788737297058e-02 -3.973261117935180664e-01 3.815976083278656006e-01
1.175000000000000000e+03 1.629813957214355469e+01 -2.671274757385253906e+01 -9.550772607326507568e-02 9.680223464965820312e-01 2.617543935775756836e-01 -3.574718534946441650e-01
1.176000000000000000e+03 1.332158756256103516e+01 -2.376154899597167969e+01 1.468816399574279785e+00 4.952947616577148438e+00 1.926529169082641602e+00 -2.658259153366088867e+00
1.177000000000000000e+03 1.243367481231689453e+01 -2.277273941040039062e+01 1.875812888145446777e+00 9.421533584594726562e+00 3.389204025268554688e+00 -2.942649364471435547e+00
1.178000000000000000e+03 1.215779304504394531e+01 -1.543332767486572266e+01 2.805128335952758789e+00 1.443132019042968750e+01 5.170934677124023438e+00 4.790618419647216797e+00
1.179000000000000000e+03 5.752876663208007812e+01 -9.851788520812988281e+00 -9.839525818824768066e-01 -1.922094672918319702e-01 -3.528486192226409912e-01 5.008667707443237305e-01
1.180000000000000000e+03 6.038499069213867188e+01 -9.572669029235839844e+00 -5.499888062477111816e-01 1.263115406036376953e-01 -1.271031796932220459e-01 1.392474770545959473e-01
1.181000000000000000e+03 6.270232391357421875e+01 -1.015268707275390625e+01 -1.983631104230880737e-01 4.897097945213317871e-01 8.740399777889251709e-02 -3.694666624069213867e-01
1.182000000000000000e+03 6.384992599487304688e+01 -1.155399513244628906e+01 -4.918867647647857666e-01 4.174664318561553955e-01 -2.232610061764717102e-02 -4.293574690818786621e-01
1.183000000000000000e+03 6.803962707519531250e+01 -1.572262573242187500e+01 1.898296594619750977e+00 1.485331344604492188e+01 5.025482654571533203e+00 -3.352334499359130859e+00
1.184000000000000000e+03 6.429675292968750000e+01 -2.587688827514648438e+01 2.721059620380401611e-01 1.890549182891845703e+00 6.487965583801269531e-01 8.866044282913208008e-01
1.185000000000000000e+03 6.097446823120117188e+01 -2.847226905822753906e+01 -1.509331226348876953e+00 -4.905981197953224182e-02 -4.675173163414001465e-01 -4.956021606922149658e-01
1.186000000000000000e+03 5.281986236572265625e+01 -2.959839057922363281e+01 -5.689153075218200684e-02 1.016030669212341309e+00 2.877417504787445068e-01 -1.024156332015991211e+00
1.187000000000000000e+03 5.124133682250976562e+01 -2.991119575500488281e+01 2.972175478935241699e-01 2.436124563217163086e+00 8.200026154518127441e-01 -1.734699249267578125e+00
1.188000000000000000e+03 4.906005859375000000e+01 -2.640717697143554688e+01 2.526647329330444336e+00 4.202977657318115234e+00 2.018887519836425781e+00 -3.105862140655517578e+00
1.189000000000000000e+03 4.733717727661132812e+01 -2.431167793273925781e+01 3.223059654235839844e+00 9.505595207214355469e+00 3.818596601486206055e+00 -4.476753711700439453e+00
1.190000000000000000e+03 4.862135696411132812e+01 -1.073595905303955078e+01 1.902548193931579590e+00 5.995208263397216797e+00 2.369326829910278320e+00 3.164963006973266602e+00
1.191000000000000000e+03 1.070407676696777344e+01 -1.939964652061462402e+00 2.233349323272705078e+00 1.585459518432617188e+01 5.426383495330810547e+00 1.979818701744079590e+00
1.192000000000000000e+03 1.128405952453613281e+01 -1.087868809700012207e+00 6.840726852416992188e+00 1.614265251159667969e+01 6.895013809204101562e+00 -1.194114685058593750e+00
1.193000000000000000e+03 1.114171886444091797e+01 -1.260190486907958984e+00 5.544456005096435547e+00 1.681629371643066406e+01 6.708224773406982422e+00 -8.070192337036132812e-01
1.194000000000000000e+03 1.158223056793212891e+01 -1.277633309364318848e+00 6.065221309661865234e+00 1.470420837402343750e+01 6.230828762054443359e+00 -1.129534602165222168e+00
1.195000000000000000e+03 1.202537441253662109e+01 2.368492633104324341e-01 8.912056922912597656e+00 1.234937858581542969e+01 6.378430843353271484e+00 1.972375392913818359e+00
1.196000000000000000e+03 1.168391895294189453e+01 -8.310521394014358521e-02 1.037551307678222656e+01 1.333066368103027344e+01 7.111853122711181641e+00 1.062044978141784668e+00
1.197000000000000000e+03 1.167338180541992188e+01 1.470648050308227539e-01 1.018906402587890625e+01 1.355526256561279297e+01 7.123298168182373047e+00 1.995268464088439941e+00
1.198000000000000000e+03 1.019824790954589844e+01 -1.951201319694519043e+00 2.046066999435424805e+00 1.519630050659179688e+01 5.172710418701171875e+00 4.123462200164794922e+00
1.199000000000000000e+03 9.903650283813476562e+00 1.677421450614929199e+00 8.953363299369812012e-01 1.391901016235351562e+01 4.444303989410400391e+00 -4.049741268157958984e+00
1.200000000000000000e+03 1.013881397247314453e+01 -1.642526745796203613e+00 2.664077281951904297e+00 1.646111297607421875e+01 5.737557411193847656e+00 4.630587577819824219e+00
1.201000000000000000e+03 1.055595302581787109e+01 -1.582435250282287598e+00 2.963716983795166016e+00 1.771749687194824219e+01 6.204364299774169922e+00 2.191116333007812500e+00
1.202000000000000000e+03 1.158662128448486328e+01 5.727188587188720703e-01 8.769298553466796875e+00 1.469392776489257812e+01 7.038967609405517578e+00 3.431975364685058594e+00
1.203000000000000000e+03 3.619940876960754395e-01 -1.724996328353881836e+00 1.878584921360015869e-02 -2.315109819173812866e-01 -6.381753832101821899e-02 -1.028517633676528931e-01
1.204000000000000000e+03 6.927981376647949219e-01 -1.657573103904724121e+00 1.092544663697481155e-02 -1.523742079734802246e-01 -4.243462905287742615e-02 -1.484134942293167114e-01
1.205000000000000000e+03 4.680697619915008545e-01 -2.666278362274169922e+00 -2.680885232985019684e-02 -3.978342711925506592e-01 -1.273929327726364136e-01 -5.414701998233795166e-02
1.206000000000000000e+03 4.370261728763580322e-01 -4.951802730560302734e+00 -9.197778068482875824e-03 -4.252258241176605225e-01 -1.303270757198333740e-01 5.994793772697448730e-02
1.207000000000000000e+03 1.124877929687500000e+00 -1.655405282974243164e+00 1.118650659918785095e-02 -1.099713221192359924e-01 -2.963544428348541260e-02 -1.787023395299911499e-01
1.208000000000000000e+03 1.510200738906860352e+00 -1.591483712196350098e+00 -2.873219782486557961e-03 -6.173727661371231079e-02 -1.938314922153949738e-02 -2.154635637998580933e-01
1.209000000000000000e+03 1.681236863136291504e+00 -1.596904277801513672e+00 -8.029459044337272644e-03 -3.512887284159660339e-02 -1.294749975204467773e-02 -1.986307054758071899e-01
1.210000000000000000e+03 2.128333330154418945e+00 -1.949095249176025391e+00 8.305748552083969116e-02 4.561625421047210693e-02 3.860212117433547974e-02 -1.646479666233062744e-01
1.211000000000000000e+03 2.571173191070556641e+00 -1.987898945808410645e+00 1.592997759580612183e-01 1.043042466044425964e-01 7.908120751380920410e-02 -1.012791842222213745e-01
1.212000000000000000e+03 4.194783568382263184e-01 -6.287613868713378906e+00 3.446302190423011780e-02 -1.669816672801971436e-01 -3.975559398531913757e-02 9.960269182920455933e-02
1.213000000000000000e+03 3.011439561843872070e+00 -1.975951671600341797e+00 2.377462387084960938e-01 1.502650082111358643e-01 1.164033785462379456e-01 -3.688039258122444153e-02
1.214000000000000000e+03 2.900636911392211914e+00 -1.689409732818603516e+00 1.164433509111404419e-01 1.150266677141189575e-01 6.944100558757781982e-02 -9.773226082324981689e-02
1.215000000000000000e+03 1.559255003929138184e+00 -8.840238571166992188e+00 -8.737308531999588013e-02 1.256908774375915527e+00 3.508606851100921631e-01 3.092712461948394775e-01
1.216000000000000000e+03 3.308871984481811523e+00 -1.678000211715698242e+00 1.880469769239425659e-01 1.467255353927612305e-01 1.004317551851272583e-01 -3.723115846514701843e-02
1.217000000000000000e+03 3.699879884719848633e+00 -1.668122410774230957e+00 2.472989559173583984e-01 1.595331728458404541e-01 1.220496371388435364e-01 2.346653677523136139e-02
1.218000000000000000e+03 4.086365699768066406e+00 -1.666160702705383301e+00 3.567326366901397705e-01 2.491775751113891602e-01 1.817730665206909180e-01 1.591657102108001709e-01
1.219000000000000000e+03 4.489105701446533203e+00 -1.688931107521057129e+00 5.401822328567504883e-01 2.691515386104583740e-01 2.428001314401626587e-01 2.884125113487243652e-01
1.220000000000000000e+03 4.768829345703125000e+00 -2.081416606903076172e+00 8.694267272949218750e-01 4.684484899044036865e-01 4.013625681400299072e-01 5.618530511856079102e-01
1.221000000000000000e+03 5.209945678710937500e+00 -1.889350652694702148e+00 1.026403903961181641e+00 4.534412026405334473e-01 4.439535140991210938e-01 6.557901501655578613e-01
1.222000000000000000e+03 5.114850044250488281e+00 -1.638405680656433105e+00 7.793425321578979492e-01 3.099338710308074951e-01 3.267829120159149170e-01 4.953640997409820557e-01
1.223000000000000000e+03 5.514947414398193359e+00 -1.659400463104248047e+00 1.048260927200317383e+00 4.023959040641784668e-01 4.351970553398132324e-01 6.923599839210510254e-01
1.224000000000000000e+03 5.991235733032226562e+00 -1.960940837860107422e+00 1.565638303756713867e+00 8.003919124603271484e-01 7.098090648651123047e-01 1.243414163589477539e+00
1.225000000000000000e+03 6.282326221466064453e+00 -1.674507975578308105e+00 1.639449000358581543e+00 6.733707189559936523e-01 6.938459277153015137e-01 1.213489413261413574e+00
1.226000000000000000e+03 6.501057147979736328e+00 -1.687406420707702637e+00 1.885567784309387207e+00 8.075929284095764160e-01 8.079481720924377441e-01 1.432472229003906250e+00
1.227000000000000000e+03 6.721366405487060547e+00 -1.664963603019714355e+00 2.167717933654785156e+00 8.544943332672119141e-01 9.066636562347412109e-01 1.620164752006530762e+00
1.228000000000000000e+03 6.827943801879882812e+00 -1.931298255920410156e+00 2.406910181045532227e+00 1.305079102516174316e+00 1.113596796989440918e+00 2.097425937652587891e+00
1.229000000000000000e+03 6.916472911834716797e+00 -1.618002295494079590e+00 2.416883945465087891e+00 9.530568718910217285e-01 1.010982275009155273e+00 1.810869812965393066e+00
1.230000000000000000e+03 7.303240299224853516e+00 -1.652143001556396484e+00 2.911329746246337891e+00 1.346309900283813477e+00 1.277291893959045410e+00 2.390791416168212891e+00
1.231000000000000000e+03 7.511540412902832031e+00 -1.636121153831481934e+00 3.200009346008300781e+00 1.560984015464782715e+00 1.428297996520996094e+00 2.674107313156127930e+00
1.232000000000000000e+03 7.557590484619140625e+00 -1.906468629837036133e+00 3.195682287216186523e+00 2.158466577529907227e+00 1.606244683265686035e+00 3.146599531173706055e+00
1.233000000000000000e+03 7.901382446289062500e+00 -1.597714185714721680e+00 3.731366872787475586e+00 2.160755634307861328e+00 1.767636775970458984e+00 3.358227729797363281e+00
1.234000000000000000e+03 8.225308418273925781e+00 -1.995676875114440918e+00 3.750478267669677734e+00 4.008963584899902344e+00 2.327832698822021484e+00 4.574319839477539062e+00
1.235000000000000000e+03 8.695189476013183594e+00 -1.692775368690490723e+00 4.460581302642822266e+00 5.353775024414062500e+00 2.944306850433349609e+00 5.548759460449218750e+00
1.236000000000000000e+03 9.320329666137695312e+00 -1.685437560081481934e+00 4.062798023223876953e+00 9.734352111816406250e+00 4.139145374298095703e+00 6.693335533142089844e+00
1.237000000000000000e+03 9.791895866394042969e+00 -1.940675497055053711e+00 2.492721080780029297e+00 1.312547683715820312e+01 4.685459613800048828e+00 5.650705337524414062e+00
1.238000000000000000e+03 1.011294460296630859e+01 1.688310980796813965e+00 6.102019548416137695e-01 1.533861255645751953e+01 4.784644126892089844e+00 -3.126832246780395508e+00
1.239000000000000000e+03 9.269711494445800781e+00 1.659796595573425293e+00 2.087802648544311523e+00 8.061584472656250000e+00 3.044816255569458008e+00 -4.826926231384277344e+00
1.240000000000000000e+03 9.078276634216308594e+00 1.616848587989807129e+00 2.357136726379394531e+00 6.351803302764892578e+00 2.612681865692138672e+00 -4.570423603057861328e+00
1.241000000000000000e+03 8.700452804565429688e+00 1.602227449417114258e+00 2.448027610778808594e+00 4.105648517608642578e+00 1.966102838516235352e+00 -3.651835441589355469e+00
1.242000000000000000e+03 8.715621948242187500e+00 1.796984791755676270e+00 2.308685302734375000e+00 4.632072925567626953e+00 2.082227468490600586e+00 -3.694745779037475586e+00
1.243000000000000000e+03 8.308362007141113281e+00 1.644351840019226074e+00 2.142475843429565430e+00 2.558011293411254883e+00 1.410146117210388184e+00 -2.603717565536499023e+00
1.244000000000000000e+03 8.102234840393066406e+00 1.670052051544189453e+00 1.912674307823181152e+00 2.047726869583129883e+00 1.188120365142822266e+00 -2.166321039199829102e+00
1.245000000000000000e+03 7.894351005554199219e+00 1.686485171318054199e+00 1.686312198638916016e+00 1.650377154350280762e+00 1.001006841659545898e+00 -1.805187821388244629e+00
1.246000000000000000e+03 7.683531284332275391e+00 1.691058874130249023e+00 1.481944799423217773e+00 1.346829175949096680e+00 8.486322164535522461e-01 -1.456035017967224121e+00
1.247000000000000000e+03 7.073223114013671875e+00 1.596931695938110352e+00 6.951115131378173828e-01 5.988675951957702637e-01 3.881937265396118164e-01 -6.021257042884826660e-01
1.248000000000000000e+03 6.903712749481201172e+00 1.588171005249023438e+00 5.150303244590759277e-01 5.116980075836181641e-01 3.080185055732727051e-01 -4.279895722866058350e-01
1.249000000000000000e+03 6.716616630554199219e+00 1.614435553550720215e+00 3.913163542747497559e-01 4.487662315368652344e-01 2.520247697830200195e-01 -3.050629794597625732e-01
1.250000000000000000e+03 6.311662673950195312e+00 1.654823303222656250e+00 2.114064693450927734e-01 3.305152058601379395e-01 1.625764966011047363e-01 -7.475899904966354370e-02
1.251000000000000000e+03 6.348814010620117188e+00 1.963750481605529785e+00 5.944241285324096680e-01 5.618072152137756348e-01 3.468693792819976807e-01 -2.783930599689483643e-01
1.252000000000000000e+03 5.906847476959228516e+00 1.658744454383850098e+00 2.103920280933380127e-02 2.369569838047027588e-01 7.739885896444320679e-02 1.093288138508796692e-01
1.253000000000000000e+03 5.506693840026855469e+00 1.655972599983215332e+00 -1.174660399556159973e-01 1.576211154460906982e-01 1.204652059823274612e-02 2.292240113019943237e-01
1.254000000000000000e+03 4.894556522369384766e+00 1.677112460136413574e+00 -2.220827639102935791e-01 1.072351858019828796e-01 -3.445427492260932922e-02 3.834601342678070068e-01
1.255000000000000000e+03 4.281102657318115234e+00 1.666545391082763672e+00 -2.790566980838775635e-01 4.020178690552711487e-02 -7.165647298097610474e-02 4.678224921226501465e-01
1.256000000000000000e+03 4.075792312622070312e+00 1.655483365058898926e+00 -2.957606911659240723e-01 2.098189294338226318e-02 -8.243363350629806519e-02 4.828289747238159180e-01
1.257000000000000000e+03 3.068544864654541016e+00 1.664586782455444336e+00 -2.447299659252166748e-01 -6.145254522562026978e-02 -9.185475111007690430e-02 5.081316828727722168e-01
1.258000000000000000e+03 2.698750972747802734e+00 1.634402751922607422e+00 -2.295452803373336792e-01 -8.622401952743530273e-02 -9.473079442977905273e-02 4.971813559532165527e-01
1.259000000000000000e+03 2.763245582580566406e+00 2.328811407089233398e+00 -1.584842801094055176e-02 -1.093782037496566772e-01 -3.756798803806304932e-02 5.104560256004333496e-01
1.260000000000000000e+03 2.484429359436035156e+00 1.692033648490905762e+00 -1.995428502559661865e-01 -1.062878668308258057e-01 -9.174922108650207520e-02 4.833551645278930664e-01
1.261000000000000000e+03 2.268774032592773438e+00 1.681629419326782227e+00 -1.802810728549957275e-01 -1.311666518449783325e-01 -9.343431890010833740e-02 4.630383253097534180e-01
1.262000000000000000e+03 1.874065756797790527e+00 1.627167224884033203e+00 -1.637460142374038696e-01 -1.490321904420852661e-01 -9.383346140384674072e-02 4.093370735645294189e-01
1.263000000000000000e+03 1.697512745857238770e+00 1.599650621414184570e+00 -1.435245573520660400e-01 -1.650845408439636230e-01 -9.258273243904113770e-02 3.785979151725769043e-01
1.264000000000000000e+03 8.963090777397155762e-01 2.014564037322998047e+00 -3.236671164631843567e-02 -3.348502516746520996e-01 -1.101650893688201904e-01 2.330618500709533691e-01
1.265000000000000000e+03 9.066873192787170410e-01 1.781020045280456543e+00 -5.708763375878334045e-02 -2.550193667411804199e-01 -9.363210201263427734e-02 2.546919584274291992e-01
1.266000000000000000e+03 1.440679281949996948e-01 2.252530574798583984e+00 4.968402907252311707e-03 -4.872557222843170166e-01 -1.446861922740936279e-01 8.003858476877212524e-02
1.267000000000000000e+03 8.905901908874511719e+00 -1.702143073081970215e+00 4.469099521636962891e+00 6.652073383331298828e+00 3.336351871490478516e+00 6.066082954406738281e+00
1.268000000000000000e+03 9.977199554443359375e+00 -1.913269996643066406e+00 2.284947395324707031e+00 1.437426662445068359e+01 4.997764110565185547e+00 5.146356582641601562e+00
1.269000000000000000e+03 6.777880096435546875e+01 -2.422648239135742188e+01 -6.155768036842346191e-02 7.392167568206787109e+00 2.199182987213134766e+00 1.823705673217773438e+00
1.270000000000000000e+03 1.877921485900878906e+01 -1.268542861938476562e+01 -5.333017826080322266e+00 -6.870208978652954102e-01 -1.806011557579040527e+00 1.408409953117370605e+00
1.271000000000000000e+03 1.553970909118652344e+01 -1.134011650085449219e+01 -4.281970500946044922e+00 9.417324066162109375e-01 -1.002071380615234375e+00 2.517796993255615234e+00
1.272000000000000000e+03 3.731130218505859375e+01 -2.037693405151367188e+01 1.625457644462585449e+00 1.100609397888183594e+01 3.789465665817260742e+00 -1.359110355377197266e+00
1.273000000000000000e+03 5.402719497680664062e+01 1.375517994165420532e-01 1.569835901260375977e+00 1.808408349752426147e-01 5.252030491828918457e-01 2.346983850002288818e-01
1.274000000000000000e+03 5.153545379638671875e+01 -3.352872467041015625e+01 -2.899197041988372803e-01 2.881838321685791016e+00 7.775755524635314941e-01 -1.697536826133728027e+00
1.275000000000000000e+03 5.073532104492187500e+01 -2.842782592773437500e+01 1.249265313148498535e+00 2.483154058456420898e+00 1.119725823402404785e+00 -1.939229488372802734e+00
1.276000000000000000e+03 6.514635467529296875e+01 -1.182979488372802734e+01 6.795352101325988770e-01 2.507593393325805664e+00 9.561386108398437500e-01 -1.575811624526977539e+00
1.277000000000000000e+03 5.558838653564453125e+01 -2.989253807067871094e+01 -2.051658153533935547e+00 4.436248168349266052e-02 -6.021887063980102539e-01 -2.698955833911895752e-01
1.278000000000000000e+03 5.975333404541015625e+01 -2.917836380004882812e+01 -2.295729875564575195e+00 -2.812554240226745605e-01 -7.730956077575683594e-01 -6.736449599266052246e-01
1.279000000000000000e+03 6.184722137451171875e+01 -8.904647827148437500e+00 -2.707629464566707611e-02 5.914972424507141113e-01 1.693262904882431030e-01 -3.227958977222442627e-01
1.280000000000000000e+03 4.631166458129882812e+01 -2.502908515930175781e+01 1.825358152389526367e+00 8.809810638427734375e+00 3.190550565719604492e+00 -2.309738159179687500e+00
1.281000000000000000e+03 4.609109497070312500e+01 -2.688008689880371094e+01 8.781793117523193359e-01 7.566729068756103516e+00 2.533472537994384766e+00 -1.842882394790649414e+00
1.282000000000000000e+03 7.082860565185546875e+01 -1.254524517059326172e+01 5.382056348025798798e-03 9.081203460693359375e+00 2.725975751876831055e+00 5.522990226745605469e-01
1.283000000000000000e+03 6.831269073486328125e+01 -1.711617469787597656e+01 1.095063805580139160e+00 1.628383445739746094e+01 5.213669300079345703e+00 -1.348278880119323730e+00
1.284000000000000000e+03 6.878531646728515625e+01 -1.414673709869384766e+01 9.135933518409729004e-01 1.042271995544433594e+01 3.400894165039062500e+00 -9.084206819534301758e-01
1.285000000000000000e+03 6.320438385009765625e+01 -2.678272247314453125e+01 -2.787076830863952637e-01 8.757814168930053711e-01 1.791221350431442261e-01 3.690867125988006592e-01
1.286000000000000000e+03 4.628128051757812500e+01 -1.280424594879150391e+01 1.428851962089538574e+00 1.036114692687988281e+01 3.536999702453613281e+00 2.437125205993652344e+00
1.287000000000000000e+03 5.709117126464843750e+01 -8.087394714355468750e+00 -9.723818302154541016e-01 -3.326763585209846497e-02 -3.016948401927947998e-01 1.728809177875518799e-01
1.288000000000000000e+03 4.526697158813476562e+01 -2.090564155578613281e+01 1.532137632369995117e+00 1.192683696746826172e+01 4.037692546844482422e+00 -1.042370438575744629e+00
1.289000000000000000e+03 9.272697448730468750e+00 -2.272146606445312500e+01 7.645127773284912109e-01 8.534317016601562500e+00 2.789649009704589844e+00 9.087831377983093262e-01
1.290000000000000000e+03 1.182365703582763672e+01 -1.672835159301757812e+01 1.497220158576965332e+00 1.866473960876464844e+01 6.048587799072265625e+00 3.148612499237060547e+00
1.291000000000000000e+03 7.167713928222656250e+01 -1.964459991455078125e+01 1.864403605461120605e+00 9.744019508361816406e+00 3.482527017593383789e+00 -3.568032979965209961e-01
1.292000000000000000e+03 5.736350631713867188e+01 3.139377832412719727e-01 9.874422550201416016e-01 -3.097082953900098801e-03 2.953035533428192139e-01 1.306410282850265503e-01
1.293000000000000000e+03 3.514537811279296875e+01 -2.635718536376953125e+01 2.184949636459350586e+00 8.194190025329589844e+00 3.113741874694824219e+00 3.613851785659790039e+00
1.294000000000000000e+03 4.129274749755859375e+01 -2.529394149780273438e+01 1.724457621574401855e+00 8.435013771057128906e+00 3.047841310501098633e+00 -1.754305809736251831e-01
1.295000000000000000e+03 6.093553543090820312e+01 -8.386326789855957031e+00 -1.143991276621818542e-01 5.223264098167419434e-01 1.223781928420066833e-01 -2.080992162227630615e-01
1.296000000000000000e+03 4.650876235961914062e+01 -1.585314273834228516e+01 7.191956043243408203e-01 1.304010295867919922e+01 4.127789497375488281e+00 2.062901973724365234e+00
1.297000000000000000e+03 4.876931762695312500e+01 -8.943165779113769531e+00 -8.077005147933959961e-01 5.559458255767822266e+00 1.425527334213256836e+00 1.726186752319335938e+00
1.298000000000000000e+03 6.951662445068359375e+01 -2.020732879638671875e+01 2.408661842346191406e+00 1.200507545471191406e+01 4.324121475219726562e+00 7.714540362358093262e-01
1.299000000000000000e+03 4.769541168212890625e+01 -1.013885116577148438e+01 -9.563750028610229492e-02 7.701432704925537109e+00 2.281738519668579102e+00 1.971284031867980957e+00
1.300000000000000000e+03 4.278086853027343750e+01 -1.376465702056884766e+01 1.339717745780944824e+00 8.803517341613769531e+00 3.042970418930053711e+00 1.095594644546508789e+00
1.301000000000000000e+03 5.585450744628906250e+01 -3.166136360168457031e+01 -5.701774358749389648e-01 2.359480708837509155e-01 -1.002688035368919373e-01 -7.451226711273193359e-01
1.302000000000000000e+03 5.904571914672851562e+01 -3.130262184143066406e+01 -8.769928812980651855e-01 2.480010688304901123e-02 -2.556578218936920166e-01 2.411206252872943878e-02
1.303000000000000000e+03 6.172667312622070312e+01 -2.989406394958496094e+01 -1.096707940101623535e+00 1.149644374847412109e+00 1.588093116879463196e-02 4.282000660896301270e-01
1.304000000000000000e+03 5.291773986816406250e+01 -3.166449546813964844e+01 -3.455743491649627686e-01 1.749455571174621582e+00 4.211643636226654053e-01 -1.692096114158630371e+00
1.305000000000000000e+03 1.265268421173095703e+01 -1.421863269805908203e+01 7.519695758819580078e-01 8.687740325927734375e+00 2.831912994384765625e+00 3.515174150466918945e+00
1.306000000000000000e+03 6.661884307861328125e+01 -1.189068031311035156e+01 6.042246222496032715e-01 5.183358192443847656e+00 1.736274838447570801e+00 -2.031222820281982422e+00
1.307000000000000000e+03 4.491765975952148438e+01 -1.805010223388671875e+01 1.030188083648681641e+00 1.174335861206054688e+01 3.832064151763916016e+00 5.092240571975708008e-01
1.308000000000000000e+03 4.453717041015625000e+01 -1.911957740783691406e+01 1.396986484527587891e+00 1.088272857666015625e+01 3.683914422988891602e+00 -1.753722727298736572e-01
1.309000000000000000e+03 5.993658447265625000e+01 -1.082327175140380859e+01 -1.103128314018249512e+00 -2.670836262404918671e-02 -3.389510214328765869e-01 3.454995155334472656e-01
1.310000000000000000e+03 5.928087615966796875e+01 -9.121196746826171875e+00 -6.429477930068969727e-01 9.503080695867538452e-02 -1.643750965595245361e-01 2.143799960613250732e-01
1.311000000000000000e+03 3.477661895751953125e+01 -1.543731784820556641e+01 3.750941514968872070e+00 5.916391849517822266e+00 2.900199890136718750e+00 -3.043501615524291992e+00
1.312000000000000000e+03 6.636519622802734375e+01 -2.370045852661132812e+01 1.194502115249633789e+00 4.641368389129638672e+00 1.750761151313781738e+00 2.425550460815429688e+00
1.313000000000000000e+03 5.817877960205078125e+01 -8.659202575683593750e+00 -7.415773868560791016e-01 2.578472904860973358e-02 -2.147378027439117432e-01 2.749560475349426270e-01
1.314000000000000000e+03 3.614905929565429688e+01 -2.763118743896484375e+01 8.342583179473876953e-01 7.903141021728515625e+00 2.621219873428344727e+00 1.551545500755310059e+00
1.315000000000000000e+03 6.151079177856445312e+01 -9.952903747558593750e+00 -4.779289960861206055e-01 3.157444894313812256e-01 -4.865535348653793335e-02 -2.506797388195991516e-02
1.316000000000000000e+03 6.296339416503906250e+01 -2.908728790283203125e+01 -8.712056279182434082e-01 1.663268089294433594e+00 2.376187443733215332e-01 6.334961056709289551e-01
1.317000000000000000e+03 6.647884368896484375e+01 -2.627297401428222656e+01 -3.421764075756072998e-01 4.987542629241943359e+00 1.393609881401062012e+00 1.345894694328308105e+00
1.318000000000000000e+03 5.746771240234375000e+01 -3.161249923706054688e+01 -7.373229861259460449e-01 -4.190644621849060059e-02 -2.337688207626342773e-01 -3.830849826335906982e-01
1.319000000000000000e+03 4.569629287719726562e+01 -1.413184452056884766e+01 1.484406113624572754e+00 1.085558700561523438e+01 3.701997995376586914e+00 2.221704483032226562e+00
1.320000000000000000e+03 4.379013824462890625e+01 -1.445262241363525391e+01 1.559670805931091309e+00 9.543559074401855469e+00 3.330968856811523438e+00 1.409254550933837891e+00
1.321000000000000000e+03 4.394309616088867188e+01 -2.009677696228027344e+01 1.910610556602478027e+00 1.038709068298339844e+01 3.689310312271118164e+00 -3.454136252403259277e-01
1.322000000000000000e+03 4.518245697021484375e+01 -1.684739685058593750e+01 1.038942337036132812e+00 1.143994712829589844e+01 3.743666887283325195e+00 1.431856632232666016e+00
1.323000000000000000e+03 4.793799591064453125e+01 -2.711527633666992188e+01 1.374743700027465820e+00 5.832208633422851562e+00 2.162085771560668945e+00 -2.821208238601684570e+00
1.324000000000000000e+03 4.859084320068359375e+01 -2.816869544982910156e+01 9.255331754684448242e-01 4.860979080200195312e+00 1.735953688621520996e+00 -2.295306921005249023e+00
1.325000000000000000e+03 1.185171222686767578e+01 -1.233636569976806641e+01 -2.686630249023437500e+00 9.293672561645507812e+00 1.982112765312194824e+00 2.085607290267944336e+00
1.326000000000000000e+03 6.413465118408203125e+01 -2.821509742736816406e+01 -6.294674277305603027e-01 2.495247364044189453e+00 5.597339868545532227e-01 8.475467562675476074e-01
1.327000000000000000e+03 6.778426361083984375e+01 -2.561338233947753906e+01 -4.201451241970062256e-01 6.579800128936767578e+00 1.847896575927734375e+00 1.279097795486450195e+00
1.328000000000000000e+03 6.968118286132812500e+01 -1.863004302978515625e+01 1.558098316192626953e+00 1.333808135986328125e+01 4.468853950500488281e+00 2.017240971326828003e-01
1.329000000000000000e+03 1.920501708984375000e+01 -3.075090980529785156e+01 -1.257204890251159668e+00 4.293366670608520508e-01 -2.483604550361633301e-01 -1.352193802595138550e-01
1.330000000000000000e+03 2.242080497741699219e+01 -3.025422668457031250e+01 -2.564021348953247070e+00 -2.150895297527313232e-01 -8.337332606315612793e-01 5.425213575363159180e-01
1.331000000000000000e+03 2.518831253051757812e+01 -3.259724426269531250e+01 -1.279417276382446289e+00 -9.759567677974700928e-02 -4.131038784980773926e-01 3.224066793918609619e-01
1.332000000000000000e+03 2.341983795166015625e+01 -1.431414318084716797e+01 -2.357085943222045898e+00 8.983187377452850342e-02 -6.801761984825134277e-01 5.919229611754417419e-02
1.333000000000000000e+03 1.442854499816894531e+01 -1.156858825683593750e+01 -5.121157169342041016e+00 4.549897193908691406e+00 -1.713779866695404053e-01 2.575595617294311523e+00
1.334000000000000000e+03 1.337595653533935547e+01 -1.158588504791259766e+01 -4.210144996643066406e+00 6.340207576751708984e+00 6.390187144279479980e-01 1.926402449607849121e+00
1.335000000000000000e+03 3.085481834411621094e+01 -2.986703300476074219e+01 -2.587281167507171631e-01 6.074289679527282715e-01 1.046102643013000488e-01 6.511555314064025879e-01
1.336000000000000000e+03 3.338271331787109375e+01 -3.205888748168945312e+01 -6.919190883636474609e-01 3.920814990997314453e+00 9.686687588691711426e-01 1.776433706283569336e+00
1.337000000000000000e+03 2.071305847167968750e+01 -3.164610099792480469e+01 -1.289186954498291016e+00 8.922729641199111938e-02 -3.599878847599029541e-01 -6.742632389068603516e-02
1.338000000000000000e+03 3.001682853698730469e+01 -3.170173835754394531e+01 -7.043085098266601562e-01 8.520852923393249512e-01 4.433303698897361755e-02 1.081639409065246582e+00
1.339000000000000000e+03 9.817752838134765625e+00 -2.151285743713378906e+01 1.007547259330749512e+00 9.710160255432128906e+00 3.215312242507934570e+00 6.464554667472839355e-01
1.340000000000000000e+03 3.734892654418945312e+01 -1.917179298400878906e+01 2.871123313903808594e+00 9.542648315429687500e+00 3.724131584167480469e+00 -1.424965977668762207e+00
1.341000000000000000e+03 3.624527740478515625e+01 -1.779411888122558594e+01 3.608453512191772461e+00 1.040825843811035156e+01 4.205013275146484375e+00 -2.770023107528686523e+00
1.342000000000000000e+03 2.916011047363281250e+01 -4.990445137023925781e+00 3.371395826339721680e+00 2.422590255737304688e+00 1.738195896148681641e+00 -2.664156913757324219e+00
1.343000000000000000e+03 1.044844341278076172e+01 -1.910668563842773438e+01 1.634738802909851074e+00 1.281850242614746094e+01 4.335972309112548828e+00 2.792011201381683350e-01
1.344000000000000000e+03 3.398326492309570312e+01 -2.968012619018554688e+01 2.353292107582092285e-01 4.756386280059814453e+00 1.497514605522155762e+00 2.002934455871582031e+00
1.345000000000000000e+03 3.427294540405273438e+01 -2.743906593322753906e+01 2.368886232376098633e+00 5.704425334930419922e+00 2.421993494033813477e+00 3.213503360748291016e+00
1.346000000000000000e+03 3.609549331665039062e+01 -2.173669052124023438e+01 1.898554265499114990e-01 1.134077167510986328e+01 3.459188222885131836e+00 -2.503065019845962524e-02
1.347000000000000000e+03 3.512384414672851562e+01 -2.868318367004394531e+01 5.227267146110534668e-01 6.171455860137939453e+00 2.008254766464233398e+00 1.947440862655639648e+00
1.348000000000000000e+03 2.691105270385742188e+01 -3.256102371215820312e+01 -1.168588519096374512e+00 7.296320796012878418e-02 -3.286875784397125244e-01 5.653153061866760254e-01
1.349000000000000000e+03 1.547467708587646484e+01 -2.796459388732910156e+01 -6.365951895713806152e-01 2.145671606063842773e+00 4.527229666709899902e-01 -6.382642984390258789e-01
1.350000000000000000e+03 1.657684135437011719e+01 -2.901824378967285156e+01 -9.620665907859802246e-01 1.509306430816650391e+00 1.641719639301300049e-01 -4.114559590816497803e-01
1.351000000000000000e+03 1.781831932067871094e+01 -2.994084358215332031e+01 -1.139485239982604980e+00 8.484549522399902344e-01 -8.730910718441009521e-02 -2.973280847072601318e-01
1.352000000000000000e+03 1.936014366149902344e+01 -1.086773872375488281e+01 -2.672621726989746094e+00 5.344406366348266602e-01 -6.414543390274047852e-01 -1.007903933525085449e+00
1.353000000000000000e+03 1.814226913452148438e+01 -1.172567749023437500e+01 -5.789249897003173828e+00 -4.689000546932220459e-01 -1.877444982528686523e+00 4.197275638580322266e-01
1.354000000000000000e+03 2.493477249145507812e+01 -1.314113044738769531e+01 -1.190712094306945801e+00 3.834096491336822510e-01 -2.421907335519790649e-01 -8.161582946777343750e-01
1.355000000000000000e+03 2.362817192077636719e+01 -1.307523822784423828e+01 -1.763091325759887695e+00 4.566469192504882812e-01 -3.919332921504974365e-01 -4.265468120574951172e-01
1.356000000000000000e+03 3.200489425659179688e+01 -1.374721908569335938e+01 2.606244802474975586e+00 2.194708824157714844e+00 1.440286159515380859e+00 -2.747626066207885742e+00
1.357000000000000000e+03 5.893202304840087891e+00 -3.868487548828125000e+01 -1.793595105409622192e-01 5.486106395721435547e+00 1.592024087905883789e+00 2.301858365535736084e-01
1.358000000000000000e+03 1.666609048843383789e+00 -1.025654506683349609e+01 -1.013593077659606934e-01 1.532193064689636230e+00 4.292501211166381836e-01 1.603127419948577881e-01
1.359000000000000000e+03 1.727039933204650879e+00 -1.702168464660644531e+01 1.475903689861297607e-01 1.835259675979614258e+00 5.948550105094909668e-01 1.245511993765830994e-01
1.360000000000000000e+03 1.895709395408630371e+00 -2.242451095581054688e+01 1.129158511757850647e-01 3.201204538345336914e+00 9.942361116409301758e-01 8.265616297721862793e-01
1.361000000000000000e+03 2.021463871002197266e+00 -2.921404266357421875e+01 -1.071362271904945374e-01 5.509384632110595703e+00 1.620674490928649902e+00 6.866440176963806152e-01
1.362000000000000000e+03 4.254147529602050781e+00 -3.706609725952148438e+01 -2.553559541702270508e-01 6.023788928985595703e+00 1.730529904365539551e+00 2.227257043123245239e-01
1.363000000000000000e+03 9.904515147209167480e-01 -3.889236450195312500e+01 1.296275947242975235e-02 6.941411495208740234e+00 2.086312294006347656e+00 -1.772470958530902863e-02
1.364000000000000000e+03 3.287389278411865234e+00 -3.950593185424804688e+01 -3.868361935019493103e-02 6.608419418334960938e+00 1.970920681953430176e+00 7.405480742454528809e-02
1.365000000000000000e+03 2.312120914459228516e+00 -3.326895523071289062e+01 -1.067764684557914734e-01 6.232545852661132812e+00 1.837730884552001953e+00 3.729494214057922363e-01
1.366000000000000000e+03 7.294065356254577637e-01 -3.215090560913085938e+01 -1.871479488909244537e-02 6.411345958709716797e+00 1.917789340019226074e+00 1.733800172805786133e-01
1.367000000000000000e+03 2.068604707717895508e+00 -3.056674957275390625e+01 -1.061019673943519592e-01 5.831701278686523438e+00 1.717679858207702637e+00 5.771421790122985840e-01
1.368000000000000000e+03 3.144346475601196289e+00 -2.223888206481933594e+01 1.955898106098175049e-01 4.038697719573974609e+00 1.270286202430725098e+00 1.188683032989501953e+00
1.369000000000000000e+03 6.572135686874389648e-01 -2.533443641662597656e+01 -1.474223099648952484e-02 3.754812717437744141e+00 1.122021079063415527e+00 3.526855707168579102e-01
1.370000000000000000e+03 1.930759549140930176e+00 -2.378983688354492188e+01 1.702309399843215942e-02 3.719208002090454102e+00 1.120869278907775879e+00 9.237830042839050293e-01
1.371000000000000000e+03 5.920087695121765137e-01 -1.851467323303222656e+01 7.435595244169235229e-02 8.200479149818420410e-01 2.683211565017700195e-01 1.196664944291114807e-01
1.372000000000000000e+03 2.858578205108642578e+00 -1.687474822998046875e+01 2.517521083354949951e-01 2.929085016250610352e+00 9.542511105537414551e-01 1.657262444496154785e-01
1.373000000000000000e+03 1.813685536384582520e+00 -1.972000503540039062e+01 1.800518184900283813e-01 2.341242551803588867e+00 7.563883066177368164e-01 5.055532455444335938e-01
1.374000000000000000e+03 5.470935106277465820e-01 -1.171582508087158203e+01 -3.231999650597572327e-02 7.431679964065551758e-01 2.132544070482254028e-01 8.692090341355651617e-05
1.375000000000000000e+03 2.735682487487792969e+00 -1.426326274871826172e+01 1.680233515799045563e-02 2.695631504058837891e+00 8.137301206588745117e-01 -9.244073927402496338e-02
1.376000000000000000e+03 2.075676202774047852e+00 -1.665555238723754883e+00 1.751456782221794128e-02 1.209926418960094452e-02 8.884149603545665741e-03 -1.970256567001342773e-01
1.377000000000000000e+03 1.326699852943420410e+00 -1.624824166297912598e+00 5.933196283876895905e-03 -9.414466470479965210e-02 -2.646343968808650970e-02 -1.949543356895446777e-01
1.378000000000000000e+03 4.070089161396026611e-01 -3.650454759597778320e+00 5.050561204552650452e-02 -4.905199110507965088e-01 -1.320042908191680908e-01 -7.581694051623344421e-03
1.379000000000000000e+03 9.744227409362792969e+00 -1.761386871337890625e+01 2.373108148574829102e+00 1.092561721801757812e+01 3.989617586135864258e+00 8.414154648780822754e-01
1.380000000000000000e+03 1.018248367309570312e+01 -2.029975891113281250e+01 1.517564296722412109e+00 1.097574901580810547e+01 3.747993946075439453e+00 3.275393843650817871e-01
1.381000000000000000e+03 2.812170982360839844e+01 -3.061087417602539062e+01 -2.006572723388671875e+00 -2.519903331995010376e-02 -6.095315814018249512e-01 1.192755550146102905e-01
1.382000000000000000e+03 2.855622482299804688e+01 -3.222451019287109375e+01 -9.604318737983703613e-01 4.603806436061859131e-01 -1.500153690576553345e-01 7.878296375274658203e-01
1.383000000000000000e+03 1.529752254486083984e+01 -2.572582435607910156e+01 3.408266007900238037e-01 1.600893497467041016e+00 5.825160145759582520e-01 -9.413743019104003906e-01
1.384000000000000000e+03 3.736193084716796875e+01 -2.159443092346191406e+01 1.031285166740417480e+00 1.126005840301513672e+01 3.687402963638305664e+00 3.048585057258605957e-01
1.385000000000000000e+03 3.750865173339843750e+01 -2.272764015197753906e+01 1.686782479286193848e+00 1.014927577972412109e+01 3.550817489624023438e+00 8.609470129013061523e-01
1.386000000000000000e+03 1.444571685791015625e+01 -2.690085029602050781e+01 -3.838024735450744629e-01 3.221513271331787109e+00 8.513132333755493164e-01 -9.668821096420288086e-01
1.387000000000000000e+03 1.341757583618164062e+01 -2.588231277465820312e+01 -2.628412544727325439e-01 4.485098838806152344e+00 1.266677260398864746e+00 -1.392048120498657227e+00
1.388000000000000000e+03 2.503363990783691406e+01 2.488779449462890625e+01 -2.356308251619338989e-01 7.485687732696533203e-01 1.538814008235931396e-01 9.662443995475769043e-01
1.389000000000000000e+03 1.706075668334960938e+01 1.765938186645507812e+01 1.804621577262878418e+00 1.027475357055664062e+01 3.623812437057495117e+00 8.253784179687500000e-01
1.390000000000000000e+03 4.236470794677734375e+01 -1.533852815628051758e+00 8.210380077362060547e-01 1.135547828674316406e+01 3.652954816818237305e+00 1.815314173698425293e+00
1.391000000000000000e+03 1.681996536254882812e+01 5.804044723510742188e+00 2.395312190055847168e-01 8.256146430969238281e+00 2.548703193664550781e+00 6.422655582427978516e-01
1.392000000000000000e+03 1.918114471435546875e+01 5.360839843750000000e+00 5.069619417190551758e-01 5.846172332763671875e+00 1.905940294265747070e+00 -6.440320014953613281e-01
1.393000000000000000e+03 3.208121871948242188e+01 -6.423086166381835938e+00 -6.388686895370483398e-01 -8.135745674371719360e-02 -2.160678505897521973e-01 -2.295276641845703125e+00
1.394000000000000000e+03 2.756554603576660156e+01 2.104919624328613281e+01 -2.639900445938110352e+00 -1.144300624728202820e-01 -8.262991309165954590e-01 5.888612866401672363e-01
1.395000000000000000e+03 2.640473556518554688e+01 2.293869781494140625e+01 -1.392033457756042480e+00 9.190820157527923584e-02 -3.900375962257385254e-01 3.853368461132049561e-01
1.396000000000000000e+03 2.487635231018066406e+01 2.325823402404785156e+01 -1.082374811172485352e+00 8.977471292018890381e-02 -2.977800369262695312e-01 6.923806667327880859e-01
1.397000000000000000e+03 4.887604141235351562e+01 1.081605339050292969e+01 6.328978538513183594e-01 1.172011756896972656e+01 3.705904722213745117e+00 2.522580146789550781e+00
1.398000000000000000e+03 4.735363006591796875e+01 9.747386932373046875e+00 8.936117887496948242e-01 1.163818168640136719e+01 3.759537935256958008e+00 1.841899991035461426e+00
1.399000000000000000e+03 3.763835525512695312e+01 -5.327714443206787109e+00 -1.894983410835266113e+00 1.625113725662231445e+00 -8.096089959144592285e-02 8.250429034233093262e-01
1.400000000000000000e+03 3.252008819580078125e+01 2.200476264953613281e+01 -9.544714689254760742e-01 7.495357990264892578e-01 -6.148069351911544800e-02 -5.395509600639343262e-01
1.401000000000000000e+03 3.748887634277343750e+01 -4.050430297851562500e+00 -3.626288414001464844e+00 2.043265849351882935e-01 -1.026588559150695801e+00 -4.938693344593048096e-01
1.402000000000000000e+03 4.040976715087890625e+01 -4.928405284881591797e+00 -2.429519891738891602e+00 6.688610076904296875e+00 1.277727127075195312e+00 2.155535459518432617e+00
1.403000000000000000e+03 1.773667907714843750e+01 1.109706687927246094e+01 4.949748218059539795e-01 1.122779273986816406e+01 3.516830205917358398e+00 -4.034145176410675049e-01
1.404000000000000000e+03 4.167066192626953125e+01 1.241958904266357422e+01 7.102558016777038574e-01 7.064494609832763672e+00 2.332425117492675781e+00 -1.868250727653503418e+00
1.405000000000000000e+03 4.602816772460937500e+01 3.845934152603149414e+00 1.631806492805480957e+00 1.194133472442626953e+01 4.071942329406738281e+00 4.785428643226623535e-01
1.406000000000000000e+03 4.472737884521484375e+01 7.444601535797119141e+00 1.247305393218994141e+00 1.274685382843017578e+01 4.198247432708740234e+00 5.182946920394897461e-01
1.407000000000000000e+03 3.328121948242187500e+01 2.007636833190917969e+01 -9.596339464187622070e-01 5.878422260284423828e-01 -1.115375161170959473e-01 -2.698909938335418701e-01
1.408000000000000000e+03 1.854914665222167969e+01 6.820652008056640625e+00 1.406106650829315186e-01 7.648053169250488281e+00 2.336599111557006836e+00 -5.165218710899353027e-01
1.409000000000000000e+03 3.615707778930664062e+01 -4.393805027008056641e+00 -4.202774047851562500e+00 -8.107304573059082031e-02 -1.285154104232788086e+00 -1.023388981819152832e+00
1.410000000000000000e+03 3.896893310546875000e+01 -5.069928169250488281e+00 -2.054615736007690430e+00 4.019349098205566406e+00 5.894200205802917480e-01 2.010852813720703125e+00
1.411000000000000000e+03 1.745376586914062500e+01 1.377973365783691406e+01 5.691076517105102539e-01 1.211217498779296875e+01 3.804384946823120117e+00 1.371349096298217773e-01
1.412000000000000000e+03 1.758350944519042969e+01 1.244581127166748047e+01 3.603690266609191895e-01 1.179498100280761719e+01 3.646605014801025391e+00 -2.062266170978546143e-01
1.413000000000000000e+03 3.498563385009765625e+01 -5.992396831512451172e+00 -2.226716995239257812e+00 1.849380284547805786e-01 -6.125337481498718262e-01 -8.479176163673400879e-01
1.414000000000000000e+03 3.514999008178710938e+01 -7.257891654968261719e+00 -7.901439070701599121e-01 1.038216829299926758e+00 7.442186772823333740e-02 -8.100039958953857422e-01
1.415000000000000000e+03 3.783414077758789062e+01 1.663574028015136719e+01 2.899720966815948486e-01 2.099715948104858398e+00 7.169063687324523926e-01 -1.117113947868347168e+00
1.416000000000000000e+03 2.235218048095703125e+01 -1.010126233100891113e+00 2.866611003875732422e+00 1.774382591247558594e+00 1.392298102378845215e+00 -2.153104543685913086e+00
1.417000000000000000e+03 2.369631195068359375e+01 -7.160092830657958984e+00 1.051533341407775879e+00 1.538263320922851562e+00 7.769389748573303223e-01 -2.235604524612426758e+00
1.418000000000000000e+03 2.161003684997558594e+01 5.120070651173591614e-02 2.549427270889282227e+00 2.011423587799072266e+00 1.368255257606506348e+00 -1.982906579971313477e+00
1.419000000000000000e+03 3.747872543334960938e+01 1.893546104431152344e+01 -2.266175448894500732e-01 2.301656246185302734e+00 6.225116252899169922e-01 -1.060835361480712891e+00
1.420000000000000000e+03 2.687413215637207031e+01 -3.054242610931396484e+00 2.987903118133544922e+00 2.806754827499389648e+00 1.738397359848022461e+00 -2.999929189682006836e+00
1.421000000000000000e+03 2.676904678344726562e+01 -4.963436126708984375e+00 2.550798654556274414e+00 2.277362108230590820e+00 1.448448300361633301e+00 -2.421846628189086914e+00
1.422000000000000000e+03 1.733899307250976562e+01 1.509742832183837891e+01 5.524416565895080566e-01 1.228639698028564453e+01 3.851651668548583984e+00 5.240923762321472168e-01
1.423000000000000000e+03 3.356802749633789062e+01 -6.289061546325683594e+00 -1.594138741493225098e+00 -1.709919571876525879e-01 -5.295392274856567383e-01 -1.563726425170898438e+00
1.424000000000000000e+03 2.792064476013183594e+01 2.250528907775878906e+01 -1.606336236000061035e+00 -2.157497778534889221e-02 -4.883733689785003662e-01 1.418597251176834106e-01
1.425000000000000000e+03 4.282389831542968750e+01 -2.374178022146224976e-01 1.727156281471252441e+00 1.309450435638427734e+01 4.446498394012451172e+00 2.417659759521484375e+00
1.426000000000000000e+03 1.721993637084960938e+01 1.640340423583984375e+01 1.299951553344726562e+00 1.173289585113525391e+01 3.909854173660278320e+00 1.274561166763305664e+00
1.427000000000000000e+03 2.087384033203125000e+01 2.829371452331542969e+00 1.329762697219848633e+00 2.757215499877929688e+00 1.226093411445617676e+00 -1.347361207008361816e+00
1.428000000000000000e+03 2.582764816284179688e+01 -3.796277523040771484e+00 2.982015609741210938e+00 2.241764068603515625e+00 1.567133903503417969e+00 -2.626394510269165039e+00
1.429000000000000000e+03 3.072341156005859375e+01 2.137765121459960938e+01 -1.452645421028137207e+00 1.095218956470489502e-01 -4.029370844364166260e-01 -3.713171929121017456e-02
1.430000000000000000e+03 3.203200912475585938e+01 2.073870849609375000e+01 -1.272009134292602539e+00 3.865763843059539795e-01 -2.656298279762268066e-01 -1.295129060745239258e-01
1.431000000000000000e+03 4.254425811767578125e+01 1.137406253814697266e+01 5.386886596679687500e-01 9.472953796386718750e+00 3.003492593765258789e+00 -1.253936529159545898e+00
1.432000000000000000e+03 4.582779693603515625e+01 2.680850267410278320e+00 1.750463724136352539e+00 1.150955295562744141e+01 3.978004932403564453e+00 4.923326075077056885e-01
1.433000000000000000e+03 4.584039306640625000e+01 5.002382278442382812e+00 1.456506252288818359e+00 1.244848728179931641e+01 4.171497821807861328e+00 5.979754924774169922e-01
1.434000000000000000e+03 4.547797775268554688e+01 6.337094306945800781e+00 1.234206199645996094e+00 1.286547088623046875e+01 4.229903221130371094e+00 6.249450445175170898e-01
1.435000000000000000e+03 1.996360969543457031e+01 4.003716468811035156e+00 8.068540096282958984e-01 4.237786769866943359e+00 1.513392210006713867e+00 -1.056074142456054688e+00
1.436000000000000000e+03 3.448004531860351562e+01 1.935557746887207031e+01 -5.987317562103271484e-01 8.949903845787048340e-01 8.887758105993270874e-02 -4.126717448234558105e-01
1.437000000000000000e+03 3.676228713989257812e+01 1.761855316162109375e+01 3.708114847540855408e-02 1.604734182357788086e+00 4.925446212291717529e-01 -8.438368439674377441e-01
1.438000000000000000e+03 4.997446060180664062e+01 -3.797165751457214355e-01 1.818331599235534668e+00 3.297302961349487305e+00 1.534690380096435547e+00 -1.351761937141418457e+00
1.439000000000000000e+03 7.916319274902343750e+01 -3.485911560058593750e+01 2.652223221957683563e-02 8.994876861572265625e+00 2.706419706344604492e+00 -5.301051959395408630e-02
1.440000000000000000e+03 7.794361114501953125e+01 -2.922185134887695312e+01 -1.124532222747802734e-01 8.038228988647460938e+00 2.377732753753662109e+00 -4.701010882854461670e-01
1.441000000000000000e+03 7.929601287841796875e+01 -2.783734893798828125e+01 -3.179231286048889160e-02 7.830715656280517578e+00 2.339676856994628906e+00 -2.304693311452865601e-01
1.442000000000000000e+03 7.802638244628906250e+01 3.322573089599609375e+01 -2.112261485308408737e-03 8.585316658020019531e+00 2.574961185455322266e+00 -4.929110780358314514e-02
1.443000000000000000e+03 7.919116973876953125e+01 3.608050537109375000e+01 -4.921452701091766357e-02 8.851094245910644531e+00 2.640563964843750000e+00 -7.103712856769561768e-02
1.444000000000000000e+03 7.938449859619140625e+01 -2.083295249938964844e+01 2.400065027177333832e-02 5.404802799224853516e+00 1.628641009330749512e+00 -1.573589444160461426e-01
1.445000000000000000e+03 7.793595886230468750e+01 -2.489170646667480469e+01 -7.497469894587993622e-03 7.146629810333251953e+00 2.141739606857299805e+00 -7.019225955009460449e-01
1.446000000000000000e+03 7.787389373779296875e+01 -2.634584045410156250e+01 -6.015358865261077881e-02 7.484874248504638672e+00 2.227416276931762695e+00 -6.597871184349060059e-01
1.447000000000000000e+03 7.788179779052734375e+01 -3.201176452636718750e+01 -9.936279803514480591e-02 8.340155601501464844e+00 2.472237586975097656e+00 -2.496376484632492065e-01
1.448000000000000000e+03 7.930645751953125000e+01 -3.064420700073242188e+01 -4.106990247964859009e-02 8.544134140014648438e+00 2.550919294357299805e+00 -1.439240127801895142e-01
1.449000000000000000e+03 7.771276855468750000e+01 -3.341049575805664062e+01 -6.548026949167251587e-02 8.383633613586425781e+00 2.495445966720581055e+00 -1.843957155942916870e-01
1.450000000000000000e+03 7.770738983154296875e+01 -3.937099456787109375e+01 -6.644401699304580688e-02 8.746038436889648438e+00 2.603878259658813477e+00 1.686448603868484497e-01
1.451000000000000000e+03 7.799560546875000000e+01 1.552903366088867188e+01 2.160197049379348755e-01 6.639538288116455078e+00 2.056667566299438477e+00 4.096699878573417664e-02
1.452000000000000000e+03 7.933634948730468750e+01 1.538749790191650391e+01 -2.850945852696895599e-02 5.888016223907470703e+00 1.757852077484130859e+00 2.326367609202861786e-02
1.453000000000000000e+03 7.937098693847656250e+01 2.231128883361816406e+01 -8.484659716486930847e-03 7.558586597442626953e+00 2.265030622482299805e+00 2.221881449222564697e-01
1.454000000000000000e+03 7.813107299804687500e+01 3.193247604370117188e+01 -6.438376009464263916e-02 8.631365776062011719e+00 2.570094585418701172e+00 -2.388827316462993622e-02
1.455000000000000000e+03 7.671932983398437500e+01 3.296367263793945312e+01 -9.341458976268768311e-02 8.157269477844238281e+00 2.419156551361083984e+00 -9.270516037940979004e-02
1.456000000000000000e+03 7.798282623291015625e+01 2.790868949890136719e+01 -7.261910289525985718e-02 8.522023200988769531e+00 2.534821271896362305e+00 2.157817035913467407e-01
1.457000000000000000e+03 7.933212280273437500e+01 2.788033866882324219e+01 -6.419612467288970947e-02 8.910799980163574219e+00 2.653981208801269531e+00 9.313920885324478149e-02
1.458000000000000000e+03 7.799750518798828125e+01 2.509027671813964844e+01 -6.081910431385040283e-02 8.209174156188964844e+00 2.444506406784057617e+00 4.631679058074951172e-01
1.459000000000000000e+03 7.806307983398437500e+01 2.371028518676757812e+01 -8.515805751085281372e-02 7.994886398315429688e+00 2.372918605804443359e+00 5.053005814552307129e-01
1.460000000000000000e+03 7.810998535156250000e+01 1.826259613037109375e+01 1.544605195522308350e-01 6.852592468261718750e+00 2.102115869522094727e+00 3.971216976642608643e-01
1.461000000000000000e+03 7.807838439941406250e+01 1.689441871643066406e+01 1.203368380665779114e-01 6.691944599151611328e+00 2.043684482574462891e+00 2.719809710979461670e-01
1.462000000000000000e+03 7.790605163574218750e+01 1.415301418304443359e+01 1.023461669683456421e-01 6.694794178009033203e+00 2.039142131805419922e+00 -1.115940883755683899e-01
1.463000000000000000e+03 7.658274841308593750e+01 1.133987522125244141e+01 2.442937791347503662e-01 7.356606006622314453e+00 2.280269861221313477e+00 -5.338722467422485352e-01
1.464000000000000000e+03 7.797000122070312500e+01 9.872379302978515625e+00 7.133848965167999268e-02 7.139362812042236328e+00 2.163210391998291016e+00 -4.732304513454437256e-01
1.465000000000000000e+03 7.931993865966796875e+01 9.798731803894042969e+00 -3.246325999498367310e-02 6.781935691833496094e+00 2.024841785430908203e+00 -1.991093456745147705e-01
1.466000000000000000e+03 7.800980377197265625e+01 6.246589124202728271e-02 -6.864988803863525391e-02 8.385165214538574219e+00 2.494954586029052734e+00 -9.695637971162796021e-02
1.467000000000000000e+03 7.934132385253906250e+01 1.413941264152526855e+00 -8.058867417275905609e-03 8.691987037658691406e+00 2.605178356170654297e+00 -6.903703510761260986e-02
1.468000000000000000e+03 7.666172027587890625e+01 7.112892150878906250e+00 -8.669348061084747314e-02 7.689621448516845703e+00 2.280878305435180664e+00 -6.821188926696777344e-01
1.469000000000000000e+03 7.939661407470703125e+01 -1.944637489318847656e+01 5.246435850858688354e-02 5.140602111816406250e+00 1.557919859886169434e+00 -7.251404225826263428e-02
1.470000000000000000e+03 7.809620666503906250e+01 -2.207103347778320312e+01 1.003462746739387512e-01 6.442467212677001953e+00 1.962844014167785645e+00 -5.647052526473999023e-01
1.471000000000000000e+03 7.821298217773437500e+01 -1.522661495208740234e+01 1.317618787288665771e-01 6.206882476806640625e+00 1.901593327522277832e+00 4.360072910785675049e-01
1.472000000000000000e+03 7.939260864257812500e+01 -1.390073871612548828e+01 3.355839103460311890e-02 5.911879539489746094e+00 1.783631324768066406e+00 2.110976427793502808e-01
1.473000000000000000e+03 7.815029907226562500e+01 -8.263665199279785156e+00 -7.088553905487060547e-02 7.799190998077392578e+00 2.318491697311401367e+00 4.895362555980682373e-01
1.474000000000000000e+03 7.937937164306640625e+01 -6.935305595397949219e+00 -1.001363620162010193e-02 8.231723785400390625e+00 2.466512918472290039e+00 1.526684761047363281e-01
1.475000000000000000e+03 7.735735321044921875e+01 3.689965438842773438e+01 -5.036566406488418579e-02 8.343905448913574219e+00 2.488061904907226562e+00 -1.095965132117271423e-01
1.476000000000000000e+03 7.593351745605468750e+01 3.662051010131835938e+01 2.255929075181484222e-02 7.767554759979248047e+00 2.337034225463867188e+00 -1.200976893305778503e-01
1.477000000000000000e+03 7.664386749267578125e+01 9.488837420940399170e-02 -1.744115203619003296e-01 8.045797348022460938e+00 2.361415624618530273e+00 -1.281843483448028564e-01
1.478000000000000000e+03 7.801765441894531250e+01 1.453641057014465332e+00 -7.569596916437149048e-02 8.316503524780273438e+00 2.472242355346679688e+00 -1.780261993408203125e-01
1.479000000000000000e+03 7.810068511962890625e+01 -4.116042137145996094e+00 -9.001368284225463867e-02 8.337659835815429688e+00 2.474293947219848633e+00 1.875554174184799194e-01
1.480000000000000000e+03 7.935398101806640625e+01 -2.760751962661743164e+00 -2.719006873667240143e-02 8.813121795654296875e+00 2.635779380798339844e+00 3.599754720926284790e-02
1.481000000000000000e+03 7.814688873291015625e+01 -6.879975318908691406e+00 -8.572351932525634766e-02 8.036939620971679688e+00 2.385364770889282227e+00 3.814254999160766602e-01
1.482000000000000000e+03 7.813982391357421875e+01 -1.105741119384765625e+01 -1.828351803123950958e-02 7.174198150634765625e+00 2.146774291992187500e+00 6.207424998283386230e-01
1.483000000000000000e+03 7.937955474853515625e+01 -9.720487594604492188e+00 -9.365344420075416565e-03 7.420071601867675781e+00 2.223211765289306641e+00 2.217682600021362305e-01
1.484000000000000000e+03 7.817464447021484375e+01 -1.384608078002929688e+01 4.790272936224937439e-02 6.518528938293457031e+00 1.969929575920104980e+00 5.702996253967285156e-01
1.485000000000000000e+03 7.820362091064453125e+01 -1.795557212829589844e+01 1.798977106809616089e-01 5.930589675903320312e+00 1.833146333694458008e+00 4.924611374735832214e-02
1.486000000000000000e+03 7.940774536132812500e+01 -1.667872238159179688e+01 5.704834312200546265e-02 5.181444168090820312e+00 1.571547746658325195e+00 9.344716370105743408e-02
1.487000000000000000e+03 7.818120574951171875e+01 -1.931655311584472656e+01 1.586146950721740723e-01 5.985647201538085938e+00 1.843278527259826660e+00 -1.768066585063934326e-01
1.488000000000000000e+03 4.956816101074218750e+01 2.168962860107421875e+01 -1.811022907495498657e-01 6.159024238586425781e+00 1.793376684188842773e+00 1.008886098861694336e+00
1.489000000000000000e+03 5.125352096557617188e+01 1.878484535217285156e+01 1.861061215400695801e+00 7.466026306152343750e+00 2.798126220703125000e+00 3.260881423950195312e+00
1.490000000000000000e+03 4.920235824584960938e+01 9.195934534072875977e-01 1.809137344360351562e+00 5.288494110107421875e+00 2.129289388656616211e+00 -2.274385452270507812e+00
1.491000000000000000e+03 2.055844879150390625e+01 2.195010185241699219e+01 1.231386661529541016e-01 3.877675294876098633e+00 1.200244188308715820e+00 2.491695642471313477e+00
1.492000000000000000e+03 5.655294418334960938e+01 2.219289779663085938e+01 -1.814616918563842773e+00 3.255827724933624268e-01 -4.467102587223052979e-01 3.099225461483001709e-01
1.493000000000000000e+03 5.303753662109375000e+01 2.281244277954101562e+01 -6.961825489997863770e-01 4.139711856842041016e+00 1.033058881759643555e+00 2.107544183731079102e+00
1.494000000000000000e+03 5.261196136474609375e+01 -1.957011967897415161e-02 1.743713855743408203e+00 -5.358030274510383606e-02 5.070400238037109375e-01 1.847825646400451660e-01
1.495000000000000000e+03 4.778753280639648438e+01 -2.601872757077217102e-02 7.864974737167358398e-01 8.037392616271972656e+00 2.647167205810546875e+00 -9.784966707229614258e-01
1.496000000000000000e+03 4.394249343872070312e+01 4.942059040069580078e+00 1.003444671630859375e+00 1.465060520172119141e+01 4.696214675903320312e+00 4.948834478855133057e-01
1.497000000000000000e+03 7.115142822265625000e+01 2.131833457946777344e+01 -1.600178033113479614e-01 8.928005218505859375e+00 2.630396127700805664e+00 5.746746063232421875e-01
1.498000000000000000e+03 6.768643951416015625e+01 2.336520576477050781e+01 -1.837077021598815918e+00 6.068096160888671875e+00 1.269305706024169922e+00 -1.406277060508728027e+00
1.499000000000000000e+03 6.840802764892578125e+01 1.681584358215332031e+01 -2.036019861698150635e-01 1.400539684295654297e+01 4.140538692474365234e+00 1.927396953105926514e-01
1.500000000000000000e+03 7.077407836914062500e+01 1.518291282653808594e+01 1.333288908004760742e+00 1.088237571716308594e+01 3.664699554443359375e+00 2.064067423343658447e-01
1.501000000000000000e+03 4.941988372802734375e+01 1.779082107543945312e+01 1.196072340011596680e+00 7.878873825073242188e+00 2.722483873367309570e+00 2.125680208206176758e+00
1.502000000000000000e+03 5.860411071777343750e+01 1.146975517272949219e+00 7.288951277732849121e-01 1.265119761228561401e-01 2.566221356391906738e-01 1.632017344236373901e-01
1.503000000000000000e+03 6.710607147216796875e+01 8.525347709655761719e+00 3.700066506862640381e-01 6.787202358245849609e+00 2.147162675857543945e+00 1.856454610824584961e+00
1.504000000000000000e+03 6.948385620117187500e+01 1.402605533599853516e+01 1.531986594200134277e+00 1.165730762481689453e+01 3.956788063049316406e+00 8.520014882087707520e-01
1.505000000000000000e+03 6.368442535400390625e+01 2.518648338317871094e+01 -8.718664050102233887e-01 1.383204817771911621e+00 1.534015238285064697e-01 -1.079974412918090820e+00
1.506000000000000000e+03 6.236652374267578125e+01 2.245374870300292969e+01 -4.073416709899902344e+00 -1.302646249532699585e-01 -1.261104345321655273e+00 4.672293663024902344e-01
1.507000000000000000e+03 6.005371475219726562e+01 4.019320964813232422e+00 4.730859026312828064e-02 1.366639733314514160e-01 5.519176647067070007e-02 8.778847754001617432e-02
1.508000000000000000e+03 5.496511459350585938e+01 -1.512584805488586426e+00 1.416241049766540527e+00 4.065851122140884399e-02 4.370698630809783936e-01 1.293994113802909851e-02
1.509000000000000000e+03 5.604932785034179688e+01 -4.685268104076385498e-01 1.268262505531311035e+00 -2.692990191280841827e-02 3.723997771739959717e-01 4.991568997502326965e-02
1.510000000000000000e+03 4.930619049072265625e+01 -6.223185062408447266e+00 -1.029521107673645020e+00 4.842041015625000000e+00 1.143756031990051270e+00 1.018131017684936523e+00
1.511000000000000000e+03 5.383400726318359375e+01 -6.280753612518310547e+00 -3.376583755016326904e-01 -2.542523443698883057e-01 -1.775732189416885376e-01 -1.618388295173645020e-01
1.512000000000000000e+03 5.770150375366210938e+01 2.405578041076660156e+01 -1.560629129409790039e+00 5.273033976554870605e-01 -3.099977076053619385e-01 9.436582326889038086e-01
1.513000000000000000e+03 6.231364059448242188e+01 2.387071228027343750e+01 -2.128169536590576172e+00 1.266057938337326050e-01 -6.004691123962402344e-01 -2.180460244417190552e-01
1.514000000000000000e+03 5.600165939331054688e+01 2.402066421508789062e+01 -1.006288886070251465e+00 1.358211755752563477e+00 1.055768504738807678e-01 1.462147593498229980e+00
1.515000000000000000e+03 4.779935836791992188e+01 1.115841674804687500e+01 7.226654887199401855e-01 1.125037288665771484e+01 3.591911315917968750e+00 2.258330345153808594e+00
1.516000000000000000e+03 5.439923477172851562e+01 2.359055709838867188e+01 -7.405699491500854492e-01 2.433476448059082031e+00 5.078719258308410645e-01 1.964320898056030273e+00
1.517000000000000000e+03 6.401483917236328125e+01 5.797210693359375000e+00 3.404138684272766113e-01 2.242765665054321289e+00 7.749539017677307129e-01 1.117055892944335938e+00
1.518000000000000000e+03 6.915354919433593750e+01 9.931697845458984375e+00 5.148461461067199707e-01 8.410565376281738281e+00 2.677623510360717773e+00 6.009109020233154297e-01
1.519000000000000000e+03 5.930478668212890625e+01 2.406050872802734375e+01 -1.919959664344787598e+00 9.061627089977264404e-02 -5.488030314445495605e-01 6.254254579544067383e-01
1.520000000000000000e+03 4.954697799682617188e+01 2.038593101501464844e+01 2.203229814767837524e-01 6.748706340789794922e+00 2.090708971023559570e+00 1.254421234130859375e+00
1.521000000000000000e+03 4.953466033935546875e+01 1.906894683837890625e+01 7.825270891189575195e-01 7.155005455017089844e+00 2.381259679794311523e+00 1.479725718498229980e+00
1.522000000000000000e+03 6.505736541748046875e+01 6.721395015716552734e+00 4.082947969436645508e-01 3.404177188873291016e+00 1.143741607666015625e+00 1.477673292160034180e+00
1.523000000000000000e+03 4.891558456420898438e+01 1.516699123382568359e+01 9.874172210693359375e-01 9.785049438476562500e+00 3.231739997863769531e+00 2.491230487823486328e+00
1.524000000000000000e+03 6.885697937011718750e+01 8.127268791198730469e+00 -2.549757016822695732e-03 7.505555629730224609e+00 2.250901699066162109e+00 6.832373738288879395e-01
1.525000000000000000e+03 4.920803451538085938e+01 1.647850036621093750e+01 1.090021848678588867e+00 8.866892814636230469e+00 2.987074375152587891e+00 2.501670360565185547e+00
1.526000000000000000e+03 6.082672500610351562e+01 3.026726484298706055e+00 3.440233767032623291e-01 6.681334972381591797e-01 3.036470711231231689e-01 3.374010026454925537e-01
1.527000000000000000e+03 6.609040832519531250e+01 7.639314174652099609e+00 4.350097179412841797e-01 4.685857295989990234e+00 1.536260128021240234e+00 1.767898559570312500e+00
1.528000000000000000e+03 4.821352767944335938e+01 1.251851272583007812e+01 9.995009303092956543e-01 1.075381755828857422e+01 3.525995492935180664e+00 2.414520978927612305e+00
1.529000000000000000e+03 6.955082702636718750e+01 1.532082366943359375e+01 1.023620843887329102e+00 1.206065368652343750e+01 3.925282239913940430e+00 9.145277738571166992e-01
1.530000000000000000e+03 8.543211221694946289e-01 3.737878799438476562e+01 -8.413750678300857544e-03 4.821870803833007812e+00 1.444037079811096191e+00 -3.351673856377601624e-02
1.531000000000000000e+03 7.369980216026306152e-01 3.460615921020507812e+01 -8.355589583516120911e-03 4.647496700286865234e+00 1.391742348670959473e+00 -6.872791796922683716e-02
1.532000000000000000e+03 7.178449630737304688e-01 3.320234680175781250e+01 -1.249556336551904678e-02 4.498399257659912109e+00 1.345771074295043945e+00 -8.876992762088775635e-02
1.533000000000000000e+03 6.826707720756530762e-01 2.755227851867675781e+01 -4.399570636451244354e-03 3.517087459564208984e+00 1.053806424140930176e+00 -1.590443700551986694e-01
1.534000000000000000e+03 6.720010042190551758e-01 2.613818740844726562e+01 -8.111483417451381683e-03 3.175887823104858398e+00 9.503329396247863770e-01 -1.715500801801681519e-01
1.535000000000000000e+03 3.339081525802612305e+00 2.573858451843261719e+01 -6.654147058725357056e-02 3.616989612579345703e+00 1.065134406089782715e+00 -7.174589037895202637e-01
1.536000000000000000e+03 3.316520452499389648e+00 2.434652328491210938e+01 -4.466530308127403259e-02 3.381805896759033203e+00 1.001142144203186035e+00 -7.583778500556945801e-01
1.537000000000000000e+03 2.207418918609619141e+00 3.435838317871093750e+01 -5.382570251822471619e-02 4.552640914916992188e+00 1.349644660949707031e+00 -2.080176770687103271e-01
1.538000000000000000e+03 2.162963390350341797e+00 3.299266052246093750e+01 -4.163154959678649902e-02 4.419770240783691406e+00 1.313441634178161621e+00 -2.544933855533599854e-01
1.539000000000000000e+03 3.327826499938964844e+00 3.930899047851562500e+01 -5.681701004505157471e-02 4.786792755126953125e+00 1.418992757797241211e+00 -1.017522439360618591e-01
1.540000000000000000e+03 6.422931551933288574e-01 2.049917030334472656e+01 7.877100259065628052e-03 1.606821179389953613e+00 4.844094812870025635e-01 -1.839988380670547485e-01
1.541000000000000000e+03 6.242166161537170410e-01 1.908485794067382812e+01 -1.750460709445178509e-03 1.203745245933532715e+00 3.605984449386596680e-01 -1.758479923009872437e-01
1.542000000000000000e+03 5.636523365974426270e-01 1.486107063293457031e+01 8.703186176717281342e-03 9.032391011714935303e-02 2.970812842249870300e-02 -1.349788010120391846e-01
1.543000000000000000e+03 5.465264320373535156e-01 1.345970439910888672e+01 2.343331230804324150e-03 -2.360859066247940063e-01 -7.012277096509933472e-02 -1.197518333792686462e-01
1.544000000000000000e+03 4.748185276985168457e-01 7.831167697906494141e+00 1.038988493382930756e-02 -1.271531701087951660e+00 -3.783425688743591309e-01 -5.435159802436828613e-02
1.545000000000000000e+03 4.023188054561614990e-01 6.451198101043701172e+00 1.744229719042778015e-02 -1.364253282546997070e+00 -4.040432870388031006e-01 -9.068809449672698975e-03
1.546000000000000000e+03 3.636190891265869141e-01 5.103274345397949219e+00 1.031391788274049759e-02 -1.278811097145080566e+00 -3.805491626262664795e-01 4.299890622496604919e-02
1.547000000000000000e+03 3.873705625534057617e+00 1.645007133483886719e+00 -3.144286870956420898e-01 -1.107214600779116154e-03 -9.466077387332916260e-02 5.000719428062438965e-01
1.548000000000000000e+03 1.566616535186767578e+00 1.059139728546142578e+01 2.598776482045650482e-02 2.397437579929828644e-02 1.498864218592643738e-02 -2.771521508693695068e-01
1.549000000000000000e+03 5.274268984794616699e-01 1.065089511871337891e+01 4.221583250910043716e-03 -8.341745138168334961e-01 -2.489858716726303101e-01 -1.064543351531028748e-01
1.550000000000000000e+03 1.635897755622863770e+00 1.334298706054687500e+01 1.637091301381587982e-02 5.233678221702575684e-01 1.619216203689575195e-01 -3.397594690322875977e-01
1.551000000000000000e+03 1.866645693778991699e+00 1.890008735656738281e+01 2.238859049975872040e-02 1.776700496673583984e+00 5.397267341613769531e-01 -4.816366434097290039e-01
1.552000000000000000e+03 1.993127107620239258e+00 2.452615547180175781e+01 -1.716251857578754425e-02 3.070966482162475586e+00 9.161412119865417480e-01 -5.032853484153747559e-01
1.553000000000000000e+03 1.123632431030273438e+00 1.828902244567871094e+00 -5.679450556635856628e-02 -2.710185945034027100e-01 -9.834393113851547241e-02 3.043811023235321045e-01
1.554000000000000000e+03 7.741245627403259277e-01 2.411112546920776367e+00 -1.734030432999134064e-03 -4.212013185024261475e-01 -1.268806010484695435e-01 2.193066179752349854e-01
1.555000000000000000e+03 4.002841567993164062e+01 1.238477993011474609e+01 1.509074926376342773e+00 4.063584327697753906e+00 1.671797752380371094e+00 -2.352263450622558594e+00
1.556000000000000000e+03 1.148615074157714844e+01 7.581778168678283691e-01 7.533392429351806641e+00 1.542695617675781250e+01 6.888104438781738281e+00 3.685850143432617188e+00
1.557000000000000000e+03 9.011662006378173828e-01 -1.681113243103027344e+00 -6.596284918487071991e-03 -1.403836309909820557e-01 -4.409397765994071960e-02 -1.621553897857666016e-01
1.558000000000000000e+03 4.689141750335693359e+00 1.683701038360595703e+00 -2.414643615484237671e-01 7.059774547815322876e-02 -5.125998705625534058e-02 4.138814508914947510e-01
1.559000000000000000e+03 7.101770639419555664e-01 -2.175414323806762695e+00 3.840744495391845703e-02 -2.029125392436981201e-01 -4.935152456164360046e-02 -1.436856240034103394e-01
1.560000000000000000e+03 1.010728120803833008e+00 -2.830384016036987305e+00 2.878897450864315033e-02 -2.351094633340835571e-01 -6.189614534378051758e-02 -1.142104044556617737e-01
1.561000000000000000e+03 1.867522835731506348e+00 -1.652276039123535156e+00 1.567795500159263611e-02 -1.268109865486621857e-02 8.990570786409080029e-04 -2.076712250709533691e-01
1.562000000000000000e+03 2.279443025588989258e+00 -1.680819392204284668e+00 4.912494495511054993e-02 6.059380620718002319e-02 3.291562572121620178e-02 -1.773243844509124756e-01
1.563000000000000000e+03 1.841777443885803223e+00 -2.118599414825439453e+00 7.102858275175094604e-02 1.557260472327470779e-02 2.598035521805286407e-02 -1.811602562665939331e-01
1.564000000000000000e+03 3.955193519592285156e+00 -1.913191199302673340e+00 4.516284167766571045e-01 2.952342629432678223e-01 2.240588068962097168e-01 1.635378748178482056e-01
1.565000000000000000e+03 4.358669757843017578e+00 -1.966881871223449707e+00 6.591528058052062988e-01 3.372685909271240234e-01 2.989264130592346191e-01 3.332176804542541504e-01
1.566000000000000000e+03 4.702184200286865234e+00 -1.702009677886962891e+00 6.532040238380432129e-01 2.925384044647216797e-01 2.837227284908294678e-01 3.489053547382354736e-01
1.567000000000000000e+03 4.991665363311767578e+00 -1.984990596771240234e+00 9.750027656555175781e-01 4.535507261753082275e-01 4.285660386085510254e-01 6.224841475486755371e-01
1.568000000000000000e+03 5.306781291961669922e+00 -1.652265667915344238e+00 9.077079296112060547e-01 3.923808932304382324e-01 3.900266587734222412e-01 6.137516498565673828e-01
1.569000000000000000e+03 5.801884651184082031e+00 -1.804924964904785156e+00 1.334891915321350098e+00 5.836346149444580078e-01 5.755579471588134766e-01 9.901599884033203125e-01
1.570000000000000000e+03 7.100744724273681641e+00 -1.629782319068908691e+00 2.657112598419189453e+00 1.133502244949340820e+00 1.137184500694274902e+00 2.086712837219238281e+00
1.571000000000000000e+03 7.757694244384765625e+00 -1.842958807945251465e+00 3.449661493301391602e+00 2.443519115447998047e+00 1.767954111099243164e+00 3.452853202819824219e+00
1.572000000000000000e+03 7.956539154052734375e+00 -1.776513338088989258e+00 3.876240968704223633e+00 2.785788297653198242e+00 1.998608827590942383e+00 3.854843139648437500e+00
1.573000000000000000e+03 8.484594345092773438e+00 -1.679808020591735840e+00 4.385232448577880859e+00 4.283209323883056641e+00 2.600532531738281250e+00 5.011829853057861328e+00
1.574000000000000000e+03 8.548257827758789062e+00 1.854754090309143066e+00 2.230892896652221680e+00 3.964352607727050781e+00 1.858573675155639648e+00 -3.357236146926879883e+00
1.575000000000000000e+03 7.894987583160400391e+00 2.069187164306640625e+00 1.815493583679199219e+00 2.391302108764648438e+00 1.262038707733154297e+00 -2.175100564956665039e+00
1.576000000000000000e+03 7.462314605712890625e+00 1.692396879196166992e+00 1.194412708282470703e+00 1.037789940834045410e+00 6.696607470512390137e-01 -1.109218597412109375e+00
1.577000000000000000e+03 7.251211643218994141e+00 1.656354069709777832e+00 9.427679777145385742e-01 8.540647625923156738e-01 5.390498042106628418e-01 -8.812265992164611816e-01
1.578000000000000000e+03 6.566792488098144531e+00 1.903950214385986328e+00 6.852799654006958008e-01 6.094507575035095215e-01 3.884192109107971191e-01 -4.166496992111206055e-01
1.579000000000000000e+03 6.516186237335205078e+00 1.637055516242980957e+00 2.981853485107421875e-01 4.026923179626464844e-01 2.102632969617843628e-01 -1.819250732660293579e-01
1.580000000000000000e+03 5.904838562011718750e+00 1.982531189918518066e+00 3.956773579120635986e-01 3.923406004905700684e-01 2.364053875207901001e-01 -5.117999017238616943e-02
1.581000000000000000e+03 5.526561260223388672e+00 1.969646096229553223e+00 1.941944509744644165e-01 2.595677375793457031e-01 1.361286640167236328e-01 1.341973394155502319e-01
1.582000000000000000e+03 5.101327419281005859e+00 1.668179750442504883e+00 -1.970660388469696045e-01 1.248767226934432983e-01 -2.165679819881916046e-02 3.332735598087310791e-01
1.583000000000000000e+03 4.020289421081542969e+00 1.950939655303955078e+00 -1.171329841017723083e-01 3.768764436244964600e-02 -2.383360080420970917e-02 4.717193543910980225e-01
1.584000000000000000e+03 3.496639490127563477e+00 1.656043529510498047e+00 -2.803241908550262451e-01 -2.685192413628101349e-02 -9.215283393859863281e-02 5.119614601135253906e-01
1.585000000000000000e+03 3.595179796218872070e+00 1.861406803131103516e+00 -1.957443356513977051e-01 -1.630871184170246124e-02 -6.361591815948486328e-02 5.088868141174316406e-01
1.586000000000000000e+03 3.737724304199218750e+00 2.220637798309326172e+00 1.445501949638128281e-02 2.742774225771427155e-02 1.256482861936092377e-02 4.874404072761535645e-01
1.587000000000000000e+03 3.283683300018310547e+00 1.688694357872009277e+00 -2.580080628395080566e-01 -3.888364881277084351e-02 -8.906751871109008789e-02 5.104965567588806152e-01
1.588000000000000000e+03 3.200203418731689453e+00 2.073377609252929688e+00 -9.771313518285751343e-02 -5.114454030990600586e-02 -4.465730115771293640e-02 5.206726193428039551e-01
1.589000000000000000e+03 1.696388006210327148e+00 2.897830724716186523e+00 5.100794881582260132e-02 -3.239643573760986328e-01 -8.188692480325698853e-02 4.191260635852813721e-01
1.590000000000000000e+03 1.032855224609375000e+01 1.679782152175903320e+00 5.677651762962341309e-01 1.636261177062988281e+01 5.079113006591796875e+00 -2.024285793304443359e+00
1.591000000000000000e+03 1.045331478118896484e+01 -1.987578630447387695e+00 1.968387603759765625e+00 1.564117908477783203e+01 5.282870292663574219e+00 2.987068891525268555e+00
1.592000000000000000e+03 1.203135395050048828e+01 -1.781330071389675140e-02 9.292150497436523438e+00 1.217662048339843750e+01 6.440631389617919922e+00 1.205730676651000977e+00
1.593000000000000000e+03 1.093716907501220703e+01 1.384142041206359863e+00 2.574465036392211914e+00 1.786218833923339844e+01 6.130995750427246094e+00 1.887646079063415527e+00
1.594000000000000000e+03 1.122561645507812500e+01 1.080159068107604980e+00 4.906301975250244141e+00 1.711139106750488281e+01 6.605308055877685547e+00 3.443794488906860352e+00
1.595000000000000000e+03 1.145365047454833984e+01 1.824576258659362793e+00 2.203647375106811523e+00 1.506620025634765625e+01 5.180954456329345703e+00 2.068804979324340820e+00
1.596000000000000000e+03 1.182802104949951172e+01 -7.896082401275634766e-01 8.256484031677246094e+00 1.322727012634277344e+01 6.445126056671142578e+00 -8.854728341102600098e-01
1.597000000000000000e+03 1.506808876991271973e+00 2.327211856842041016e+00 -2.204495482146739960e-02 -2.936456501483917236e-01 -9.470718353986740112e-02 3.998881578445434570e-01
1.598000000000000000e+03 5.987849044799804688e+01 -7.794808387756347656e+00 -1.692187935113906860e-01 3.398654758930206299e-01 5.119400843977928162e-02 -1.221676394343376160e-01
1.599000000000000000e+03 1.507788300514221191e+00 -2.709514141082763672e+00 7.999338209629058838e-02 -7.615210488438606262e-03 2.171345241367816925e-02 -1.198462694883346558e-01
1.600000000000000000e+03 2.143807220458984375e+01 -1.183789730072021484e+01 -2.663809776306152344e+00 9.367341399192810059e-01 -5.181226730346679688e-01 -7.997516989707946777e-01
1.601000000000000000e+03 2.098876571655273438e+01 -1.094921779632568359e+01 -2.028188943862915039e+00 6.742193698883056641e-01 -4.061908721923828125e-01 -9.215174317359924316e-01
1.602000000000000000e+03 1.991845321655273438e+01 -1.169751453399658203e+01 -3.641242265701293945e+00 9.487708210945129395e-01 -8.077414631843566895e-01 -6.603750586509704590e-01
1.603000000000000000e+03 2.406544685363769531e+01 -1.583940505981445312e+00 2.865038871765136719e+00 1.943277597427368164e+00 1.442494988441467285e+00 -2.274739027023315430e+00
1.604000000000000000e+03 2.170627212524414062e+01 1.733926653861999512e+00 1.606148362159729004e+00 2.048040151596069336e+00 1.096256494522094727e+00 -1.618977069854736328e+00
1.605000000000000000e+03 2.500743865966796875e+01 -1.073562717437744141e+01 -4.713854491710662842e-01 1.064317822456359863e+00 1.778797060251235962e-01 -1.766796708106994629e+00
1.606000000000000000e+03 3.354715728759765625e+01 -1.249132633209228516e+01 1.802057266235351562e+00 3.222503662109375000e+00 1.507368326187133789e+00 -2.512513160705566406e+00
1.607000000000000000e+03 6.528072357177734375e+01 -2.726483726501464844e+01 -4.302184879779815674e-01 3.439339399337768555e+00 9.027363061904907227e-01 1.111147165298461914e+00
1.608000000000000000e+03 3.179349899291992188e+01 2.383275222778320312e+01 -7.095583081245422363e-01 8.244738578796386719e-01 3.447466343641281128e-02 -5.938450694084167480e-01
1.609000000000000000e+03 6.276823425292968750e+01 -9.057799339294433594e+00 1.222502142190933228e-01 1.075694084167480469e+00 3.593832850456237793e-01 -7.449299693107604980e-01
1.610000000000000000e+03 2.039105224609375000e+01 -1.010626506805419922e+01 -1.826325058937072754e+00 9.562733769416809082e-01 -2.610155045986175537e-01 -1.255207538604736328e+00
1.611000000000000000e+03 2.549324226379394531e+01 -5.569747924804687500e+00 1.899930238723754883e+00 1.960000634193420410e+00 1.157979249954223633e+00 -2.328177928924560547e+00
1.612000000000000000e+03 3.902227401733398438e+01 -6.334550380706787109e+00 -1.784627318382263184e+00 4.604486942291259766e+00 8.459578752517700195e-01 1.683215379714965820e+00
1.613000000000000000e+03 6.160371398925781250e+01 2.084036350250244141e+00 4.328959584236145020e-01 1.156872749328613281e+00 4.769306182861328125e-01 4.616977274417877197e-01
1.614000000000000000e+03 6.267394256591796875e+01 3.008074045181274414e+00 3.095138370990753174e-01 1.715943932533264160e+00 6.076373457908630371e-01 6.282677650451660156e-01
1.615000000000000000e+03 6.478730773925781250e+01 4.812500000000000000e+00 8.847559988498687744e-02 3.263242721557617188e+00 1.005515575408935547e+00 1.095932483673095703e+00
1.616000000000000000e+03 6.295935821533203125e+01 4.874658584594726562e+00 2.808668613433837891e-01 1.580033063888549805e+00 5.582699775695800781e-01 7.588828206062316895e-01
1.617000000000000000e+03 1.780241012573242188e+01 -1.060009670257568359e+01 -3.330703020095825195e+00 -1.633892580866813660e-02 -1.004112601280212402e+00 -6.913716793060302734e-01
1.618000000000000000e+03 1.668277549743652344e+01 -1.104357051849365234e+01 -3.525318145751953125e+00 -9.072908759117126465e-01 -1.329782724380493164e+00 3.986321985721588135e-01
1.619000000000000000e+03 6.684171295166015625e+01 6.575512409210205078e+00 -1.348505020141601562e-01 5.612779140472412109e+00 1.643378615379333496e+00 1.312811493873596191e+00
1.620000000000000000e+03 4.359175872802734375e+01 3.654150485992431641e+00 1.150402665138244629e+00 1.511387062072753906e+01 4.879281997680664062e+00 1.389793276786804199e+00
1.621000000000000000e+03 1.458891773223876953e+01 -2.916193199157714844e+01 -9.767953157424926758e-01 3.253923416137695312e+00 6.831384301185607910e-01 -6.681842803955078125e-01
1.622000000000000000e+03 4.547830581665039062e+00 -3.008620643615722656e+01 -3.822322487831115723e-01 5.742709636688232422e+00 1.608143210411071777e+00 9.134863018989562988e-01
1.623000000000000000e+03 3.345101118087768555e+00 -2.902113723754882812e+01 -2.347764670848846436e-01 5.589485645294189453e+00 1.606412768363952637e+00 9.876152276992797852e-01
1.624000000000000000e+03 4.834009170532226562e+00 -4.058687210083007812e+01 -7.058328390121459961e-02 6.007971286773681641e+00 1.781216382980346680e+00 1.685006618499755859e-01
1.625000000000000000e+03 2.596228122711181641e+00 -3.724168395996093750e+01 -1.127266660332679749e-01 6.580375194549560547e+00 1.940294504165649414e+00 1.253143250942230225e-01
1.626000000000000000e+03 4.237613201141357422e+00 -3.570823669433593750e+01 -2.426080703735351562e-01 6.004858493804931641e+00 1.728675127029418945e+00 3.456920683383941650e-01
1.627000000000000000e+03 1.349784493446350098e+00 -7.524843692779541016e+00 2.079037250950932503e-03 7.648591399192810059e-01 2.300814539194107056e-01 3.213707506656646729e-01
1.628000000000000000e+03 1.687086701393127441e+00 -1.568194580078125000e+01 4.845837876200675964e-02 1.735225439071655273e+00 5.351051688194274902e-01 -3.104973211884498596e-02
1.629000000000000000e+03 3.270826339721679688e+00 -2.498577117919921875e+01 -6.176013499498367310e-02 4.793364048004150391e+00 1.419481158256530762e+00 1.340175151824951172e+00
1.630000000000000000e+03 3.398917913436889648e+00 -2.770087432861328125e+01 -2.219724208116531372e-01 5.346526145935058594e+00 1.537366151809692383e+00 1.146122932434082031e+00
1.631000000000000000e+03 3.084355115890502930e+00 -2.089024925231933594e+01 3.310669660568237305e-01 3.671669244766235352e+00 1.200820922851562500e+00 9.743117690086364746e-01
1.632000000000000000e+03 2.764936923980712891e+00 -1.038254165649414062e+01 -2.507027387619018555e-01 2.443454980850219727e+00 6.578257083892822266e-01 3.225405514240264893e-01
1.633000000000000000e+03 3.153065204620361328e+00 -9.290943145751953125e+00 -2.961575388908386230e-01 2.627524614334106445e+00 6.994100809097290039e-01 5.213825106620788574e-01
1.634000000000000000e+03 2.793968439102172852e+00 -1.556187057495117188e+01 1.708032488822937012e-01 2.766957521438598633e+00 8.813282251358032227e-01 2.632128819823265076e-02
1.635000000000000000e+03 3.195128202438354492e+00 -2.360245513916015625e+01 1.166084632277488708e-01 4.393370628356933594e+00 1.352993726730346680e+00 1.289540648460388184e+00
1.636000000000000000e+03 3.378112077713012695e+00 -3.032398414611816406e+01 -2.680560946464538574e-01 5.762367248535156250e+00 1.648293375968933105e+00 8.063313961029052734e-01
1.637000000000000000e+03 2.175864458084106445e+00 -3.192471122741699219e+01 -1.162241473793983459e-01 6.070113182067871094e+00 1.786166787147521973e+00 4.658088088035583496e-01
1.638000000000000000e+03 3.859320878982543945e+00 -3.296066284179687500e+01 -2.596120536327362061e-01 5.929722309112548828e+00 1.701032996177673340e+00 5.442894101142883301e-01
1.639000000000000000e+03 1.968353629112243652e+00 -2.516711425781250000e+01 -4.976245108991861343e-03 4.229157447814941406e+00 1.267254352569580078e+00 9.213647842407226562e-01
1.640000000000000000e+03 3.368846654891967773e+00 -2.635397338867187500e+01 -1.445847898721694946e-01 5.113841056823730469e+00 1.490776896476745605e+00 1.243770599365234375e+00
1.641000000000000000e+03 7.385226249694824219e+00 -1.747878265380859375e+01 1.475331783294677734e+00 7.125874519348144531e+00 2.580361843109130859e+00 4.322303235530853271e-01
1.642000000000000000e+03 1.625046968460083008e+00 -1.302003860473632812e+01 -5.131157115101814270e-02 1.643918752670288086e+00 4.777821302413940430e-01 -7.705631852149963379e-02
1.643000000000000000e+03 3.788128376007080078e+00 -1.064376258850097656e+01 -4.262304008007049561e-01 3.498258590698242188e+00 9.216084480285644531e-01 3.645310699939727783e-01
1.644000000000000000e+03 4.121023178100585938e+00 -3.432918167114257812e+01 -2.521472871303558350e-01 5.948488712310791016e+00 1.708902359008789062e+00 4.216072559356689453e-01
1.645000000000000000e+03 3.856820678710937500e+01 -2.151463127136230469e+01 2.151800394058227539e+00 9.752590179443359375e+00 3.571317195892333984e+00 -3.326519727706909180e-01
1.646000000000000000e+03 4.379953002929687500e+01 -1.758660507202148438e+01 1.710897207260131836e+00 1.017458915710449219e+01 3.565645933151245117e+00 7.350338101387023926e-01
1.647000000000000000e+03 4.337146377563476562e+01 -1.851892471313476562e+01 1.946270585060119629e+00 1.020113277435302734e+01 3.644220829010009766e+00 3.426581621170043945e-01
1.648000000000000000e+03 1.360370254516601562e+01 -2.799301147460937500e+01 -8.806017637252807617e-01 4.006265163421630859e+00 9.376990199089050293e-01 -8.004966378211975098e-01
1.649000000000000000e+03 6.398844528198242188e+01 -1.016347217559814453e+01 2.217857539653778076e-01 1.530954718589782715e+00 5.258221626281738281e-01 -1.222823381423950195e+00
1.650000000000000000e+03 2.107370185852050781e+01 -3.508308410644531250e+01 -2.956113219261169434e-01 4.684607982635498047e-01 5.185483768582344055e-02 -1.790048182010650635e-01
1.651000000000000000e+03 2.220183753967285156e+01 -3.205476379394531250e+01 -1.378373146057128906e+00 6.866320222616195679e-02 -3.929129838943481445e-01 9.968828409910202026e-02
1.652000000000000000e+03 4.714179611206054688e+01 -2.609836196899414062e+01 1.580997586250305176e+00 7.585058689117431641e+00 2.749816894531250000e+00 -2.787643194198608398e+00
1.653000000000000000e+03 4.734435272216796875e+01 -2.865626144409179688e+01 2.033869177103042603e-01 6.107206821441650391e+00 1.893178105354309082e+00 -2.188292264938354492e+00
1.654000000000000000e+03 6.732785797119140625e+01 -2.768902778625488281e+01 -8.282462358474731445e-01 5.754244327545166016e+00 1.477799415588378906e+00 9.012883305549621582e-01
1.655000000000000000e+03 7.179361724853515625e+01 -2.375942611694335938e+01 8.973335474729537964e-02 8.986939430236816406e+00 2.723001718521118164e+00 -8.682385683059692383e-01
1.656000000000000000e+03 2.249596023559570312e+01 6.546959280967712402e-01 2.114150762557983398e+00 1.802714705467224121e+00 1.175059676170349121e+00 -1.875662684440612793e+00
1.657000000000000000e+03 3.885673522949218750e+01 1.561068058013916016e+01 5.205077528953552246e-01 2.861616611480712891e+00 1.014637351036071777e+00 -1.368806719779968262e+00
1.658000000000000000e+03 3.857092666625976562e+01 1.787786865234375000e+01 -9.893309324979782104e-03 2.911306619644165039e+00 8.704239726066589355e-01 -1.194835662841796875e+00
1.659000000000000000e+03 2.204199790954589844e+01 2.515954017639160156e+01 -3.642439246177673340e-01 2.572291851043701172e+00 6.624144315719604492e-01 1.892823100090026855e+00
1.660000000000000000e+03 1.639140129089355469e+01 1.352922153472900391e+01 6.067945957183837891e-01 1.081809520721435547e+01 3.427466869354248047e+00 2.699647843837738037e-01
1.661000000000000000e+03 7.571584320068359375e+01 -1.906043815612792969e+01 7.772396206855773926e-01 7.271143436431884766e+00 2.414515018463134766e+00 -2.345241606235504150e-01
1.662000000000000000e+03 4.908490753173828125e+01 -2.930107879638671875e+01 2.342004925012588501e-01 4.494414329528808594e+00 1.418584465980529785e+00 -2.171218633651733398e+00
1.663000000000000000e+03 1.656811714172363281e+01 1.225570678710937500e+01 5.714737176895141602e-01 1.073926925659179688e+01 3.393223047256469727e+00 1.621728837490081787e-01
1.664000000000000000e+03 1.791476631164550781e+01 9.725141525268554688e+00 2.758847177028656006e-01 1.021986770629882812e+01 3.148725748062133789e+00 -4.375528991222381592e-01
1.665000000000000000e+03 7.548995971679687500e+01 -3.171291160583496094e+01 -2.880305051803588867e-01 7.806953430175781250e+00 2.255676746368408203e+00 -3.554947972297668457e-01
1.666000000000000000e+03 7.750810241699218750e+01 -3.485171890258789062e+01 -6.950027495622634888e-02 8.343060493469238281e+00 2.482067823410034180e+00 -9.723290801048278809e-02
1.667000000000000000e+03 7.558470153808593750e+01 -2.166838264465332031e+01 4.600428044795989990e-01 7.475459575653076172e+00 2.380650758743286133e+00 -8.614686727523803711e-01
1.668000000000000000e+03 7.788376617431640625e+01 -2.779844284057617188e+01 -7.090320438146591187e-02 7.777989864349365234e+00 2.312125921249389648e+00 -5.934530496597290039e-01
1.669000000000000000e+03 7.734496307373046875e+01 -3.636217498779296875e+01 -8.692982792854309082e-02 8.326049804687500000e+00 2.471735954284667969e+00 -7.367032766342163086e-02
1.670000000000000000e+03 7.547628784179687500e+01 1.950642776489257812e+01 3.075032234191894531e-01 7.910060405731201172e+00 2.465269088745117188e+00 9.371181130409240723e-01
1.671000000000000000e+03 7.762869262695312500e+01 3.572285461425781250e+01 -7.943694479763507843e-03 8.405325889587402344e+00 2.519214630126953125e+00 -1.116640120744705200e-01
1.672000000000000000e+03 7.639246368408203125e+01 3.413883209228515625e+01 -5.175605043768882751e-02 7.982521057128906250e+00 2.379229545593261719e+00 -1.325606554746627808e-01
1.673000000000000000e+03 7.667873382568359375e+01 -2.328225708007812500e+01 1.177246123552322388e-01 7.224992752075195312e+00 2.202815294265747070e+00 -9.114380478858947754e-01
1.674000000000000000e+03 7.671398162841796875e+01 -3.061608123779296875e+01 -2.101003378629684448e-01 8.014741897583007812e+00 2.341392517089843750e+00 -4.543830454349517822e-01
1.675000000000000000e+03 7.552068328857421875e+01 -3.632257080078125000e+01 -9.462779015302658081e-02 7.694385528564453125e+00 2.279927253723144531e+00 -4.941346123814582825e-02
1.676000000000000000e+03 7.662521362304687500e+01 -2.928794288635253906e+01 -2.212160229682922363e-01 7.939867496490478516e+00 2.315595388412475586e+00 -6.014453768730163574e-01
1.677000000000000000e+03 7.506011199951171875e+01 -2.604135704040527344e+01 -2.397263050079345703e-01 7.893042564392089844e+00 2.295994997024536133e+00 -1.001841545104980469e+00
1.678000000000000000e+03 7.640451812744140625e+01 -2.627872657775878906e+01 -1.313694566488265991e-01 7.686631679534912109e+00 2.266578674316406250e+00 -9.247211217880249023e-01
1.679000000000000000e+03 7.654048919677734375e+01 -2.473110198974609375e+01 -7.058911025524139404e-03 7.458754539489746094e+00 2.235508680343627930e+00 -9.463446736335754395e-01
1.680000000000000000e+03 7.628439331054687500e+01 -3.323777770996093750e+01 -1.628819257020950317e-01 7.956383705139160156e+00 2.338050365447998047e+00 -2.159599512815475464e-01
1.681000000000000000e+03 7.560313415527343750e+01 -3.069502449035644531e+01 -3.262974619865417480e-01 7.873905181884765625e+00 2.264282226562500000e+00 -4.705457687377929688e-01
1.682000000000000000e+03 7.659862518310546875e+01 -3.191050338745117188e+01 -1.941029131412506104e-01 8.043418884277343750e+00 2.354794740676879883e+00 -3.283403515815734863e-01
1.683000000000000000e+03 7.580588531494140625e+01 -4.037981033325195312e+01 1.109688263386487961e-02 7.974439144134521484e+00 2.395660877227783203e+00 -1.285095661878585815e-01
1.684000000000000000e+03 7.812493896484375000e+01 2.232968521118164062e+01 -2.473042160272598267e-02 7.699497222900390625e+00 2.302429914474487305e+00 6.107723712921142578e-01
1.685000000000000000e+03 7.683316802978515625e+01 2.101920890808105469e+01 4.646132513880729675e-02 7.663571357727050781e+00 2.313009738922119141e+00 8.705036640167236328e-01
1.686000000000000000e+03 7.598480224609375000e+01 2.228443717956542969e+01 -1.153334751725196838e-01 7.961952686309814453e+00 2.353985786437988281e+00 9.530361890792846680e-01
1.687000000000000000e+03 7.641125488281250000e+01 1.434741592407226562e+01 4.491208791732788086e-01 7.280456542968750000e+00 2.318873167037963867e+00 -1.428784579038619995e-01
1.688000000000000000e+03 7.788632965087890625e+01 1.274308013916015625e+01 1.849112063646316528e-01 6.761839866638183594e+00 2.084025382995605469e+00 -2.810204029083251953e-01
1.689000000000000000e+03 7.523487091064453125e+01 8.581504821777343750e+00 -2.106728032231330872e-02 7.795825004577636719e+00 2.332427263259887695e+00 -7.904935479164123535e-01
1.690000000000000000e+03 7.662247467041015625e+01 2.648519515991210938e+01 -2.250638008117675781e-01 8.200016021728515625e+00 2.392485618591308594e+00 4.369985163211822510e-01
1.691000000000000000e+03 7.797925567626953125e+01 2.649052429199218750e+01 -1.298976093530654907e-01 8.407336235046386719e+00 2.483231544494628906e+00 3.301830291748046875e-01
1.692000000000000000e+03 7.641040802001953125e+01 1.284146308898925781e+01 3.078588247299194336e-01 7.389280319213867188e+00 2.309141874313354492e+00 -3.815611600875854492e-01
1.693000000000000000e+03 7.814958953857421875e+01 -2.068718528747558594e+01 1.679454743862152100e-01 6.152494430541992188e+00 1.896131873130798340e+00 -3.787286281585693359e-01
1.694000000000000000e+03 7.682624816894531250e+01 -2.189116859436035156e+01 2.655983567237854004e-01 6.978762626647949219e+00 2.173308372497558594e+00 -7.397719025611877441e-01
1.695000000000000000e+03 7.810430908203125000e+01 3.063489723205566406e+01 -3.122507035732269287e-02 8.651106834411621094e+00 2.585964441299438477e+00 2.451583556830883026e-02
1.696000000000000000e+03 7.660019683837890625e+01 2.941372108459472656e+01 -1.630776077508926392e-01 8.207775115966796875e+00 2.413409233093261719e+00 1.029379740357398987e-01
1.697000000000000000e+03 7.663941192626953125e+01 8.517121315002441406e+00 2.145304344594478607e-02 7.574907779693603516e+00 2.278908252716064453e+00 -6.564434170722961426e-01
1.698000000000000000e+03 7.672390747070312500e+01 2.889101028442382812e+00 -1.600304096937179565e-01 7.974806785583496094e+00 2.344433069229125977e+00 -3.534131944179534912e-01
1.699000000000000000e+03 7.280731964111328125e+01 -1.661196517944335938e+01 1.388561487197875977e+00 8.837032318115234375e+00 3.067677974700927734e+00 4.210307896137237549e-01
1.700000000000000000e+03 7.691643524169921875e+01 -2.052796936035156250e+01 3.622817695140838623e-01 6.787815093994140625e+00 2.145029067993164062e+00 -5.301065444946289062e-01
1.701000000000000000e+03 7.575949859619140625e+01 -8.180403709411621094e+00 -2.813439369201660156e-01 7.802276134490966797e+00 2.256279706954956055e+00 7.466254830360412598e-01
1.702000000000000000e+03 7.689022827148437500e+01 -1.242658233642578125e+01 4.424580559134483337e-02 7.219203472137451172e+00 2.179034709930419922e+00 8.650610446929931641e-01
1.703000000000000000e+03 7.530919647216796875e+01 -1.379802703857421875e+00 -3.265406191349029541e-01 7.742008686065673828e+00 2.224640369415283203e+00 -2.272861776873469353e-03
1.704000000000000000e+03 7.690575408935546875e+01 -5.487196922302246094e+00 -1.953356564044952393e-01 8.010963439941406250e+00 2.344688415527343750e+00 3.818507790565490723e-01
1.705000000000000000e+03 7.662285614013671875e+01 2.793540191650390625e+01 -2.532369196414947510e-01 8.241880416870117188e+00 2.396592855453491211e+00 2.511592209339141846e-01
1.706000000000000000e+03 7.677258300781250000e+01 1.968373107910156250e+01 1.854561418294906616e-01 7.508906841278076172e+00 2.308308839797973633e+00 7.328368425369262695e-01
1.707000000000000000e+03 7.800323486328125000e+01 7.063855648040771484e+00 -1.485751848667860031e-02 7.616057872772216797e+00 2.280360221862792969e+00 -4.699256122112274170e-01
1.708000000000000000e+03 7.671644592285156250e+01 5.696592330932617188e+00 -1.130039542913436890e-01 7.819072723388671875e+00 2.311820745468139648e+00 -5.697990059852600098e-01
1.709000000000000000e+03 7.802492523193359375e+01 -1.330018401145935059e+00 -8.226773887872695923e-02 8.413495063781738281e+00 2.499368190765380859e+00 -4.804069176316261292e-03
1.710000000000000000e+03 7.677233886718750000e+01 -2.731772422790527344e+00 -1.983168721199035645e-01 8.074890136718750000e+00 2.362972021102905273e+00 1.275681555271148682e-01
1.711000000000000000e+03 7.693273162841796875e+01 -9.595915794372558594e+00 -1.288022994995117188e-01 7.631243705749511719e+00 2.250732421875000000e+00 7.857684493064880371e-01
1.712000000000000000e+03 7.703820037841796875e+01 -1.651323509216308594e+01 3.812790811061859131e-01 6.651643276214599609e+00 2.109876632690429688e+00 3.700290024280548096e-01
1.713000000000000000e+03 7.605628204345703125e+01 3.534052276611328125e+01 -4.274199157953262329e-02 7.861416816711425781e+00 2.345602512359619141e+00 -1.319696605205535889e-01
1.714000000000000000e+03 7.404299926757812500e+01 3.656296920776367188e+01 1.500930823385715485e-02 7.137367248535156250e+00 2.145713090896606445e+00 -2.221093177795410156e-01
1.715000000000000000e+03 7.695182037353515625e+01 3.182019615173339844e+01 -3.177557140588760376e-02 8.281504631042480469e+00 2.474918842315673828e+00 -4.332292824983596802e-02
1.716000000000000000e+03 7.687427520751953125e+01 1.834189414978027344e+01 2.635662257671356201e-01 7.338876724243164062e+00 2.280732870101928711e+00 6.303635239601135254e-01
1.717000000000000000e+03 7.798795318603515625e+01 8.463382720947265625e+00 -3.002491965889930725e-02 7.377927303314208984e+00 2.204370737075805664e+00 -5.270192623138427734e-01
1.718000000000000000e+03 7.704206085205078125e+01 -1.519261837005615234e+01 2.607410252094268799e-01 6.824740886688232422e+00 2.125644445419311523e+00 6.329022049903869629e-01
1.719000000000000000e+03 7.694281768798828125e+01 -8.213178634643554688e+00 -1.729662567377090454e-01 7.790097713470458984e+00 2.285139322280883789e+00 6.482668519020080566e-01
1.720000000000000000e+03 7.803033447265625000e+01 2.848060846328735352e+00 -7.644332200288772583e-02 8.203971862792968750e+00 2.438258409500122070e+00 -2.739673852920532227e-01
1.721000000000000000e+03 7.674254608154296875e+01 4.285034179687500000e+00 -1.697850376367568970e-01 7.904940128326416016e+00 2.320546627044677734e+00 -4.868873059749603271e-01
1.722000000000000000e+03 7.668247985839843750e+01 -1.321413040161132812e+00 -1.780610978603363037e-01 8.068639755249023438e+00 2.367173671722412109e+00 -1.466650050133466721e-02
1.723000000000000000e+03 7.813146972656250000e+01 -5.500373840332031250e+00 -7.190054655075073242e-02 8.214198112487792969e+00 2.442689180374145508e+00 2.880945205688476562e-01
1.724000000000000000e+03 7.685066223144531250e+01 -4.120455265045166016e+00 -1.744126975536346436e-01 8.051991462707519531e+00 2.363273620605468750e+00 2.551797628402709961e-01
1.725000000000000000e+03 7.814531707763671875e+01 -1.245832538604736328e+01 1.665780134499073029e-02 6.838581085205078125e+00 2.056571722030639648e+00 5.994336009025573730e-01
1.726000000000000000e+03 7.690686035156250000e+01 -1.100348663330078125e+01 -4.718649387359619141e-02 7.440880775451660156e+00 2.218108177185058594e+00 8.475364446640014648e-01
1.727000000000000000e+03 7.694937896728515625e+01 -1.917808914184570312e+01 4.386048913002014160e-01 6.649553775787353516e+00 2.126447677612304688e+00 -2.041376680135726929e-01
1.728000000000000000e+03 7.448686218261718750e+01 -1.435815143585205078e+01 5.181985497474670410e-01 7.905768871307373047e+00 2.527190208435058594e+00 9.517301321029663086e-01
1.729000000000000000e+03 5.134465408325195312e+01 -7.132436275482177734e+00 -1.057926177978515625e+00 1.152899384498596191e+00 2.849197760224342346e-02 7.554457783699035645e-01
1.730000000000000000e+03 5.541358184814453125e+01 -4.735001564025878906e+00 6.256321072578430176e-01 -2.757431566715240479e-01 1.049666926264762878e-01 -3.122662901878356934e-01
1.731000000000000000e+03 4.813585662841796875e+01 1.790950584411621094e+01 5.996033549308776855e-01 7.624447345733642578e+00 2.467215299606323242e+00 1.228456020355224609e+00
1.732000000000000000e+03 4.805401229858398438e+01 1.665761375427246094e+01 8.127020597457885742e-01 8.402522087097167969e+00 2.764567375183105469e+00 1.612149477005004883e+00
1.733000000000000000e+03 4.807118225097656250e+01 -7.914651870727539062e+00 -1.535083174705505371e+00 6.633858203887939453e+00 1.529632568359375000e+00 1.409672617912292480e+00
1.734000000000000000e+03 1.569712066650390625e+01 -3.046217536926269531e+01 -9.513149857521057129e-01 2.294260501861572266e+00 4.028836786746978760e-01 -6.077274680137634277e-01
1.735000000000000000e+03 2.925446319580078125e+01 -3.389709472656250000e+01 -5.664228796958923340e-01 1.012846946716308594e+00 1.339272260665893555e-01 1.179890990257263184e+00
1.736000000000000000e+03 1.914916610717773438e+01 3.190119743347167969e+00 1.314096450805664062e+00 4.861529350280761719e+00 1.852687835693359375e+00 -7.368568778038024902e-01
1.737000000000000000e+03 2.005050849914550781e+01 2.133837223052978516e+00 1.728919148445129395e+00 3.457822084426879883e+00 1.556022286415100098e+00 -1.369747042655944824e+00
1.738000000000000000e+03 3.804088592529296875e+01 -2.572911453247070312e+01 1.636898159980773926e+00 8.602101325988769531e+00 3.071699857711791992e+00 8.080942630767822266e-01
1.739000000000000000e+03 3.867276763916015625e+01 -2.271014785766601562e+01 1.832260966300964355e+00 9.763394355773925781e+00 3.478696584701538086e+00 2.773421108722686768e-01
1.740000000000000000e+03 6.818763732910156250e+01 -2.886686134338378906e+01 -9.428644180297851562e-01 6.079176902770996094e+00 1.540893673896789551e+00 6.849604845046997070e-01
1.741000000000000000e+03 4.331968307495117188e+01 1.261144828796386719e+01 4.333274662494659424e-01 8.518026351928710938e+00 2.685405969619750977e+00 -3.674583137035369873e-01
1.742000000000000000e+03 4.437081527709960938e+01 9.572180747985839844e+00 1.254409432411193848e+00 1.111814594268798828e+01 3.711766481399536133e+00 3.909396529197692871e-01
1.743000000000000000e+03 4.691818618774414062e+01 8.226118087768554688e+00 9.960049390792846680e-01 1.195392322540283203e+01 3.884978294372558594e+00 1.436087965965270996e+00
1.744000000000000000e+03 5.760675048828125000e+01 2.565660285949707031e+01 -7.190914154052734375e-01 9.225572943687438965e-01 6.103975698351860046e-02 1.259305000305175781e+00
1.745000000000000000e+03 1.140614390373229980e+00 4.152928829193115234e+00 7.462321966886520386e-02 -6.660807132720947266e-01 -1.774372458457946777e-01 2.635606527328491211e-01
1.746000000000000000e+03 2.045901536941528320e+00 2.734569358825683594e+01 -3.748184069991111755e-02 3.638703346252441406e+00 1.080366373062133789e+00 -4.416730403900146484e-01
1.747000000000000000e+03 3.588377952575683594e+00 2.997342300415039062e+01 -1.119814813137054443e-01 4.168106079101562500e+00 1.216837406158447266e+00 -5.327370166778564453e-01
1.748000000000000000e+03 2.011738777160644531e+00 2.593374252319335938e+01 -2.904937043786048889e-02 3.363858222961425781e+00 1.000442624092102051e+00 -4.778865873813629150e-01
1.749000000000000000e+03 3.405620098114013672e+00 2.713536453247070312e+01 -9.831010550260543823e-02 3.824301004409790039e+00 1.117797255516052246e+00 -6.597886085510253906e-01
1.750000000000000000e+03 6.522574901580810547e+00 2.953568649291992188e+01 -3.203818202018737793e-01 4.497495174407958984e+00 1.253134012222290039e+00 -7.442511916160583496e-01
1.751000000000000000e+03 3.733538627624511719e+00 3.146951675415039062e+01 -1.121245697140693665e-01 4.319646358489990234e+00 1.262256622314453125e+00 -4.700500071048736572e-01
1.752000000000000000e+03 3.491311788558959961e+00 2.854014205932617188e+01 -1.038234904408454895e-01 4.010580539703369141e+00 1.172027111053466797e+00 -5.978946685791015625e-01
1.753000000000000000e+03 2.515243291854858398e+00 3.700444793701171875e+01 -4.833418875932693481e-02 4.721360206604003906e+00 1.401907801628112793e+00 -1.267155408859252930e-01
1.754000000000000000e+03 3.637626409530639648e+00 3.409894561767578125e+01 -1.029789522290229797e-01 4.515102863311767578e+00 1.323637127876281738e+00 -3.055410981178283691e-01
1.755000000000000000e+03 3.646098375320434570e+00 3.287492752075195312e+01 -1.240216642618179321e-01 4.432726860046386719e+00 1.292611598968505859e+00 -3.914996683597564697e-01
1.756000000000000000e+03 1.966774940490722656e+00 2.173143005371093750e+01 2.023920184001326561e-03 2.446004867553710938e+00 7.344086170196533203e-01 -5.181188583374023438e-01
1.757000000000000000e+03 3.322576761245727539e+00 2.295837211608886719e+01 -2.023185975849628448e-02 3.158461809158325195e+00 9.414690136909484863e-01 -7.790750861167907715e-01
1.758000000000000000e+03 1.926476001739501953e+00 2.032002258300781250e+01 3.755499841645359993e-03 2.121381282806396484e+00 6.375410556793212891e-01 -5.129294991493225098e-01
1.759000000000000000e+03 3.297479629516601562e+00 2.155541801452636719e+01 7.334235124289989471e-04 2.908717632293701172e+00 8.728353381156921387e-01 -7.915568351745605469e-01
1.760000000000000000e+03 1.453827500343322754e+00 7.718444824218750000e+00 6.826157867908477783e-02 -4.375352859497070312e-01 -1.107821166515350342e-01 -1.364899873733520508e-01
1.761000000000000000e+03 2.627686262130737305e+00 1.189801025390625000e+01 4.211095348000526428e-02 1.016391515731811523e+00 3.175507485866546631e-01 -4.619287252426147461e-01
1.762000000000000000e+03 2.972073793411254883e+00 1.728649520874023438e+01 5.352726206183433533e-02 2.049512147903442383e+00 6.309118270874023438e-01 -6.579232811927795410e-01
1.763000000000000000e+03 1.104790329933166504e+00 5.215169429779052734e+00 6.590246409177780151e-02 -7.906666398048400879e-01 -2.174292504787445068e-01 1.272601783275604248e-01
1.764000000000000000e+03 2.377918958663940430e+00 7.306438922882080078e+00 1.730313301086425781e-01 1.877724677324295044e-01 1.082411408424377441e-01 -1.942935585975646973e-01
1.765000000000000000e+03 1.684882640838623047e+00 1.471887397766113281e+01 1.306844968348741531e-02 8.122959136962890625e-01 2.476093173027038574e-01 -3.626335859298706055e-01
1.766000000000000000e+03 2.876270771026611328e+00 1.591930103302001953e+01 4.554707184433937073e-02 1.777894496917724609e+00 5.470324754714965820e-01 -5.953374505043029785e-01
1.767000000000000000e+03 2.630498886108398438e+00 9.253722190856933594e+00 1.039207056164741516e-01 6.343296766281127930e-01 2.214751243591308594e-01 -3.711810410022735596e-01
1.768000000000000000e+03 2.573675155639648438e+00 1.059040164947509766e+01 3.521030768752098083e-02 7.806189060211181641e-01 2.447487711906433105e-01 -4.228143095970153809e-01
1.769000000000000000e+03 2.713839530944824219e+00 1.322577857971191406e+01 2.780077792704105377e-02 1.261142969131469727e+00 3.866831362247467041e-01 -5.125190615653991699e-01
1.770000000000000000e+03 3.995899200439453125e+00 1.574439907073974609e+01 8.463744819164276123e-02 2.419594764709472656e+00 7.512696385383605957e-01 -7.453779578208923340e-01
1.771000000000000000e+03 2.384502220153808594e+01 -3.365021228790283203e+00 2.867828369140625000e+00 1.698143720626831055e+00 1.369791626930236816e+00 -2.338205337524414062e+00
1.772000000000000000e+03 4.407194900512695312e+01 -2.190085411071777344e+01 2.256024599075317383e+00 1.002480220794677734e+01 3.684248208999633789e+00 -1.067054510116577148e+00
1.773000000000000000e+03 7.390754699707031250e+01 1.764831352233886719e+01 8.891649842262268066e-01 8.273595809936523438e+00 2.748828172683715820e+00 5.433872938156127930e-01
1.774000000000000000e+03 6.971056365966796875e+01 1.665204048156738281e+01 1.045866489410400391e+00 1.296491813659667969e+01 4.203235149383544922e+00 -1.845919899642467499e-02
1.775000000000000000e+03 1.137463569641113281e+01 -2.410085105895996094e+01 -4.094576835632324219e-01 8.126780509948730469e+00 2.315196752548217773e+00 -9.883823990821838379e-02
1.776000000000000000e+03 1.259243202209472656e+01 -2.697741508483886719e+01 -9.598278403282165527e-01 5.496316909790039062e+00 1.360946774482727051e+00 -7.453408241271972656e-01
1.777000000000000000e+03 6.927514648437500000e+01 -1.550981235504150391e+01 1.939746022224426270e+00 1.163580989837646484e+01 4.072667121887207031e+00 -6.888367533683776855e-01
1.778000000000000000e+03 3.506694793701171875e+01 2.077300453186035156e+01 -6.494368910789489746e-01 1.414118885993957520e+00 2.294045835733413696e-01 -7.922653555870056152e-01
1.779000000000000000e+03 3.630646133422851562e+01 1.992217254638671875e+01 -4.347652792930603027e-01 1.859070658683776855e+00 4.272916316986083984e-01 -8.996362090110778809e-01
1.780000000000000000e+03 6.981301879882812500e+01 2.048827362060546875e+01 1.653150320053100586e-01 9.959928512573242188e+00 3.037572860717773438e+00 7.502694129943847656e-01
1.781000000000000000e+03 1.667835235595703125e+01 7.211173057556152344e+00 -2.035447582602500916e-02 8.931221008300781250e+00 2.673259973526000977e+00 5.397982597351074219e-01
1.782000000000000000e+03 2.327189826965332031e+01 -4.506410658359527588e-01 2.494436264038085938e+00 1.741438388824462891e+00 1.270762443542480469e+00 -2.115917205810546875e+00
1.783000000000000000e+03 2.471719741821289062e+01 -4.480037689208984375e+00 2.524696111679077148e+00 1.767864108085632324e+00 1.287768006324768066e+00 -2.273045063018798828e+00
1.784000000000000000e+03 3.536819839477539062e+01 -8.565402030944824219e+00 4.997488856315612793e-02 1.922638297080993652e+00 5.917839407920837402e-01 -8.077080249786376953e-01
1.785000000000000000e+03 3.551049804687500000e+01 -9.993988990783691406e+00 6.245101094245910645e-01 3.156849861145019531e+00 1.134407997131347656e+00 -1.069876909255981445e+00
1.786000000000000000e+03 3.924486923217773438e+01 -3.150308609008789062e+01 -8.893399238586425781e-01 6.987898826599121094e+00 1.829567670822143555e+00 1.929454207420349121e-01
1.787000000000000000e+03 6.843936157226562500e+01 -2.691299247741699219e+01 -9.072579145431518555e-01 6.780131816864013672e+00 1.761862158775329590e+00 7.806180119514465332e-01
1.788000000000000000e+03 4.858198165893554688e+01 1.385330772399902344e+01 9.353686571121215820e-01 1.025186157226562500e+01 3.356169223785400391e+00 2.379165410995483398e+00
1.789000000000000000e+03 4.556392669677734375e+01 8.764641761779785156e+00 1.301341176033020020e+00 1.194801235198974609e+01 3.974806070327758789e+00 9.540089964866638184e-01
1.790000000000000000e+03 6.622389221191406250e+01 -2.866106605529785156e+01 -7.829637527465820312e-01 4.564096450805664062e+00 1.134339928627014160e+00 1.027005910873413086e+00
1.791000000000000000e+03 1.578889560699462891e+01 1.718140029907226562e+01 1.311054706573486328e+00 9.504839897155761719e+00 3.244768142700195312e+00 3.290472924709320068e-01
1.792000000000000000e+03 1.602325820922851562e+01 1.601429748535156250e+01 1.255763649940490723e+00 9.965560913085937500e+00 3.366397380828857422e+00 4.186387956142425537e-01
1.793000000000000000e+03 5.410870742797851562e+01 2.662928771972656250e+01 -8.004575371742248535e-01 2.878911495208740234e+00 6.235362291336059570e-01 1.740342855453491211e+00
1.794000000000000000e+03 5.450363540649414062e+01 -3.353639602661132812e+01 -6.767801474779844284e-03 1.295635223388671875e+00 3.866602480411529541e-01 -1.233987092971801758e+00
1.795000000000000000e+03 5.784620666503906250e+01 -3.356621932983398438e+01 1.392462998628616333e-01 5.621819496154785156e-01 2.104284763336181641e-01 -3.144016563892364502e-01
1.796000000000000000e+03 1.673883438110351562e+01 1.096882343292236328e+01 3.492854833602905273e-01 1.037975502014160156e+01 3.218712091445922852e+00 1.170304492115974426e-01
1.797000000000000000e+03 4.535335922241210938e+01 -1.551134586334228516e+01 1.394814252853393555e+00 1.120112800598144531e+01 3.778782606124877930e+00 1.778223633766174316e+00
1.798000000000000000e+03 6.513703918457031250e+01 2.345297431945800781e+01 -1.157602190971374512e+00 2.087036132812500000e+00 2.788301706314086914e-01 -1.668426990509033203e+00
1.799000000000000000e+03 6.044414520263671875e+01 -3.067429733276367188e+01 -1.053020596504211426e+00 4.736569523811340332e-01 -1.738090962171554565e-01 2.732216417789459229e-01
1.800000000000000000e+03 4.407325363159179688e+01 -1.653463363647460938e+01 1.568006873130798340e+00 1.055808639526367188e+01 3.637827873229980469e+00 1.071129798889160156e+00
1.801000000000000000e+03 4.340263366699218750e+01 1.041667175292968750e+01 7.558910846710205078e-01 1.044614124298095703e+01 3.360609769821166992e+00 -8.502873778343200684e-02
1.802000000000000000e+03 5.974568939208984375e+01 2.083185195922851562e+00 4.682855308055877686e-01 3.497835993766784668e-01 2.454207390546798706e-01 2.487902045249938965e-01
1.803000000000000000e+03 6.050883483886718750e+01 1.115021586418151855e+00 6.336026787757873535e-01 7.449249625205993652e-01 4.135583043098449707e-01 2.694067955017089844e-01
1.804000000000000000e+03 3.674106597900390625e+01 -1.652846717834472656e+01 2.884482383728027344e+00 7.813771724700927734e+00 3.209476232528686523e+00 -1.485828280448913574e+00
1.805000000000000000e+03 1.036196231842041016e+01 -2.335498428344726562e+01 3.645762801170349121e-01 8.186358451843261719e+00 2.565280437469482422e+00 4.525498151779174805e-01
1.806000000000000000e+03 5.922416305541992188e+01 2.556554222106933594e+01 -8.774493932723999023e-01 4.877306818962097168e-01 -1.169156134128570557e-01 7.389695048332214355e-01
1.807000000000000000e+03 5.587308502197265625e+01 2.588067245483398438e+01 -7.049279212951660156e-01 1.873676657676696777e+00 3.506246209144592285e-01 1.691063880920410156e+00
1.808000000000000000e+03 1.621362686157226562e+01 1.478585529327392578e+01 9.870281815528869629e-01 1.061180973052978516e+01 3.479651451110839844e+00 5.605044960975646973e-01
1.809000000000000000e+03 7.122618865966796875e+01 1.187852573394775391e+01 8.660742044448852539e-01 9.341014862060546875e+00 3.062126636505126953e+00 -6.455217301845550537e-02
1.810000000000000000e+03 7.083271789550781250e+01 1.296693038940429688e+01 1.235298871994018555e+00 9.807454109191894531e+00 3.312825918197631836e+00 5.001374706625938416e-02
1.811000000000000000e+03 1.436779594421386719e+01 2.017956924438476562e+01 8.790754675865173340e-01 7.474641323089599609e+00 2.506114959716796875e+00 -5.855318903923034668e-01
1.812000000000000000e+03 1.672444534301757812e+01 1.888047027587890625e+01 1.302999496459960938e+00 9.602991104125976562e+00 3.271797180175781250e+00 3.757123351097106934e-01
1.813000000000000000e+03 4.077077865600585938e+01 1.348907947540283203e+01 7.433721423149108887e-01 5.290719509124755859e+00 1.810227394104003906e+00 -1.818414807319641113e+00
1.814000000000000000e+03 4.704367065429687500e+01 1.682329940795898438e+01 5.242526531219482422e-01 7.929990291595458984e+00 2.536273002624511719e+00 9.799607992172241211e-01
1.815000000000000000e+03 4.419673538208007812e+01 6.251450061798095703e+00 1.427902340888977051e+00 1.337439155578613281e+01 4.440688133239746094e+00 1.423177421092987061e-01
1.816000000000000000e+03 6.643835449218750000e+01 2.331447601318359375e+01 -1.730176210403442383e+00 4.628249645233154297e+00 8.694220781326293945e-01 -2.093163251876831055e+00
1.817000000000000000e+03 6.633196258544921875e+01 2.499234580993652344e+01 -1.181834697723388672e+00 4.039549827575683594e+00 8.573145866394042969e-01 -1.544630885124206543e+00
1.818000000000000000e+03 4.779999542236328125e+01 -3.125750923156738281e+01 -4.417753219604492188e-01 5.246181964874267578e+00 1.441321969032287598e+00 -1.806279063224792480e+00
1.819000000000000000e+03 4.221413040161132812e+01 -2.850046730041503906e+01 1.709041297435760498e-01 7.594353675842285156e+00 2.329577445983886719e+00 -5.080302357673645020e-01
1.820000000000000000e+03 4.331677627563476562e+01 2.391579866409301758e+00 1.607979774475097656e+00 1.510843753814697266e+01 5.014925003051757812e+00 1.827449560165405273e+00
1.821000000000000000e+03 4.711260223388671875e+01 3.702303409576416016e+00 1.734590172767639160e+00 1.131711387634277344e+01 3.915511369705200195e+00 -4.010685086250305176e-01
1.822000000000000000e+03 4.402011489868164062e+01 9.339649081230163574e-01 1.906138777732849121e+00 1.274453926086425781e+01 4.395203113555908203e+00 1.524817228317260742e+00
1.823000000000000000e+03 3.139179992675781250e+01 -3.113824081420898438e+01 -4.586898982524871826e-01 2.002153396606445312e+00 4.630390703678131104e-01 1.449319720268249512e+00
1.824000000000000000e+03 3.912126541137695312e+01 -2.701708602905273438e+01 9.233517646789550781e-01 8.201815605163574219e+00 2.737550258636474609e+00 2.509813010692596436e-01
1.825000000000000000e+03 3.707389450073242188e+01 -2.663119888305664062e+01 1.267610907554626465e+00 8.286135673522949219e+00 2.866123914718627930e+00 9.629005193710327148e-01
1.826000000000000000e+03 1.070189189910888672e+01 -1.788819694519042969e+01 1.795250892639160156e+00 1.390945053100585938e+01 4.711410522460937500e+00 1.132384657859802246e+00
1.827000000000000000e+03 9.274917602539062500e+00 -1.865503311157226562e+01 2.094018697738647461e+00 9.951578140258789062e+00 3.613678932189941406e+00 9.236420392990112305e-01
1.828000000000000000e+03 1.688479995727539062e+01 9.670831680297851562e+00 2.248040139675140381e-01 9.973384857177734375e+00 3.059456825256347656e+00 1.913010776042938232e-01
1.829000000000000000e+03 4.755562210083007812e+01 1.414807415008544922e+01 8.279023766517639160e-01 9.635367393493652344e+00 3.138980865478515625e+00 1.866063714027404785e+00
1.830000000000000000e+03 3.292018127441406250e+01 2.331682395935058594e+01 -7.219330072402954102e-01 1.152780532836914062e+00 1.292542666196823120e-01 -7.050041556358337402e-01
1.831000000000000000e+03 2.986314964294433594e+01 2.332689285278320312e+01 -9.858855009078979492e-01 2.988500893115997314e-01 -2.061106115579605103e-01 -2.664355635643005371e-01
1.832000000000000000e+03 2.833432197570800781e+01 2.394486618041992188e+01 -8.283826112747192383e-01 2.918436527252197266e-01 -1.609617024660110474e-01 2.867586724460124969e-02
1.833000000000000000e+03 6.224636840820312500e+01 2.540764045715332031e+01 -8.754764199256896973e-01 6.010981202125549316e-01 -8.231348544359207153e-02 -3.583616018295288086e-01
1.834000000000000000e+03 5.393624496459960938e+01 -9.214316606521606445e-01 1.551127910614013672e+00 2.200162224471569061e-02 4.719388782978057861e-01 1.734777390956878662e-01
1.835000000000000000e+03 5.168821334838867188e+01 -1.303457617759704590e+00 1.819909811019897461e+00 1.384824752807617188e+00 9.614203572273254395e-01 -5.735329389572143555e-01
1.836000000000000000e+03 6.988172149658203125e+01 8.760523796081542969e+00 -7.322934269905090332e-02 8.314814567565917969e+00 2.472475528717041016e+00 2.563594579696655273e-01
1.837000000000000000e+03 3.055957984924316406e+01 -6.355041503906250000e+00 3.304574787616729736e-01 1.222421169281005859e+00 4.658635854721069336e-01 -3.063782691955566406e+00
1.838000000000000000e+03 7.024521636962890625e+01 -2.215391540527343750e+01 1.028501629829406738e+00 1.009462451934814453e+01 3.336937904357910156e+00 -2.455813437700271606e-01
1.839000000000000000e+03 1.814692306518554688e+01 3.874794244766235352e+00 1.050881862640380859e+00 6.136886119842529297e+00 2.156330347061157227e+00 -2.053385972976684570e-01
1.840000000000000000e+03 4.693610763549804688e+01 -1.149153709411621094e+01 1.021108031272888184e+00 9.285110473632812500e+00 3.091865539550781250e+00 2.350660800933837891e+00
1.841000000000000000e+03 4.592536544799804688e+01 -1.108239746093750000e+01 2.027166932821273804e-01 9.210643768310546875e+00 2.824008226394653320e+00 1.550500750541687012e+00
1.842000000000000000e+03 4.242610931396484375e+01 1.359851551055908203e+01 2.763816416263580322e-01 7.402244091033935547e+00 2.303587675094604492e+00 -1.020456433296203613e+00
1.843000000000000000e+03 4.435528182983398438e+01 2.032663106918334961e+00 1.730712175369262695e+00 1.307646942138671875e+01 4.442154407501220703e+00 1.330359816551208496e+00
1.844000000000000000e+03 4.618037414550781250e+01 -2.861284065246582031e+01 1.700088083744049072e-01 6.867653369903564453e+00 2.111298561096191406e+00 -1.682509541511535645e+00
1.845000000000000000e+03 4.688909149169921875e+01 -2.775712776184082031e+01 6.204128265380859375e-01 6.860399246215820312e+00 2.244243621826171875e+00 -2.047605991363525391e+00
1.846000000000000000e+03 2.294741439819335938e+01 -3.384048461914062500e+01 -5.970066785812377930e-01 1.932006888091564178e-02 -1.733059883117675781e-01 4.819497093558311462e-02
1.847000000000000000e+03 6.785453033447265625e+01 7.395809650421142578e+00 -2.532202005386352539e-01 6.665620326995849609e+00 1.923720121383666992e+00 8.915838599205017090e-01
1.848000000000000000e+03 4.701919555664062500e+01 2.462911033630371094e+01 -1.111750483512878418e+00 5.266176700592041016e+00 1.246327877044677734e+00 1.800785660743713379e-01
1.849000000000000000e+03 3.961075973510742188e+01 -2.036878204345703125e+01 2.439120531082153320e+00 9.391370773315429688e+00 3.549147367477416992e+00 -3.793175220489501953e-01
1.850000000000000000e+03 4.091074752807617188e+01 -1.748232460021972656e+01 2.471874237060546875e+00 8.842816352844238281e+00 3.394407272338867188e+00 1.789564043283462524e-01
1.851000000000000000e+03 6.469629669189453125e+01 -3.230438232421875000e+01 -4.614125192165374756e-01 3.311355113983154297e+00 8.549827933311462402e-01 8.755097389221191406e-01
1.852000000000000000e+03 5.807017517089843750e+01 -3.381136178970336914e+00 8.222233653068542480e-01 1.470836549997329712e-01 2.907921075820922852e-01 -2.919801175594329834e-01
1.853000000000000000e+03 5.799989318847656250e+01 -7.733879685401916504e-01 1.084620833396911621e+00 7.451763749122619629e-02 3.477415442466735840e-01 -8.311988785862922668e-03
1.854000000000000000e+03 1.849970436096191406e+01 -3.548529434204101562e+01 -2.528776824474334717e-01 1.271176576614379883e+00 3.054896593093872070e-01 -4.596992731094360352e-01
1.855000000000000000e+03 4.277997970581054688e+01 -1.938100051879882812e+01 2.078567028045654297e+00 9.860990524291992188e+00 3.581867218017578125e+00 -6.709663569927215576e-02
1.856000000000000000e+03 4.313572311401367188e+01 -2.102511787414550781e+01 2.260981082916259766e+00 9.916480064392089844e+00 3.653238296508789062e+00 -5.272361636161804199e-01
1.857000000000000000e+03 5.303411102294921875e+01 -3.355414199829101562e+01 -8.976723253726959229e-02 1.971642851829528809e+00 5.645626783370971680e-01 -1.447780609130859375e+00
1.858000000000000000e+03 3.194186973571777344e+01 -3.253792190551757812e+01 -6.606234312057495117e-01 2.739349842071533203e+00 6.236178874969482422e-01 1.601686239242553711e+00
1.859000000000000000e+03 1.088265323638916016e+01 -1.664072990417480469e+01 2.534269809722900391e+00 1.354220581054687500e+01 4.822942733764648438e+00 1.563510060310363770e+00
1.860000000000000000e+03 3.973309040069580078e+00 -1.671418380737304688e+01 4.630408883094787598e-01 3.880478143692016602e+00 1.303055763244628906e+00 2.315974533557891846e-01
1.861000000000000000e+03 4.670909500122070312e+01 -8.456376075744628906e+00 -1.544407725334167480e+00 8.241230010986328125e+00 2.009046554565429688e+00 1.258459210395812988e+00
1.862000000000000000e+03 1.710220527648925781e+01 -3.147668838500976562e+01 -9.499124884605407715e-01 1.545633912086486816e+00 1.787164509296417236e-01 -5.390547513961791992e-01
1.863000000000000000e+03 1.276464939117431641e+01 -1.037120914459228516e+01 -3.747804403305053711e+00 7.170297622680664062e+00 1.026748061180114746e+00 2.479483604431152344e+00
1.864000000000000000e+03 4.698933792114257812e+01 5.130342483520507812e+00 9.834743142127990723e-01 1.258698081970214844e+01 4.071136474609375000e+00 1.095456406474113464e-01
1.865000000000000000e+03 4.680210876464843750e+01 6.632461547851562500e+00 8.955848217010498047e-01 1.232614231109619141e+01 3.966518163681030273e+00 9.933901429176330566e-01
1.866000000000000000e+03 3.070141601562500000e+01 -3.309025192260742188e+01 -6.008566021919250488e-01 1.737007379531860352e+00 3.408452272415161133e-01 1.338970303535461426e+00
1.867000000000000000e+03 4.428430557250976562e+01 -1.180656051635742188e+01 4.045574069023132324e-01 9.130694389343261719e+00 2.860575437545776367e+00 1.246468424797058105e+00
1.868000000000000000e+03 1.887433052062988281e+01 -9.942368507385253906e+00 -2.141507148742675781e+00 3.488000929355621338e-01 -5.378121137619018555e-01 -1.032756924629211426e+00
1.869000000000000000e+03 1.038185977935791016e+01 -2.539810371398925781e+01 -5.904455184936523438e-01 7.103669166564941406e+00 1.953967094421386719e+00 3.426253199577331543e-01
1.870000000000000000e+03 3.397402572631835938e+01 -3.400821685791015625e+01 -9.878790378570556641e-01 3.993301153182983398e+00 9.016266465187072754e-01 1.337888956069946289e+00
1.871000000000000000e+03 4.056573104858398438e+01 1.571278667449951172e+01 2.592266499996185303e-01 4.647660255432128906e+00 1.472066164016723633e+00 -1.396685004234313965e+00
1.872000000000000000e+03 5.933243560791015625e+01 6.224711611866950989e-02 8.714959621429443359e-01 3.336302638053894043e-01 3.615378737449645996e-01 1.247751861810684204e-01
1.873000000000000000e+03 1.110122489929199219e+01 -1.159866428375244141e+01 -3.082752466201782227e+00 9.291857719421386719e+00 1.862731695175170898e+00 1.433531165122985840e+00
1.874000000000000000e+03 1.100550937652587891e+01 -1.539954566955566406e+01 1.533555746078491211e+00 1.181990528106689453e+01 4.006038188934326172e+00 9.938297867774963379e-01
1.875000000000000000e+03 4.341808319091796875e+01 -2.093109369277954102e+00 -2.787099778652191162e-01 1.107570266723632812e+01 3.239097833633422852e+00 1.037412881851196289e+00
1.876000000000000000e+03 4.488331604003906250e+01 5.323876142501831055e-01 1.259753584861755371e+00 1.123167800903320312e+01 3.747429370880126953e+00 6.013382673263549805e-01
1.877000000000000000e+03 5.185692596435546875e+01 2.212244224548339844e+01 -6.973438858985900879e-01 5.255205154418945312e+00 1.367358446121215820e+00 1.583960890769958496e+00
1.878000000000000000e+03 5.000168228149414062e+01 2.269197654724121094e+01 -9.285516738891601562e-01 5.759482383728027344e+00 1.449279308319091797e+00 1.098739981651306152e+00
1.879000000000000000e+03 6.970521545410156250e+01 -1.271579456329345703e+01 -3.301220759749412537e-02 9.228793144226074219e+00 2.758734226226806641e+00 -1.432507187128067017e-01
1.880000000000000000e+03 1.339785099029541016e+01 1.628574752807617188e+01 9.636053442955017090e-01 7.763821601867675781e+00 2.618228197097778320e+00 -2.324565201997756958e-01
1.881000000000000000e+03 2.255661582946777344e+01 -1.175854301452636719e+01 -1.767105937004089355e+00 7.701320648193359375e-01 -2.990921437740325928e-01 -8.400318622589111328e-01
1.882000000000000000e+03 1.243513011932373047e+01 -1.132930660247802734e+01 -3.359506368637084961e+00 7.687902450561523438e+00 1.298518896102905273e+00 2.310178279876708984e+00
1.883000000000000000e+03 4.490576553344726562e+01 1.292778396606445312e+01 4.774179458618164062e-01 9.173164367675781250e+00 2.895174503326416016e+00 6.401439905166625977e-01
1.884000000000000000e+03 6.252752304077148438e+01 -3.134113883972167969e+01 -6.182510852813720703e-01 1.814925551414489746e+00 3.590023517608642578e-01 8.386505842208862305e-01
1.885000000000000000e+03 4.039975357055664062e+01 -6.295969009399414062e+00 -2.032063484191894531e+00 6.646390914916992188e+00 1.384298324584960938e+00 1.973260641098022461e+00
1.886000000000000000e+03 5.400839233398437500e+01 -2.452200412750244141e+00 1.448475480079650879e+00 1.593528240919113159e-01 4.823484718799591064e-01 -1.111256778240203857e-01
1.887000000000000000e+03 5.602620315551757812e+01 -7.275135040283203125e+00 -9.087457656860351562e-01 -1.269690692424774170e-01 -3.107144534587860107e-01 -1.252549737691879272e-01
1.888000000000000000e+03 2.195996475219726562e+01 2.354624366760253906e+01 -5.803911685943603516e-01 2.193829059600830078e+00 4.840313494205474854e-01 2.200235605239868164e+00
1.889000000000000000e+03 2.078744888305664062e+01 2.541538810729980469e+01 -7.250614762306213379e-01 3.861317157745361328e+00 9.408767223358154297e-01 1.784662842750549316e+00
1.890000000000000000e+03 3.603600311279296875e+01 -3.004426574707031250e+01 -3.762931525707244873e-01 6.511073589324951172e+00 1.840434074401855469e+00 1.223705768585205078e+00
1.891000000000000000e+03 3.814059448242187500e+01 -2.795298957824707031e+01 5.491635203361511230e-01 7.870418548583984375e+00 2.525874614715576172e+00 6.001583933830261230e-01
1.892000000000000000e+03 2.771792984008789062e+01 -1.326255416870117188e+01 2.385043650865554810e-01 4.758062958717346191e-01 2.142931967973709106e-01 -1.510532736778259277e+00
1.893000000000000000e+03 2.503156280517578125e+01 -1.190222454071044922e+01 -8.105154633522033691e-01 8.282454013824462891e-01 5.318979732692241669e-03 -1.387091755867004395e+00
1.894000000000000000e+03 7.097810363769531250e+01 -1.845993423461914062e+01 2.131683826446533203e+00 1.059637355804443359e+01 3.818417072296142578e+00 6.917881220579147339e-02
1.895000000000000000e+03 7.076229858398437500e+01 -1.708107376098632812e+01 1.869597434997558594e+00 1.098459815979003906e+01 3.856258630752563477e+00 1.117169111967086792e-01
1.896000000000000000e+03 7.069500732421875000e+01 1.405279731750488281e+01 1.278177857398986816e+00 1.016800880432128906e+01 3.433855772018432617e+00 3.900945186614990234e-01
1.897000000000000000e+03 7.275177001953125000e+01 1.058598709106445312e+01 4.670582711696624756e-01 8.410964012145996094e+00 2.663406848907470703e+00 -4.838709831237792969e-01
1.898000000000000000e+03 6.984797668457031250e+01 1.160924339294433594e+01 9.291302561759948730e-01 9.796463012695312500e+00 3.217678070068359375e+00 4.809981584548950195e-01
1.899000000000000000e+03 4.712116241455078125e+01 2.241258382797241211e+00 1.590094566345214844e+00 1.012298870086669922e+01 3.513924837112426758e+00 -3.180722594261169434e-01
1.900000000000000000e+03 4.861979293823242188e+01 -1.180590629577636719e+00 7.570032477378845215e-01 5.935925960540771484e+00 2.007878780364990234e+00 -1.183483481407165527e+00
1.901000000000000000e+03 9.391057014465332031e+00 -2.459223937988281250e+01 -5.006142854690551758e-01 7.650811672210693359e+00 2.145059347152709961e+00 9.187767505645751953e-01
1.902000000000000000e+03 4.364337539672851562e+01 -2.373381805419921875e+01 2.218897819519042969e+00 9.071872711181640625e+00 3.387231111526489258e+00 -8.523353338241577148e-01
1.903000000000000000e+03 4.440327453613281250e+01 -2.477461242675781250e+01 1.775591135025024414e+00 8.783302307128906250e+00 3.167668104171752930e+00 -1.042869806289672852e+00
1.904000000000000000e+03 2.896749305725097656e+01 -6.163659095764160156e+00 1.077050566673278809e+00 2.562926292419433594e+00 1.091993093490600586e+00 -2.818514108657836914e+00
1.905000000000000000e+03 4.246422576904296875e+01 -2.452744483947753906e+01 1.841804623603820801e+00 8.639311790466308594e+00 3.144334793090820312e+00 -4.117323458194732666e-01
1.906000000000000000e+03 3.813410186767578125e+01 -2.370424842834472656e+01 1.812799453735351562e+00 9.538230895996093750e+00 3.405308961868286133e+00 6.211040019989013672e-01
1.907000000000000000e+03 9.783363342285156250e+00 -1.558355617523193359e+01 1.212464570999145508e+00 1.041045093536376953e+01 3.486874580383300781e+00 1.008693873882293701e-01
1.908000000000000000e+03 7.518584442138671875e+01 2.204434776306152344e+01 -8.149924874305725098e-02 8.065315246582031250e+00 2.395144701004028320e+00 9.139805436134338379e-01
1.909000000000000000e+03 6.737047576904296875e+01 2.682089424133300781e+01 -1.005881667137145996e+00 4.973678588867187500e+00 1.190339088439941406e+00 -1.269400358200073242e+00
1.910000000000000000e+03 6.386693191528320312e+01 -8.847148895263671875e+00 -6.589036434888839722e-02 2.123202085494995117e+00 6.171935200691223145e-01 -1.159150600433349609e+00
1.911000000000000000e+03 3.083931350708007812e+01 -1.215113162994384766e+01 1.432259082794189453e+00 1.638717055320739746e+00 9.212928414344787598e-01 -2.902593851089477539e+00
1.912000000000000000e+03 2.942062759399414062e+01 -9.501514434814453125e+00 5.094255208969116211e-01 1.572648406028747559e+00 6.246221661567687988e-01 -3.219886064529418945e+00
1.913000000000000000e+03 5.141847991943359375e+01 -3.180850601196289062e+01 -4.159989058971405029e-01 2.855024576187133789e+00 7.317076921463012695e-01 -1.766056656837463379e+00
1.914000000000000000e+03 5.107449340820312500e+01 -2.953382492065429688e+00 1.018740773200988770e+00 2.222872495651245117e+00 9.724839925765991211e-01 -2.314066141843795776e-01
1.915000000000000000e+03 4.822361755371093750e+01 -5.943174362182617188e+00 -1.395351648330688477e+00 6.316573619842529297e+00 1.476366639137268066e+00 9.647070169448852539e-01
1.916000000000000000e+03 2.790591812133789062e+01 -1.188321495056152344e+01 3.672089278697967529e-01 9.620930552482604980e-01 3.987905979156494141e-01 -2.260770797729492188e+00
1.917000000000000000e+03 2.630410957336425781e+01 -1.318292427062988281e+01 -5.286716222763061523e-01 4.737408757209777832e-01 -1.647921651601791382e-02 -1.188179373741149902e+00
1.918000000000000000e+03 1.499407577514648438e+01 1.928095245361328125e+01 9.573668241500854492e-01 8.041493415832519531e+00 2.699658155441284180e+00 -3.271366357803344727e-01
1.919000000000000000e+03 1.546183776855468750e+01 1.827592468261718750e+01 1.381698250770568848e+00 8.712811470031738281e+00 3.028352975845336914e+00 4.113701358437538147e-02
1.920000000000000000e+03 2.772473907470703125e+01 -7.514586925506591797e+00 5.747657418251037598e-01 2.239141225814819336e+00 8.441721200942993164e-01 -2.814321994781494141e+00
1.921000000000000000e+03 5.123373413085937500e+01 -4.224399089813232422e+00 4.713400006294250488e-01 2.045176744461059570e+00 7.549550533294677734e-01 2.224106192588806152e-01
1.922000000000000000e+03 5.161819458007812500e+01 2.652529335021972656e+01 -1.071592688560485840e+00 4.093116760253906250e+00 9.064571857452392578e-01 1.397401690483093262e+00
1.923000000000000000e+03 4.984841537475585938e+01 -3.272446155548095703e+00 3.400954306125640869e-01 3.946015119552612305e+00 1.285833120346069336e+00 -1.726211756467819214e-01
1.924000000000000000e+03 3.785083389282226562e+01 -1.681126594543457031e+01 3.071363687515258789e+00 8.525051116943359375e+00 3.478924512863159180e+00 -7.913363575935363770e-01
1.925000000000000000e+03 7.079354095458984375e+01 -2.073567581176757812e+01 1.705844998359680176e+00 1.042269229888916016e+01 3.638561248779296875e+00 -3.610418736934661865e-01
1.926000000000000000e+03 5.704787445068359375e+01 -6.517867565155029297e+00 -1.932304352521896362e-01 -4.207910224795341492e-02 -7.059286534786224365e-02 -2.218958288431167603e-01
1.927000000000000000e+03 4.904565811157226562e+00 4.042464828491210938e+01 -1.018730029463768005e-01 4.684748172760009766e+00 1.374862551689147949e+00 -1.027550175786018372e-01
1.928000000000000000e+03 6.773789882659912109e+00 1.834735870361328125e+00 7.685295939445495605e-01 6.643710732460021973e-01 4.298701882362365723e-01 -5.268314480781555176e-01
1.929000000000000000e+03 7.086927413940429688e+00 1.895493626594543457e+00 1.074429392814636230e+00 9.544124007225036621e-01 6.086525321006774902e-01 -8.841738700866699219e-01
1.930000000000000000e+03 7.350211143493652344e+00 -1.963556766510009766e+00 2.937170267105102539e+00 1.857022881507873535e+00 1.438257932662963867e+00 2.808543682098388672e+00
1.931000000000000000e+03 7.658592224121093750e+00 2.066387414932250977e+00 1.607354164123535156e+00 1.908278346061706543e+00 1.054689764976501465e+00 -1.765364289283752441e+00
1.932000000000000000e+03 6.856052875518798828e+00 -2.268066167831420898e+00 2.384598016738891602e+00 1.782307863235473633e+00 1.250071763992309570e+00 2.430092096328735352e+00
1.933000000000000000e+03 8.131056785583496094e+00 2.013083219528198242e+00 1.971700668334960938e+00 2.845192670822143555e+00 1.445068001747131348e+00 -2.563052177429199219e+00
1.934000000000000000e+03 6.225124835968017578e+00 -2.033486366271972656e+00 1.782809615135192871e+00 9.923140406608581543e-01 8.325370550155639648e-01 1.513243436813354492e+00
1.935000000000000000e+03 5.398049831390380859e+00 -2.131312608718872070e+00 1.203166484832763672e+00 6.743487119674682617e-01 5.632545948028564453e-01 9.199811220169067383e-01
1.936000000000000000e+03 9.481253623962402344e+00 2.019938230514526367e+00 1.300446391105651855e+00 9.904623985290527344e+00 3.361521005630493164e+00 -4.325661182403564453e+00
1.937000000000000000e+03 8.968549728393554688e+00 2.012257575988769531e+00 1.916564702987670898e+00 6.413490772247314453e+00 2.499016761779785156e+00 -4.041321277618408203e+00
1.938000000000000000e+03 8.672880172729492188e+00 -2.071514129638671875e+00 3.633505821228027344e+00 6.006041049957275391e+00 2.891864061355590820e+00 5.456917762756347656e+00
1.939000000000000000e+03 8.382717132568359375e+00 -2.390581846237182617e+00 3.115817546844482422e+00 5.312037467956542969e+00 2.528356552124023438e+00 4.921676158905029297e+00
1.940000000000000000e+03 4.965068817138671875e+00 -2.288817644119262695e+00 1.012573122978210449e+00 6.173716187477111816e-01 4.889834225177764893e-01 7.656423449516296387e-01
1.941000000000000000e+03 4.098833084106445312e+00 -2.200356721878051758e+00 6.592527031898498535e-01 4.091305434703826904e-01 3.205149769783020020e-01 3.608263134956359863e-01
1.942000000000000000e+03 3.709738492965698242e+00 -6.824453830718994141e+00 -1.683627441525459290e-02 2.427858352661132812e+00 7.233065962791442871e-01 1.066960811614990234e+00
1.943000000000000000e+03 3.698558092117309570e+00 -2.027167081832885742e+00 4.270390272140502930e-01 2.605827152729034424e-01 2.062865346670150757e-01 1.245907470583915710e-01
1.944000000000000000e+03 3.438602209091186523e+00 -1.958136796951293945e+00 3.261828124523162842e-01 1.930270344018936157e-01 1.557629555463790894e-01 6.799008697271347046e-02
1.945000000000000000e+03 2.300502061843872070e+00 -2.237145423889160156e+00 1.785469651222229004e-01 1.225418597459793091e-01 9.032665193080902100e-02 -1.054270267486572266e-01
1.946000000000000000e+03 4.333838939666748047e+00 2.329200983047485352e+00 1.554038524627685547e-01 1.449752449989318848e-01 9.011372923851013184e-02 3.821406662464141846e-01
1.947000000000000000e+03 4.168784141540527344e+00 2.238024473190307617e+00 5.646975338459014893e-02 8.744240552186965942e-02 4.317364841699600220e-02 4.337930083274841309e-01
1.948000000000000000e+03 9.887834548950195312e+00 2.017472028732299805e+00 5.933873057365417480e-01 1.267603588104248047e+01 3.980826854705810547e+00 -3.623336076736450195e+00
1.949000000000000000e+03 1.174987888336181641e+01 -1.112887859344482422e+00 6.998657226562500000e+00 1.371755886077880859e+01 6.214864730834960938e+00 -1.127526760101318359e+00
1.950000000000000000e+03 1.195737552642822266e+01 7.806089520454406738e-01 7.141874790191650391e+00 1.317402076721191406e+01 6.094769001007080078e+00 3.086668968200683594e+00
1.951000000000000000e+03 1.176989459991455078e+01 9.856831431388854980e-01 6.147754192352294922e+00 1.423173809051513672e+01 6.113847732543945312e+00 3.378947734832763672e+00
1.952000000000000000e+03 1.091411590576171875e+01 -2.266124963760375977e+00 1.781590700149536133e+00 1.465872478485107422e+01 4.932094573974609375e+00 1.589888334274291992e+00
1.953000000000000000e+03 1.135231113433837891e+01 -2.045609474182128906e+00 2.932908296585083008e+00 1.437176322937011719e+01 5.191401481628417969e+00 1.651596575975418091e-01
1.954000000000000000e+03 1.203712558746337891e+01 1.240539669990539551e+00 5.216486930847167969e+00 1.341674995422363281e+01 5.589971065521240234e+00 3.155325174331665039e+00
1.955000000000000000e+03 1.209307312965393066e+00 -1.963334321975708008e+00 3.580248355865478516e-02 -1.313665062189102173e-01 -2.866920828819274902e-02 -1.890508085489273071e-01
1.956000000000000000e+03 2.171699285507202148e+00 -2.893137454986572266e+00 2.319833785295486450e-01 1.985867321491241455e-01 1.291710287332534790e-01 -1.929707650560885668e-04
1.957000000000000000e+03 9.650974273681640625e-01 -2.021841049194335938e+00 5.493512749671936035e-02 -1.686607152223587036e-01 -3.411767631769180298e-02 -1.531722992658615112e-01
1.958000000000000000e+03 1.583109736442565918e+00 -2.092617034912109375e+00 7.112062722444534302e-02 -2.988829836249351501e-02 1.236969884485006332e-02 -2.044105529785156250e-01
1.959000000000000000e+03 1.820320010185241699e+00 2.045640230178833008e+00 -7.936008274555206299e-02 -1.978005319833755493e-01 -8.314818888902664185e-02 4.418797791004180908e-01
1.960000000000000000e+03 2.098134279251098633e+00 1.935547590255737305e+00 -1.233579963445663452e-01 -1.680927127599716187e-01 -8.743520826101303101e-02 4.619016051292419434e-01
1.961000000000000000e+03 2.223030328750610352e+00 2.300635814666748047e+00 -3.559079766273498535e-02 -1.827838569879531860e-01 -6.551239639520645142e-02 4.830531179904937744e-01
1.962000000000000000e+03 2.290175676345825195e+00 -4.559633731842041016e+00 2.560198009014129639e-01 6.126146316528320312e-01 2.605903148651123047e-01 3.528288006782531738e-01
1.963000000000000000e+03 9.601650238037109375e-01 2.927660703659057617e+00 1.712994463741779327e-02 -5.652664899826049805e-01 -1.644409596920013428e-01 2.887163758277893066e-01
1.964000000000000000e+03 1.129741072654724121e+00 2.083719253540039062e+00 -3.166482597589492798e-02 -3.286347985267639160e-01 -1.080898866057395935e-01 3.422959744930267334e-01
1.965000000000000000e+03 2.550297737121582031e+00 2.050571203231811523e+00 -9.944117069244384766e-02 -1.224998831748962402e-01 -6.658231467008590698e-02 5.016750693321228027e-01
1.966000000000000000e+03 1.304820775985717773e+00 -5.129626274108886719e+00 9.925386309623718262e-02 1.958470940589904785e-01 8.853028714656829834e-02 1.941842138767242432e-01
1.967000000000000000e+03 1.616279959678649902e+00 -4.241452217102050781e+00 1.182516887784004211e-01 1.730619221925735474e-01 8.739408105611801147e-02 1.468883603811264038e-01
1.968000000000000000e+03 2.183264541625976562e+01 -1.018898200988769531e+01 -1.290984392166137695e+00 1.107720851898193359e+00 -5.497905984520912170e-02 -1.533427596092224121e+00
1.969000000000000000e+03 5.862841033935546875e+01 -6.379193305969238281e+00 1.055288761854171753e-01 1.896688342094421387e-01 8.855931460857391357e-02 -2.689106166362762451e-01
1.970000000000000000e+03 6.131663513183593750e+01 -1.528772592544555664e+00 6.469683051109313965e-01 1.235007286071777344e+00 5.645926594734191895e-01 -1.462321169674396515e-02
1.971000000000000000e+03 4.151091003417968750e+01 1.464090251922607422e+01 3.234730064868927002e-01 5.820634841918945312e+00 1.843232393264770508e+00 -1.347350120544433594e+00
1.972000000000000000e+03 4.036882019042968750e+01 1.797793388366699219e+01 -1.120241507887840271e-01 4.235234737396240234e+00 1.236963152885437012e+00 -1.219154238700866699e+00
1.973000000000000000e+03 1.839404296875000000e+01 -9.034265518188476562e+00 -1.017102837562561035e+00 8.304017186164855957e-01 -5.601034313440322876e-02 -1.017119526863098145e+00
1.974000000000000000e+03 2.449548244476318359e+00 2.683836936950683594e+00 5.722903460264205933e-02 -1.682864576578140259e-01 -3.331722691655158997e-02 4.839359521865844727e-01
1.975000000000000000e+03 2.129032135009765625e+01 -9.474024772644042969e+00 -8.646113276481628418e-01 1.012689948081970215e+00 4.442358016967773438e-02 -1.666600823402404785e+00
1.976000000000000000e+03 4.651556015014648438e+01 1.439486694335937500e+01 6.420692801475524902e-01 8.950302124023437500e+00 2.877711296081542969e+00 1.250261664390563965e+00
1.977000000000000000e+03 6.346435928344726562e+01 2.081515312194824219e+00 2.452780157327651978e-01 2.303498506546020508e+00 7.646329998970031738e-01 6.111827492713928223e-01
1.978000000000000000e+03 3.675843811035156250e+01 -8.265263557434082031e+00 -4.072047770023345947e-01 2.961664676666259766e+00 7.663379311561584473e-01 1.243968531489372253e-01
1.979000000000000000e+03 4.621332550048828125e+01 1.024502849578857422e+01 8.711258172988891602e-01 1.104331111907958984e+01 3.574331283569335938e+00 1.575621366500854492e+00
1.980000000000000000e+03 1.358393669128417969e+01 -1.048933219909667969e+01 -3.759936571121215820e+00 5.930013179779052734e+00 6.510230302810668945e-01 2.820717096328735352e+00
1.981000000000000000e+03 6.239841842651367188e+01 1.192226290702819824e+00 4.423818886280059814e-01 1.687673926353454590e+00 6.390167474746704102e-01 4.230903089046478271e-01
1.982000000000000000e+03 6.133629226684570312e+01 2.370627969503402710e-01 6.200166940689086914e-01 1.152630209922790527e+00 5.317940711975097656e-01 2.593268454074859619e-01
1.983000000000000000e+03 2.641308784484863281e+01 -1.183718299865722656e+01 -2.064863592386245728e-01 8.072587251663208008e-01 1.802317053079605103e-01 -1.837721109390258789e+00
1.984000000000000000e+03 2.529750442504882812e+01 -8.242033004760742188e+00 5.704317092895507812e-01 1.620465993881225586e+00 6.572692990303039551e-01 -2.294433593750000000e+00
1.985000000000000000e+03 6.956690979003906250e+01 7.080852985382080078e+00 -4.595705270767211914e-01 7.515024185180664062e+00 2.116636276245117188e+00 2.607273459434509277e-01
1.986000000000000000e+03 3.395249557495117188e+01 -8.846083641052246094e+00 4.195283353328704834e-01 1.581332683563232422e+00 6.002582907676696777e-01 -1.987717032432556152e+00
1.987000000000000000e+03 3.364199066162109375e+01 -7.607601165771484375e+00 -1.890106201171875000e-01 5.697603821754455566e-01 1.142249256372451782e-01 -1.887417793273925781e+00
1.988000000000000000e+03 2.927461147308349609e+00 -1.820222282409667969e+01 3.721014857292175293e-01 3.087169885635375977e+00 1.037781476974487305e+00 4.307954311370849609e-01
1.989000000000000000e+03 3.004859209060668945e+00 -1.954397964477539062e+01 3.417207002639770508e-01 3.372657299041748047e+00 1.114313364028930664e+00 7.173697948455810547e-01
1.990000000000000000e+03 4.426578044891357422e+00 -2.340264320373535156e+01 1.806309521198272705e-01 5.096189498901367188e+00 1.583046078681945801e+00 1.561898231506347656e+00
1.991000000000000000e+03 4.636500835418701172e+00 -2.896559715270996094e+01 -4.474686384201049805e-01 5.732046604156494141e+00 1.585373401641845703e+00 1.113148450851440430e+00
1.992000000000000000e+03 5.179946422576904297e+00 -1.781374549865722656e+01 8.742502927780151367e-01 4.981714248657226562e+00 1.756789326667785645e+00 5.312854647636413574e-01
1.993000000000000000e+03 4.387812137603759766e+00 -2.204441261291503906e+01 4.099208712577819824e-01 4.825795173645019531e+00 1.570714712142944336e+00 1.383555412292480469e+00
1.994000000000000000e+03 4.306154727935791016e+00 -2.068888282775878906e+01 5.339794158935546875e-01 4.608270168304443359e+00 1.542674899101257324e+00 1.166245341300964355e+00
1.995000000000000000e+03 7.706286907196044922e+00 -1.968791198730468750e+01 1.537005901336669922e+00 7.578007698059082031e+00 2.734503984451293945e+00 1.132704138755798340e+00
1.996000000000000000e+03 4.811399936676025391e+00 -2.612636947631835938e+01 -3.177805542945861816e-01 5.630967140197753906e+00 1.593955993652343750e+00 1.485075473785400391e+00
1.997000000000000000e+03 4.929725170135498047e+00 -2.759910964965820312e+01 -3.842502236366271973e-01 5.737380027770996094e+00 1.605939030647277832e+00 1.299102783203125000e+00
1.998000000000000000e+03 6.096124172210693359e+00 -2.551212501525878906e+01 -3.487810194492340088e-01 6.044964313507080078e+00 1.708855032920837402e+00 1.576891064643859863e+00
1.999000000000000000e+03 3.576947689056396484e+00 -3.163404464721679688e+01 -2.497535943984985352e-01 5.868426322937011719e+00 1.685601830482482910e+00 6.648310422897338867e-01
2.000000000000000000e+03 2.683252811431884766e+00 -1.169172954559326172e+01 -1.898620277643203735e-01 2.513549089431762695e+00 6.971061229705810547e-01 6.032899022102355957e-02
2.001000000000000000e+03 2.522239208221435547e+00 -8.448091506958007812e+00 -1.343823075294494629e-01 1.883770346641540527e+00 5.248164534568786621e-01 5.196909308433532715e-01
2.002000000000000000e+03 3.817099571228027344e+00 -1.417678833007812500e+01 1.359256077557802200e-02 3.689679861068725586e+00 1.110981702804565430e+00 -1.395911909639835358e-02
2.003000000000000000e+03 5.346146106719970703e+00 -3.253493499755859375e+01 -4.460717737674713135e-01 5.744637489318847656e+00 1.589569687843322754e+00 6.126680374145507812e-01
2.004000000000000000e+03 6.620380878448486328e+00 -3.190047264099121094e+01 -6.258857846260070801e-01 5.687857627868652344e+00 1.518591523170471191e+00 6.561312079429626465e-01
2.005000000000000000e+03 5.941157341003417969e+00 -3.403972244262695312e+01 -4.235371947288513184e-01 5.625617980957031250e+00 1.560624241828918457e+00 4.529519677162170410e-01
2.006000000000000000e+03 2.690438270568847656e+00 -1.297884082794189453e+01 -1.001374870538711548e-01 2.603889465332031250e+00 7.511255741119384766e-01 -8.026566356420516968e-03
2.007000000000000000e+03 3.736079454421997070e+00 -1.175284957885742188e+01 -3.685133159160614014e-01 3.523113727569580078e+00 9.463801383972167969e-01 2.066346555948257446e-01
2.008000000000000000e+03 3.889902591705322266e+00 -1.543587970733642578e+01 2.445340603590011597e-01 3.819055080413818359e+00 1.219076752662658691e+00 -9.306007064878940582e-03
2.009000000000000000e+03 3.760258913040161133e+00 -1.294552898406982422e+01 -1.798042953014373779e-01 3.613397359848022461e+00 1.030077934265136719e+00 -2.703938074409961700e-02
2.010000000000000000e+03 2.214458227157592773e+00 -7.335350990295410156e+00 -2.920538187026977539e-02 1.344879388809204102e+00 3.947022259235382080e-01 5.426038503646850586e-01
2.011000000000000000e+03 2.487435150146484375e+01 -7.162647247314453125e+00 1.013126015663146973e+00 1.666199564933776855e+00 8.037976622581481934e-01 -2.239362239837646484e+00
2.012000000000000000e+03 5.428599929809570312e+01 -3.442640304565429688e+00 1.138913750648498535e+00 3.747832775115966797e-02 3.529176115989685059e-01 -1.662808060646057129e-01
2.013000000000000000e+03 5.223828125000000000e+01 -5.917191028594970703e+00 -1.853895485401153564e-01 5.868062376976013184e-01 1.204250156879425049e-01 3.506858348846435547e-01
2.014000000000000000e+03 2.304947090148925781e+01 -2.173169374465942383e+00 2.935488939285278320e+00 1.652580261230468750e+00 1.376420736312866211e+00 -2.251686811447143555e+00
2.015000000000000000e+03 2.085068511962890625e+01 1.087527871131896973e+00 2.232895374298095703e+00 2.586877584457397461e+00 1.445931911468505859e+00 -1.702756404876708984e+00
2.016000000000000000e+03 1.025428104400634766e+01 -1.214085102081298828e+01 -2.448683738708496094e+00 9.156428337097167969e+00 2.012323379516601562e+00 1.029329895973205566e+00
2.017000000000000000e+03 1.079170131683349609e+01 -1.308166122436523438e+01 -1.996882200241088867e+00 1.023099708557128906e+01 2.470234632492065430e+00 1.019347906112670898e+00
2.018000000000000000e+03 6.624647521972656250e+01 -3.124474334716796875e+01 -7.275980114936828613e-01 4.437593460083007812e+00 1.112998604774475098e+00 9.007823467254638672e-01
2.019000000000000000e+03 7.663574218750000000e+01 1.574263191223144531e+01 3.575536608695983887e-01 7.243193626403808594e+00 2.280224084854125977e+00 1.766123175621032715e-01
2.020000000000000000e+03 7.667815399169921875e+01 1.498291015625000000e+00 -1.759487241506576538e-01 8.015756607055664062e+00 2.351942300796508789e+00 -2.567953169345855713e-01
2.021000000000000000e+03 7.520982360839843750e+01 1.239504516124725342e-01 -2.987893521785736084e-01 7.726262569427490234e+00 2.228241920471191406e+00 -1.504976302385330200e-01
2.022000000000000000e+03 7.574521636962890625e+01 -6.842634677886962891e+00 -3.233734369277954102e-01 7.838531970977783203e+00 2.254547595977783203e+00 5.740857124328613281e-01
2.023000000000000000e+03 7.693431091308593750e+01 -6.846164703369140625e+00 -1.805326193571090698e-01 7.914956569671630859e+00 2.320327281951904297e+00 5.326830148696899414e-01
2.024000000000000000e+03 7.562253570556640625e+01 -4.178463459014892578e+00 -3.135766386985778809e-01 7.840581893920898438e+00 2.258101463317871094e+00 2.745117247104644775e-01
2.025000000000000000e+03 7.570195007324218750e+01 -5.514042854309082031e+00 -3.135289847850799561e-01 7.836836814880371094e+00 2.256992340087890625e+00 4.329529702663421631e-01
2.026000000000000000e+03 7.551683807373046875e+01 -2.813515663146972656e+00 -2.989769577980041504e-01 7.794319152832031250e+00 2.248602628707885742e+00 1.369596868753433228e-01
2.027000000000000000e+03 7.532386016845703125e+01 1.579789042472839355e+00 -2.846833169460296631e-01 7.762740135192871094e+00 2.243417024612426758e+00 -2.606323957443237305e-01
2.028000000000000000e+03 7.527736663818359375e+01 7.126520633697509766e+00 -1.128939017653465271e-01 7.825585365295410156e+00 2.313807487487792969e+00 -7.009748816490173340e-01
2.029000000000000000e+03 7.594782257080078125e+01 -1.521766757965087891e+01 4.131925106048583984e-01 7.242803096771240234e+00 2.296798706054687500e+00 7.144826650619506836e-01
2.030000000000000000e+03 7.694550323486328125e+01 -1.382871246337890625e+01 1.300384402275085449e-01 7.003476142883300781e+00 2.140054225921630859e+00 7.616809606552124023e-01
2.031000000000000000e+03 7.448892974853515625e+01 -1.079981803894042969e+01 -2.147521674633026123e-01 7.914467334747314453e+00 2.309914588928222656e+00 9.704226851463317871e-01
2.032000000000000000e+03 7.664068603515625000e+01 9.914944648742675781e+00 5.927477404475212097e-02 7.467566013336181641e+00 2.258052349090576172e+00 -6.798557043075561523e-01
2.033000000000000000e+03 7.533219909667968750e+01 9.957132339477539062e+00 1.924654990434646606e-01 7.732527256011962891e+00 2.377497911453247070e+00 -6.922140717506408691e-01
2.034000000000000000e+03 7.548796081542968750e+01 4.307126998901367188e+00 -2.400426268577575684e-01 7.796219825744628906e+00 2.266853094100952148e+00 -4.929159879684448242e-01
2.035000000000000000e+03 7.544125366210937500e+01 5.688035488128662109e+00 -2.419976443052291870e-01 7.791343688964843750e+00 2.264803647994995117e+00 -6.443775296211242676e-01
2.036000000000000000e+03 7.024977111816406250e+01 6.139388561248779297e+00 -4.231986701488494873e-01 7.291432857513427734e+00 2.060470342636108398e+00 7.885659486055374146e-02
2.037000000000000000e+03 7.566876983642578125e+01 -1.765844917297363281e+01 7.152867913246154785e-01 7.271385669708251953e+00 2.396001577377319336e+00 1.882202923297882080e-01
2.038000000000000000e+03 7.529708862304687500e+01 -2.303743743896484375e+01 2.527152895927429199e-01 7.675004959106445312e+00 2.378316164016723633e+00 -1.010536313056945801e+00
2.039000000000000000e+03 7.567591857910156250e+01 -1.390160369873046875e+01 2.597691416740417480e-01 7.483832359313964844e+00 2.323080539703369141e+00 9.158476591110229492e-01
2.040000000000000000e+03 7.574357604980468750e+01 -9.535587310791015625e+00 -2.345346957445144653e-01 7.756129741668701172e+00 2.256478548049926758e+00 8.565545082092285156e-01
2.041000000000000000e+03 7.568878173828125000e+01 -1.093258762359619141e+01 -1.116982847452163696e-01 7.695888996124267578e+00 2.275257110595703125e+00 9.915817975997924805e-01
2.042000000000000000e+03 7.531585693359375000e+01 1.127589607238769531e+01 2.939928770065307617e-01 7.741122245788574219e+00 2.410534620285034180e+00 -6.514187455177307129e-01
2.043000000000000000e+03 7.697354888916015625e+01 -1.783274078369140625e+01 3.778896331787109375e-01 6.637487888336181641e+00 2.104613304138183594e+00 9.395293146371841431e-02
2.044000000000000000e+03 7.354808807373046875e+01 -1.965122604370117188e+01 1.332734942436218262e+00 8.309752464294433594e+00 2.892746448516845703e+00 -4.277317821979522705e-01
2.045000000000000000e+03 7.586022949218750000e+01 -1.636690902709960938e+01 6.177938580513000488e-01 7.264422416687011719e+00 2.364664793014526367e+00 4.812793433666229248e-01
2.046000000000000000e+03 7.592097473144531250e+01 3.138663291931152344e+01 -1.534561514854431152e-01 7.970946311950683594e+00 2.345247030258178711e+00 -5.469664931297302246e-02
2.047000000000000000e+03 7.695256042480468750e+01 2.231875419616699219e+01 -8.042784780263900757e-02 7.856060981750488281e+00 2.332690000534057617e+00 7.542420625686645508e-01
2.048000000000000000e+03 7.681989288330078125e+01 1.704494667053222656e+01 3.735637664794921875e-01 7.233135223388671875e+00 2.282009601593017578e+00 3.399103879928588867e-01
2.049000000000000000e+03 7.526140594482421875e+01 1.613857269287109375e+01 6.599852442741394043e-01 7.754217624664306641e+00 2.524260759353637695e+00 2.071115374565124512e-01
2.050000000000000000e+03 7.132903289794921875e+01 1.747171592712402344e+01 1.374535799026489258e+00 9.799320220947265625e+00 3.352156639099121094e+00 6.596601605415344238e-01
2.051000000000000000e+03 7.643212127685546875e+01 -2.784466171264648438e+01 -2.248313426971435547e-01 7.844067096710205078e+00 2.285770654678344727e+00 -7.775811553001403809e-01
2.052000000000000000e+03 7.365556335449218750e+01 -2.466019821166992188e+01 -7.925801724195480347e-02 8.208525657653808594e+00 2.438780307769775391e+00 -1.073447585105895996e+00
2.053000000000000000e+03 7.676427459716796875e+01 2.364020919799804688e+01 -1.480950862169265747e-01 8.026441574096679688e+00 2.363503932952880859e+00 7.591643929481506348e-01
2.054000000000000000e+03 7.436283874511718750e+01 -2.711968231201171875e+01 -3.911045789718627930e-01 7.929788589477539062e+00 2.261605262756347656e+00 -8.797678351402282715e-01
2.055000000000000000e+03 7.510402679443359375e+01 -2.453661537170410156e+01 2.512882091104984283e-02 7.806197166442871094e+00 2.349397659301757812e+00 -1.099130153656005859e+00
2.056000000000000000e+03 7.393310546875000000e+01 2.359193229675292969e+01 -5.055697560310363770e-01 8.229870796203613281e+00 2.317290067672729492e+00 8.100051879882812500e-01
2.057000000000000000e+03 7.529647827148437500e+01 2.650889396667480469e+01 -4.456586241722106934e-01 8.122430801391601562e+00 2.303031682968139648e+00 4.142378568649291992e-01
2.058000000000000000e+03 7.682091522216796875e+01 3.071817016601562500e+01 -1.580200940370559692e-01 8.249464035034179688e+00 2.427433252334594727e+00 1.963444426655769348e-02
2.059000000000000000e+03 7.515122985839843750e+01 2.936833572387695312e+01 -3.159476220607757568e-01 7.874611377716064453e+00 2.267599105834960938e+00 4.775111377239227295e-02
2.060000000000000000e+03 7.530953979492187500e+01 2.790381431579589844e+01 -3.687841296195983887e-01 7.996885299682617188e+00 2.288430452346801758e+00 2.165226340293884277e-01
2.061000000000000000e+03 7.410677337646484375e+01 -3.020634651184082031e+01 -5.137727260589599609e-01 7.691872596740722656e+00 2.153429985046386719e+00 -4.633606076240539551e-01
2.062000000000000000e+03 7.364661407470703125e+01 -3.593649291992187500e+01 -2.086292356252670288e-01 7.092637062072753906e+00 2.065202474594116211e+00 4.876148328185081482e-02
2.063000000000000000e+03 7.533782196044921875e+01 -2.957852745056152344e+01 -3.581145405769348145e-01 7.861471652984619141e+00 2.251007080078125000e+00 -6.025959849357604980e-01
2.064000000000000000e+03 7.497241973876953125e+01 -3.284926605224609375e+01 -3.078936636447906494e-01 7.668941974639892578e+00 2.208314418792724609e+00 -2.155930846929550171e-01
2.065000000000000000e+03 7.588674163818359375e+01 -3.468230819702148438e+01 -1.748912781476974487e-01 7.843208312988281250e+00 2.300495147705078125e+00 -1.139058396220207214e-01
2.066000000000000000e+03 7.426973724365234375e+01 3.480406570434570312e+01 -2.156726084649562836e-02 7.229864597320556641e+00 2.162489175796508789e+00 -2.307305783033370972e-01
2.067000000000000000e+03 3.851954269409179688e+01 -2.035855102539062500e+01 2.409591197967529297e+00 9.625690460205078125e+00 3.610584497451782227e+00 -3.577812910079956055e-01
2.068000000000000000e+03 4.673170089721679688e+00 2.139199829101562500e+01 7.908774539828300476e-03 3.410011053085327148e+00 1.025375962257385254e+00 -9.836910367012023926e-01
2.069000000000000000e+03 3.212182760238647461e+00 2.012739181518554688e+01 2.716445736587047577e-02 2.629796743392944336e+00 7.970883250236511230e-01 -7.547158598899841309e-01
2.070000000000000000e+03 4.703762054443359375e+00 2.283633232116699219e+01 -4.059549048542976379e-02 3.578068017959594727e+00 1.061241745948791504e+00 -9.839569330215454102e-01
2.071000000000000000e+03 4.640624046325683594e+00 2.555655860900878906e+01 -1.384080648422241211e-01 3.910964488983154297e+00 1.131766915321350098e+00 -8.902295231819152832e-01
2.072000000000000000e+03 5.035673141479492188e+00 2.972827720642089844e+01 -1.946722567081451416e-01 4.307750225067138672e+00 1.233923316001892090e+00 -6.638942360877990723e-01
2.073000000000000000e+03 4.108645439147949219e+00 1.706515121459960938e+01 8.914397656917572021e-02 2.659370660781860352e+00 8.245544433593750000e-01 -8.062224984169006348e-01
2.074000000000000000e+03 4.297049045562744141e+00 1.844776153564453125e+01 7.217417657375335693e-02 2.884259223937988281e+00 8.869299888610839844e-01 -8.642127513885498047e-01
2.075000000000000000e+03 3.091935634613037109e+00 1.869335365295410156e+01 4.030194506049156189e-02 2.352955579757690430e+00 7.179772853851318359e-01 -7.127512693405151367e-01
2.076000000000000000e+03 4.499964237213134766e+00 1.990951919555664062e+01 6.820067763328552246e-02 3.171878337860107422e+00 9.720237255096435547e-01 -9.480664730072021484e-01
2.077000000000000000e+03 4.773246765136718750e+00 2.691132736206054688e+01 -1.638984829187393188e-01 4.059032440185546875e+00 1.168540120124816895e+00 -8.161351084709167480e-01
2.078000000000000000e+03 4.626714706420898438e+00 2.421633338928222656e+01 -6.384269148111343384e-02 3.752181768417358398e+00 1.106501698493957520e+00 -9.538595080375671387e-01
2.079000000000000000e+03 2.796888828277587891e+00 1.457304573059082031e+01 3.721946105360984802e-02 1.522199630737304688e+00 4.678257405757904053e-01 -5.566322803497314453e-01
2.080000000000000000e+03 3.549216032028198242e+00 1.061879539489746094e+01 7.549879699945449829e-02 1.547215342521667480e+00 4.868142306804656982e-01 -5.592155456542968750e-01
2.081000000000000000e+03 3.784268140792846680e+00 1.310232543945312500e+01 7.351813465356826782e-02 2.011379957199096680e+00 6.254693865776062012e-01 -6.395967006683349609e-01
2.082000000000000000e+03 3.913823604583740234e+00 1.442753505706787109e+01 5.230597779154777527e-02 2.220080852508544922e+00 6.817160248756408691e-01 -6.925306320190429688e-01
2.083000000000000000e+03 6.044137001037597656e+00 3.235852050781250000e+01 -2.574964761734008789e-01 4.512117385864257812e+00 1.276386260986328125e+00 -5.204199552536010742e-01
2.084000000000000000e+03 6.023969650268554688e+00 3.631891632080078125e+01 -2.283015996217727661e-01 4.574590206146240234e+00 1.303886532783508301e+00 -2.795510292053222656e-01
2.085000000000000000e+03 4.916996002197265625e+00 2.830581474304199219e+01 -1.897201687097549438e-01 4.184874057769775391e+00 1.198546171188354492e+00 -7.452512383460998535e-01
2.086000000000000000e+03 4.947818279266357422e+00 3.347527694702148438e+01 -1.806426644325256348e-01 4.495988368988037109e+00 1.294603705406188965e+00 -4.244464337825775146e-01
2.087000000000000000e+03 5.201954364776611328e+00 3.116242790222167969e+01 -2.041359245777130127e-01 4.407180786132812500e+00 1.260913491249084473e+00 -5.701554417610168457e-01
2.088000000000000000e+03 3.563187837600708008e+00 9.497663497924804688e+00 1.416468024253845215e-01 1.452042341232299805e+00 4.781067669391632080e-01 -5.147233605384826660e-01
2.089000000000000000e+03 3.643612146377563477e+00 7.319655418395996094e+00 3.080458939075469971e-01 1.082145333290100098e+00 4.170573949813842773e-01 -3.982205092906951904e-01
2.090000000000000000e+03 1.847450733184814453e+00 5.239084243774414062e+00 1.792299002408981323e-01 -3.620654642581939697e-01 -5.485066771507263184e-02 1.520948857069015503e-01
2.091000000000000000e+03 3.152879476547241211e+00 6.694668292999267578e+00 3.197309970855712891e-01 6.816902756690979004e-01 3.004263937473297119e-01 -2.477789521217346191e-01
2.092000000000000000e+03 4.561488342285156250e+01 1.400486087799072266e+01 5.301600694656372070e-01 8.891708374023437500e+00 2.826560735702514648e+00 7.874031066894531250e-01
2.093000000000000000e+03 2.668711090087890625e+01 2.445607376098632812e+01 -6.208938360214233398e-01 2.967517673969268799e-01 -9.724261611700057983e-02 3.057314157485961914e-01
2.094000000000000000e+03 2.744551086425781250e+01 2.728795051574707031e+01 -2.761993184685707092e-02 9.645237922668457031e-01 2.810711562633514404e-01 2.745568156242370605e-01
2.095000000000000000e+03 4.143770599365234375e+01 -2.125437355041503906e+01 2.472037792205810547e+00 9.238443374633789062e+00 3.513144493103027344e+00 -2.682244479656219482e-01
2.096000000000000000e+03 6.935466766357421875e+01 -2.627718353271484375e+01 -8.145971894264221191e-01 7.627409934997558594e+00 2.043843746185302734e+00 4.560589790344238281e-01
2.097000000000000000e+03 2.648673629760742188e+01 -7.828381538391113281e+00 7.013106346130371094e-01 1.977177619934082031e+00 8.035464882850646973e-01 -2.441408872604370117e+00
2.098000000000000000e+03 3.202724075317382812e+01 -7.721146583557128906e+00 1.916529536247253418e-01 7.640818953514099121e-01 2.867204546928405762e-01 -2.920754194259643555e+00
2.099000000000000000e+03 3.937916946411132812e+01 1.913441276550292969e+01 -2.753566205501556396e-01 3.507047653198242188e+00 9.695072770118713379e-01 -1.220999121665954590e+00
2.100000000000000000e+03 1.925869369506835938e+01 1.374777555465698242e+00 2.335542917251586914e+00 3.953369617462158203e+00 1.886673688888549805e+00 -1.171522498130798340e+00
2.101000000000000000e+03 3.542768859863281250e+01 -1.436110591888427734e+01 2.171676158905029297e+00 5.693143844604492188e+00 2.359445810317993164e+00 -1.664514780044555664e+00
2.102000000000000000e+03 4.376403045654296875e+01 1.814743423461914062e+01 -1.508587896823883057e-01 6.260355472564697266e+00 1.832849025726318359e+00 -5.226291418075561523e-01
2.103000000000000000e+03 4.781230926513671875e+01 1.540834617614746094e+01 8.503394722938537598e-01 9.015767097473144531e+00 2.959831953048706055e+00 1.783341169357299805e+00
2.104000000000000000e+03 4.515755844116210938e+01 1.092303180694580078e+01 7.288809418678283691e-01 1.064919185638427734e+01 3.413421869277954102e+00 9.634870886802673340e-01
2.105000000000000000e+03 4.677299499511718750e+01 1.159963989257812500e+01 8.380985260009765625e-01 1.069574260711669922e+01 3.460152149200439453e+00 1.723706960678100586e+00
2.106000000000000000e+03 3.050957298278808594e+01 2.472743034362792969e+01 -5.111182928085327148e-01 6.751482486724853516e-01 4.920898377895355225e-02 -3.871649205684661865e-01
2.107000000000000000e+03 9.475006103515625000e+00 -1.346224498748779297e+01 -9.463137388229370117e-01 9.396153450012207031e+00 2.534951925277709961e+00 3.863529488444328308e-02
2.108000000000000000e+03 7.098882293701171875e+01 1.633431053161621094e+01 1.644478440284729004e+00 1.002705287933349609e+01 3.501459360122680664e+00 1.026008948683738708e-01
2.109000000000000000e+03 7.426235961914062500e+01 1.375222396850585938e+01 7.902067303657531738e-01 8.033432960510253906e+00 2.647091865539550781e+00 -2.956048846244812012e-01
2.110000000000000000e+03 2.898391342163085938e+01 2.691831398010253906e+01 -6.751818954944610596e-02 9.329514503479003906e-01 2.596299648284912109e-01 -5.349806323647499084e-02
2.111000000000000000e+03 7.430350494384765625e+01 -1.769644737243652344e+01 1.075595021247863770e+00 7.954328060150146484e+00 2.708976984024047852e+00 1.383963674306869507e-01
2.112000000000000000e+03 1.508033180236816406e+01 1.444484901428222656e+01 9.150910973548889160e-01 9.379944801330566406e+00 3.088510990142822266e+00 2.640186846256256104e-01
2.113000000000000000e+03 2.287095832824707031e+01 -4.133158206939697266e+00 2.608107566833496094e+00 1.528548598289489746e+00 1.240996837615966797e+00 -2.214773416519165039e+00
2.114000000000000000e+03 3.866913986206054688e+01 -1.812018775939941406e+01 2.963960647583007812e+00 8.831573486328125000e+00 3.538660049438476562e+00 -7.345932126045227051e-01
2.115000000000000000e+03 4.666822814941406250e+01 9.032928943634033203e-01 1.140787243843078613e+00 9.774580955505371094e+00 3.274610519409179688e+00 -2.558183372020721436e-01
2.116000000000000000e+03 3.827891921997070312e+01 2.030191040039062500e+01 -4.124458432197570801e-01 2.938187360763549805e+00 7.577224969863891602e-01 -1.146806836128234863e+00
2.117000000000000000e+03 5.769216918945312500e+01 2.714566802978515625e+01 -3.266134262084960938e-01 1.348420977592468262e+00 3.065422773361206055e-01 1.253670811653137207e+00
2.118000000000000000e+03 5.619260406494140625e+01 2.751367187500000000e+01 -4.100153446197509766e-01 1.977882266044616699e+00 4.703600704669952393e-01 1.448266386985778809e+00
2.119000000000000000e+03 1.395409393310546875e+01 1.409434223175048828e+01 7.885604500770568848e-01 8.585525512695312500e+00 2.812225818634033203e+00 1.623628586530685425e-01
2.120000000000000000e+03 1.530733203887939453e+01 1.325500679016113281e+01 7.306876182556152344e-01 9.754025459289550781e+00 3.145413875579833984e+00 3.717022836208343506e-01
2.121000000000000000e+03 6.453286743164062500e+01 2.944666862487792969e+00 7.211529463529586792e-02 3.098958730697631836e+00 9.513221979141235352e-01 7.827557325363159180e-01
2.122000000000000000e+03 5.667700576782226562e+01 -5.704312801361083984e+00 1.363397240638732910e-01 -7.310871034860610962e-02 1.896930672228336334e-02 -2.800634801387786865e-01
2.123000000000000000e+03 5.542647552490234375e+01 -6.101579666137695312e+00 -2.723897695541381836e-01 -3.129920363426208496e-01 -1.756145358085632324e-01 -3.470863997936248779e-01
2.124000000000000000e+03 4.805576324462890625e+01 1.921962547302246094e+01 2.544706761837005615e-01 7.089300632476806641e+00 2.203131437301635742e+00 9.258965253829956055e-01
2.125000000000000000e+03 4.393656158447265625e+01 1.597858905792236328e+01 9.941278398036956787e-02 7.132656574249267578e+00 2.169620990753173828e+00 -3.156698942184448242e-01
2.126000000000000000e+03 2.686764526367187500e+01 -8.964942932128906250e+00 2.720599174499511719e-01 1.720420718193054199e+00 5.977442264556884766e-01 -2.648515224456787109e+00
2.127000000000000000e+03 1.695049667358398438e+01 8.334806442260742188e+00 -2.674622274935245514e-02 9.312319755554199219e+00 2.785672187805175781e+00 2.963989078998565674e-01
2.128000000000000000e+03 3.751509094238281250e+01 -1.798028373718261719e+01 2.963221311569213867e+00 9.160432815551757812e+00 3.637096405029296875e+00 -1.003048539161682129e+00
2.129000000000000000e+03 3.859525680541992188e+01 -1.921339988708496094e+01 2.521069049835205078e+00 9.446740150451660156e+00 3.590342760086059570e+00 -6.900940537452697754e-01
2.130000000000000000e+03 7.075649261474609375e+01 1.933659172058105469e+01 1.176789999008178711e+00 9.372266769409179688e+00 3.164717197418212891e+00 6.213023662567138672e-01
2.131000000000000000e+03 7.190196228027343750e+01 2.028172683715820312e+01 2.230546921491622925e-01 9.141998291015625000e+00 2.809515714645385742e+00 9.841433763504028320e-01
2.132000000000000000e+03 4.420916748046875000e+01 1.171561431884765625e+01 6.529065370559692383e-01 9.766467094421386719e+00 3.125812053680419922e+00 1.269623637199401855e-01
2.133000000000000000e+03 1.552341556549072266e+01 1.206045246124267578e+01 4.607610702514648438e-01 9.834012985229492188e+00 3.088432312011718750e+00 3.463811874389648438e-01
2.134000000000000000e+03 4.929641342163085938e+01 -2.294800996780395508e+00 6.552617549896240234e-01 4.534281253814697266e+00 1.556862831115722656e+00 -6.467699408531188965e-01
2.135000000000000000e+03 4.597599029541015625e+01 -2.993705177307128906e+01 -3.362040519714355469e-01 6.592557430267333984e+00 1.876906037330627441e+00 -1.557795405387878418e+00
2.136000000000000000e+03 4.982136917114257812e+01 -3.215317916870117188e+01 -3.629419803619384766e-01 3.833696126937866211e+00 1.041226267814636230e+00 -1.971450209617614746e+00
2.137000000000000000e+03 4.657064437866210938e+01 -1.100165486335754395e+00 3.773641884326934814e-01 8.908546447753906250e+00 2.785773038864135742e+00 -2.605794966220855713e-01
2.138000000000000000e+03 3.920758819580078125e+01 2.167493438720703125e+01 -5.603732466697692871e-01 3.435510158538818359e+00 8.625411391258239746e-01 -1.166897177696228027e+00
2.139000000000000000e+03 4.468218994140625000e+01 3.175992250442504883e+00 1.660310626029968262e+00 1.324088764190673828e+01 4.470359325408935547e+00 9.702849984169006348e-01
2.140000000000000000e+03 1.887784957885742188e+01 2.418458747863769531e+01 -1.120743393898010254e+00 5.962636947631835938e+00 1.452568054199218750e+00 1.529790043830871582e+00
2.141000000000000000e+03 3.047064018249511719e+01 -3.565289306640625000e+01 -5.208253264427185059e-01 2.122291088104248047e+00 4.804397523403167725e-01 1.248793959617614746e+00
2.142000000000000000e+03 7.313082122802734375e+01 -2.330928802490234375e+01 3.389269113540649414e-01 8.326916694641113281e+00 2.599753141403198242e+00 -1.074003815650939941e+00
2.143000000000000000e+03 6.899670410156250000e+01 -2.441886901855468750e+01 -5.540074706077575684e-01 8.973554611206054688e+00 2.525864124298095703e+00 6.022767424583435059e-01
2.144000000000000000e+03 6.371268844604492188e+01 2.674998092651367188e+01 -4.611339271068572998e-01 2.083962202072143555e+00 4.868485033512115479e-01 -8.575497865676879883e-01
2.145000000000000000e+03 3.983635330200195312e+01 -1.922922134399414062e+01 2.694495439529418945e+00 9.054381370544433594e+00 3.524662971496582031e+00 -2.086218893527984619e-01
2.146000000000000000e+03 1.988399696350097656e+01 -9.204130172729492188e+00 -9.809638857841491699e-01 1.036090254783630371e+00 1.653789542615413666e-02 -1.582362890243530273e+00
2.147000000000000000e+03 5.875081634521484375e+01 -7.469904899597167969e+00 -3.040877878665924072e-01 2.470440268516540527e-01 -1.711312681436538696e-02 -9.637235105037689209e-02
2.148000000000000000e+03 5.696770477294921875e+01 -2.284027099609375000e+00 1.122587919235229492e+00 -6.539850682020187378e-02 3.171568214893341064e-01 -1.640976667404174805e-01
2.149000000000000000e+03 4.193766784667968750e+01 -1.713039970397949219e+01 2.244936943054199219e+00 9.006845474243164062e+00 3.375534772872924805e+00 5.678420066833496094e-01
2.150000000000000000e+03 7.035318756103515625e+01 1.041338825225830078e+01 6.625882983207702637e-01 9.108928680419921875e+00 2.931455135345458984e+00 1.991967856884002686e-01
2.151000000000000000e+03 1.758191299438476562e+01 6.344837665557861328e+00 9.168072789907455444e-02 8.122353553771972656e+00 2.464210271835327148e+00 2.068159133195877075e-01
2.152000000000000000e+03 1.813708305358886719e+01 5.072946071624755859e+00 4.787518680095672607e-01 6.814285278320312500e+00 2.187911272048950195e+00 -1.470278948545455933e-01
2.153000000000000000e+03 1.770319366455078125e+01 2.943257808685302734e+00 1.717919111251831055e+00 6.009498119354248047e+00 2.318225145339965820e+00 -4.965015873312950134e-02
2.154000000000000000e+03 7.547415161132812500e+01 4.056167602539062500e+01 1.127569079399108887e-01 7.696947574615478516e+00 2.342911243438720703e+00 7.307561486959457397e-02
2.155000000000000000e+03 7.452496337890625000e+01 3.847906112670898438e+01 7.798569649457931519e-02 7.325196266174316406e+00 2.220954656600952148e+00 -1.170650869607925415e-01
2.156000000000000000e+03 1.860899925231933594e+01 -3.211057662963867188e+01 -9.791562557220458984e-01 7.949684858322143555e-01 -5.525633320212364197e-02 -4.226353466510772705e-01
2.157000000000000000e+03 1.988559341430664062e+01 -3.311996459960937500e+01 -8.005261421203613281e-01 4.726639389991760254e-01 -9.835866838693618774e-02 -3.296851217746734619e-01
2.158000000000000000e+03 3.899459457397460938e+01 -7.471947193145751953e+00 -1.343117713928222656e+00 5.053546905517578125e+00 1.113128781318664551e+00 1.519452095031738281e+00
2.159000000000000000e+03 1.582809829711914062e+01 9.692723274230957031e+00 5.403661355376243591e-02 9.618625640869140625e+00 2.901798725128173828e+00 5.073248147964477539e-01
2.160000000000000000e+03 4.528165817260742188e+01 -1.232875823974609375e+01 9.224390387535095215e-01 9.564494132995605469e+00 3.146080017089843750e+00 1.687917470932006836e+00
2.161000000000000000e+03 4.213739776611328125e+01 -1.482536315917968750e+01 1.732591986656188965e+00 8.636403083801269531e+00 3.110698699951171875e+00 9.391742348670959473e-01
2.162000000000000000e+03 4.938124847412109375e+01 -7.201605319976806641e+00 -1.312637090682983398e+00 4.503623485565185547e+00 9.572958946228027344e-01 1.372176051139831543e+00
2.163000000000000000e+03 1.195725536346435547e+01 -2.963025856018066406e+01 -1.160395622253417969e+00 4.851694583892822266e+00 1.107389688491821289e+00 -2.538076341152191162e-01
2.164000000000000000e+03 5.201463699340820312e+01 2.424406623840332031e+01 -1.107161164283752441e+00 4.365730762481689453e+00 9.775708913803100586e-01 1.603095769882202148e+00
2.165000000000000000e+03 5.319486999511718750e+01 2.524162673950195312e+01 -1.021167516708374023e+00 3.543687582015991211e+00 7.567560076713562012e-01 1.821668744087219238e+00
2.166000000000000000e+03 1.841896629333496094e+01 -3.354770660400390625e+01 -6.266157031059265137e-01 1.049694061279296875e+00 1.269235163927078247e-01 -5.353098511695861816e-01
2.167000000000000000e+03 8.548997879028320312e+00 -2.110883140563964844e+01 1.140729665756225586e+00 8.388246536254882812e+00 2.858692646026611328e+00 1.162936568260192871e+00
2.168000000000000000e+03 2.907595634460449219e+01 -7.403714179992675781e+00 4.535487592220306396e-01 2.006280899047851562e+00 7.379488945007324219e-01 -3.142709255218505859e+00
2.169000000000000000e+03 3.222482299804687500e+01 -1.232604217529296875e+01 1.664116263389587402e+00 2.212050199508666992e+00 1.162849903106689453e+00 -2.725860834121704102e+00
2.170000000000000000e+03 4.545537185668945312e+01 1.544980168342590332e+00 1.683911561965942383e+00 1.133026218414306641e+01 3.904252052307128906e+00 5.595038533210754395e-01
2.171000000000000000e+03 1.080883693695068359e+01 -2.728943824768066406e+01 -1.023862004280090332e+00 6.189435958862304688e+00 1.549672126770019531e+00 4.103432968258857727e-02
2.172000000000000000e+03 4.398630142211914062e+01 -1.396901458501815796e-01 1.221364259719848633e+00 1.180041027069091797e+01 3.906532287597656250e+00 1.044197082519531250e+00
2.173000000000000000e+03 4.129091644287109375e+01 -1.060758113861083984e+01 -3.305624723434448242e-01 7.464670181274414062e+00 2.140232324600219727e+00 1.118959426879882812e+00
2.174000000000000000e+03 4.801642990112304688e+01 2.066049766540527344e+01 -6.541936099529266357e-02 6.514966487884521484e+00 1.934864044189453125e+00 5.936776399612426758e-01
2.175000000000000000e+03 4.665991210937500000e+01 1.914934349060058594e+01 5.679096654057502747e-02 6.816515445709228516e+00 2.061991930007934570e+00 3.723490238189697266e-01
2.176000000000000000e+03 2.607672500610351562e+01 -6.689924716949462891e+00 1.308406472206115723e+00 1.994218468666076660e+00 9.907875061035156250e-01 -2.400509595870971680e+00
2.177000000000000000e+03 6.558734130859375000e+01 3.805976152420043945e+00 -1.194938197731971741e-01 3.908914804458618164e+00 1.136826276779174805e+00 8.992919325828552246e-01
2.178000000000000000e+03 6.582106781005859375e+01 5.704292774200439453e+00 -1.501996908336877823e-02 4.215247631072998047e+00 1.260068297386169434e+00 1.245265960693359375e+00
2.179000000000000000e+03 5.552381515502929688e+01 -3.504295730590820312e+01 3.472400605678558350e-01 1.198968291282653809e+00 4.638624787330627441e-01 -8.923766613006591797e-01
2.180000000000000000e+03 5.785928726196289062e+01 -3.574666213989257812e+01 5.474534034729003906e-01 1.159063339233398438e+00 5.119550228118896484e-01 -3.571885824203491211e-01
2.181000000000000000e+03 6.140519332885742188e+01 -3.229259872436523438e+01 -3.233810365200042725e-01 1.377697110176086426e+00 3.162948191165924072e-01 5.824197530746459961e-01
2.182000000000000000e+03 6.293326950073242188e+01 -3.293304443359375000e+01 -2.525269985198974609e-01 2.241584539413452148e+00 5.967172384262084961e-01 8.212159276008605957e-01
2.183000000000000000e+03 7.226505279541015625e+01 1.593570137023925781e+01 1.269953012466430664e+00 9.311436653137207031e+00 3.174416780471801758e+00 4.068491160869598389e-01
2.184000000000000000e+03 5.222747039794921875e+01 -3.505070877075195312e+01 -2.027451246976852417e-01 2.570326566696166992e+00 7.102744579315185547e-01 -1.416153073310852051e+00
2.185000000000000000e+03 3.998489379882812500e+01 -2.262726783752441406e+01 2.276848316192626953e+00 9.170068740844726562e+00 3.434075117111206055e+00 -4.158406332135200500e-02
2.186000000000000000e+03 3.703928375244140625e+01 2.141241264343261719e+01 -5.382552742958068848e-01 2.377267599105834961e+00 5.517036914825439453e-01 -1.090280532836914062e+00
2.187000000000000000e+03 3.715513229370117188e+01 2.615789794921875000e+01 -5.071682929992675781e-01 2.648270845413208008e+00 6.423307657241821289e-01 -1.012642264366149902e+00
2.188000000000000000e+03 4.001865386962890625e+01 -3.306439590454101562e+01 -1.211665868759155273e+00 6.553898811340332031e+00 1.602669835090637207e+00 5.419684946537017822e-02
2.189000000000000000e+03 3.479811096191406250e+01 -3.115416717529296875e+01 -6.244967579841613770e-01 5.057018756866455078e+00 1.329756617546081543e+00 1.535851120948791504e+00
2.190000000000000000e+03 1.718773460388183594e+01 4.953675270080566406e+00 5.833722352981567383e-01 7.757246017456054688e+00 2.502185583114624023e+00 4.936352670192718506e-01
2.191000000000000000e+03 3.122692489624023438e+01 2.262932205200195312e+01 -1.013865351676940918e+00 5.464137196540832520e-01 -1.402354985475540161e-01 -3.319772779941558838e-01
2.192000000000000000e+03 1.427162170410156250e+01 1.775492668151855469e+01 1.079259991645812988e+00 8.015114784240722656e+00 2.728312492370605469e+00 -2.650239169597625732e-01
2.193000000000000000e+03 9.890695571899414062e+00 -1.664221382141113281e+01 2.055240869522094727e+00 1.073289585113525391e+01 3.836441040039062500e+00 5.518593788146972656e-01
2.194000000000000000e+03 4.177282810211181641e+00 -1.934285926818847656e+01 6.585717797279357910e-01 4.298184394836425781e+00 1.487026810646057129e+00 8.370181918144226074e-01
2.195000000000000000e+03 6.076441574096679688e+01 2.552039337158203125e+01 -8.715570569038391113e-01 4.003257155418395996e-01 -1.413694024085998535e-01 1.960300505161285400e-01
2.196000000000000000e+03 4.610319519042968750e+01 -3.023386955261230469e+00 -8.032354116439819336e-01 8.847406387329101562e+00 2.413251399993896484e+00 5.232299491763114929e-02
2.197000000000000000e+03 4.571196746826171875e+01 -2.088920325040817261e-01 8.247108459472656250e-01 1.009622097015380859e+01 3.276279687881469727e+00 9.717684984207153320e-02
2.198000000000000000e+03 7.123894500732421875e+01 -1.608526229858398438e+01 1.517928838729858398e+00 1.019238471984863281e+01 3.513094186782836914e+00 3.095081448554992676e-01
2.199000000000000000e+03 7.197482299804687500e+01 1.494075489044189453e+01 1.444660425186157227e+00 9.124893188476562500e+00 3.170866250991821289e+00 4.881313815712928772e-02
2.200000000000000000e+03 3.199098968505859375e+01 -3.416483306884765625e+01 -7.126148343086242676e-01 2.810178518295288086e+00 6.292691230773925781e-01 1.481195092201232910e+00
2.201000000000000000e+03 5.683248138427734375e+01 -3.430225610733032227e+00 9.712876677513122559e-01 -1.702557057142257690e-01 2.403095811605453491e-01 -2.688349485397338867e-01
2.202000000000000000e+03 4.652659225463867188e+01 -9.758255004882812500e+00 -8.235912322998046875e-01 8.547516822814941406e+00 2.317177534103393555e+00 1.457766532897949219e+00
2.203000000000000000e+03 4.167975997924804688e+01 -9.451506614685058594e+00 -9.780354499816894531e-01 7.757194995880126953e+00 2.033747911453247070e+00 1.289180040359497070e+00
2.204000000000000000e+03 3.920398330688476562e+01 -2.924569511413574219e+01 -1.509074568748474121e-01 7.557533740997314453e+00 2.221987962722778320e+00 1.609158664941787720e-01
2.205000000000000000e+03 5.313392639160156250e+01 -3.260334253311157227e+00 1.231331944465637207e+00 6.278050541877746582e-01 5.577411055564880371e-01 -1.648391485214233398e-01
2.206000000000000000e+03 1.527259159088134766e+01 -3.344131469726562500e+01 -6.845259070396423340e-01 2.530349254608154297e+00 5.537469983100891113e-01 -5.276010632514953613e-01
2.207000000000000000e+03 6.516673278808593750e+01 -8.479972839355468750e+00 -2.730824649333953857e-01 3.452888965606689453e+00 9.539419412612915039e-01 -1.160612225532531738e+00
2.208000000000000000e+03 6.460894012451171875e+01 -7.184763908386230469e+00 -8.489334583282470703e-02 3.006587982177734375e+00 8.765084147453308105e-01 -9.488956332206726074e-01
2.209000000000000000e+03 4.283312606811523438e+01 -7.276607036590576172e+00 -2.194429397583007812e+00 8.874099731445312500e+00 2.003901243209838867e+00 1.372939944267272949e+00
2.210000000000000000e+03 1.607737350463867188e+01 2.194920921325683594e+01 -5.270870327949523926e-01 7.642786026000976562e+00 2.134709596633911133e+00 -1.826477497816085815e-01
2.211000000000000000e+03 1.824746131896972656e+01 2.235561180114746094e+01 -8.052092790603637695e-01 7.181219577789306641e+00 1.912803173065185547e+00 1.006072640419006348e+00
2.212000000000000000e+03 5.090887451171875000e+01 -5.445434093475341797e+00 -1.990078240633010864e-01 2.326978921890258789e+00 6.383913755416870117e-01 7.042922377586364746e-01
2.213000000000000000e+03 5.670740509033203125e+01 -4.624916553497314453e+00 5.161921381950378418e-01 -1.317873895168304443e-01 1.153214201331138611e-01 -3.920451998710632324e-01
2.214000000000000000e+03 5.590490341186523438e+01 -2.179862499237060547e+00 1.255680203437805176e+00 -1.399778276681900024e-01 3.347107172012329102e-01 -1.447355896234512329e-01
2.215000000000000000e+03 7.096889495849609375e+01 9.310108184814453125e+00 8.766532689332962036e-02 8.366921424865722656e+00 2.536375999450683594e+00 -2.437048554420471191e-01
2.216000000000000000e+03 6.639768600463867188e+00 -2.444236755371093750e+01 -5.585823208093643188e-02 6.421416282653808594e+00 1.909667372703552246e+00 1.546599268913269043e+00
2.217000000000000000e+03 4.018487548828125000e+01 -2.828724098205566406e+01 3.282541334629058838e-01 7.756702423095703125e+00 2.425487041473388672e+00 1.077129389159381390e-03
2.218000000000000000e+03 3.578840637207031250e+01 -3.276126098632812500e+01 -1.102599501609802246e+00 5.529468059539794922e+00 1.328060507774353027e+00 1.081851482391357422e+00
2.219000000000000000e+03 5.917769622802734375e+01 2.706592178344726562e+01 -2.336839586496353149e-01 1.003253102302551270e+00 2.308707535266876221e-01 7.491762042045593262e-01
2.220000000000000000e+03 4.045535659790039062e+01 -2.402803039550781250e+01 1.946412086486816406e+00 8.814463615417480469e+00 3.228262901306152344e+00 4.313039407134056091e-02
2.221000000000000000e+03 4.744335937500000000e+01 -6.865583896636962891e+00 -1.687976121902465820e+00 7.083744525909423828e+00 1.618730425834655762e+00 1.026909112930297852e+00
2.222000000000000000e+03 4.665522766113281250e+01 -3.604277038574218750e+01 -1.031442284584045410e+00 4.989759922027587891e+00 1.187495231628417969e+00 -1.080493807792663574e+00
2.223000000000000000e+03 4.016531753540039062e+01 -2.612376976013183594e+01 1.283583402633666992e+00 8.244511604309082031e+00 2.858428478240966797e+00 2.965635620057582855e-02
2.224000000000000000e+03 3.916435241699218750e+01 -2.481798744201660156e+01 1.938057541847229004e+00 8.947408676147460938e+00 3.265640020370483398e+00 4.289257824420928955e-01
2.225000000000000000e+03 7.221145629882812500e+01 -6.940102577209472656e+00 -7.004804611206054688e-01 7.454769134521484375e+00 2.026286602020263672e+00 3.101443648338317871e-01
2.226000000000000000e+03 7.054381561279296875e+01 -1.506524181365966797e+01 1.323240280151367188e+00 1.006492328643798828e+01 3.416449069976806641e+00 1.883134543895721436e-01
2.227000000000000000e+03 7.083070373535156250e+01 -1.154191875457763672e+01 -3.876564204692840576e-01 8.704768180847167969e+00 2.495133638381958008e+00 3.380466699600219727e-01
2.228000000000000000e+03 5.990122604370117188e+01 -3.324941253662109375e+01 -1.862989924848079681e-02 8.852724432945251465e-01 2.599927783012390137e-01 2.946173846721649170e-01
2.229000000000000000e+03 6.338964843750000000e+01 -3.508012008666992188e+01 1.184268891811370850e-01 2.646124362945556641e+00 8.293653726577758789e-01 6.725574135780334473e-01
2.230000000000000000e+03 6.067433166503906250e+01 -3.562689590454101562e+01 3.915307819843292236e-01 1.663784623146057129e+00 6.165946125984191895e-01 3.271161019802093506e-01
2.231000000000000000e+03 6.755378723144531250e+01 2.508463096618652344e+01 -1.296948909759521484e+00 5.476438522338867188e+00 1.253846883773803711e+00 -1.607473134994506836e+00
2.232000000000000000e+03 4.523469161987304688e+01 -2.584998703002929688e+01 1.373030304908752441e+00 8.388679504394531250e+00 2.928513050079345703e+00 -1.472547888755798340e+00
2.233000000000000000e+03 4.172170639038085938e+01 -6.650044918060302734e+00 -2.282044410705566406e+00 8.154372215270996094e+00 1.761698246002197266e+00 1.817117691040039062e+00
2.234000000000000000e+03 4.251423645019531250e+01 -3.026996850967407227e+00 -1.038072824478149414e+00 1.032023429870605469e+01 2.784648418426513672e+00 1.351842164993286133e+00
2.235000000000000000e+03 8.313915252685546875e+00 -1.791349220275878906e+01 1.820629835128784180e+00 8.324328422546386719e+00 3.043487548828125000e+00 7.360028028488159180e-01
2.236000000000000000e+03 7.173735046386718750e+01 -1.441804504394531250e+01 7.409455776214599609e-01 9.229697227478027344e+00 2.991192817687988281e+00 7.332440614700317383e-01
2.237000000000000000e+03 9.630762100219726562e+00 -2.675907325744628906e+01 -1.017255783081054688e+00 6.676134109497070312e+00 1.697663545608520508e+00 6.547028422355651855e-01
2.238000000000000000e+03 7.185618591308593750e+01 -2.140918540954589844e+01 1.271103978157043457e+00 9.140294075012207031e+00 3.123419523239135742e+00 -7.630043029785156250e-01
2.239000000000000000e+03 4.446842193603515625e+01 -5.370755195617675781e+00 -2.274470329284667969e+00 9.524523735046386719e+00 2.175015926361083984e+00 8.874545097351074219e-01
2.240000000000000000e+03 4.603879547119140625e+01 -3.161378097534179688e+01 -6.610645651817321777e-01 6.123930454254150391e+00 1.638859748840332031e+00 -1.434596896171569824e+00
2.241000000000000000e+03 4.833996963500976562e+01 -3.291849517822265625e+01 -6.549555659294128418e-01 4.748581886291503906e+00 1.228087902069091797e+00 -1.675233006477355957e+00
2.242000000000000000e+03 4.009896850585937500e+01 -7.561553478240966797e+00 -1.604924321174621582e+00 6.253455162048339844e+00 1.394559264183044434e+00 1.585206270217895508e+00
2.243000000000000000e+03 6.730559539794921875e+01 -2.993420028686523438e+01 -8.487126231193542480e-01 5.251588344573974609e+00 1.320862770080566406e+00 7.646090984344482422e-01
2.244000000000000000e+03 4.666202545166015625e+00 2.067887783050537109e+00 4.768308997154235840e-02 1.560792475938796997e-01 6.112869828939437866e-02 3.588200211524963379e-01
2.245000000000000000e+03 4.547144412994384766e+00 -2.625072479248046875e+00 9.088286757469177246e-01 6.765979528427124023e-01 4.756279885768890381e-01 6.914513111114501953e-01
2.246000000000000000e+03 5.744274616241455078e+00 -2.691049337387084961e+00 1.545273661613464355e+00 1.303018212318420410e+00 8.544875979423522949e-01 1.573407769203186035e+00
2.247000000000000000e+03 9.478442192077636719e+00 1.681249141693115234e+00 1.698430418968200684e+00 9.950322151184082031e+00 3.494625806808471680e+00 -4.984966278076171875e+00
2.248000000000000000e+03 6.466722011566162109e+00 -2.039362907409667969e+00 2.087485790252685547e+00 1.125528454780578613e+00 9.639042615890502930e-01 1.807914376258850098e+00
2.249000000000000000e+03 7.861862182617187500e+00 2.457055807113647461e+00 1.716009616851806641e+00 2.907813072204589844e+00 1.387146830558776855e+00 -2.289074182510375977e+00
2.250000000000000000e+03 7.147042751312255859e+00 -2.039773464202880859e+00 2.739833354949951172e+00 1.767829656600952148e+00 1.352298974990844727e+00 2.621571540832519531e+00
2.251000000000000000e+03 7.420003414154052734e+00 2.066090345382690430e+00 1.444421648979187012e+00 1.474228143692016602e+00 8.755949735641479492e-01 -1.407039284706115723e+00
2.252000000000000000e+03 6.969649314880371094e+00 2.264162063598632812e+00 1.188377380371093750e+00 1.214197397232055664e+00 7.207724452018737793e-01 -9.955165386199951172e-01
2.253000000000000000e+03 7.957191944122314453e+00 -2.213577270507812500e+00 3.317484855651855469e+00 3.609356403350830078e+00 2.078052282333374023e+00 4.170624256134033203e+00
2.254000000000000000e+03 7.599919319152832031e+00 -2.594743490219116211e+00 2.736766099929809570e+00 3.422943830490112305e+00 1.847912907600402832e+00 3.774842739105224609e+00
2.255000000000000000e+03 6.429133415222167969e+00 2.259329795837402344e+00 8.906164765357971191e-01 8.235195875167846680e-01 5.142408013343811035e-01 -5.284499526023864746e-01
2.256000000000000000e+03 5.787530899047851562e+00 2.211686372756958008e+00 5.482679605484008789e-01 4.352586865425109863e-01 2.950580120086669922e-01 -8.929879218339920044e-02
2.257000000000000000e+03 5.143559455871582031e+00 2.305857658386230469e+00 3.244839906692504883e-01 3.259692490100860596e-01 1.951359659433364868e-01 1.535723507404327393e-01
2.258000000000000000e+03 5.250412940979003906e+00 2.548235654830932617e+00 5.649496316909790039e-01 4.314323663711547852e-01 2.989146113395690918e-01 1.688455976545810699e-02
2.259000000000000000e+03 4.931378364562988281e+00 2.384865522384643555e+00 3.077919483184814453e-01 2.796251177787780762e-01 1.762251257896423340e-01 2.223893702030181885e-01
2.260000000000000000e+03 9.466621398925781250e+00 -2.375174999237060547e+00 2.230743408203125000e+00 1.060462570190429688e+01 3.850610733032226562e+00 5.638408184051513672e+00
2.261000000000000000e+03 9.113682746887207031e+00 -1.699683547019958496e+00 4.329673767089843750e+00 8.073541641235351562e+00 3.720964431762695312e+00 6.457840442657470703e+00
2.262000000000000000e+03 9.151893615722656250e+00 -2.111100196838378906e+00 3.159751892089843750e+00 8.768830299377441406e+00 3.578574657440185547e+00 6.003355026245117188e+00
2.263000000000000000e+03 9.838701248168945312e+00 2.511158466339111328e+00 4.128545224666595459e-01 1.128814888000488281e+01 3.510300874710083008e+00 -3.134726524353027344e+00
2.264000000000000000e+03 3.774228811264038086e+00 2.497694015502929688e+00 1.301494687795639038e-01 6.288984417915344238e-02 5.791179090738296509e-02 4.482532143592834473e-01
2.265000000000000000e+03 1.266125106811523438e+01 9.607712626457214355e-01 5.997669696807861328e+00 1.127309608459472656e+01 5.181229591369628906e+00 2.537653923034667969e+00
2.266000000000000000e+03 1.231933879852294922e+01 4.568348079919815063e-02 8.436773300170898438e+00 1.133253955841064453e+01 5.930793762207031250e+00 1.327880144119262695e+00
2.267000000000000000e+03 1.144130611419677734e+01 -1.452715396881103516e+00 5.134615421295166016e+00 1.512440109252929688e+01 6.077704906463623047e+00 -8.468152880668640137e-01
2.268000000000000000e+03 9.758087158203125000e+00 -2.532266139984130859e+00 1.566613435745239258e+00 1.148728084564208984e+01 3.916168451309204102e+00 4.846130371093750000e+00
2.269000000000000000e+03 1.037453079223632812e+01 2.120615243911743164e+00 2.519879043102264404e-01 1.455820083618164062e+01 4.443056583404541016e+00 -1.833776712417602539e+00
2.270000000000000000e+03 1.046032810211181641e+01 -2.391127586364746094e+00 1.380514860153198242e+00 1.418044757843017578e+01 4.668288707733154297e+00 3.036173343658447266e+00
2.271000000000000000e+03 1.265414428710937500e+01 -1.111468896269798279e-01 7.722798824310302734e+00 1.043676853179931641e+01 5.447870254516601562e+00 8.320899009704589844e-01
2.272000000000000000e+03 1.256418037414550781e+01 1.350113004446029663e-01 7.746762275695800781e+00 1.084498214721679688e+01 5.577523231506347656e+00 1.425347089767456055e+00
2.273000000000000000e+03 1.122280597686767578e+01 2.372969865798950195e+00 7.579147815704345703e-01 1.439148998260498047e+01 4.544821262359619141e+00 7.248151898384094238e-01
2.274000000000000000e+03 1.155887603759765625e+01 1.596007585525512695e+00 3.174327611923217773e+00 1.509002590179443359e+01 5.479305744171142578e+00 2.653634309768676758e+00
2.275000000000000000e+03 1.169003963470458984e+01 -1.626817941665649414e+00 4.740171909332275391e+00 1.388684558868408203e+01 5.588105201721191406e+00 -9.046380519866943359e-01
2.276000000000000000e+03 1.203372955322265625e+01 -1.330580711364746094e+00 5.921595573425292969e+00 1.259153366088867188e+01 5.553938865661621094e+00 -1.074801087379455566e+00
2.277000000000000000e+03 1.620878982543945312e+01 5.420010089874267578e+00 3.769181668758392334e-01 8.554738044738769531e+00 2.679497003555297852e+00 8.879678845405578613e-01
2.278000000000000000e+03 1.142568683624267578e+01 2.888975143432617188e+00 3.227793872356414795e-01 1.304055786132812500e+01 4.009001255035400391e+00 6.040443778038024902e-01
2.279000000000000000e+03 1.184889125823974609e+01 -1.473972797393798828e+00 5.328135490417480469e+00 1.334905719757080078e+01 5.603157520294189453e+00 -1.056373357772827148e+00
2.280000000000000000e+03 1.207108592987060547e+01 -8.547646999359130859e-01 7.733781337738037109e+00 1.235849475860595703e+01 6.027682781219482422e+00 -7.944190502166748047e-01
2.281000000000000000e+03 2.123006105422973633e+00 -5.329444885253906250e+00 1.821885406970977783e-01 7.398428916931152344e-01 2.766094207763671875e-01 4.292354285717010498e-01
2.282000000000000000e+03 3.471344232559204102e+00 2.165343284606933594e+00 -3.991573676466941833e-02 -7.539079524576663971e-03 -1.423644460737705231e-02 5.044537186622619629e-01
2.283000000000000000e+03 1.017505884170532227e+00 -2.353670120239257812e+00 9.659806266427040100e-03 -1.953802108764648438e-01 -5.571612343192100525e-02 -1.660408526659011841e-01
2.284000000000000000e+03 3.768617630004882812e+00 -2.473401784896850586e+00 5.834619402885437012e-01 4.544367790222167969e-01 3.113695979118347168e-01 3.069463074207305908e-01
2.285000000000000000e+03 3.722792148590087891e+00 -3.425658702850341797e+00 6.564452648162841797e-01 8.120558261871337891e-01 4.405503571033477783e-01 5.745790600776672363e-01
2.286000000000000000e+03 1.585520505905151367e+00 -1.752192497253417969e+00 1.782037876546382904e-02 -3.441459313035011292e-02 -4.978264681994915009e-03 -2.153725624084472656e-01
2.287000000000000000e+03 1.719791650772094727e+00 -3.232047796249389648e+00 1.979844719171524048e-01 1.027741879224777222e-01 9.022759646177291870e-02 1.066179666668176651e-02
2.288000000000000000e+03 1.944765090942382812e+00 -2.488873243331909180e+00 1.536969840526580811e-01 6.999832391738891602e-02 6.710859388113021851e-02 -9.466143697500228882e-02
2.289000000000000000e+03 3.805265903472900391e+00 1.925548553466796875e+00 -1.444773674011230469e-01 1.983282901346683502e-02 -3.739336133003234863e-02 4.910494387149810791e-01
2.290000000000000000e+03 2.792789459228515625e+00 -2.240977287292480469e+00 2.867260873317718506e-01 1.986072957515716553e-01 1.456000208854675293e-01 -3.027678281068801880e-02
2.291000000000000000e+03 2.959406614303588867e+00 1.989645838737487793e+00 -1.300195902585983276e-01 -6.871060281991958618e-02 -5.961905792355537415e-02 5.185481905937194824e-01
2.292000000000000000e+03 3.356673240661621094e+00 2.532707214355468750e+00 9.376312047243118286e-02 -1.700615161098539829e-03 2.761875092983245850e-02 4.800213873386383057e-01
2.293000000000000000e+03 1.141698002815246582e+00 -3.579191923141479492e+00 1.108230426907539368e-01 -1.005709692835807800e-01 3.075622487813234329e-03 -1.562018506228923798e-02
2.294000000000000000e+03 1.449708843231201172e+01 -1.046158790588378906e+01 -3.285597801208496094e+00 3.866665363311767578e+00 1.743202358484268188e-01 2.587378263473510742e+00
2.295000000000000000e+03 1.168922996520996094e+01 -1.091282176971435547e+01 -3.485392332077026367e+00 8.852188110351562500e+00 1.610038638114929199e+00 2.191097259521484375e+00
2.296000000000000000e+03 8.007658958435058594e+00 -1.173042201995849609e+01 -1.726714015007019043e+00 7.818785667419433594e+00 1.827621579170227051e+00 6.099103689193725586e-01
2.297000000000000000e+03 2.276332092285156250e+01 -1.057279014587402344e+01 -1.359449267387390137e+00 9.632121920585632324e-01 -1.188711300492286682e-01 -1.329444050788879395e+00
2.298000000000000000e+03 2.092290878295898438e+00 -6.281899452209472656e+00 7.923614233732223511e-02 9.808035492897033691e-01 3.180119097232818604e-01 4.845489561557769775e-01
2.299000000000000000e+03 9.668025970458984375e+00 -1.449207019805908203e+01 4.364477097988128662e-02 9.734165191650390625e+00 2.933342933654785156e+00 1.055423766374588013e-01
2.300000000000000000e+03 6.072971343994140625e+01 -6.538374900817871094e+00 1.775094717741012573e-01 7.909610271453857422e-01 2.905411422252655029e-01 -4.017248451709747314e-01
2.301000000000000000e+03 2.433521652221679688e+01 -6.202125549316406250e+00 1.599624752998352051e+00 1.603592157363891602e+00 9.609650373458862305e-01 -2.249669313430786133e+00
2.302000000000000000e+03 3.312689781188964844e+00 -7.905568122863769531e+00 -1.888620406389236450e-01 2.511785984039306641e+00 6.968771815299987793e-01 8.298420906066894531e-01
2.303000000000000000e+03 3.012449741363525391e+00 -7.076001644134521484e+00 -3.218492120504379272e-02 1.930445909500122070e+00 5.694782733917236328e-01 7.591505050659179688e-01
2.304000000000000000e+03 2.878486394882202148e+00 -6.201894760131835938e+00 1.327531039714813232e-01 1.511312127113342285e+00 4.932195842266082764e-01 7.387225627899169922e-01
2.305000000000000000e+03 4.454617691040039062e+01 -1.136457443237304688e+00 4.437263607978820801e-01 1.080332660675048828e+01 3.374115943908691406e+00 4.980256557464599609e-01
2.306000000000000000e+03 3.439342117309570312e+01 -1.387186145782470703e+01 2.436053037643432617e+00 4.669262409210205078e+00 2.131594657897949219e+00 -2.510914087295532227e+00
2.307000000000000000e+03 4.505339050292968750e+01 4.317284107208251953e+00 1.585597634315490723e+00 1.289617729187011719e+01 4.344532489776611328e+00 7.367724776268005371e-01
2.308000000000000000e+03 4.131852722167968750e+01 1.686202621459960938e+01 -8.466195315122604370e-03 5.077753543853759766e+00 1.520786285400390625e+00 -1.154951333999633789e+00
2.309000000000000000e+03 4.120763015747070312e+01 1.908850097656250000e+01 -3.178715109825134277e-01 4.617243766784667969e+00 1.289811611175537109e+00 -1.091570496559143066e+00
2.310000000000000000e+03 4.321848678588867188e+01 -8.839838981628417969e+00 -1.525317668914794922e+00 8.757746696472167969e+00 2.169728755950927734e+00 1.228116512298583984e+00
2.311000000000000000e+03 4.553691864013671875e+01 -8.557506561279296875e+00 -1.628279924392700195e+00 8.876411437988281250e+00 2.174439430236816406e+00 1.172727346420288086e+00
2.312000000000000000e+03 4.169689559936523438e+01 -1.861142539978027344e+01 2.464209556579589844e+00 9.276289939880371094e+00 3.522149801254272461e+00 1.212165579199790955e-01
2.313000000000000000e+03 2.020324945449829102e+00 6.233748912811279297e+00 1.551384329795837402e-01 -2.104342430830001831e-01 -1.658874563872814178e-02 -5.428914446383714676e-03
2.314000000000000000e+03 2.724534034729003906e+00 2.986943244934082031e+00 1.228494569659233093e-01 -1.173002868890762329e-01 1.664751674979925156e-03 4.605621695518493652e-01
2.315000000000000000e+03 3.714303207397460938e+01 -1.544771671295166016e+01 2.658820152282714844e+00 7.432608127593994141e+00 3.027428388595581055e+00 -1.073906302452087402e+00
2.316000000000000000e+03 4.227613067626953125e+01 -2.185024642944335938e+01 2.419951200485229492e+00 9.275726318359375000e+00 3.508703231811523438e+00 -4.435589015483856201e-01
2.317000000000000000e+03 5.798403549194335938e+01 -4.633001327514648438e+00 5.546423792839050293e-01 1.014579162001609802e-01 1.968300938606262207e-01 -3.042336106300354004e-01
2.318000000000000000e+03 3.020799160003662109e+00 8.116855621337890625e+00 1.539328545331954956e-01 7.584334015846252441e-01 2.737098932266235352e-01 -3.506880998611450195e-01
2.319000000000000000e+03 7.057013702392578125e+01 7.722645282745361328e+00 -2.111453562974929810e-01 7.810524463653564453e+00 2.279813766479492188e+00 -8.107084780931472778e-02
2.320000000000000000e+03 6.858272552490234375e+01 6.352251052856445312e+00 -3.550589680671691895e-01 6.726367950439453125e+00 1.911392807960510254e+00 6.610187292098999023e-01
2.321000000000000000e+03 2.797900009155273438e+01 -8.662796974182128906e+00 3.862589001655578613e-01 1.828806519508361816e+00 6.645196080207824707e-01 -2.977141857147216797e+00
2.322000000000000000e+03 4.405571746826171875e+01 1.381826686859130859e+01 3.115685284137725830e-01 8.357031822204589844e+00 2.600580215454101562e+00 -9.939530491828918457e-02
2.323000000000000000e+03 1.563739013671875000e+01 7.616391181945800781e+00 -2.354727089405059814e-01 9.410330772399902344e+00 2.752457618713378906e+00 7.681686282157897949e-01
2.324000000000000000e+03 6.424633026123046875e+01 1.144954562187194824e+00 1.602101922035217285e-01 2.890889644622802734e+00 9.153299331665039062e-01 4.766530990600585938e-01
2.325000000000000000e+03 1.942597985267639160e+00 3.685081243515014648e+00 1.278332620859146118e-01 -3.350438773632049561e-01 -6.216318905353546143e-02 3.665997385978698730e-01
2.326000000000000000e+03 1.745438766479492188e+01 -9.634435653686523438e+00 -1.610880613327026367e+00 4.882424175739288330e-01 -3.367914855480194092e-01 -2.262162268161773682e-01
2.327000000000000000e+03 1.548365211486816406e+01 -1.029810905456542969e+01 -2.939201354980468750e+00 2.166446208953857422e+00 -2.318265289068222046e-01 1.800216317176818848e+00
2.328000000000000000e+03 1.452813529968261719e+01 -9.447900772094726562e+00 -2.544430017471313477e+00 4.414043903350830078e+00 5.608841180801391602e-01 2.106534957885742188e+00
2.329000000000000000e+03 2.144557189941406250e+01 -1.530204296112060547e+00 2.998537540435791016e+00 1.880222320556640625e+00 1.463627934455871582e+00 -2.119427442550659180e+00
2.330000000000000000e+03 1.722243499755859375e+01 4.100126266479492188e+00 9.426168799400329590e-01 7.294739723205566406e+00 2.471207141876220703e+00 3.992301821708679199e-01
2.331000000000000000e+03 6.027661132812500000e+01 -8.629903197288513184e-01 8.230254650115966797e-01 7.064403295516967773e-01 4.588397443294525146e-01 2.508418634533882141e-02
2.332000000000000000e+03 6.576322174072265625e+01 -6.480775833129882812e+00 -2.933102846145629883e-01 3.872803211212158203e+00 1.073847889900207520e+00 -8.353579640388488770e-01
2.333000000000000000e+03 6.019076347351074219e+00 -3.069666671752929688e+01 -5.975627899169921875e-01 5.779724597930908203e+00 1.554648518562316895e+00 8.291093707084655762e-01
2.334000000000000000e+03 4.879070281982421875e+00 -3.124320793151855469e+01 -4.236477613449096680e-01 5.790742397308349609e+00 1.610128283500671387e+00 8.007338643074035645e-01
2.335000000000000000e+03 4.798813343048095703e+00 -1.176972007751464844e+01 -5.424122810363769531e-01 4.569844245910644531e+00 1.208229660987854004e+00 2.158931791782379150e-01
2.336000000000000000e+03 3.765912771224975586e+00 -8.562537193298339844e+00 -3.529879748821258545e-01 2.974948167800903320e+00 7.865880727767944336e-01 8.584427237510681152e-01
2.337000000000000000e+03 6.174222946166992188e+01 -7.353813171386718750e+00 1.321103870868682861e-01 1.077527880668640137e+00 3.628914654254913330e-01 -5.009718537330627441e-01
2.338000000000000000e+03 6.372305679321289062e+01 -2.159475326538085938e+00 2.670274674892425537e-01 2.559503316879272461e+00 8.479592204093933105e-01 -8.537998795509338379e-02
2.339000000000000000e+03 7.057339668273925781e+00 -2.627057647705078125e+01 -5.405096411705017090e-01 6.345442771911621094e+00 1.741479992866516113e+00 1.392319202423095703e+00
2.340000000000000000e+03 4.667434692382812500e+01 1.565385150909423828e+01 5.806832313537597656e-01 8.490026473999023438e+00 2.721213102340698242e+00 1.111299633979797363e+00
2.341000000000000000e+03 5.607966899871826172e+00 -2.323718261718750000e+01 2.647526562213897705e-01 5.825831890106201172e+00 1.827175378799438477e+00 1.625718951225280762e+00
2.342000000000000000e+03 4.531913757324218750e+00 -2.476331138610839844e+01 -4.495885968208312988e-02 5.364949226379394531e+00 1.595997095108032227e+00 1.569736003875732422e+00
2.343000000000000000e+03 5.551068305969238281e+00 -2.045486068725585938e+01 8.651025295257568359e-01 5.549077987670898438e+00 1.924254059791564941e+00 1.253749251365661621e+00
2.344000000000000000e+03 5.081897735595703125e+00 -1.654720306396484375e+01 6.434591412544250488e-01 4.948919773101806641e+00 1.677713632583618164e+00 1.754667758941650391e-01
2.345000000000000000e+03 4.063954353332519531e+00 -1.801574897766113281e+01 5.717861652374267578e-01 4.104279041290283203e+00 1.402819633483886719e+00 4.935191869735717773e-01
2.346000000000000000e+03 6.667585372924804688e+00 -2.002106857299804688e+01 1.145431399345397949e+00 6.542515754699707031e+00 2.306384086608886719e+00 1.214757323265075684e+00
2.347000000000000000e+03 8.168612480163574219e+00 -2.541531181335449219e+01 -4.052759408950805664e-01 6.729351520538330078e+00 1.897222638130187988e+00 1.257181644439697266e+00
2.348000000000000000e+03 8.615605354309082031e+00 -2.378117561340332031e+01 1.232208497822284698e-02 7.478701591491699219e+00 2.247307062149047852e+00 1.347215771675109863e+00
2.349000000000000000e+03 1.358351802825927734e+01 -3.017294692993164062e+01 -1.075210928916931152e+00 3.805479526519775391e+00 8.190805912017822266e-01 -5.779743790626525879e-01
2.350000000000000000e+03 5.661108970642089844e+00 -2.186406517028808594e+01 6.182096004486083984e-01 5.794680595397949219e+00 1.923867106437683105e+00 1.537483453750610352e+00
2.351000000000000000e+03 7.019340038299560547e+00 -1.277546501159667969e+01 -8.306634426116943359e-01 6.851544857025146484e+00 1.806264400482177734e+00 1.559901237487792969e-01
2.352000000000000000e+03 5.509891033172607422e+00 -2.956366729736328125e+01 -5.665271282196044922e-01 5.830762863159179688e+00 1.579270720481872559e+00 1.050604462623596191e+00
2.353000000000000000e+03 7.553053283691406250e+01 3.254461669921875000e+01 -1.155560314655303955e-01 7.820146083831787109e+00 2.311377048492431641e+00 -1.365430206060409546e-01
2.354000000000000000e+03 7.411386871337890625e+01 2.777852630615234375e+01 -5.153005719184875488e-01 7.814550399780273438e+00 2.189774990081787109e+00 1.224011108279228210e-01
2.355000000000000000e+03 7.468614959716796875e+01 -3.117161178588867188e+01 -3.982206284999847412e-01 7.696388721466064453e+00 2.189450502395629883e+00 -3.794787824153900146e-01
2.356000000000000000e+03 4.988770961761474609e+00 -1.530668830871582031e+01 3.210038542747497559e-01 4.784275531768798828e+00 1.531583786010742188e+00 4.862618818879127502e-02
2.357000000000000000e+03 6.059648990631103516e+00 -3.558377456665039062e+01 -4.420975446701049805e-01 5.517731666564941406e+00 1.522690176963806152e+00 2.855879366397857666e-01
2.358000000000000000e+03 3.252698898315429688e+01 -1.097327995300292969e+01 1.214767575263977051e+00 2.074482202529907227e+00 9.867749214172363281e-01 -2.844077825546264648e+00
2.359000000000000000e+03 4.844356536865234375e+00 -1.289977931976318359e+01 -3.583326637744903564e-01 4.682284832000732422e+00 1.297185659408569336e+00 8.986729383468627930e-02
2.360000000000000000e+03 7.356644439697265625e+01 -2.904059410095214844e+01 -6.031199693679809570e-01 7.780721187591552734e+00 2.153280258178710938e+00 -5.592004060745239258e-01
2.361000000000000000e+03 1.632492256164550781e+01 -9.090098381042480469e+00 -1.447224378585815430e+00 2.155312538146972656e+00 2.124264389276504517e-01 6.897054314613342285e-01
2.362000000000000000e+03 7.514540100097656250e+01 2.509144592285156250e+01 -3.810602724552154541e-01 8.082284927368164062e+00 2.310367584228515625e+00 6.472772955894470215e-01
2.363000000000000000e+03 2.094647789001464844e+01 -8.485068321228027344e+00 -2.181449234485626221e-01 1.102099180221557617e+00 2.651862800121307373e-01 -1.707242369651794434e+00
2.364000000000000000e+03 7.375823211669921875e+01 2.003964424133300781e+01 3.193222284317016602e-01 8.490629196166992188e+00 2.642985343933105469e+00 1.045236945152282715e+00
2.365000000000000000e+03 7.575832366943359375e+01 2.134143829345703125e+01 -1.519314385950565338e-02 8.028800010681152344e+00 2.404082059860229492e+00 9.356787800788879395e-01
2.366000000000000000e+03 6.962381744384765625e+01 -2.342003440856933594e+01 1.131664067506790161e-01 9.502321243286132812e+00 2.884646177291870117e+00 -1.272660344839096069e-01
2.367000000000000000e+03 7.570620727539062500e+01 -2.036802673339843750e+01 6.380655169486999512e-01 7.310223579406738281e+00 2.384486675262451172e+00 -5.790042281150817871e-01
2.368000000000000000e+03 7.410364532470703125e+01 -2.250950050354003906e+01 4.030136168003082275e-01 8.103169441223144531e+00 2.551854848861694336e+00 -1.039451956748962402e+00
2.369000000000000000e+03 7.504866027832031250e+01 1.262094879150390625e+01 5.546967387199401855e-01 7.800561904907226562e+00 2.506577730178833008e+00 -3.784189224243164062e-01
2.370000000000000000e+03 7.492925262451171875e+01 1.482547664642333984e+01 6.768189668655395508e-01 7.908138275146484375e+00 2.575487136840820312e+00 2.538778819143772125e-02
2.371000000000000000e+03 7.562495422363281250e+01 1.729073333740234375e+01 5.728015303611755371e-01 7.633840084075927734e+00 2.461992502212524414e+00 5.123257637023925781e-01
2.372000000000000000e+03 7.356464385986328125e+01 1.545624256134033203e+01 1.093626856803894043e+00 8.366274833679199219e+00 2.837970495223999023e+00 4.588755965232849121e-02
2.373000000000000000e+03 7.396825408935546875e+01 -1.624273872375488281e+01 1.050886750221252441e+00 8.078534126281738281e+00 2.738826513290405273e+00 5.882096290588378906e-01
2.374000000000000000e+03 7.386170959472656250e+01 8.863498687744140625e+00 6.081200391054153442e-02 8.046593666076660156e+00 2.432221651077270508e+00 -7.050435543060302734e-01
2.375000000000000000e+03 7.558535003662109375e+01 -1.241393184661865234e+01 8.383371680974960327e-02 7.617884635925292969e+00 2.310515403747558594e+00 9.928051829338073730e-01
2.376000000000000000e+03 7.377986907958984375e+01 3.594680428504943848e-01 -4.147156178951263428e-01 7.419405460357666016e+00 2.101407051086425781e+00 -1.304963827133178711e-01
2.377000000000000000e+03 7.393510437011718750e+01 1.765845298767089844e+00 -4.121620655059814453e-01 7.500150680541992188e+00 2.126396656036376953e+00 -2.722180187702178955e-01
2.378000000000000000e+03 7.543228149414062500e+01 2.950033426284790039e+00 -2.873140573501586914e-01 7.780555725097656250e+00 2.247972488403320312e+00 -4.109963178634643555e-01
2.379000000000000000e+03 7.457412719726562500e+01 -6.867274284362792969e+00 -4.418682456016540527e-01 7.752532005310058594e+00 2.193199157714843750e+00 5.747979283332824707e-01
2.380000000000000000e+03 7.400018310546875000e+01 1.010662269592285156e+01 2.335161864757537842e-01 8.084993362426757812e+00 2.495552778244018555e+00 -7.387716174125671387e-01
2.381000000000000000e+03 7.432680511474609375e+01 -2.986470937728881836e+00 -4.280420839786529541e-01 7.577160835266113281e+00 2.144735574722290039e+00 1.396861225366592407e-01
2.382000000000000000e+03 7.439223480224609375e+01 -4.286122798919677734e+00 -4.334868788719177246e-01 7.603237152099609375e+00 2.150925159454345703e+00 2.640558481216430664e-01
2.383000000000000000e+03 7.452673339843750000e+01 -5.589626789093017578e+00 -4.658559858798980713e-01 7.702163219451904297e+00 2.170892238616943359e+00 4.085577428340911865e-01
2.384000000000000000e+03 7.329714965820312500e+01 -1.063694381713867188e+01 -2.984832525253295898e-01 8.106469154357910156e+00 2.342395782470703125e+00 9.224803447723388672e-01
2.385000000000000000e+03 7.430419921875000000e+01 -1.218149566650390625e+01 5.698129534721374512e-02 7.988707542419433594e+00 2.413706541061401367e+00 1.070613741874694824e+00
2.386000000000000000e+03 7.268783569335937500e+01 -1.883018493652343750e+01 1.649522423744201660e+00 8.939774513244628906e+00 3.176789045333862305e+00 -1.132082864642143250e-01
2.387000000000000000e+03 7.439929962158203125e+01 -2.139124870300292969e+01 7.220510840415954590e-01 7.888776779174804688e+00 2.583248376846313477e+00 -8.257367014884948730e-01
2.388000000000000000e+03 7.484557342529296875e+01 1.799848747253417969e+01 6.458383202552795410e-01 8.085467338562011719e+00 2.619391679763793945e+00 7.009038329124450684e-01
2.389000000000000000e+03 7.188732910156250000e+01 1.851028823852539062e+01 1.127826571464538574e+00 9.500887870788574219e+00 3.188614368438720703e+00 5.648776888847351074e-01
2.390000000000000000e+03 7.575611877441406250e+01 1.833953475952148438e+01 4.570842683315277100e-01 7.635301113128662109e+00 2.427715539932250977e+00 6.561272144317626953e-01
2.391000000000000000e+03 7.013909149169921875e+01 2.550413322448730469e+01 -1.325873851776123047e+00 7.339210033416748047e+00 1.804000973701477051e+00 -6.193299889564514160e-01
2.392000000000000000e+03 7.149285888671875000e+01 -2.247410011291503906e+01 7.137449979782104492e-01 9.219957351684570312e+00 2.980110645294189453e+00 -8.809398412704467773e-01
2.393000000000000000e+03 7.395365905761718750e+01 6.864919185638427734e+00 -2.380652129650115967e-01 7.839395999908447266e+00 2.280399084091186523e+00 -6.784283518791198730e-01
2.394000000000000000e+03 7.424211120605468750e+01 5.582995891571044922e+00 -2.935128509998321533e-01 7.770918846130371094e+00 2.243221759796142578e+00 -5.550662279129028320e-01
2.395000000000000000e+03 7.456397247314453125e+01 -9.467459678649902344e+00 -3.318490386009216309e-01 7.863502025604248047e+00 2.259495973587036133e+00 8.904018402099609375e-01
2.396000000000000000e+03 7.378763580322265625e+01 2.902387809753417969e+01 -4.618004560470581055e-01 7.589943885803222656e+00 2.138442993164062500e+00 -3.124943748116493225e-02
2.397000000000000000e+03 7.387778472900390625e+01 -2.603722000122070312e+01 -3.604241907596588135e-01 8.028058052062988281e+00 2.300290346145629883e+00 -9.806256890296936035e-01
2.398000000000000000e+03 7.210460662841796875e+01 -1.051891708374023438e+01 -4.852254092693328857e-01 8.277918815612792969e+00 2.337807893753051758e+00 6.485994458198547363e-01
2.399000000000000000e+03 7.333604431152343750e+01 1.299607086181640625e+01 7.858888506889343262e-01 8.540813446044921875e+00 2.798010826110839844e+00 -3.015441000461578369e-01
2.400000000000000000e+03 7.310951995849609375e+01 2.727863693237304688e+01 -7.140074968338012695e-01 7.726441860198974609e+00 2.103730201721191406e+00 9.550571441650390625e-02
2.401000000000000000e+03 7.334732818603515625e+01 2.427028846740722656e+01 -5.884714126586914062e-01 8.148084640502929688e+00 2.267884016036987305e+00 6.036493182182312012e-01
2.402000000000000000e+03 7.489260864257812500e+01 2.061202621459960938e+01 1.715086996555328369e-01 8.019878387451171875e+00 2.457416057586669922e+00 9.939235448837280273e-01
2.403000000000000000e+03 7.007338714599609375e+01 3.010633087158203125e+01 -4.668715000152587891e-01 6.172048091888427734e+00 1.711552858352661133e+00 -6.423735618591308594e-01
2.404000000000000000e+03 7.036055755615234375e+01 -3.359409332275390625e+01 -5.181584358215332031e-01 6.261706352233886719e+00 1.723064303398132324e+00 2.483394593000411987e-01
2.405000000000000000e+03 7.384374237060546875e+01 -3.214580917358398438e+01 -4.478037655353546143e-01 7.474771499633789062e+00 2.108090162277221680e+00 -2.342946678400039673e-01
2.406000000000000000e+03 7.496675109863281250e+01 -2.827433395385742188e+01 -3.943947553634643555e-01 7.866184711456298828e+00 2.241537094116210938e+00 -7.699646949768066406e-01
2.407000000000000000e+03 6.547410964965820312e+00 3.100807762145996094e+01 -3.176429867744445801e-01 4.527688980102539062e+00 1.263013720512390137e+00 -6.333348155021667480e-01
2.408000000000000000e+03 7.332389831542968750e+01 3.045701599121093750e+01 -4.027289748191833496e-01 7.317497730255126953e+00 2.074430704116821289e+00 -2.380291223526000977e-01
2.409000000000000000e+03 7.474348449707031250e+01 3.086487197875976562e+01 -2.527701556682586670e-01 7.634227275848388672e+00 2.214437246322631836e+00 -8.542753756046295166e-02
2.410000000000000000e+03 7.432599639892578125e+01 -3.423678588867187500e+01 -2.629671692848205566e-01 7.430518627166748047e+00 2.150265455245971680e+00 -9.396781772375106812e-02
2.411000000000000000e+03 5.890317440032958984e+00 2.422242927551269531e+01 -1.336841136217117310e-01 4.132303714752197266e+00 1.199585914611816406e+00 -1.072172760963439941e+00
2.412000000000000000e+03 5.878705978393554688e+00 2.536093139648437500e+01 -1.852498054504394531e-01 4.193232536315917969e+00 1.202394843101501465e+00 -9.879724979400634766e-01
2.413000000000000000e+03 5.488197326660156250e+00 1.812920761108398438e+01 1.289764344692230225e-01 3.421538829803466797e+00 1.065154552459716797e+00 -9.694927930831909180e-01
2.414000000000000000e+03 5.200065612792968750e+00 1.680538940429687500e+01 1.247492358088493347e-01 3.186117887496948242e+00 9.932600855827331543e-01 -8.886952400207519531e-01
2.415000000000000000e+03 3.653626918792724609e+00 1.181973457336425781e+01 4.807572066783905029e-02 1.764050960540771484e+00 5.436379909515380859e-01 -5.955509543418884277e-01
2.416000000000000000e+03 6.166868686676025391e+00 2.661804771423339844e+01 -2.490597367286682129e-01 4.304006099700927734e+00 1.216483831405639648e+00 -9.367644190788269043e-01
2.417000000000000000e+03 5.079208850860595703e+00 1.429995441436767578e+01 1.019279658794403076e-01 2.980555057525634766e+00 9.247449636459350586e-01 -7.771555781364440918e-01
2.418000000000000000e+03 6.146893024444580078e+00 2.122406578063964844e+01 2.047022618353366852e-02 3.983487844467163086e+00 1.201187372207641602e+00 -1.132806897163391113e+00
2.419000000000000000e+03 6.388433933258056641e+00 2.805471229553222656e+01 -2.797334790229797363e-01 4.432708263397216797e+00 1.245892405509948730e+00 -8.565039038658142090e-01
2.420000000000000000e+03 4.102460098266601562e+01 -1.959214019775390625e+01 2.465209960937500000e+00 9.209573745727539062e+00 3.502435207366943359e+00 -1.060718074440956116e-01
2.421000000000000000e+03 4.243587112426757812e+01 -1.792506980895996094e+01 2.148064851760864258e+00 9.448913574218750000e+00 3.479093551635742188e+00 3.763537406921386719e-01
2.422000000000000000e+03 6.996950531005859375e+01 3.286814880371093750e+01 -7.633767277002334595e-02 5.775897979736328125e+00 1.709868073463439941e+00 -5.697808265686035156e-01
2.423000000000000000e+03 3.632143402099609375e+01 -1.499314594268798828e+01 2.669804096221923828e+00 6.507126331329345703e+00 2.753079175949096680e+00 -1.499812126159667969e+00
2.424000000000000000e+03 3.825312042236328125e+01 -9.575508117675781250e+00 -1.601797342300415039e-01 5.140785217285156250e+00 1.494181632995605469e+00 6.029773950576782227e-01
2.425000000000000000e+03 7.388019561767578125e+01 1.655448913574218750e+01 9.489880204200744629e-01 8.329492568969726562e+00 2.783544301986694336e+00 4.771928191184997559e-01
2.426000000000000000e+03 7.289218139648437500e+01 1.787624359130859375e+01 1.080742835998535156e+00 8.715503692626953125e+00 2.938874006271362305e+00 7.425484657287597656e-01
2.427000000000000000e+03 4.835848331451416016e+00 1.295764636993408203e+01 9.045072644948959351e-02 2.748195171356201172e+00 8.515937924385070801e-01 -7.248576283454895020e-01
2.428000000000000000e+03 7.259361267089843750e+00 3.504305267333984375e+01 -2.924865782260894775e-01 4.568314075469970703e+00 1.282748341560363770e+00 -3.594804108142852783e-01
2.429000000000000000e+03 5.552111625671386719e+00 3.486038970947265625e+01 -2.058150917291641235e-01 4.551176071166992188e+00 1.303608298301696777e+00 -3.729824423789978027e-01
2.430000000000000000e+03 4.683539867401123047e+00 1.169654273986816406e+01 6.242489442229270935e-02 2.527448892593383789e+00 7.769621610641479492e-01 -6.953735351562500000e-01
2.431000000000000000e+03 6.533378601074218750e+01 1.936259150505065918e+00 -6.286205351352691650e-02 3.659023046493530273e+00 1.078848242759704590e+00 5.918774008750915527e-01
2.432000000000000000e+03 2.237051391601562500e+01 -6.891771316528320312e+00 1.066316485404968262e+00 1.299699664115905762e+00 7.098048329353332520e-01 -2.087556838989257812e+00
2.433000000000000000e+03 3.050275802612304688e+01 -7.530189514160156250e+00 3.239553272724151611e-01 1.489572763442993164e+00 5.440584421157836914e-01 -3.365916967391967773e+00
2.434000000000000000e+03 8.593050956726074219e+00 -1.595284175872802734e+01 1.259940743446350098e+00 8.482861518859863281e+00 2.922840595245361328e+00 9.255962818861007690e-02
2.435000000000000000e+03 3.789756393432617188e+01 2.298436546325683594e+01 -5.893678665161132812e-01 2.862391471862792969e+00 6.819070577621459961e-01 -1.125048518180847168e+00
2.436000000000000000e+03 7.058113861083984375e+01 2.253490638732910156e+01 -7.798118591308593750e-01 8.623130798339843750e+00 2.352995634078979492e+00 5.162098407745361328e-01
2.437000000000000000e+03 7.321379089355468750e+01 2.286410140991210938e+01 -4.144073128700256348e-01 8.283541679382324219e+00 2.360740184783935547e+00 7.827737331390380859e-01
2.438000000000000000e+03 3.164214324951171875e+01 2.595592689514160156e+01 -3.401724994182586670e-01 1.153760910034179688e+00 2.440765053033828735e-01 -5.786498188972473145e-01
2.439000000000000000e+03 6.828039550781250000e+01 -1.035173416137695312e+01 -5.822629332542419434e-01 6.999506950378417969e+00 1.925173282623291016e+00 -9.929232597351074219e-01
2.440000000000000000e+03 6.644470214843750000e+01 -7.672755718231201172e+00 -4.038504958152770996e-01 4.577469825744628906e+00 1.252085804939270020e+00 -1.036430954933166504e+00
2.441000000000000000e+03 3.423860168457031250e+01 2.300002098083496094e+01 -6.809546351432800293e-01 1.416238546371459961e+00 2.205851674079895020e-01 -9.050040245056152344e-01
2.442000000000000000e+03 5.405223083496093750e+01 -4.756732463836669922e+00 6.827307343482971191e-01 4.376123100519180298e-02 2.179476022720336914e-01 -1.586399376392364502e-01
2.443000000000000000e+03 4.279184341430664062e+01 -1.225361824035644531e+01 5.801208615303039551e-01 8.629817962646484375e+00 2.762981653213500977e+00 1.122851848602294922e+00
2.444000000000000000e+03 4.029673004150390625e+01 2.034737777709960938e+01 -4.571942389011383057e-01 4.025144577026367188e+00 1.070385098457336426e+00 -1.155041098594665527e+00
2.445000000000000000e+03 2.345837974548339844e+01 2.514979553222656250e+01 -4.061112403869628906e-01 1.530413746833801270e+00 3.372907340526580811e-01 1.571471691131591797e+00
2.446000000000000000e+03 4.283003234863281250e+01 -1.719379425048828125e+01 1.968734145164489746e+00 9.737615585327148438e+00 3.511904954910278320e+00 6.490668058395385742e-01
2.447000000000000000e+03 5.264152526855468750e+01 -4.483597755432128906e+00 7.005594372749328613e-01 6.777169108390808105e-01 4.134829044342041016e-01 -1.020816154778003693e-03
2.448000000000000000e+03 4.632816314697265625e+01 1.328459930419921875e+01 6.647897958755493164e-01 9.693464279174804688e+00 3.107476234436035156e+00 1.367760539054870605e+00
2.449000000000000000e+03 2.881801605224609375e+01 2.541348648071289062e+01 -3.845741450786590576e-01 5.871310234069824219e-01 6.076705455780029297e-02 -1.579574048519134521e-01
2.450000000000000000e+03 6.642726135253906250e+01 2.761711835861206055e+00 -2.423719316720962524e-01 4.522982120513916016e+00 1.284183144569396973e+00 6.838110089302062988e-01
2.451000000000000000e+03 6.958529663085937500e+01 -1.158660125732421875e+01 -4.271418750286102295e-01 8.571884155273437500e+00 2.443422794342041016e+00 -1.598602980375289917e-01
2.452000000000000000e+03 6.962955474853515625e+01 -1.043261432647705078e+01 -7.602641582489013672e-01 8.072199821472167969e+00 2.193580627441406250e+00 -3.019527792930603027e-01
2.453000000000000000e+03 6.860826873779296875e+01 -9.072629928588867188e+00 -8.868272304534912109e-01 6.743677616119384766e+00 1.757055163383483887e+00 -7.147989273071289062e-01
2.454000000000000000e+03 7.311682891845703125e+01 -1.183193397521972656e+01 -8.650285750627517700e-02 8.302366256713867188e+00 2.464758872985839844e+00 9.235479831695556641e-01
2.455000000000000000e+03 7.003192901611328125e+01 -1.384887218475341797e+01 6.646692156791687012e-01 9.958179473876953125e+00 3.186854600906372070e+00 1.705823391675949097e-01
2.456000000000000000e+03 1.457736396789550781e+01 1.671323966979980469e+01 1.203425407409667969e+00 8.445529937744140625e+00 2.894686698913574219e+00 -1.764439418911933899e-02
2.457000000000000000e+03 7.177825164794921875e+01 -1.697576713562011719e+01 1.781203627586364746e+00 9.529282569885253906e+00 3.393145799636840820e+00 4.069012701511383057e-01
2.458000000000000000e+03 7.230262756347656250e+01 -1.550498867034912109e+01 1.244642019271850586e+00 8.971195220947265625e+00 3.064751148223876953e+00 7.261344194412231445e-01
2.459000000000000000e+03 6.898609161376953125e+01 -2.166485786437988281e+01 1.616746306419372559e+00 1.138738250732421875e+01 3.901238679885864258e+00 5.023738145828247070e-01
2.460000000000000000e+03 2.529340362548828125e+01 2.655176925659179688e+01 -1.184872090816497803e-01 1.161035537719726562e+00 3.127644956111907959e-01 8.285894393920898438e-01
2.461000000000000000e+03 2.703227806091308594e+01 2.593211555480957031e+01 -1.164220273494720459e-01 6.933225989341735840e-01 1.730701625347137451e-01 4.032457470893859863e-01
2.462000000000000000e+03 8.130361557006835938e+00 -2.227115058898925781e+01 7.213352322578430176e-01 7.702242851257324219e+00 2.527073383331298828e+00 1.390971541404724121e+00
2.463000000000000000e+03 7.755870342254638672e+00 -2.336254882812500000e+01 3.800734877586364746e-01 7.212965965270996094e+00 2.277911901473999023e+00 1.568629264831542969e+00
2.464000000000000000e+03 1.255541229248046875e+01 1.482948875427246094e+01 7.224845886230468750e-01 7.495247840881347656e+00 2.465319871902465820e+00 -1.932708472013473511e-01
2.465000000000000000e+03 4.260152435302734375e+01 -5.526161670684814453e+00 -2.517154216766357422e+00 9.167944908142089844e+00 1.995237231254577637e+00 1.518916606903076172e+00
2.466000000000000000e+03 1.779250526428222656e+01 1.514394640922546387e+00 2.676987409591674805e+00 5.180678367614746094e+00 2.357299804687500000e+00 -3.972595036029815674e-01
2.467000000000000000e+03 1.848001480102539062e+01 2.270110607147216797e+00 2.022944927215576172e+00 5.007220268249511719e+00 2.109049558639526367e+00 -5.680999159812927246e-01
2.468000000000000000e+03 4.892966079711914062e+01 -3.933336496353149414e+00 -3.319143652915954590e-01 5.334041595458984375e+00 1.500638127326965332e+00 5.512143298983573914e-02
2.469000000000000000e+03 4.997587585449218750e+01 -4.199985980987548828e+00 -8.994258940219879150e-03 3.762348175048828125e+00 1.126006126403808594e+00 2.823145091533660889e-01
2.470000000000000000e+03 5.471765518188476562e+01 2.823663139343261719e+01 -4.997186660766601562e-01 2.604431152343750000e+00 6.314137578010559082e-01 1.490878939628601074e+00
2.471000000000000000e+03 1.570728015899658203e+01 1.086562061309814453e+01 3.153404295444488525e-01 9.842797279357910156e+00 3.047441244125366211e+00 4.271868169307708740e-01
2.472000000000000000e+03 5.982250690460205078e+00 -3.703356933593750000e+01 -2.483533173799514771e-01 5.466806411743164062e+00 1.565535902976989746e+00 2.485428005456924438e-01
2.473000000000000000e+03 4.321833801269531250e+01 -1.525675582885742188e+01 1.658370733261108398e+00 9.512752532958984375e+00 3.351336956024169922e+00 1.057438731193542480e+00
2.474000000000000000e+03 4.070582199096679688e+01 -1.603922843933105469e+01 2.260160923004150391e+00 8.347135543823242188e+00 3.182188987731933594e+00 4.219729006290435791e-01
2.475000000000000000e+03 5.080045318603515625e+01 2.544142913818359375e+01 -1.152765750885009766e+00 4.588219642639160156e+00 1.030636191368103027e+00 1.358952283859252930e+00
2.476000000000000000e+03 4.975914001464843750e+01 2.468529510498046875e+01 -1.214027285575866699e+00 5.112014770507812500e+00 1.169396162033081055e+00 9.733222126960754395e-01
2.477000000000000000e+03 2.360586357116699219e+01 -5.214189052581787109e+00 2.053469419479370117e+00 1.600093126296997070e+00 1.096068739891052246e+00 -2.247217655181884766e+00
2.478000000000000000e+03 2.623300170898437500e+01 -1.054251098632812500e+01 -9.689767658710479736e-02 1.245599508285522461e+00 3.446105420589447021e-01 -2.224443674087524414e+00
2.479000000000000000e+03 4.705290985107421875e+01 1.786842346191406250e+01 3.372751176357269287e-01 7.546196937561035156e+00 2.365041494369506836e+00 7.901559472084045410e-01
2.480000000000000000e+03 3.278691864013671875e+01 2.472678947448730469e+01 -4.916186928749084473e-01 1.222793698310852051e+00 2.193525135517120361e-01 -7.673851847648620605e-01
2.481000000000000000e+03 3.059749221801757812e+01 2.728772163391113281e+01 -8.620432019233703613e-02 1.056444644927978516e+00 2.910721004009246826e-01 -3.733725845813751221e-01
2.482000000000000000e+03 3.192585563659667969e+01 -3.795886230468750000e+01 -7.301747202873229980e-01 2.915473222732543945e+00 6.555895209312438965e-01 8.428208231925964355e-01
2.483000000000000000e+03 1.582284545898437500e+01 8.578928947448730469e+00 -6.998395174741744995e-02 9.520798683166503906e+00 2.835244417190551758e+00 6.900224685668945312e-01
2.484000000000000000e+03 2.036070632934570312e+01 2.806841087341308594e+01 -6.146489977836608887e-01 3.752894401550292969e+00 9.414736032485961914e-01 1.295472264289855957e+00
2.485000000000000000e+03 2.074239349365234375e+01 -5.632725954055786133e-01 2.901104450225830078e+00 2.342680931091308594e+00 1.573135614395141602e+00 -1.930502414703369141e+00
2.486000000000000000e+03 7.249076080322265625e+01 2.547537040710449219e+01 -8.113799691200256348e-01 7.966162681579589844e+00 2.146434783935546875e+00 3.025335073471069336e-01
2.487000000000000000e+03 4.536216354370117188e+01 -2.054162979125976562e+00 -3.388731777667999268e-01 9.765953063964843750e+00 2.828124046325683594e+00 1.611006110906600952e-01
2.488000000000000000e+03 2.398801803588867188e+01 -9.697951316833496094e+00 -3.823326528072357178e-01 1.180934071540832520e+00 2.395804375410079956e-01 -1.832880616188049316e+00
2.489000000000000000e+03 2.386900138854980469e+01 -1.073352622985839844e+01 -8.305697441101074219e-01 1.072975158691406250e+00 7.272162288427352905e-02 -1.546508550643920898e+00
2.490000000000000000e+03 6.687374877929687500e+01 3.108110809326171875e+01 -7.286177575588226318e-02 4.533989429473876953e+00 1.338338255882263184e+00 -7.551017403602600098e-01
2.491000000000000000e+03 7.015190124511718750e+01 -2.931933975219726562e+01 -9.382209777832031250e-01 6.977784156799316406e+00 1.811869025230407715e+00 1.261530369520187378e-01
2.492000000000000000e+03 6.345483016967773438e+01 -7.693389415740966797e+00 3.860738128423690796e-02 2.042573451995849609e+00 6.243542432785034180e-01 -8.284397125244140625e-01
2.493000000000000000e+03 6.394120407104492188e+01 -5.341161489486694336e-01 2.468686401844024658e-01 2.662262678146362305e+00 8.727393746376037598e-01 1.757898777723312378e-01
2.494000000000000000e+03 4.551699829101562500e+01 1.843555068969726562e+01 -4.806580767035484314e-02 6.838556766510009766e+00 2.037147283554077148e+00 3.006589040160179138e-02
2.495000000000000000e+03 6.591392517089843750e+00 1.795534896850585938e+01 1.975137740373611450e-01 3.949826955795288086e+00 1.244202256202697754e+00 -1.044490337371826172e+00
2.496000000000000000e+03 1.367961978912353516e+01 1.520504379272460938e+01 9.304025173187255859e-01 8.117290496826171875e+00 2.714307785034179688e+00 -3.622759133577346802e-02
2.497000000000000000e+03 4.208852767944335938e+01 1.795879554748535156e+01 -1.713401377201080322e-01 5.437904357910156250e+00 1.579969286918640137e+00 -9.414607882499694824e-01
2.498000000000000000e+03 4.361426544189453125e+01 -1.284585762023925781e+01 9.251460433006286621e-01 8.908108711242675781e+00 2.949976444244384766e+00 1.277657151222229004e+00
2.499000000000000000e+03 7.206606292724609375e+01 -1.800403594970703125e+01 1.763393282890319824e+00 9.353981018066406250e+00 3.335212230682373047e+00 3.817650675773620605e-02
2.500000000000000000e+03 5.823525238037109375e+01 -2.055272579193115234e+00 1.032023549079895020e+00 9.972121566534042358e-02 3.395234346389770508e-01 -1.468283683061599731e-01
2.501000000000000000e+03 6.080569458007812500e+01 -4.654117584228515625e+00 5.104524493217468262e-01 9.525608420372009277e-01 4.389039874076843262e-01 -3.748683035373687744e-01
2.502000000000000000e+03 3.161768913269042969e+01 -9.185856819152832031e+00 6.507377028465270996e-01 1.429215788841247559e+00 6.239860057830810547e-01 -3.122179269790649414e+00
2.503000000000000000e+03 4.489356994628906250e+01 -3.816998243331909180e+00 -1.462193965911865234e+00 9.586535453796386719e+00 2.437302589416503906e+00 5.185298323631286621e-01
2.504000000000000000e+03 4.735271835327148438e+01 -2.108858346939086914e+00 -1.690157055854797363e-01 7.841979026794433594e+00 2.301888942718505859e+00 -3.645992577075958252e-01
2.505000000000000000e+03 4.533794784545898438e+01 -7.649063110351562500e+00 -2.011981248855590820e+00 8.853607177734375000e+00 2.052487611770629883e+00 1.106073379516601562e+00
2.506000000000000000e+03 4.540976715087890625e+01 -5.859060764312744141e+00 -2.111775875091552734e+00 8.894593238830566406e+00 2.034845113754272461e+00 8.527598977088928223e-01
2.507000000000000000e+03 5.673240280151367188e+01 -1.340991616249084473e+00 1.250696897506713867e+00 -8.120387047529220581e-02 3.508478999137878418e-01 -5.745710060000419617e-02
2.508000000000000000e+03 6.660886383056640625e+01 4.677991867065429688e+00 -2.661865055561065674e-01 4.932609558105468750e+00 1.399926900863647461e+00 9.744530320167541504e-01
2.509000000000000000e+03 7.058828735351562500e+01 -2.573538124561309814e-01 -5.705414414405822754e-01 6.443954944610595703e+00 1.762024044990539551e+00 3.481450304388999939e-02
2.510000000000000000e+03 4.211062240600585938e+01 -2.028388786315917969e+01 2.392455339431762695e+00 9.480054855346679688e+00 3.561753034591674805e+00 -2.049927115440368652e-01
2.511000000000000000e+03 1.186125755310058594e+01 -2.798484039306640625e+01 -1.143916726112365723e+00 5.397634983062744141e+00 1.276115417480468750e+00 -2.192877829074859619e-01
2.512000000000000000e+03 7.949497222900390625e+00 -2.786264991760253906e+01 -9.049488306045532227e-01 6.287627220153808594e+00 1.614803433418273926e+00 9.641443490982055664e-01
2.513000000000000000e+03 7.381458759307861328e+00 -2.077198410034179688e+01 1.124364376068115234e+00 7.210516452789306641e+00 2.500464200973510742e+00 1.402715206146240234e+00
2.514000000000000000e+03 9.197360038757324219e+00 -2.812921714782714844e+01 -9.971511363983154297e-01 6.053692817687988281e+00 1.516962528228759766e+00 6.516855359077453613e-01
2.515000000000000000e+03 3.331867980957031250e+01 -1.374816608428955078e+01 2.603716135025024414e+00 3.402087926864624023e+00 1.801741242408752441e+00 -2.569922447204589844e+00
2.516000000000000000e+03 3.525007247924804688e+01 -1.144016551971435547e+01 1.151674270629882812e+00 3.916060209274291992e+00 1.520320296287536621e+00 -1.394189953804016113e+00
2.517000000000000000e+03 6.066207122802734375e+01 2.715028190612792969e+01 -2.067290544509887695e-01 9.965736269950866699e-01 2.369533628225326538e-01 2.059186697006225586e-01
2.518000000000000000e+03 2.307749557495117188e+01 -9.450695991516113281e+00 -3.134969472885131836e-01 1.207515358924865723e+00 2.682055234909057617e-01 -1.921601653099060059e+00
2.519000000000000000e+03 6.929430007934570312e+00 -2.194112586975097656e+01 7.722676992416381836e-01 6.779757499694824219e+00 2.265607595443725586e+00 1.518741369247436523e+00
2.520000000000000000e+03 7.339711761474609375e+01 -2.157509422302246094e+01 8.421635627746582031e-01 8.342447280883789062e+00 2.755383014678955078e+00 -9.489519596099853516e-01
2.521000000000000000e+03 1.678479194641113281e+01 -3.318485641479492188e+01 -6.993498206138610840e-01 1.797656297683715820e+00 3.294919431209564209e-01 -5.872877240180969238e-01
2.522000000000000000e+03 7.158035278320312500e+01 1.078426551818847656e+01 5.975702404975891113e-01 8.796974182128906250e+00 2.818363189697265625e+00 -3.361429870128631592e-01
2.523000000000000000e+03 7.194554901123046875e+01 4.111944961547851562e+01 2.498489022254943848e-01 6.403223514556884766e+00 1.995921730995178223e+00 -7.976995408535003662e-02
2.524000000000000000e+03 6.613507843017578125e+01 2.667094230651855469e+01 -8.544728159904479980e-01 3.992788314819335938e+00 9.414946436882019043e-01 -1.485379338264465332e+00
2.525000000000000000e+03 7.239217376708984375e+01 1.233306980133056641e+01 9.374143481254577637e-01 8.677981376647949219e+00 2.884618759155273438e+00 -3.718915283679962158e-01
2.526000000000000000e+03 7.161131286621093750e+01 8.295128822326660156e+00 -1.138435825705528259e-01 8.209164619445800781e+00 2.428596258163452148e+00 -3.025939166545867920e-01
2.527000000000000000e+03 4.176139450073242188e+01 -2.342894363403320312e+01 2.261017560958862305e+00 8.865073204040527344e+00 3.337827205657958984e+00 -3.323293030261993408e-01
2.528000000000000000e+03 6.745122528076171875e+01 3.655555009841918945e+00 -4.179752171039581299e-01 5.280132293701171875e+00 1.458647131919860840e+00 5.949556231498718262e-01
2.529000000000000000e+03 3.816869354248046875e+01 -3.026015663146972656e+01 -4.786941707134246826e-01 7.139701366424560547e+00 1.998302102088928223e+00 5.091943144798278809e-01
2.530000000000000000e+03 3.729052734375000000e+01 -3.430107879638671875e+01 -1.364464163780212402e+00 5.786897659301757812e+00 1.326730132102966309e+00 7.112995982170104980e-01
2.531000000000000000e+03 4.854559326171875000e+01 -4.926119327545166016e+00 -8.155316710472106934e-01 5.858440876007080078e+00 1.512872815132141113e+00 3.744770586490631104e-01
2.532000000000000000e+03 4.969899749755859375e+01 -5.185132503509521484e+00 -4.381794035434722900e-01 4.144371509552001953e+00 1.111857652664184570e+00 5.493057370185852051e-01
2.533000000000000000e+03 4.779612064361572266e+00 2.857075691223144531e+00 5.214658379554748535e-01 4.274642169475555420e-01 2.846789956092834473e-01 9.651798009872436523e-02
2.534000000000000000e+03 5.151562213897705078e+00 -2.699247360229492188e+00 1.189766883850097656e+00 9.902692437171936035e-01 6.540108323097229004e-01 1.113847494125366211e+00
2.535000000000000000e+03 5.385978698730468750e+00 -2.571213722229003906e+00 1.344644308090209961e+00 1.009845137596130371e+00 7.063468098640441895e-01 1.237844824790954590e+00
2.536000000000000000e+03 6.001981258392333984e+00 -2.556653261184692383e+00 1.719039916992187500e+00 1.347850799560546875e+00 9.200671911239624023e-01 1.721611976623535156e+00
2.537000000000000000e+03 6.622301578521728516e+00 -2.583666801452636719e+00 2.103277444839477539e+00 1.904499650001525879e+00 1.202333092689514160e+00 2.385817289352416992e+00
2.538000000000000000e+03 6.424480915069580078e+00 -2.865748882293701172e+00 1.917142271995544434e+00 2.006446123123168945e+00 1.177076458930969238e+00 2.346281528472900391e+00
2.539000000000000000e+03 7.445827960968017578e+00 -2.297205686569213867e+00 2.885486364364624023e+00 2.661982297897338867e+00 1.664240598678588867e+00 3.341703414916992188e+00
2.540000000000000000e+03 8.521766662597656250e+00 2.358199119567871094e+00 1.762979865074157715e+00 4.724397659301757812e+00 1.946213245391845703e+00 -3.281639099121093750e+00
2.541000000000000000e+03 7.255300521850585938e+00 2.843666791915893555e+00 1.462991714477539062e+00 2.287909507751464844e+00 1.125270366668701172e+00 -1.642294287681579590e+00
2.542000000000000000e+03 6.761895179748535156e+00 2.391631841659545898e+00 1.146526217460632324e+00 1.172451496124267578e+00 6.956933140754699707e-01 -8.976905345916748047e-01
2.543000000000000000e+03 3.831307411193847656e+00 6.157711982727050781e+00 4.602717757225036621e-01 9.737183451652526855e-01 4.301970303058624268e-01 -3.131021857261657715e-01
2.544000000000000000e+03 9.084134101867675781e+00 -2.705035209655761719e+00 2.145967245101928711e+00 8.519605636596679688e+00 3.199671983718872070e+00 5.315185546875000000e+00
2.545000000000000000e+03 8.862376213073730469e+00 2.798766374588012695e+00 1.253770709037780762e+00 6.593051433563232422e+00 2.354046583175659180e+00 -3.322970151901245117e+00
2.546000000000000000e+03 1.006685161590576172e+01 -2.521666526794433594e+00 1.362974643707275391e+00 1.289779853820800781e+01 4.278232097625732422e+00 4.211970329284667969e+00
2.547000000000000000e+03 1.018110752105712891e+01 -2.276036977767944336e+00 1.553176760673522949e+00 1.382804489135742188e+01 4.614366531372070312e+00 4.026651859283447266e+00
2.548000000000000000e+03 9.819837570190429688e+00 2.871216058731079102e+00 2.454992383718490601e-01 1.054893398284912109e+01 3.238329887390136719e+00 -2.793941974639892578e+00
2.549000000000000000e+03 1.282990455627441406e+01 2.225271612405776978e-01 7.212823390960693359e+00 1.029559040069580078e+01 5.252523899078369141e+00 1.418965697288513184e+00
2.550000000000000000e+03 1.119825553894042969e+01 -2.386478900909423828e+00 1.839847445487976074e+00 1.382961177825927734e+01 4.700837612152099609e+00 9.123527407646179199e-01
2.551000000000000000e+03 1.034707069396972656e+01 2.516098499298095703e+00 1.514775156974792480e-01 1.315256977081298828e+01 3.991214036941528320e+00 -1.871294379234313965e+00
2.552000000000000000e+03 1.009059238433837891e+01 2.492762327194213867e+00 2.280912697315216064e-01 1.241098976135253906e+01 3.791724443435668945e+00 -2.671005487442016602e+00
2.553000000000000000e+03 1.235151386260986328e+01 -9.304306507110595703e-01 7.200277328491210938e+00 1.136291790008544922e+01 5.568958759307861328e+00 -7.147811055183410645e-01
2.554000000000000000e+03 1.176671695709228516e+01 1.992311239242553711e+00 2.320970296859741211e+00 1.403536510467529297e+01 4.906900405883789062e+00 2.233522176742553711e+00
2.555000000000000000e+03 1.180821514129638672e+01 -2.281584501266479492e+00 2.854674339294433594e+00 1.283563232421875000e+01 4.707091808319091797e+00 -3.178439736366271973e-01
2.556000000000000000e+03 1.163984489440917969e+01 1.361048221588134766e+00 4.273637771606445312e+00 1.492571258544921875e+01 5.759805202484130859e+00 3.102741956710815430e+00
2.557000000000000000e+03 3.764158487319946289e+00 2.867764949798583984e+00 2.512538731098175049e-01 1.299418210983276367e-01 1.143587082624435425e-01 3.797557055950164795e-01
2.558000000000000000e+03 3.236194372177124023e+00 -3.153311729431152344e+00 5.000348091125488281e-01 5.071300864219665527e-01 3.021494746208190918e-01 3.304907977581024170e-01
2.559000000000000000e+03 4.188146591186523438e+00 3.040324449539184570e+00 3.892112672328948975e-01 2.875837981700897217e-01 2.030385136604309082e-01 2.547093331813812256e-01
2.560000000000000000e+03 2.080940485000610352e+00 -3.684015989303588867e+00 2.916473150253295898e-01 2.988194525241851807e-01 1.771400272846221924e-01 1.306716650724411011e-01
2.561000000000000000e+03 2.870079040527343750e+00 -5.378988742828369141e+00 2.532978653907775879e-01 1.208698272705078125e+00 4.385988712310791016e-01 6.594696640968322754e-01
2.562000000000000000e+03 3.016469478607177734e+00 2.831282854080200195e+00 1.328381896018981934e-01 -6.837248057126998901e-02 1.933971419930458069e-02 4.701145887374877930e-01
2.563000000000000000e+03 3.972459793090820312e+00 -7.492813587188720703e+00 -1.755928248167037964e-01 2.836825847625732422e+00 7.983698844909667969e-01 1.107758641242980957e+00
2.564000000000000000e+03 2.784917354583740234e+00 5.929946899414062500e+00 2.973990440368652344e-01 2.834406495094299316e-01 1.742518991231918335e-01 -4.562911018729209900e-02
2.565000000000000000e+03 4.229560375213623047e+00 6.702470302581787109e+00 4.426658153533935547e-01 1.402338147163391113e+00 5.535011887550354004e-01 -4.700594246387481689e-01
2.566000000000000000e+03 4.762671470642089844e+00 -1.074608039855957031e+01 -6.958302855491638184e-01 4.458307266235351562e+00 1.128743052482604980e+00 5.072042942047119141e-01
2.567000000000000000e+03 4.762386322021484375e+00 -9.874750137329101562e+00 -7.041019201278686523e-01 4.320107460021972656e+00 1.084801554679870605e+00 7.459735274314880371e-01
2.568000000000000000e+03 2.490507602691650391e+00 -3.256328344345092773e+00 3.423328399658203125e-01 3.191110789775848389e-01 1.984331756830215454e-01 1.463634520769119263e-01
2.569000000000000000e+03 1.616809844970703125e+01 6.440422058105468750e+00 -5.712756142020225525e-02 8.881832122802734375e+00 2.647411346435546875e+00 7.975223064422607422e-01
2.570000000000000000e+03 1.166058444976806641e+01 2.261208295822143555e+00 1.483907222747802734e+00 1.386147499084472656e+01 4.603614807128906250e+00 1.673637628555297852e+00
2.571000000000000000e+03 1.480782032012939453e+01 9.712508201599121094e+00 -1.380550302565097809e-02 9.418523788452148438e+00 2.821415662765502930e+00 6.255320906639099121e-01
2.572000000000000000e+03 1.482934570312500000e+01 8.733873367309570312e+00 -2.148199081420898438e-01 9.394046783447265625e+00 2.753768205642700195e+00 6.708668470382690430e-01
2.573000000000000000e+03 1.369635391235351562e+01 -9.516811370849609375e+00 -2.867583513259887695e+00 5.598287582397460938e+00 8.192111849784851074e-01 2.405719757080078125e+00
2.574000000000000000e+03 1.112541770935058594e+01 -1.045748233795166016e+01 -3.256023883819580078e+00 8.771290779113769531e+00 1.654579997062683105e+00 1.859194278717041016e+00
2.575000000000000000e+03 2.581323051452636719e+01 -9.347786903381347656e+00 1.173049733042716980e-01 1.512235522270202637e+00 4.888621270656585693e-01 -2.291823387145996094e+00
2.576000000000000000e+03 6.300424957275390625e+01 -1.320219397544860840e+00 3.901281058788299561e-01 2.070890426635742188e+00 7.383055686950683594e-01 5.427808314561843872e-02
2.577000000000000000e+03 6.209506034851074219e+00 -1.638587951660156250e+01 8.086745142936706543e-01 5.904969692230224609e+00 2.014093399047851562e+00 1.966154426336288452e-01
2.578000000000000000e+03 7.397881984710693359e+00 -1.624780845642089844e+01 1.057240486145019531e+00 7.255482673645019531e+00 2.493817090988159180e+00 1.159957796335220337e-01
2.579000000000000000e+03 7.340090942382812500e+01 -1.500052165985107422e+01 8.271268606185913086e-01 8.449820518493652344e+00 2.783084392547607422e+00 8.327630162239074707e-01
2.580000000000000000e+03 7.286280822753906250e+01 -1.394897270202636719e+01 5.783705711364746094e-01 8.517599105834960938e+00 2.728790998458862305e+00 9.096912145614624023e-01
2.581000000000000000e+03 4.420886993408203125e+01 -2.939725637435913086e+00 -9.832463860511779785e-01 1.015461254119873047e+01 2.751410007476806641e+00 5.666829347610473633e-01
2.582000000000000000e+03 4.548063659667968750e+01 -4.763101100921630859e+00 -1.791238307952880859e+00 8.989358901977539062e+00 2.159435987472534180e+00 5.831218957901000977e-01
2.583000000000000000e+03 6.721100807189941406e+00 -2.323094749450683594e+01 2.503748834133148193e-01 6.542195796966552734e+00 2.037771224975585938e+00 1.653700709342956543e+00
2.584000000000000000e+03 5.649426460266113281e+00 -2.447654533386230469e+01 -3.519991040229797363e-02 5.830748558044433594e+00 1.738664627075195312e+00 1.661444425582885742e+00
2.585000000000000000e+03 5.124508857727050781e+00 7.562833786010742188e+00 3.211890161037445068e-01 2.351744174957275391e+00 8.018799424171447754e-01 -6.971350908279418945e-01
2.586000000000000000e+03 3.797284126281738281e+00 8.535957336425781250e+00 1.899036765098571777e-01 1.443026065826416016e+00 4.898789525032043457e-01 -5.202261209487915039e-01
2.587000000000000000e+03 6.830399322509765625e+01 -7.407178401947021484e+00 -7.191777825355529785e-01 6.003117084503173828e+00 1.585181832313537598e+00 -5.740423798561096191e-01
2.588000000000000000e+03 7.179429626464843750e+01 -1.268320751190185547e+01 9.652779996395111084e-02 8.776741027832031250e+00 2.661980628967285156e+00 7.488032579421997070e-01
2.589000000000000000e+03 7.279573059082031250e+01 -1.293908119201660156e+01 2.084177881479263306e-01 8.518462181091308594e+00 2.618063926696777344e+00 9.871557950973510742e-01
2.590000000000000000e+03 8.658052444458007812e+00 1.597698688507080078e+01 3.445419967174530029e-01 5.049965858459472656e+00 1.618352413177490234e+00 -8.268198370933532715e-01
2.591000000000000000e+03 1.648415946960449219e+01 -1.004184627532958984e+01 -2.357110738754272461e+00 1.044607281684875488e+00 -3.937510550022125244e-01 9.293234944343566895e-01
2.592000000000000000e+03 1.544003009796142578e+01 -9.244786262512207031e+00 -1.870801568031311035e+00 3.069106578826904297e+00 3.594914972782135010e-01 1.498803257942199707e+00
2.593000000000000000e+03 2.465621709823608398e+00 4.413944721221923828e+00 2.617501020431518555e-01 -1.078286767005920410e-01 4.617642238736152649e-02 2.517220377922058105e-01
2.594000000000000000e+03 5.973397827148437500e+01 -5.594371795654296875e+00 3.374865353107452393e-01 4.896320700645446777e-01 2.481355816125869751e-01 -3.243092298507690430e-01
2.595000000000000000e+03 1.204451942443847656e+01 -1.015421485900878906e+01 -3.402681112289428711e+00 7.969892024993896484e+00 1.370163321495056152e+00 2.471421480178833008e+00
2.596000000000000000e+03 8.003517150878906250e+00 -1.087516307830810547e+01 -1.879037141799926758e+00 7.560000419616699219e+00 1.704289078712463379e+00 9.509518146514892578e-01
2.597000000000000000e+03 4.363902568817138672e+00 9.612926483154296875e+00 1.433896571397781372e-01 2.043173074722290039e+00 6.559687852859497070e-01 -6.418771147727966309e-01
2.598000000000000000e+03 4.492837905883789062e+00 1.057217884063720703e+01 1.144071370363235474e-01 2.313784837722778320e+00 7.284576296806335449e-01 -6.585184931755065918e-01
2.599000000000000000e+03 2.469496726989746094e+00 3.802283048629760742e+00 2.026482522487640381e-01 -1.553616672754287720e-01 1.418597530573606491e-02 3.509849905967712402e-01
2.600000000000000000e+03 4.072802352905273438e+01 -8.947618484497070312e+00 -1.034977555274963379e+00 7.022745609283447266e+00 1.796330451965332031e+00 1.349821925163269043e+00
2.601000000000000000e+03 2.215189552307128906e+01 -9.261095046997070312e+00 -6.016775965690612793e-01 1.069809913635253906e+00 1.404396891593933105e-01 -1.635299801826477051e+00
2.602000000000000000e+03 4.283478546142578125e+01 1.896481132507324219e+01 -2.916068732738494873e-01 5.604688644409179688e+00 1.593924522399902344e+00 -7.675747871398925781e-01
2.603000000000000000e+03 4.652419662475585938e+01 -6.215013027191162109e+00 -1.881690859794616699e+00 8.143580436706542969e+00 1.878566980361938477e+00 7.985559105873107910e-01
2.604000000000000000e+03 4.185607147216796875e+01 -4.550521850585937500e+00 -2.135601282119750977e+00 8.953593254089355469e+00 2.045397758483886719e+00 1.928430557250976562e+00
2.605000000000000000e+03 1.716056632995605469e+01 2.243301153182983398e+00 2.346432685852050781e+00 6.119903564453125000e+00 2.539900779724121094e+00 1.202334240078926086e-01
2.606000000000000000e+03 1.847363853454589844e+01 6.250198483467102051e-01 2.897804498672485352e+00 4.207496166229248047e+00 2.131590127944946289e+00 -9.873865842819213867e-01
2.607000000000000000e+03 6.496827697753906250e+01 1.709199994802474976e-01 3.316562622785568237e-02 3.372382640838623047e+00 1.021664500236511230e+00 2.979075014591217041e-01
2.608000000000000000e+03 6.219725799560546875e+01 -5.502634048461914062e-01 5.405821800231933594e-01 1.623099327087402344e+00 6.491044759750366211e-01 1.617704927921295166e-01
2.609000000000000000e+03 4.317248916625976562e+01 1.478229141235351562e+01 2.056894749402999878e-01 7.186667919158935547e+00 2.217707395553588867e+00 -5.311726927757263184e-01
2.610000000000000000e+03 4.486297225952148438e+01 1.500322914123535156e+01 3.135855495929718018e-01 8.018980979919433594e+00 2.499769926071166992e+00 3.301568329334259033e-01
2.611000000000000000e+03 5.695860862731933594e+00 1.164463233947753906e+01 1.007512211799621582e-01 3.267027616500854492e+00 1.010333657264709473e+00 -7.515662312507629395e-01
2.612000000000000000e+03 1.467324542999267578e+01 1.076582145690917969e+01 1.554384678602218628e-01 9.281154632568359375e+00 2.830977916717529297e+00 4.937390983104705811e-01
2.613000000000000000e+03 4.379968643188476562e+01 -7.851917743682861328e+00 -1.968072533607482910e+00 8.995329856872558594e+00 2.108177423477172852e+00 1.215215921401977539e+00
2.614000000000000000e+03 4.460381317138671875e+01 -6.913362979888916016e+00 -2.255463123321533203e+00 9.091325759887695312e+00 2.050758838653564453e+00 1.047723650932312012e+00
2.615000000000000000e+03 3.978535079956054688e+01 -8.650827407836914062e+00 -9.363210797309875488e-01 6.167504310607910156e+00 1.569354891777038574e+00 1.264583110809326172e+00
2.616000000000000000e+03 1.293444824218750000e+01 -9.483352661132812500e+00 -3.104271888732910156e+00 6.826386451721191406e+00 1.116634368896484375e+00 2.617519378662109375e+00
2.617000000000000000e+03 7.062370777130126953e+00 -3.007161712646484375e+01 -7.909871935844421387e-01 5.802257537841796875e+00 1.503381013870239258e+00 8.235915303230285645e-01
2.618000000000000000e+03 7.500630378723144531e+00 -3.328472900390625000e+01 -5.876641273498535156e-01 5.414165019989013672e+00 1.447950243949890137e+00 4.355610013008117676e-01
2.619000000000000000e+03 6.608934020996093750e+01 8.528591990470886230e-01 -1.417746245861053467e-01 4.111179828643798828e+00 1.190821528434753418e+00 3.946411013603210449e-01
2.620000000000000000e+03 4.139131927490234375e+01 2.144035911560058594e+01 -6.157072782516479492e-01 4.469671726226806641e+00 1.156189441680908203e+00 -1.011686444282531738e+00
2.621000000000000000e+03 3.445693588256835938e+01 2.484380912780761719e+01 -4.903844892978668213e-01 1.720669388771057129e+00 3.690854609012603760e-01 -9.326747059822082520e-01
2.622000000000000000e+03 4.271855831146240234e+00 -9.006607055664062500e+00 -5.131096243858337402e-01 3.568553447723388672e+00 9.166331291198730469e-01 8.577625751495361328e-01
2.623000000000000000e+03 2.203431892395019531e+01 -2.528949022293090820e+00 2.943052768707275391e+00 1.704136371612548828e+00 1.394156813621520996e+00 -2.216053962707519531e+00
2.624000000000000000e+03 5.317283153533935547e+00 -1.910857200622558594e+01 9.277731776237487793e-01 5.275787830352783203e+00 1.861068248748779297e+00 9.015256166458129883e-01
2.625000000000000000e+03 6.415541172027587891e+00 -1.883358573913574219e+01 1.266757130622863770e+00 6.140111923217773438e+00 2.222060680389404297e+00 8.952367305755615234e-01
2.626000000000000000e+03 7.132165527343750000e+01 -2.697689628601074219e+01 -8.036967515945434570e-01 7.943979740142822266e+00 2.142084836959838867e+00 -3.741133511066436768e-01
2.627000000000000000e+03 6.518390655517578125e+00 -2.766219711303710938e+01 -6.413398385047912598e-01 6.014448642730712891e+00 1.611932754516601562e+00 1.297281742095947266e+00
2.628000000000000000e+03 4.907415390014648438e+00 -1.408721065521240234e+01 8.322594687342643738e-03 4.769299983978271484e+00 1.433286666870117188e+00 -8.472695201635360718e-02
2.629000000000000000e+03 5.885096549987792969e+00 -1.169895362854003906e+01 -9.065040946006774902e-01 5.695988178253173828e+00 1.436845183372497559e+00 3.931212425231933594e-01
2.630000000000000000e+03 7.495491027832031250e+01 2.384805107116699219e+01 -4.018191993236541748e-01 8.223947525024414062e+00 2.346638679504394531e+00 7.657289505004882812e-01
2.631000000000000000e+03 7.293556976318359375e+01 -3.112406921386718750e+01 -5.879071950912475586e-01 7.397755146026611328e+00 2.042954444885253906e+00 -2.344523668289184570e-01
2.632000000000000000e+03 3.941458892822265625e+01 -1.591019630432128906e+01 2.471412658691406250e+00 8.114073753356933594e+00 3.175646066665649414e+00 7.007558643817901611e-02
2.633000000000000000e+03 3.716683959960937500e+01 -1.442239952087402344e+01 1.956174373626708984e+00 6.527374744415283203e+00 2.545064687728881836e+00 -6.219722032546997070e-01
2.634000000000000000e+03 7.235408782958984375e+01 2.206251716613769531e+01 -4.303227663040161133e-01 8.661265373229980469e+00 2.469282865524291992e+00 9.607447981834411621e-01
2.635000000000000000e+03 7.252935028076171875e+01 -2.220439720153808594e+01 6.997453570365905762e-01 8.788070678710937500e+00 2.846344947814941406e+00 -9.026756286621093750e-01
2.636000000000000000e+03 2.913500595092773438e+01 -8.508239746093750000e+00 3.697417080402374268e-01 1.804212689399719238e+00 6.521863341331481934e-01 -3.234810590744018555e+00
2.637000000000000000e+03 8.122344017028808594e+00 2.942188835144042969e+01 -4.336417317390441895e-01 4.705723285675048828e+00 1.281624555587768555e+00 -7.452077269554138184e-01
2.638000000000000000e+03 9.919375419616699219e+00 3.334200286865234375e+01 -5.120560526847839355e-01 4.655793190002441406e+00 1.243121147155761719e+00 -3.689609766006469727e-01
2.639000000000000000e+03 7.403494262695312500e+01 2.663986968994140625e+01 -6.142103075981140137e-01 7.928725719451904297e+00 2.194354772567749023e+00 2.917228043079376221e-01
2.640000000000000000e+03 7.373651885986328125e+01 2.539147758483886719e+01 -6.865707039833068848e-01 8.153365135192871094e+00 2.240038394927978516e+00 4.844521582126617432e-01
2.641000000000000000e+03 7.500498962402343750e+01 -1.564264774322509766e+01 6.765097975730895996e-01 7.650275707244873047e+00 2.498035669326782227e+00 6.557948589324951172e-01
2.642000000000000000e+03 7.308193206787109375e+01 -1.780464744567871094e+01 1.442589879035949707e+00 8.600340843200683594e+00 3.012879133224487305e+00 1.716142594814300537e-01
2.643000000000000000e+03 7.451168823242187500e+01 -1.906878662109375000e+01 1.117879509925842285e+00 7.847331523895263672e+00 2.689563274383544922e+00 -2.071689963340759277e-01
2.644000000000000000e+03 7.417723846435546875e+01 1.121466827392578125e+01 4.681887328624725342e-01 8.036775588989257812e+00 2.551489353179931641e+00 -5.973435044288635254e-01
2.645000000000000000e+03 7.330786895751953125e+01 7.914475917816162109e+00 -1.450382918119430542e-01 8.009250640869140625e+00 2.359263658523559570e+00 -6.174832582473754883e-01
2.646000000000000000e+03 7.172573089599609375e+01 3.549327135086059570e+00 -5.379800200462341309e-01 7.188976764678955078e+00 1.995298981666564941e+00 -1.386636942625045776e-01
2.647000000000000000e+03 7.428827667236328125e+01 4.330295562744140625e+00 -3.768371343612670898e-01 7.682098865509033203e+00 2.191578388214111328e+00 -5.099595785140991211e-01
2.648000000000000000e+03 7.328192138671875000e+01 -2.760915517807006836e+00 -5.211099982261657715e-01 7.275585174560546875e+00 2.026342630386352539e+00 7.756020873785018921e-02
2.649000000000000000e+03 7.328562927246093750e+01 -4.561451435089111328e+00 -5.731313228607177734e-01 7.410942554473876953e+00 2.051343441009521484e+00 2.266028374433517456e-01
2.650000000000000000e+03 7.396478271484375000e+01 1.215751647949218750e+01 6.831106543540954590e-01 8.189910888671875000e+00 2.661906480789184570e+00 -5.129796266555786133e-01
2.651000000000000000e+03 7.155280303955078125e+01 4.451196193695068359e+00 -5.025339722633361816e-01 7.256579875946044922e+00 2.026213645935058594e+00 -1.947557926177978516e-01
2.652000000000000000e+03 7.333917236328125000e+01 -8.581941723823547363e-01 -4.732917249202728271e-01 7.320194244384765625e+00 2.054070711135864258e+00 -5.292990058660507202e-02
2.653000000000000000e+03 7.156665802001953125e+01 -3.394009470939636230e-01 -5.272776484489440918e-01 6.804327011108398438e+00 1.883114695549011230e+00 -4.978756234049797058e-02
2.654000000000000000e+03 7.268775177001953125e+01 -2.057129287719726562e+01 1.388639211654663086e+00 8.868535995483398438e+00 3.077152490615844727e+00 -6.392861604690551758e-01
2.655000000000000000e+03 7.452542114257812500e+01 -2.022585487365722656e+01 9.363507628440856934e-01 7.858753204345703125e+00 2.638531208038330078e+00 -6.264055371284484863e-01
2.656000000000000000e+03 7.458559417724609375e+01 -8.159147262573242188e+00 -4.391845762729644775e-01 7.824775218963623047e+00 2.215677022933959961e+00 7.143620252609252930e-01
2.657000000000000000e+03 7.340456390380859375e+01 -8.148863792419433594e+00 -5.560647249221801758e-01 7.791357517242431641e+00 2.170587778091430664e+00 6.381697654724121094e-01
2.658000000000000000e+03 7.257125854492187500e+01 1.694702148437500000e+01 1.264476060867309570e+00 9.008481979370117188e+00 3.081887483596801758e+00 3.195964992046356201e-01
2.659000000000000000e+03 6.537778472900390625e+01 -1.006778621673583984e+01 -2.522242963314056396e-01 3.657010793685913086e+00 1.021435976028442383e+00 -1.703859090805053711e+00
2.660000000000000000e+03 7.161427307128906250e+01 -2.847606849670410156e+01 -8.434429168701171875e-01 7.620003223419189453e+00 2.032968044281005859e+00 -2.841527462005615234e-01
2.661000000000000000e+03 7.304518890380859375e+01 -2.781316757202148438e+01 -6.262696385383605957e-01 7.893734931945800781e+00 2.180239677429199219e+00 -6.647327542304992676e-01
2.662000000000000000e+03 8.518993377685546875e+00 1.968123626708984375e+01 2.332550585269927979e-01 4.913514614105224609e+00 1.544030904769897461e+00 -1.159796714782714844e+00
2.663000000000000000e+03 6.971638202667236328e+00 2.478604316711425781e+01 -2.214700430631637573e-01 4.473670482635498047e+00 1.275660037994384766e+00 -1.090695142745971680e+00
2.664000000000000000e+03 7.131198120117187500e+01 2.768939971923828125e+01 -8.684173226356506348e-01 7.153046131134033203e+00 1.885388612747192383e+00 -3.621613681316375732e-01
2.665000000000000000e+03 3.823888778686523438e+01 -1.310108566284179688e+01 1.343532800674438477e+00 6.443188667297363281e+00 2.336016416549682617e+00 -5.683243647217750549e-02
2.666000000000000000e+03 4.127486801147460938e+01 -2.231513404846191406e+01 2.376173257827758789e+00 9.026947021484375000e+00 3.420936107635498047e+00 -2.375040054321289062e-01
2.667000000000000000e+03 5.932959079742431641e+00 -1.283569812774658203e+01 -5.135862827301025391e-01 5.790875434875488281e+00 1.583186745643615723e+00 2.779528498649597168e-02
2.668000000000000000e+03 6.812265872955322266e+00 1.676535415649414062e+01 2.141975462436676025e-01 4.003938674926757812e+00 1.265440940856933594e+00 -9.730949401855468750e-01
2.669000000000000000e+03 8.418218612670898438e+00 -1.478407478332519531e+01 3.334122598171234131e-01 8.388371467590332031e+00 2.616535186767578125e+00 -2.081631571054458618e-01
2.670000000000000000e+03 7.248461246490478516e+00 -1.501002216339111328e+01 4.441100060939788818e-01 7.002920150756835938e+00 2.234109163284301758e+00 -4.798368364572525024e-02
2.671000000000000000e+03 6.041769504547119141e+00 1.605766677856445312e+01 1.582638621330261230e-01 3.608954191207885742e+00 1.130165338516235352e+00 -9.003369808197021484e-01
2.672000000000000000e+03 5.109656333923339844e+00 1.561739349365234375e+01 1.231229901313781738e-01 3.069081068038940430e+00 9.576612114906311035e-01 -8.316428065299987793e-01
2.673000000000000000e+03 6.206170558929443359e+00 1.396491813659667969e+01 1.497645080089569092e-01 3.674569368362426758e+00 1.147300124168395996e+00 -7.966617941856384277e-01
2.674000000000000000e+03 6.867888927459716797e+00 1.929175567626953125e+01 1.627028137445449829e-01 4.113687992095947266e+00 1.282917261123657227e+00 -1.111801862716674805e+00
2.675000000000000000e+03 5.748702049255371094e+00 1.964634132385253906e+01 1.233797222375869751e-01 3.690710544586181641e+00 1.144227027893066406e+00 -1.073833227157592773e+00
2.676000000000000000e+03 1.723917388916015625e+01 2.095941352844238281e+01 4.595414102077484131e-01 8.298722267150878906e+00 2.627479076385498047e+00 3.456700146198272705e-01
2.677000000000000000e+03 1.609690666198730469e+01 2.001369476318359375e+01 1.271495580673217773e+00 8.656497955322265625e+00 2.978398084640502930e+00 2.429865673184394836e-02
2.678000000000000000e+03 6.008219718933105469e+00 -1.398606967926025391e+01 -1.045171245932579041e-01 5.819237709045410156e+00 1.714416265487670898e+00 -2.579260431230068207e-02
2.679000000000000000e+03 6.932207107543945312e+00 1.507878589630126953e+01 2.056029886007308960e-01 4.123256206512451172e+00 1.298657774925231934e+00 -8.487189412117004395e-01
2.680000000000000000e+03 2.001188659667968750e+01 4.067957699298858643e-01 2.645345926284790039e+00 2.979363918304443359e+00 1.687412977218627930e+00 -1.635076999664306641e+00
2.681000000000000000e+03 2.819651031494140625e+01 -1.068112564086914062e+01 3.844744265079498291e-01 1.211897373199462891e+00 4.789115488529205322e-01 -2.734361171722412109e+00
2.682000000000000000e+03 7.898109436035156250e+00 2.778626823425292969e+01 -4.237991273403167725e-01 4.720654964447021484e+00 1.289056777954101562e+00 -8.872570395469665527e-01
2.683000000000000000e+03 4.742079925537109375e+01 -5.191006183624267578e+00 -1.432774543762207031e+00 7.356824398040771484e+00 1.777214884757995605e+00 5.295833349227905273e-01
2.684000000000000000e+03 4.625517654418945312e+01 1.734583473205566406e+01 2.947355508804321289e-01 7.512748718261718750e+00 2.342245101928710938e+00 6.126386523246765137e-01
2.685000000000000000e+03 2.729503440856933594e+01 -1.007471370697021484e+01 2.364519536495208740e-01 1.390544652938842773e+00 4.880989789962768555e-01 -2.557773590087890625e+00
2.686000000000000000e+03 7.060617065429687500e+01 -2.429911231994628906e+01 -1.644840985536575317e-01 8.970429420471191406e+00 2.641783714294433594e+00 -4.000957310199737549e-01
2.687000000000000000e+03 7.254127502441406250e+01 2.845415878295898438e+01 -6.855609416961669922e-01 7.427521705627441406e+00 2.022588253021240234e+00 -2.023425251245498657e-01
2.688000000000000000e+03 6.253259277343750000e+01 -5.677316188812255859e+00 2.258019447326660156e-01 1.729531884193420410e+00 5.866001844406127930e-01 -5.654007792472839355e-01
2.689000000000000000e+03 7.423389434814453125e+01 2.162576866149902344e+01 -1.279322654008865356e-01 8.323966026306152344e+00 2.458810091018676758e+00 1.076511502265930176e+00
2.690000000000000000e+03 1.391659069061279297e+01 1.872612571716308594e+01 1.034396409988403320e+00 7.596649169921875000e+00 2.589313745498657227e+00 -5.040196180343627930e-01
2.691000000000000000e+03 1.148205852508544922e+01 1.938994979858398438e+01 5.069942474365234375e-01 6.204197883605957031e+00 2.013357639312744141e+00 -9.743544459342956543e-01
2.692000000000000000e+03 1.365926933288574219e+01 1.063190841674804688e+01 4.296344146132469177e-02 8.887314796447753906e+00 2.679083347320556641e+00 4.300959408283233643e-01
2.693000000000000000e+03 3.296368026733398438e+01 -9.658416748046875000e+00 7.650505900382995605e-01 1.575644016265869141e+00 7.022083997726440430e-01 -2.566638469696044922e+00
2.694000000000000000e+03 4.808365249633789062e+01 -3.152681589126586914e+00 -3.717199862003326416e-01 6.512480735778808594e+00 1.842228293418884277e+00 -2.428365200757980347e-01
2.695000000000000000e+03 3.239401626586914062e+01 2.743056869506835938e+01 -1.604451835155487061e-01 1.486040949821472168e+00 3.976787328720092773e-01 -6.085698008537292480e-01
2.696000000000000000e+03 5.221339702606201172e+00 1.027066230773925781e+01 1.140561401844024658e-01 2.825710535049438477e+00 8.819299936294555664e-01 -7.317866683006286621e-01
2.697000000000000000e+03 1.314675998687744141e+01 1.268844795227050781e+01 4.443627893924713135e-01 8.261813163757324219e+00 2.611852884292602539e+00 1.707782149314880371e-01
2.698000000000000000e+03 5.918700790405273438e+01 -3.413701772689819336e+00 7.783964872360229492e-01 3.515629172325134277e-01 3.389878273010253906e-01 -2.578783035278320312e-01
2.699000000000000000e+03 6.286970520019531250e+01 -6.655550003051757812e+00 1.221577003598213196e-01 1.843949913978576660e+00 5.898323059082031250e-01 -7.112216949462890625e-01
2.700000000000000000e+03 5.954755020141601562e+01 -2.162594556808471680e+00 8.667472004890441895e-01 4.646264016628265381e-01 3.994120955467224121e-01 -1.369018703699111938e-01
2.701000000000000000e+03 6.009568023681640625e+01 -3.808286190032958984e+00 6.132256984710693359e-01 6.968038678169250488e-01 3.930088579654693604e-01 -2.928264141082763672e-01
2.702000000000000000e+03 8.992364883422851562e+00 -1.701102066040039062e+01 1.903700947761535645e+00 9.238304138183593750e+00 3.342601537704467773e+00 2.985160648822784424e-01
2.703000000000000000e+03 4.117425537109375000e+01 -2.735432434082031250e+01 7.485674023628234863e-01 7.969264507293701172e+00 2.615349531173706055e+00 -2.152142822742462158e-01
2.704000000000000000e+03 6.974890899658203125e+01 -2.495867347717285156e+01 -5.196568369865417480e-01 8.720314025878906250e+00 2.460196971893310547e+00 -6.494404375553131104e-02
2.705000000000000000e+03 7.016394042968750000e+01 -2.586334609985351562e+01 -6.868581771850585938e-01 8.390727996826171875e+00 2.311160802841186523e+00 -6.383653730154037476e-02
2.706000000000000000e+03 3.477722549438476562e+01 -1.274065780639648438e+01 1.714617013931274414e+00 4.440659999847412109e+00 1.846583008766174316e+00 -1.800314426422119141e+00
2.707000000000000000e+03 4.422546386718750000e+01 -9.274939537048339844e+00 -1.317231774330139160e+00 8.940608024597167969e+00 2.287012815475463867e+00 1.174274682998657227e+00
2.708000000000000000e+03 4.464171981811523438e+01 -8.356436729431152344e+00 -1.764761447906494141e+00 9.074266433715820312e+00 2.192851543426513672e+00 1.078591227531433105e+00
2.709000000000000000e+03 7.501317024230957031e+00 -1.858195495605468750e+01 1.673098921775817871e+00 7.497595310211181641e+00 2.751208305358886719e+00 8.486061692237854004e-01
2.710000000000000000e+03 7.013745117187500000e+01 -2.695577621459960938e+01 -9.418376684188842773e-01 7.758618831634521484e+00 2.045034408569335938e+00 1.326596178114414215e-02
2.711000000000000000e+03 7.224171447753906250e+01 7.336461544036865234e+00 -2.652589380741119385e-01 7.882104396820068359e+00 2.285053491592407227e+00 -4.899087548255920410e-01
2.712000000000000000e+03 6.931538391113281250e+01 5.409095287322998047e+00 -5.772690176963806152e-01 6.828160762786865234e+00 1.875267505645751953e+00 2.829045355319976807e-01
2.713000000000000000e+03 7.313115692138671875e+01 1.449153232574462891e+01 9.967899322509765625e-01 8.724317550659179688e+00 2.916332244873046875e+00 3.624974936246871948e-02
2.714000000000000000e+03 7.175806427001953125e+01 1.402909564971923828e+01 1.166376948356628418e+00 9.654950141906738281e+00 3.246397972106933594e+00 -4.496191069483757019e-02
2.715000000000000000e+03 7.208597564697265625e+01 9.803519248962402344e+00 3.014472424983978271e-01 8.500932693481445312e+00 2.640714168548583984e+00 -4.643667936325073242e-01
2.716000000000000000e+03 7.121787261962890625e+01 6.769800662994384766e+00 -4.354085028171539307e-01 7.789508819580078125e+00 2.206230163574218750e+00 -1.836751401424407959e-01
2.717000000000000000e+03 7.280395507812500000e+01 6.378403186798095703e+00 -3.582478463649749756e-01 7.822500228881835938e+00 2.239275693893432617e+00 -4.727904796600341797e-01
2.718000000000000000e+03 2.251030349731445312e+01 -5.706073284149169922e+00 1.873142600059509277e+00 1.450572490692138672e+00 9.971145391464233398e-01 -2.218411207199096680e+00
2.719000000000000000e+03 2.340544891357421875e+01 -8.340204238891601562e+00 3.203286826610565186e-01 1.301014184951782227e+00 4.864028692245483398e-01 -2.018015384674072266e+00
2.720000000000000000e+03 6.867130279541015625e+01 -3.017516517639160156e+01 -9.163718223571777344e-01 6.003585338592529297e+00 1.526164174079895020e+00 5.239074826240539551e-01
2.721000000000000000e+03 4.033921813964843750e+01 -3.059733963012695312e+01 -5.547122955322265625e-01 7.241349220275878906e+00 2.005990982055664062e+00 -4.012948193121701479e-04
2.722000000000000000e+03 4.161903381347656250e+01 -3.219258499145507812e+01 -1.042642712593078613e+00 6.781415939331054688e+00 1.721632003784179688e+00 -3.308940231800079346e-01
2.723000000000000000e+03 4.190251922607421875e+01 -1.605077171325683594e+01 2.029299497604370117e+00 8.972579002380371094e+00 3.300563573837280273e+00 6.260076165199279785e-01
2.724000000000000000e+03 5.774015045166015625e+01 -5.723928928375244141e+00 2.250193655490875244e-01 8.357956260442733765e-02 9.257967770099639893e-02 -3.077340424060821533e-01
2.725000000000000000e+03 3.387265396118164062e+01 -1.121678352355957031e+01 1.191710710525512695e+00 2.806413173675537109e+00 1.199437141418457031e+00 -2.128960371017456055e+00
2.726000000000000000e+03 6.935941314697265625e+01 7.493909001350402832e-01 -5.267645716667175293e-01 5.977571964263916016e+00 1.635242223739624023e+00 1.291988492012023926e-01
2.727000000000000000e+03 1.147248840332031250e+01 1.448695468902587891e+01 5.638006925582885742e-01 6.852431774139404297e+00 2.224869728088378906e+00 -3.388734161853790283e-01
2.728000000000000000e+03 2.437774658203125000e+01 -8.839939117431640625e+00 2.585471570491790771e-01 1.482136249542236328e+00 5.222049951553344727e-01 -2.158561229705810547e+00
2.729000000000000000e+03 2.485541725158691406e+01 -9.679073333740234375e+00 -1.223889887332916260e-01 1.375254750251770020e+00 3.758597373962402344e-01 -2.078877210617065430e+00
2.730000000000000000e+03 6.839429473876953125e+01 4.567673683166503906e+00 -4.741369187831878662e-01 6.121823310852050781e+00 1.694306015968322754e+00 5.496403574943542480e-01
2.731000000000000000e+03 7.288520812988281250e+01 3.332881450653076172e+00 -4.918723702430725098e-01 7.407896518707275391e+00 2.074807167053222656e+00 -3.306763768196105957e-01
2.732000000000000000e+03 3.977201843261718750e+01 -1.795369720458984375e+01 2.658464670181274414e+00 8.760387420654296875e+00 3.425655841827392578e+00 -1.129302084445953369e-01
2.733000000000000000e+03 3.413205337524414062e+01 -9.983825683593750000e+00 8.038740754127502441e-01 2.401931524276733398e+00 9.617416858673095703e-01 -1.932458281517028809e+00
2.734000000000000000e+03 4.449588775634765625e+01 1.948031806945800781e+01 -3.172289133071899414e-01 6.160058975219726562e+00 1.752848982810974121e+00 -3.346623182296752930e-01
2.735000000000000000e+03 5.824317169189453125e+01 2.959033966064453125e+01 1.121182218194007874e-01 1.880658626556396484e+00 5.978330373764038086e-01 8.099438548088073730e-01
2.736000000000000000e+03 2.586823463439941406e+01 2.819388771057128906e+01 9.181141853332519531e-02 1.404658198356628418e+00 4.489408731460571289e-01 6.683846116065979004e-01
2.737000000000000000e+03 6.712787628173828125e+01 2.875109481811523438e+01 -4.916667044162750244e-01 4.688695907592773438e+00 1.259108781814575195e+00 -1.134196043014526367e+00
2.738000000000000000e+03 6.997292327880859375e+01 2.715565872192382812e+01 -1.052983880043029785e+00 6.701812744140625000e+00 1.694648623466491699e+00 -6.822019815444946289e-01
2.739000000000000000e+03 3.695993041992187500e+01 -9.753368377685546875e+00 2.138106822967529297e-01 3.986681938171386719e+00 1.260147809982299805e+00 -8.517994731664657593e-02
2.740000000000000000e+03 3.956481552124023438e+01 -1.081447315216064453e+01 5.960522592067718506e-02 6.340619087219238281e+00 1.920067310333251953e+00 7.865918874740600586e-01
2.741000000000000000e+03 4.316790390014648438e+01 -2.757053947448730469e+01 6.074390411376953125e-01 7.868762016296386719e+00 2.542860269546508789e+00 -7.290867567062377930e-01
2.742000000000000000e+03 2.197555732727050781e+01 -3.449872255325317383e+00 2.831500053405761719e+00 1.649642229080200195e+00 1.344342708587646484e+00 -2.229326486587524414e+00
2.743000000000000000e+03 5.243138885498046875e+01 2.779518699645996094e+01 -8.626189231872558594e-01 3.662834167480468750e+00 8.400645852088928223e-01 1.434915900230407715e+00
2.744000000000000000e+03 5.081570053100585938e+01 2.886730766296386719e+01 -9.331752657890319824e-01 3.935576677322387695e+00 9.007204771041870117e-01 1.072511792182922363e+00
2.745000000000000000e+03 4.086504745483398438e+01 -1.457014369964599609e+01 1.786632537841796875e+00 8.156278610229492188e+00 2.982873439788818359e+00 6.231012344360351562e-01
2.746000000000000000e+03 3.646625137329101562e+01 -1.205384826660156250e+01 1.096642494201660156e+00 4.992303848266601562e+00 1.826683998107910156e+00 -7.541266679763793945e-01
2.747000000000000000e+03 4.010510253906250000e+01 -1.145590972900390625e+01 3.683447539806365967e-01 7.008631229400634766e+00 2.213092803955078125e+00 7.912997603416442871e-01
2.748000000000000000e+03 1.031348800659179688e+01 -2.846719169616699219e+01 -1.206172704696655273e+00 5.915206432342529297e+00 1.412710070610046387e+00 3.024297356605529785e-01
2.749000000000000000e+03 7.675958633422851562e+00 -3.110636711120605469e+01 -7.729158401489257812e-01 5.650237083435058594e+00 1.463196396827697754e+00 6.503779888153076172e-01
2.750000000000000000e+03 4.665640640258789062e+01 2.270252418518066406e+01 -7.643711566925048828e-01 5.772931098937988281e+00 1.502568006515502930e+00 3.840592876076698303e-02
2.751000000000000000e+03 4.469546890258789062e+01 1.720774841308593750e+01 1.906865648925304413e-02 6.944964885711669922e+00 2.089210033416748047e+00 -8.205899596214294434e-02
2.752000000000000000e+03 1.754588127136230469e+01 -4.095648956298828125e+01 1.803018599748611450e-01 1.673856616020202637e+00 5.562475323677062988e-01 -1.243089661002159119e-01
2.753000000000000000e+03 1.244553470611572266e+01 -3.086798667907714844e+01 -1.153591394424438477e+00 4.477347373962402344e+00 9.971266984939575195e-01 -3.487874567508697510e-01
2.754000000000000000e+03 1.365423583984375000e+01 -3.450628662109375000e+01 -6.410365104675292969e-01 3.425038814544677734e+00 8.352007269859313965e-01 -3.563482463359832764e-01
2.755000000000000000e+03 2.940138626098632812e+01 -1.202529144287109375e+01 1.052517890930175781e+00 1.010748744010925293e+00 6.189799904823303223e-01 -2.610974073410034180e+00
2.756000000000000000e+03 3.111413002014160156e+01 -1.069804668426513672e+01 9.632856845855712891e-01 1.644653677940368652e+00 7.823817729949951172e-01 -3.056237220764160156e+00
2.757000000000000000e+03 4.378130722045898438e+01 -1.028797340393066406e+01 -7.032338380813598633e-01 8.885362625122070312e+00 2.454638481140136719e+00 1.144191384315490723e+00
2.758000000000000000e+03 7.316638183593750000e+01 4.428557872772216797e+00 -4.217936992645263672e-01 7.551875114440917969e+00 2.139024496078491211e+00 -3.716611266136169434e-01
2.759000000000000000e+03 6.558914184570312500e+00 2.512330293655395508e+00 1.073291659355163574e+00 1.116415143013000488e+00 6.569120287895202637e-01 -7.641168832778930664e-01
2.760000000000000000e+03 6.351907253265380859e+00 2.720937252044677734e+00 1.052387833595275879e+00 1.130282759666442871e+00 6.548011898994445801e-01 -7.004649639129638672e-01
2.761000000000000000e+03 7.989378929138183594e+00 -2.602907419204711914e+00 2.788856744766235352e+00 4.388249397277832031e+00 2.153131723403930664e+00 4.331487178802490234e+00
2.762000000000000000e+03 6.407505035400390625e+00 -2.574485540390014648e+00 1.958199143409729004e+00 1.680793881416320801e+00 1.091697931289672852e+00 2.119841814041137695e+00
2.763000000000000000e+03 8.765342712402343750e+00 -2.761054277420043945e+00 2.295483827590942383e+00 7.276970863342285156e+00 2.871736526489257812e+00 5.147084712982177734e+00
2.764000000000000000e+03 8.144111633300781250e+00 -2.848025798797607422e+00 2.449793338775634766e+00 5.257210731506347656e+00 2.312101125717163086e+00 4.542349815368652344e+00
2.765000000000000000e+03 6.770168304443359375e+00 -2.469470262527465820e+00 2.235265254974365234e+00 1.871842861175537109e+00 1.232132434844970703e+00 2.482785463333129883e+00
2.766000000000000000e+03 9.247836112976074219e+00 2.843949079513549805e+00 8.363220095634460449e-01 8.273059844970703125e+00 2.732814788818359375e+00 -3.361296415328979492e+00
2.767000000000000000e+03 5.564287185668945312e+00 2.302297115325927734e+00 5.041984915733337402e-01 4.200456738471984863e-01 2.772732377052307129e-01 -2.056645415723323822e-02
2.768000000000000000e+03 7.669773101806640625e+00 -3.051460742950439453e+00 2.198459625244140625e+00 4.238978862762451172e+00 1.931231617927551270e+00 3.954255342483520508e+00
2.769000000000000000e+03 7.253582000732421875e+00 -3.195034265518188477e+00 1.993754386901855469e+00 3.497086286544799805e+00 1.647252202033996582e+00 3.435535192489624023e+00
2.770000000000000000e+03 7.190870761871337891e+00 -2.694370508193969727e+00 2.472806692123413086e+00 2.809629201889038086e+00 1.584730744361877441e+00 3.243190288543701172e+00
2.771000000000000000e+03 8.630483627319335938e+00 3.011576890945434570e+00 1.224788427352905273e+00 5.781409263610839844e+00 2.101859331130981445e+00 -3.010439395904541016e+00
2.772000000000000000e+03 8.096065521240234375e+00 2.512645959854125977e+00 1.764237999916076660e+00 3.619676113128662109e+00 1.615174174308776855e+00 -2.650922298431396484e+00
2.773000000000000000e+03 8.214749336242675781e+00 3.232672452926635742e+00 1.324008464813232422e+00 4.783299922943115234e+00 1.832192540168762207e+00 -2.670736789703369141e+00
2.774000000000000000e+03 7.854103565216064453e+00 2.796578884124755859e+00 1.589557170867919922e+00 3.323522090911865234e+00 1.473923802375793457e+00 -2.317094326019287109e+00
2.775000000000000000e+03 6.594274520874023438e+00 2.973021984100341797e+00 1.245572566986083984e+00 1.551047563552856445e+00 8.389860391616821289e-01 -1.043053030967712402e+00
2.776000000000000000e+03 8.464294433593750000e+00 -2.994669198989868164e+00 2.086567878723144531e+00 6.400290966033935547e+00 2.546057701110839844e+00 4.769604682922363281e+00
2.777000000000000000e+03 7.147117137908935547e+00 2.408467531204223633e+00 1.407433986663818359e+00 1.574487566947937012e+00 8.945764899253845215e-01 -1.335201501846313477e+00
2.778000000000000000e+03 7.180914402008056641e+00 2.118845462799072266e+00 1.291298389434814453e+00 1.255043983459472656e+00 7.639027237892150879e-01 -1.166867852210998535e+00
2.779000000000000000e+03 9.450521469116210938e+00 3.060437679290771484e+00 5.059580802917480469e-01 9.023598670959472656e+00 2.858867168426513672e+00 -3.041963815689086914e+00
2.780000000000000000e+03 9.429831504821777344e+00 -2.784800767898559570e+00 1.600539207458496094e+00 1.010289001464843750e+01 3.511028766632080078e+00 5.051283359527587891e+00
2.781000000000000000e+03 1.268452262878417969e+01 -6.306908130645751953e-01 7.293962955474853516e+00 1.051444625854492188e+01 5.342522621154785156e+00 -2.137404829263687134e-01
2.782000000000000000e+03 8.972442626953125000e+00 3.666308641433715820e+00 6.030181646347045898e-01 7.161195278167724609e+00 2.329264163970947266e+00 -2.655284881591796875e+00
2.783000000000000000e+03 4.534258842468261719e+00 3.254691839218139648e+00 5.375930666923522949e-01 4.716500937938690186e-01 3.027729392051696777e-01 9.270142018795013428e-02
2.784000000000000000e+03 1.078487682342529297e+01 2.494385242462158203e+00 1.253038048744201660e-01 1.392766189575195312e+01 4.215889930725097656e+00 -6.545198559761047363e-01
2.785000000000000000e+03 1.070561885833740234e+01 -2.873440504074096680e+00 8.103590607643127441e-01 1.299206352233886719e+01 4.140727043151855469e+00 2.566342115402221680e+00
2.786000000000000000e+03 1.149720859527587891e+01 -2.348932027816772461e+00 2.262106418609619141e+00 1.346726036071777344e+01 4.718810081481933594e+00 2.650646567344665527e-01
2.787000000000000000e+03 1.229541492462158203e+01 1.082705140113830566e+00 5.838399410247802734e+00 1.237448310852050781e+01 5.463864803314208984e+00 2.963213205337524414e+00
2.788000000000000000e+03 1.289970016479492188e+01 5.128259658813476562e-01 6.665109157562255859e+00 1.031146812438964844e+01 5.092973232269287109e+00 1.814715027809143066e+00
2.789000000000000000e+03 1.226571941375732422e+01 -1.174516081809997559e+00 6.466891765594482422e+00 1.182290267944335938e+01 5.486938476562500000e+00 -9.644789099693298340e-01
2.790000000000000000e+03 1.097065734863281250e+01 3.223677396774291992e+00 -1.567950844764709473e-01 1.230227470397949219e+01 3.643643856048583984e+00 -5.042712092399597168e-01
2.791000000000000000e+03 4.171426296234130859e+00 2.706761598587036133e+00 2.796425819396972656e-01 1.971243023872375488e-01 1.430300772190093994e-01 3.251734375953674316e-01
2.792000000000000000e+03 4.389237880706787109e+00 -3.091031312942504883e+00 9.072859883308410645e-01 9.042783379554748535e-01 5.434693098068237305e-01 8.280699253082275391e-01
2.793000000000000000e+03 2.525522708892822266e+00 -2.565963029861450195e+00 2.750872075557708740e-01 1.924713551998138428e-01 1.402675658464431763e-01 1.784381084144115448e-02
2.794000000000000000e+03 2.924940347671508789e+00 -4.668776512145996094e+00 3.726420402526855469e-01 9.859901070594787598e-01 4.075896441936492920e-01 6.005672216415405273e-01
2.795000000000000000e+03 3.933375358581542969e+00 2.680822372436523438e+00 2.466697245836257935e-01 1.458913683891296387e-01 1.177683323621749878e-01 3.720439672470092773e-01
2.796000000000000000e+03 2.138842582702636719e+00 3.127091169357299805e+00 9.682832658290863037e-02 -2.598438262939453125e-01 -4.890464618802070618e-02 4.395945370197296143e-01
2.797000000000000000e+03 2.832218885421752930e+00 -2.870331764221191406e+00 3.594534397125244141e-01 3.298552930355072021e-01 2.067926079034805298e-01 1.157479584217071533e-01
2.798000000000000000e+03 4.856092453002929688e+00 -2.685363292694091797e+00 1.077310085296630859e+00 8.537026643753051758e-01 5.793038010597229004e-01 9.141727089881896973e-01
2.799000000000000000e+03 2.521793365478515625e+00 -3.984681844711303711e+00 2.856817841529846191e-01 5.266644954681396484e-01 2.437038868665695190e-01 2.925311923027038574e-01
2.800000000000000000e+03 3.598163127899169922e+00 2.664523363113403320e+00 1.612979918718338013e-01 4.656372964382171631e-02 6.235851719975471497e-02 4.359112977981567383e-01
2.801000000000000000e+03 3.846166849136352539e+00 3.166054964065551758e+00 3.536302149295806885e-01 2.103348374366760254e-01 1.691895276308059692e-01 3.015300631523132324e-01
2.802000000000000000e+03 3.587446451187133789e+00 -6.088769435882568359e+00 1.704716682434082031e-01 2.002200603485107422e+00 6.518016457557678223e-01 9.950054287910461426e-01
2.803000000000000000e+03 5.710973262786865234e+00 -2.997007369995117188e+00 1.497324824333190918e+00 1.478628993034362793e+00 8.927861452102661133e-01 1.711128950119018555e+00
2.804000000000000000e+03 5.701191902160644531e+00 9.130835533142089844e+00 1.671519130468368530e-01 3.164187431335449219e+00 9.994017481803894043e-01 -7.826249003410339355e-01
2.805000000000000000e+03 4.368196487426757812e+00 -8.057876586914062500e+00 -3.785870373249053955e-01 3.454732179641723633e+00 9.228435754776000977e-01 1.135349035263061523e+00
2.806000000000000000e+03 4.788725376129150391e+00 6.210833072662353516e+00 5.566021800041198730e-01 1.722255587577819824e+00 6.836573481559753418e-01 -5.905844569206237793e-01
2.807000000000000000e+03 3.485832214355468750e+00 5.559504032135009766e+00 4.505884051322937012e-01 6.507114768028259277e-01 3.303899765014648438e-01 -1.438201665878295898e-01
2.808000000000000000e+03 1.396440410614013672e+01 8.825638771057128906e+00 -2.343488633632659912e-01 9.245905876159667969e+00 2.703467130661010742e+00 6.485700607299804688e-01
2.809000000000000000e+03 5.519233703613281250e+00 -2.813292503356933594e+00 1.372659921646118164e+00 1.252114653587341309e+00 7.874323725700378418e-01 1.441017389297485352e+00
2.810000000000000000e+03 1.373006820678710938e+01 -8.638298988342285156e+00 -2.276553153991699219e+00 5.908478736877441406e+00 1.089577674865722656e+00 2.104576349258422852e+00
2.811000000000000000e+03 1.285451984405517578e+01 1.375558376312255859e+01 6.155695915222167969e-01 7.831398963928222656e+00 2.534090518951416016e+00 -1.242539379745721817e-02
2.812000000000000000e+03 1.268265247344970703e+01 1.043921947479248047e+01 -5.950670316815376282e-02 8.350616455078125000e+00 2.487333059310913086e+00 2.378793805837631226e-01
2.813000000000000000e+03 3.478735923767089844e+00 3.242721319198608398e+00 2.958829700946807861e-01 1.078327223658561707e-01 1.211147084832191467e-01 3.511578440666198730e-01
2.814000000000000000e+03 4.754509925842285156e+00 8.127630233764648438e+00 2.625074386596679688e-01 2.140195846557617188e+00 7.208110094070434570e-01 -6.585710048675537109e-01
2.815000000000000000e+03 6.972389698028564453e+00 -1.169528007507324219e+01 -1.199617505073547363e+00 6.730892181396484375e+00 1.659382343292236328e+00 4.137195348739624023e-01
2.816000000000000000e+03 5.719506740570068359e+00 -1.066893291473388672e+01 -9.730462431907653809e-01 5.386415481567382812e+00 1.324010729789733887e+00 6.620932817459106445e-01
2.817000000000000000e+03 5.496765136718750000e+00 -9.824201583862304688e+00 -9.540269970893859863e-01 4.994797706604003906e+00 1.212231278419494629e+00 9.446160793304443359e-01
2.818000000000000000e+03 4.483778953552246094e+00 8.799838066101074219e+00 2.104252576828002930e-01 2.020027875900268555e+00 6.691359877586364746e-01 -6.308926939964294434e-01
2.819000000000000000e+03 4.199331283569335938e+00 7.779025554656982422e+00 2.611676752567291260e-01 1.599495649337768555e+00 5.581989884376525879e-01 -5.274468660354614258e-01
2.820000000000000000e+03 4.361370468139648438e+01 -6.273209571838378906e+00 -2.348618745803833008e+00 9.245015144348144531e+00 2.068918704986572266e+00 1.223491907119750977e+00
2.821000000000000000e+03 6.107616424560546875e+00 -1.516856193542480469e+01 4.323878288269042969e-01 5.933946609497070312e+00 1.909900426864624023e+00 -6.370759755373001099e-02
2.822000000000000000e+03 1.300689888000488281e+01 -8.664885520935058594e+00 -2.572861194610595703e+00 6.776716232299804688e+00 1.261156558990478516e+00 2.283559799194335938e+00
2.823000000000000000e+03 1.469227790832519531e+01 7.863824367523193359e+00 -2.498434334993362427e-01 9.433311462402343750e+00 2.755040407180786133e+00 8.203903436660766602e-01
2.824000000000000000e+03 1.535391235351562500e+01 6.813909053802490234e+00 -1.440871953964233398e-01 9.292108535766601562e+00 2.744406461715698242e+00 9.107246398925781250e-01
2.825000000000000000e+03 3.995558166503906250e+01 -9.577504158020019531e+00 -5.759420990943908691e-01 6.491178989410400391e+00 1.774571061134338379e+00 1.066564917564392090e+00
2.826000000000000000e+03 2.898308515548706055e+00 3.322700023651123047e+00 2.288042902946472168e-01 -4.376645386219024658e-02 5.551135167479515076e-02 4.009404480457305908e-01
2.827000000000000000e+03 4.374998855590820312e+01 -4.613857269287109375e+00 -2.062568187713623047e+00 9.833167076110839844e+00 2.331179618835449219e+00 9.629446864128112793e-01
2.828000000000000000e+03 1.261070060729980469e+01 1.935758399963378906e+01 6.819323301315307617e-01 6.759090900421142578e+00 2.232306957244873047e+00 -8.647932410240173340e-01
2.829000000000000000e+03 1.650120544433593750e+01 4.191077709197998047e+00 9.707577228546142578e-01 7.910247802734375000e+00 2.664301633834838867e+00 8.239026069641113281e-01
2.830000000000000000e+03 7.656723499298095703e+00 1.005459690093994141e+01 1.567383110523223877e-02 4.868129730224609375e+00 1.465141057968139648e+00 -7.896968126296997070e-01
2.831000000000000000e+03 1.226119518280029297e+01 1.590236949920654297e+01 8.012412786483764648e-01 7.087247848510742188e+00 2.366546630859375000e+00 -3.896336853504180908e-01
2.832000000000000000e+03 4.051875686645507812e+01 -2.072803688049316406e+01 2.555413722991943359e+00 9.203807830810546875e+00 3.527766466140747070e+00 -2.234055846929550171e-01
2.833000000000000000e+03 7.181102752685546875e+01 5.864204406738281250e+00 -4.223129749298095703e-01 7.545969486236572266e+00 2.137096881866455078e+00 -3.040931820869445801e-01
2.834000000000000000e+03 1.355219936370849609e+01 7.383921146392822266e+00 -4.154108762741088867e-01 9.454537391662597656e+00 2.711737871170043945e+00 7.124356627464294434e-01
2.835000000000000000e+03 6.731940460205078125e+01 1.644481897354125977e+00 -3.710423111915588379e-01 4.972888469696044922e+00 1.380553841590881348e+00 3.713307380676269531e-01
2.836000000000000000e+03 1.708620643615722656e+01 9.318398833274841309e-01 3.239670753479003906e+00 5.503299713134765625e+00 2.622891187667846680e+00 -2.098904997110366821e-01
2.837000000000000000e+03 1.768233299255371094e+01 -5.924578011035919189e-02 3.391443252563476562e+00 4.519166469573974609e+00 2.373183012008666992e+00 -8.800555467605590820e-01
2.838000000000000000e+03 1.384903430938720703e+01 9.677913665771484375e+00 -1.328700035810470581e-01 9.048962593078613281e+00 2.674827814102172852e+00 5.286279916763305664e-01
2.839000000000000000e+03 1.709710884094238281e+01 -8.806572914123535156e+00 -9.439528584480285645e-01 1.515194773674011230e+00 1.713725924491882324e-01 -6.585205905139446259e-03
2.840000000000000000e+03 7.307706451416015625e+01 2.106149101257324219e+01 4.726738855242729187e-02 8.458384513854980469e+00 2.551695346832275391e+00 9.515671730041503906e-01
2.841000000000000000e+03 5.562498092651367188e+00 9.725078582763671875e+00 1.613225638866424561e-01 3.116010427474975586e+00 9.831998944282531738e-01 -7.625933885574340820e-01
2.842000000000000000e+03 3.700326156616210938e+01 -1.321896362304687500e+01 1.613101363182067871e+00 6.034111976623535156e+00 2.294163942337036133e+00 -6.864992380142211914e-01
2.843000000000000000e+03 4.678593444824218750e+01 -4.126400470733642578e+00 -1.228021025657653809e+00 8.066100120544433594e+00 2.051423549652099609e+00 2.313727140426635742e-01
2.844000000000000000e+03 1.725710678100585938e+01 2.489150810241699219e+01 -1.178254842758178711e+00 6.279208660125732422e+00 1.530286073684692383e+00 6.548153758049011230e-01
2.845000000000000000e+03 1.642144584655761719e+01 4.806306362152099609e+00 6.729484796524047852e-01 8.150706291198730469e+00 2.647096395492553711e+00 8.533592820167541504e-01
2.846000000000000000e+03 1.577816486358642578e+01 5.840418815612792969e+00 1.443017423152923584e-01 8.924766540527343750e+00 2.720720529556274414e+00 9.649693369865417480e-01
2.847000000000000000e+03 9.212231636047363281e+00 -1.249640750885009766e+01 -1.866650104522705078e+00 9.021655082702636719e+00 2.146501541137695312e+00 5.105640292167663574e-01
2.848000000000000000e+03 1.057056903839111328e+01 -1.089752960205078125e+01 -2.995563983917236328e+00 8.841138839721679688e+00 1.753672480583190918e+00 1.651983022689819336e+00
2.849000000000000000e+03 6.553221893310546875e+01 -8.904143571853637695e-01 -4.047877714037895203e-02 3.727025985717773438e+00 1.105964183807373047e+00 9.850236028432846069e-02
2.850000000000000000e+03 2.825267982482910156e+01 -9.694819450378417969e+00 4.484620988368988037e-01 1.561912775039672852e+00 6.031124591827392578e-01 -3.009501695632934570e+00
2.851000000000000000e+03 6.184582519531250000e+01 -3.998044252395629883e+00 4.583908915519714355e-01 1.485179543495178223e+00 5.830711722373962402e-01 -3.160852491855621338e-01
2.852000000000000000e+03 7.264141845703125000e+01 -2.650802993774414062e+01 -5.424021482467651367e-01 8.114053726196289062e+00 2.271495580673217773e+00 -7.862176299095153809e-01
2.853000000000000000e+03 7.337740325927734375e+01 -9.400126457214355469e+00 -5.026271343231201172e-01 7.964710712432861328e+00 2.238625049591064453e+00 7.641435861587524414e-01
2.854000000000000000e+03 1.005195331573486328e+01 -2.972033882141113281e+01 -1.081107497215270996e+00 5.457969188690185547e+00 1.313058614730834961e+00 2.481487840414047241e-01
2.855000000000000000e+03 4.225847244262695312e+01 1.579585266113281250e+01 6.515222042798995972e-02 6.182378292083740234e+00 1.874259233474731445e+00 -9.568320512771606445e-01
2.856000000000000000e+03 3.025764846801757812e+01 -8.749573707580566406e+00 4.756368100643157959e-01 1.455530643463134766e+00 5.793502330780029297e-01 -3.333603620529174805e+00
2.857000000000000000e+03 2.216038131713867188e+01 -8.163789749145507812e+00 3.203435540199279785e-01 1.296200513839721680e+00 4.849632382392883301e-01 -2.050360202789306641e+00
2.858000000000000000e+03 1.932526969909667969e+01 -8.312326431274414062e+00 -3.571238517761230469e-01 1.063290238380432129e+00 2.118499279022216797e-01 -1.440355896949768066e+00
2.859000000000000000e+03 7.257969665527343750e+01 2.154348373413085938e+00 -4.885730743408203125e-01 7.226028919219970703e+00 2.021236658096313477e+00 -1.733807325363159180e-01
2.860000000000000000e+03 7.128826904296875000e+01 -4.509067058563232422e+00 -6.642746329307556152e-01 6.856198787689208984e+00 1.857577204704284668e+00 5.169925093650817871e-02
2.861000000000000000e+03 7.224868011474609375e+01 -2.336358308792114258e+00 -5.749279260635375977e-01 6.989336967468261719e+00 1.924322724342346191e+00 4.886128753423690796e-02
2.862000000000000000e+03 4.119875717163085938e+01 -7.867551326751708984e+00 -1.675429344177246094e+00 7.439689159393310547e+00 1.729277968406677246e+00 1.596245527267456055e+00
2.863000000000000000e+03 7.437325286865234375e+01 1.904948997497558594e+01 6.412739157676696777e-01 8.130090713500976562e+00 2.631409406661987305e+00 8.746048212051391602e-01
2.864000000000000000e+03 6.218899917602539062e+01 -2.096629142761230469e+00 5.254830121994018555e-01 1.668200373649597168e+00 6.581050157546997070e-01 -8.554724603891372681e-02
2.865000000000000000e+03 6.154477691650390625e+01 -5.508800983428955078e+00 3.374553918838500977e-01 1.255010724067687988e+00 4.777398109436035156e-01 -4.719692766666412354e-01
2.866000000000000000e+03 1.197246932983398438e+01 1.698433303833007812e+01 7.697798013687133789e-01 6.758383274078369141e+00 2.258448839187622070e+00 -6.003344655036926270e-01
2.867000000000000000e+03 3.818621826171875000e+01 -1.564023208618164062e+01 2.352983951568603516e+00 7.571977138519287109e+00 2.977488279342651367e+00 -4.036795198917388916e-01
2.868000000000000000e+03 3.955272674560546875e+01 -1.314042949676513672e+01 1.304646015167236328e+00 7.190254688262939453e+00 2.548470258712768555e+00 3.842267692089080811e-01
2.869000000000000000e+03 7.695625782012939453e+00 -2.441094017028808594e+01 -3.125143945217132568e-01 6.982553958892822266e+00 2.001011848449707031e+00 1.505318045616149902e+00
2.870000000000000000e+03 6.741243743896484375e+01 -8.602162361145019531e+00 -6.699153184890747070e-01 5.550156593322753906e+00 1.464072346687316895e+00 -1.094290256500244141e+00
2.871000000000000000e+03 7.204505920410156250e+01 2.651441192626953125e+01 -1.001317143440246582e+00 7.711317062377929688e+00 2.013000011444091797e+00 -9.818144887685775757e-02
2.872000000000000000e+03 7.023962402343750000e+01 2.393445968627929688e+01 -1.456835865974426270e+00 8.408845901489257812e+00 2.085603237152099609e+00 -1.648742705583572388e-01
2.873000000000000000e+03 7.690285205841064453e+00 -2.914017105102539062e+01 -8.463822603225708008e-01 5.884506702423095703e+00 1.511437296867370605e+00 9.059643149375915527e-01
2.874000000000000000e+03 6.215135574340820312e+00 2.284077453613281250e+01 -5.345450714230537415e-02 4.116018772125244141e+00 1.218769311904907227e+00 -1.132811069488525391e+00
2.875000000000000000e+03 9.062506675720214844e+00 2.590695762634277344e+01 -4.266504943370819092e-01 4.984752178192138672e+00 1.367430448532104492e+00 -1.050815343856811523e+00
2.876000000000000000e+03 7.113144683837890625e+01 -2.555027389526367188e+01 -5.502282381057739258e-01 8.517867088317871094e+00 2.390291690826416016e+00 -5.400243997573852539e-01
2.877000000000000000e+03 7.230432891845703125e+01 -2.512054061889648438e+01 -3.128207921981811523e-01 8.377014160156250000e+00 2.419257879257202148e+00 -8.643895983695983887e-01
2.878000000000000000e+03 2.111014938354492188e+01 -6.529850959777832031e+00 1.199331879615783691e+00 1.453699111938476562e+00 7.959092855453491211e-01 -2.030467987060546875e+00
2.879000000000000000e+03 1.913257217407226562e+01 -1.947641968727111816e+00 3.148818731307983398e+00 2.935956478118896484e+00 1.825432538986206055e+00 -1.736858248710632324e+00
2.880000000000000000e+03 7.378855133056640625e+01 -1.333997821807861328e+01 2.819791734218597412e-01 8.163576126098632812e+00 2.533666372299194336e+00 9.837426543235778809e-01
2.881000000000000000e+03 7.081897735595703125e+01 3.895615339279174805e+00 -6.039164662361145020e-01 6.976332664489746094e+00 1.911724805831909180e+00 -4.748922586441040039e-02
2.882000000000000000e+03 7.231945037841796875e+01 -4.697769641876220703e+00 -6.279093623161315918e-01 7.141693592071533203e+00 1.954135298728942871e+00 1.380081623792648315e-01
2.883000000000000000e+03 7.198371887207031250e+01 -1.162587356567382812e+01 -1.884348243474960327e-01 8.487829208374023438e+00 2.489818334579467773e+00 8.196603059768676758e-01
2.884000000000000000e+03 7.222860717773437500e+01 -5.769689083099365234e+00 -6.942640542984008789e-01 7.290768146514892578e+00 1.978951215744018555e+00 2.033029198646545410e-01
2.885000000000000000e+03 6.979919433593750000e+01 -9.286103248596191406e+00 -8.074235916137695312e-01 7.487349510192871094e+00 2.003977775573730469e+00 -2.350294739007949829e-01
2.886000000000000000e+03 7.571627616882324219e+00 1.604301261901855469e+01 2.709462344646453857e-01 4.488493442535400391e+00 1.427831888198852539e+00 -8.887153267860412598e-01
2.887000000000000000e+03 8.264913558959960938e+00 -1.370906066894531250e+01 -5.159147381782531738e-01 8.133020401000976562e+00 2.285131692886352539e+00 1.824566721916198730e-02
2.888000000000000000e+03 7.773663520812988281e+00 1.882228088378906250e+01 2.092869579792022705e-01 4.552788257598876953e+00 1.428622603416442871e+00 -1.096339702606201172e+00
2.889000000000000000e+03 6.068714141845703125e+01 -2.686809778213500977e+00 6.934646368026733398e-01 9.482718110084533691e-01 4.925209283828735352e-01 -1.978834569454193115e-01
2.890000000000000000e+03 1.991092872619628906e+01 -1.223592400550842285e+00 3.108746528625488281e+00 2.616614341735839844e+00 1.717608213424682617e+00 -1.828724384307861328e+00
2.891000000000000000e+03 7.403187561035156250e+01 2.265213966369628906e+01 -3.333298265933990479e-01 8.352882385253906250e+00 2.405865669250488281e+00 8.861089944839477539e-01
2.892000000000000000e+03 1.187742233276367188e+01 2.913730049133300781e+01 -7.504454255104064941e-01 5.184709548950195312e+00 1.330279231071472168e+00 -4.991289377212524414e-01
2.893000000000000000e+03 1.281555461883544922e+01 1.836123085021972656e+01 8.009177446365356445e-01 6.966864109039306641e+00 2.330334424972534180e+00 -6.573161482810974121e-01
2.894000000000000000e+03 6.173929214477539062e+01 -2.997380018234252930e+00 5.261909961700439453e-01 1.421791553497314453e+00 5.843947529792785645e-01 -2.265721261501312256e-01
2.895000000000000000e+03 6.359370422363281250e+01 -5.208998203277587891e+00 1.491998285055160522e-01 2.396880388259887695e+00 7.638241052627563477e-01 -6.022430658340454102e-01
2.896000000000000000e+03 7.267801666259765625e+01 8.836249351501464844e+00 1.467158179730176926e-02 8.164166450500488281e+00 2.453651428222656250e+00 -6.193447113037109375e-01
2.897000000000000000e+03 3.742443847656250000e+01 -1.114882946014404297e+01 7.722935676574707031e-01 5.139693260192871094e+00 1.773595929145812988e+00 -2.434780746698379517e-01
2.898000000000000000e+03 7.081866455078125000e+01 -3.084365081787109375e+01 -7.846817970275878906e-01 6.916956901550292969e+00 1.839682459831237793e+00 6.652337312698364258e-02
2.899000000000000000e+03 7.206097412109375000e+01 1.245497584342956543e+00 -5.309065580368041992e-01 7.040955543518066406e+00 1.953014731407165527e+00 -1.254650652408599854e-01
2.900000000000000000e+03 6.616598510742187500e+01 -4.586360931396484375e+00 -2.533991336822509766e-01 4.135149478912353516e+00 1.164525151252746582e+00 -5.022143125534057617e-01
2.901000000000000000e+03 4.204434585571289062e+01 -1.293372058868408203e+01 1.044878244400024414e+00 8.267779350280761719e+00 2.793797254562377930e+00 9.534016251564025879e-01
2.902000000000000000e+03 4.231119918823242188e+01 -1.091267395019531250e+01 -2.430444806814193726e-01 8.223483085632324219e+00 2.394131660461425781e+00 1.123021125793457031e+00
2.903000000000000000e+03 7.167814636230468750e+01 5.000032186508178711e-01 -5.653482675552368164e-01 6.871942043304443359e+00 1.891978144645690918e+00 -5.027101561427116394e-02
2.904000000000000000e+03 7.137395477294921875e+01 2.549079322814941406e+01 -1.173983812332153320e+00 7.866775989532470703e+00 2.007837533950805664e+00 -3.104501590132713318e-02
2.905000000000000000e+03 7.261645507812500000e+01 4.822371006011962891e-01 -4.998708069324493408e-01 7.122907161712646484e+00 1.986910939216613770e+00 -1.103894039988517761e-01
2.906000000000000000e+03 7.242021942138671875e+01 -1.312722086906433105e+00 -4.898782670497894287e-01 7.045784473419189453e+00 1.966771841049194336e+00 -1.393310073763132095e-02
2.907000000000000000e+03 4.328838729858398438e+01 -2.562205505371093750e+01 1.504876852035522461e+00 8.410414695739746094e+00 2.974587678909301758e+00 -7.160525321960449219e-01
2.908000000000000000e+03 7.340396881103515625e+01 -6.909439086914062500e+00 -6.107069849967956543e-01 7.661738872528076172e+00 2.115309476852416992e+00 4.685573279857635498e-01
2.909000000000000000e+03 6.987535858154296875e+01 -7.255947113037109375e+00 -7.941112518310546875e-01 6.752361297607421875e+00 1.787474989891052246e+00 -2.144173979759216309e-01
2.910000000000000000e+03 7.318814086914062500e+01 5.401619434356689453e+00 -3.903737664222717285e-01 7.683795452117919922e+00 2.188026428222656250e+00 -5.068185329437255859e-01
2.911000000000000000e+03 4.512426376342773438e+01 -2.782468795776367188e+01 3.955132961273193359e-01 7.568138122558593750e+00 2.389095544815063477e+00 -1.342976808547973633e+00
2.912000000000000000e+03 9.966203689575195312e+00 -3.110237121582031250e+01 -1.055947542190551758e+00 5.273789882659912109e+00 1.265352725982666016e+00 1.775723248720169067e-01
2.913000000000000000e+03 1.121526241302490234e+01 -3.117424201965332031e+01 -1.062640666961669922e+00 4.837148666381835938e+00 1.132352471351623535e+00 -9.317466616630554199e-02
2.914000000000000000e+03 6.285375118255615234e+00 -1.761735725402832031e+01 1.193829774856567383e+00 6.105334758758544922e+00 2.189749240875244141e+00 4.696833491325378418e-01
2.915000000000000000e+03 8.369071006774902344e+00 1.209858608245849609e+01 1.058388575911521912e-01 5.230254650115966797e+00 1.600828051567077637e+00 -6.367186903953552246e-01
2.916000000000000000e+03 9.898276329040527344e+00 2.920140075683593750e+01 -6.052221059799194336e-01 4.965388774871826172e+00 1.308050036430358887e+00 -6.980484127998352051e-01
2.917000000000000000e+03 7.235961914062500000e+01 4.965115547180175781e+00 -5.093870759010314941e-01 7.556974887847900391e+00 2.114276409149169922e+00 -3.314213156700134277e-01
2.918000000000000000e+03 7.120960235595703125e+00 -1.386980152130126953e+01 -2.084961682558059692e-01 6.986068725585937500e+00 2.033271789550781250e+00 -1.429234296083450317e-01
2.919000000000000000e+03 8.113585472106933594e+00 -1.268952083587646484e+01 -1.138365268707275391e+00 7.936104774475097656e+00 2.039321899414062500e+00 1.367793977260589600e-01
2.920000000000000000e+03 4.328251647949218750e+01 -2.947587394714355469e+01 -2.024871855974197388e-01 7.314504623413085938e+00 2.133605241775512695e+00 -8.185141086578369141e-01
2.921000000000000000e+03 6.910568237304687500e+01 -7.997716426849365234e+00 -8.289926052093505859e-01 6.566154956817626953e+00 1.721148729324340820e+00 -5.432980060577392578e-01
2.922000000000000000e+03 7.290862274169921875e+01 -3.342949676513671875e+01 -4.270104169845581055e-01 7.102397918701171875e+00 2.002616167068481445e+00 -2.572994120419025421e-02
2.923000000000000000e+03 1.770165443420410156e+01 2.680582809448242188e+01 -1.113288640975952148e+00 5.383134365081787109e+00 1.280953764915466309e+00 9.183132648468017578e-01
2.924000000000000000e+03 1.939801979064941406e+01 2.612102699279785156e+01 -1.036151647567749023e+00 4.656560420989990234e+00 1.086122632026672363e+00 1.503811240196228027e+00
2.925000000000000000e+03 1.563700103759765625e+01 2.538810348510742188e+01 -1.020496726036071777e+00 6.260359764099121094e+00 1.571958899497985840e+00 8.700910955667495728e-02
2.926000000000000000e+03 1.486800003051757812e+01 2.262805366516113281e+01 -3.451371788978576660e-01 7.033291816711425781e+00 2.006446361541748047e+00 -4.670814573764801025e-01
2.927000000000000000e+03 4.366672897338867188e+01 2.306045722961425781e+01 -7.953327298164367676e-01 5.069350242614746094e+00 1.282205224037170410e+00 -6.092711687088012695e-01
2.928000000000000000e+03 2.122969436645507812e+01 -2.899078369140625000e+00 2.923467874526977539e+00 1.789657354354858398e+00 1.413937568664550781e+00 -2.154101610183715820e+00
2.929000000000000000e+03 2.134315299987792969e+01 -4.216225147247314453e+00 2.529990196228027344e+00 1.602809786796569824e+00 1.239840030670166016e+00 -2.118994951248168945e+00
2.930000000000000000e+03 5.461066436767578125e+01 3.261120605468750000e+01 -6.560714915394783020e-03 2.787115812301635742e+00 8.341665267944335938e-01 8.776265978813171387e-01
2.931000000000000000e+03 5.549350738525390625e+01 2.970877075195312500e+01 -2.262637764215469360e-01 2.450058698654174805e+00 6.671385169029235840e-01 1.238278865814208984e+00
2.932000000000000000e+03 4.420121383666992188e+01 -3.146196365356445312e+01 -7.797542214393615723e-01 6.660861492156982422e+00 1.764332175254821777e+00 -1.055868268013000488e+00
2.933000000000000000e+03 4.450231933593750000e+01 -2.988776588439941406e+01 -2.873305082321166992e-01 7.054302692413330078e+00 2.030091524124145508e+00 -1.134013772010803223e+00
2.934000000000000000e+03 4.222604370117187500e+01 -8.349028587341308594e+00 -1.676262974739074707e+00 8.221394538879394531e+00 1.963539481163024902e+00 1.488646626472473145e+00
2.935000000000000000e+03 4.088687896728515625e+01 -1.313067722320556641e+01 1.097321152687072754e+00 7.762764453887939453e+00 2.658025741577148438e+00 7.576852440834045410e-01
2.936000000000000000e+03 3.474427032470703125e+01 2.708416175842285156e+01 -3.408816158771514893e-01 1.978739500045776367e+00 4.913573563098907471e-01 -8.713220953941345215e-01
2.937000000000000000e+03 6.863053131103515625e+01 2.696480560302734375e+01 -1.008852481842041016e+00 5.887826919555664062e+00 1.463692307472229004e+00 -1.125202059745788574e+00
2.938000000000000000e+03 6.880615234375000000e+01 2.526792144775390625e+01 -1.483151078224182129e+00 6.533422946929931641e+00 1.515081524848937988e+00 -1.073402166366577148e+00
2.939000000000000000e+03 4.322250747680664062e+01 2.492233657836914062e+01 -9.240034222602844238e-01 4.631563186645507812e+00 1.112267851829528809e+00 -6.147333979606628418e-01
2.940000000000000000e+03 4.819068908691406250e+01 2.220447921752929688e+01 -6.724575757980346680e-01 6.085354328155517578e+00 1.623868942260742188e+00 4.732836186885833740e-01
2.941000000000000000e+03 4.301622009277343750e+01 1.694739532470703125e+01 -6.211256980895996094e-02 6.241036891937255859e+00 1.853677272796630859e+00 -6.682829260826110840e-01
2.942000000000000000e+03 5.782645797729492188e+01 2.847854804992675781e+01 -1.076033636927604675e-01 1.678681254386901855e+00 4.713233709335327148e-01 1.065221548080444336e+00
2.943000000000000000e+03 6.034276580810546875e+01 2.897750282287597656e+01 2.195428758859634399e-01 1.571146488189697266e+00 5.372068285942077637e-01 2.871205508708953857e-01
2.944000000000000000e+03 8.759943962097167969e+00 -3.083820915222167969e+01 -9.067453145980834961e-01 5.443848133087158203e+00 1.361130833625793457e+00 4.853165149688720703e-01
2.945000000000000000e+03 8.868201255798339844e+00 -2.949379348754882812e+01 -1.040838599205017090e+00 5.833984851837158203e+00 1.437943816184997559e+00 5.698517560958862305e-01
2.946000000000000000e+03 9.591060638427734375e+00 2.802156209945678711e+00 5.014060139656066895e-01 9.754158020019531250e+00 3.076669216156005859e+00 -3.210608959197998047e+00
2.947000000000000000e+03 7.622696399688720703e+00 2.913287401199340820e+00 1.536219477653503418e+00 2.976900577545166016e+00 1.353935956954956055e+00 -2.081242561340332031e+00
2.948000000000000000e+03 8.744727134704589844e+00 3.329408407211303711e+00 9.744473099708557129e-01 6.377348423004150391e+00 2.205538749694824219e+00 -2.912864923477172852e+00
2.949000000000000000e+03 9.132608413696289062e+00 -3.257824659347534180e+00 1.262963056564331055e+00 8.647526741027832031e+00 2.973146915435791016e+00 4.798861980438232422e+00
2.950000000000000000e+03 4.133965969085693359e+00 5.131882667541503906e+00 5.975301265716552734e-01 9.066591262817382812e-01 4.512567818164825439e-01 -2.461915016174316406e-01
2.951000000000000000e+03 5.742236137390136719e+00 3.123991727828979492e+00 9.221590757369995117e-01 9.778628945350646973e-01 5.700066089630126953e-01 -4.509935677051544189e-01
2.952000000000000000e+03 8.589183807373046875e+00 -2.690977334976196289e+00 2.553306341171264648e+00 6.550740718841552734e+00 2.731214046478271484e+00 5.115762710571289062e+00
2.953000000000000000e+03 7.425140857696533203e+00 -2.861541509628295898e+00 2.397054433822631836e+00 3.439645051956176758e+00 1.751009941101074219e+00 3.564169645309448242e+00
2.954000000000000000e+03 7.390789985656738281e+00 3.052755594253540039e+00 1.512487173080444336e+00 2.748673439025878906e+00 1.278348207473754883e+00 -1.897162914276123047e+00
2.955000000000000000e+03 6.889761924743652344e+00 3.071009874343872070e+00 1.308820128440856934e+00 2.019432306289672852e+00 9.984756708145141602e-01 -1.311303615570068359e+00
2.956000000000000000e+03 1.009867191314697266e+01 2.924022436141967773e+00 -2.667553350329399109e-02 1.135857391357421875e+01 3.399569511413574219e+00 -2.274477720260620117e+00
2.957000000000000000e+03 1.015720081329345703e+01 -2.786697626113891602e+00 9.010066986083984375e-01 1.239398860931396484e+01 3.988498687744140625e+00 3.839138746261596680e+00
2.958000000000000000e+03 1.205142116546630859e+01 -2.123941659927368164e+00 3.428831338882446289e+00 1.236795806884765625e+01 4.739036560058593750e+00 -6.755070686340332031e-01
2.959000000000000000e+03 4.784229278564453125e+00 -6.488767623901367188e+00 -9.366241283714771271e-03 3.184298038482666016e+00 9.524795413017272949e-01 1.568135380744934082e+00
2.960000000000000000e+03 1.026600646972656250e+01 -3.111281633377075195e+00 5.871892571449279785e-01 1.189219760894775391e+01 3.743816137313842773e+00 3.464616537094116211e+00
2.961000000000000000e+03 4.695141792297363281e+00 -3.734221458435058594e+00 9.614940881729125977e-01 1.455628991127014160e+00 7.251369357109069824e-01 1.251327753067016602e+00
2.962000000000000000e+03 4.759040355682373047e+00 -3.179397583007812500e+00 1.018604636192321777e+00 1.108783841133117676e+00 6.382165551185607910e-01 1.058465957641601562e+00
2.963000000000000000e+03 3.992397785186767578e+00 -4.306422710418701172e+00 6.274065971374511719e-01 1.426262974739074707e+00 6.161008477210998535e-01 9.916344881057739258e-01
2.964000000000000000e+03 4.248636245727539062e+00 3.385519504547119141e+00 5.157377123832702637e-01 4.061963558197021484e-01 2.765802145004272461e-01 1.435763090848922729e-01
2.965000000000000000e+03 1.036058902740478516e+01 2.868947982788085938e+00 -1.139789149165153503e-01 1.190900421142578125e+01 3.538507461547851562e+00 -1.827718377113342285e+00
2.966000000000000000e+03 1.308456897735595703e+01 -6.541366577148437500e-01 6.639808654785156250e+00 9.558596611022949219e+00 4.859521865844726562e+00 -1.164857074618339539e-01
2.967000000000000000e+03 1.697531318664550781e+01 3.370530605316162109e+00 1.480915904045104980e+00 6.980722904205322266e+00 2.538491487503051758e+00 4.204942882061004639e-01
2.968000000000000000e+03 1.251884365081787109e+01 1.477463126182556152e+00 4.427131652832031250e+00 1.201109504699707031e+01 4.931468009948730469e+00 2.793947458267211914e+00
2.969000000000000000e+03 1.185440731048583984e+01 1.732610464096069336e+00 3.131004095077514648e+00 1.408172607421875000e+01 5.163819313049316406e+00 2.681631326675415039e+00
2.970000000000000000e+03 1.213109588623046875e+01 -1.867302536964416504e+00 4.328464031219482422e+00 1.221832180023193359e+01 4.964035987854003906e+00 -9.209522604942321777e-01
2.971000000000000000e+03 1.264457130432128906e+01 -1.397203087806701660e+00 5.640950202941894531e+00 1.078871250152587891e+01 4.928898811340332031e+00 -9.335699081420898438e-01
2.972000000000000000e+03 1.291299629211425781e+01 1.400044083595275879e+00 4.603273868560791016e+00 1.101064109802246094e+01 4.684174537658691406e+00 2.529217481613159180e+00
2.973000000000000000e+03 6.074409008026123047e+00 2.971746206283569336e+00 1.017780303955078125e+00 1.087609410285949707e+00 6.316169500350952148e-01 -6.004680991172790527e-01
2.974000000000000000e+03 4.783186435699462891e+00 3.229409694671630859e+00 6.154978871345520020e-01 5.382465720176696777e-01 3.461233377456665039e-01 -1.852125115692615509e-02
2.975000000000000000e+03 3.519308805465698242e+00 2.918895483016967773e+00 2.289250344038009644e-01 6.262618303298950195e-02 8.746536821126937866e-02 4.081881642341613770e-01
2.976000000000000000e+03 4.500229835510253906e+00 -7.165455341339111328e+00 -1.800760328769683838e-01 3.215862035751342773e+00 9.107357859611511230e-01 1.336606264114379883e+00
2.977000000000000000e+03 1.296207046508789062e+01 9.535843849182128906e+00 -2.431516647338867188e-01 8.778611183166503906e+00 2.560637712478637695e+00 3.684943318367004395e-01
2.978000000000000000e+03 5.821934223175048828e+00 1.276647758483886719e+01 7.144248485565185547e-02 3.371035575866699219e+00 1.032743453979492188e+00 -7.596676945686340332e-01
2.979000000000000000e+03 3.475205183029174805e+00 3.667085886001586914e+00 3.819136023521423340e-01 1.726801246404647827e-01 1.663781255483627319e-01 2.665775716304779053e-01
2.980000000000000000e+03 2.558578729629516602e+00 5.141221046447753906e+00 2.923745512962341309e-01 7.005782332271337509e-03 8.981410413980484009e-02 1.201785206794738770e-01
2.981000000000000000e+03 4.716298103332519531e+00 -8.582436561584472656e+00 -5.587806105613708496e-01 3.847288608551025391e+00 9.865523576736450195e-01 1.137976884841918945e+00
2.982000000000000000e+03 5.873175144195556641e+00 -7.890056610107421875e+00 -7.454094886779785156e-01 4.800201416015625000e+00 1.216437578201293945e+00 1.677808761596679688e+00
2.983000000000000000e+03 1.324756526947021484e+01 8.685962677001953125e+00 -3.287912011146545410e-01 9.030488014221191406e+00 2.610509157180786133e+00 4.889947474002838135e-01
2.984000000000000000e+03 1.153499794006347656e+01 -9.255058288574218750e+00 -3.100084066390991211e+00 8.237192153930664062e+00 1.541132450103759766e+00 2.404178857803344727e+00
2.985000000000000000e+03 4.475530624389648438e+00 5.661677360534667969e+00 6.070380806922912598e-01 1.292752861976623535e+00 5.699372887611389160e-01 -4.281169474124908447e-01
2.986000000000000000e+03 5.914155006408691406e+00 8.198873519897460938e+00 2.365187257528305054e-01 3.205085515975952148e+00 1.032481312751770020e+00 -8.591399192810058594e-01
2.987000000000000000e+03 3.580164670944213867e+00 -5.320375442504882812e+00 3.343375623226165771e-01 1.650099158287048340e+00 5.953310132026672363e-01 9.526579380035400391e-01
2.988000000000000000e+03 4.199125289916992188e+00 -6.010467052459716797e+00 1.883157938718795776e-01 2.429220676422119141e+00 7.852609753608703613e-01 1.300523400306701660e+00
2.989000000000000000e+03 5.547080039978027344e+00 7.906085491180419922e+00 2.912811338901519775e-01 2.810486793518066406e+00 9.305303692817687988e-01 -8.107998371124267578e-01
2.990000000000000000e+03 6.156369686126708984e+00 9.957662582397460938e+00 1.373554319143295288e-01 3.575343370437622070e+00 1.113809704780578613e+00 -7.885596156120300293e-01
2.991000000000000000e+03 1.449530601501464844e+01 -8.532847404479980469e+00 -1.808204174041748047e+00 4.786469936370849609e+00 8.934797644615173340e-01 1.691050171852111816e+00
2.992000000000000000e+03 1.301996421813964844e+01 -7.909903526306152344e+00 -2.071053743362426758e+00 7.002923011779785156e+00 1.479560732841491699e+00 2.044156789779663086e+00
2.993000000000000000e+03 8.974077224731445312e+00 -1.160154438018798828e+01 -2.142889738082885742e+00 8.422124862670898438e+00 1.883770465850830078e+00 8.505985736846923828e-01
2.994000000000000000e+03 1.794788169860839844e+01 -6.706195831298828125e+00 8.090323209762573242e-01 2.321092128753662109e+00 9.390373229980468750e-01 -1.046343684196472168e+00
2.995000000000000000e+03 5.384067535400390625e+00 -9.102499961853027344e+00 -8.312587738037109375e-01 4.646249294281005859e+00 1.144497156143188477e+00 1.128865003585815430e+00
2.996000000000000000e+03 5.277853488922119141e+00 8.397231101989746094e+00 2.452283948659896851e-01 2.647770404815673828e+00 8.678996562957763672e-01 -7.309315800666809082e-01
2.997000000000000000e+03 4.670547008514404297e+00 7.169308185577392578e+00 3.958307206630706787e-01 1.872939348220825195e+00 6.806310415267944336e-01 -6.023814678192138672e-01
2.998000000000000000e+03 1.611789512634277344e+01 2.348248481750488281e+00 2.468346595764160156e+00 7.190210819244384766e+00 2.897567272186279297e+00 7.836167216300964355e-01
2.999000000000000000e+03 5.882266521453857422e+00 1.070162391662597656e+01 8.376339823007583618e-02 3.320986270904541016e+00 1.021424889564514160e+00 -7.606489062309265137e-01
3.000000000000000000e+03 1.529269409179687500e+01 -8.332962989807128906e+00 -1.355884194374084473e+00 3.834007263183593750e+00 7.434369325637817383e-01 1.151677012443542480e+00
3.001000000000000000e+03 1.655618667602539062e+01 1.734170198440551758e+00 2.911956548690795898e+00 6.375720500946044922e+00 2.786303043365478516e+00 3.403382897377014160e-01
3.002000000000000000e+03 5.296704769134521484e+00 -8.444137573242187500e+00 -7.022541761398315430e-01 4.374404430389404297e+00 1.101645112037658691e+00 1.325390577316284180e+00
3.003000000000000000e+03 6.840586090087890625e+01 2.651327371597290039e+00 -4.781812429428100586e-01 5.751755237579345703e+00 1.582072257995605469e+00 3.736324012279510498e-01
3.004000000000000000e+03 6.799472808837890625e+01 3.764523267745971680e-01 -3.924121558666229248e-01 5.282774925231933594e+00 1.467108845710754395e+00 1.900495290756225586e-01
3.005000000000000000e+03 6.802436828613281250e+01 -4.635222911834716797e+00 -5.607023835182189941e-01 5.415266036987304688e+00 1.456369042396545410e+00 -3.680015504360198975e-01
3.006000000000000000e+03 6.755575561523437500e+01 -6.581444740295410156e+00 -6.160387396812438965e-01 5.388486385345458984e+00 1.431734323501586914e+00 -6.637926697731018066e-01
3.007000000000000000e+03 4.197809982299804688e+01 -1.193595886230468750e+01 4.037053883075714111e-01 8.025087356567382812e+00 2.528637647628784180e+00 9.904303550720214844e-01
3.008000000000000000e+03 4.032392501831054688e+01 -1.050703811645507812e+01 -2.015221863985061646e-01 7.024952411651611328e+00 2.047029018402099609e+00 9.331754446029663086e-01
3.009000000000000000e+03 1.866142654418945312e+01 -7.477020740509033203e+00 4.008668065071105957e-01 1.577955842018127441e+00 5.936468243598937988e-01 -1.261675834655761719e+00
3.010000000000000000e+03 1.656999206542968750e+01 -8.236731529235839844e+00 -6.808313727378845215e-01 2.528140783309936523e+00 5.541927814483642578e-01 2.254366576671600342e-01
3.011000000000000000e+03 1.575116348266601562e+01 4.660635471343994141e+00 7.154162526130676270e-01 8.679566383361816406e+00 2.818494796752929688e+00 1.147281169891357422e+00
3.012000000000000000e+03 7.098946380615234375e+01 -9.335400581359863281e+00 -7.931559681892395020e-01 7.917677402496337891e+00 2.137356519699096680e+00 1.997393816709518433e-01
3.013000000000000000e+03 7.218241119384765625e+01 -9.355710029602050781e+00 -6.057026386260986328e-01 7.961517333984375000e+00 2.206744432449340820e+00 5.747534632682800293e-01
3.014000000000000000e+03 3.589152908325195312e+01 -1.317255973815917969e+01 1.889106512069702148e+00 5.156569957733154297e+00 2.113703012466430664e+00 -1.435532212257385254e+00
3.015000000000000000e+03 6.905804443359375000e+01 -1.851806640625000000e+00 -4.934452176094055176e-01 5.737757682800292969e+00 1.573293805122375488e+00 -4.851556941866874695e-02
3.016000000000000000e+03 1.222357368469238281e+01 -9.381073951721191406e+00 -3.234206676483154297e+00 7.697537422180175781e+00 1.338999152183532715e+00 2.478734493255615234e+00
3.017000000000000000e+03 3.836381149291992188e+01 -1.056753730773925781e+01 2.059957087039947510e-01 5.321321964263916016e+00 1.658195257186889648e+00 4.732578396797180176e-01
3.018000000000000000e+03 8.449536323547363281e+00 -3.207859039306640625e+01 -7.993422150611877441e-01 5.299423694610595703e+00 1.350024461746215820e+00 4.088075459003448486e-01
3.019000000000000000e+03 2.031602668762207031e+01 -7.505062103271484375e+00 5.462772250175476074e-01 1.294343471527099609e+00 5.521861910820007324e-01 -1.846436500549316406e+00
3.020000000000000000e+03 1.381984233856201172e+01 8.122392654418945312e+00 -4.067218899726867676e-01 9.339596748352050781e+00 2.679862499237060547e+00 6.498569846153259277e-01
3.021000000000000000e+03 1.116464996337890625e+01 1.555015659332275391e+01 6.086876392364501953e-01 6.537965774536132812e+00 2.143996000289916992e+00 -5.238998532295227051e-01
3.022000000000000000e+03 7.886403560638427734e+00 1.422504806518554688e+01 2.369198650121688843e-01 4.757180690765380859e+00 1.498230099678039551e+00 -7.619790434837341309e-01
3.023000000000000000e+03 7.023407745361328125e+01 3.039099216461181641e+00 -5.653212666511535645e-01 6.639195442199707031e+00 1.822162270545959473e+00 1.151875779032707214e-01
3.024000000000000000e+03 6.458483123779296875e+01 -1.374699473381042480e+00 1.183026656508445740e-01 3.033195018768310547e+00 9.454493522644042969e-01 3.764013573527336121e-02
3.025000000000000000e+03 7.174102020263671875e+01 -3.423339128494262695e+00 -5.945739150047302246e-01 6.866097927093505859e+00 1.881457209587097168e+00 2.612359821796417236e-02
3.026000000000000000e+03 7.122073364257812500e+01 -2.116891622543334961e+00 -5.784798264503479004e-01 6.628632545471191406e+00 1.815045714378356934e+00 -2.097924705594778061e-03
3.027000000000000000e+03 7.091087341308593750e+01 5.280043125152587891e+00 -5.727042555809020996e-01 7.359062671661376953e+00 2.035907506942749023e+00 -8.822736144065856934e-02
3.028000000000000000e+03 7.134316921234130859e+00 1.337075138092041016e+01 1.451855748891830444e-01 4.278682231903076172e+00 1.327160358428955078e+00 -7.778984308242797852e-01
3.029000000000000000e+03 1.238384437561035156e+01 1.139182376861572266e+01 1.114110872149467468e-01 8.050929069519042969e+00 2.448702096939086914e+00 1.295972317457199097e-01
3.030000000000000000e+03 3.836414718627929688e+01 -1.197312450408935547e+01 9.422643780708312988e-01 6.138187885284423828e+00 2.124135732650756836e+00 -1.437904778867959976e-02
3.031000000000000000e+03 7.140418243408203125e+01 2.421022224426269531e+01 -9.798535108566284180e-01 8.064723014831542969e+00 2.125460863113403320e+00 2.536527216434478760e-01
3.032000000000000000e+03 4.309468460083007812e+01 -3.794175148010253906e+00 -1.731225013732910156e+00 1.041273403167724609e+01 2.604452610015869141e+00 1.140928864479064941e+00
3.033000000000000000e+03 8.552084922790527344e+00 1.710429000854492188e+01 3.667822480201721191e-01 4.927634239196777344e+00 1.588325023651123047e+00 -9.440370202064514160e-01
3.034000000000000000e+03 9.845500946044921875e+00 -1.130753135681152344e+01 -2.665398359298706055e+00 8.915503501892089844e+00 1.875031471252441406e+00 1.230087280273437500e+00
3.035000000000000000e+03 1.142007923126220703e+01 -9.923480033874511719e+00 -3.374465703964233398e+00 8.597398757934570312e+00 1.566879868507385254e+00 2.252767086029052734e+00
3.036000000000000000e+03 1.048309326171875000e+01 2.645067787170410156e+01 -5.861909389495849609e-01 5.305830955505371094e+00 1.415892004966735840e+00 -8.837178945541381836e-01
3.037000000000000000e+03 9.450053215026855469e+00 2.746319580078125000e+01 -5.225294232368469238e-01 5.000876903533935547e+00 1.343504309654235840e+00 -8.575744628906250000e-01
3.038000000000000000e+03 3.954513549804687500e+01 -1.449714756011962891e+01 1.758500933647155762e+00 7.503981590270996094e+00 2.778744697570800781e+00 2.964158356189727783e-01
3.039000000000000000e+03 8.606578826904296875e+00 2.184943771362304688e+01 -6.667485460638999939e-03 4.909820556640625000e+00 1.470945954322814941e+00 -1.217999815940856934e+00
3.040000000000000000e+03 7.502350807189941406e+00 2.066105651855468750e+01 8.980732411146163940e-02 4.463065147399902344e+00 1.365861773490905762e+00 -1.195368766784667969e+00
3.041000000000000000e+03 7.221643066406250000e+01 -8.150725364685058594e+00 -7.374393343925476074e-01 7.716060638427734375e+00 2.093586444854736328e+00 4.186320900917053223e-01
3.042000000000000000e+03 7.287996292114257812e+00 1.204225254058837891e+01 8.889485150575637817e-02 4.477874755859375000e+00 1.370030879974365234e+00 -7.543579936027526855e-01
3.043000000000000000e+03 6.669519424438476562e+00 1.251713180541992188e+01 1.055652201175689697e-01 3.983675241470336914e+00 1.226772189140319824e+00 -7.450297474861145020e-01
3.044000000000000000e+03 1.283474254608154297e+01 2.029039192199707031e+01 4.933306872844696045e-01 6.752395153045654297e+00 2.173717737197875977e+00 -8.826180696487426758e-01
3.045000000000000000e+03 1.525644111633300781e+01 2.094331169128417969e+01 3.229387104511260986e-01 7.630692481994628906e+00 2.386089324951171875e+00 -6.454907059669494629e-01
3.046000000000000000e+03 7.517509460449218750e+00 1.792949867248535156e+01 2.769640088081359863e-01 4.429275989532470703e+00 1.411872029304504395e+00 -1.036067008972167969e+00
3.047000000000000000e+03 5.917990493774414062e+01 -4.495102405548095703e+00 5.476664304733276367e-01 3.698391616344451904e-01 2.752516865730285645e-01 -3.473456203937530518e-01
3.048000000000000000e+03 6.293770599365234375e+01 -3.658634662628173828e+00 3.453089296817779541e-01 2.121588945388793945e+00 7.400693297386169434e-01 -2.770161926746368408e-01
3.049000000000000000e+03 1.944942283630371094e+01 -6.681765079498291016e+00 1.040001034736633301e+00 1.654724121093750000e+00 8.084175586700439453e-01 -1.673511147499084473e+00
3.050000000000000000e+03 7.157723903656005859e+00 -1.074383926391601562e+01 -1.568050980567932129e+00 6.762656688690185547e+00 1.558381795883178711e+00 9.063517451286315918e-01
3.051000000000000000e+03 7.063522338867187500e+01 6.823638677597045898e-01 -5.549750328063964844e-01 6.564410686492919922e+00 1.802830696105957031e+00 -8.653771510580554605e-05
3.052000000000000000e+03 1.929734420776367188e+01 -5.097046852111816406e+00 1.982373595237731934e+00 2.164100646972656250e+00 1.243942260742187500e+00 -1.746045708656311035e+00
3.053000000000000000e+03 9.424585342407226562e+00 1.380527400970458984e+01 3.000127077102661133e-01 5.723751068115234375e+00 1.807129144668579102e+00 -5.903505682945251465e-01
3.054000000000000000e+03 6.777712821960449219e+00 1.085180187225341797e+01 8.171999454498291016e-02 4.125548362731933594e+00 1.262180566787719727e+00 -7.601071596145629883e-01
3.055000000000000000e+03 7.099028015136718750e+01 -6.967242717742919922e+00 -8.252885937690734863e-01 7.129379272460937500e+00 1.891227245330810547e+00 3.013155050575733185e-02
3.056000000000000000e+03 6.453401947021484375e+01 -2.947351694107055664e+00 9.980783611536026001e-02 3.059031724929809570e+00 9.476519227027893066e-01 -2.381536960601806641e-01
3.057000000000000000e+03 7.775545120239257812e+00 2.342476463317871094e+01 -1.588708162307739258e-01 4.630203723907470703e+00 1.341399908065795898e+00 -1.189440727233886719e+00
3.058000000000000000e+03 7.172531890869140625e+01 2.306637382507324219e+01 -7.944182157516479492e-01 8.559996604919433594e+00 2.329673528671264648e+00 4.691314697265625000e-01
3.059000000000000000e+03 1.350843048095703125e+01 1.960400581359863281e+01 6.829004883766174316e-01 7.155284404754638672e+00 2.351455450057983398e+00 -7.520288825035095215e-01
3.060000000000000000e+03 7.006099700927734375e+01 4.581757068634033203e+00 -5.266556143760681152e-01 6.857742309570312500e+00 1.899326086044311523e+00 1.536227762699127197e-01
3.061000000000000000e+03 6.925115203857421875e+01 3.708577632904052734e+00 -5.890340805053710938e-01 6.374090671539306641e+00 1.735517024993896484e+00 2.388797104358673096e-01
3.062000000000000000e+03 8.931631088256835938e+00 1.483783149719238281e+01 3.196487426757812500e-01 5.294855117797851562e+00 1.684351205825805664e+00 -7.175316214561462402e-01
3.063000000000000000e+03 6.961148071289062500e+01 1.972404122352600098e+00 -5.474755764007568359e-01 6.190213680267333984e+00 1.692821502685546875e+00 1.178366318345069885e-01
3.064000000000000000e+03 1.184641551971435547e+01 3.119045829772949219e+01 -7.162052989006042480e-01 4.942424774169921875e+00 1.267865777015686035e+00 -3.564988672733306885e-01
3.065000000000000000e+03 9.939356803894042969e+00 3.124550247192382812e+01 -5.740009546279907227e-01 4.827607631683349609e+00 1.276081919670104980e+00 -4.998658895492553711e-01
3.066000000000000000e+03 1.918866348266601562e+01 -3.113807439804077148e-01 3.039632797241210938e+00 3.364899635314941406e+00 1.921359777450561523e+00 -1.493573427200317383e+00
3.067000000000000000e+03 4.418376541137695312e+01 -2.671409225463867188e+01 8.928312659263610840e-01 8.023546218872070312e+00 2.674913406372070312e+00 -9.884872436523437500e-01
3.068000000000000000e+03 1.276829433441162109e+01 -2.893172264099121094e+01 -1.159291863441467285e+00 4.730205059051513672e+00 1.071273922920227051e+00 -5.195232629776000977e-01
3.069000000000000000e+03 6.881270599365234375e+01 -3.509894561767578125e+01 -2.969881296157836914e-01 5.420322418212890625e+00 1.537000298500061035e+00 3.576874136924743652e-01
3.070000000000000000e+03 4.648015594482421875e+01 2.083118629455566406e+01 -4.174355268478393555e-01 6.316778182983398438e+00 1.769802808761596680e+00 7.618744671344757080e-02
3.071000000000000000e+03 6.226925659179687500e+01 -4.841163158416748047e+00 3.474951982498168945e-01 1.703019142150878906e+00 6.151542663574218750e-01 -4.395367503166198730e-01
3.072000000000000000e+03 6.514273834228515625e+01 -5.435058593750000000e+00 -9.436956793069839478e-02 3.445936679840087891e+00 1.005470156669616699e+00 -6.636684536933898926e-01
3.073000000000000000e+03 7.083036041259765625e+01 2.905171966552734375e+01 -6.949292421340942383e-01 6.704435825347900391e+00 1.802851915359497070e+00 -5.629735589027404785e-01
3.074000000000000000e+03 3.897673034667968750e+01 2.457331848144531250e+01 -6.565648317337036133e-01 3.273152589797973633e+00 7.849763035774230957e-01 -1.084172606468200684e+00
3.075000000000000000e+03 4.030255889892578125e+01 2.298191261291503906e+01 -6.603706479072570801e-01 3.831137895584106445e+00 9.512301683425903320e-01 -1.063644289970397949e+00
3.076000000000000000e+03 4.214356231689453125e+01 2.001697921752929688e+01 -4.571685791015625000e-01 5.005619525909423828e+00 1.364535331726074219e+00 -9.373318552970886230e-01
3.077000000000000000e+03 6.849382781982421875e+01 2.880541038513183594e+01 -6.577433943748474121e-01 5.438481330871582031e+00 1.434221386909484863e+00 -9.356035590171813965e-01
3.078000000000000000e+03 1.397131729125976562e+01 2.732213211059570312e+01 -9.435316324234008789e-01 5.661175727844238281e+00 1.415293216705322266e+00 -2.233884334564208984e-01
3.079000000000000000e+03 6.383250427246093750e+01 -3.819221973419189453e+00 1.934569329023361206e-01 2.624025583267211914e+00 8.452447652816772461e-01 -3.681918978691101074e-01
3.080000000000000000e+03 2.155036544799804688e+01 -5.554526329040527344e+00 1.856304287910461426e+00 1.395288467407226562e+00 9.754778146743774414e-01 -2.072023868560791016e+00
3.081000000000000000e+03 4.098941040039062500e+01 -1.181322097778320312e+01 4.873193204402923584e-01 7.546766281127929688e+00 2.410225629806518555e+00 8.582519888877868652e-01
3.082000000000000000e+03 3.910342025756835938e+01 -1.004609298706054688e+01 -1.439740806818008423e-01 5.846819400787353516e+00 1.710853576660156250e+00 7.710642814636230469e-01
3.083000000000000000e+03 4.326282119750976562e+01 2.014248847961425781e+01 -4.545354843139648438e-01 5.477381229400634766e+00 1.506853699684143066e+00 -7.205071449279785156e-01
3.084000000000000000e+03 1.607252883911132812e+01 2.939961051940917969e+01 -9.627460241317749023e-01 5.062482357025146484e+00 1.229920864105224609e+00 3.761768639087677002e-01
3.085000000000000000e+03 4.631220245361328125e+01 -3.361478042602539062e+01 -9.545348286628723145e-01 5.452773094177246094e+00 1.349471569061279297e+00 -1.360408306121826172e+00
3.086000000000000000e+03 9.364514350891113281e+00 2.424371337890625000e+01 -2.929037809371948242e-01 5.151346206665039062e+00 1.457532644271850586e+00 -1.136963129043579102e+00
3.087000000000000000e+03 1.208481407165527344e+01 2.711079978942871094e+01 -7.607523202896118164e-01 5.467525482177734375e+00 1.412032008171081543e+00 -6.479286551475524902e-01
3.088000000000000000e+03 5.608444690704345703e+00 6.295418262481689453e+00 5.623766183853149414e-01 2.424988985061645508e+00 8.962096571922302246e-01 -8.317357301712036133e-01
3.089000000000000000e+03 6.643556594848632812e+00 3.629688501358032227e+00 1.198044419288635254e+00 2.157479763031005859e+00 1.006657242774963379e+00 -1.234428405761718750e+00
3.090000000000000000e+03 6.402672767639160156e+00 -3.196763753890991211e+00 1.754900693893432617e+00 2.358237743377685547e+00 1.233941555023193359e+00 2.499006032943725586e+00
3.091000000000000000e+03 7.911543369293212891e+00 -3.037815570831298828e+00 2.190472364425659180e+00 4.733628273010253906e+00 2.077230215072631836e+00 4.186178684234619141e+00
3.092000000000000000e+03 7.175089359283447266e+00 3.352668762207031250e+00 1.357290506362915039e+00 2.642251729965209961e+00 1.199862599372863770e+00 -1.664979934692382812e+00
3.093000000000000000e+03 7.956174850463867188e+00 3.480243682861328125e+00 1.229194760322570801e+00 4.275817394256591797e+00 1.651503682136535645e+00 -2.330383300781250000e+00
3.094000000000000000e+03 9.533723831176757812e+00 -3.088493108749389648e+00 1.056765794754028320e+00 1.000662708282470703e+01 3.319017887115478516e+00 4.599432945251464844e+00
3.095000000000000000e+03 5.623010635375976562e+00 -4.120705127716064453e+00 1.067620754241943359e+00 2.403694629669189453e+00 1.041394591331481934e+00 2.029210329055786133e+00
3.096000000000000000e+03 4.625096321105957031e+00 3.494486808776855469e+00 6.668021082878112793e-01 6.160764694213867188e-01 3.848635852336883545e-01 -3.446157649159431458e-02
3.097000000000000000e+03 4.364256381988525391e+00 3.697762966156005859e+00 6.230415701866149902e-01 5.629151463508605957e-01 3.557870090007781982e-01 2.234790287911891937e-02
3.098000000000000000e+03 4.227593898773193359e+00 -3.673451900482177734e+00 8.127889037132263184e-01 1.207395911216735840e+00 6.060554385185241699e-01 9.702336192131042480e-01
3.099000000000000000e+03 5.199362277984619141e+00 -4.697232723236083984e+00 7.245784997940063477e-01 2.444563150405883789e+00 9.507424831390380859e-01 1.798069477081298828e+00
3.100000000000000000e+03 5.074874401092529297e+00 -3.273888587951660156e+00 1.152943968772888184e+00 1.365285158157348633e+00 7.554687857627868652e-01 1.310072660446166992e+00
3.101000000000000000e+03 1.291359424591064453e+01 -1.048408821225166321e-02 7.322615146636962891e+00 1.003154850006103516e+01 5.206249237060546875e+00 9.754081368446350098e-01
3.102000000000000000e+03 1.081858253479003906e+01 -3.264292240142822266e+00 4.426708221435546875e-01 1.224469947814941406e+01 3.806211233139038086e+00 2.398008346557617188e+00
3.103000000000000000e+03 1.126593971252441406e+01 -2.699367761611938477e+00 1.394096255302429199e+00 1.317573833465576172e+01 4.370950222015380859e+00 1.097122311592102051e+00
3.104000000000000000e+03 1.590363693237304688e+01 9.604386091232299805e-01 3.671457767486572266e+00 6.520300388336181641e+00 3.057527303695678711e+00 3.745730519294738770e-01
3.105000000000000000e+03 1.303747177124023438e+01 -3.886445462703704834e-01 6.966125488281250000e+00 9.684984207153320312e+00 4.995332717895507812e+00 2.753304243087768555e-01
3.106000000000000000e+03 1.195658874511718750e+01 -2.651742935180664062e+00 2.197546720504760742e+00 1.214853858947753906e+01 4.303825855255126953e+00 -9.424621611833572388e-02
3.107000000000000000e+03 1.160285472869873047e+01 -2.676472902297973633e+00 1.794326782226562500e+00 1.275956153869628906e+01 4.366166591644287109e+00 4.097208678722381592e-01
3.108000000000000000e+03 1.175772285461425781e+01 3.039587974548339844e+00 4.676708281040191650e-01 1.261943912506103516e+01 3.926133155822753906e+00 9.889836907386779785e-01
3.109000000000000000e+03 1.200440311431884766e+01 2.435919046401977539e+00 1.553668379783630371e+00 1.302922725677490234e+01 4.374868869781494141e+00 1.904176712036132812e+00
3.110000000000000000e+03 1.275939178466796875e+01 3.862827301025390625e+00 3.876288235187530518e-01 1.103006362915039062e+01 3.425307750701904297e+00 1.322132587432861328e+00
3.111000000000000000e+03 1.836786270141601562e+01 -1.065277814865112305e+00 3.334419965744018555e+00 3.694153785705566406e+00 2.108572244644165039e+00 -1.369619369506835938e+00
3.112000000000000000e+03 1.522341442108154297e+01 -7.509408473968505859e+00 -6.620928645133972168e-01 4.551589965820312500e+00 1.166849136352539062e+00 7.096279859542846680e-01
3.113000000000000000e+03 1.502187156677246094e+01 5.278185844421386719e+00 2.816897332668304443e-01 9.276882171630859375e+00 2.867571592330932617e+00 1.197643041610717773e+00
3.114000000000000000e+03 5.402448177337646484e+00 2.799781799316406250e+00 6.893334984779357910e-01 6.270268559455871582e-01 3.949081003665924072e-01 -1.349665820598602295e-01
3.115000000000000000e+03 3.900066614151000977e+00 3.542548894882202148e+00 4.602383375167846680e-01 3.178217411041259766e-01 2.334180325269699097e-01 2.058527767658233643e-01
3.116000000000000000e+03 3.528367519378662109e+00 -4.643949031829833984e+00 4.831614196300506592e-01 1.322551846504211426e+00 5.417139530181884766e-01 8.552402853965759277e-01
3.117000000000000000e+03 2.984047651290893555e+00 3.769032001495361328e+00 2.926502525806427002e-01 3.284503892064094543e-02 9.764858335256576538e-02 3.189235031604766846e-01
3.118000000000000000e+03 3.800341367721557617e+00 4.647479057312011719e+00 5.348905324935913086e-01 5.650365352630615234e-01 3.299781084060668945e-01 -4.222079366445541382e-02
3.119000000000000000e+03 4.221315860748291016e+00 -5.338382244110107422e+00 4.114593565464019775e-01 2.068946599960327148e+00 7.441217303276062012e-01 1.235979676246643066e+00
3.120000000000000000e+03 1.134705257415771484e+01 3.273101806640625000e+00 -1.673358678817749023e-02 1.244917774200439453e+01 3.729733228683471680e+00 2.220233231782913208e-01
3.121000000000000000e+03 4.291856765747070312e+00 -6.622478961944580078e+00 2.626786939799785614e-02 2.762513875961303711e+00 8.366345167160034180e-01 1.302768230438232422e+00
3.122000000000000000e+03 6.508473396301269531e+00 4.632678031921386719e+00 9.716069698333740234e-01 2.672563552856445312e+00 1.093251109123229980e+00 -1.243039369583129883e+00
3.123000000000000000e+03 4.730580329895019531e+00 -5.986639499664306641e+00 2.125490307807922363e-01 2.842767715454101562e+00 9.165949821472167969e-01 1.559090971946716309e+00
3.124000000000000000e+03 1.176114082336425781e+01 1.018400478363037109e+01 -1.660862863063812256e-01 7.980885505676269531e+00 2.344439744949340820e+00 2.781314589083194733e-02
3.125000000000000000e+03 6.470901966094970703e+00 8.857122421264648438e+00 1.594339162111282349e-01 3.791900873184204102e+00 1.185400366783142090e+00 -8.786886930465698242e-01
3.126000000000000000e+03 1.231395816802978516e+01 -8.631664276123046875e+00 -2.726184368133544922e+00 7.565696239471435547e+00 1.451853513717651367e+00 2.432896375656127930e+00
3.127000000000000000e+03 5.156645774841308594e+00 6.682713031768798828e+00 4.842823445796966553e-01 2.161972761154174805e+00 7.938765883445739746e-01 -7.044413685798645020e-01
3.128000000000000000e+03 5.566532611846923828e+00 7.103091239929199219e+00 4.115096926689147949e-01 2.650926589965820312e+00 9.187308549880981445e-01 -8.202528953552246094e-01
3.129000000000000000e+03 6.200884819030761719e+00 7.915308475494384766e+00 2.492378801107406616e-01 3.446690320968627930e+00 1.108778476715087891e+00 -9.022751450538635254e-01
3.130000000000000000e+03 7.490094184875488281e+00 -9.992117881774902344e+00 -1.721056222915649414e+00 6.937053203582763672e+00 1.564799189567565918e+00 1.292061209678649902e+00
3.131000000000000000e+03 1.438098526000976562e+01 6.193847179412841797e+00 -1.993940025568008423e-01 9.581689834594726562e+00 2.814688682556152344e+00 1.024694323539733887e+00
3.132000000000000000e+03 9.543463706970214844e+00 -1.055815315246582031e+01 -2.610079050064086914e+00 8.448983192443847656e+00 1.751671195030212402e+00 1.467217206954956055e+00
3.133000000000000000e+03 6.125127792358398438e+00 -9.605397224426269531e+00 -1.125165700912475586e+00 5.477549552917480469e+00 1.305715203285217285e+00 1.125802516937255859e+00
3.134000000000000000e+03 1.371220016479492188e+01 -7.839509010314941406e+00 -1.701538443565368652e+00 6.189668655395507812e+00 1.346439003944396973e+00 1.708379030227661133e+00
3.135000000000000000e+03 1.658606338500976562e+01 2.785800218582153320e+00 1.994186758995056152e+00 6.998337745666503906e+00 2.697757482528686523e+00 5.742489695549011230e-01
3.136000000000000000e+03 1.632196807861328125e+01 3.667020320892333984e+00 1.323928594589233398e+00 7.827727794647216797e+00 2.745496988296508789e+00 8.972251415252685547e-01
3.137000000000000000e+03 1.007500839233398438e+01 1.520816326141357422e+01 4.705859422683715820e-01 5.961984157562255859e+00 1.929771065711975098e+00 -6.206222176551818848e-01
3.138000000000000000e+03 1.785819625854492188e+01 -8.199346542358398438e+00 -3.570433259010314941e-01 1.463019013404846191e+00 3.317927122116088867e-01 -6.791994571685791016e-01
3.139000000000000000e+03 1.644834709167480469e+01 4.581281542778015137e-01 3.698887109756469727e+00 5.770500659942626953e+00 2.840816259384155273e+00 -9.751615673303604126e-02
3.140000000000000000e+03 1.296110630035400391e+01 -1.213116645812988281e+00 5.987121582031250000e+00 1.003628921508789062e+01 4.807023048400878906e+00 -7.665811181068420410e-01
3.141000000000000000e+03 7.135155487060546875e+01 2.587626457214355469e+00 -5.792431831359863281e-01 6.931540966033935547e+00 1.905689358711242676e+00 -1.184091120958328247e-01
3.142000000000000000e+03 7.013050079345703125e+01 -4.213744640350341797e+00 -6.323133111000061035e-01 6.365370273590087891e+00 1.719917058944702148e+00 -1.147901713848114014e-01
3.143000000000000000e+03 6.540332794189453125e+01 -3.694125175476074219e+00 -5.993176624178886414e-02 3.620349407196044922e+00 1.068125247955322266e+00 -3.799217343330383301e-01
3.144000000000000000e+03 1.193298244476318359e+01 7.646626949310302734e+00 -5.396931767463684082e-01 8.913994789123535156e+00 2.512290477752685547e+00 1.237606853246688843e-01
3.145000000000000000e+03 6.491120338439941406e+00 -1.027547264099121094e+01 -1.306645512580871582e+00 6.131152629852294922e+00 1.447352051734924316e+00 9.085124731063842773e-01
3.146000000000000000e+03 5.846372604370117188e+00 -8.415454864501953125e+00 -8.469309210777282715e-01 4.913315296173095703e+00 1.219915270805358887e+00 1.494501709938049316e+00
3.147000000000000000e+03 6.870647430419921875e+00 1.008078098297119141e+01 5.597714707255363464e-02 4.179683685302734375e+00 1.270698308944702148e+00 -7.995122671127319336e-01
3.148000000000000000e+03 6.302725791931152344e+00 9.322592735290527344e+00 1.368877291679382324e-01 3.689458131790161133e+00 1.147903680801391602e+00 -8.471778035163879395e-01
3.149000000000000000e+03 1.512874794006347656e+01 6.056793212890625000e+00 -1.005482226610183716e-01 9.284937858581542969e+00 2.755316972732543945e+00 1.013981461524963379e+00
3.150000000000000000e+03 1.446773624420166016e+01 7.048085689544677734e+00 -3.604550957679748535e-01 9.527428627014160156e+00 2.750092029571533203e+00 8.835892081260681152e-01
3.151000000000000000e+03 8.698808670043945312e+00 1.147232818603515625e+01 5.906436964869499207e-02 5.523190975189208984e+00 1.674676656723022461e+00 -6.449437141418457031e-01
3.152000000000000000e+03 6.622859954833984375e+00 1.168605232238769531e+01 7.710084319114685059e-02 3.978743314743041992e+00 1.216753244400024414e+00 -7.443533539772033691e-01
3.153000000000000000e+03 1.341888427734375000e+01 1.164206886291503906e+01 2.533670365810394287e-01 8.530473709106445312e+00 2.635152339935302734e+00 2.930456995964050293e-01
3.154000000000000000e+03 1.208954429626464844e+01 1.239835166931152344e+01 3.030279278755187988e-01 7.613498687744140625e+00 2.374958038330078125e+00 -1.440944056957960129e-02
3.155000000000000000e+03 8.806306838989257812e+00 -1.080432128906250000e+01 -2.304310560226440430e+00 8.181233406066894531e+00 1.763076782226562500e+00 1.200108766555786133e+00
3.156000000000000000e+03 1.020565128326416016e+01 -1.017388725280761719e+01 -2.932191610336303711e+00 8.678220748901367188e+00 1.723808646202087402e+00 1.775187015533447266e+00
3.157000000000000000e+03 1.591931343078613281e+01 4.075374603271484375e+00 1.084062933921813965e+00 8.298977851867675781e+00 2.814912080764770508e+00 1.097575306892395020e+00
3.158000000000000000e+03 8.540187835693359375e+00 1.332603931427001953e+01 2.156656533479690552e-01 5.247910976409912109e+00 1.639072895050048828e+00 -6.595969796180725098e-01
3.159000000000000000e+03 7.829521656036376953e+00 1.271512126922607422e+01 1.429045498371124268e-01 4.877608299255371094e+00 1.506153941154479980e+00 -6.869243979454040527e-01
3.160000000000000000e+03 1.088182353973388672e+01 1.664790534973144531e+01 6.354815959930419922e-01 6.226963043212890625e+00 2.058733463287353516e+00 -7.017009258270263672e-01
3.161000000000000000e+03 4.273359298706054688e+01 -9.866471290588378906e+00 -9.166790843009948730e-01 8.389789581298828125e+00 2.241933107376098633e+00 1.228865742683410645e+00
3.162000000000000000e+03 6.631638336181640625e+01 -2.642662525177001953e+00 -2.007173001766204834e-01 4.165158271789550781e+00 1.189332246780395508e+00 -1.870152801275253296e-01
3.163000000000000000e+03 9.544930458068847656e+00 1.743339729309082031e+01 4.768123328685760498e-01 5.451320648193359375e+00 1.778439879417419434e+00 -9.239720702171325684e-01
3.164000000000000000e+03 7.272881317138671875e+01 -3.787463188171386719e+00 -5.616414546966552734e-01 7.191899299621582031e+00 1.989077329635620117e+00 1.458896100521087646e-01
3.165000000000000000e+03 6.985404205322265625e+01 -1.264728069305419922e+00 -5.545669794082641602e-01 6.099663734436035156e+00 1.663528919219970703e+00 3.543552942574024200e-03
3.166000000000000000e+03 6.537305450439453125e+01 -1.971318721771240234e+00 -2.641784772276878357e-02 3.636042594909667969e+00 1.082887411117553711e+00 -4.625526070594787598e-02
3.167000000000000000e+03 7.100567626953125000e+01 -5.718514442443847656e+00 -7.104318141937255859e-01 6.885102748870849609e+00 1.852401375770568848e+00 1.030110474675893784e-02
3.168000000000000000e+03 6.276641082763671875e+01 -2.790388822555541992e+00 3.792507350444793701e-01 2.031011343002319336e+00 7.230786085128784180e-01 -1.931427121162414551e-01
3.169000000000000000e+03 2.058176994323730469e+01 -3.550679683685302734e+00 2.758944988250732422e+00 1.933937072753906250e+00 1.407864570617675781e+00 -2.062902927398681641e+00
3.170000000000000000e+03 1.072452831268310547e+01 2.136174774169921875e+01 9.030631184577941895e-02 5.718892574310302734e+00 1.742759704589843750e+00 -1.161379456520080566e+00
3.171000000000000000e+03 6.315346145629882812e+01 -4.438489913940429688e+00 2.449969500303268433e-01 2.150887727737426758e+00 7.187653779983520508e-01 -4.415363073348999023e-01
3.172000000000000000e+03 6.452220153808593750e+01 -4.545093059539794922e+00 1.317984238266944885e-02 3.057654619216918945e+00 9.212503433227539062e-01 -4.828423261642456055e-01
3.173000000000000000e+03 1.059756374359130859e+01 1.782060813903808594e+01 5.568027496337890625e-01 5.971342086791992188e+00 1.958443403244018555e+00 -8.827239274978637695e-01
3.174000000000000000e+03 6.687485504150390625e+01 -5.582901954650878906e+00 -4.122806191444396973e-01 4.735622882843017578e+00 1.297002792358398438e+00 -6.520349383354187012e-01
3.175000000000000000e+03 6.924988555908203125e+01 -6.493921756744384766e+00 -7.596169114112854004e-01 6.377241134643554688e+00 1.685287237167358398e+00 -3.548378646373748779e-01
3.176000000000000000e+03 3.900428771972656250e+01 -1.711324501037597656e+01 2.719310522079467773e+00 8.340127944946289062e+00 3.317831516265869141e+00 -2.558839917182922363e-01
3.177000000000000000e+03 1.094666004180908203e+01 2.484490013122558594e+01 -5.015041828155517578e-01 5.524864196777343750e+00 1.507007956504821777e+00 -9.795176982879638672e-01
3.178000000000000000e+03 1.179048919677734375e+01 1.343776416778564453e+01 4.298229813575744629e-01 7.268949508666992188e+00 2.309631824493408203e+00 -1.671588271856307983e-01
3.179000000000000000e+03 1.042380332946777344e+01 1.416351604461669922e+01 3.853518366813659668e-01 6.304712295532226562e+00 2.007019281387329102e+00 -4.680040180683135986e-01
3.180000000000000000e+03 1.134790039062500000e+01 -3.292496109008789062e+01 -9.172220826148986816e-01 4.546864509582519531e+00 1.088892817497253418e+00 -1.528617590665817261e-01
3.181000000000000000e+03 2.013467025756835938e+01 -5.831299304962158203e+00 1.618220806121826172e+00 1.656824707984924316e+00 9.825136661529541016e-01 -1.908318996429443359e+00
3.182000000000000000e+03 1.241263198852539062e+01 -2.304630517959594727e+00 3.326641798019409180e+00 1.147253036499023438e+01 4.439751625061035156e+00 -7.407118082046508789e-01
3.183000000000000000e+03 6.954795837402343750e+01 -3.865275084972381592e-01 -5.108615756034851074e-01 5.970765590667724609e+00 1.637971282005310059e+00 3.595246374607086182e-02
3.184000000000000000e+03 7.090845489501953125e+01 1.640746235847473145e+00 -5.493294596672058105e-01 6.735255241394042969e+00 1.855777740478515625e+00 -8.881757967174053192e-03
3.185000000000000000e+03 1.393613147735595703e+01 2.936226081848144531e+01 -8.924714326858520508e-01 5.181842327117919922e+00 1.286811232566833496e+00 -1.098390370607376099e-01
3.186000000000000000e+03 9.796464920043945312e+00 1.629734420776367188e+01 4.689495563507080078e-01 5.711411476135253906e+00 1.854108214378356934e+00 -7.842690944671630859e-01
3.187000000000000000e+03 3.830637741088867188e+01 -1.440825748443603516e+01 1.982959508895874023e+00 7.155909538269042969e+00 2.741660594940185547e+00 -2.592929601669311523e-01
3.188000000000000000e+03 1.993131065368652344e+01 -4.294641971588134766e+00 2.441396713256835938e+00 2.017553806304931641e+00 1.337685108184814453e+00 -1.927462220191955566e+00
3.189000000000000000e+03 4.220948028564453125e+01 -2.646553421020507812e+01 1.050850391387939453e+00 8.113179206848144531e+00 2.749208927154541016e+00 -4.423697888851165771e-01
3.190000000000000000e+03 1.296954631805419922e+01 -3.251816558837890625e+01 -9.041185379028320312e-01 3.902323961257934570e+00 8.994616270065307617e-01 -3.753758072853088379e-01
3.191000000000000000e+03 1.361994361877441406e+01 2.308617973327636719e+01 -5.426502823829650879e-01 6.556893825531005859e+00 1.804273009300231934e+00 -7.796384096145629883e-01
3.192000000000000000e+03 4.260007858276367188e+01 -3.071022605895996094e+01 -5.484091639518737793e-01 7.042449474334716797e+00 1.948212027549743652e+00 -5.915758609771728516e-01
3.193000000000000000e+03 7.198191070556640625e+01 2.981264686584472656e+01 -5.289303660392761230e-01 7.009910583496093750e+00 1.944293975830078125e+00 -3.672991096973419189e-01
3.194000000000000000e+03 6.973439788818359375e+01 2.871244049072265625e+01 -7.123641967773437500e-01 6.169403553009033203e+00 1.637111783027648926e+00 -7.445026040077209473e-01
3.195000000000000000e+03 4.358553314208984375e+01 2.154470062255859375e+01 -6.680344939231872559e-01 5.327594757080078125e+00 1.397868037223815918e+00 -6.707751154899597168e-01
3.196000000000000000e+03 1.432805919647216797e+01 2.165633773803710938e+01 -1.922694444656372070e-01 7.213814735412597656e+00 2.106463670730590820e+00 -7.052464485168457031e-01
3.197000000000000000e+03 1.585830974578857422e+01 2.723098182678222656e+01 -1.090427160263061523e+00 5.610940933227539062e+00 1.356154203414916992e+00 2.572480738162994385e-01
3.198000000000000000e+03 9.659070014953613281e+00 3.565568161010742188e+01 -4.068203866481781006e-01 4.556925296783447266e+00 1.245031476020812988e+00 -2.656181454658508301e-01
3.199000000000000000e+03 4.507743835449218750e+01 2.507163238525390625e+01 -9.942774772644042969e-01 4.943151950836181641e+00 1.184662342071533203e+00 -2.562298476696014404e-01
3.200000000000000000e+03 5.409807968139648438e+01 3.073794746398925781e+01 -2.608283162117004395e-01 2.828859329223632812e+00 7.704093456268310547e-01 1.195371270179748535e+00
3.201000000000000000e+03 4.744765853881835938e+01 2.671319580078125000e+01 -1.104056000709533691e+00 4.773029327392578125e+00 1.100691914558410645e+00 4.355741739273071289e-01
3.202000000000000000e+03 3.831982803344726562e+01 -3.262110137939453125e+01 -1.155089497566223145e+00 6.435243129730224609e+00 1.584046125411987305e+00 5.021700859069824219e-01
3.203000000000000000e+03 4.309270477294921875e+01 -3.585306167602539062e+01 -1.405795931816101074e+00 5.857341289520263672e+00 1.335463643074035645e+00 -4.860188663005828857e-01
3.204000000000000000e+03 6.927113342285156250e+01 2.197985839843750000e+01 -1.122163414955139160e+00 9.613670349121093750e+00 2.547452211380004883e+00 -4.142253994941711426e-01
3.205000000000000000e+03 6.846865081787109375e+01 -8.572391867637634277e-01 -4.650675654411315918e-01 5.461051940917968750e+00 1.498795390129089355e+00 2.976934984326362610e-02
3.206000000000000000e+03 7.061708068847656250e+01 -1.088181734085083008e+00 -5.425992012023925781e-01 6.409485340118408203e+00 1.760065793991088867e+00 -1.092798891477286816e-03
3.207000000000000000e+03 7.105657196044921875e+01 -8.172841072082519531e+00 -8.021453619003295898e-01 7.489518642425537109e+00 2.006211996078491211e+00 1.282178759574890137e-01
3.208000000000000000e+03 6.910702228546142578e+00 3.399209499359130859e+00 1.268488883972167969e+00 2.299748182296752930e+00 1.070471048355102539e+00 -1.414572238922119141e+00
3.209000000000000000e+03 8.423753738403320312e+00 3.817611217498779297e+00 8.964374661445617676e-01 5.720883369445800781e+00 1.985196232795715332e+00 -2.548007249832153320e+00
3.210000000000000000e+03 7.751802444458007812e+00 3.226061105728149414e+00 1.432529211044311523e+00 3.665492773056030273e+00 1.529406547546386719e+00 -2.260835886001586914e+00
3.211000000000000000e+03 9.319115638732910156e+00 -3.672840118408203125e+00 5.926755070686340332e-01 8.935523033142089844e+00 2.858459472656250000e+00 4.330218791961669922e+00
3.212000000000000000e+03 8.577303886413574219e+00 -3.240914344787597656e+00 1.680982351303100586e+00 6.819349288940429688e+00 2.550099372863769531e+00 4.690449714660644531e+00
3.213000000000000000e+03 6.724956035614013672e+00 -3.367897510528564453e+00 1.755878448486328125e+00 2.906848907470703125e+00 1.398818254470825195e+00 2.892886161804199219e+00
3.214000000000000000e+03 7.553578376770019531e+00 -3.392006874084472656e+00 1.833065629005432129e+00 4.342553615570068359e+00 1.852685689926147461e+00 3.780006408691406250e+00
3.215000000000000000e+03 9.526452064514160156e+00 -4.114001274108886719e+00 6.590939313173294067e-02 9.112888336181640625e+00 2.753639221191406250e+00 3.938273429870605469e+00
3.216000000000000000e+03 9.242265701293945312e+00 3.349157094955444336e+00 5.409639477729797363e-01 8.129248619079589844e+00 2.601063728332519531e+00 -2.895153284072875977e+00
3.217000000000000000e+03 9.776670455932617188e+00 -2.957342386245727539e+00 1.026769995689392090e+00 1.098508739471435547e+01 3.603557109832763672e+00 4.386529922485351562e+00
3.218000000000000000e+03 1.311292648315429688e+01 -1.736771166324615479e-01 7.000204563140869141e+00 9.614102363586425781e+00 4.984292030334472656e+00 6.614447832107543945e-01
3.219000000000000000e+03 4.592974185943603516e+00 4.608096599578857422e+00 7.185350656509399414e-01 1.036867022514343262e+00 5.266206264495849609e-01 -2.981700301170349121e-01
3.220000000000000000e+03 9.977066040039062500e+00 -3.315471649169921875e+00 5.178332328796386719e-01 1.099968719482421875e+01 3.455255985260009766e+00 3.918535470962524414e+00
3.221000000000000000e+03 1.000752830505371094e+01 3.359641075134277344e+00 -2.541953511536121368e-02 1.048929500579833984e+01 3.139162778854370117e+00 -2.147102832794189453e+00
3.222000000000000000e+03 5.734074115753173828e+00 -3.537475824356079102e+00 1.394381284713745117e+00 1.925713539123535156e+00 9.960284233093261719e-01 1.945459842681884766e+00
3.223000000000000000e+03 5.321045398712158203e+00 3.566364049911499023e+00 8.557635545730590820e-01 9.183893799781799316e-01 5.322458744049072266e-01 -3.356940746307373047e-01
3.224000000000000000e+03 4.456280231475830078e+00 -4.688514709472656250e+00 6.163814067840576172e-01 1.881872892379760742e+00 7.494763135910034180e-01 1.314298510551452637e+00
3.225000000000000000e+03 5.987339019775390625e+00 -3.895210742950439453e+00 1.237743258476257324e+00 2.610427856445312500e+00 1.154451370239257812e+00 2.274811983108520508e+00
3.226000000000000000e+03 5.253378391265869141e+00 -3.993151187896728516e+00 1.043275833129882812e+00 2.032110929489135742e+00 9.226160645484924316e-01 1.747544884681701660e+00
3.227000000000000000e+03 1.328117752075195312e+01 3.948450386524200439e-01 6.246951103210449219e+00 9.475123405456542969e+00 4.716622352600097656e+00 1.391590714454650879e+00
3.228000000000000000e+03 1.051591396331787109e+01 -3.473861217498779297e+00 2.347947359085083008e-01 1.154682350158691406e+01 3.534485340118408203e+00 2.955169677734375000e+00
3.229000000000000000e+03 1.234088706970214844e+01 2.444416046142578125e+00 1.922298908233642578e+00 1.242718410491943359e+01 4.304844856262207031e+00 2.171913146972656250e+00
3.230000000000000000e+03 1.259298419952392578e+01 7.014188289642333984e+00 -5.226356387138366699e-01 9.396869659423828125e+00 2.662270307540893555e+00 4.195638895034790039e-01
3.231000000000000000e+03 6.331939697265625000e+00 3.333678483963012695e+00 1.148506164550781250e+00 1.595222115516662598e+00 8.231185078620910645e-01 -9.339926838874816895e-01
3.232000000000000000e+03 3.521252870559692383e+00 -4.056556701660156250e+00 5.472791790962219238e-01 9.492871761322021484e-01 4.489699006080627441e-01 6.625106334686279297e-01
3.233000000000000000e+03 1.129294681549072266e+01 -3.428688049316406250e+00 4.641717374324798584e-01 1.185124969482421875e+01 3.694626331329345703e+00 1.544584989547729492e+00
3.234000000000000000e+03 1.310572433471679688e+01 8.705393075942993164e-01 5.814554214477539062e+00 1.017504692077636719e+01 4.796880245208740234e+00 2.099650621414184570e+00
3.235000000000000000e+03 6.826580047607421875e+00 -3.054644584655761719e+00 2.019749164581298828e+00 2.710815906524658203e+00 1.419169545173645020e+00 2.920167207717895508e+00
3.236000000000000000e+03 1.154640007019042969e+01 -3.268907785415649414e+00 8.536599278450012207e-01 1.185270214080810547e+01 3.811908483505249023e+00 1.019854784011840820e+00
3.237000000000000000e+03 1.166038513183593750e+01 -3.020270109176635742e+00 1.289928317070007324e+00 1.212751960754394531e+01 4.025234222412109375e+00 6.440669298171997070e-01
3.238000000000000000e+03 4.025252342224121094e+00 3.930735588073730469e+00 5.449913740158081055e-01 4.732574522495269775e-01 3.054746687412261963e-01 5.994069576263427734e-02
3.239000000000000000e+03 1.035383892059326172e+01 3.574875354766845703e+00 -2.211830615997314453e-01 1.087874412536621094e+01 3.197268247604370117e+00 -1.542957782745361328e+00
3.240000000000000000e+03 1.102019596099853516e+01 3.765984296798706055e+00 -3.506044149398803711e-01 1.146625041961669922e+01 3.334693670272827148e+00 -5.245419740676879883e-01
3.241000000000000000e+03 1.688547706604003906e+01 -4.346780776977539062e-01 3.704010486602783203e+00 4.961165904998779297e+00 2.599552869796752930e+00 -7.018333077430725098e-01
3.242000000000000000e+03 1.603929901123046875e+01 3.185977458953857422e+00 1.712587952613830566e+00 7.762301921844482422e+00 2.842467069625854492e+00 9.639739990234375000e-01
3.243000000000000000e+03 1.619800376892089844e+01 -1.191132783889770508e+00 3.998540401458740234e+00 5.470004558563232422e+00 2.840563535690307617e+00 -7.968078255653381348e-01
3.244000000000000000e+03 1.361005401611328125e+01 -9.617661833763122559e-01 5.738161563873291016e+00 8.686673164367675781e+00 4.327450275421142578e+00 -3.999859988689422607e-01
3.245000000000000000e+03 1.917126274108886719e+01 -3.539896011352539062e+00 2.742676019668579102e+00 2.566250324249267578e+00 1.592677950859069824e+00 -1.798163414001464844e+00
3.246000000000000000e+03 1.311326980590820312e+01 1.884534716606140137e+00 3.497658967971801758e+00 1.087026309967041016e+01 4.310376644134521484e+00 2.441101551055908203e+00
3.247000000000000000e+03 1.219596576690673828e+01 1.524377584457397461e+00 4.187641620635986328e+00 1.287293720245361328e+01 5.118173599243164062e+00 2.902070760726928711e+00
3.248000000000000000e+03 1.204868221282958984e+01 3.251275777816772461e+00 5.105955004692077637e-01 1.211241054534912109e+01 3.786901712417602539e+00 1.196989178657531738e+00
3.249000000000000000e+03 1.337240505218505859e+01 1.302746057510375977e+00 4.798934936523437500e+00 9.962342262268066406e+00 4.428382873535156250e+00 2.188316106796264648e+00
3.250000000000000000e+03 1.273917961120605469e+01 2.384669303894042969e+00 2.366952657699584961e+00 1.164068698883056641e+01 4.202291965484619141e+00 2.302830696105957031e+00
3.251000000000000000e+03 5.982137680053710938e+00 6.679643154144287109e+00 4.732622206211090088e-01 2.921688795089721680e+00 1.018485307693481445e+00 -9.450317025184631348e-01
3.252000000000000000e+03 5.306066036224365234e+00 5.856847286224365234e+00 6.335766911506652832e-01 2.032576799392700195e+00 7.998460531234741211e-01 -7.221370935440063477e-01
3.253000000000000000e+03 4.546000480651855469e+00 3.957108020782470703e+00 6.714011430740356445e-01 7.830732464790344238e-01 4.363422989845275879e-01 -1.163952648639678955e-01
3.254000000000000000e+03 5.203809738159179688e+00 3.021541833877563477e+00 6.961497068405151367e-01 6.269571185111999512e-01 3.969320654869079590e-01 -1.123938784003257751e-01
3.255000000000000000e+03 6.808813095092773438e+00 -8.634109497070312500e+00 -1.291059494018554688e+00 6.007039546966552734e+00 1.414793968200683594e+00 1.680328965187072754e+00
3.256000000000000000e+03 6.992265224456787109e+00 -9.693975448608398438e+00 -1.549173951148986816e+00 6.480111598968505859e+00 1.479281187057495117e+00 1.353358983993530273e+00
3.257000000000000000e+03 5.114693641662597656e+00 5.319927215576171875e+00 7.312788963317871094e-01 1.644353151321411133e+00 7.126895785331726074e-01 -6.093004941940307617e-01
3.258000000000000000e+03 7.241092205047607422e+00 -4.160727977752685547e+00 1.122203111648559570e+00 4.474403858184814453e+00 1.678982138633728027e+00 3.394957304000854492e+00
3.259000000000000000e+03 6.172361373901367188e+00 8.530351638793945312e+00 1.867992579936981201e-01 3.532749891281127930e+00 1.115864753723144531e+00 -8.517106771469116211e-01
3.260000000000000000e+03 1.509541988372802734e+01 4.516590118408203125e+00 6.872987151145935059e-01 9.098915100097656250e+00 2.935864210128784180e+00 1.328626275062561035e+00
3.261000000000000000e+03 5.148248672485351562e+00 -7.201132774353027344e+00 -2.884643077850341797e-01 3.839294910430908203e+00 1.065249204635620117e+00 1.595223426818847656e+00
3.262000000000000000e+03 5.633869647979736328e+00 -6.440950870513916016e+00 -1.349981427192687988e-01 4.010756492614746094e+00 1.162727475166320801e+00 2.004193305969238281e+00
3.263000000000000000e+03 1.082595825195312500e+01 -9.885455131530761719e+00 -3.050015926361083984e+00 8.570225715637207031e+00 1.656062960624694824e+00 2.050370931625366211e+00
3.264000000000000000e+03 4.757473468780517578e+00 -5.461531639099121094e+00 4.245501160621643066e-01 2.579774856567382812e+00 9.012975096702575684e-01 1.616151452064514160e+00
3.265000000000000000e+03 5.535894870758056641e+00 -7.333330631256103516e+00 -4.468006193637847900e-01 4.203176021575927734e+00 1.126912593841552734e+00 1.736820936203002930e+00
3.266000000000000000e+03 1.299155044555664062e+01 -7.221482276916503906e+00 -1.652354717254638672e+00 7.290496349334716797e+00 1.691442370414733887e+00 1.747346282005310059e+00
3.267000000000000000e+03 1.323714637756347656e+01 6.683282375335693359e+00 -5.015110969543457031e-01 9.663752555847167969e+00 2.748672246932983398e+00 7.072212696075439453e-01
3.268000000000000000e+03 4.900306701660156250e+00 -6.919867515563964844e+00 -1.475793570280075073e-01 3.438272476196289062e+00 9.872079491615295410e-01 1.542117238044738770e+00
3.269000000000000000e+03 5.354054927825927734e+00 -7.844219207763671875e+00 -5.311120748519897461e-01 4.223638057708740234e+00 1.107757687568664551e+00 1.499512434005737305e+00
3.270000000000000000e+03 1.864454460144042969e+01 -5.911008834838867188e+00 1.467746376991271973e+00 2.250508308410644531e+00 1.115476369857788086e+00 -1.485102415084838867e+00
3.271000000000000000e+03 6.928874969482421875e+00 9.441695213317871094e+00 1.004000529646873474e-01 4.224996089935302734e+00 1.297618865966796875e+00 -8.556941151618957520e-01
3.272000000000000000e+03 1.202091979980468750e+01 7.121507644653320312e+00 -5.878735780715942383e-01 9.145196914672851562e+00 2.567196846008300781e+00 1.422713994979858398e-01
3.273000000000000000e+03 1.590168952941894531e+01 8.576954156160354614e-02 4.118902206420898438e+00 6.065497398376464844e+00 3.055319786071777344e+00 -5.848424509167671204e-02
3.274000000000000000e+03 1.428050994873046875e+01 9.036681652069091797e-01 4.715479373931884766e+00 8.320475578308105469e+00 3.910786628723144531e+00 1.324423074722290039e+00
3.275000000000000000e+03 1.333617591857910156e+01 -3.299039304256439209e-01 6.489263057708740234e+00 9.068696975708007812e+00 4.667387962341308594e+00 2.899188101291656494e-01
3.276000000000000000e+03 7.681890964508056641e+00 1.077621746063232422e+01 2.601555734872817993e-02 4.835556030273437500e+00 1.458471417427062988e+00 -7.240188121795654297e-01
3.277000000000000000e+03 1.268529510498046875e+01 7.658053398132324219e+00 -5.229914784431457520e-01 9.173310279846191406e+00 2.595095634460449219e+00 3.751972019672393799e-01
3.278000000000000000e+03 6.750218868255615234e+00 8.584792137145996094e+00 1.636730283498764038e-01 4.065500259399414062e+00 1.268751978874206543e+00 -9.333145618438720703e-01
3.279000000000000000e+03 1.439954662322998047e+01 5.377949714660644531e+00 5.956111848354339600e-02 9.622742652893066406e+00 2.904691219329833984e+00 1.198039174079895020e+00
3.280000000000000000e+03 9.782056808471679688e+00 3.752053260803222656e+00 -9.405780583620071411e-03 9.385427474975585938e+00 2.812806606292724609e+00 -2.189033269882202148e+00
3.281000000000000000e+03 9.251854896545410156e+00 3.931324481964111328e+00 2.777287364006042480e-01 7.943786621093750000e+00 2.466454744338989258e+00 -2.422862529754638672e+00
3.282000000000000000e+03 1.213071060180664062e+01 9.317709922790527344e+00 -2.859956026077270508e-01 8.362272262573242188e+00 2.422882795333862305e+00 1.387839168310165405e-01
3.283000000000000000e+03 1.077048015594482422e+01 1.314251518249511719e+01 3.233672082424163818e-01 6.642687320709228516e+00 2.089816331863403320e+00 -3.202520310878753662e-01
3.284000000000000000e+03 1.097540664672851562e+01 8.052842140197753906e+00 -4.758685529232025146e-01 8.162962913513183594e+00 2.306128501892089844e+00 -2.883675098419189453e-01
3.285000000000000000e+03 9.295188903808593750e+00 -9.930300712585449219e+00 -2.558077335357666016e+00 8.269933700561523438e+00 1.713557004928588867e+00 1.664843678474426270e+00
3.286000000000000000e+03 1.083736515045166016e+01 -9.166969299316406250e+00 -2.992515325546264648e+00 8.524449348449707031e+00 1.659580111503601074e+00 2.232062339782714844e+00
3.287000000000000000e+03 8.084573745727539062e+00 -1.013505554199218750e+01 -2.035434484481811523e+00 7.447903633117675781e+00 1.623740792274475098e+00 1.357948064804077148e+00
3.288000000000000000e+03 1.789586639404296875e+01 -5.182444572448730469e+00 1.782429814338684082e+00 2.982343435287475586e+00 1.429431915283203125e+00 -1.331427454948425293e+00
3.289000000000000000e+03 6.904697418212890625e+01 -3.602902650833129883e+00 -5.490943789482116699e-01 5.840455532073974609e+00 1.587408423423767090e+00 -1.655288934707641602e-01
3.290000000000000000e+03 1.985579299926757812e+01 -2.779181480407714844e+00 2.964052200317382812e+00 2.333915948867797852e+00 1.589390397071838379e+00 -1.933095455169677734e+00
3.291000000000000000e+03 6.815895080566406250e+01 -2.675472974777221680e+00 -4.671870768070220947e-01 5.289898395538330078e+00 1.446813464164733887e+00 -1.703851372003555298e-01
3.292000000000000000e+03 7.073319244384765625e+01 -3.089329719543457031e+00 -5.918296575546264648e-01 6.498532772064208984e+00 1.772010922431945801e+00 8.564133895561099052e-04
3.293000000000000000e+03 6.670079040527343750e+01 -3.903946876525878906e-01 -2.403825521469116211e-01 4.413716793060302734e+00 1.252000331878662109e+00 1.606381684541702271e-01
3.294000000000000000e+03 9.836849212646484375e+00 1.286763286590576172e+01 2.174918353557586670e-01 6.181980609893798828e+00 1.919841647148132324e+00 -4.817848801612854004e-01
3.295000000000000000e+03 1.852880287170410156e+01 -4.356016159057617188e+00 2.342444896697998047e+00 2.766149282455444336e+00 1.532578229904174805e+00 -1.620875597000122070e+00
3.296000000000000000e+03 6.863982391357421875e+01 -5.665806293487548828e+00 -6.139935851097106934e-01 5.841701507568359375e+00 1.568312287330627441e+00 -3.688955008983612061e-01
3.297000000000000000e+03 9.178589820861816406e+00 1.859268760681152344e+01 3.618810474872589111e-01 5.177186012268066406e+00 1.661720156669616699e+00 -1.062603473663330078e+00
3.298000000000000000e+03 1.147386264801025391e+01 2.333457946777343750e+01 -3.231281042098999023e-01 5.899253845214843750e+00 1.672837734222412109e+00 -1.021603584289550781e+00
3.299000000000000000e+03 6.735063934326171875e+01 -1.622957229614257812e+00 -3.105145990848541260e-01 4.808948993682861328e+00 1.349530339241027832e+00 -1.899051852524280548e-02
3.300000000000000000e+03 1.169441127777099609e+01 1.811781692504882812e+01 6.982209682464599609e-01 6.447915554046630859e+00 2.143841028213500977e+00 -8.121858835220336914e-01
3.301000000000000000e+03 1.191737842559814453e+01 2.191405677795410156e+01 -1.179183945059776306e-01 6.162920475006103516e+00 1.813500642776489258e+00 -1.086873531341552734e+00
3.302000000000000000e+03 1.244429206848144531e+01 2.536808395385742188e+01 -6.901410222053527832e-01 5.878020763397216797e+00 1.556363940238952637e+00 -7.395806908607482910e-01
3.303000000000000000e+03 7.119614410400390625e+01 3.128311347961425781e+01 -3.509877026081085205e-01 6.471929550170898438e+00 1.836282610893249512e+00 -5.346916913986206055e-01
3.304000000000000000e+03 9.092211723327636719e+00 -3.470909118652343750e+01 -6.100900173187255859e-01 4.828634738922119141e+00 1.265563368797302246e+00 1.249347776174545288e-01
3.305000000000000000e+03 6.870459747314453125e+01 3.094828033447265625e+01 -2.490622103214263916e-01 5.405255794525146484e+00 1.546858072280883789e+00 -7.508130669593811035e-01
3.306000000000000000e+03 1.400920581817626953e+01 2.556852722167968750e+01 -8.797614574432373047e-01 6.031436443328857422e+00 1.545502543449401855e+00 -4.106001853942871094e-01
3.307000000000000000e+03 1.533507633209228516e+01 2.385459899902343750e+01 -8.685179948806762695e-01 6.684239864349365234e+00 1.744716525077819824e+00 -2.407126277685165405e-01
3.308000000000000000e+03 4.161498641967773438e+01 2.413580703735351562e+01 -7.852041125297546387e-01 4.221377849578857422e+00 1.030852198600769043e+00 -8.912162184715270996e-01
3.309000000000000000e+03 4.249586105346679688e+01 2.247303581237792969e+01 -7.139803171157836914e-01 4.779318332672119141e+00 1.219601392745971680e+00 -8.426440358161926270e-01
3.310000000000000000e+03 4.935510635375976562e+01 2.611906433105468750e+01 -1.170765995979309082e+00 4.761663913726806641e+00 1.077269434928894043e+00 8.507995009422302246e-01
3.311000000000000000e+03 1.647777366638183594e+01 3.497259140014648438e+01 -5.178351402282714844e-01 4.145009994506835938e+00 1.088152408599853516e+00 2.278294563293457031e-01
3.312000000000000000e+03 8.991018295288085938e+00 -3.792863607406616211e+00 6.894126534461975098e-01 8.042144775390625000e+00 2.619467258453369141e+00 4.369752883911132812e+00
3.313000000000000000e+03 8.188858985900878906e+00 3.674555778503417969e+00 1.055513978004455566e+00 4.861603260040283203e+00 1.775135278701782227e+00 -2.425707817077636719e+00
3.314000000000000000e+03 7.750210762023925781e+00 3.789754629135131836e+00 1.134600281715393066e+00 4.068046569824218750e+00 1.560794115066528320e+00 -2.138729572296142578e+00
3.315000000000000000e+03 5.733057975769042969e+00 5.628497123718261719e+00 6.979122757911682129e-01 2.282842874526977539e+00 8.942265510559082031e-01 -8.744353652000427246e-01
3.316000000000000000e+03 5.676570892333984375e+00 -4.617949962615966797e+00 8.075235486030578613e-01 2.839977264404296875e+00 1.094250321388244629e+00 2.131516933441162109e+00
3.317000000000000000e+03 4.893454074859619141e+00 -4.989331245422363281e+00 5.941911339759826660e-01 2.427871942520141602e+00 9.066188931465148926e-01 1.618789792060852051e+00
3.318000000000000000e+03 5.027852535247802734e+00 3.395221710205078125e+00 7.332704067230224609e-01 7.151188254356384277e-01 4.345167577266693115e-01 -1.618057638406753540e-01
3.319000000000000000e+03 6.054816246032714844e+00 3.753129720687866211e+00 1.057471632957458496e+00 1.624850511550903320e+00 8.046966195106506348e-01 -8.275722265243530273e-01
3.320000000000000000e+03 5.544576168060302734e+00 4.094337940216064453e+00 9.104699492454528809e-01 1.388202190399169922e+00 6.896016597747802734e-01 -5.847612023353576660e-01
3.321000000000000000e+03 1.200493431091308594e+01 -3.066693305969238281e+00 1.479565620422363281e+00 1.154136371612548828e+01 3.906278610229492188e+00 2.159339636564254761e-01
3.322000000000000000e+03 1.119421005249023438e+01 4.254402160644531250e+00 -4.726047515869140625e-01 1.090702915191650391e+01 3.130327224731445312e+00 -3.372037410736083984e-01
3.323000000000000000e+03 1.237981224060058594e+01 6.535535812377929688e+00 -6.019591689109802246e-01 9.608358383178710938e+00 2.701919555664062500e+00 3.755731284618377686e-01
3.324000000000000000e+03 8.667309761047363281e+00 -3.497569084167480469e+00 1.202237367630004883e+00 7.219429969787597656e+00 2.526500225067138672e+00 4.514782428741455078e+00
3.325000000000000000e+03 7.859444141387939453e+00 -3.588264226913452148e+00 1.558011054992675781e+00 5.158615589141845703e+00 2.014987945556640625e+00 4.042738437652587891e+00
3.326000000000000000e+03 1.020917320251464844e+01 -3.759557247161865234e+00 5.776270851492881775e-02 1.069134426116943359e+01 3.224732160568237305e+00 3.371496915817260742e+00
3.327000000000000000e+03 1.173383903503417969e+01 -3.547062873840332031e+00 6.807191371917724609e-01 1.123666381835937500e+01 3.575214862823486328e+00 8.995088934898376465e-01
3.328000000000000000e+03 1.549259853363037109e+01 3.256790876388549805e+00 1.666579961776733398e+00 8.315073966979980469e+00 2.994496107101440430e+00 1.246874809265136719e+00
3.329000000000000000e+03 1.168699455261230469e+01 3.632170200347900391e+00 -6.084894388914108276e-02 1.191161060333251953e+01 3.555228471755981445e+00 5.027090311050415039e-01
3.330000000000000000e+03 1.536591720581054688e+01 -5.400643348693847656e+00 8.139839768409729004e-01 5.479019641876220703e+00 1.887901186943054199e+00 -3.222103118896484375e-01
3.331000000000000000e+03 1.365693378448486328e+01 1.836945772171020508e+00 3.577961444854736328e+00 9.818848609924316406e+00 4.019042968750000000e+00 2.122444868087768555e+00
3.332000000000000000e+03 1.245374202728271484e+01 2.804907083511352539e+00 1.413357615470886230e+00 1.201662063598632812e+01 4.028993606567382812e+00 1.878783106803894043e+00
3.333000000000000000e+03 5.438682556152343750e+00 3.137701511383056641e+00 8.171470761299133301e-01 8.146172165870666504e-01 4.895292818546295166e-01 -2.697487175464630127e-01
3.334000000000000000e+03 1.559894657135009766e+01 -6.519636511802673340e-01 4.454439640045166016e+00 6.151749134063720703e+00 3.181856632232666016e+00 -3.660175204277038574e-01
3.335000000000000000e+03 1.276773548126220703e+01 2.785754680633544922e+00 1.676046967506408691e+00 1.149991989135742188e+01 3.952790260314941406e+00 2.019128322601318359e+00
3.336000000000000000e+03 1.264355087280273438e+01 1.917170166969299316e+00 3.295503377914428711e+00 1.181802082061767578e+01 4.534057140350341797e+00 2.577542543411254883e+00
3.337000000000000000e+03 5.915009498596191406e+00 7.522840499877929688e+00 3.238551318645477295e-01 3.067744016647338867e+00 1.017479777336120605e+00 -8.917447924613952637e-01
3.338000000000000000e+03 1.414286804199218750e+01 4.829789161682128906e+00 2.721336185932159424e-01 9.764361381530761719e+00 3.010948657989501953e+00 1.282630920410156250e+00
3.339000000000000000e+03 6.315416812896728516e+00 -8.353283882141113281e+00 -1.024256467819213867e+00 5.393320560455322266e+00 1.310719251632690430e+00 1.652005791664123535e+00
3.340000000000000000e+03 6.629292964935302734e+00 -9.282384872436523438e+00 -1.336995482444763184e+00 6.047163963317871094e+00 1.413050532341003418e+00 1.347262024879455566e+00
3.341000000000000000e+03 5.850249767303466797e+00 4.190551757812500000e+00 9.874272346496582031e-01 1.766446828842163086e+00 8.261622190475463867e-01 -8.200745582580566406e-01
3.342000000000000000e+03 6.335602283477783203e+00 6.272941589355468750e+00 5.444419384002685547e-01 3.154986381530761719e+00 1.109828472137451172e+00 -1.075671076774597168e+00
3.343000000000000000e+03 6.706128597259521484e+00 7.481949806213378906e+00 2.693452835083007812e-01 3.872341632843017578e+00 1.242506027221679688e+00 -1.063405036926269531e+00
3.344000000000000000e+03 5.220399379730224609e+00 -5.539697647094726562e+00 3.801561892032623291e-01 3.082818031311035156e+00 1.038892269134521484e+00 1.878490209579467773e+00
3.345000000000000000e+03 1.250082015991210938e+01 8.459908485412597656e+00 -4.310133457183837891e-01 8.897212982177734375e+00 2.539859771728515625e+00 3.215451538562774658e-01
3.346000000000000000e+03 1.085240650177001953e+01 7.146915912628173828e+00 -5.534757971763610840e-01 8.488852500915527344e+00 2.380613088607788086e+00 -3.906225562095642090e-01
3.347000000000000000e+03 7.577428817749023438e+00 -7.980560779571533203e+00 -1.402734994888305664e+00 6.557767391204833984e+00 1.546509742736816406e+00 2.192440986633300781e+00
3.348000000000000000e+03 1.369221591949462891e+01 6.067950725555419922e+00 -3.285909295082092285e-01 9.760905265808105469e+00 2.829694271087646484e+00 9.118192195892333984e-01
3.349000000000000000e+03 6.496256351470947266e+00 7.709535121917724609e+00 2.282050549983978271e-01 3.666224956512451172e+00 1.168329000473022461e+00 -9.692281484603881836e-01
3.350000000000000000e+03 6.781166076660156250e+00 8.018570899963378906e+00 1.903471946716308594e-01 4.021605491638183594e+00 1.263585805892944336e+00 -1.013026475906372070e+00
3.351000000000000000e+03 5.199378013610839844e+00 -5.991882324218750000e+00 1.578838378190994263e-01 3.330747127532958984e+00 1.046589255332946777e+00 1.854265451431274414e+00
3.352000000000000000e+03 6.746153831481933594e+00 -4.426321506500244141e+00 9.528921842575073242e-01 3.968498706817626953e+00 1.476417303085327148e+00 2.965930223464965820e+00
3.353000000000000000e+03 8.665544509887695312e+00 -9.552921295166015625e+00 -2.255789995193481445e+00 7.764385223388671875e+00 1.652578473091125488e+00 1.730357527732849121e+00
3.354000000000000000e+03 7.750671386718750000e+00 -9.347644805908203125e+00 -1.834676623344421387e+00 7.030824661254882812e+00 1.558844447135925293e+00 1.692828059196472168e+00
3.355000000000000000e+03 8.357845306396484375e+00 1.028625202178955078e+01 -2.443730644881725311e-02 5.438121318817138672e+00 1.624105215072631836e+00 -6.754502654075622559e-01
3.356000000000000000e+03 1.135566329956054688e+01 1.109466552734375000e+01 1.857516542077064514e-02 7.421279430389404297e+00 2.231956481933593750e+00 -1.098002418875694275e-01
3.357000000000000000e+03 5.251697540283203125e+00 -6.841903209686279297e+00 -2.145745158195495605e-01 3.782364130020141602e+00 1.070336937904357910e+00 1.762349128723144531e+00
3.358000000000000000e+03 1.235572719573974609e+01 -7.918463706970214844e+00 -2.326074361801147461e+00 7.632741928100585938e+00 1.592000246047973633e+00 2.221017599105834961e+00
3.359000000000000000e+03 1.163364219665527344e+01 -8.556490898132324219e+00 -2.820765495300292969e+00 8.122280120849609375e+00 1.590454459190368652e+00 2.406256198883056641e+00
3.360000000000000000e+03 1.571546840667724609e+01 2.797795295715332031e+00 2.152906417846679688e+00 7.813077926635742188e+00 2.989795446395874023e+00 1.106354236602783203e+00
3.361000000000000000e+03 1.378494834899902344e+01 2.410701036453247070e+00 2.679249525070190430e+00 9.896236419677734375e+00 3.772645711898803711e+00 2.045182943344116211e+00
3.362000000000000000e+03 1.549687957763671875e+01 5.625688433647155762e-01 4.107370376586914062e+00 6.686955928802490234e+00 3.238297939300537109e+00 3.452597260475158691e-01
3.363000000000000000e+03 1.382760429382324219e+01 1.841282397508621216e-01 5.805566310882568359e+00 8.593446731567382812e+00 4.319703578948974609e+00 9.070147275924682617e-01
3.364000000000000000e+03 7.041478157043457031e+00 7.753804206848144531e+00 1.788078695535659790e-01 4.251490116119384766e+00 1.329089403152465820e+00 -1.066602468490600586e+00
3.365000000000000000e+03 6.908037662506103516e+00 8.949430465698242188e+00 9.934127330780029297e-02 4.223455429077148438e+00 1.296838998794555664e+00 -8.893275856971740723e-01
3.366000000000000000e+03 1.364672946929931641e+01 -7.123791217803955078e+00 -1.268187284469604492e+00 6.621770381927490234e+00 1.606074929237365723e+00 1.394794464111328125e+00
3.367000000000000000e+03 1.444263458251953125e+01 -7.696925640106201172e+00 -1.235141396522521973e+00 5.414888381958007812e+00 1.253924012184143066e+00 1.266183733940124512e+00
3.368000000000000000e+03 8.796274185180664062e+00 -9.085253715515136719e+00 -2.180523872375488281e+00 7.749402046203613281e+00 1.670663475990295410e+00 1.981856346130371094e+00
3.369000000000000000e+03 1.108742809295654297e+01 5.968051433563232422e+00 -5.758586525917053223e-01 9.274085998535156250e+00 2.609467983245849609e+00 -3.880824744701385498e-01
3.370000000000000000e+03 8.208206176757812500e+00 -9.487607955932617188e+00 -2.014895677566528320e+00 7.419744491577148438e+00 1.621454596519470215e+00 1.688287496566772461e+00
3.371000000000000000e+03 7.084855079650878906e+00 8.370717048645019531e+00 1.011076271533966064e-01 4.344167232513427734e+00 1.333582401275634766e+00 -9.813165068626403809e-01
3.372000000000000000e+03 1.284529590606689453e+01 -2.442594289779663086e+00 3.204408168792724609e+00 1.031414127349853516e+01 4.055564880371093750e+00 -8.121489286422729492e-01
3.373000000000000000e+03 1.686089897155761719e+01 -1.435224413871765137e+00 3.657732486724853516e+00 4.749588489532470703e+00 2.522196292877197266e+00 -1.076104044914245605e+00
3.374000000000000000e+03 1.724221611022949219e+01 -5.999604701995849609e+00 1.129588723182678223e+00 3.241111993789672852e+00 1.311210155487060547e+00 -8.999477624893188477e-01
3.375000000000000000e+03 1.323332214355468750e+01 2.384850740432739258e+00 2.611511945724487305e+00 1.080856418609619141e+01 4.026022911071777344e+00 2.271924018859863281e+00
3.376000000000000000e+03 1.532401847839355469e+01 3.836089849472045898e+00 1.256355643272399902e+00 8.716542243957519531e+00 2.991869449615478516e+00 1.364952802658081055e+00
3.377000000000000000e+03 6.718067169189453125e+01 -3.628862619400024414e+00 -3.535980582237243652e-01 4.807448387145996094e+00 1.336155056953430176e+00 -3.013281822204589844e-01
3.378000000000000000e+03 9.068397521972656250e+00 1.077838039398193359e+01 -1.050120592117309570e-02 5.998230457305908203e+00 1.796318769454956055e+00 -5.870890021324157715e-01
3.379000000000000000e+03 9.031915664672851562e+00 1.252890205383300781e+01 1.625041216611862183e-01 5.615078449249267578e+00 1.733274817466735840e+00 -5.932330489158630371e-01
3.380000000000000000e+03 1.322645568847656250e+01 2.198217010498046875e+01 -4.789091274142265320e-02 6.584670543670654297e+00 1.961033821105957031e+00 -8.898836970329284668e-01
3.381000000000000000e+03 1.399211025238037109e+01 2.416500091552734375e+01 -6.966532468795776367e-01 6.432125568389892578e+00 1.720641613006591797e+00 -5.263444781303405762e-01
3.382000000000000000e+03 1.103639793395996094e+01 1.209969520568847656e+01 1.653047502040863037e-01 7.066937446594238281e+00 2.169672727584838867e+00 -2.042630016803741455e-01
3.383000000000000000e+03 1.723184585571289062e+01 -7.474025726318359375e+00 1.216660067439079285e-01 2.445331573486328125e+00 7.700992822647094727e-01 -4.255433082580566406e-01
3.384000000000000000e+03 1.025685119628906250e+01 1.914583206176757812e+01 4.546838402748107910e-01 5.679552555084228516e+00 1.840270876884460449e+00 -1.054361701011657715e+00
3.385000000000000000e+03 6.978404998779296875e+01 -5.467142581939697266e+00 -7.248096466064453125e-01 6.399988174438476562e+00 1.702553629875183105e+00 -1.527891457080841064e-01
3.386000000000000000e+03 9.634700775146484375e+00 1.011377620697021484e+01 -1.225551739335060120e-01 6.500473499298095703e+00 1.913375496864318848e+00 -5.063697099685668945e-01
3.387000000000000000e+03 1.842718887329101562e+01 -2.763025760650634766e+00 3.017214775085449219e+00 3.183909893035888672e+00 1.860337376594543457e+00 -1.621163487434387207e+00
3.388000000000000000e+03 1.718732452392578125e+01 -4.501038551330566406e+00 2.079857349395751953e+00 3.806141853332519531e+00 1.765799760818481445e+00 -1.213183641433715820e+00
3.389000000000000000e+03 1.001664543151855469e+01 2.269947624206542969e+01 -1.542476415634155273e-01 5.379419326782226562e+00 1.567551493644714355e+00 -1.204972267150878906e+00
3.390000000000000000e+03 1.143888187408447266e+01 -3.521638107299804688e+01 -5.994837284088134766e-01 4.147714614868164062e+00 1.064469218254089355e+00 -1.808987110853195190e-01
3.391000000000000000e+03 1.172965621948242188e+01 2.065024948120117188e+01 3.183152079582214355e-01 6.163546085357666016e+00 1.944558262825012207e+00 -1.111712574958801270e+00
3.392000000000000000e+03 6.981306457519531250e+01 -2.600049495697021484e+00 -5.780560970306396484e-01 6.132936477661132812e+00 1.666464090347290039e+00 -6.867409497499465942e-02
3.393000000000000000e+03 6.864897918701171875e+01 3.505070114135742188e+01 2.000761032104492188e-01 5.223916530609130859e+00 1.627197861671447754e+00 -4.593122601509094238e-01
3.394000000000000000e+03 1.278930091857910156e+01 2.392457580566406250e+01 -5.176468491554260254e-01 6.102463245391845703e+00 1.675444841384887695e+00 -8.477470874786376953e-01
3.395000000000000000e+03 4.505701828002929688e+01 2.752676200866699219e+01 -1.006708860397338867e+00 4.404242992401123047e+00 1.019260168075561523e+00 -1.474246233701705933e-01
3.396000000000000000e+03 4.254944610595703125e+01 2.730825805664062500e+01 -8.710119128227233887e-01 4.054187774658203125e+00 9.549527764320373535e-01 -5.599108338356018066e-01
3.397000000000000000e+03 5.647849559783935547e+00 5.236550807952880859e+00 7.992491126060485840e-01 2.048852443695068359e+00 8.544304966926574707e-01 -8.412088751792907715e-01
3.398000000000000000e+03 7.430728912353515625e+00 3.692496538162231445e+00 1.243750214576721191e+00 3.422119140625000000e+00 1.399760842323303223e+00 -1.934199452400207520e+00
3.399000000000000000e+03 8.372266769409179688e+00 -8.394814491271972656e+00 -1.847368597984313965e+00 7.282601833343505859e+00 1.630569934844970703e+00 2.194843292236328125e+00
3.400000000000000000e+03 6.550977706909179688e+00 -3.782696008682250977e+00 1.443747401237487793e+00 3.131718397140502930e+00 1.372639656066894531e+00 2.791339874267578125e+00
3.401000000000000000e+03 9.501581192016601562e+00 3.566844940185546875e+00 2.464160323143005371e-01 8.830731391906738281e+00 2.723144292831420898e+00 -2.551915884017944336e+00
3.402000000000000000e+03 6.610162258148193359e+00 5.258159637451171875e+00 7.817052602767944336e-01 3.137867212295532227e+00 1.175871729850769043e+00 -1.247795820236206055e+00
3.403000000000000000e+03 5.642696380615234375e+00 -5.593079566955566406e+00 3.113190531730651855e-01 3.509393215179443359e+00 1.146213769912719727e+00 2.129857301712036133e+00
3.404000000000000000e+03 8.045606613159179688e+00 -3.304982185363769531e+00 1.848598599433898926e+00 5.415673732757568359e+00 2.179281711578369141e+00 4.306971073150634766e+00
3.405000000000000000e+03 9.859520912170410156e+00 -4.385008335113525391e+00 -3.308326303958892822e-01 9.539863586425781250e+00 2.762709379196166992e+00 3.514153957366943359e+00
3.406000000000000000e+03 1.191477298736572266e+01 6.714233875274658203e+00 -5.719267129898071289e-01 9.313628196716308594e+00 2.622510433197021484e+00 1.206835508346557617e-01
3.407000000000000000e+03 1.175177192687988281e+01 -3.901473045349121094e+00 2.603156566619873047e-01 1.071925163269042969e+01 3.293870210647583008e+00 1.152828812599182129e+00
3.408000000000000000e+03 4.797772884368896484e+00 3.711414813995361328e+00 7.416675090789794922e-01 7.633188366889953613e-01 4.514959156513214111e-01 -1.656397432088851929e-01
3.409000000000000000e+03 5.686851024627685547e+00 3.616505384445190430e+00 9.855419993400573730e-01 1.235533475875854492e+00 6.663226485252380371e-01 -5.696040987968444824e-01
3.410000000000000000e+03 1.354467678070068359e+01 7.180687189102172852e-01 5.599591255187988281e+00 9.262138366699218750e+00 4.458518981933593750e+00 1.601980209350585938e+00
3.411000000000000000e+03 6.393683910369873047e+00 4.000517368316650391e+00 1.127330422401428223e+00 2.142932415008544922e+00 9.810788035392761230e-01 -1.135021328926086426e+00
3.412000000000000000e+03 8.692112922668457031e+00 4.022235393524169922e+00 6.288071870803833008e-01 6.385513305664062500e+00 2.104296207427978516e+00 -2.445601701736450195e+00
3.413000000000000000e+03 1.138777065277099609e+01 3.693194627761840820e+00 -2.342707663774490356e-01 1.184407711029052734e+01 3.482942104339599609e+00 6.594373285770416260e-02
3.414000000000000000e+03 6.896132469177246094e+00 -3.986473560333251953e+00 1.281234741210937500e+00 3.751718997955322266e+00 1.509886145591735840e+00 3.114302873611450195e+00
3.415000000000000000e+03 1.080100536346435547e+01 -3.853910446166992188e+00 -3.880672156810760498e-02 1.111157417297363281e+01 3.321830272674560547e+00 2.484213590621948242e+00
3.416000000000000000e+03 1.453419494628906250e+01 -6.134681701660156250e-01 5.143105506896972656e+00 7.393042564392089844e+00 3.760844469070434570e+00 -1.439547836780548096e-01
3.417000000000000000e+03 1.132801914215087891e+01 7.463434696197509766e+00 -5.388543605804443359e-01 8.614736557006835938e+00 2.422764778137207031e+00 -1.836226284503936768e-01
3.418000000000000000e+03 1.236236763000488281e+01 -7.246441364288330078e+00 -1.894855618476867676e+00 7.830244064331054688e+00 1.780616521835327148e+00 2.042130708694458008e+00
3.419000000000000000e+03 1.054548072814941406e+01 -4.165847778320312500e+00 -3.234312236309051514e-01 1.053431606292724609e+01 3.063265562057495117e+00 2.882435321807861328e+00
3.420000000000000000e+03 1.312724399566650391e+01 -9.612650871276855469e-01 6.168316364288330078e+00 9.558525085449218750e+00 4.718052387237548828e+00 -4.626150429248809814e-01
3.421000000000000000e+03 1.392668533325195312e+01 -4.558408856391906738e-01 5.781947612762451172e+00 8.245531082153320312e+00 4.208243846893310547e+00 1.115038990974426270e-01
3.422000000000000000e+03 1.206925773620605469e+01 4.376918315887451172e+00 -2.531597912311553955e-01 1.104398250579833984e+01 3.237246751785278320e+00 6.021970510482788086e-01
3.423000000000000000e+03 1.153070926666259766e+01 -4.181144237518310547e+00 -1.453383862972259521e-01 1.056280040740966797e+01 3.125238656997680664e+00 1.539592266082763672e+00
3.424000000000000000e+03 6.002846717834472656e+00 5.960705280303955078e+00 6.231504082679748535e-01 2.720001697540283203e+00 1.002945661544799805e+00 -9.844531416893005371e-01
3.425000000000000000e+03 5.849614620208740234e+00 4.810357093811035156e+00 8.888571262359619141e-01 2.049621105194091797e+00 8.815434575080871582e-01 -8.741281628608703613e-01
3.426000000000000000e+03 1.280982398986816406e+01 6.206231117248535156e+00 -5.020269751548767090e-01 9.810772895812988281e+00 2.792623758316040039e+00 5.970956087112426758e-01
3.427000000000000000e+03 6.150318145751953125e+00 4.402444362640380859e+00 1.006565093994140625e+00 2.105545759201049805e+00 9.336332082748413086e-01 -1.015473842620849609e+00
3.428000000000000000e+03 1.243718910217285156e+01 -3.495652437210083008e+00 1.201753497123718262e+00 1.047453975677490234e+01 3.502888202667236328e+00 1.243318617343902588e-01
3.429000000000000000e+03 5.272471904754638672e+00 -5.108595371246337891e+00 5.887801051139831543e-01 2.846508502960205078e+00 1.030586600303649902e+00 1.937368035316467285e+00
3.430000000000000000e+03 1.617498779296875000e+01 -5.411963462829589844e-01 4.105357170104980469e+00 5.669871330261230469e+00 2.932568550109863281e+00 -4.916926026344299316e-01
3.431000000000000000e+03 1.250202846527099609e+01 3.310146093368530273e+00 7.594804763793945312e-01 1.158832645416259766e+01 3.704342126846313477e+00 1.531099319458007812e+00
3.432000000000000000e+03 1.337642192840576172e+01 -2.271460294723510742e+00 3.735690593719482422e+00 9.267497062683105469e+00 3.900956392288208008e+00 -9.432527422904968262e-01
3.433000000000000000e+03 1.528642654418945312e+01 -2.126534938812255859e+00 3.734835624694824219e+00 6.331120967864990234e+00 3.019786834716796875e+00 -1.017803668975830078e+00
3.434000000000000000e+03 1.331910800933837891e+01 -1.574822068214416504e+00 4.998913764953613281e+00 9.322478294372558594e+00 4.296417713165283203e+00 -8.649900555610656738e-01
3.435000000000000000e+03 1.276001167297363281e+01 -2.767633199691772461e+00 2.671721220016479492e+00 1.043597888946533203e+01 3.932310104370117188e+00 -6.336448192596435547e-01
3.436000000000000000e+03 1.340415573120117188e+01 3.668839931488037109e+00 8.320869803428649902e-01 1.053696346282958984e+01 3.410715341567993164e+00 1.647194504737854004e+00
3.437000000000000000e+03 1.494508361816406250e+01 2.998182773590087891e+00 1.976021766662597656e+00 8.731922149658203125e+00 3.212383270263671875e+00 1.539155006408691406e+00
3.438000000000000000e+03 5.223275184631347656e+00 -6.437430858612060547e+00 -1.479209959506988525e-02 3.547727346420288086e+00 1.059880495071411133e+00 1.781379699707031250e+00
3.439000000000000000e+03 7.087076663970947266e+00 6.816130161285400391e+00 3.179173469543457031e-01 4.183652877807617188e+00 1.350471019744873047e+00 -1.198886275291442871e+00
3.440000000000000000e+03 7.339101314544677734e+00 -9.152940750122070312e+00 -1.598168492317199707e+00 6.653016090393066406e+00 1.516454219818115234e+00 1.607918143272399902e+00
3.441000000000000000e+03 5.087350368499755859e+00 4.694258689880371094e+00 7.944452762603759766e-01 1.364514827728271484e+00 6.476880311965942383e-01 -5.213939547538757324e-01
3.442000000000000000e+03 5.637502670288085938e+00 -6.883135318756103516e+00 -2.649555802345275879e-01 4.124950885772705078e+00 1.157998681068420410e+00 1.861547946929931641e+00
3.443000000000000000e+03 6.313976287841796875e+00 -7.906892299652099609e+00 -8.710188865661621094e-01 5.237437248229980469e+00 1.309925556182861328e+00 1.805881500244140625e+00
3.444000000000000000e+03 4.898900985717773438e+00 -4.264961242675781250e+00 8.374897241592407227e-01 1.942100405693054199e+00 8.338770270347595215e-01 1.506116390228271484e+00
3.445000000000000000e+03 1.084652233123779297e+01 4.441777229309082031e+00 -4.747291803359985352e-01 1.041934585571289062e+01 2.983385086059570312e+00 -6.963828206062316895e-01
3.446000000000000000e+03 1.446487808227539062e+01 4.255867004394531250e+00 7.691745162010192871e-01 9.586136817932128906e+00 3.106593608856201172e+00 1.512995600700378418e+00
3.447000000000000000e+03 6.330448150634765625e+00 7.362055778503417969e+00 3.330091536045074463e-01 3.419815063476562500e+00 1.125847220420837402e+00 -9.739850759506225586e-01
3.448000000000000000e+03 1.106077480316162109e+01 -7.795545101165771484e+00 -2.444411039352416992e+00 8.388863563537597656e+00 1.783335804939270020e+00 2.448280334472656250e+00
3.449000000000000000e+03 1.170616436004638672e+01 -7.879060268402099609e+00 -2.405878305435180664e+00 8.102208137512207031e+00 1.708899021148681641e+00 2.366670131683349609e+00
3.450000000000000000e+03 1.169108009338378906e+01 8.309874534606933594e+00 -4.583778679370880127e-01 8.475166320800781250e+00 2.405036449432373047e+00 3.848241642117500305e-03
3.451000000000000000e+03 1.006545162200927734e+01 3.962759256362915039e+00 -2.143655419349670410e-01 9.718016624450683594e+00 2.851095199584960938e+00 -1.766849279403686523e+00
3.452000000000000000e+03 1.249264240264892578e+01 -3.911826610565185547e+00 6.995223760604858398e-01 9.993062019348144531e+00 3.207775354385375977e+00 3.656687438488006592e-01
3.453000000000000000e+03 7.791312217712402344e+00 8.506874084472656250e+00 5.293023306876420975e-03 5.013885021209716797e+00 1.505753517150878906e+00 -9.716081023216247559e-01
3.454000000000000000e+03 1.545115756988525391e+01 1.286933660507202148e+00 3.737847089767456055e+00 7.223208904266357422e+00 3.288316726684570312e+00 8.662135004997253418e-01
3.455000000000000000e+03 1.386628246307373047e+01 5.357947349548339844e+00 -5.632923915982246399e-02 9.916017532348632812e+00 2.957906723022460938e+00 1.173573732376098633e+00
3.456000000000000000e+03 1.316213130950927734e+01 5.738518238067626953e+00 -3.861628174781799316e-01 1.000109386444091797e+01 2.884479284286499023e+00 8.334164023399353027e-01
3.457000000000000000e+03 1.508707427978515625e+01 2.447127699851989746e-01 4.551898956298828125e+00 6.945631980895996094e+00 3.449259281158447266e+00 3.459588885307312012e-01
3.458000000000000000e+03 1.559819602966308594e+01 2.026888608932495117e+00 2.916732549667358398e+00 7.463824272155761719e+00 3.114167213439941406e+00 1.021205782890319824e+00
3.459000000000000000e+03 8.271271705627441406e+00 9.015999794006347656e+00 -6.533471494913101196e-02 5.497581958770751953e+00 1.629674196243286133e+00 -8.204039335250854492e-01
3.460000000000000000e+03 1.133011341094970703e+01 9.065091133117675781e+00 -3.584554195404052734e-01 8.070160865783691406e+00 2.313511848449707031e+00 -8.873743563890457153e-02
3.461000000000000000e+03 9.539669036865234375e+00 4.128590106964111328e+00 4.212155193090438843e-02 8.506419181823730469e+00 2.564562320709228516e+00 -2.139306306838989258e+00
3.462000000000000000e+03 1.352977466583251953e+01 -6.502896308898925781e+00 -9.057615995407104492e-01 7.081504821777343750e+00 1.852723002433776855e+00 1.120608568191528320e+00
3.463000000000000000e+03 1.653077888488769531e+01 -6.826276302337646484e+00 2.992545664310455322e-01 3.424039125442504883e+00 1.116988062858581543e+00 -2.712911665439605713e-01
3.464000000000000000e+03 7.397644519805908203e+00 8.094660758972167969e+00 9.488620609045028687e-02 4.649581432342529297e+00 1.423340320587158203e+00 -1.037551045417785645e+00
3.465000000000000000e+03 1.091384601593017578e+01 9.851574897766113281e+00 -1.953647285699844360e-01 7.487236022949218750e+00 2.187561273574829102e+00 -2.131610214710235596e-01
3.466000000000000000e+03 9.073279380798339844e+00 -9.442166328430175781e+00 -2.430954217910766602e+00 8.028103828430175781e+00 1.679144978523254395e+00 1.861753821372985840e+00
3.467000000000000000e+03 1.433973979949951172e+01 -6.934020519256591797e+00 -7.712209224700927734e-01 5.912758827209472656e+00 1.542461276054382324e+00 9.301615953445434570e-01
3.468000000000000000e+03 1.589748477935791016e+01 -6.109664916992187500e+00 5.388824343681335449e-01 4.490319252014160156e+00 1.508760452270507812e+00 -2.026365548372268677e-01
3.469000000000000000e+03 1.031274509429931641e+01 -8.299886703491210938e+00 -2.571298122406005859e+00 8.406216621398925781e+00 1.750475406646728516e+00 2.419703483581542969e+00
3.470000000000000000e+03 1.096517753601074219e+01 -8.450577735900878906e+00 -2.687538385391235352e+00 8.356420516967773438e+00 1.700664758682250977e+00 2.408288717269897461e+00
3.471000000000000000e+03 9.835911750793457031e+00 -9.560746192932128906e+00 -2.724425315856933594e+00 8.370537757873535156e+00 1.693833708763122559e+00 1.952780008316040039e+00
3.472000000000000000e+03 1.018229007720947266e+01 -8.982180595397949219e+00 -2.694430351257324219e+00 8.387623786926269531e+00 1.707958102226257324e+00 2.162134170532226562e+00
3.473000000000000000e+03 1.009873199462890625e+01 1.197459125518798828e+01 1.119407564401626587e-01 6.463073730468750000e+00 1.972504377365112305e+00 -3.981525599956512451e-01
3.474000000000000000e+03 9.373163223266601562e+00 1.181919384002685547e+01 4.471034184098243713e-02 6.020800113677978516e+00 1.819653153419494629e+00 -5.503990650177001953e-01
3.475000000000000000e+03 1.380551433563232422e+01 -1.392261981964111328e+00 5.093082427978515625e+00 8.395098686218261719e+00 4.046454429626464844e+00 -7.034908533096313477e-01
3.476000000000000000e+03 1.042620372772216797e+01 1.064150810241699219e+01 -7.941102981567382812e-02 6.962828636169433594e+00 2.065025329589843750e+00 -3.295739889144897461e-01
3.477000000000000000e+03 1.015281009674072266e+01 9.464006423950195312e+00 -2.365557700395584106e-01 7.027157306671142578e+00 2.037180423736572266e+00 -4.330871105194091797e-01
3.478000000000000000e+03 8.704250335693359375e+00 -1.011968040466308594e+01 -2.274291515350341797e+00 7.895429611206054688e+00 1.686341524124145508e+00 1.477723002433776855e+00
3.479000000000000000e+03 1.779293632507324219e+01 -3.643363475799560547e+00 2.681710243225097656e+00 3.506311893463134766e+00 1.856406688690185547e+00 -1.493608832359313965e+00
3.480000000000000000e+03 1.764058494567871094e+01 -1.995534658432006836e+00 3.348372936248779297e+00 3.986521482467651367e+00 2.200468301773071289e+00 -1.337451577186584473e+00
3.481000000000000000e+03 6.601354217529296875e+01 3.366432571411132812e+01 2.787966132164001465e-01 4.288375377655029297e+00 1.370151519775390625e+00 -5.168110132217407227e-01
3.482000000000000000e+03 7.148778533935546875e+01 3.613225173950195312e+01 1.248042583465576172e-01 6.251989364624023438e+00 1.913038134574890137e+00 -2.965334653854370117e-01
3.483000000000000000e+03 4.046686935424804688e+01 2.604629898071289062e+01 -7.192853689193725586e-01 3.630084037780761719e+00 8.732395768165588379e-01 -9.059508442878723145e-01
3.484000000000000000e+03 7.716617107391357422e+00 -3.945986032485961914e+00 1.226754307746887207e+00 5.152491092681884766e+00 1.913773655891418457e+00 3.811141490936279297e+00
3.485000000000000000e+03 8.912507057189941406e+00 -4.730364799499511719e+00 -1.076936051249504089e-01 7.796731472015380859e+00 2.306711435317993164e+00 3.797775268554687500e+00
3.486000000000000000e+03 8.534141540527343750e+00 -5.147378921508789062e+00 -2.177734225988388062e-01 7.116957187652587891e+00 2.069755315780639648e+00 3.640654563903808594e+00
3.487000000000000000e+03 8.604090690612792969e+00 4.696581363677978516e+00 4.210350215435028076e-01 6.264350414276123047e+00 2.005615711212158203e+00 -2.066940546035766602e+00
3.488000000000000000e+03 6.337423801422119141e+00 -4.217305183410644531e+00 1.095970034599304199e+00 3.245895624160766602e+00 1.302559733390808105e+00 2.651448488235473633e+00
3.489000000000000000e+03 7.466795444488525391e+00 -4.697541713714599609e+00 5.957319736480712891e-01 5.231397628784179688e+00 1.748138904571533203e+00 3.427177429199218750e+00
3.490000000000000000e+03 6.871426582336425781e+00 7.166257858276367188e+00 3.007217049598693848e-01 4.014384269714355469e+00 1.294531702995300293e+00 -1.123837590217590332e+00
3.491000000000000000e+03 8.976004600524902344e+00 4.346677780151367188e+00 3.070516884326934814e-01 7.124725818634033203e+00 2.229533195495605469e+00 -2.219474315643310547e+00
3.492000000000000000e+03 8.449213981628417969e+00 -3.798709392547607422e+00 1.031313776969909668e+00 6.722860336303710938e+00 2.326252222061157227e+00 4.290390491485595703e+00
3.493000000000000000e+03 1.113769245147705078e+01 -7.186837196350097656e+00 -2.091924667358398438e+00 8.485420227050781250e+00 1.918048620223999023e+00 2.431433677673339844e+00
3.494000000000000000e+03 9.150889396667480469e+00 -7.176026344299316406e+00 -1.721717119216918945e+00 7.852385044097900391e+00 1.839200377464294434e+00 2.722316265106201172e+00
3.495000000000000000e+03 1.064604187011718750e+01 3.968696355819702148e+00 -4.013236761093139648e-01 1.081907749176025391e+01 3.125326156616210938e+00 -1.028419494628906250e+00
3.496000000000000000e+03 9.262384414672851562e+00 5.082386493682861328e+00 2.932731295004487038e-03 7.435500621795654297e+00 2.231529951095581055e+00 -1.753944516181945801e+00
3.497000000000000000e+03 8.393197059631347656e+00 4.332381248474121094e+00 6.432139873504638672e-01 5.785418033599853516e+00 1.928589582443237305e+00 -2.239806652069091797e+00
3.498000000000000000e+03 1.030834674835205078e+01 4.271515846252441406e+00 -3.553346097469329834e-01 9.874904632568359375e+00 2.855871200561523438e+00 -1.401684880256652832e+00
3.499000000000000000e+03 1.154591941833496094e+01 5.099363327026367188e+00 -5.748988389968872070e-01 1.029437160491943359e+01 2.915841817855834961e+00 -5.733900517225265503e-02
3.500000000000000000e+03 1.189047336578369141e+01 3.485106945037841797e+00 1.619298160076141357e-01 1.200318145751953125e+01 3.649533510208129883e+00 8.455663919448852539e-01
3.501000000000000000e+03 7.121738910675048828e+00 3.605247974395751953e+00 1.240413188934326172e+00 2.780706882476806641e+00 1.206336021423339844e+00 -1.644589424133300781e+00
3.502000000000000000e+03 1.099340820312500000e+01 -4.489979267120361328e+00 -5.162439942359924316e-01 1.027789306640625000e+01 2.928494691848754883e+00 2.276654005050659180e+00
3.503000000000000000e+03 1.349476146697998047e+01 -5.943807959556579590e-01 6.223077297210693359e+00 8.843741416931152344e+00 4.520045757293701172e+00 -1.855198480188846588e-02
3.504000000000000000e+03 1.412163734436035156e+01 1.388489268720149994e-02 5.533450603485107422e+00 8.045452117919921875e+00 4.073670864105224609e+00 5.527612566947937012e-01
3.505000000000000000e+03 7.264317035675048828e+00 7.436745166778564453e+00 2.025631368160247803e-01 4.461265087127685547e+00 1.399148344993591309e+00 -1.123488783836364746e+00
3.506000000000000000e+03 1.187825679779052734e+01 4.930135250091552734e+00 -4.636679589748382568e-01 1.054110622406005859e+01 3.023231506347656250e+00 2.708501815795898438e-01
3.507000000000000000e+03 5.565656185150146484e+00 4.518866539001464844e+00 8.958711624145507812e-01 1.676208376884460449e+00 7.716238498687744141e-01 -7.104966640472412109e-01
3.508000000000000000e+03 1.141621875762939453e+01 -4.872636795043945312e+00 -6.864618062973022461e-01 9.891688346862792969e+00 2.761567831039428711e+00 1.935404419898986816e+00
3.509000000000000000e+03 6.701023101806640625e+00 6.557580471038818359e+00 4.462105631828308105e-01 3.630260705947875977e+00 1.222941398620605469e+00 -1.160947561264038086e+00
3.510000000000000000e+03 1.438797378540039062e+01 2.806628644466400146e-01 5.123704910278320312e+00 7.793542861938476562e+00 3.875174283981323242e+00 7.005871534347534180e-01
3.511000000000000000e+03 6.015686988830566406e+00 5.370890140533447266e+00 7.748838663101196289e-01 2.532677888870239258e+00 9.922685027122497559e-01 -1.004237532615661621e+00
3.512000000000000000e+03 1.153789615631103516e+01 4.115680217742919922e+00 -3.582350909709930420e-01 1.125039386749267578e+01 3.267647504806518555e+00 9.412587434053421021e-02
3.513000000000000000e+03 1.214500427246093750e+01 6.166617393493652344e+00 -5.704079270362854004e-01 9.715078353881835938e+00 2.743401050567626953e+00 2.866593301296234131e-01
3.514000000000000000e+03 6.619517326354980469e+00 -7.079677581787109375e+00 -6.164276003837585449e-01 5.243319034576416016e+00 1.388067483901977539e+00 2.241850376129150391e+00
3.515000000000000000e+03 7.573882579803466797e+00 -8.587297439575195312e+00 -1.626659512519836426e+00 6.758125782012939453e+00 1.539439797401428223e+00 1.983393311500549316e+00
3.516000000000000000e+03 1.205975437164306641e+01 -3.499178409576416016e+00 9.390970468521118164e-01 1.102395820617675781e+01 3.588916540145874023e+00 5.166948437690734863e-01
3.517000000000000000e+03 1.476242637634277344e+01 -9.762578010559082031e-01 4.806995868682861328e+00 7.025844097137451172e+00 3.549851894378662109e+00 -4.074247777462005615e-01
3.518000000000000000e+03 1.266200542449951172e+01 3.063264608383178711e+00 1.105930685997009277e+00 1.152754020690917969e+01 3.790041208267211914e+00 1.740265965461730957e+00
3.519000000000000000e+03 1.293381214141845703e+01 4.681816101074218750e+00 -7.616472244262695312e-02 1.051440620422363281e+01 3.131472587585449219e+00 1.028891563415527344e+00
3.520000000000000000e+03 1.412814903259277344e+01 -6.266578197479248047e+00 -4.762230813503265381e-01 6.464172840118408203e+00 1.796384930610656738e+00 7.107795476913452148e-01
3.521000000000000000e+03 1.278961181640625000e+01 -3.109935998916625977e+00 1.993324756622314453e+00 1.013977527618408203e+01 3.639930009841918945e+00 -4.119361042976379395e-01
3.522000000000000000e+03 1.564321041107177734e+01 -1.140515685081481934e+00 4.247282505035400391e+00 6.021132469177246094e+00 3.080524444580078125e+00 -6.277593374252319336e-01
3.523000000000000000e+03 1.324548721313476562e+01 -3.618239641189575195e+00 1.603252291679382324e+00 9.069540977478027344e+00 3.201838016510009766e+00 -3.711695969104766846e-01
3.524000000000000000e+03 4.814974784851074219e+00 4.075098037719726562e+00 7.681955099105834961e-01 9.218681454658508301e-01 5.070191025733947754e-01 -2.699163258075714111e-01
3.525000000000000000e+03 1.362777042388916016e+01 -2.005339622497558594e+00 4.199232578277587891e+00 8.715374946594238281e+00 3.874382257461547852e+00 -9.068489074707031250e-01
3.526000000000000000e+03 1.049001216888427734e+01 4.674141407012939453e+00 -4.651926755905151367e-01 9.811478614807128906e+00 2.803885698318481445e+00 -1.087225198745727539e+00
3.527000000000000000e+03 1.381550979614257812e+01 3.532549142837524414e+00 1.200926303863525391e+00 1.007632064819335938e+01 3.383174180984497070e+00 1.734041452407836914e+00
3.528000000000000000e+03 1.337566661834716797e+01 5.192315101623535156e+00 -1.475052684545516968e-01 1.010271263122558594e+01 2.986562252044677734e+00 1.053161501884460449e+00
3.529000000000000000e+03 1.334081554412841797e+01 2.813527345657348633e+00 1.940943360328674316e+00 1.070386028289794922e+01 3.793441057205200195e+00 2.049538850784301758e+00
3.530000000000000000e+03 1.294266891479492188e+01 -6.608125209808349609e+00 -1.269600272178649902e+00 7.608002185821533203e+00 1.901520609855651855e+00 1.524819374084472656e+00
3.531000000000000000e+03 1.511389350891113281e+01 -6.654694080352783203e+00 -2.478813827037811279e-01 5.103708267211914062e+00 1.456748127937316895e+00 4.108980298042297363e-01
3.532000000000000000e+03 1.174883651733398438e+01 -7.234409809112548828e+00 -2.079146146774291992e+00 8.237699508666992188e+00 1.847566127777099609e+00 2.235734224319458008e+00
3.533000000000000000e+03 1.506431007385253906e+01 9.485372900962829590e-01 4.143933773040771484e+00 7.379371643066406250e+00 3.456991672515869141e+00 8.898127079010009766e-01
3.534000000000000000e+03 1.410321331024169922e+01 -8.146300315856933594e-01 5.436301231384277344e+00 7.888844013214111328e+00 3.997543573379516602e+00 -2.622013688087463379e-01
3.535000000000000000e+03 1.539937305450439453e+01 -1.727681457996368408e-01 4.489886760711669922e+00 6.500325679779052734e+00 3.297063827514648438e+00 -7.578160613775253296e-02
3.536000000000000000e+03 1.523305034637451172e+01 2.498938083648681641e+00 2.481191873550415039e+00 8.104496002197265625e+00 3.175706386566162109e+00 1.305008053779602051e+00
3.537000000000000000e+03 1.157209968566894531e+01 6.984663963317871094e+00 -6.036232113838195801e-01 9.057964324951171875e+00 2.536302328109741211e+00 -4.969073832035064697e-02
3.538000000000000000e+03 9.325846672058105469e+00 4.562598705291748047e+00 5.720221623778343201e-02 7.741841793060302734e+00 2.339713096618652344e+00 -1.996423602104187012e+00
3.539000000000000000e+03 1.245245265960693359e+01 5.908566951751708984e+00 -5.397243499755859375e-01 9.958442687988281250e+00 2.825615644454956055e+00 4.943821430206298828e-01
3.540000000000000000e+03 7.981196403503417969e+00 -8.752658843994140625e+00 -1.765486240386962891e+00 7.083205699920654297e+00 1.595315814018249512e+00 1.956362962722778320e+00
3.541000000000000000e+03 8.391022682189941406e+00 -8.917563438415527344e+00 -2.035723209381103516e+00 7.485609531402587891e+00 1.634965896606445312e+00 2.003989696502685547e+00
3.542000000000000000e+03 8.899737358093261719e+00 9.586581230163574219e+00 -1.184820011258125305e-01 6.022788524627685547e+00 1.771291971206665039e+00 -6.823363900184631348e-01
3.543000000000000000e+03 8.100194931030273438e+00 8.074202537536621094e+00 -8.656317368149757385e-03 5.338181972503662109e+00 1.598857760429382324e+00 -9.855144619941711426e-01
3.544000000000000000e+03 1.057496356964111328e+01 8.754178047180175781e+00 -3.383074104785919189e-01 7.571222305297851562e+00 2.169874429702758789e+00 -3.705714046955108643e-01
3.545000000000000000e+03 8.869463920593261719e+00 5.748929023742675781e+00 3.570462390780448914e-02 6.609126567840576172e+00 1.993449449539184570e+00 -1.554954886436462402e+00
3.546000000000000000e+03 1.434473419189453125e+01 -1.224518895149230957e+00 4.912534236907958984e+00 7.574288368225097656e+00 3.746046781539916992e+00 -5.688827633857727051e-01
3.547000000000000000e+03 1.657410049438476562e+01 -5.321006298065185547e+00 1.388085246086120605e+00 4.033980846405029297e+00 1.626619815826416016e+00 -8.418478965759277344e-01
3.548000000000000000e+03 1.469460201263427734e+01 3.574497461318969727e+00 1.401750445365905762e+00 9.206888198852539062e+00 3.182591438293457031e+00 1.598204016685485840e+00
3.549000000000000000e+03 1.394792842864990234e+01 4.043727397918701172e+00 7.789352536201477051e-01 9.956098556518554688e+00 3.220510244369506836e+00 1.566256403923034668e+00
3.550000000000000000e+03 8.633725166320800781e+00 8.401177406311035156e+00 -1.264889240264892578e-01 5.968908786773681641e+00 1.752725958824157715e+00 -8.598505258560180664e-01
3.551000000000000000e+03 9.500256538391113281e+00 9.045411109924316406e+00 -2.066240906715393066e-01 6.608556270599365234e+00 1.920579671859741211e+00 -6.436815857887268066e-01
3.552000000000000000e+03 1.380970001220703125e+01 -2.447688341140747070e+00 3.422744512557983398e+00 8.379497528076171875e+00 3.540672779083251953e+00 -9.100489020347595215e-01
3.553000000000000000e+03 1.308926773071289062e+01 -2.964836120605468750e+00 2.436162233352661133e+00 9.610147476196289062e+00 3.613893032073974609e+00 -6.283559203147888184e-01
3.554000000000000000e+03 1.707095336914062500e+01 -3.016368865966796875e+00 3.021150588989257812e+00 4.257107734680175781e+00 2.183477640151977539e+00 -1.327310204505920410e+00
3.555000000000000000e+03 6.357707595825195312e+01 2.941880798339843750e+01 1.029128134250640869e-01 2.648200273513793945e+00 8.253339529037475586e-01 -5.791561007499694824e-01
3.556000000000000000e+03 6.440912628173828125e+01 2.788076210021972656e+01 -2.447745054960250854e-01 2.808605194091796875e+00 7.691491842269897461e-01 -9.948260188102722168e-01
3.557000000000000000e+03 7.186646270751953125e+01 -3.501749801635742188e+01 -3.329572975635528564e-01 6.654361724853515625e+00 1.896421313285827637e+00 1.458381265401840210e-01
3.558000000000000000e+03 1.902951431274414062e+01 3.143537902832031250e+01 -5.775666832923889160e-01 3.966125488281250000e+00 1.016567707061767578e+00 7.223816514015197754e-01
3.559000000000000000e+03 8.064408302307128906e+00 -4.113133430480957031e+00 9.216548800468444824e-01 6.012294769287109375e+00 2.080184936523437500e+00 4.001320362091064453e+00
3.560000000000000000e+03 6.189728736877441406e+00 -4.725118637084960938e+00 7.868838310241699219e-01 3.471098661422729492e+00 1.277394771575927734e+00 2.521109580993652344e+00
3.561000000000000000e+03 8.020894050598144531e+00 3.914382457733154297e+00 1.062044382095336914e+00 4.718847751617431641e+00 1.734267592430114746e+00 -2.284268140792846680e+00
3.562000000000000000e+03 6.131220340728759766e+00 -5.256479740142822266e+00 4.254325926303863525e-01 3.763947486877441406e+00 1.256814002990722656e+00 2.440193414688110352e+00
3.563000000000000000e+03 6.951792716979980469e+00 3.892779827117919922e+00 1.202619194984436035e+00 2.833467006683349609e+00 1.210825800895690918e+00 -1.530974864959716797e+00
3.564000000000000000e+03 7.588040828704833984e+00 4.571230888366699219e+00 8.514873981475830078e-01 4.223473548889160156e+00 1.522488355636596680e+00 -1.834437847137451172e+00
3.565000000000000000e+03 6.746809482574462891e+00 4.248293399810791016e+00 1.076969265937805176e+00 2.740780830383300781e+00 1.145325064659118652e+00 -1.376755595207214355e+00
3.566000000000000000e+03 1.383608722686767578e+01 1.141519069671630859e+00 4.763192176818847656e+00 9.118790626525878906e+00 4.164595127105712891e+00 1.776049852371215820e+00
3.567000000000000000e+03 7.145964622497558594e+00 4.475091934204101562e+00 9.786232709884643555e-01 3.518290519714355469e+00 1.349074125289916992e+00 -1.625361323356628418e+00
3.568000000000000000e+03 1.031115913391113281e+01 -4.581151008605957031e+00 -5.302529931068420410e-01 9.826205253601074219e+00 2.788785696029663086e+00 3.062807321548461914e+00
3.569000000000000000e+03 1.382139873504638672e+01 -1.287069022655487061e-01 5.977351188659667969e+00 8.467758178710937500e+00 4.333532810211181641e+00 4.848041236400604248e-01
3.570000000000000000e+03 1.398768806457519531e+01 5.215296149253845215e-01 5.368618488311767578e+00 8.524414062500000000e+00 4.167909622192382812e+00 1.148233771324157715e+00
3.571000000000000000e+03 5.610213279724121094e+00 -6.011580944061279297e+00 1.346692740917205811e-01 3.713821411132812500e+00 1.154547214508056641e+00 2.068250656127929688e+00
3.572000000000000000e+03 1.115754890441894531e+01 -4.151750087738037109e+00 -2.470364570617675781e-01 1.068428134918212891e+01 3.131173372268676758e+00 2.024344682693481445e+00
3.573000000000000000e+03 5.683650016784667969e+00 -5.140588760375976562e+00 5.344859361648559570e-01 3.275551319122314453e+00 1.143011212348937988e+00 2.165546178817749023e+00
3.574000000000000000e+03 7.931704044342041016e+00 -4.472522258758544922e+00 6.187281608581542969e-01 5.935160636901855469e+00 1.966166615486145020e+00 3.751527786254882812e+00
3.575000000000000000e+03 1.076614856719970703e+01 -4.836268424987792969e+00 -7.797002196311950684e-01 9.895313262939453125e+00 2.734683990478515625e+00 2.552979469299316406e+00
3.576000000000000000e+03 6.923500537872314453e+00 -7.285919189453125000e+00 -8.894091248512268066e-01 5.725633144378662109e+00 1.450867176055908203e+00 2.293564319610595703e+00
3.577000000000000000e+03 6.332112312316894531e+00 5.622849464416503906e+00 7.101559638977050781e-01 2.921968936920166016e+00 1.089637398719787598e+00 -1.129186511039733887e+00
3.578000000000000000e+03 6.245915412902832031e+00 5.015737056732177734e+00 8.767969012260437012e-01 2.597462892532348633e+00 1.042277932167053223e+00 -1.117841362953186035e+00
3.579000000000000000e+03 8.277432441711425781e+00 5.356617927551269531e+00 3.647784292697906494e-01 5.618534564971923828e+00 1.794993996620178223e+00 -1.750465750694274902e+00
3.580000000000000000e+03 7.407020092010498047e+00 6.039947032928466797e+00 4.285826981067657471e-01 4.425611495971679688e+00 1.456258296966552734e+00 -1.403307437896728516e+00
3.581000000000000000e+03 1.463649368286132812e+01 1.313923954963684082e+00 4.055959701538085938e+00 8.105842590332031250e+00 3.648540496826171875e+00 1.339850664138793945e+00
3.582000000000000000e+03 1.418672275543212891e+01 1.649733781814575195e+00 3.805389404296875000e+00 8.916046142578125000e+00 3.816430568695068359e+00 1.771862745285034180e+00
3.583000000000000000e+03 7.294716835021972656e+00 4.063932895660400391e+00 1.108106732368469238e+00 3.481440782546997070e+00 1.376864194869995117e+00 -1.779364347457885742e+00
3.584000000000000000e+03 1.091014385223388672e+01 -5.405003547668457031e+00 -1.112226605415344238e+00 9.427710533142089844e+00 2.494645357131958008e+00 2.464769601821899414e+00
3.585000000000000000e+03 1.136946010589599609e+01 4.691204547882080078e+00 -4.948492050170898438e-01 1.054420280456542969e+01 3.014806032180786133e+00 -1.681543290615081787e-01
3.586000000000000000e+03 1.177004241943359375e+01 6.345756530761718750e+00 -6.406423449516296387e-01 9.472930908203125000e+00 2.649686574935913086e+00 5.133540928363800049e-02
3.587000000000000000e+03 1.337301158905029297e+01 -6.003132820129394531e+00 -6.981742978096008301e-01 7.473639965057373047e+00 2.032639741897583008e+00 9.981508255004882812e-01
3.588000000000000000e+03 1.437730312347412109e+01 2.646209955215454102e+00 2.421934127807617188e+00 9.177900314331054688e+00 3.479950428009033203e+00 1.780431270599365234e+00
3.589000000000000000e+03 1.494827842712402344e+01 -3.937278985977172852e-01 4.832582950592041016e+00 6.851641178131103516e+00 3.505267143249511719e+00 -5.516679212450981140e-02
3.590000000000000000e+03 1.282179832458496094e+01 3.538401126861572266e+00 7.193306088447570801e-01 1.117016601562500000e+01 3.566848993301391602e+00 1.550869464874267578e+00
3.591000000000000000e+03 1.245105838775634766e+01 4.290339469909667969e+00 -6.842313706874847412e-02 1.098689174652099609e+01 3.275540590286254883e+00 9.123280048370361328e-01
3.592000000000000000e+03 1.459106349945068359e+01 -1.716349244117736816e+00 4.356771469116210938e+00 7.231723308563232422e+00 3.476548433303833008e+00 -8.140369057655334473e-01
3.593000000000000000e+03 1.312690639495849609e+01 -3.958317041397094727e+00 1.061747908592224121e+00 9.080968856811523438e+00 3.042815208435058594e+00 -3.207038342952728271e-02
3.594000000000000000e+03 8.786963462829589844e+00 7.775029659271240234e+00 -1.414839327335357666e-01 6.156505107879638672e+00 1.804506301879882812e+00 -1.001465201377868652e+00
3.595000000000000000e+03 7.660526275634765625e+00 7.745307445526123047e+00 9.097338467836380005e-02 4.920899868011474609e+00 1.503561973571777344e+00 -1.097139120101928711e+00
3.596000000000000000e+03 1.116087436676025391e+01 6.679741859436035156e+00 -5.790969729423522949e-01 8.880611419677734375e+00 2.490454196929931641e+00 -2.825864851474761963e-01
3.597000000000000000e+03 1.011942291259765625e+01 4.890760898590087891e+00 -3.482123017311096191e-01 9.047673225402832031e+00 2.609838485717773438e+00 -1.355394363403320312e+00
3.598000000000000000e+03 1.250204467773437500e+01 5.566642761230468750e+00 -4.942464828491210938e-01 1.011501884460449219e+01 2.886231660842895508e+00 5.568870902061462402e-01
3.599000000000000000e+03 1.193230819702148438e+01 5.830659866333007812e+00 -6.018856763839721680e-01 9.880767822265625000e+00 2.783664703369140625e+00 1.793335676193237305e-01
3.600000000000000000e+03 1.235000514984130859e+01 -6.601966381072998047e+00 -1.525645375251770020e+00 8.123113632202148438e+00 1.979240417480468750e+00 1.809094309806823730e+00
3.601000000000000000e+03 1.470441913604736328e+01 6.024081110954284668e-01 4.652894496917724609e+00 7.596552848815917969e+00 3.674834012985229492e+00 8.156635761260986328e-01
3.602000000000000000e+03 7.967593193054199219e+00 -7.165708065032958984e+00 -1.237540364265441895e+00 6.769990921020507812e+00 1.659735202789306641e+00 2.628564834594726562e+00
3.603000000000000000e+03 1.294734573364257812e+01 3.252062797546386719e+00 1.050248861312866211e+00 1.118446731567382812e+01 3.670414924621582031e+00 1.742309093475341797e+00
3.604000000000000000e+03 9.645222663879394531e+00 -8.141709327697753906e+00 -2.253227949142456055e+00 8.132668495178222656e+00 1.763832092285156250e+00 2.409192800521850586e+00
3.605000000000000000e+03 9.630520820617675781e+00 -8.740032196044921875e+00 -2.467441082000732422e+00 8.166758537292480469e+00 1.709795355796813965e+00 2.196060657501220703e+00
3.606000000000000000e+03 9.310470581054687500e+00 7.901330947875976562e+00 -2.387237101793289185e-01 6.671135902404785156e+00 1.929723739624023438e+00 -8.384651541709899902e-01
3.607000000000000000e+03 1.413142871856689453e+01 -3.983699321746826172e+00 1.636674404144287109e+00 7.640787124633789062e+00 2.783238410949707031e+00 -5.172160863876342773e-01
3.608000000000000000e+03 1.370675849914550781e+01 -2.888616800308227539e+00 2.819626331329345703e+00 8.546965599060058594e+00 3.409977436065673828e+00 -8.580928444862365723e-01
3.609000000000000000e+03 1.512691783905029297e+01 -7.671671509742736816e-01 4.663466930389404297e+00 6.655622959136962891e+00 3.395726919174194336e+00 -3.426845669746398926e-01
3.610000000000000000e+03 1.598897647857666016e+01 -2.344724178314208984e+00 3.475642919540405273e+00 5.509418010711669922e+00 2.695518255233764648e+00 -1.083266854286193848e+00
3.611000000000000000e+03 1.407698249816894531e+01 -1.866051554679870605e+00 4.346882820129394531e+00 8.056241989135742188e+00 3.720937490463256836e+00 -9.069905877113342285e-01
3.612000000000000000e+03 1.470276165008544922e+01 -3.517654910683631897e-02 4.964603424072265625e+00 7.298891544342041016e+00 3.679048538208007812e+00 2.831378877162933350e-01
3.613000000000000000e+03 1.264716720581054688e+01 5.093696117401123047e+00 -3.457466065883636475e-01 1.041310977935791016e+01 3.020208835601806641e+00 7.385761141777038574e-01
3.614000000000000000e+03 1.353518772125244141e+01 3.146054983139038086e+00 1.462240815162658691e+00 1.039025306701660156e+01 3.555748224258422852e+00 1.863881587982177734e+00
3.615000000000000000e+03 1.474671745300292969e+01 -5.917032241821289062e+00 1.879453510046005249e-01 5.902755737304687500e+00 1.827210307121276855e+00 2.012023478746414185e-01
3.616000000000000000e+03 1.375017356872558594e+01 4.479693889617919922e+00 3.702453672885894775e-01 1.008258247375488281e+01 3.135848283767700195e+00 1.396980285644531250e+00
3.617000000000000000e+03 1.335371589660644531e+01 4.660044670104980469e+00 1.510807573795318604e-01 1.027587795257568359e+01 3.128087520599365234e+00 1.247941970825195312e+00
3.618000000000000000e+03 1.047124385833740234e+01 7.645872592926025391e+00 -4.438490867614746094e-01 7.875650405883789062e+00 2.229540348052978516e+00 -5.142776370048522949e-01
3.619000000000000000e+03 1.016716861724853516e+01 7.243477821350097656e+00 -4.406237304210662842e-01 7.720684051513671875e+00 2.184018135070800781e+00 -7.186060547828674316e-01
3.620000000000000000e+03 9.885450363159179688e+00 8.513145446777343750e+00 -3.083690702915191650e-01 7.170615196228027344e+00 2.058673858642578125e+00 -5.854536294937133789e-01
3.621000000000000000e+03 9.915960311889648438e+00 7.912014961242675781e+00 -3.540538847446441650e-01 7.296042442321777344e+00 2.082596540451049805e+00 -6.573903560638427734e-01
3.622000000000000000e+03 1.649955749511718750e+01 -3.876537084579467773e+00 2.377049446105957031e+00 4.616402626037597656e+00 2.098035573959350586e+00 -1.155587792396545410e+00
3.623000000000000000e+03 1.041180992126464844e+01 -7.661810398101806641e+00 -2.280510663986206055e+00 8.413566589355468750e+00 1.839916825294494629e+00 2.526072740554809570e+00
3.624000000000000000e+03 1.592636203765869141e+01 -4.673117637634277344e+00 1.665019750595092773e+00 5.019782066345214844e+00 2.005440711975097656e+00 -7.659434676170349121e-01
3.625000000000000000e+03 1.602067947387695312e+01 -1.678631663322448730e+00 3.742166042327880859e+00 5.469694614410400391e+00 2.763558149337768555e+00 -8.927168250083923340e-01
3.626000000000000000e+03 1.383304309844970703e+01 -3.587509632110595703e+00 1.909756302833557129e+00 8.256402015686035156e+00 3.049847602844238281e+00 -6.304829120635986328e-01
3.627000000000000000e+03 1.643022155761718750e+01 -2.642730236053466797e+00 3.209096193313598633e+00 4.875249862670898438e+00 2.425303697586059570e+00 -1.226799726486206055e+00
3.628000000000000000e+03 6.392008590698242188e+01 3.230155563354492188e+01 3.438139259815216064e-01 3.273943424224853516e+00 1.085327267646789551e+00 -3.556824326515197754e-01
3.629000000000000000e+03 6.465800762176513672e+00 -5.916305065155029297e+00 -2.746106125414371490e-03 4.580084800720214844e+00 1.373201608657836914e+00 2.568684577941894531e+00
3.630000000000000000e+03 1.052756881713867188e+01 -7.072814464569091797e+00 -2.038784980773925781e+00 8.523180961608886719e+00 1.945318818092346191e+00 2.604480266571044922e+00
3.631000000000000000e+03 6.644577503204345703e+00 -4.911520004272460938e+00 6.061266064643859863e-01 4.195911407470703125e+00 1.440611362457275391e+00 2.875264883041381836e+00
3.632000000000000000e+03 8.021190643310546875e+00 4.506671905517578125e+00 7.586585879325866699e-01 5.052575111389160156e+00 1.743370056152343750e+00 -2.035700559616088867e+00
3.633000000000000000e+03 9.716192245483398438e+00 5.029461860656738281e+00 -2.286112159490585327e-01 8.302269935607910156e+00 2.422097682952880859e+00 -1.584549069404602051e+00
3.634000000000000000e+03 8.912223815917968750e+00 -4.178771972656250000e+00 4.012796580791473389e-01 7.871690750122070312e+00 2.481891155242919922e+00 4.155148506164550781e+00
3.635000000000000000e+03 1.043279743194580078e+01 5.856457233428955078e+00 -4.868318438529968262e-01 8.731784820556640625e+00 2.473485946655273438e+00 -8.411971330642700195e-01
3.636000000000000000e+03 8.118407249450683594e+00 -7.799065113067626953e+00 -1.587581276893615723e+00 7.047504425048828125e+00 1.637977004051208496e+00 2.373457431793212891e+00
3.637000000000000000e+03 6.686380386352539062e+00 5.898108959197998047e+00 5.932467579841613770e-01 3.458118200302124023e+00 1.215409517288208008e+00 -1.235250353813171387e+00
3.638000000000000000e+03 6.448187828063964844e+00 -6.507591724395751953e+00 -3.344223797321319580e-01 4.778658390045166016e+00 1.333270788192749023e+00 2.270225286483764648e+00
3.639000000000000000e+03 6.979599475860595703e+00 -6.887271404266357422e+00 -6.693442463874816895e-01 5.547327518463134766e+00 1.463394999504089355e+00 2.448992252349853516e+00
3.640000000000000000e+03 6.594529151916503906e+00 -5.457344055175781250e+00 2.473774254322052002e-01 4.474669933319091797e+00 1.416614294052124023e+00 2.704522132873535156e+00
3.641000000000000000e+03 1.021918773651123047e+01 -5.022315025329589844e+00 -8.513315916061401367e-01 9.333572387695312500e+00 2.544672250747680664e+00 3.058328390121459961e+00
3.642000000000000000e+03 1.102067089080810547e+01 4.886518001556396484e+00 -5.537979602813720703e-01 1.013844680786132812e+01 2.875394582748413086e+00 -5.166561603546142578e-01
3.643000000000000000e+03 1.171297454833984375e+01 4.528680801391601562e+00 -4.529416859149932861e-01 1.088328361511230469e+01 3.129102706909179688e+00 1.700617223978042603e-01
3.644000000000000000e+03 1.025197505950927734e+01 5.341169357299804688e+00 -4.470514953136444092e-01 8.903807640075683594e+00 2.537026882171630859e+00 -1.130419015884399414e+00
3.645000000000000000e+03 8.497254371643066406e+00 6.431436061859130859e+00 4.652741178870201111e-02 6.016251564025878906e+00 1.818833708763122559e+00 -1.353465676307678223e+00
3.646000000000000000e+03 1.508328342437744141e+01 1.704246282577514648e+00 3.493218183517456055e+00 7.782809734344482422e+00 3.382808208465576172e+00 1.210458874702453613e+00
3.647000000000000000e+03 7.117305755615234375e+00 -4.576689720153808594e+00 7.841216325759887695e-01 4.583255767822265625e+00 1.610213279724121094e+00 3.244288206100463867e+00
3.648000000000000000e+03 1.175613498687744141e+01 -6.608998298645019531e+00 -1.679070711135864258e+00 8.498838424682617188e+00 2.045930147171020508e+00 2.100939035415649414e+00
3.649000000000000000e+03 1.120384979248046875e+01 5.308620929718017578e+00 -5.697943568229675293e-01 9.886439323425292969e+00 2.794993400573730469e+00 -3.267180025577545166e-01
3.650000000000000000e+03 1.073977184295654297e+01 6.325692653656005859e+00 -5.702622532844543457e-01 8.773385047912597656e+00 2.460936784744262695e+00 -5.823698043823242188e-01
3.651000000000000000e+03 1.355660629272460938e+01 4.090313434600830078e+00 6.206679344177246094e-01 1.036108779907226562e+01 3.294526576995849609e+00 1.543983697891235352e+00
3.652000000000000000e+03 1.415873718261718750e+01 3.196211814880371094e+00 1.623580098152160645e+00 9.723358154296875000e+00 3.404081583023071289e+00 1.805958390235900879e+00
3.653000000000000000e+03 1.118486785888671875e+01 -6.625366210937500000e+00 -1.814755558967590332e+00 8.689538002014160156e+00 2.062434673309326172e+00 2.390017747879028320e+00
3.654000000000000000e+03 1.210644245147705078e+01 -3.959826707839965820e+00 3.924285471439361572e-01 1.035549926757812500e+01 3.224378347396850586e+00 7.812828421592712402e-01
3.655000000000000000e+03 1.173188209533691406e+01 5.477440834045410156e+00 -5.785495042800903320e-01 1.006464767456054688e+01 2.845829486846923828e+00 6.447655707597732544e-02
3.656000000000000000e+03 1.262433528900146484e+01 -4.319400787353515625e+00 3.835642635822296143e-01 9.456140518188476562e+00 2.951911449432373047e+00 5.245642662048339844e-01
3.657000000000000000e+03 1.283122253417968750e+01 -3.870736598968505859e+00 9.759852290153503418e-01 9.535008430480957031e+00 3.153298139572143555e+00 8.389044553041458130e-02
3.658000000000000000e+03 1.255656814575195312e+01 4.714163303375244141e+00 -2.281431555747985840e-01 1.066314506530761719e+01 3.130500555038452148e+00 8.254905343055725098e-01
3.659000000000000000e+03 1.204222774505615234e+01 5.310145854949951172e+00 -5.314199328422546387e-01 1.025008964538574219e+01 2.915601015090942383e+00 3.026551008224487305e-01
3.660000000000000000e+03 1.291532039642333984e+01 -6.075800895690917969e+00 -9.561096429824829102e-01 7.926692485809326172e+00 2.091174840927124023e+00 1.272721052169799805e+00
3.661000000000000000e+03 9.934925079345703125e+00 -6.872056007385253906e+00 -1.785700559616088867e+00 8.360771179199218750e+00 1.972521185874938965e+00 2.774745702743530273e+00
3.662000000000000000e+03 1.321930122375488281e+01 -4.487156867980957031e+00 5.935274958610534668e-01 8.604724884033203125e+00 2.759475708007812500e+00 2.016890197992324829e-01
3.663000000000000000e+03 1.486312580108642578e+01 -4.856046676635742188e+00 1.087763071060180664e+00 6.246383190155029297e+00 2.200243949890136719e+00 -3.698127865791320801e-01
3.664000000000000000e+03 1.284166336059570312e+01 -3.498187780380249023e+00 1.478090167045593262e+00 9.810392379760742188e+00 3.386544704437255859e+00 -1.833103895187377930e-01
3.665000000000000000e+03 8.315848350524902344e+00 7.566928386688232422e+00 -2.612021006643772125e-02 5.723042964935302734e+00 1.709076881408691406e+00 -1.044832944869995117e+00
3.666000000000000000e+03 7.876769542694091797e+00 7.335477828979492188e+00 1.051881015300750732e-01 5.162584781646728516e+00 1.580331802368164062e+00 -1.161454796791076660e+00
3.667000000000000000e+03 1.043150234222412109e+01 6.792414665222167969e+00 -4.805841743946075439e-01 8.188046455383300781e+00 2.312238693237304688e+00 -6.666875481605529785e-01
3.668000000000000000e+03 9.815240859985351562e+00 5.511022090911865234e+00 -2.974486649036407471e-01 8.195569038391113281e+00 2.369436025619506836e+00 -1.334459304809570312e+00
3.669000000000000000e+03 1.513718223571777344e+01 -1.156651735305786133e+00 4.538831710815429688e+00 6.588917732238769531e+00 3.338324785232543945e+00 -5.908200740814208984e-01
3.670000000000000000e+03 1.443375110626220703e+01 -3.696528434753417969e+00 2.012179613113403320e+00 7.232786178588867188e+00 2.773489713668823242e+00 -7.355780601501464844e-01
3.671000000000000000e+03 1.344905471801757812e+01 -3.257866382598876953e+00 2.151471614837646484e+00 8.948668479919433594e+00 3.330041885375976562e+00 -6.462495923042297363e-01
3.672000000000000000e+03 1.480525302886962891e+01 -2.272275686264038086e+00 3.654398441314697266e+00 6.880730152130126953e+00 3.160538434982299805e+00 -9.782904982566833496e-01
3.673000000000000000e+03 1.506553363800048828e+01 -2.855474233627319336e+00 3.126103401184082031e+00 6.464742660522460938e+00 2.877253770828247070e+00 -1.019186377525329590e+00
3.674000000000000000e+03 1.455243396759033203e+01 -2.999544620513916016e+00 2.817036867141723633e+00 7.176136016845703125e+00 2.997951984405517578e+00 -8.878812789916992188e-01
3.675000000000000000e+03 9.812055587768554688e+00 7.437935829162597656e+00 -3.414916396141052246e-01 7.356775760650634766e+00 2.104585170745849609e+00 -7.706479430198669434e-01
3.676000000000000000e+03 9.153726577758789062e+00 -8.763776779174804688e+00 -2.278549432754516602e+00 7.896504402160644531e+00 1.685386538505554199e+00 2.133486270904541016e+00
3.677000000000000000e+03 1.556414985656738281e+01 -2.656183004379272461e+00 3.290816068649291992e+00 5.964969635009765625e+00 2.776735782623291016e+00 -1.097430109977722168e+00
3.678000000000000000e+03 1.571272277832031250e+01 -1.956661939620971680e+00 3.656492948532104492e+00 5.822592735290527344e+00 2.843725681304931641e+00 -9.867100119590759277e-01
3.679000000000000000e+03 1.594531154632568359e+01 -3.255352258682250977e+00 2.757381916046142578e+00 5.347356319427490234e+00 2.431421518325805664e+00 -1.101961016654968262e+00
3.680000000000000000e+03 7.198287487030029297e+00 -6.123207569122314453e+00 -3.548579812049865723e-01 5.540680885314941406e+00 1.555746912956237793e+00 2.820116758346557617e+00
3.681000000000000000e+03 9.887389183044433594e+00 -5.120167255401611328e+00 -8.275265693664550781e-01 9.018708229064941406e+00 2.457354545593261719e+00 3.238765478134155273e+00
3.682000000000000000e+03 9.346647262573242188e+00 5.628263950347900391e+00 -1.550686359405517578e-01 7.377824783325195312e+00 2.166826963424682617e+00 -1.486989021301269531e+00
3.683000000000000000e+03 7.028290271759033203e+00 -5.555073261260986328e+00 4.970371350646018982e-02 5.063322544097900391e+00 1.533907771110534668e+00 2.899646520614624023e+00
3.684000000000000000e+03 6.805492401123046875e+00 -6.356078147888183594e+00 -3.780625164508819580e-01 5.217178344726562500e+00 1.451734662055969238e+00 2.548355340957641602e+00
3.685000000000000000e+03 8.272836685180664062e+00 -4.632421970367431641e+00 2.990065515041351318e-01 6.633934974670410156e+00 2.079882383346557617e+00 3.839476346969604492e+00
3.686000000000000000e+03 8.408925056457519531e+00 -4.291099071502685547e+00 5.988640189170837402e-01 6.847009658813476562e+00 2.233762025833129883e+00 4.045544147491455078e+00
3.687000000000000000e+03 6.905756950378417969e+00 4.883293151855468750e+00 8.695939183235168457e-01 3.387092590332031250e+00 1.277005910873413086e+00 -1.460804581642150879e+00
3.688000000000000000e+03 1.014593696594238281e+01 -5.375332832336425781e+00 -1.029550313949584961e+00 9.014886856079101562e+00 2.395601034164428711e+00 2.987440347671508789e+00
3.689000000000000000e+03 9.982213020324707031e+00 6.600779533386230469e+00 -4.045195877552032471e-01 7.865888118743896484e+00 2.238410711288452148e+00 -9.219780564308166504e-01
3.690000000000000000e+03 1.083971309661865234e+01 5.563662052154541016e+00 -5.765525102615356445e-01 9.415055274963378906e+00 2.651550769805908203e+00 -6.048233509063720703e-01
3.691000000000000000e+03 8.770658493041992188e+00 5.187183380126953125e+00 1.724577248096466064e-01 6.564774513244628906e+00 2.021169662475585938e+00 -1.830266475677490234e+00
3.692000000000000000e+03 8.713884353637695312e+00 -7.581339836120605469e+00 -1.730047464370727539e+00 7.508729457855224609e+00 1.733604550361633301e+00 2.587932586669921875e+00
3.693000000000000000e+03 1.078543663024902344e+01 -5.695562839508056641e+00 -1.282902121543884277e+00 9.166772842407226562e+00 2.365161418914794922e+00 2.598001241683959961e+00
3.694000000000000000e+03 1.059400749206542969e+01 -5.186968326568603516e+00 -9.612821340560913086e-01 9.518848419189453125e+00 2.567270040512084961e+00 2.733627557754516602e+00
3.695000000000000000e+03 7.955483913421630859e+00 -6.647008419036865234e+00 -9.749596714973449707e-01 6.646430492401123047e+00 1.701441168785095215e+00 2.858178138732910156e+00
3.696000000000000000e+03 1.429970932006835938e+01 -2.413303136825561523e+00 3.531071901321411133e+00 7.640081405639648438e+00 3.351346015930175781e+00 -9.406102895736694336e-01
3.697000000000000000e+03 9.955808639526367188e+00 6.051275730133056641e+00 -3.978151082992553711e-01 8.074357032775878906e+00 2.302962779998779297e+00 -1.095448732376098633e+00
3.698000000000000000e+03 1.109980773925781250e+01 -5.704210281372070312e+00 -1.256674051284790039e+00 9.199154853820800781e+00 2.382744073867797852e+00 2.345627307891845703e+00
3.699000000000000000e+03 1.201863765716552734e+01 -5.793464183807373047e+00 -1.144063353538513184e+00 8.787411689758300781e+00 2.293004512786865234e+00 1.748615503311157227e+00
3.700000000000000000e+03 1.178679656982421875e+01 -4.611956119537353516e+00 -3.339910209178924561e-01 9.973751068115234375e+00 2.891927957534790039e+00 1.460474133491516113e+00
3.701000000000000000e+03 1.236253356933593750e+01 -5.556960582733154297e+00 -7.744019031524658203e-01 8.708139419555664062e+00 2.380121469497680664e+00 1.360844731330871582e+00
3.702000000000000000e+03 1.117375755310058594e+01 -6.122942447662353516e+00 -1.514829754829406738e+00 8.915429115295410156e+00 2.220179796218872070e+00 2.358503580093383789e+00
3.703000000000000000e+03 9.743418693542480469e+00 -7.482739448547363281e+00 -2.068295478820800781e+00 8.191640853881835938e+00 1.837003469467163086e+00 2.634542942047119141e+00
3.704000000000000000e+03 1.309125900268554688e+01 -5.677118301391601562e+00 -5.268530845642089844e-01 7.977485179901123047e+00 2.235189676284790039e+00 9.974519014358520508e-01
3.705000000000000000e+03 1.222400093078613281e+01 -4.442858695983886719e+00 -1.173564512282609940e-02 9.812729835510253906e+00 2.940298080444335938e+00 9.632446169853210449e-01
3.706000000000000000e+03 1.433595848083496094e+01 -5.301975727081298828e+00 4.031056761741638184e-01 6.776015281677246094e+00 2.153736352920532227e+00 4.957785829901695251e-02
3.707000000000000000e+03 1.294236373901367188e+01 -4.182083129882812500e+00 7.025457024574279785e-01 9.207710266113281250e+00 2.973076820373535156e+00 2.101146727800369263e-01
3.708000000000000000e+03 8.934062957763671875e+00 7.201779365539550781e+00 -1.385412663221359253e-01 6.461774826049804688e+00 1.896970152854919434e+00 -1.089435935020446777e+00
3.709000000000000000e+03 1.467780780792236328e+01 2.134838581085205078e+00 3.011323690414428711e+00 8.605763435363769531e+00 3.485126018524169922e+00 1.608412265777587891e+00
3.710000000000000000e+03 8.477942466735839844e+00 7.013917922973632812e+00 -2.553599886596202850e-02 5.918819904327392578e+00 1.767985224723815918e+00 -1.204826712608337402e+00
3.711000000000000000e+03 1.528125476837158203e+01 -4.240253925323486328e+00 1.787261724472045898e+00 5.926411628723144531e+00 2.314101934432983398e+00 -7.732019424438476562e-01
3.712000000000000000e+03 9.853709220886230469e+00 7.055020809173583984e+00 -3.879611194133758545e-01 7.502579212188720703e+00 2.134385585784912109e+00 -8.707744479179382324e-01
3.713000000000000000e+03 8.975500106811523438e+00 -8.199468612670898438e+00 -2.040718555450439453e+00 7.758671760559082031e+00 1.715386033058166504e+00 2.344370841979980469e+00
3.714000000000000000e+03 9.246786117553710938e+00 8.501609802246093750e+00 -2.221423089504241943e-01 6.456127643585205078e+00 1.870195627212524414e+00 -7.766789793968200684e-01
3.715000000000000000e+03 1.512582969665527344e+01 -1.615284681320190430e+00 4.175702095031738281e+00 6.554121017456054688e+00 3.218946933746337891e+00 -7.726084589958190918e-01
3.716000000000000000e+03 1.533111095428466797e+01 -3.517871618270874023e+00 2.433424234390258789e+00 6.010431289672851562e+00 2.533156633377075195e+00 -9.460865855216979980e-01
3.717000000000000000e+03 1.479322338104248047e+01 -3.539049863815307617e+00 2.259031772613525391e+00 6.759863376617431641e+00 2.705668449401855469e+00 -8.165422677993774414e-01
3.718000000000000000e+03 1.343435668945312500e+01 -5.335975646972656250e+00 -7.520058006048202515e-02 7.879638671875000000e+00 2.341331481933593750e+00 5.116510391235351562e-01
3.719000000000000000e+03 7.337389469146728516e+00 6.450560569763183594e+00 3.424084782600402832e-01 4.460819721221923828e+00 1.440968513488769531e+00 -1.299262523651123047e+00
3.720000000000000000e+03 8.026093482971191406e+00 6.467811584472656250e+00 1.663927435874938965e-01 5.312355995178222656e+00 1.643624663352966309e+00 -1.371633291244506836e+00
3.721000000000000000e+03 9.577149391174316406e+00 -4.808696746826171875e+00 -4.859408140182495117e-01 8.843950271606445312e+00 2.507402658462524414e+00 3.532511234283447266e+00
3.722000000000000000e+03 8.937846183776855469e+00 -5.155170917510986328e+00 -4.241243302822113037e-01 7.777144432067871094e+00 2.205905914306640625e+00 3.600593328475952148e+00
3.723000000000000000e+03 7.556451797485351562e+00 -6.541841030120849609e+00 -7.286311388015747070e-01 6.123631477355957031e+00 1.618500113487243652e+00 2.744729280471801758e+00
3.724000000000000000e+03 9.671018600463867188e+00 -5.464432716369628906e+00 -9.493079185485839844e-01 8.658447265625000000e+00 2.312741994857788086e+00 3.276973485946655273e+00
3.725000000000000000e+03 9.380050659179687500e+00 -6.635260105133056641e+00 -1.566941142082214355e+00 8.079024314880371094e+00 1.953624963760375977e+00 2.943372011184692383e+00
3.726000000000000000e+03 1.413467025756835938e+01 -3.253299951553344727e+00 2.452002048492431641e+00 7.827870845794677734e+00 3.083961725234985352e+00 -7.899253964424133301e-01
3.727000000000000000e+03 1.378889560699462891e+01 -4.220819473266601562e+00 1.192931771278381348e+00 8.066457748413085938e+00 2.777816772460937500e+00 -2.923016250133514404e-01
3.728000000000000000e+03 1.072863292694091797e+01 -6.083353042602539062e+00 -1.520364999771118164e+00 8.921892166137695312e+00 2.220458269119262695e+00 2.633595228195190430e+00
3.729000000000000000e+03 7.813923358917236328e+00 -6.273525238037109375e+00 -6.623735427856445312e-01 6.326396465301513672e+00 1.699206948280334473e+00 3.003164529800415039e+00
3.730000000000000000e+03 8.454773902893066406e+00 -6.168203830718994141e+00 -9.156324267387390137e-01 7.089995861053466797e+00 1.852308988571166992e+00 3.116027832031250000e+00
3.731000000000000000e+03 7.037744522094726562e+00 -5.030942916870117188e+00 4.637458026409149170e-01 4.767381668090820312e+00 1.569338202476501465e+00 3.071624517440795898e+00
3.732000000000000000e+03 1.141141319274902344e+01 5.689925670623779297e+00 -6.222201585769653320e-01 9.770605087280273438e+00 2.744515419006347656e+00 -1.589905470609664917e-01
3.733000000000000000e+03 9.540493011474609375e+00 6.603263378143310547e+00 -3.094384074211120605e-01 7.333557605743408203e+00 2.107235670089721680e+00 -1.138175368309020996e+00
3.734000000000000000e+03 7.802391529083251953e+00 5.489634990692138672e+00 4.601052105426788330e-01 4.904290199279785156e+00 1.609318614006042480e+00 -1.616310596466064453e+00
3.735000000000000000e+03 8.040019035339355469e+00 6.904907226562500000e+00 1.075379177927970886e-01 5.412593364715576172e+00 1.656039357185363770e+00 -1.243400931358337402e+00
3.736000000000000000e+03 8.425797462463378906e+00 -7.080812454223632812e+00 -1.397269368171691895e+00 7.213312149047851562e+00 1.744812846183776855e+00 2.717898607254028320e+00
3.737000000000000000e+03 1.113858413696289062e+01 -5.154363155364990234e+00 -9.090405106544494629e-01 9.634700775146484375e+00 2.617697954177856445e+00 2.259228229522705078e+00
3.738000000000000000e+03 8.392323493957519531e+00 5.871387958526611328e+00 1.736904233694076538e-01 5.899510383605957031e+00 1.821960210800170898e+00 -1.581547737121582031e+00
3.739000000000000000e+03 9.176151275634765625e+00 6.771281242370605469e+00 -1.843709200620651245e-01 6.806278705596923828e+00 1.986572384834289551e+00 -1.152992606163024902e+00
3.740000000000000000e+03 1.141638755798339844e+01 -5.554584026336669922e+00 -1.144720554351806641e+00 9.312844276428222656e+00 2.450437307357788086e+00 2.092757225036621094e+00
3.741000000000000000e+03 1.209073162078857422e+01 -5.104714393615722656e+00 -5.897607207298278809e-01 9.229615211486816406e+00 2.591956377029418945e+00 1.396508932113647461e+00
3.742000000000000000e+03 1.174040699005126953e+01 -5.331833839416503906e+00 -8.932762145996093750e-01 9.320291519165039062e+00 2.528104543685913086e+00 1.766829490661621094e+00
3.743000000000000000e+03 1.064110374450683594e+01 -6.544821262359619141e+00 -1.740717768669128418e+00 8.679586410522460938e+00 2.081660747528076172e+00 2.614713907241821289e+00
3.744000000000000000e+03 9.454461097717285156e+00 6.150844573974609375e+00 -2.259391695261001587e-01 7.378098964691162109e+00 2.145648002624511719e+00 -1.263319969177246094e+00
3.745000000000000000e+03 1.285237598419189453e+01 -4.704190731048583984e+00 7.347791641950607300e-02 8.913418769836425781e+00 2.696069002151489258e+00 6.268088817596435547e-01
3.746000000000000000e+03 1.247097492218017578e+01 -4.905191421508789062e+00 -2.648545503616333008e-01 9.184295654296875000e+00 2.675832509994506836e+00 9.745717644691467285e-01
3.747000000000000000e+03 1.398202419281005859e+01 -4.725083827972412109e+00 7.771147489547729492e-01 7.523140907287597656e+00 2.490076780319213867e+00 -8.185074478387832642e-02
3.748000000000000000e+03 1.475751113891601562e+01 -4.009220600128173828e+00 1.830389499664306641e+00 6.747475147247314453e+00 2.573359251022338867e+00 -6.861270666122436523e-01
3.749000000000000000e+03 6.563525390625000000e+01 -3.427136611938476562e+01 -1.854951679706573486e-01 3.810964107513427734e+00 1.087640643119812012e+00 7.642530798912048340e-01
3.750000000000000000e+03 9.214800834655761719e+00 -5.660882472991943359e+00 -8.976305723190307617e-01 8.079964637756347656e+00 2.154700279235839844e+00 3.328316450119018555e+00
3.751000000000000000e+03 7.709045886993408203e+00 -5.150524139404296875e+00 1.301521807909011841e-01 5.886104106903076172e+00 1.804876804351806641e+00 3.401814937591552734e+00
3.752000000000000000e+03 7.388877391815185547e+00 -5.092569351196289062e+00 2.835823595523834229e-01 5.321334838867187500e+00 1.681475162506103516e+00 3.248243808746337891e+00
3.753000000000000000e+03 8.160532951354980469e+00 -5.011967182159423828e+00 1.800666935741901398e-02 6.560347080230712891e+00 1.973506093025207520e+00 3.593032836914062500e+00
3.754000000000000000e+03 7.229174137115478516e+00 5.196732044219970703e+00 7.250505089759826660e-01 3.953891992568969727e+00 1.403682708740234375e+00 -1.554551839828491211e+00
3.755000000000000000e+03 1.275095462799072266e+01 -5.344448566436767578e+00 -4.723974168300628662e-01 8.593086242675781250e+00 2.436206817626953125e+00 1.021953105926513672e+00
3.756000000000000000e+03 7.400010585784912109e+00 -5.510070800781250000e+00 -5.962090939283370972e-02 5.588995456695556641e+00 1.658812284469604492e+00 3.105829238891601562e+00
3.757000000000000000e+03 8.513515472412109375e+00 -5.646423339843750000e+00 -5.545014142990112305e-01 7.140481948852539062e+00 1.975794076919555664e+00 3.390955924987792969e+00
3.758000000000000000e+03 8.725752830505371094e+00 -6.814143180847167969e+00 -1.374623894691467285e+00 7.433238506317138672e+00 1.817584276199340820e+00 2.885160207748413086e+00
3.759000000000000000e+03 8.141633033752441406e+00 4.897959709167480469e+00 5.409599542617797852e-01 5.356557369232177734e+00 1.769255161285400391e+00 -1.914295315742492676e+00
3.760000000000000000e+03 1.032866191864013672e+01 -5.932046413421630859e+00 -1.375433564186096191e+00 8.855890274047851562e+00 2.244137048721313477e+00 2.812800884246826172e+00
3.761000000000000000e+03 8.978251457214355469e+00 6.316273212432861328e+00 -1.036984100937843323e-01 6.658933162689208984e+00 1.966570377349853516e+00 -1.337728500366210938e+00
3.762000000000000000e+03 7.690703392028808594e+00 6.691885471343994141e+00 2.433263510465621948e-01 4.863893985748291016e+00 1.532166123390197754e+00 -1.288904070854187012e+00
3.763000000000000000e+03 7.901515007019042969e+00 5.985350131988525391e+00 3.372900784015655518e-01 5.138247489929199219e+00 1.642661213874816895e+00 -1.490975737571716309e+00
3.764000000000000000e+03 1.013749885559082031e+01 -6.356482505798339844e+00 -1.607366204261779785e+00 8.600508689880371094e+00 2.097942590713500977e+00 2.856040239334106445e+00
3.765000000000000000e+03 1.343659877777099609e+01 -4.185524463653564453e+00 1.027041077613830566e+00 8.537615776062011719e+00 2.869397163391113281e+00 -1.400159150362014771e-01
3.766000000000000000e+03 7.346512794494628906e+00 5.597167491912841797e+00 5.806948542594909668e-01 4.282199859619140625e+00 1.458868384361267090e+00 -1.498013019561767578e+00
3.767000000000000000e+03 8.896040916442871094e+00 -5.633998870849609375e+00 -7.689856290817260742e-01 7.654589176177978516e+00 2.065680980682373047e+00 3.356956720352172852e+00
3.768000000000000000e+03 8.135176658630371094e+00 -5.643910408020019531e+00 -4.056616127490997314e-01 6.641914844512939453e+00 1.870875954627990723e+00 3.348693609237670898e+00
3.769000000000000000e+03 7.981428146362304688e+00 -5.313728809356689453e+00 -1.165897622704505920e-01 6.342726230621337891e+00 1.867840886116027832e+00 3.439278125762939453e+00
3.770000000000000000e+03 8.072160720825195312e+00 -6.015817165374755859e+00 -6.051571369171142578e-01 6.625320911407470703e+00 1.806049108505249023e+00 3.163976907730102539e+00
3.771000000000000000e+03 7.660594463348388672e+00 5.023583412170410156e+00 6.943074464797973633e-01 4.501910209655761719e+00 1.558865427970886230e+00 -1.728394031524658203e+00
3.772000000000000000e+03 7.546888828277587891e+00 -5.924780845642089844e+00 -3.338100910186767578e-01 5.943304061889648438e+00 1.682848215103149414e+00 3.065228462219238281e+00
3.773000000000000000e+03 9.784653663635253906e+00 -6.062918186187744141e+00 -1.378005862236022949e+00 8.502012252807617188e+00 2.137201786041259766e+00 2.994531154632568359e+00
3.774000000000000000e+03 8.350832939147949219e+00 -6.639090061187744141e+00 -1.113633036613464355e+00 7.017878055572509766e+00 1.771273493766784668e+00 2.879975557327270508e+00
3.775000000000000000e+03 6.223069381713867188e+01 2.714148139953613281e+01 -1.706480234861373901e-01 1.327164053916931152e+00 3.469547927379608154e-01 -4.132423400878906250e-01
3.776000000000000000e+03 8.026218414306640625e+00 -4.119205474853515625e+01 -1.828878670930862427e-01 4.907452583312988281e+00 1.417369484901428223e+00 3.328353166580200195e-02
3.777000000000000000e+03 9.458408355712890625e+00 -6.171819686889648438e+00 -1.314559698104858398e+00 8.164915084838867188e+00 2.055106639862060547e+00 3.052482843399047852e+00
3.778000000000000000e+03 1.447986125946044922e+01 -3.169624900817871094e+01 -9.497011899948120117e-01 3.167365074157714844e+00 6.652991771697998047e-01 -5.377625226974487305e-01
3.779000000000000000e+03 5.722115707397460938e+01 -4.103056716918945312e+01 7.176059484481811523e-01 1.901867151260375977e+00 7.858419418334960938e-01 -1.309258639812469482e-01
3.780000000000000000e+03 6.202555084228515625e+01 -4.109038162231445312e+01 7.392874360084533691e-01 2.439524888992309570e+00 9.536436796188354492e-01 9.512034058570861816e-02
3.781000000000000000e+03 4.815574645996093750e+01 2.871012878417968750e+01 -1.004452824592590332e+00 4.258659362792968750e+00 9.762619733810424805e-01 5.375794172286987305e-01
3.782000000000000000e+03 7.068974304199218750e+01 -3.695742797851562500e+01 -1.337643563747406006e-01 6.102767467498779297e+00 1.790700912475585938e+00 2.104747891426086426e-01
3.783000000000000000e+03 7.172223663330078125e+01 -3.226265716552734375e+01 -6.157144904136657715e-01 6.931056499481201172e+00 1.894602656364440918e+00 2.996590360999107361e-02
3.784000000000000000e+03 3.462476730346679688e+01 2.964740562438964844e+01 -1.674000173807144165e-01 2.166355371475219727e+00 5.996865630149841309e-01 -6.809055805206298828e-01
3.785000000000000000e+03 3.008487510681152344e+01 3.440494918823242188e+01 1.748768240213394165e-01 2.094042062759399414e+00 6.806756854057312012e-01 -4.644560813903808594e-02
3.786000000000000000e+03 1.287711906433105469e+01 3.548549270629882812e+01 -5.291926264762878418e-01 4.464852333068847656e+00 1.180697917938232422e+00 -7.852073758840560913e-02
3.787000000000000000e+03 1.229409980773925781e+01 3.310937118530273438e+01 -6.263855099678039551e-01 4.692477703094482422e+00 1.219827651977539062e+00 -1.641056537628173828e-01
3.788000000000000000e+03 5.073176193237304688e+01 3.410205459594726562e+01 -3.201834261417388916e-01 3.293697357177734375e+00 8.920542001724243164e-01 6.408788561820983887e-01
3.789000000000000000e+03 5.239102172851562500e+01 3.194326400756835938e+01 -3.699917197227478027e-01 3.230001211166381836e+00 8.580029010772705078e-01 9.446991682052612305e-01
3.790000000000000000e+03 6.200119400024414062e+01 2.909516525268554688e+01 1.510715037584304810e-01 1.987017631530761719e+00 6.414267420768737793e-01 -2.153633981943130493e-01
3.791000000000000000e+03 8.527203559875488281e+00 -3.857455062866210938e+01 -2.907648980617523193e-01 4.787668228149414062e+00 1.349070906639099121e+00 7.850052416324615479e-02
3.792000000000000000e+03 3.630987167358398438e+01 2.413467597961425781e+01 -5.731523036956787109e-01 2.264084339141845703e+00 5.072795748710632324e-01 -1.077074050903320312e+00
3.793000000000000000e+03 9.093965530395507812e+00 3.833840179443359375e+01 -3.150390386581420898e-01 4.511887073516845703e+00 1.259054422378540039e+00 -1.731733977794647217e-01
3.794000000000000000e+03 6.122917556762695312e+01 3.796294403076171875e+01 6.380445361137390137e-01 3.297128438949584961e+00 1.180551886558532715e+00 1.488013006746768951e-02
3.795000000000000000e+03 6.219660186767578125e+01 3.408356094360351562e+01 5.275066494941711426e-01 3.042529582977294922e+00 1.071010947227478027e+00 -8.154834806919097900e-02
3.796000000000000000e+03 4.990658569335937500e+01 -3.577651977539062500e+01 -5.154924392700195312e-01 3.657138347625732422e+00 9.424937367439270020e-01 -1.425297021865844727e+00
3.797000000000000000e+03 4.975086212158203125e+01 -3.376634216308593750e+01 -5.813058018684387207e-01 3.889149188995361328e+00 9.923529624938964844e-01 -1.716436743736267090e+00
3.798000000000000000e+03 2.705964660644531250e+01 2.972078895568847656e+01 1.395503878593444824e-01 1.579552292823791504e+00 5.157307982444763184e-01 3.848125040531158447e-01
3.799000000000000000e+03 7.536653137207031250e+01 -3.821512222290039062e+01 -1.106541305780410767e-01 7.509575843811035156e+00 2.219676494598388672e+00 -5.802051723003387451e-02
3.800000000000000000e+03 6.921421813964843750e+01 -3.186750221252441406e+01 -7.287617325782775879e-01 6.023892879486083984e+00 1.588539361953735352e+00 4.083685576915740967e-01
3.801000000000000000e+03 3.851673126220703125e+01 -3.797609329223632812e+01 -1.530570864677429199e+00 5.269201278686523438e+00 1.121589183807373047e+00 3.077976703643798828e-01
3.802000000000000000e+03 3.977486801147460938e+01 -3.529550552368164062e+01 -1.461976528167724609e+00 6.068277359008789062e+00 1.381890296936035156e+00 1.953760683536529541e-01
3.803000000000000000e+03 6.746270751953125000e+01 -3.305267333984375000e+01 -5.057932734489440918e-01 4.890265941619873047e+00 1.315341711044311523e+00 6.328836679458618164e-01
3.804000000000000000e+03 2.730084228515625000e+01 3.308945465087890625e+01 1.887439787387847900e-01 2.058375835418701172e+00 6.741359233856201172e-01 2.460540831089019775e-01
3.805000000000000000e+03 2.388436126708984375e+01 2.916852378845214844e+01 -1.166826486587524414e-01 2.262293338775634766e+00 6.436832547187805176e-01 9.844232797622680664e-01
3.806000000000000000e+03 2.006073188781738281e+01 3.421446990966796875e+01 -3.338223099708557129e-01 3.486664533615112305e+00 9.458526968955993652e-01 5.472380518913269043e-01
3.807000000000000000e+03 5.846325683593750000e+01 3.374859619140625000e+01 3.888443112373352051e-01 2.597900390625000000e+00 8.960233926773071289e-01 4.399008452892303467e-01
3.808000000000000000e+03 3.716255569458007812e+01 3.014114189147949219e+01 -3.428511917591094971e-01 2.653179883956909180e+00 6.930986046791076660e-01 -7.209482192993164062e-01
3.809000000000000000e+03 4.032366561889648438e+01 3.399270629882812500e+01 -3.704661428928375244e-01 3.065133571624755859e+00 8.084002137184143066e-01 -3.379582166671752930e-01
3.810000000000000000e+03 2.216594696044921875e+01 -3.791375732421875000e+01 2.062488943338394165e-01 5.400698781013488770e-01 2.238956242799758911e-01 -1.284391060471534729e-02
3.811000000000000000e+03 2.541539382934570312e+01 -3.704869461059570312e+01 4.903190582990646362e-02 5.211570262908935547e-01 1.710566878318786621e-01 2.813310027122497559e-01
3.812000000000000000e+03 8.143295288085937500e+00 4.113615036010742188e+01 -2.292134016752243042e-01 4.508992671966552734e+00 1.283933758735656738e+00 -4.994284361600875854e-02
3.813000000000000000e+03 6.722867584228515625e+01 4.092120742797851562e+01 5.222996473312377930e-01 4.741442203521728516e+00 1.579122662544250488e+00 -7.073000073432922363e-02
3.814000000000000000e+03 4.698467254638671875e+01 -3.868033218383789062e+01 -1.015106320381164551e+00 4.655330657958984375e+00 1.092067360877990723e+00 -6.455855965614318848e-01
3.815000000000000000e+03 1.709906387329101562e+01 3.803932952880859375e+01 -3.569448292255401611e-01 3.864931821823120117e+00 1.052396059036254883e+00 1.491733044385910034e-01
3.816000000000000000e+03 2.153029060363769531e+01 3.727531814575195312e+01 -1.158281043171882629e-01 3.155845642089843750e+00 9.120052456855773926e-01 3.073058128356933594e-01
3.817000000000000000e+03 3.761618804931640625e+01 -4.094034194946289062e+01 -1.476597428321838379e+00 4.855012893676757812e+00 1.013524651527404785e+00 1.538057625293731689e-01
3.818000000000000000e+03 4.253935623168945312e+01 -4.120966339111328125e+01 -1.598620891571044922e+00 5.430338382720947266e+00 1.149515271186828613e+00 -1.005527004599571228e-01
3.819000000000000000e+03 6.700654602050781250e+01 -3.660493469238281250e+01 5.835588090121746063e-04 4.288838386535644531e+00 1.286826610565185547e+00 4.442298114299774170e-01
3.820000000000000000e+03 5.719306564331054688e+01 3.840473556518554688e+01 4.920525550842285156e-01 2.920228242874145508e+00 1.023684263229370117e+00 2.614316046237945557e-01
3.821000000000000000e+03 6.427195739746093750e+01 3.621940231323242188e+01 5.473374128341674805e-01 3.837140321731567383e+00 1.315343379974365234e+00 -1.783431172370910645e-01
3.822000000000000000e+03 4.884581375122070312e+01 3.710597991943359375e+01 -2.109082192182540894e-01 3.176759481430053711e+00 8.897553682327270508e-01 2.793115675449371338e-01
3.823000000000000000e+03 3.695740890502929688e+01 3.495953750610351562e+01 -1.115150526165962219e-01 2.588728189468383789e+00 7.431639432907104492e-01 -3.685456514358520508e-01
3.824000000000000000e+03 2.508707237243652344e+01 3.546737289428710938e+01 7.551616430282592773e-02 2.545885086059570312e+00 7.864203453063964844e-01 3.070593178272247314e-01
3.825000000000000000e+03 2.856759834289550781e+01 3.730535507202148438e+01 1.867616772651672363e-01 2.360050439834594727e+00 7.640436291694641113e-01 7.000543922185897827e-02
3.826000000000000000e+03 2.791547012329101562e+01 -3.844562149047851562e+01 -1.664099097251892090e-02 1.176774382591247559e+00 3.480400145053863525e-01 4.831318259239196777e-01
3.827000000000000000e+03 1.802666091918945312e+01 -3.801137542724609375e+01 1.290830317884683609e-02 1.588272690773010254e+00 4.803542792797088623e-01 -3.276961743831634521e-01
3.828000000000000000e+03 1.503397369384765625e+01 -3.668891906738281250e+01 -2.735229730606079102e-01 2.507529497146606445e+00 6.702019572257995605e-01 -3.487410843372344971e-01
3.829000000000000000e+03 2.888644218444824219e+01 3.097844886779785156e+01 1.728103160858154297e-01 1.678606867790222168e+00 5.554251670837402344e-01 3.902835771441459656e-02
3.830000000000000000e+03 2.300870895385742188e+01 3.286725997924804688e+01 -9.823093563318252563e-02 2.817223310470581055e+00 8.156977295875549316e-01 6.351179480552673340e-01
3.831000000000000000e+03 3.345243072509765625e+01 3.504173660278320312e+01 9.112896770238876343e-02 2.282932758331298828e+00 7.122185230255126953e-01 -2.513762116432189941e-01
3.832000000000000000e+03 5.401136016845703125e+01 3.517491149902343750e+01 1.218646988272666931e-01 2.877514123916625977e+00 8.998136520385742188e-01 6.194279193878173828e-01
3.833000000000000000e+03 2.158547210693359375e+01 3.031649208068847656e+01 -3.547470867633819580e-01 3.142807483673095703e+00 8.364181518554687500e-01 9.871057271957397461e-01
3.834000000000000000e+03 3.898459625244140625e+01 3.162810516357421875e+01 -4.279342591762542725e-01 2.994132041931152344e+00 7.698593735694885254e-01 -5.688405036926269531e-01
3.835000000000000000e+03 6.239472961425781250e+01 3.085128974914550781e+01 3.682945668697357178e-01 2.478501796722412109e+00 8.540389537811279297e-01 -2.213983982801437378e-01
3.836000000000000000e+03 5.993244552612304688e+01 3.550421142578125000e+01 5.707461237907409668e-01 2.891141653060913086e+00 1.038566350936889648e+00 1.346620917320251465e-01
3.837000000000000000e+03 4.543577194213867188e+01 3.496139526367187500e+01 -4.519824981689453125e-01 3.388494968414306641e+00 8.809537291526794434e-01 1.179137602448463440e-01
3.838000000000000000e+03 2.256811904907226562e+01 -4.099709701538085938e+01 3.857766389846801758e-01 6.918883323669433594e-01 3.232994973659515381e-01 9.520282037556171417e-03
3.839000000000000000e+03 4.795594406127929688e+01 3.233503723144531250e+01 -6.421871185302734375e-01 3.646468400955200195e+00 9.012843966484069824e-01 4.280357062816619873e-01
3.840000000000000000e+03 5.719815444946289062e+01 3.575667190551757812e+01 4.319420158863067627e-01 2.808905124664306641e+00 9.722541570663452148e-01 4.445305764675140381e-01
3.841000000000000000e+03 4.108480453491210938e+01 2.974543380737304688e+01 -6.529764533042907715e-01 3.504696846008300781e+00 8.555161356925964355e-01 -5.379775762557983398e-01
3.842000000000000000e+03 3.732199096679687500e+01 3.783644104003906250e+01 -4.437991604208946228e-02 2.622276782989501953e+00 7.733690142631530762e-01 -2.058941870927810669e-01
3.843000000000000000e+03 3.666913986206054688e+01 3.242560577392578125e+01 -1.755307465791702271e-01 2.542976856231689453e+00 7.102338671684265137e-01 -5.094757080078125000e-01
3.844000000000000000e+03 2.066645026206970215e-01 1.705542922019958496e+00 -5.089896544814109802e-02 -3.034324347972869873e-01 -1.062994226813316345e-01 3.100583888590335846e-02
3.845000000000000000e+03 6.710799932479858398e-01 2.004355430603027344e+00 -4.905451834201812744e-02 -3.110183477401733398e-01 -1.080218628048896790e-01 2.225291728973388672e-01
3.846000000000000000e+03 5.547922253608703613e-01 -1.882569432258605957e+00 3.445931524038314819e-02 -2.131308913230895996e-01 -5.360147356986999512e-02 -1.171754375100135803e-01
3.847000000000000000e+03 2.484367370605468750e+00 -1.687600493431091309e+00 6.620426476001739502e-02 6.885734200477600098e-02 4.051848128437995911e-02 -1.541420966386795044e-01
3.848000000000000000e+03 3.107576370239257812e+00 -1.686110496520996094e+00 1.594695150852203369e-01 1.352211534976959229e-01 8.840719610452651978e-02 -7.474908977746963501e-02
3.849000000000000000e+03 3.501657962799072266e+00 -1.657084345817565918e+00 2.515334486961364746e-01 1.474713236093521118e-01 1.197014302015304565e-01 -1.320525351911783218e-02
3.850000000000000000e+03 3.897590160369873047e+00 -1.647503376007080078e+00 2.801897525787353516e-01 1.918183863162994385e-01 1.416024416685104370e-01 7.537803798913955688e-02
3.851000000000000000e+03 4.284738063812255859e+00 -1.677327871322631836e+00 4.283403158187866211e-01 2.489348798990249634e-01 2.031825482845306396e-01 2.015828788280487061e-01
3.852000000000000000e+03 4.919253826141357422e+00 -1.668001294136047363e+00 7.317088246345520020e-01 3.210537433624267578e-01 3.158287703990936279e-01 4.268509447574615479e-01
3.853000000000000000e+03 5.711646080017089844e+00 -1.613262772560119629e+00 1.141413450241088867e+00 4.532349407672882080e-01 4.783945083618164062e-01 7.846350073814392090e-01
3.854000000000000000e+03 5.888391017913818359e+00 -1.611848235130310059e+00 1.306228756904602051e+00 5.064206123352050781e-01 5.437948107719421387e-01 8.999332785606384277e-01
3.855000000000000000e+03 6.076958656311035156e+00 -1.650229573249816895e+00 1.478143811225891113e+00 5.920064449310302734e-01 6.210450530052185059e-01 1.078837752342224121e+00
3.856000000000000000e+03 6.683666706085205078e+00 -2.124233007431030273e+00 2.273170471191406250e+00 1.360071301460266113e+00 1.089972496032714844e+00 2.090786457061767578e+00
3.857000000000000000e+03 7.013518810272216797e+00 -1.815108895301818848e+00 2.582661390304565430e+00 1.268307447433471680e+00 1.155290603637695312e+00 2.175260305404663086e+00
3.858000000000000000e+03 7.712181568145751953e+00 -1.617513537406921387e+00 3.547744989395141602e+00 1.889830946922302246e+00 1.631272792816162109e+00 3.053315877914428711e+00
3.859000000000000000e+03 8.078194618225097656e+00 -1.621173858642578125e+00 4.043374061584472656e+00 2.714102029800415039e+00 2.027242898941040039e+00 3.893544673919677734e+00
3.860000000000000000e+03 8.272520065307617188e+00 -1.663847088813781738e+00 4.271814346313476562e+00 3.418276548385620117e+00 2.307027339935302734e+00 4.458043098449707031e+00
3.861000000000000000e+03 8.913427352905273438e+00 -2.118276596069335938e+00 3.360194921493530273e+00 7.442095279693603516e+00 3.240687131881713867e+00 5.806741237640380859e+00
3.862000000000000000e+03 9.725908279418945312e+00 -1.650810718536376953e+00 3.327973127365112305e+00 1.342362689971923828e+01 5.025479793548583984e+00 6.515405178070068359e+00
3.863000000000000000e+03 9.596169471740722656e+00 -2.002255201339721680e+00 2.692148447036743164e+00 1.178564548492431641e+01 4.343338012695312500e+00 6.006352424621582031e+00
3.864000000000000000e+03 9.929261207580566406e+00 -1.642294526100158691e+00 2.888976573944091797e+00 1.522876167297363281e+01 5.435321331024169922e+00 5.632522106170654297e+00
3.865000000000000000e+03 1.034954261779785156e+01 -1.628591299057006836e+00 2.655179500579833984e+00 1.734386062622070312e+01 5.999711990356445312e+00 3.418077468872070312e+00
3.866000000000000000e+03 1.093944740295410156e+01 -1.828092575073242188e+00 2.878344297409057617e+00 1.602901840209960938e+01 5.672208786010742188e+00 8.333485722541809082e-01
3.867000000000000000e+03 1.075926971435546875e+01 -1.504213690757751465e+00 3.586316823959350586e+00 1.766048622131347656e+01 6.374041080474853516e+00 9.939335584640502930e-01
3.868000000000000000e+03 1.188715267181396484e+01 -5.946617722511291504e-01 9.067499160766601562e+00 1.294755458831787109e+01 6.604516029357910156e+00 -3.879070580005645752e-01
3.869000000000000000e+03 1.158164787292480469e+01 -5.175625681877136230e-01 1.002941894531250000e+01 1.404577255249023438e+01 7.222557544708251953e+00 -5.702707171440124512e-01
3.870000000000000000e+03 1.165189170837402344e+01 -3.091653585433959961e-01 1.039958190917968750e+01 1.359539413452148438e+01 7.198493003845214844e+00 2.708617746829986572e-01
3.871000000000000000e+03 1.204060935974121094e+01 5.202917456626892090e-01 8.058538436889648438e+00 1.258395290374755859e+01 6.192747592926025391e+00 2.708348274230957031e+00
3.872000000000000000e+03 1.157410717010498047e+01 1.127554178237915039e+00 5.304638385772705078e+00 1.520242595672607422e+01 6.152119159698486328e+00 3.379060029983520508e+00
3.873000000000000000e+03 1.142128753662109375e+01 1.257294058799743652e+00 4.371938228607177734e+00 1.605635261535644531e+01 6.128487110137939453e+00 3.172655820846557617e+00
3.874000000000000000e+03 1.130626010894775391e+01 1.435869812965393066e+00 3.378335237503051758e+00 1.629717445373535156e+01 5.902652740478515625e+00 2.673509120941162109e+00
3.875000000000000000e+03 1.117477798461914062e+01 1.630509376525878906e+00 2.228699445724487305e+00 1.646092796325683594e+01 5.606887817382812500e+00 1.923597097396850586e+00
3.876000000000000000e+03 1.092037677764892578e+01 2.166506528854370117e+00 6.474632620811462402e-01 1.515770149230957031e+01 4.741549491882324219e+00 1.891345828771591187e-01
3.877000000000000000e+03 9.695025444030761719e+00 1.670293211936950684e+00 1.276818752288818359e+00 1.204596805572509766e+01 3.996835947036743164e+00 -4.724405288696289062e+00
3.878000000000000000e+03 1.011038875579833984e+01 2.086199998855590820e+00 3.722812533378601074e-01 1.360949802398681641e+01 4.194533824920654297e+00 -2.862566709518432617e+00
3.879000000000000000e+03 9.693022727966308594e+00 1.978790163993835449e+00 9.370232820510864258e-01 1.147499275207519531e+01 3.723604679107666016e+00 -4.230019569396972656e+00
3.880000000000000000e+03 9.246918678283691406e+00 2.132236003875732422e+00 1.508398771286010742e+00 8.334506034851074219e+00 2.952871561050415039e+00 -4.205801963806152344e+00
3.881000000000000000e+03 9.016517639160156250e+00 1.824057459831237793e+00 2.263410568237304688e+00 6.396640777587890625e+00 2.598015308380126953e+00 -4.367589950561523438e+00
3.882000000000000000e+03 8.864797592163085938e+00 1.788275241851806641e+00 2.299409151077270508e+00 5.574042797088623047e+00 2.362035512924194336e+00 -4.092658996582031250e+00
3.883000000000000000e+03 8.889577865600585938e+00 1.599946618080139160e+00 2.456642150878906250e+00 5.233049869537353516e+00 2.306907653808593750e+00 -4.165578365325927734e+00
3.884000000000000000e+03 8.508062362670898438e+00 1.619947671890258789e+00 2.394531726837158203e+00 3.213617563247680664e+00 1.682444810867309570e+00 -3.171869277954101562e+00
3.885000000000000000e+03 8.351583480834960938e+00 1.922545671463012695e+00 2.157507658004760742e+00 3.418724775314331055e+00 1.672869801521301270e+00 -2.992078781127929688e+00
3.886000000000000000e+03 6.119071960449218750e+00 2.011694192886352539e+00 5.116674900054931641e-01 4.603279232978820801e-01 2.915986180305480957e-01 -1.592663079500198364e-01
3.887000000000000000e+03 6.107953071594238281e+00 1.663838386535644531e+00 1.153747439384460449e-01 2.824594378471374512e-01 1.193502545356750488e-01 2.430215477943420410e-02
3.888000000000000000e+03 5.716541767120361328e+00 1.948022961616516113e+00 2.308119535446166992e-01 2.871353924274444580e-01 1.553841978311538696e-01 6.998584419488906860e-02
3.889000000000000000e+03 5.706235885620117188e+00 1.652818918228149414e+00 -4.429677128791809082e-02 1.990419328212738037e-01 4.642355069518089294e-02 1.789329349994659424e-01
3.890000000000000000e+03 5.324813365936279297e+00 1.980828523635864258e+00 1.488460451364517212e-01 2.472987323999404907e-01 1.188434287905693054e-01 1.936520487070083618e-01
3.891000000000000000e+03 5.306105136871337891e+00 1.661338090896606445e+00 -1.612331718206405640e-01 1.448007971048355103e-01 -4.929712042212486267e-03 2.892050445079803467e-01
3.892000000000000000e+03 4.893844127655029297e+00 2.032727003097534180e+00 8.248067647218704224e-02 1.777052134275436401e-01 7.805576920509338379e-02 3.043386936187744141e-01
3.893000000000000000e+03 4.443606853485107422e+00 2.042353868484497070e+00 1.900574308820068836e-03 1.088004484772682190e-01 3.321030735969543457e-02 4.025735855102539062e-01
3.894000000000000000e+03 4.232712745666503906e+00 1.981125950813293457e+00 -7.088004797697067261e-02 7.013510167598724365e-02 -2.234845160273835063e-04 4.422211945056915283e-01
3.895000000000000000e+03 3.684756278991699219e+00 1.627398252487182617e+00 -3.135943412780761719e-01 -9.338803589344024658e-03 -9.687993675470352173e-02 5.086758136749267578e-01
3.896000000000000000e+03 2.774099826812744141e+00 1.852074027061462402e+00 -1.630147397518157959e-01 -8.719924092292785645e-02 -7.506419718265533447e-02 5.112828016281127930e-01
3.897000000000000000e+03 1.310197234153747559e+00 1.612573862075805664e+00 -1.004240736365318298e-01 -2.009229511022567749e-01 -9.040410816669464111e-02 3.253706097602844238e-01
3.898000000000000000e+03 1.111628293991088867e+00 1.608947038650512695e+00 -8.436956256628036499e-02 -2.094498127698898315e-01 -8.814581483602523804e-02 2.894318401813507080e-01
3.899000000000000000e+03 9.188718199729919434e-01 1.598557233810424805e+00 -7.048261165618896484e-02 -2.243643552064895630e-01 -8.845409005880355835e-02 2.486800700426101685e-01
3.900000000000000000e+03 4.363903403282165527e-01 1.958192944526672363e+00 -5.491581931710243225e-02 -4.247451424598693848e-01 -1.438982933759689331e-01 1.366451382637023926e-01
3.901000000000000000e+03 3.879762887954711914e-01 3.806961059570312500e+00 2.197149954736232758e-02 -9.402675628662109375e-01 -2.754888236522674561e-01 1.093173250555992126e-01
3.902000000000000000e+03 4.616737067699432373e-01 2.368416070938110352e+00 5.393386352807283401e-03 -4.089573025703430176e-01 -1.210691779851913452e-01 2.026792019605636597e-01
3.903000000000000000e+03 7.303362274169921875e+01 -3.806959533691406250e+01 -6.658958643674850464e-02 6.809088230133056641e+00 2.022749662399291992e+00 1.015498414635658264e-01
3.904000000000000000e+03 3.253189325332641602e+00 -2.209567070007324219e+00 3.924274444580078125e-01 2.681814432144165039e-01 1.981826573610305786e-01 6.151715666055679321e-02
3.905000000000000000e+03 3.054937601089477539e+00 -2.494286537170410156e+00 3.856858611106872559e-01 3.006507158279418945e-01 2.059009820222854614e-01 1.178385093808174133e-01
3.906000000000000000e+03 1.739422082901000977e+00 -1.888829469680786133e+00 3.936615586280822754e-02 -2.400253713130950928e-02 4.609086085110902786e-03 -1.909952908754348755e-01
3.907000000000000000e+03 4.290156364440917969e+00 -2.490285396575927734e+00 7.790371179580688477e-01 5.610060095787048340e-01 4.020129442214965820e-01 5.110429525375366211e-01
3.908000000000000000e+03 4.528902530670166016e+00 -2.245728731155395508e+00 8.301248550415039062e-01 4.925683140754699707e-01 3.968079686164855957e-01 5.454568862915039062e-01
3.909000000000000000e+03 3.388302326202392578e+00 -2.604603767395019531e+00 5.160481333732604980e-01 3.992025852203369141e-01 2.745752036571502686e-01 2.242939919233322144e-01
3.910000000000000000e+03 1.354178190231323242e+00 -2.284929513931274414e+00 4.300219565629959106e-02 -1.196093559265136719e-01 -2.298214845359325409e-02 -1.745880991220474243e-01
3.911000000000000000e+03 1.416922450065612793e+00 -1.867117643356323242e+00 2.864191308617591858e-02 -1.008895337581634521e-01 -2.167428471148014069e-02 -2.075606584548950195e-01
3.912000000000000000e+03 7.621181964874267578e+00 2.417967557907104492e+00 1.653717517852783203e+00 2.338497638702392578e+00 1.197664499282836914e+00 -1.947707414627075195e+00
3.913000000000000000e+03 7.391902446746826172e+00 2.404012918472290039e+00 1.483163952827453613e+00 1.908466100692749023e+00 1.017488956451416016e+00 -1.580847144126892090e+00
3.914000000000000000e+03 8.439746856689453125e+00 2.159794092178344727e+00 1.951642513275146484e+00 4.180496692657470703e+00 1.839641809463500977e+00 -3.168635845184326172e+00
3.915000000000000000e+03 8.236401557922363281e+00 2.281149625778198242e+00 1.839109420776367188e+00 3.632559061050415039e+00 1.641500473022460938e+00 -2.828242778778076172e+00
3.916000000000000000e+03 8.799429893493652344e+00 1.956002831459045410e+00 2.125049114227294922e+00 5.478087902069091797e+00 2.280941247940063477e+00 -3.865613222122192383e+00
3.917000000000000000e+03 9.154001235961914062e+00 1.910808444023132324e+00 1.891027688980102539e+00 7.591659069061279297e+00 2.844805955886840820e+00 -4.384950637817382812e+00
3.918000000000000000e+03 8.990595817565917969e+00 2.273348808288574219e+00 1.634385585784912109e+00 6.757722377777099609e+00 2.517632246017456055e+00 -3.854541063308715820e+00
3.919000000000000000e+03 6.960498809814453125e+00 1.745177626609802246e+00 7.757380008697509766e-01 6.734001040458679199e-01 4.347414374351501465e-01 -6.197511553764343262e-01
3.920000000000000000e+03 9.546354293823242188e+00 2.304947853088378906e+00 9.019145369529724121e-01 1.005893516540527344e+01 3.288254976272583008e+00 -3.778705120086669922e+00
3.921000000000000000e+03 9.326387405395507812e+00 2.415700435638427734e+00 1.094808697700500488e+00 8.771179199218750000e+00 2.959796428680419922e+00 -3.832159996032714844e+00
3.922000000000000000e+03 9.761523246765136719e+00 2.223479747772216797e+00 6.926532387733459473e-01 1.148579883575439453e+01 3.653535604476928711e+00 -3.610179424285888672e+00
3.923000000000000000e+03 1.064225578308105469e+01 2.096579790115356445e+00 3.949189782142639160e-01 1.515652084350585938e+01 4.665431976318359375e+00 -7.869157791137695312e-01
3.924000000000000000e+03 6.186982154846191406e+00 2.380427837371826172e+00 8.160645961761474609e-01 7.385522723197937012e-01 4.663850665092468262e-01 -3.884214162826538086e-01
3.925000000000000000e+03 5.112590789794921875e+00 1.998899817466735840e+00 1.137527674436569214e-01 2.137083411216735840e-01 9.823832660913467407e-02 2.657068073749542236e-01
3.926000000000000000e+03 5.346125602722167969e+00 2.299785137176513672e+00 4.239753484725952148e-01 3.762892484664916992e-01 2.400793731212615967e-01 7.019416242837905884e-02
3.927000000000000000e+03 4.693432807922363281e+00 2.463918447494506836e+00 3.070084154605865479e-01 2.497739344835281372e-01 1.670347154140472412e-01 2.600630521774291992e-01
3.928000000000000000e+03 4.440351486206054688e+00 2.583059787750244141e+00 2.941323518753051758e-01 2.372451424598693848e-01 1.594132483005523682e-01 2.963708639144897461e-01
3.929000000000000000e+03 3.054331779479980469e+00 2.464106082916259766e+00 4.325926303863525391e-02 -6.183481961488723755e-02 -5.572666879743337631e-03 5.031828284263610840e-01
3.930000000000000000e+03 1.568811655044555664e+00 2.073123455047607422e+00 -5.302688479423522949e-02 -2.435531020164489746e-01 -8.897399902343750000e-02 4.158105850219726562e-01
3.931000000000000000e+03 1.352638125419616699e+00 2.102262020111083984e+00 -4.310224205255508423e-02 -2.836256623268127441e-01 -9.801837056875228882e-02 3.721686303615570068e-01
3.932000000000000000e+03 1.536453485488891602e+00 1.832075834274291992e+00 -9.460812062025070190e-02 -2.081748843193054199e-01 -9.083490073680877686e-02 3.931774795055389404e-01
3.933000000000000000e+03 7.831257343292236328e+00 -2.054659605026245117e+00 3.380975961685180664e+00 2.938453435897827148e+00 1.895828843116760254e+00 3.794553279876708984e+00
3.934000000000000000e+03 8.016098022460937500e+00 -1.984979748725891113e+00 3.598153352737426758e+00 3.371026754379272461e+00 2.090754032135009766e+00 4.117614746093750000e+00
3.935000000000000000e+03 7.650564670562744141e+00 -2.171972513198852539e+00 3.126385211944580078e+00 2.811734676361083984e+00 1.781435966491699219e+00 3.574356079101562500e+00
3.936000000000000000e+03 8.444438934326171875e+00 -2.036074638366699219e+00 3.766848564147949219e+00 4.898646831512451172e+00 2.599648714065551758e+00 5.040841102600097656e+00
3.937000000000000000e+03 8.150906562805175781e+00 -2.327778339385986328e+00 3.203073263168334961e+00 4.462552070617675781e+00 2.299687623977661133e+00 4.551400184631347656e+00
3.938000000000000000e+03 8.625515937805175781e+00 -2.414936780929565430e+00 3.011253118515014648e+00 6.367808818817138672e+00 2.813718795776367188e+00 5.300325870513916016e+00
3.939000000000000000e+03 8.863168716430664062e+00 -2.494147062301635742e+00 2.667491912841796875e+00 7.538341045379638672e+00 3.061749935150146484e+00 5.465223312377929688e+00
3.940000000000000000e+03 9.262392044067382812e+00 -2.487589836120605469e+00 2.244175434112548828e+00 9.398988723754882812e+00 3.492949247360229492e+00 5.532614231109619141e+00
3.941000000000000000e+03 9.375909805297851562e+00 -2.048689842224121094e+00 2.982028722763061523e+00 1.022101211547851562e+01 3.960912466049194336e+00 6.096386909484863281e+00
3.942000000000000000e+03 9.942984580993652344e+00 -2.139631748199462891e+00 1.914544105529785156e+00 1.343556499481201172e+01 4.605032920837402344e+00 4.958590984344482422e+00
3.943000000000000000e+03 1.118431472778320312e+01 -1.731477499008178711e+00 3.638993740081787109e+00 1.569171714782714844e+01 5.799213409423828125e+00 -2.810064144432544708e-02
3.944000000000000000e+03 1.110693550109863281e+01 -2.120135545730590820e+00 2.399829864501953125e+00 1.493982696533203125e+01 5.201897144317626953e+00 8.007631301879882812e-01
3.945000000000000000e+03 1.160900974273681641e+01 -1.972928404808044434e+00 3.486350774765014648e+00 1.397327041625976562e+01 5.237886428833007812e+00 -4.410488605499267578e-01
3.946000000000000000e+03 1.144895267486572266e+01 -1.686740398406982422e+00 4.200178146362304688e+00 1.485114192962646484e+01 5.715395927429199219e+00 -5.411650538444519043e-01
3.947000000000000000e+03 1.194588947296142578e+01 -9.826769232749938965e-01 7.624665260314941406e+00 1.297382354736328125e+01 6.179546833038330078e+00 -1.050297498703002930e+00
3.948000000000000000e+03 1.230627346038818359e+01 -5.425212979316711426e-01 8.082944869995117188e+00 1.142599773406982422e+01 5.852682590484619141e+00 -1.125997379422187805e-01
3.949000000000000000e+03 1.237829589843750000e+01 -3.420687317848205566e-01 8.236122131347656250e+00 1.120715522766113281e+01 5.832983493804931641e+00 2.543465495109558105e-01
3.950000000000000000e+03 1.213969516754150391e+01 -2.272239327430725098e-01 9.032032966613769531e+00 1.191564273834228516e+01 6.284302711486816406e+00 6.567249298095703125e-01
3.951000000000000000e+03 1.247433376312255859e+01 5.696665048599243164e-01 7.193311691284179688e+00 1.138473796844482422e+01 5.573414802551269531e+00 2.289371967315673828e+00
3.952000000000000000e+03 1.190450191497802734e+01 1.457305192947387695e+00 4.188761234283447266e+00 1.397221374511718750e+01 5.448292255401611328e+00 2.989660978317260742e+00
3.953000000000000000e+03 1.133789062500000000e+01 2.071478605270385742e+00 1.413022279739379883e+00 1.488648605346679688e+01 4.889852523803710938e+00 1.410585165023803711e+00
3.954000000000000000e+03 5.618897438049316406e+00 -1.952628254890441895e+00 1.267045140266418457e+00 6.308386325836181641e-01 5.693651437759399414e-01 9.463698267936706543e-01
3.955000000000000000e+03 5.594084262847900391e+00 -2.394540309906005859e+00 1.479942560195922852e+00 9.971336126327514648e-01 7.431228160858154297e-01 1.295383691787719727e+00
3.956000000000000000e+03 5.816070556640625000e+00 -2.217378139495849609e+00 1.558728218078613281e+00 8.977720737457275391e-01 7.369500994682312012e-01 1.319922327995300293e+00
3.957000000000000000e+03 6.238997936248779297e+00 -2.385952949523925781e+00 1.926116466522216797e+00 1.324063897132873535e+00 9.750540852546691895e-01 1.856249570846557617e+00
3.958000000000000000e+03 4.528358280658721924e-01 2.908891677856445312e+00 -8.204986341297626495e-03 -5.904639363288879395e-01 -1.796006709337234497e-01 1.561603993177413940e-01
3.959000000000000000e+03 5.076013183593750000e+01 2.163760185241699219e+01 -1.348896771669387817e-01 5.684080600738525391e+00 1.664757251739501953e+00 1.268381476402282715e+00
3.960000000000000000e+03 3.713507843017578125e+01 -2.895736694335937500e+01 4.685289412736892700e-02 7.205649375915527344e+00 2.175750732421875000e+00 8.234816789627075195e-01
3.961000000000000000e+03 1.024255633354187012e+00 2.305542945861816406e+00 -1.060648541897535324e-02 -4.121104776859283447e-01 -1.268150806427001953e-01 3.018702268600463867e-01
3.962000000000000000e+03 1.237500095367431641e+01 -1.507593244314193726e-01 8.431663513183593750e+00 1.121866226196289062e+01 5.895097732543945312e+00 8.593251705169677734e-01
3.963000000000000000e+03 7.224758148193359375e+00 -2.359785795211791992e+00 2.685834407806396484e+00 2.391187191009521484e+00 1.523106455802917480e+00 3.047869682312011719e+00
3.964000000000000000e+03 6.865617275238037109e+00 2.042118787765502930e+00 1.012490034103393555e+00 9.216849803924560547e-01 5.802524685859680176e-01 -7.785181999206542969e-01
3.965000000000000000e+03 6.651398658752441406e+00 2.153143644332885742e+00 9.501695036888122559e-01 8.709167242050170898e-01 5.463258624076843262e-01 -6.498318910598754883e-01
3.966000000000000000e+03 6.971951961517333984e+00 -2.129817485809326172e+00 2.533535718917846680e+00 1.718146443367004395e+00 1.275504589080810547e+00 2.482496500015258789e+00
3.967000000000000000e+03 1.841532349586486816e+00 2.428501844406127930e+00 -9.782770648598670959e-03 -2.553989291191101074e-01 -7.955451309680938721e-02 4.490391612052917480e-01
3.968000000000000000e+03 5.210324764251708984e+00 -2.383301019668579102e+00 1.182680964469909668e+00 7.846921682357788086e-01 5.902119874954223633e-01 9.552420377731323242e-01
3.969000000000000000e+03 9.660535812377929688e+00 -2.298841714859008789e+00 2.110961437225341797e+00 1.167806529998779297e+01 4.136708259582519531e+00 5.426044940948486328e+00
3.970000000000000000e+03 1.041479873657226562e+01 -2.805108547210693359e+00 8.248851895332336426e-01 1.271686649322509766e+01 4.062525272369384766e+00 3.138525247573852539e+00
3.971000000000000000e+03 1.076595401763916016e+01 -2.524266004562377930e+00 1.301830768585205078e+00 1.394041728973388672e+01 4.572674274444580078e+00 2.153567314147949219e+00
3.972000000000000000e+03 2.376529693603515625e+01 -1.187166404724121094e+01 -1.380750536918640137e+00 7.534487843513488770e-01 -1.881905198097229004e-01 -1.026450991630554199e+00
3.973000000000000000e+03 5.325798797607421875e+01 -1.745119333267211914e+00 1.671648144721984863e+00 3.526443839073181152e-01 6.072877645492553711e-01 -2.115391939878463745e-01
3.974000000000000000e+03 5.279767608642578125e+01 -9.505720734596252441e-01 1.897574186325073242e+00 2.976446747779846191e-01 6.585656404495239258e-01 -4.922613874077796936e-02
3.975000000000000000e+03 1.185118198394775391e+01 -1.875102758407592773e+00 4.086625099182128906e+00 1.327482891082763672e+01 5.208436012268066406e+00 -7.914824485778808594e-01
3.976000000000000000e+03 1.214900112152099609e+01 -1.583781242370605469e+00 5.091699600219726562e+00 1.230252170562744141e+01 5.218266487121582031e+00 -1.068923711776733398e+00
3.977000000000000000e+03 1.271227931976318359e+01 -9.217523336410522461e-01 6.800282955169677734e+00 1.058182525634765625e+01 5.214632511138916016e+00 -5.431236624717712402e-01
3.978000000000000000e+03 5.602639770507812500e+01 -3.342683029174804688e+01 1.416698992252349854e-01 6.240985393524169922e-01 2.297305315732955933e-01 -8.869665861129760742e-01
3.979000000000000000e+03 3.276504039764404297e+00 2.849060535430908203e+00 1.844293624162673950e-01 2.908072248101234436e-02 6.405302882194519043e-02 4.439422488212585449e-01
3.980000000000000000e+03 1.221913909912109375e+01 1.865002512931823730e+00 3.153304100036621094e+00 1.290948867797851562e+01 4.818838119506835938e+00 2.666305780410766602e+00
3.981000000000000000e+03 1.108648395538330078e+01 2.744048118591308594e+00 1.611990332603454590e-01 1.348294448852539062e+01 4.093243122100830078e+00 -2.563912235200405121e-02
3.982000000000000000e+03 1.154650688171386719e+01 2.556719064712524414e+00 8.607907295227050781e-01 1.360034751892089844e+01 4.338341236114501953e+00 1.164427280426025391e+00
3.983000000000000000e+03 6.435929298400878906e+00 -2.333109378814697266e+00 2.074398994445800781e+00 1.388281464576721191e+00 1.038804173469543457e+00 2.015091180801391602e+00
3.984000000000000000e+03 6.615126609802246094e+00 -2.365971088409423828e+00 2.123356342315673828e+00 1.559193611145019531e+00 1.104764938354492188e+00 2.157517433166503906e+00
3.985000000000000000e+03 9.614728927612304688e+00 2.556602478027343750e+00 6.319514513015747070e-01 1.006471252441406250e+01 3.208999156951904297e+00 -3.425455570220947266e+00
3.986000000000000000e+03 9.091150283813476562e+00 2.577637434005737305e+00 1.206708192825317383e+00 7.485502719879150391e+00 2.607663393020629883e+00 -3.638701915740966797e+00
3.987000000000000000e+03 1.236097049713134766e+01 2.666412889957427979e-01 8.118374824523925781e+00 1.132305908203125000e+01 5.832429885864257812e+00 1.810550570487976074e+00
3.988000000000000000e+03 1.269904041290283203e+01 -3.690944015979766846e-01 7.593558311462402344e+00 1.039023113250732422e+01 5.395136833190917969e+00 3.427153825759887695e-01
3.989000000000000000e+03 1.297006607055664062e+00 2.621053457260131836e+00 1.043850276619195938e-02 -3.830986022949218750e-01 -1.117980256676673889e-01 3.795810639858245850e-01
3.990000000000000000e+03 1.831328153610229492e+00 4.370499134063720703e+00 1.592619121074676514e-01 -3.903641104698181152e-01 -6.933065503835678101e-02 2.803101837635040283e-01
3.991000000000000000e+03 1.218053245544433594e+01 -7.129539847373962402e-01 7.864372730255126953e+00 1.168419075012207031e+01 5.864569187164306641e+00 -4.667613506317138672e-01
3.992000000000000000e+03 5.650475025177001953e+00 2.681362152099609375e+00 7.396498918533325195e-01 6.318625807762145996e-01 4.114537537097930908e-01 -2.074265033006668091e-01
3.993000000000000000e+03 5.921589374542236328e+00 2.540959358215332031e+00 7.601507306098937988e-01 6.695086956024169922e-01 4.288978278636932373e-01 -2.891671955585479736e-01
3.994000000000000000e+03 5.032292366027832031e+00 2.734723091125488281e+00 5.689563155174255371e-01 4.679198265075683594e-01 3.110628426074981689e-01 3.448199853301048279e-02
3.995000000000000000e+03 4.155710220336914062e+00 2.448773145675659180e+00 2.011279612779617310e-01 1.299986988306045532e-01 9.933800250291824341e-02 3.899272680282592773e-01
3.996000000000000000e+03 3.970921993255615234e+00 2.218768358230590820e+00 3.988773748278617859e-02 7.445660233497619629e-02 3.430330380797386169e-02 4.608686864376068115e-01
3.997000000000000000e+03 3.967111825942993164e+00 2.457094430923461914e+00 1.494803130626678467e-01 1.070514544844627380e-01 7.695952802896499634e-02 4.186964631080627441e-01
3.998000000000000000e+03 4.497953414916992188e+00 2.933340311050415039e+00 4.517423808574676514e-01 3.547478914260864258e-01 2.419470846652984619e-01 1.696203947067260742e-01
3.999000000000000000e+03 7.467665195465087891e+00 2.657884597778320312e+00 1.572833061218261719e+00 2.376806497573852539e+00 1.184891819953918457e+00 -1.863698840141296387e+00
4.000000000000000000e+03 9.601716995239257812e+00 -2.665198802947998047e+00 1.528913855552673340e+00 1.073371601104736328e+01 3.678788900375366211e+00 5.012880802154541016e+00
4.001000000000000000e+03 9.859552383422851562e+00 -2.349170923233032227e+00 1.786261439323425293e+00 1.252181529998779297e+01 4.292423248291015625e+00 4.869952201843261719e+00
4.002000000000000000e+03 9.294816017150878906e+00 -2.995459794998168945e+00 1.389733314514160156e+00 9.328240394592285156e+00 3.215392112731933594e+00 4.910676002502441406e+00
4.003000000000000000e+03 7.734627532958984375e+01 -3.791616821289062500e+01 -1.157676428556442261e-01 8.535230636596679688e+00 2.525838851928710938e+00 -6.284703314304351807e-02
4.004000000000000000e+03 4.152341079711914062e+01 -3.508222579956054688e+00 -1.577293992042541504e+00 9.646619796752929688e+00 2.420797824859619141e+00 2.407405614852905273e+00
4.005000000000000000e+03 8.377497673034667969e+00 -2.719506025314331055e+00 2.585843563079833984e+00 5.756902217864990234e+00 2.502823829650878906e+00 4.873778820037841797e+00
4.006000000000000000e+03 7.798692703247070312e+00 -2.404947042465209961e+00 3.071340322494506836e+00 3.530205488204956055e+00 1.980463743209838867e+00 4.022735118865966797e+00
4.007000000000000000e+03 9.028576850891113281e+00 3.080875158309936523e+00 8.846826553344726562e-01 7.442778110504150391e+00 2.498238086700439453e+00 -3.164980888366699219e+00
4.008000000000000000e+03 8.732496261596679688e+00 2.336062431335449219e+00 1.682705283164978027e+00 5.691973686218261719e+00 2.212403774261474609e+00 -3.549596548080444336e+00
4.009000000000000000e+03 8.645114898681640625e+00 2.076132774353027344e+00 2.065716981887817383e+00 4.968904495239257812e+00 2.110386610031127930e+00 -3.595878601074218750e+00
4.010000000000000000e+03 3.375955963134765625e+01 -1.473397922515869141e+01 3.311245679855346680e+00 3.846338033676147461e+00 2.147275209426879883e+00 -2.695082426071166992e+00
4.011000000000000000e+03 5.407238769531250000e+01 -3.686117553710937500e+01 2.713875770568847656e-01 2.008745908737182617e+00 6.840400695800781250e-01 -8.971400260925292969e-01
4.012000000000000000e+03 4.872600555419921875e+01 2.371121215820312500e+01 -9.817963838577270508e-01 5.549976825714111328e+00 1.370454072952270508e+00 6.919516921043395996e-01
4.013000000000000000e+03 6.957608699798583984e+00 -2.596400022506713867e+00 2.371777534484863281e+00 2.257889270782470703e+00 1.388900041580200195e+00 2.814784049987792969e+00
4.014000000000000000e+03 7.089305877685546875e+01 -1.046189403533935547e+01 -5.794089436531066895e-01 8.233420372009277344e+00 2.296203374862670898e+00 3.374423682689666748e-01
4.015000000000000000e+03 5.034318161010742188e+01 -6.485329151153564453e+00 -6.615479588508605957e-01 2.847603321075439453e+00 6.558166146278381348e-01 9.739651679992675781e-01
4.016000000000000000e+03 4.299937057495117188e+01 -1.625153732299804688e+01 1.911993741989135742e+00 9.337345123291015625e+00 3.374801635742187500e+00 9.768527746200561523e-01
4.017000000000000000e+03 4.294148635864257812e+01 -2.274722290039062500e+01 2.325023889541625977e+00 9.214864730834960938e+00 3.461966514587402344e+00 -5.931494235992431641e-01
4.018000000000000000e+03 3.532550430297851562e+01 -3.632405471801757812e+01 -1.218862533569335938e+00 4.596142768859863281e+00 1.013184189796447754e+00 8.713328838348388672e-01
4.019000000000000000e+03 4.954641342163085938e+01 3.025421905517578125e+01 -7.742332816123962402e-01 3.873042106628417969e+00 9.296426773071289062e-01 7.742092013359069824e-01
4.020000000000000000e+03 2.341819190979003906e+01 2.705182647705078125e+01 -1.550377756357192993e-01 2.149968862533569336e+00 5.984793305397033691e-01 1.304852366447448730e+00
4.021000000000000000e+03 1.676029014587402344e+01 2.325645446777343750e+01 -7.814420461654663086e-01 7.129925251007080078e+00 1.904545068740844727e+00 3.584325611591339111e-01
4.022000000000000000e+03 6.999516296386718750e+01 -8.220486640930175781e+00 -9.095098972320556641e-01 7.207595348358154297e+00 1.889425635337829590e+00 -2.074617743492126465e-01
4.023000000000000000e+03 1.211856174468994141e+01 2.160055398941040039e+00 2.328738451004028320e+00 1.298647499084472656e+01 4.594563961029052734e+00 2.308181762695312500e+00
4.024000000000000000e+03 1.190313243865966797e+01 2.744739055633544922e+00 9.802352190017700195e-01 1.283692932128906250e+01 4.145149230957031250e+00 1.476518630981445312e+00
4.025000000000000000e+03 4.020277500152587891e+00 -2.876387119293212891e+00 7.207393646240234375e-01 6.507259607315063477e-01 4.114395976066589355e-01 5.428711771965026855e-01
4.026000000000000000e+03 8.534755706787109375e+00 2.820011854171752930e+00 1.506083369255065918e+00 5.451764106750488281e+00 2.087354421615600586e+00 -3.197356939315795898e+00
4.027000000000000000e+03 6.169165134429931641e+00 -2.940808057785034180e+00 1.740487933158874512e+00 1.821672916412353516e+00 1.068648219108581543e+00 2.104972124099731445e+00
4.028000000000000000e+03 6.671498775482177734e+00 -2.846242666244506836e+00 2.094279766082763672e+00 2.242315053939819336e+00 1.300978422164916992e+00 2.616194486618041992e+00
4.029000000000000000e+03 6.877467155456542969e+00 -2.836021661758422852e+00 2.286267280578613281e+00 2.398541927337646484e+00 1.405442714691162109e+00 2.915969848632812500e+00
4.030000000000000000e+03 7.020782470703125000e+00 -2.348042964935302734e+00 2.510164260864257812e+00 2.056319236755371094e+00 1.369945049285888672e+00 2.728149890899658203e+00
4.031000000000000000e+03 1.251645565032958984e+01 -1.659068703651428223e+00 4.986564636230468750e+00 1.125546264648437500e+01 4.872608184814453125e+00 -1.024504065513610840e+00
4.032000000000000000e+03 8.261696815490722656e+00 2.808777570724487305e+00 1.576723098754882812e+00 4.505463123321533203e+00 1.824655771255493164e+00 -2.843568325042724609e+00
4.033000000000000000e+03 3.970796585083007812e+01 -2.138829803466796875e+01 2.313233137130737305e+00 9.420773506164550781e+00 3.520201921463012695e+00 -1.451128870248794556e-01
4.034000000000000000e+03 2.860290050506591797e+00 -3.590552806854248047e+00 4.703998267650604248e-01 5.507003068923950195e-01 3.063300251960754395e-01 3.110560476779937744e-01
4.035000000000000000e+03 1.484194278717041016e+01 1.560724258422851562e+01 1.089578986167907715e+00 9.038604736328125000e+00 3.038455247879028320e+00 2.082920968532562256e-01
4.036000000000000000e+03 5.282255649566650391e+00 -3.003822088241577148e+00 1.239429235458374023e+00 1.239152431488037109e+00 7.435745000839233398e-01 1.323680639266967773e+00
4.037000000000000000e+03 1.359761905670166016e+01 2.097989082336425781e+01 1.602588146924972534e-01 6.907990455627441406e+00 2.120474815368652344e+00 -9.961144328117370605e-01
4.038000000000000000e+03 7.272660064697265625e+01 1.936560058593750000e+01 7.874087095260620117e-01 8.630551338195800781e+00 2.825387954711914062e+00 9.490471482276916504e-01
4.039000000000000000e+03 3.933537721633911133e+00 3.535155868530273438e+01 -1.197991371154785156e-01 4.570497035980224609e+00 1.335209369659423828e+00 -2.782060801982879639e-01
4.040000000000000000e+03 7.791087627410888672e+00 -2.804058313369750977e+00 2.550613403320312500e+00 4.167970180511474609e+00 2.015574932098388672e+00 4.083439350128173828e+00
4.041000000000000000e+03 8.639024734497070312e+00 -2.907666444778442383e+00 2.088803529739379883e+00 6.835441112518310547e+00 2.677273273468017578e+00 4.979279518127441406e+00
4.042000000000000000e+03 8.935767173767089844e+00 -2.962682485580444336e+00 1.812175512313842773e+00 7.898775577545166016e+00 2.913285255432128906e+00 5.059808731079101562e+00
4.043000000000000000e+03 9.938662528991699219e+00 -2.736746311187744141e+00 1.089623212814331055e+00 1.181226825714111328e+01 3.870567321777343750e+00 4.371799468994140625e+00
4.044000000000000000e+03 1.097628402709960938e+01 -2.793016910552978516e+00 1.078458547592163086e+00 1.331125926971435547e+01 4.316915035247802734e+00 1.706613659858703613e+00
4.045000000000000000e+03 1.057522106170654297e+01 2.709606647491455078e+00 8.773220703005790710e-03 1.311957931518554688e+01 3.938505649566650391e+00 -1.087013363838195801e+00
4.046000000000000000e+03 1.058913135528564453e+01 3.125990152359008789e+00 -2.141257524490356445e-01 1.218903827667236328e+01 3.592473983764648438e+00 -1.237206220626831055e+00
4.047000000000000000e+03 9.431323051452636719e+00 2.653931379318237305e+00 7.528406381607055664e-01 9.096784591674804688e+00 2.954887390136718750e+00 -3.461216211318969727e+00
4.048000000000000000e+03 1.290910053253173828e+01 -1.708417415618896484e+00 4.811683654785156250e+00 1.017274379730224609e+01 4.495328426361083984e+00 -9.595636129379272461e-01
4.049000000000000000e+03 7.495755767822265625e+01 3.354699325561523438e+01 -1.144008934497833252e-01 7.511885643005371094e+00 2.219245433807373047e+00 -2.203450500965118408e-01
4.050000000000000000e+03 7.016612529754638672e+00 2.722406864166259766e+00 1.377453207969665527e+00 1.775860428810119629e+00 9.459940791130065918e-01 -1.330535054206848145e+00
4.051000000000000000e+03 6.755149364471435547e+00 2.652057886123657227e+00 1.259380459785461426e+00 1.396891713142395020e+00 7.968816757202148438e-01 -1.035347938537597656e+00
4.052000000000000000e+03 8.405866622924804688e+00 2.696407079696655273e+00 1.605507850646972656e+00 5.034857273101806641e+00 1.992109537124633789e+00 -3.095369338989257812e+00
4.053000000000000000e+03 8.685405731201171875e+00 2.615637779235839844e+00 1.556076288223266602e+00 5.778532028198242188e+00 2.200382471084594727e+00 -3.392777919769287109e+00
4.054000000000000000e+03 8.273443222045898438e+00 2.603097677230834961e+00 1.725139141082763672e+00 4.226183414459228516e+00 1.785396695137023926e+00 -2.889735937118530273e+00
4.055000000000000000e+03 2.531023502349853516e+00 3.321456432342529297e+00 1.741050928831100464e-01 -1.483679264783859253e-01 7.721149362623691559e-03 4.219156503677368164e-01
4.056000000000000000e+03 3.058287858963012695e+00 4.325923919677734375e+00 3.621084988117218018e-01 1.359613388776779175e-01 1.494209468364715576e-01 1.996965855360031128e-01
4.057000000000000000e+03 4.639492797851562500e+01 -7.324064254760742188e+00 -2.093240737915039062e+00 8.326562881469726562e+00 1.869996786117553711e+00 1.112130880355834961e+00
4.058000000000000000e+03 4.485076141357421875e+01 -1.069587898254394531e+01 -3.784839212894439697e-01 9.043819427490234375e+00 2.599600553512573242e+00 1.234848380088806152e+00
4.059000000000000000e+03 4.422498703002929688e+01 -1.539663314819335938e+01 1.573493361473083496e+00 1.012564754486083984e+01 3.509742259979248047e+00 1.525309205055236816e+00
4.060000000000000000e+03 3.974361419677734375e+00 -9.709441184997558594e+00 -4.999128282070159912e-01 3.473846673965454102e+00 8.921801447868347168e-01 6.375486254692077637e-01
4.061000000000000000e+03 4.130989456176757812e+01 -2.954471206665039062e+01 -2.428167611360549927e-01 7.431209087371826172e+00 2.156517744064331055e+00 -3.037935495376586914e-01
4.062000000000000000e+03 7.115451812744140625e+01 -1.343853664398193359e+01 4.546113908290863037e-01 9.115714073181152344e+00 2.871097564697265625e+00 6.136243343353271484e-01
4.063000000000000000e+03 4.178158760070800781e+00 3.668215942382812500e+01 -1.291335225105285645e-01 4.627616405487060547e+00 1.349544763565063477e+00 -2.227153927087783813e-01
4.064000000000000000e+03 7.264842224121093750e+01 2.357846450805664062e+01 -7.015122175216674805e-01 8.368679046630859375e+00 2.300149917602539062e+00 7.591782808303833008e-01
4.065000000000000000e+03 7.243415832519531250e+01 2.441801452636718750e+01 -8.775426745414733887e-01 8.283738136291503906e+00 2.221858501434326172e+00 4.463144540786743164e-01
4.066000000000000000e+03 6.494518280029296875e+01 2.650910949707031250e+01 -6.177012920379638672e-01 2.911064386367797852e+00 6.880089640617370605e-01 -1.276078462600708008e+00
4.067000000000000000e+03 3.206689834594726562e+01 2.951267433166503906e+01 -3.390528960153460503e-03 1.632974028587341309e+00 4.888750612735748291e-01 -4.821938574314117432e-01
4.068000000000000000e+03 7.347105407714843750e+01 1.855118370056152344e+01 8.394693136215209961e-01 8.589041709899902344e+00 2.828553438186645508e+00 8.120687603950500488e-01
4.069000000000000000e+03 2.171768569946289062e+01 2.672602462768554688e+01 -5.710841417312622070e-01 2.992733955383300781e+00 7.264949679374694824e-01 1.537357807159423828e+00
4.070000000000000000e+03 2.208367347717285156e+01 -4.849638938903808594e+00 2.259748935699462891e+00 1.568218946456909180e+00 1.148390412330627441e+00 -2.211870908737182617e+00
4.071000000000000000e+03 1.249734306335449219e+01 -1.979868412017822266e+00 4.195186138153076172e+00 1.138807487487792969e+01 4.674978256225585938e+00 -9.833343029022216797e-01
4.072000000000000000e+03 8.372841835021972656e+00 2.441133022308349609e+00 1.743326783180236816e+00 4.408718109130859375e+00 1.845613479614257812e+00 -3.030222177505493164e+00
4.073000000000000000e+03 8.506973266601562500e+00 2.536905765533447266e+00 1.693587660789489746e+00 4.992300510406494141e+00 2.005766391754150391e+00 -3.268936634063720703e+00
4.074000000000000000e+03 8.396636962890625000e+00 3.006510019302368164e+00 1.372477889060974121e+00 5.115139007568359375e+00 1.946285009384155273e+00 -2.908694267272949219e+00
4.075000000000000000e+03 7.162404537200927734e+00 3.089627981185913086e+00 1.406320810317993164e+00 2.419366598129272461e+00 1.147706151008605957e+00 -1.637161731719970703e+00
4.076000000000000000e+03 1.308857440948486328e+01 1.628114134073257446e-01 6.824716567993164062e+00 9.706702232360839844e+00 4.959425449371337891e+00 1.197405338287353516e+00
4.077000000000000000e+03 3.003675699234008789e+00 -4.052596092224121094e+00 4.282734990119934082e-01 7.856333851814270020e-01 3.641720712184906006e-01 4.898437261581420898e-01
4.078000000000000000e+03 6.538939476013183594e+00 -2.902814674377441406e+01 -6.646760702133178711e-01 5.926234722137451172e+00 1.578467488288879395e+00 1.049657583236694336e+00
4.079000000000000000e+03 4.996160125732421875e+01 2.758923149108886719e+01 -1.044525861740112305e+00 4.353806972503662109e+00 9.927843213081359863e-01 1.030974984169006348e+00
4.080000000000000000e+03 4.809381961822509766e+00 -9.165553092956542969e+00 -7.103015780448913574e-01 4.179532051086425781e+00 1.040769219398498535e+00 9.900639057159423828e-01
4.081000000000000000e+03 5.900115585327148438e+01 2.849525260925292969e+01 2.611504495143890381e-02 1.488825798034667969e+00 4.544822573661804199e-01 7.276352643966674805e-01
4.082000000000000000e+03 8.766231536865234375e+00 -3.132745504379272461e+00 1.714114427566528320e+00 7.408633708953857422e+00 2.736824512481689453e+00 4.816244602203369141e+00
4.083000000000000000e+03 8.900561332702636719e+00 -3.419298648834228516e+00 1.204527974128723145e+00 7.909109592437744141e+00 2.734091281890869141e+00 4.665776729583740234e+00
4.084000000000000000e+03 9.704303741455078125e+00 3.221374988555908203e+00 1.962413489818572998e-01 9.726649284362792969e+00 2.976867437362670898e+00 -2.662669181823730469e+00
4.085000000000000000e+03 5.659748458862304688e+01 2.887462615966796875e+01 -1.762235760688781738e-01 1.975034832954406738e+00 5.396433472633361816e-01 1.268567323684692383e+00
4.086000000000000000e+03 6.574046325683593750e+01 2.842692565917968750e+01 -3.448100388050079346e-01 3.786183357238769531e+00 1.032412052154541016e+00 -1.015439391136169434e+00
4.087000000000000000e+03 4.562107467651367188e+01 1.624249267578125000e+01 3.232643902301788330e-01 7.754856586456298828e+00 2.423436403274536133e+00 4.305161535739898682e-01
4.088000000000000000e+03 1.128017330169677734e+01 -2.889041328430175781e+01 -1.153664350509643555e+00 5.448865890502929688e+00 1.288560509681701660e+00 -1.271882504224777222e-01
4.089000000000000000e+03 3.795631790161132812e+01 -7.770237922668457031e+00 -8.686230182647705078e-01 3.882769823074340820e+00 9.042440652847290039e-01 8.965457677841186523e-01
4.090000000000000000e+03 5.506457805633544922e+00 -3.256217479705810547e+00 1.380308866500854492e+00 1.646190404891967773e+00 9.079498052597045898e-01 1.715250372886657715e+00
4.091000000000000000e+03 7.461014270782470703e+00 3.346933126449584961e+00 1.358379125595092773e+00 3.176648139953613281e+00 1.360508203506469727e+00 -1.970475077629089355e+00
4.092000000000000000e+03 5.137443161010742188e+01 3.033697319030761719e+01 -6.403665542602539062e-01 3.555769205093383789e+00 8.746207952499389648e-01 1.001017570495605469e+00
4.093000000000000000e+03 6.246017837524414062e+01 -8.176011085510253906e+00 5.557682737708091736e-02 1.311141371726989746e+00 4.100154638290405273e-01 -7.316376566886901855e-01
4.094000000000000000e+03 7.188026428222656250e+01 1.320116806030273438e+01 1.016030669212341309e+00 9.305729866027832031e+00 3.096528291702270508e+00 -2.356240712106227875e-02
4.095000000000000000e+03 1.222307109832763672e+01 3.000574827194213867e+00 9.418072700500488281e-01 1.225064849853515625e+01 3.957736730575561523e+00 1.594036221504211426e+00
4.096000000000000000e+03 1.165555095672607422e+01 3.330074310302734375e+00 1.399294286966323853e-01 1.228926086425781250e+01 3.728756904602050781e+00 6.304482817649841309e-01
4.097000000000000000e+03 1.230402183532714844e+01 3.522967815399169922e+00 4.448748528957366943e-01 1.168973350524902344e+01 3.640382528305053711e+00 1.294150352478027344e+00
4.098000000000000000e+03 8.263635635375976562e+00 -3.118714332580566406e+00 2.027010440826416016e+00 5.874558448791503906e+00 2.370470762252807617e+00 4.619697093963623047e+00
4.099000000000000000e+03 8.389465332031250000e+00 -3.335077762603759766e+00 1.640365839004516602e+00 6.345418453216552734e+00 2.395735263824462891e+00 4.510448455810546875e+00
4.100000000000000000e+03 3.219353675842285156e+00 4.936165809631347656e+00 4.133674204349517822e-01 3.503880500793457031e-01 2.291266471147537231e-01 4.989650845527648926e-02
4.101000000000000000e+03 3.587501764297485352e+00 4.151559352874755859e+00 4.493826925754547119e-01 3.398099243640899658e-01 2.367577850818634033e-01 1.356600821018218994e-01
4.102000000000000000e+03 7.435269927978515625e+01 3.238148117065429688e+01 -1.865463256835937500e-01 7.391106128692626953e+00 2.161367893218994141e+00 -1.830988675355911255e-01
4.103000000000000000e+03 1.104281711578369141e+01 -3.612596988677978516e+00 1.558852791786193848e-01 1.154406452178955078e+01 3.509984970092773438e+00 2.009499788284301758e+00
4.104000000000000000e+03 1.111063385009765625e+01 -3.130617856979370117e+00 7.402767539024353027e-01 1.251692104339599609e+01 3.977159261703491211e+00 1.637178063392639160e+00
4.105000000000000000e+03 5.954514026641845703e+00 -3.224398612976074219e+00 1.552291631698608398e+00 1.911676883697509766e+00 1.039190530776977539e+00 2.012243986129760742e+00
4.106000000000000000e+03 7.046862602233886719e+00 -2.981610536575317383e+00 2.118205308914184570e+00 2.938046932220458984e+00 1.516875624656677246e+00 3.111752271652221680e+00
4.107000000000000000e+03 5.295954704284667969e+00 -3.482023477554321289e+00 1.243540167808532715e+00 1.678290009498596191e+00 8.765490651130676270e-01 1.626375198364257812e+00
4.108000000000000000e+03 7.064731121063232422e+00 -3.567340612411499023e+00 1.685953617095947266e+00 3.622159719467163086e+00 1.592433929443359375e+00 3.273349523544311523e+00
4.109000000000000000e+03 1.239119720458984375e+01 -3.086188077926635742e+00 1.735948801040649414e+00 1.086476802825927734e+01 3.780215024948120117e+00 -7.045856863260269165e-02
4.110000000000000000e+03 1.235909938812255859e+01 -2.677245378494262695e+00 2.496644735336303711e+00 1.126631450653076172e+01 4.128887653350830078e+00 -4.317559003829956055e-01
4.111000000000000000e+03 1.350758266448974609e+01 -1.110652834177017212e-01 6.293974399566650391e+00 8.823137283325195312e+00 4.535133361816406250e+00 5.497168302536010742e-01
4.112000000000000000e+03 8.431203842163085938e+00 3.503928184509277344e+00 1.022352814674377441e+00 5.541312217712402344e+00 1.969099521636962891e+00 -2.630295991897583008e+00
4.113000000000000000e+03 8.068885803222656250e+00 2.805449724197387695e+00 1.585886478424072266e+00 3.908686399459838867e+00 1.648371815681457520e+00 -2.621252298355102539e+00
4.114000000000000000e+03 8.318925857543945312e+00 -2.654935073852539062e+01 -7.854180335998535156e-01 6.523139953613281250e+00 1.721316695213317871e+00 1.085369110107421875e+00
4.115000000000000000e+03 3.867936325073242188e+01 -8.503035545349121094e+00 -7.617276906967163086e-01 5.000603199005126953e+00 1.271662592887878418e+00 1.010460972785949707e+00
4.116000000000000000e+03 3.707077026367187500e+01 -3.142412757873535156e+01 -8.843689560890197754e-01 6.361375808715820312e+00 1.643102049827575684e+00 8.257841467857360840e-01
4.117000000000000000e+03 4.530327606201171875e+01 -9.580024719238281250e+00 -1.097573995590209961e+00 9.021648406982421875e+00 2.377222299575805664e+00 1.160241961479187012e+00
4.118000000000000000e+03 4.330051803588867188e+01 -1.131007766723632812e+01 -1.834429427981376648e-02 8.645484924316406250e+00 2.588142156600952148e+00 1.150807499885559082e+00
4.119000000000000000e+03 7.317230987548828125e+01 1.153945350646972656e+01 6.039502620697021484e-01 8.535764694213867188e+00 2.741914510726928711e+00 -5.182375907897949219e-01
4.120000000000000000e+03 7.388963699340820312e+00 -3.767046451568603516e+00 1.450054883956909180e+00 4.381833553314208984e+00 1.749566555023193359e+00 3.584759235382080078e+00
4.121000000000000000e+03 1.372265625000000000e+01 2.876436948776245117e+00 1.966077804565429688e+00 1.014015865325927734e+01 3.631870985031127930e+00 1.992227196693420410e+00
4.122000000000000000e+03 1.372536468505859375e+01 3.163592147827148438e+01 -7.580943703651428223e-01 4.819993972778320312e+00 1.218569993972778320e+00 -7.969412207603454590e-02
4.123000000000000000e+03 6.228565216064453125e+00 -3.529821634292602539e+00 1.547543764114379883e+00 2.508699417114257812e+00 1.216872930526733398e+00 2.461891412734985352e+00
4.124000000000000000e+03 5.056012153625488281e+00 -3.637027502059936523e+00 1.077234029769897461e+00 1.638461828231811523e+00 8.147087693214416504e-01 1.457386732101440430e+00
4.125000000000000000e+03 5.486703395843505859e+00 -3.760548591613769531e+00 1.277628660202026367e+00 1.989277839660644531e+00 9.800719618797302246e-01 1.896196365356445312e+00
4.126000000000000000e+03 3.171735763549804688e+00 3.125803947448730469e+00 2.263164669275283813e-01 9.171572513878345490e-03 7.064641267061233521e-02 4.035155773162841797e-01
4.127000000000000000e+03 2.072703933715820312e+01 -4.984892368316650391e+00 2.092011213302612305e+00 1.695348501205444336e+00 1.136207938194274902e+00 -2.034172296524047852e+00
4.128000000000000000e+03 5.679936599731445312e+01 3.020924377441406250e+01 5.222313338890671730e-04 2.216576814651489258e+00 6.651297211647033691e-01 1.000906109809875488e+00
4.129000000000000000e+03 7.573925781250000000e+01 2.329054069519042969e+01 -2.105294615030288696e-01 8.011321067810058594e+00 2.340237379074096680e+00 7.900588512420654297e-01
4.130000000000000000e+03 8.448073387145996094e+00 -3.541812181472778320e+00 1.314417362213134766e+00 6.581690788269042969e+00 2.368832588195800781e+00 4.416889667510986328e+00
4.131000000000000000e+03 8.699219703674316406e+00 -3.774949073791503906e+00 9.138293266296386719e-01 7.350111484527587891e+00 2.479182243347167969e+00 4.389329910278320312e+00
4.132000000000000000e+03 7.984552383422851562e+00 3.033931255340576172e+00 1.490393161773681641e+00 3.961122274398803711e+00 1.635454654693603516e+00 -2.499023914337158203e+00
4.133000000000000000e+03 1.000133323669433594e+01 4.520673751831054688e+00 -2.785648405551910400e-01 9.123117446899414062e+00 2.653365850448608398e+00 -1.575016498565673828e+00
4.134000000000000000e+03 5.176457881927490234e+00 4.089231967926025391e+00 8.710428476333618164e-01 1.082637310028076172e+00 5.861040353775024414e-01 -4.235657155513763428e-01
4.135000000000000000e+03 1.211468791961669922e+01 3.748304128646850586e+00 1.062922924757003784e-01 1.158221340179443359e+01 3.506551504135131836e+00 9.169996380805969238e-01
4.136000000000000000e+03 1.187476825714111328e+01 3.973776817321777344e+00 -1.723597496747970581e-01 1.150607490539550781e+01 3.400114536285400391e+00 5.715197324752807617e-01
4.137000000000000000e+03 4.249773502349853516e+00 4.300076007843017578e+00 6.150696277618408203e-01 6.854386329650878906e-01 3.901524841785430908e-01 -7.899209111928939819e-02
4.138000000000000000e+03 1.350000000000000000e+01 1.668906360864639282e-01 6.095342159271240234e+00 8.994634628295898438e+00 4.526992797851562500e+00 1.033857345581054688e+00
4.139000000000000000e+03 1.306879711151123047e+01 2.973443031311035156e+00 1.627303838729858398e+00 1.107482624053955078e+01 3.810638904571533203e+00 2.018534183502197266e+00
4.140000000000000000e+03 1.137500000000000000e+01 -3.020516395568847656e+00 1.057234048843383789e+00 1.253070068359375000e+01 4.076380729675292969e+00 1.127298831939697266e+00
4.141000000000000000e+03 1.149920845031738281e+01 -3.693507909774780273e+00 2.577205598354339600e-01 1.130108642578125000e+01 3.467642307281494141e+00 1.451495051383972168e+00
4.142000000000000000e+03 9.861261367797851562e+00 -3.936918973922729492e+00 3.891350328922271729e-02 9.931485176086425781e+00 2.991119623184204102e+00 3.703752040863037109e+00
4.143000000000000000e+03 9.655624389648437500e+00 -3.486584186553955078e+00 5.739324092864990234e-01 1.000566196441650391e+01 3.173878431320190430e+00 4.196137428283691406e+00
4.144000000000000000e+03 8.164846420288085938e+00 -3.767875194549560547e+00 1.223472356796264648e+00 6.078014373779296875e+00 2.190445899963378906e+00 4.198822021484375000e+00
4.145000000000000000e+03 8.594997406005859375e+00 -4.023858070373535156e+00 7.439057826995849609e-01 7.098528385162353516e+00 2.352730274200439453e+00 4.234391689300537109e+00
4.146000000000000000e+03 1.433190250396728516e+01 -2.765375077724456787e-01 5.362934112548828125e+00 7.660538673400878906e+00 3.907041788101196289e+00 2.006586343050003052e-01
4.147000000000000000e+03 1.130073070526123047e+01 -3.888936281204223633e+00 9.974194318056106567e-02 1.122657775878906250e+01 3.397896051406860352e+00 1.712302684783935547e+00
4.148000000000000000e+03 1.592613029479980469e+01 -7.727301597595214844e+00 -5.613653063774108887e-01 3.598511695861816406e+00 9.111439585685729980e-01 4.504545032978057861e-01
4.149000000000000000e+03 1.324796390533447266e+01 3.286164522171020508e+00 1.231785774230957031e+00 1.070051670074462891e+01 3.579690933227539062e+00 1.812630057334899902e+00
4.150000000000000000e+03 8.220562934875488281e+00 4.072025299072265625e+00 8.443335890769958496e-01 5.345622062683105469e+00 1.856986641883850098e+00 -2.313272953033447266e+00
4.151000000000000000e+03 8.245924949645996094e+00 -3.492096900939941406e+00 1.487345933914184570e+00 6.053612232208251953e+00 2.262287378311157227e+00 4.375813484191894531e+00
4.152000000000000000e+03 1.325880336761474609e+01 -2.639402866363525391e+00 3.100057840347290039e+00 9.488887786865234375e+00 3.776683568954467773e+00 -8.486914038658142090e-01
4.153000000000000000e+03 7.961001396179199219e+00 4.181936740875244141e+00 8.909747600555419922e-01 4.752164840698242188e+00 1.692941904067993164e+00 -2.146049022674560547e+00
4.154000000000000000e+03 7.640649318695068359e+00 4.158992767333984375e+00 1.040131092071533203e+00 4.096341609954833984e+00 1.540941715240478516e+00 -1.965670824050903320e+00
4.155000000000000000e+03 4.855521202087402344e+00 -7.612152099609375000e+00 -3.808651566505432129e-01 3.678912878036499023e+00 9.894143342971801758e-01 1.419690132141113281e+00
4.156000000000000000e+03 3.889972305297851562e+01 -1.130332946777343750e+01 4.436294138431549072e-01 5.946614265441894531e+00 1.917073011398315430e+00 4.782246351242065430e-01
4.157000000000000000e+03 3.935977172851562500e+01 -1.204304695129394531e+01 7.451713085174560547e-01 6.780994892120361328e+00 2.257849931716918945e+00 4.857416450977325439e-01
4.158000000000000000e+03 1.328384113311767578e+01 1.274510752409696579e-02 6.678304672241210938e+00 9.434057235717773438e+00 4.833708763122558594e+00 9.046127796173095703e-01
4.159000000000000000e+03 5.928195476531982422e+00 -8.985234260559082031e+00 -1.005141854286193848e+00 5.174681186676025391e+00 1.250861763954162598e+00 1.321417093276977539e+00
4.160000000000000000e+03 6.408668994903564453e+00 -8.819366455078125000e+00 -1.133688926696777344e+00 5.582238197326660156e+00 1.334564805030822754e+00 1.494231700897216797e+00
4.161000000000000000e+03 1.594569301605224609e+01 1.487236857414245605e+00 3.318941354751586914e+00 6.745702266693115234e+00 3.019392967224121094e+00 6.034327149391174316e-01
4.162000000000000000e+03 7.260887908935546875e+01 1.369695758819580078e+01 1.154372096061706543e+00 8.629759788513183594e+00 2.935239553451538086e+00 -2.364592403173446655e-01
4.163000000000000000e+03 7.584161281585693359e+00 -4.316751003265380859e+00 8.993856310844421387e-01 5.168124675750732422e+00 1.820253133773803711e+00 3.630743026733398438e+00
4.164000000000000000e+03 9.229412078857421875e+00 -4.460650920867919922e+00 -3.677875548601150513e-02 8.420619964599609375e+00 2.515152454376220703e+00 3.905203104019165039e+00
4.165000000000000000e+03 1.241290569305419922e+01 3.867556333541870117e+00 2.132901847362518311e-01 1.130862045288085938e+01 3.456573247909545898e+00 1.152474284172058105e+00
4.166000000000000000e+03 1.065068912506103516e+01 5.116013050079345703e+00 -5.064784884452819824e-01 9.544407844543457031e+00 2.711378812789916992e+00 -8.072643280029296875e-01
4.167000000000000000e+03 6.426904201507568359e+00 6.953317642211914062e+00 3.872970640659332275e-01 3.428260087966918945e+00 1.144667148590087891e+00 -1.035176277160644531e+00
4.168000000000000000e+03 5.102439403533935547e+00 8.976336479187011719e+00 1.927174478769302368e-01 2.558742284774780273e+00 8.254379034042358398e-01 -7.071381211280822754e-01
4.169000000000000000e+03 7.039509582519531250e+01 -1.813213467597961426e+00 -5.521466135978698730e-01 6.310341835021972656e+00 1.727458596229553223e+00 8.741919882595539093e-03
4.170000000000000000e+03 9.814147949218750000e+00 4.284684658050537109e+00 -1.461746245622634888e-01 8.918410301208496094e+00 2.631670713424682617e+00 -1.838088870048522949e+00
4.171000000000000000e+03 1.560878181457519531e+01 -1.575896978378295898e+00 4.004556179046630859e+00 5.999246597290039062e+00 3.001140832901000977e+00 -8.025982379913330078e-01
4.172000000000000000e+03 9.690979003906250000e+00 4.617673397064208984e+00 -1.373351067304611206e-01 8.460748672485351562e+00 2.497024059295654297e+00 -1.746040105819702148e+00
4.173000000000000000e+03 6.999978065490722656e+00 -8.934090614318847656e+00 -1.444348096847534180e+00 6.294718742370605469e+00 1.455111145973205566e+00 1.678788423538208008e+00
4.174000000000000000e+03 1.565071678161621094e+01 5.267949104309082031e+00 3.794958293437957764e-01 8.842177391052246094e+00 2.766502141952514648e+00 1.096977591514587402e+00
4.175000000000000000e+03 9.434083938598632812e+00 -9.156263351440429688e+00 -2.472487926483154297e+00 8.138478279113769531e+00 1.699797034263610840e+00 1.990701794624328613e+00
4.176000000000000000e+03 7.405152893066406250e+01 -1.788645863533020020e+00 -4.087609052658081055e-01 7.448231220245361328e+00 2.111840963363647461e+00 1.477500796318054199e-02
4.177000000000000000e+03 8.591708183288574219e+00 -4.754226684570312500e+00 4.039499908685684204e-02 7.207766056060791016e+00 2.174448251724243164e+00 3.802605152130126953e+00
4.178000000000000000e+03 7.812447547912597656e+00 -4.828969478607177734e+00 3.395067751407623291e-01 5.842018604278564453e+00 1.854457497596740723e+00 3.559059381484985352e+00
4.179000000000000000e+03 8.707674026489257812e+00 -4.468711853027343750e+00 2.478644847869873047e-01 7.493273735046386719e+00 2.322341442108154297e+00 3.992247819900512695e+00
4.180000000000000000e+03 6.054678440093994141e+00 -5.696612358093261719e+00 2.366630434989929199e-01 3.974710941314697266e+00 1.263412237167358398e+00 2.336936950683593750e+00
4.181000000000000000e+03 1.221060943603515625e+01 4.798407077789306641e+00 -3.809548616409301758e-01 1.065589809417724609e+01 3.082482814788818359e+00 5.470013618469238281e-01
4.182000000000000000e+03 7.166707515716552734e+00 -8.553064346313476562e+00 -1.378584861755371094e+00 6.310877799987792969e+00 1.479687929153442383e+00 1.846763014793395996e+00
4.183000000000000000e+03 1.284118556976318359e+01 4.264455795288085938e+00 1.757275909185409546e-01 1.077885913848876953e+01 3.286375999450683594e+00 1.207112908363342285e+00
4.184000000000000000e+03 1.641851615905761719e+01 -2.044035434722900391e+00 3.475818157196044922e+00 4.921540260314941406e+00 2.519207477569580078e+00 -1.077339172363281250e+00
4.185000000000000000e+03 1.234885883331298828e+01 5.188259601593017578e+00 -4.072950482368469238e-01 1.038536453247070312e+01 2.993420839309692383e+00 5.737085342407226562e-01
4.186000000000000000e+03 1.046223354339599609e+01 -5.547147750854492188e+00 -1.207812547683715820e+00 9.100432395935058594e+00 2.367786169052124023e+00 2.827384948730468750e+00
4.187000000000000000e+03 9.328427314758300781e+00 -5.239222049713134766e+00 -6.930905580520629883e-01 8.305126190185546875e+00 2.283610582351684570e+00 3.492945194244384766e+00
4.188000000000000000e+03 8.312176704406738281e+00 1.810112380981445312e+01 3.274459242820739746e-01 4.868793964385986328e+00 1.558871984481811523e+00 -1.022572875022888184e+00
4.189000000000000000e+03 5.772704124450683594e+00 8.597030639648437500e+00 2.102990448474884033e-01 3.151219606399536133e+00 1.008455634117126465e+00 -8.223323225975036621e-01
4.190000000000000000e+03 5.016466140747070312e+00 9.615327835083007812e+00 1.549778282642364502e-01 2.555794715881347656e+00 8.132317662239074707e-01 -6.934750676155090332e-01
4.191000000000000000e+03 6.734984874725341797e+00 -8.260421752929687500e+00 -1.143794894218444824e+00 5.779111862182617188e+00 1.390595078468322754e+00 1.786269545555114746e+00
4.192000000000000000e+03 7.291662693023681641e+00 -7.510935783386230469e+00 -1.137532114982604980e+00 6.216673851013183594e+00 1.523742556571960449e+00 2.277847290039062500e+00
4.193000000000000000e+03 6.686884880065917969e+00 -7.906153202056884766e+00 -1.060691595077514648e+00 5.672765731811523438e+00 1.383622288703918457e+00 1.951235532760620117e+00
4.194000000000000000e+03 5.982427597045898438e+00 -7.392056941986083984e+00 -5.684875845909118652e-01 4.681117057800292969e+00 1.233788847923278809e+00 1.854901313781738281e+00
4.195000000000000000e+03 7.136976242065429688e+00 -8.140514373779296875e+00 -1.319857597351074219e+00 6.210566043853759766e+00 1.467212557792663574e+00 1.972967267036437988e+00
4.196000000000000000e+03 5.968616485595703125e+00 -6.047482013702392578e+00 2.943798340857028961e-02 4.103687763214111328e+00 1.239937663078308105e+00 2.252301692962646484e+00
4.197000000000000000e+03 6.252645969390869141e+00 -6.199502944946289062e+00 -1.404285430908203125e-01 4.563297748565673828e+00 1.326860785484313965e+00 2.338488101959228516e+00
4.198000000000000000e+03 5.993226051330566406e+00 -6.379160881042480469e+00 -1.614833772182464600e-01 4.273078441619873047e+00 1.233478546142578125e+00 2.163527488708496094e+00
4.199000000000000000e+03 1.307089710235595703e+01 3.804051160812377930e+00 6.285197734832763672e-01 1.081184005737304688e+01 3.432107925415039062e+00 1.560914754867553711e+00
4.200000000000000000e+03 7.005681037902832031e+00 6.203456401824951172e+00 4.955230951309204102e-01 3.897373437881469727e+00 1.317868947982788086e+00 -1.290486454963684082e+00
4.201000000000000000e+03 7.715856552124023438e+00 -5.449060916900634766e+00 -1.455687582492828369e-01 6.009977817535400391e+00 1.759322762489318848e+00 3.275159120559692383e+00
4.202000000000000000e+03 7.248803710937500000e+01 -4.499524235725402832e-01 -4.933537840843200684e-01 7.090802669525146484e+00 1.979234695434570312e+00 -4.037721455097198486e-02
4.203000000000000000e+03 1.320891284942626953e+01 4.205505371093750000e+00 3.966362476348876953e-01 1.054810905456542969e+01 3.283423662185668945e+00 1.395130395889282227e+00
4.204000000000000000e+03 1.358593654632568359e+01 -3.870372295379638672e+00 1.526616573333740234e+00 8.495141029357910156e+00 3.006527185440063477e+00 -4.301350414752960205e-01
4.205000000000000000e+03 9.073953628540039062e+00 -5.989588260650634766e+00 -1.079776763916015625e+00 7.788898944854736328e+00 2.012736558914184570e+00 3.201342582702636719e+00
4.206000000000000000e+03 9.518931388854980469e+00 -5.811723232269287109e+00 -1.092179179191589355e+00 8.334369659423828125e+00 2.172657012939453125e+00 3.236392974853515625e+00
4.207000000000000000e+03 6.953985214233398438e+00 5.516050338745117188e+00 6.919739842414855957e-01 3.631030082702636719e+00 1.296901226043701172e+00 -1.363454103469848633e+00
4.208000000000000000e+03 9.986095428466796875e+00 -5.711017131805419922e+00 -1.220621824264526367e+00 8.771877288818359375e+00 2.265376567840576172e+00 3.007927894592285156e+00
4.209000000000000000e+03 7.642266750335693359e+00 1.698429298400878906e+01 2.793791592121124268e-01 4.551988601684570312e+00 1.449410319328308105e+00 -9.544278979301452637e-01
4.210000000000000000e+03 1.163249206542968750e+01 6.014261722564697266e+00 -6.066115498542785645e-01 9.642802238464355469e+00 2.710857152938842773e+00 -3.385257720947265625e-02
4.211000000000000000e+03 1.139953422546386719e+01 6.285046577453613281e+00 -6.187590360641479492e-01 9.326343536376953125e+00 2.612275362014770508e+00 -1.453478783369064331e-01
4.212000000000000000e+03 1.220975399017333984e+01 5.654036521911621094e+00 -5.471670627593994141e-01 1.005493640899658203e+01 2.852330923080444336e+00 3.672716915607452393e-01
4.213000000000000000e+03 6.998106956481933594e+00 -7.792204856872558594e+00 -1.152577638626098633e+00 5.994745254516601562e+00 1.452650308609008789e+00 2.070111989974975586e+00
4.214000000000000000e+03 6.483830451965332031e+00 8.259923934936523438e+00 1.777861863374710083e-01 3.795051574707031250e+00 1.191851258277893066e+00 -9.181659221649169922e-01
4.215000000000000000e+03 6.381875514984130859e+00 -6.841825008392333984e+00 -4.684408307075500488e-01 4.850409030914306641e+00 1.314590573310852051e+00 2.200511693954467773e+00
4.216000000000000000e+03 1.444125366210937500e+01 -4.408234119415283203e+00 1.322593808174133301e+00 6.969526290893554688e+00 2.487636089324951172e+00 -4.557397961616516113e-01
4.217000000000000000e+03 1.310226631164550781e+01 -5.068914413452148438e+00 -4.320933669805526733e-02 8.478296279907226562e+00 2.530525922775268555e+00 6.208243370056152344e-01
4.218000000000000000e+03 1.349410343170166016e+01 -4.898592948913574219e+00 3.228034377098083496e-01 8.045149803161621094e+00 2.510385990142822266e+00 2.793951928615570068e-01
4.219000000000000000e+03 7.453626632690429688e+00 -7.029080867767333984e+00 -9.815520048141479492e-01 6.184743881225585938e+00 1.560957431793212891e+00 2.567901611328125000e+00
4.220000000000000000e+03 6.748544692993164062e+00 -7.594850063323974609e+00 -9.357395768165588379e-01 5.678352832794189453e+00 1.422783970832824707e+00 2.122221469879150391e+00
4.221000000000000000e+03 1.163979625701904297e+01 -6.036497592926025391e+00 -1.374073624610900879e+00 8.868526458740234375e+00 2.248335838317871094e+00 2.013677597045898438e+00
4.222000000000000000e+03 1.280777263641357422e+01 5.429503917694091797e+00 -3.824238479137420654e-01 1.018248176574707031e+01 2.940017223358154297e+00 7.488033771514892578e-01
4.223000000000000000e+03 1.241658020019531250e+01 -6.030235767364501953e+00 -1.105079293251037598e+00 8.392314910888671875e+00 2.186170816421508789e+00 1.564200043678283691e+00
4.224000000000000000e+03 7.841428756713867188e+00 -5.758176326751708984e+00 -3.118758499622344971e-01 6.137116432189941406e+00 1.747572064399719238e+00 3.191716432571411133e+00
4.225000000000000000e+03 1.382362651824951172e+01 -5.690320014953613281e+00 -1.262281388044357300e-01 7.147529125213623047e+00 2.106390237808227539e+00 5.459455847740173340e-01
4.226000000000000000e+03 6.403522014617919922e+00 -7.474103450775146484e+00 -7.465658187866210938e-01 5.155679702758789062e+00 1.322734236717224121e+00 2.045875549316406250e+00
4.227000000000000000e+03 6.166191101074218750e+00 -6.648105621337890625e+00 -3.015358746051788330e-01 4.492383480072021484e+00 1.257254242897033691e+00 2.131743907928466797e+00
4.228000000000000000e+03 6.041392803192138672e+00 -6.950809955596923828e+00 -4.224270284175872803e-01 4.601199150085449219e+00 1.253631591796875000e+00 2.055570602416992188e+00
4.229000000000000000e+03 8.897084236145019531e+00 -6.371570110321044922e+00 -1.210479378700256348e+00 7.602955818176269531e+00 1.917742967605590820e+00 3.015638589859008789e+00
4.230000000000000000e+03 9.831681251525878906e+00 1.126253509521484375e+01 5.340703949332237244e-02 6.457600116729736328e+00 1.953302264213562012e+00 -3.926439285278320312e-01
4.231000000000000000e+03 1.296308803558349609e+01 5.093573093414306641e+00 -2.376898527145385742e-01 1.033818435668945312e+01 3.030148267745971680e+00 9.339455962181091309e-01
4.232000000000000000e+03 7.474368095397949219e+00 7.077495098114013672e+00 2.154808789491653442e-01 4.665497779846191406e+00 1.464293479919433594e+00 -1.206864714622497559e+00
4.233000000000000000e+03 9.494304656982421875e+00 6.979913711547851562e+00 -2.933072447776794434e-01 7.191883563995361328e+00 2.069572925567626953e+00 -9.935952425003051758e-01
4.234000000000000000e+03 9.376153945922851562e+00 7.391556739807128906e+00 -2.586582005023956299e-01 6.941456317901611328e+00 2.004839420318603516e+00 -9.126938581466674805e-01
4.235000000000000000e+03 7.934890270233154297e+00 1.150633525848388672e+01 8.448503911495208740e-02 4.987601280212402344e+00 1.521625876426696777e+00 -6.744551658630371094e-01
4.236000000000000000e+03 7.371478557586669922e+00 8.805797576904296875e+00 7.027497142553329468e-02 4.671821117401123047e+00 1.422628760337829590e+00 -9.340311884880065918e-01
4.237000000000000000e+03 7.624961853027343750e+00 9.372538566589355469e+00 7.773821242153644562e-03 4.861809730529785156e+00 1.460875153541564941e+00 -8.351873159408569336e-01
4.238000000000000000e+03 9.900979042053222656e+00 -9.946446865797042847e-03 4.356292343139648438e+01 5.633284091949462891e+00 1.475886154174804688e+01 1.172952842712402344e+01
4.239000000000000000e+03 9.904818534851074219e+00 -2.906142920255661011e-02 4.073928070068359375e+01 1.671564483642578125e+01 1.723647880554199219e+01 2.265391540527343750e+01
4.240000000000000000e+03 9.912311553955078125e+00 -4.706101492047309875e-02 3.764723968505859375e+01 2.769707679748535156e+01 1.960329627990722656e+01 2.697863388061523438e+01
4.241000000000000000e+03 9.923169136047363281e+00 -6.325436383485794067e-02 3.283790588378906250e+01 3.903602981567382812e+01 2.156218147277832031e+01 2.858014678955078125e+01
4.242000000000000000e+03 9.936976432800292969e+00 -7.701997458934783936e-02 2.831272697448730469e+01 4.925223159790039062e+01 2.326948738098144531e+01 2.720045471191406250e+01
4.243000000000000000e+03 9.953202247619628906e+00 -8.782950043678283691e-02 2.402196121215820312e+01 5.784204483032226562e+01 2.455920219421386719e+01 2.338062477111816406e+01
4.244000000000000000e+03 9.971223831176757812e+00 -9.526807069778442383e-02 2.129430580139160156e+01 6.390655517578125000e+01 2.556025886535644531e+01 1.781681060791015625e+01
4.245000000000000000e+03 9.990350723266601562e+00 -9.905018657445907593e-02 2.015504264831542969e+01 6.703612518310546875e+01 2.615735054016113281e+01 1.131030941009521484e+01
4.246000000000000000e+03 1.000984764099121094e+01 -9.903068840503692627e-02 2.108668708801269531e+01 6.731658172607421875e+01 2.652098083496093750e+01 4.946052074432373047e+00
4.247000000000000000e+03 1.002896595001220703e+01 -9.521032124757766724e-02 2.364209365844726562e+01 6.509052276611328125e+01 2.661978530883789062e+01 -5.110651850700378418e-01
4.248000000000000000e+03 1.004697322845458984e+01 -8.773572742938995361e-02 2.731883621215820312e+01 6.113564300537109375e+01 2.653634262084960938e+01 -4.359887123107910156e+00
4.249000000000000000e+03 1.006317710876464844e+01 -7.689376920461654663e-02 3.164314460754394531e+01 5.635022354125976562e+01 2.639801025390625000e+01 -6.327565670013427734e+00
4.250000000000000000e+03 1.007695674896240234e+01 -6.310057640075683594e-02 3.570117187500000000e+01 5.141542816162109375e+01 2.613497924804687500e+01 -6.494810104370117188e+00
4.251000000000000000e+03 1.008778285980224609e+01 -4.688554257154464722e-02 3.932955932617187500e+01 4.729222106933593750e+01 2.598653221130371094e+01 -4.993218898773193359e+00
4.252000000000000000e+03 1.009523963928222656e+01 -2.887100912630558014e-02 4.185659408569335938e+01 4.410088348388671875e+01 2.578724479675292969e+01 -2.321040153503417969e+00
4.253000000000000000e+03 1.009904003143310547e+01 -9.748386219143867493e-03 4.328745269775390625e+01 4.255855941772460938e+01 2.575380325317382812e+01 1.208135724067687988e+00
4.254000000000000000e+03 1.009904003143310547e+01 9.748386219143867493e-03 4.325464630126953125e+01 4.247655105590820312e+01 2.571936035156250000e+01 5.084363460540771484e+00
4.255000000000000000e+03 1.009523963928222656e+01 2.887100912630558014e-02 4.175866317749023438e+01 4.415753555297851562e+01 2.577485847473144531e+01 8.832248687744140625e+00
4.256000000000000000e+03 1.008778285980224609e+01 4.688554257154464722e-02 3.874642562866210938e+01 4.739508056640625000e+01 2.584245109558105469e+01 1.190467929840087891e+01
4.257000000000000000e+03 1.007695674896240234e+01 6.310057640075683594e-02 3.432041168212890625e+01 5.181544876098632812e+01 2.584075927734375000e+01 1.375533103942871094e+01
4.258000000000000000e+03 1.006317710876464844e+01 7.689376920461654663e-02 2.896567726135253906e+01 5.685224533081054688e+01 2.574537658691406250e+01 1.384786415100097656e+01
4.259000000000000000e+03 1.004697322845458984e+01 8.773572742938995361e-02 2.320923423767089844e+01 6.172604370117187500e+01 2.548058319091796875e+01 1.188982391357421875e+01
4.260000000000000000e+03 1.002896595001220703e+01 9.521032124757766724e-02 1.777050399780273438e+01 6.539235687255859375e+01 2.494886016845703125e+01 7.943090915679931641e+00
4.261000000000000000e+03 1.000984764099121094e+01 9.903068840503692627e-02 1.340451145172119141e+01 6.705828857421875000e+01 2.413883972167968750e+01 2.347687244415283203e+00
4.262000000000000000e+03 9.990350723266601562e+00 9.905018657445907593e-02 1.053470230102539062e+01 6.602457427978515625e+01 2.296778297424316406e+01 -4.069162368774414062e+00
4.263000000000000000e+03 9.971223831176757812e+00 9.526807069778442383e-02 9.475811004638671875e+00 6.211768341064453125e+01 2.147804832458496094e+01 -1.055309104919433594e+01
4.264000000000000000e+03 9.953202247619628906e+00 8.782950043678283691e-02 9.728948593139648438e+00 5.553713989257812500e+01 1.957982635498046875e+01 -1.603907203674316406e+01
4.265000000000000000e+03 9.936976432800292969e+00 7.701997458934783936e-02 1.123605346679687500e+01 4.678956985473632812e+01 1.740768623352050781e+01 -1.997433280944824219e+01
4.266000000000000000e+03 9.923169136047363281e+00 6.325436383485794067e-02 1.290955638885498047e+01 3.689638519287109375e+01 1.494178295135498047e+01 -2.185184860229492188e+01
4.267000000000000000e+03 9.912311553955078125e+00 4.706101492047309875e-02 1.498591136932373047e+01 2.608411788940429688e+01 1.232100868225097656e+01 -2.136583709716796875e+01
4.268000000000000000e+03 9.904818534851074219e+00 2.906142920255661011e-02 1.605635452270507812e+01 1.584652042388916016e+01 9.570862770080566406e+00 -1.869452857971191406e+01
4.269000000000000000e+03 9.900979042053222656e+00 9.946446865797042847e-03 1.793587493896484375e+01 5.294323444366455078e+00 6.969059467315673828e+00 -9.595154762268066406e+00
