# el_label, x, y, sXX, sYY, sZZ, sXY
1.000000000000000000e+00 7.693863677978515625e+01 2.066781616210937500e+01 2.101684237342145434e-14 9.007217918028352643e-15 9.007217918028352643e-15 9.107298248878237246e-14
2.000000000000000000e+00 7.606389617919921875e+01 2.067768859863281250e+01 6.405133042876320904e-14 -6.405133042876320904e-14 0.000000000000000000e+00 -1.180946345488015359e-13
3.000000000000000000e+00 7.781343078613281250e+01 2.065824127197265625e+01 3.878107822938639537e-14 -1.663833323504657069e-13 -3.828067826920286687e-14 6.905533680686207210e-14
4.000000000000000000e+00 7.868827819824218750e+01 2.064890670776367188e+01 -4.578669122448295048e-14 -1.568757195544515093e-13 -6.079872391130669573e-14 1.000802037949425141e-14
5.000000000000000000e+00 7.605500793457031250e+01 1.993673896789550781e+01 1.095878216731543953e-13 -4.453568793589234021e-14 1.951563910473907981e-14 -2.952365863720038397e-14
6.000000000000000000e+00 7.780848693847656250e+01 1.991325569152832031e+01 -5.429350748826188011e-14 -2.326864727644501613e-14 -2.326864727644501613e-14 1.100882216333379238e-13
7.000000000000000000e+00 7.868531799316406250e+01 1.990190315246582031e+01 -1.798941583804752886e-13 -1.228484409468086347e-13 -9.082278250869060821e-14 -2.702165375408505793e-14
8.000000000000000000e+00 7.956181335449218750e+01 1.989070892333984375e+01 -6.955573676704560060e-14 -7.556054984177509870e-14 -4.353488801552528320e-14 -4.903929774193946378e-14
9.000000000000000000e+00 7.956279754638671875e+01 2.063973045349121094e+01 -5.004010189747125706e-16 4.553649124439118623e-14 1.351082687704252897e-14 -9.507618894651417851e-14
1.000000000000000000e+01 7.693172454833984375e+01 1.992485046386718750e+01 7.080674344376799989e-14 -1.984089975648473114e-13 -3.828067826920286687e-14 -4.103288143834406265e-14
1.100000000000000000e+01 7.373146820068359375e+01 1.997627639770507812e+01 -2.026624073908026707e-14 8.281636281696341806e-14 1.876503747039789255e-14 -4.953969770212299228e-14
1.200000000000000000e+01 7.524552917480468750e+01 2.068987083435058594e+01 2.677145377399329368e-14 -3.427746842333927180e-14 -2.251804479507088161e-15 1.301042606982605321e-14
1.300000000000000000e+01 7.296038055419921875e+01 2.072870254516601562e+01 -4.753809362622414200e-15 -4.778829445334885351e-14 -1.576263093303314350e-14 -9.207378240914942946e-14
1.400000000000000000e+01 7.448545837402343750e+01 1.996346092224121094e+01 4.828869780166417103e-14 -7.080674344376799989e-14 -6.755413438521264483e-15 -5.004010189747125706e-15
1.500000000000000000e+01 7.297759246826171875e+01 1.998830223083496094e+01 -5.454371085648543338e-14 -1.606287260320915511e-13 -6.455173038894673754e-14 5.104090097080536681e-14
1.600000000000000000e+01 7.372199249267578125e+01 2.071654510498046875e+01 -1.103384216134296880e-13 -4.728789449316532501e-14 -4.728789449316532501e-14 2.902325867701685547e-14
1.700000000000000000e+01 7.523952484130859375e+01 1.994986534118652344e+01 1.926543912464731556e-14 8.256616283687165381e-15 8.256616283687165381e-15 -4.153328478665938017e-14
1.800000000000000000e+01 7.448372650146484375e+01 2.070359611511230469e+01 -4.503608959014176322e-15 8.957178260823178695e-14 2.552045048540268340e-14 -1.336070739720723877e-13
1.900000000000000000e+01 7.062772369384765625e+01 2.059126091003417969e+01 -3.452766840343103605e-14 2.597081078838103796e-13 6.755413692631148659e-14 1.356086738128065017e-13
2.000000000000000000e+01 6.994271850585937500e+01 1.979854011535644531e+01 -3.702967498061225660e-14 7.005613842129502361e-15 -9.007217918028352643e-15 2.902325867701685547e-14
2.100000000000000000e+01 7.146268463134765625e+01 1.991097831726074219e+01 -3.702967498061225660e-14 1.671339390670045777e-13 3.903127820947815962e-14 -4.003208151797700565e-15
2.200000000000000000e+01 7.222106933593750000e+01 1.996716117858886719e+01 -4.028228149806876990e-14 -1.726383420171551802e-14 -1.726383420171551802e-14 -5.504410996963601463e-15
2.300000000000000000e+01 7.218912506103515625e+01 2.070682144165039062e+01 2.101684237342145434e-14 9.007217918028352643e-15 9.007217918028352643e-15 5.754611739385018243e-14
2.400000000000000000e+01 6.984555816650390625e+01 2.053337287902832031e+01 7.581074982186686295e-14 -1.733889453455622620e-13 -2.927345865710861972e-14 -1.631307258330091936e-13
2.500000000000000000e+01 7.070314788818359375e+01 1.985482025146484375e+01 1.276022524270134170e-14 -4.028228149806876990e-14 -8.256616283687165381e-15 2.702165375408505793e-14
2.600000000000000000e+01 7.140900421142578125e+01 2.064903068542480469e+01 -2.602085213965210642e-14 1.261010474642651480e-13 3.002405859738391247e-14 -5.704571743366665393e-14
2.700000000000000000e+01 6.766733551025390625e+01 2.095074653625488281e+01 8.081476297622930405e-14 1.718877454650116765e-13 7.581074982186686295e-14 -1.451162866088206993e-13
2.800000000000000000e+01 6.702194213867187500e+01 2.088224792480468750e+01 -8.256616283687165381e-14 1.476182999622654979e-13 1.951563910473907981e-14 -5.504410996963601463e-15
2.900000000000000000e+01 6.832573699951171875e+01 2.185243988037109375e+01 7.981396305586224704e-14 -5.729591741375841818e-14 6.755413438521264483e-15 -6.655333022968085155e-14
3.000000000000000000e+01 6.978772735595703125e+01 2.124929046630859375e+01 4.278428468711820143e-14 1.098380216532461595e-13 4.578669122448295048e-14 -2.401924891078620339e-14
3.100000000000000000e+01 7.962940216064453125e+01 2.616855049133300781e+01 1.651323256737433076e-14 -6.154932385158198849e-14 -1.351082687704252897e-14 -1.000802021008766196e-13
3.200000000000000000e+01 7.697660827636718750e+01 2.142984771728515625e+01 -1.351082687704252897e-14 -5.154130431912068433e-14 -1.951563910473907981e-14 -4.353488801552528320e-14
3.300000000000000000e+01 7.963400268554687500e+01 2.696585083007812500e+01 -1.376102770416724047e-14 -2.877305869692509122e-14 -1.276022524270134170e-14 3.052446194569922999e-14
3.400000000000000000e+01 7.873712921142578125e+01 3.096850776672363281e+01 1.326062689695076471e-14 -8.581876935432816711e-14 -2.176744400776264160e-14 -9.307458910578006450e-14
3.500000000000000000e+01 7.259503936767578125e+01 3.701026916503906250e+01 -5.379310583401245710e-15 -7.093184004568209300e-14 -2.289334561224147524e-14 -4.315958804538763682e-14
3.600000000000000000e+01 6.045616912841796875e+01 3.710250854492187500e+01 -5.316760588378304647e-15 -7.662390145123099128e-14 -2.458219886599267295e-14 2.276824562219559311e-14
3.700000000000000000e+01 6.172428894042968750e+01 4.061724090576171875e+01 -2.770970539340330413e-14 -8.050201130704870423e-14 -3.246351348547629745e-14 -4.165838477670526230e-14
3.800000000000000000e+01 5.724192047119140625e+01 4.088507080078125000e+01 -1.132157281607485549e-14 -1.306672055712693181e-13 -4.259663639611527275e-14 4.891419775189358166e-14
3.900000000000000000e+01 5.271437454223632812e+01 3.785928726196289062e+01 -2.070409070424085451e-14 2.564555089896503916e-15 -5.441861001940660400e-15 4.103288143834406265e-14
4.000000000000000000e+01 5.479103088378906250e+01 3.019947624206542969e+01 -3.490296837356868243e-14 -1.064603117576119751e-13 -4.240898471698055505e-14 6.480193036903850179e-14
4.100000000000000000e+01 5.494308471679687500e+01 2.134972953796386719e+01 -4.678749453298179650e-14 9.432558900623888576e-14 1.426142935841666348e-14 -6.004812227696550847e-15
4.200000000000000000e+01 5.329028320312500000e+01 2.064603233337402344e+01 1.043336085387001899e-13 1.033328086183331329e-13 6.229992379185728124e-14 1.243496543798863763e-13
4.300000000000000000e+01 5.407239532470703125e+01 2.110223388671875000e+01 -5.954771723458429644e-14 -2.657129345110670338e-13 -9.757819552369539906e-14 -4.678749453298179650e-14
4.400000000000000000e+01 7.790324401855468750e+01 3.093761825561523438e+01 4.678749453298179650e-14 6.580273028940555879e-14 3.377706846315574329e-14 2.852285871683332696e-14
4.500000000000000000e+01 7.956807708740234375e+01 3.807475280761718750e+01 3.427746842333927180e-14 -7.681155651849749799e-14 -1.276022524270134170e-14 -3.202566521438160452e-14
4.600000000000000000e+01 7.217539215087890625e+01 3.903263092041015625e+01 -6.717883356804205119e-14 -5.166640430916656646e-14 -3.565357170197576420e-14 -3.502806921064751181e-15
4.700000000000000000e+01 5.254122543334960938e+01 4.095628738403320312e+01 -3.884362653034344193e-14 -1.081491667054290673e-13 -4.409783966479764727e-14 -4.403528797570881170e-14
4.800000000000000000e+01 4.864632797241210938e+01 3.738130950927734375e+01 5.254210593355363584e-15 -3.778027492088754935e-14 -9.757819552369539906e-15 1.688853359630316121e-15
4.900000000000000000e+01 5.129326248168945312e+01 3.007144546508789062e+01 -1.501202929869195624e-14 5.004010189747125706e-15 -3.002406113848275424e-15 -5.129110179793007832e-15
5.000000000000000000e+01 5.335777282714843750e+01 2.306173706054687500e+01 -1.040834085586084257e-13 2.401924891078620339e-14 -2.401924891078620339e-14 3.102486190588275849e-14
5.100000000000000000e+01 5.220125961303710938e+01 1.931421470642089844e+01 1.576263127184632240e-13 1.476182999622654979e-13 9.157338244896590096e-14 1.521218996039172544e-13
5.200000000000000000e+01 5.269351577758789062e+01 1.999935340881347656e+01 1.140914348673333079e-13 2.662133209187234062e-13 1.140914348673333079e-13 1.693857456640940340e-13
5.300000000000000000e+01 3.770685577392578125e+01 4.084133148193359375e+01 -2.527025050531091915e-14 1.776423585596494104e-14 -2.251804479507088161e-15 3.615397166215929270e-14
5.400000000000000000e+01 4.265662765502929688e+01 4.070571517944335938e+01 -1.200962445539310169e-14 1.200962445539310169e-14 0.000000000000000000e+00 -2.727185542824271669e-14
5.500000000000000000e+01 4.672702789306640625e+01 2.266339874267578125e+01 2.777225538842624519e-14 6.480193036903850179e-14 2.777225538842624519e-14 -1.060029122720287584e-14
5.600000000000000000e+01 3.844141006469726562e+01 1.579514598846435547e+01 1.045838085187919542e-13 9.057258252859884395e-14 5.854691731421723944e-14 -3.535645964913326778e-14
5.700000000000000000e+01 3.902593994140625000e+01 1.310558414459228516e+01 -1.451162933850842773e-14 3.953167816966168813e-14 7.506014649345978118e-15 -5.466881084653131551e-14
5.800000000000000000e+01 4.094161605834960938e+01 1.054950141906738281e+01 2.001604075898850282e-14 2.001604075898850282e-14 1.200962445539310169e-14 1.745148418678434121e-14
5.900000000000000000e+01 4.135128784179687500e+01 9.857630729675292969e+00 -4.103288143834406265e-14 2.111692168783180223e-13 5.104090097080536681e-14 -1.047089118969696253e-13
6.000000000000000000e+01 4.231445693969726562e+01 5.805336475372314453e+00 4.303448466720996568e-14 -7.305854326459387815e-14 -9.007217918028352643e-15 1.000802037949425141e-15
6.100000000000000000e+01 4.508359146118164062e+01 3.914367437362670898e+00 3.828067826920286687e-14 3.928147818956992388e-14 2.326864727644501613e-14 -2.552045048540268340e-14
6.200000000000000000e+01 4.838051605224609375e+01 4.435431957244873047e+00 5.804651735403371093e-14 -1.581267126786467525e-13 -3.002405859738391247e-14 1.551243095294137925e-14
6.300000000000000000e+01 4.844706344604492188e+01 6.052103519439697266e+00 -5.604491073703601889e-14 -1.841475648182988589e-13 -7.205774334422682115e-14 4.753809447325708926e-14
6.400000000000000000e+01 4.929726409912109375e+01 1.167672348022460938e+01 -5.904731727440076794e-14 8.907137587178468041e-14 9.007217918028352643e-15 -3.252606517456513302e-14
6.500000000000000000e+01 5.104344940185546875e+01 1.711541175842285156e+01 1.230986477031639770e-13 7.005613842129502361e-15 3.903127820947815962e-14 -7.506014649345978118e-15
6.600000000000000000e+01 5.074970245361328125e+01 1.634764289855957031e+01 -8.306656957331876034e-14 3.302646513474866152e-14 -1.501202929869195624e-14 4.428548795580057595e-14
6.700000000000000000e+01 4.017939758300781250e+01 1.619918251037597656e+01 1.145918348275168364e-13 1.606287260320915511e-13 8.256616283687165381e-14 -3.077466192579099424e-14
6.800000000000000000e+01 3.810209274291992188e+01 3.749320602416992188e+01 -4.609944289366355030e-14 7.174499167504622132e-14 7.693665481447748561e-15 -1.876503747039789255e-14
6.900000000000000000e+01 3.206756210327148438e+01 2.970252799987792969e+01 5.166640430916656646e-14 1.022069053197884048e-13 4.616199119462059686e-14 -6.505213034913026604e-15
7.000000000000000000e+01 3.430400848388671875e+01 2.057674789428710938e+01 -4.203368474684290867e-14 -1.781427517435693608e-13 -6.605293026949732305e-14 7.606094980195862720e-14
7.100000000000000000e+01 3.430949783325195312e+01 1.740628242492675781e+01 -7.956375629950690476e-14 -5.504410996963601463e-15 -2.552045048540268340e-14 -9.132318246887413671e-14
7.200000000000000000e+01 3.676865386962890625e+01 1.535962772369384766e+01 -1.501202929869195624e-14 5.004010189747125706e-15 -3.002406113848275424e-15 -9.076023081960177263e-14
7.300000000000000000e+01 3.736111068725585938e+01 1.482420635223388672e+01 4.853889778175593528e-14 -1.351082687704252897e-14 1.050842118671072717e-14 9.695269557346598843e-15
7.400000000000000000e+01 3.285235977172851562e+01 4.070871734619140625e+01 -2.914835866706273759e-14 5.041540102057595618e-14 6.380112621350670851e-15 -2.351884725653678038e-14
7.500000000000000000e+01 2.791331863403320312e+01 3.738701248168945312e+01 -3.727987496070402085e-14 6.980593674713736485e-14 9.757819552369539906e-15 -1.438652934846254561e-14
7.600000000000000000e+01 2.881801795959472656e+01 2.864430618286132812e+01 -1.207217445041604276e-14 1.770168586094199997e-14 1.688853359630316121e-15 -9.507618725244828400e-15
7.700000000000000000e+01 2.839139366149902344e+01 2.154584693908691406e+01 8.306656957331876034e-14 7.005613842129502361e-15 2.702165375408505793e-14 -3.727987496070402085e-14
7.800000000000000000e+01 2.478171157836914062e+01 2.139276123046875000e+01 1.070858150959731747e-13 2.301844560228735737e-14 3.903127820947815962e-14 4.453568793589234021e-14
7.900000000000000000e+01 2.944503211975097656e+01 2.017250633239746094e+01 1.401122870069854143e-13 6.004811719476782494e-14 6.004811719476782494e-14 -5.254210593355363584e-15
8.000000000000000000e+01 3.093531990051269531e+01 1.958549118041992188e+01 9.257418236933295796e-14 -1.751403587587317678e-14 2.251804564210382886e-14 -5.854691731421723944e-14
8.100000000000000000e+01 2.046822738647460938e+01 3.722113037109375000e+01 -4.553649124439118623e-14 2.051644071917203133e-14 -7.506014649345978118e-15 -2.426944889087796764e-14
8.200000000000000000e+01 2.387187576293945312e+01 3.766890335083007812e+01 -3.953167816966168813e-14 3.452766840343103605e-14 -1.501203056924137712e-15 4.466078792593822233e-14
8.300000000000000000e+01 2.507608985900878906e+01 2.840105247497558594e+01 5.829671733412547519e-14 1.393616802904465435e-13 5.929751725449253219e-14 6.905533680686207210e-14
8.400000000000000000e+01 1.968739891052246094e+01 2.117604064941406250e+01 2.559551149586974939e-13 2.469478885703396687e-13 1.508709064797220112e-13 1.090874217129708668e-13
8.500000000000000000e+01 1.843244361877441406e+01 2.072066116333007812e+01 8.106496295632106830e-14 1.491194998428160834e-13 6.905533680686207210e-14 7.881315635923161200e-14
8.600000000000000000e+01 2.278259468078613281e+01 2.325200271606445312e+01 1.477433897879160130e-13 8.619407271259760250e-14 7.018124010540680024e-14 6.255012377194904549e-14
8.700000000000000000e+01 1.794109535217285156e+01 3.610613250732421875e+01 -3.190056522433572239e-14 2.064154070921791345e-14 -3.377706719260632241e-15 1.751403587587317678e-14
8.800000000000000000e+01 1.567589092254638672e+01 3.903334808349609375e+01 -7.585766189461759512e-14 -1.125745885941810409e-13 -5.652967446901323301e-14 -4.378508968968294196e-15
8.900000000000000000e+01 1.726446342468261719e+01 2.971976089477539062e+01 2.314354686288266037e-15 -9.051003083951000838e-14 -2.645870379887858836e-14 -2.752205540833448094e-14
9.000000000000000000e+01 1.994629478454589844e+01 2.008586692810058594e+01 1.426142868079030568e-13 1.526222995641007829e-13 8.857097591160115191e-14 1.040834085586084257e-13
9.100000000000000000e+01 1.867979431152343750e+01 1.624094009399414062e+01 1.040834085586084257e-13 1.361090737729900302e-13 7.205774334422682115e-14 4.503608959014176322e-15
9.200000000000000000e+01 1.887239456176757812e+01 1.786004638671875000e+01 1.348580670962676309e-13 3.780529491889672578e-13 1.538733062408231822e-13 -1.551243095294137925e-14
9.300000000000000000e+01 2.078146553039550781e+01 2.185440444946289062e+01 1.631307258330091936e-13 -1.130906281707026728e-13 1.501202929869195624e-14 -8.506816941405287436e-14
9.400000000000000000e+01 1.229759216308593750e+01 4.078807830810546875e+01 -4.728789449316532501e-14 -1.003304020809683839e-13 -4.428548795580057595e-14 2.852285871683332696e-14
9.500000000000000000e+01 9.275676727294921875e+00 4.053530883789062500e+01 -2.939855907067097547e-15 -3.329543129919343425e-13 -1.007682503520630768e-13 1.075862116680249142e-14
9.600000000000000000e+01 6.163280010223388672e+00 2.306921577453613281e+01 1.085870149765237602e-13 -2.737193609790578019e-13 -4.953969770212299228e-14 -6.154932385158198849e-14
9.700000000000000000e+01 1.396781063079833984e+01 1.591936683654785156e+01 1.398620802506300720e-13 -7.731195647868102649e-14 1.876503747039789255e-14 -8.656937607086703790e-14
9.800000000000000000e+01 8.935041427612304688e+00 6.504395008087158203e+00 -1.093376216930626310e-13 -4.586175189613683756e-13 -1.703865455844610910e-13 3.753007494079578510e-14
9.900000000000000000e+01 5.819736003875732422e+00 1.848199963569641113e+00 3.002405859738391247e-14 1.501202997631831404e-13 5.404330750817011586e-14 4.103288143834406265e-14
1.000000000000000000e+02 1.131063747406005859e+01 1.609127044677734375e+00 -1.188452412653404067e-13 -2.339374625005136155e-13 -1.058348151955143535e-13 8.106496295632106830e-14
1.010000000000000000e+02 1.208345031738281250e+01 1.476247072219848633e+00 -2.384410756946925281e-13 8.081476297622930405e-14 -4.728789449316532501e-14 -1.671339390670045777e-13
1.020000000000000000e+02 1.433905506134033203e+01 1.074159502983093262e+00 -6.380113044867144478e-14 -1.188452412653404067e-13 -5.479391083657719763e-14 1.371098736933570872e-13
1.030000000000000000e+02 1.794516944885253906e+01 4.901654720306396484e-01 -1.258508542604369618e-13 8.331676955341052460e-14 -1.276022524270134170e-14 -2.752205540833448094e-14
1.040000000000000000e+02 2.125697135925292969e+01 4.473510265350341797e+00 1.451162933850842773e-14 4.053248147816053415e-14 1.651323256737433076e-14 -2.274322494656005889e-13
1.050000000000000000e+02 2.174801254272460938e+01 9.547110795974731445e-01 4.228388472693467293e-14 -1.648821324699151214e-13 -3.677947500052049234e-14 -9.807859548387892756e-14
1.060000000000000000e+02 9.923619627952575684e-01 3.723775482177734375e+01 -1.063352151556978820e-13 -4.115798142838994478e-13 -1.553745061213737677e-13 5.654531408535133641e-14
1.070000000000000000e+02 1.092549204826354980e+00 3.856377792358398438e+01 -1.488692930864607411e-14 -6.468934003918402897e-13 -1.985341009430249826e-13 -5.004010189747125706e-15
1.080000000000000000e+02 1.155218720436096191e+00 2.919465446472167969e+01 3.102486190588275849e-14 -2.612093213168881212e-13 -6.905533680686207210e-14 -4.703769451307356075e-14
1.090000000000000000e+02 3.564301729202270508e-01 2.037547302246093750e+01 -4.178348476675114442e-14 -5.211676359570538430e-13 -1.688853321513833494e-13 -5.104090097080536681e-14
1.100000000000000000e+02 1.058783888816833496e+00 1.552021408081054688e+01 6.705373696612795809e-14 -4.973986175195455051e-13 -1.291034607778934751e-13 4.553649124439118623e-14
1.110000000000000000e+02 3.883260488510131836e-01 6.689043521881103516e+00 -9.532638892660594276e-14 -1.323560672953499884e-13 -6.830473686658677934e-14 -4.503608959014176322e-15
1.120000000000000000e+02 1.108138799667358398e+00 9.071447372436523438e+00 -8.131516293641283255e-14 -6.067362324363445580e-13 -2.064154104803109235e-13 6.054852393121493148e-14
1.130000000000000000e+02 4.980313777923583984e+00 2.548053026199340820e+00 -1.401122768425900472e-14 -6.004812227696550847e-15 -6.004812227696550847e-15 4.903929774193946378e-14
1.140000000000000000e+02 1.654154396057128906e+01 2.040813684463500977e+00 -1.333568672157170454e-13 1.258508542604369618e-13 -2.251804479507088161e-15 -1.931547912066566841e-13
1.150000000000000000e+02 1.722811889648437500e+01 5.903559327125549316e-01 -2.224282498637653038e-13 -9.532638892660594276e-14 -9.532638892660594276e-14 -4.003208151797700565e-15
1.160000000000000000e+02 1.927055358886718750e+01 8.956673622131347656e+00 -1.361090737729900302e-13 2.161732300326804634e-13 2.401924891078620339e-14 -9.007218256841531545e-14
1.170000000000000000e+02 1.815114021301269531e+01 1.138505744934082031e+01 -1.135910281308862013e-13 8.857097591160115191e-14 -7.506014649345978118e-15 -2.902325867701685547e-14
1.180000000000000000e+02 1.872750854492187500e+01 1.217711448669433594e+01 -1.148420280313450226e-13 2.024122107988426955e-13 2.627105211974387067e-14 -1.701363422162375377e-14
1.190000000000000000e+02 1.874885749816894531e+01 1.705086517333984375e+01 -1.233488409069921632e-13 1.758909586990070606e-13 1.576263093303314350e-14 3.002406113848275424e-15
1.200000000000000000e+02 1.462103080749511719e+01 1.674096679687500000e+01 5.904731727440076794e-14 -2.491996951674291250e-13 -5.704571743366665393e-14 4.853889778175593528e-14
1.210000000000000000e+02 4.240936660766601562e+01 6.629328727722167969e+00 -1.436150867282701138e-13 9.857899544406245607e-14 -1.351082687704252897e-14 2.702165375408505793e-14
1.220000000000000000e+02 5.656598281860351562e+01 2.176419258117675781e+01 -4.603689120457471473e-14 2.602085213965210642e-14 -6.004812227696550847e-15 -4.103288143834406265e-14
1.230000000000000000e+02 6.068901062011718750e+01 2.235679435729980469e+01 -9.707779556351187056e-14 -1.331066604593617031e-13 -6.905533680686207210e-14 -5.804651735403371093e-14
1.240000000000000000e+02 6.487509155273437500e+01 2.159658241271972656e+01 5.929751725449253219e-14 2.084170238735721936e-13 8.031436301604577555e-14 -2.101684237342145434e-14
1.250000000000000000e+02 6.638249206542968750e+01 2.102807807922363281e+01 8.031436301604577555e-14 5.729591741375841818e-14 4.128308141843582690e-14 -6.004812227696550847e-15
1.260000000000000000e+02 6.834731292724609375e+01 2.104939270019531250e+01 6.830473686658677934e-14 2.927345865710861972e-14 2.927345865710861972e-14 1.601283260719080226e-13
1.270000000000000000e+02 7.391108703613281250e+01 3.087046432495117188e+01 -2.201764398785440585e-14 -2.381908689383371858e-13 -7.806255641895631925e-14 7.606094980195862720e-14
1.280000000000000000e+02 6.202490997314453125e+01 2.894413948059082031e+01 -8.757017937936588392e-15 -3.753007324672989059e-15 -3.753007324672989059e-15 -1.050842118671072717e-14
1.290000000000000000e+02 6.576776885986328125e+01 2.784875679016113281e+01 -1.976583908483084406e-14 -6.280032375204080974e-14 -2.476984885106149614e-14 5.222935595843893053e-15
1.300000000000000000e+02 5.760133361816406250e+01 2.902642440795898438e+01 -3.064956193574511212e-14 -1.313552605987193533e-14 -1.313552605987193533e-14 1.951563910473907981e-14
1.310000000000000000e+02 6.154657745361328125e+01 2.228452110290527344e+01 -7.305854326459387815e-14 -7.706175649858926224e-14 -4.503609128420765773e-14 1.551243095294137925e-14
1.320000000000000000e+02 5.262647628784179688e+01 2.198393821716308594e+01 1.251002475438980910e-13 -1.751403519824681898e-13 -1.501202929869195624e-14 3.803047490097931360e-14
1.330000000000000000e+02 4.670035552978515625e+01 2.529322052001953125e+01 4.453568793589234021e-14 1.105886215935214523e-13 4.653729455289003225e-14 -6.054852393121493148e-14
1.340000000000000000e+02 3.570435714721679688e+01 2.159722137451171875e+01 8.757017599123409490e-14 3.753007494079578510e-14 3.753007494079578510e-14 -9.607699564314481355e-14
1.350000000000000000e+02 2.914021873474121094e+01 2.120510101318359375e+01 1.363592669768182164e-13 -7.881315635923161200e-14 1.726383420171551802e-14 1.901523745048965680e-14
1.360000000000000000e+02 2.400257301330566406e+01 2.157682037353515625e+01 2.019118108386591670e-13 -1.193456412255239352e-13 2.476984885106149614e-14 -2.251804564210382886e-14
1.370000000000000000e+02 5.323437690734863281e+00 2.491389656066894531e+01 1.528725063204561252e-13 -3.004908062827216231e-13 -4.428548795580057595e-14 -7.956375629950690476e-14
1.380000000000000000e+02 1.082745313644409180e+00 2.355978012084960938e+01 -4.128308141843582690e-14 -5.667041272014450293e-13 -1.823961717339200872e-13 2.001604075898850282e-14
1.390000000000000000e+02 7.311540985107421875e+01 3.038949012756347656e+01 -4.178348476675114442e-14 -8.081476297622930405e-14 -3.677947500052049234e-14 -1.075862116680249142e-14
1.400000000000000000e+02 5.069813537597656250e+01 3.205852508544921875e+01 3.502807175174635357e-14 1.501202929869195624e-14 1.501202929869195624e-14 2.126704277702969222e-15
1.410000000000000000e+02 4.540610885620117188e+01 3.192116546630859375e+01 -2.129831819805763637e-14 1.166872588137524147e-13 2.861668286233479130e-14 2.151724233360498284e-14
1.420000000000000000e+02 3.272869110107421875e+01 3.202853775024414062e+01 -1.301042606982605321e-14 -1.701363422162375377e-14 -9.007217918028352643e-15 1.939053911469319769e-14
1.430000000000000000e+02 2.903642082214355469e+01 3.115241432189941406e+01 -1.288532607978017108e-14 3.165036185611216912e-14 5.629511410525957216e-15 5.942261809157136157e-15
1.440000000000000000e+02 2.559505462646484375e+01 2.968051719665527344e+01 7.255814669254213867e-15 4.028228149806876990e-14 1.426142935841666348e-14 2.032879073410320814e-14
1.450000000000000000e+02 1.925745201110839844e+01 2.889188766479492188e+01 1.438652934846254561e-14 -1.082117183945179029e-13 -2.814755705262978608e-14 -3.627907165220517482e-14
1.460000000000000000e+02 6.077870368957519531e+00 2.947213554382324219e+01 6.755413692631148659e-14 -2.226784430675934900e-13 -4.653729455289003225e-14 -4.103288143834406265e-14
1.470000000000000000e+02 1.215128660202026367e+00 3.081377601623535156e+01 5.429350748826188011e-14 -2.969879930089097675e-13 -7.280834328450211390e-14 1.075862150561567032e-13
1.480000000000000000e+02 6.033902645111083984e+00 8.361881256103515625e+00 -8.256616283687165381e-15 -3.695461363133201171e-13 -1.133408281507944371e-13 -1.020818019416107336e-13
1.490000000000000000e+02 1.059973835945129395e+00 1.632496643066406250e+01 4.978990107034654555e-14 -5.276728489919668696e-13 -1.433648935244419276e-13 -1.000802037949425141e-15
1.500000000000000000e+02 4.796681976318359375e+01 1.186976242065429688e+01 2.451964887096973189e-14 1.050842118671072717e-14 1.050842118671072717e-14 2.351884725653678038e-14
1.510000000000000000e+02 6.904343414306640625e+01 2.116096496582031250e+01 1.433648935244419276e-13 -7.581074982186686295e-14 2.026624073908026707e-14 -8.907137587178468041e-14
1.520000000000000000e+02 7.136521148681640625e+01 2.137543487548828125e+01 -1.276022524270134170e-14 4.028228149806876990e-14 8.256616283687165381e-15 7.956375629950690476e-14
1.530000000000000000e+02 7.215916442871093750e+01 2.143610191345214844e+01 -6.004811719476782494e-14 2.001604075898850282e-14 -1.200962445539310169e-14 -7.906335633932337625e-14
1.540000000000000000e+02 7.450863647460937500e+01 2.148075103759765625e+01 -7.280834328450211390e-14 6.029832395112316723e-14 -3.753007324672989059e-15 -5.004010189747125706e-15
1.550000000000000000e+02 7.453989410400390625e+01 2.230541801452636719e+01 5.079070099071360256e-14 2.176744400776264160e-14 2.176744400776264160e-14 -1.386110735739076727e-13
1.560000000000000000e+02 7.529052734375000000e+01 2.147045707702636719e+01 4.078268145825229840e-14 -2.827265704267566820e-14 3.753007324672989059e-15 -1.471179000020819694e-13
1.570000000000000000e+02 7.540105438232421875e+01 2.320176124572753906e+01 -5.279230421957950559e-14 2.502005094873562853e-16 -1.576263093303314350e-14 -6.755413692631148659e-14
1.580000000000000000e+02 7.823142242431640625e+01 2.694075584411621094e+01 3.152526186606628700e-14 1.736391521019176043e-13 6.154932385158198849e-14 7.105694342385976414e-14
1.590000000000000000e+02 7.958296203613281250e+01 2.219494247436523438e+01 -6.004811719476782494e-14 -1.401122870069854143e-13 -6.004811719476782494e-14 1.551243095294137925e-14
1.600000000000000000e+02 7.957003021240234375e+01 2.140717315673828125e+01 1.235990476633475055e-13 -3.853087824929463112e-14 2.552045048540268340e-14 -4.803849782157240678e-14
1.610000000000000000e+02 7.958167266845703125e+01 4.207471084594726562e+01 -2.051644071917203133e-14 -5.454371085648543338e-14 -2.251804564210382886e-14 -3.502806921064751181e-15
1.620000000000000000e+02 7.840753936767578125e+01 4.113273620605468750e+01 -3.490296837356868243e-14 2.137963336099404921e-13 5.366800753803246948e-14 1.451162933850842773e-14
1.630000000000000000e+02 7.949072265625000000e+01 4.044591522216796875e+01 -1.288532540215381328e-13 3.627907165220517482e-14 -2.777225538842624519e-14 -3.702967498061225660e-14
1.640000000000000000e+02 7.950962829589843750e+01 3.965304183959960938e+01 6.655333022968085155e-14 2.852285871683332696e-14 2.852285871683332696e-14 9.507618725244828400e-15
1.650000000000000000e+02 7.959930419921875000e+01 3.729307556152343750e+01 2.502005052521915490e-14 -3.502807175174635357e-14 -3.002406113848275424e-15 -3.953167816966168813e-14
1.660000000000000000e+02 7.962442016601562500e+01 3.651213836669921875e+01 6.255012377194904549e-14 -2.476985088394056955e-13 -5.554451077685249039e-14 1.401122768425900472e-14
1.670000000000000000e+02 7.962923431396484375e+01 3.572980499267578125e+01 -5.004010189747125706e-15 -1.851483647386659159e-13 -5.704571743366665393e-14 1.451162933850842773e-14
1.680000000000000000e+02 7.961228179931640625e+01 3.494987106323242188e+01 5.004010189747125706e-15 -1.351082738526229732e-13 -3.903127820947815962e-14 1.451162933850842773e-14
1.690000000000000000e+02 7.889129638671875000e+01 3.573513793945312500e+01 1.676343424153198952e-14 -8.431756947377758160e-14 -2.026624073908026707e-14 6.305052373213257400e-14
1.700000000000000000e+02 7.956922912597656250e+01 3.337837982177734375e+01 -2.502005094873562853e-16 2.276824562219559311e-14 6.755413438521264483e-15 5.554451077685249039e-14
1.710000000000000000e+02 7.956731414794921875e+01 3.177310562133789062e+01 -7.405934996122451319e-14 1.401122768425900472e-14 -1.801443583605670529e-14 8.907137587178468041e-14
1.720000000000000000e+02 7.869401550292968750e+01 3.180445098876953125e+01 1.190954344691685929e-13 2.111692168783180223e-13 9.907939540424598457e-14 -5.004010189747125706e-16
1.730000000000000000e+02 7.961376190185546875e+01 2.935836029052734375e+01 -7.230794332431858540e-14 1.476182931860019198e-14 -1.726383420171551802e-14 -3.052446194569922999e-14
1.740000000000000000e+02 7.962703704833984375e+01 2.856075286865234375e+01 2.577065215956034216e-14 5.679551406544310066e-14 2.476984885106149614e-14 2.552045048540268340e-14
1.750000000000000000e+02 7.451497650146484375e+01 2.316811752319335938e+01 -8.106496295632106830e-14 -1.491194998428160834e-13 -6.905533680686207210e-14 -5.504410996963601463e-15
1.760000000000000000e+02 7.962262725830078125e+01 2.537201881408691406e+01 -4.903929774193946378e-14 -1.811451650571976879e-13 -6.905533680686207210e-14 -2.952365863720038397e-14
1.770000000000000000e+02 7.961419677734375000e+01 2.457591438293457031e+01 3.803047490097931360e-14 -2.582069215557869502e-13 -6.605293026949732305e-14 3.102486190588275849e-14
1.780000000000000000e+02 7.960474395751953125e+01 2.378041648864746094e+01 -6.330072371222433825e-14 -1.643817325097315929e-13 -6.830473686658677934e-14 7.205774334422682115e-14
1.790000000000000000e+02 7.959442901611328125e+01 2.298646736145019531e+01 7.831275639904808350e-14 -2.409430890481373266e-13 -4.878909776184769953e-14 4.053248147816053415e-14
1.800000000000000000e+02 4.192962646484375000e-01 4.201246643066406250e+01 6.755413438521264483e-15 -6.147426317992810141e-13 -1.823961717339200872e-13 2.201764398785440585e-14
1.810000000000000000e+02 4.713356792926788330e-01 4.112078857421875000e+01 -1.113392215337967450e-13 -5.967281790225653637e-13 -2.124202235550404216e-13 -1.050842118671072717e-14
1.820000000000000000e+02 5.125543117523193359e+00 3.862041854858398438e+01 1.826463581614846954e-14 -3.009911926903779955e-13 -8.481796943396111010e-14 1.501202929869195624e-14
1.830000000000000000e+02 2.788421249389648438e+01 4.073885345458984375e+01 -5.398075920721306931e-14 6.836728855567561491e-14 4.315958550428879506e-15 2.964875862724626610e-14
1.840000000000000000e+02 4.767531585693359375e+01 4.074384307861328125e+01 -5.904731727440076794e-14 9.007217918028352643e-15 -1.501202929869195624e-14 6.204972381176551699e-14
1.850000000000000000e+02 6.970820617675781250e+01 3.840871810913085938e+01 7.380914659300095992e-15 -7.118204002577385725e-14 -1.914033913460143344e-14 -5.216680426935009496e-14
1.860000000000000000e+02 7.851355743408203125e+01 3.949745941162109375e+01 -5.729591741375841818e-14 -7.030634348358447139e-14 -3.828067826920286687e-14 -4.303448466720996568e-14
1.870000000000000000e+02 7.855879974365234375e+01 4.203106689453125000e+01 2.752205498481800731e-15 -9.032238254850707970e-14 -2.627105211974387067e-14 -3.052446194569922999e-14
1.880000000000000000e+02 3.832679390907287598e-01 1.894964456558227539e+00 4.853889778175593528e-14 6.655333022968085155e-14 3.452766840343103605e-14 -1.100882199392720293e-14
1.890000000000000000e+02 1.152246356010437012e+00 1.882933497428894043e+00 6.004811719476782494e-14 -2.001604075898850282e-14 1.200962445539310169e-14 -9.307458910578006450e-14
1.900000000000000000e+02 3.419874906539916992e+00 2.579285144805908203e+00 4.853889778175593528e-14 6.655333022968085155e-14 3.452766840343103605e-14 7.355895000104098469e-14
1.910000000000000000e+02 4.197229385375976562e+00 2.561213970184326172e+00 -6.530233032922203029e-14 1.776423585596494104e-14 -1.426142935841666348e-14 -1.501203056924137712e-15
1.920000000000000000e+02 3.670989274978637695e-01 4.284044265747070312e+00 8.681957605095880215e-14 -5.429350748826188011e-14 9.757819552369539906e-15 -5.604491073703601889e-14
1.930000000000000000e+02 1.123388290405273438e+00 5.014872074127197266e+00 6.405133042876320904e-14 -6.405133042876320904e-14 0.000000000000000000e+00 1.000802037949425141e-14
1.940000000000000000e+02 3.782026767730712891e-01 5.888108730316162109e+00 1.048340084988837184e-13 -9.232398238924119371e-14 3.753007324672989059e-15 2.051644071917203133e-14
1.950000000000000000e+02 3.799329102039337158e-01 8.298131942749023438e+00 -1.553745061213737677e-13 -4.325966668217162692e-13 -1.763913586591905891e-13 7.856295637913984775e-14
1.960000000000000000e+02 3.699700832366943359e-01 9.108913421630859375e+00 2.527025050531091915e-14 -3.780529491889672578e-13 -1.058348151955143535e-13 1.251002526260957745e-14
1.970000000000000000e+02 3.611831367015838623e-01 9.918147087097167969e+00 -9.582678888678947127e-14 -5.672045407141557138e-13 -1.989093975250308399e-13 4.753809447325708926e-14
1.980000000000000000e+02 3.557449281215667725e-01 1.072507572174072266e+01 2.126704235351321859e-14 -4.941460110020889918e-13 -1.418636800913641860e-13 2.351884725653678038e-14
1.990000000000000000e+02 3.531155586242675781e-01 1.152985286712646484e+01 3.953167816966168813e-14 -3.948163952889605088e-13 -1.065854151357896462e-13 -4.053248147816053415e-14
2.000000000000000000e+02 1.056744694709777832e+00 1.150040054321289062e+01 4.103288143834406265e-14 -3.712975565027532010e-13 -9.907939540424598457e-14 8.506816941405287436e-14
2.010000000000000000e+02 3.523244261741638184e-01 1.313866901397705078e+01 -1.751403460532375590e-15 -4.811355849322629386e-13 -1.448660934049925131e-13 -5.654531408535133641e-14
2.020000000000000000e+02 3.531356155872344971e-01 1.555022811889648438e+01 -1.018316019615189694e-13 -5.011515833396040787e-13 -1.808949583008423456e-13 2.101684237342145434e-14
2.030000000000000000e+02 3.536102473735809326e-01 1.635453414916992188e+01 1.070858150959731747e-13 -4.573665122846459763e-13 -1.050842084789754827e-13 3.452766840343103605e-14
2.040000000000000000e+02 3.538241684436798096e-01 1.715874481201171875e+01 -1.200962343895356499e-13 -6.004811990527325616e-13 -2.161732300326804634e-13 -3.502806921064751181e-15
2.050000000000000000e+02 3.541847765445709229e-01 1.796253967285156250e+01 1.703865455844610910e-13 -6.132414454712575846e-13 -1.328564672555335169e-13 -4.503609128420765773e-14
2.060000000000000000e+02 3.549050390720367432e-01 1.876648139953613281e+01 -1.698861456242775625e-13 -5.531932876189082915e-13 -2.169238367492193342e-13 1.501202929869195624e-14
2.070000000000000000e+02 3.579101562500000000e-01 2.198246192932128906e+01 -4.928949772203122803e-14 -4.786335715788181400e-13 -1.583769194350020948e-13 4.653729455289003225e-14
2.080000000000000000e+02 3.592230081558227539e-01 2.278581237792968750e+01 -1.976583908483084406e-14 -4.431050795380975238e-13 -1.388612803302630150e-13 3.052446194569922999e-14
2.090000000000000000e+02 3.607138097286224365e-01 2.359000205993652344e+01 -7.005613842129502361e-15 -4.833873644242980827e-13 -1.471179000020819694e-13 -1.501203056924137712e-15
2.100000000000000000e+02 3.623331487178802490e-01 2.439426040649414062e+01 -4.703769451307356075e-14 -5.234194696591976115e-13 -1.711371387484728057e-13 -4.003208151797700565e-15
2.110000000000000000e+02 3.644633591175079346e-01 2.519838523864746094e+01 -7.005613842129502361e-15 -4.833873644242980827e-13 -1.471179000020819694e-13 -3.502806921064751181e-15
2.120000000000000000e+02 1.088362097740173340e+00 2.436483383178710938e+01 3.753007324672989059e-15 -5.016519968523147632e-13 -1.493696930466442696e-13 3.302646513474866152e-14
2.130000000000000000e+02 3.710909783840179443e-01 2.680810356140136719e+01 1.073360150760649390e-13 -6.402630704262224359e-13 -1.598781193155526803e-13 -1.751403587587317678e-14
2.140000000000000000e+02 3.842319846153259277e-01 2.922019577026367188e+01 7.355895000104098469e-14 -2.887313868896179692e-13 -6.455173038894673754e-14 2.952365863720038397e-14
2.150000000000000000e+02 3.935372233390808105e-01 3.002622604370117188e+01 4.953969770212299228e-14 -3.447762908503904100e-13 -8.857097591160115191e-14 -2.201764398785440585e-14
2.160000000000000000e+02 4.052034616470336914e-01 3.083364677429199219e+01 -1.000802037949425141e-15 -2.291836696550336727e-13 -6.905533680686207210e-14 -3.202566521438160452e-14
2.170000000000000000e+02 4.182389974594116211e-01 3.164157867431640625e+01 9.007217918028352643e-15 -1.791435652164635739e-13 -5.104090097080536681e-14 3.352686848306397904e-14
2.180000000000000000e+02 1.254484415054321289e+00 3.162675285339355469e+01 6.280032375204080974e-14 -4.305950669809821552e-13 -1.103384216134296880e-13 5.254210423948774134e-14
2.190000000000000000e+02 4.375973641872406006e-01 3.326372146606445312e+01 -2.226784396794617010e-14 -2.154226368686687487e-13 -7.130714340395152839e-14 -1.200962445539310169e-14
2.200000000000000000e+02 3.855900168418884277e-01 3.567847442626953125e+01 9.482598896642241426e-14 -4.626207186428366036e-13 -1.103384216134296880e-13 -9.507618725244828400e-15
2.210000000000000000e+02 3.513033986091613770e-01 3.646853637695312500e+01 -9.632719562323657780e-14 -5.216680494697645276e-13 -1.853985714950212582e-13 -3.402726844324750755e-14
2.220000000000000000e+02 3.287664949893951416e-01 3.725236129760742188e+01 7.731195647868102649e-14 -4.701267587031709994e-13 -1.178444413449733497e-13 3.302646513474866152e-14
2.230000000000000000e+02 3.243020772933959961e-01 3.802949905395507812e+01 -9.407538902614712151e-14 -4.063256079257088205e-13 -1.501202997631831404e-13 4.653729455289003225e-14
2.240000000000000000e+02 3.525553345680236816e-01 3.878711700439453125e+01 1.506206997233666689e-13 -2.557049082023421516e-13 -3.152526186606628700e-14 -1.000802037949425141e-14
2.250000000000000000e+02 4.253182411193847656e-01 4.033027267456054688e+01 8.381716951359405310e-14 -4.215878405926243300e-13 -1.013312020013354409e-13 -1.371098736933570872e-13
2.260000000000000000e+02 9.743815422058105469e+00 1.806846499443054199e+00 -1.333568672157170454e-13 -1.944057843308519273e-13 -9.832879546397069181e-14 1.080866150163402317e-13
2.270000000000000000e+02 8.954480171203613281e+00 1.825033307075500488e+00 -1.053344084590672469e-13 1.378604804098959580e-13 9.757819552369539906e-15 1.005806020610601481e-13
2.280000000000000000e+02 8.169106483459472656e+00 1.834666132926940918e+00 -1.763913586591905891e-13 -1.213472410662580492e-13 -8.932157585187644466e-14 -5.004010189747125706e-16
2.290000000000000000e+02 7.385305404663085938e+00 1.840492010116577148e+00 -1.063352151556978820e-13 -9.132318246887413671e-14 -5.929751725449253219e-14 -9.957980214069309111e-14
2.300000000000000000e+02 6.602312564849853516e+00 1.844634056091308594e+00 -1.013312020013354409e-13 -2.264314495452335319e-13 -9.832879546397069181e-14 1.306046606584440606e-13
2.310000000000000000e+02 5.037613391876220703e+00 1.851744890213012695e+00 -7.506014649345978118e-15 4.253408470702643718e-14 1.050842118671072717e-14 1.185950345089850644e-13
2.320000000000000000e+02 4.256491184234619141e+00 1.855598807334899902e+00 4.628709118466647898e-14 1.113392215337967450e-13 4.728789449316532501e-14 -9.607699564314481355e-14
2.330000000000000000e+02 3.477259397506713867e+00 1.860530853271484375e+00 -5.829671733412547519e-14 2.076664239332969009e-14 -1.125902282105191443e-14 1.135910281308862013e-13
2.340000000000000000e+02 2.700121879577636719e+00 1.866701126098632812e+00 4.203368474684290867e-14 1.801443583605670529e-14 1.801443583605670529e-14 -4.003208151797700565e-15
2.350000000000000000e+02 1.924995303153991699e+00 1.873970270156860352e+00 -1.476182931860019198e-14 -9.782839550378716331e-14 -3.377706846315574329e-14 9.507618894651417851e-14
2.360000000000000000e+02 1.285211753845214844e+01 1.340930461883544922e+00 -9.182358242905766521e-14 -1.308548674147994029e-13 -6.680353698603619383e-14 1.080866150163402317e-13
2.370000000000000000e+02 1.360445690155029297e+01 1.207208991050720215e+00 -1.155926347478838934e-13 2.707169341129023188e-13 4.653729455289003225e-14 1.010810020212436766e-13
2.380000000000000000e+02 1.506818675994873047e+01 9.412139058113098145e-01 -1.060850151756061177e-13 4.603689120457471473e-14 -1.801443583605670529e-14 -7.606094980195862720e-14
2.390000000000000000e+02 1.579369831085205078e+01 8.111467957496643066e-01 -1.248500543400699048e-13 -7.756215476470689624e-15 -3.978187814975345238e-14 1.601283260719080226e-14
2.400000000000000000e+02 2.037841415405273438e+01 5.876033306121826172e+00 2.852285871683332696e-14 -3.352686848306397904e-14 -1.501203056924137712e-15 -9.332478908587182875e-14
2.410000000000000000e+02 2.017492294311523438e+01 4.971063613891601562e+00 8.757017599123409490e-14 3.753007494079578510e-14 3.753007494079578510e-14 -5.204170427930421283e-14
2.420000000000000000e+02 1.946432304382324219e+01 3.174488842487335205e-01 -2.001604075898850282e-14 2.201764432666758475e-13 6.004811719476782494e-14 9.407538902614712151e-14
2.430000000000000000e+02 2.273514556884765625e+01 1.789093255996704102e+00 1.005806020610601481e-13 5.454371085648543338e-14 4.653729455289003225e-14 -1.461170865291877563e-13
2.440000000000000000e+02 2.270616531372070312e+01 4.013655483722686768e-01 7.506014649345978118e-15 -4.253408470702643718e-14 -1.050842118671072717e-14 -7.656135653840573374e-14
2.450000000000000000e+02 2.368776893615722656e+01 1.306807279586791992e+00 1.190954344691685929e-13 1.311050606186275891e-13 7.506014988159157020e-14 -7.531034986168333445e-14
2.460000000000000000e+02 2.340315055847167969e+01 5.148512721061706543e-01 1.701363422162375377e-14 -1.070858150959731747e-13 -2.702165375408505793e-14 -1.035830085984248972e-13
2.470000000000000000e+02 2.408031845092773438e+01 6.402594447135925293e-01 -6.805453688649501509e-14 1.080866150163402317e-13 1.200962445539310169e-14 -6.705373696612795809e-14
2.480000000000000000e+02 2.243269920349121094e+01 1.033184289932250977e+00 -3.452766840343103605e-14 -2.206768432268593760e-13 -7.656135653840573374e-14 -1.125902282105191443e-13
2.490000000000000000e+02 2.199623680114746094e+01 3.019722998142242432e-01 -6.905533680686207210e-14 -1.210970478624298630e-13 -5.704571743366665393e-14 -5.204170427930421283e-14
2.500000000000000000e+02 2.120983314514160156e+01 2.595179975032806396e-01 3.727987496070402085e-14 -1.899021846892001708e-13 -4.578669122448295048e-14 -4.703769451307356075e-14
2.510000000000000000e+02 1.866593742370605469e+01 3.912149369716644287e-01 -2.669639411877894331e-13 -2.059150105201273950e-13 -1.418636800913641860e-13 1.135910281308862013e-13
2.520000000000000000e+02 2.079247856140136719e+01 5.161344528198242188e+00 1.871499781319271860e-13 2.231788430277770185e-13 1.230986477031639770e-13 -1.411130869273524713e-13
2.530000000000000000e+02 1.944900321960449219e+01 1.001353621482849121e+00 -7.405934996122451319e-14 1.401122768425900472e-14 -1.801443583605670529e-14 1.055846084391590112e-13
2.540000000000000000e+02 1.977026748657226562e+01 7.403981208801269531e+00 -7.556054984177509870e-14 1.506206997233666689e-13 2.251804564210382886e-14 -8.456776945386934585e-14
2.550000000000000000e+02 1.907494735717773438e+01 9.751464843750000000e+00 1.681347389873716347e-13 2.321860694161348437e-13 1.200962343895356499e-13 -7.806255641895631925e-14
2.560000000000000000e+02 1.892187118530273438e+01 1.055602264404296875e+01 -5.304250758780305885e-14 1.831467648979318019e-13 3.903127820947815962e-14 6.355093046857968053e-14
2.570000000000000000e+02 1.865639686584472656e+01 1.299014568328857422e+01 1.143416280711614941e-13 3.235092586612725585e-13 1.313552673749829314e-13 -7.005613842129502361e-15
2.580000000000000000e+02 1.863290214538574219e+01 1.462125873565673828e+01 1.135910281308862013e-13 2.316856559034241592e-13 1.035830085984248972e-13 -4.453568793589234021e-14
2.590000000000000000e+02 1.864267730712890625e+01 1.543140125274658203e+01 -1.158428279517120796e-13 1.333568672157170454e-13 5.254210593355363584e-15 -4.503608959014176322e-15
2.600000000000000000e+02 2.119788551330566406e+01 2.119440841674804688e+01 3.677947432289413454e-13 1.576263127184632240e-13 1.576263127184632240e-13 9.069767913051293706e-14
2.610000000000000000e+02 2.246312141418457031e+01 2.219523811340332031e+01 2.487618401200708540e-13 6.086126882413195327e-14 9.288693403851355779e-14 -6.505213034913026604e-15
2.620000000000000000e+02 2.430542945861816406e+01 2.267094993591308594e+01 2.111692168783180223e-13 7.906335633932337625e-14 8.706977603105056640e-14 1.368596804895289010e-13
2.630000000000000000e+02 2.637401771545410156e+01 2.113027572631835938e+01 6.680353698603619383e-14 5.754611400571839341e-15 2.176744400776264160e-14 1.326062689695076471e-14
2.640000000000000000e+02 2.715534591674804688e+01 2.091002082824707031e+01 3.803047490097931360e-14 6.204972381176551699e-14 3.002405859738391247e-14 -3.502807175174635357e-14
2.650000000000000000e+02 2.792407417297363281e+01 2.065891456604003906e+01 1.266014474244486765e-13 8.506817110811876886e-15 4.053248147816053415e-14 2.502005094873562853e-16
2.660000000000000000e+02 2.868423843383789062e+01 2.041232299804687500e+01 9.082278250869060821e-14 -9.832879546397069181e-14 -2.251804479507088161e-15 -3.803047490097931360e-14
2.670000000000000000e+02 3.164305305480957031e+01 1.920162963867187500e+01 2.121700303512122354e-13 1.481186999224490264e-13 1.080866150163402317e-13 -4.253408555405938443e-15
2.680000000000000000e+02 3.233621215820312500e+01 1.878440475463867188e+01 5.004010105043830980e-14 1.000802037949425141e-14 1.801443583605670529e-14 -8.056456299613753980e-14
2.690000000000000000e+02 3.366335678100585938e+01 1.787673759460449219e+01 8.106496295632106830e-14 -1.311050606186275891e-13 -1.501202929869195624e-14 -6.680353698603619383e-14
2.700000000000000000e+02 3.608683776855468750e+01 1.694423675537109375e+01 1.582518092805608456e-14 -3.896872652038932405e-14 -6.943063847106561298e-15 1.751403460532375590e-15
2.710000000000000000e+02 3.494486618041992188e+01 1.691988754272460938e+01 1.271018609371593611e-13 4.303448466720996568e-14 5.104090097080536681e-14 4.228388472693467293e-14
2.720000000000000000e+02 3.616948318481445312e+01 1.588773250579833984e+01 -4.053248147816053415e-14 8.556856937423640286e-14 1.351082687704252897e-14 -2.814755705262978608e-14
2.730000000000000000e+02 3.793832015991210938e+01 1.427265167236328125e+01 5.004010189747125706e-15 -7.506014988159157020e-14 -2.101684237342145434e-14 -5.429350748826188011e-14
2.740000000000000000e+02 3.849128723144531250e+01 1.369780540466308594e+01 5.079070099071360256e-14 5.179150429921244858e-14 3.077466192579099424e-14 4.287811222075145479e-14
2.750000000000000000e+02 3.954961395263671875e+01 1.250254917144775391e+01 7.130714679208331741e-15 -3.377706719260632241e-15 1.125902239753544080e-15 4.586487914177810044e-14
2.760000000000000000e+02 4.004820251464843750e+01 1.187732315063476562e+01 1.122149248522497089e-13 4.165838477670526230e-14 4.616199119462059686e-14 -7.823457186988472256e-14
2.770000000000000000e+02 4.050875854492187500e+01 1.122286415100097656e+01 3.452766840343103605e-14 1.806447650970141594e-13 6.455173038894673754e-14 -4.491099129416177560e-14
2.780000000000000000e+02 4.202901840209960938e+01 8.368315696716308594e+00 -1.356086738128065017e-13 1.706367387882892772e-13 1.050842118671072717e-14 -1.476182999622654979e-13
2.790000000000000000e+02 4.171987152099609375e+01 9.134892463684082031e+00 1.205966479022463345e-13 1.546239129573620530e-13 8.256616283687165381e-14 2.577065215956034216e-14
2.800000000000000000e+02 4.230686950683593750e+01 7.522045135498046875e+00 2.156728300724969349e-13 2.296840560626900452e-13 1.336070739720723877e-13 7.506014649345978118e-15
2.810000000000000000e+02 4.280775451660156250e+01 4.894177913665771484e+00 9.557658890669770702e-14 -5.054050101062183831e-14 1.351082687704252897e-14 -5.504411081666896188e-14
2.820000000000000000e+02 4.209296417236328125e+01 4.275667190551757812e+00 -1.000802037949425141e-14 -5.004010105043830980e-14 -1.801443583605670529e-14 -1.010810020212436766e-13
2.830000000000000000e+02 4.433968353271484375e+01 4.001817226409912109e+00 -8.932157585187644466e-14 1.218476410264415777e-13 9.757819552369539906e-15 -4.253408470702643718e-14
2.840000000000000000e+02 4.654556655883789062e+01 3.730792760848999023e+00 8.706977603105056640e-14 8.306656957331876034e-14 5.104090097080536681e-14 -8.456776945386934585e-14
2.850000000000000000e+02 4.720787811279296875e+01 3.678054332733154297e+00 -7.305854326459387815e-14 -7.706175649858926224e-14 -4.503609128420765773e-14 6.855493684667854359e-14
2.860000000000000000e+02 4.840839004516601562e+01 3.623860836029052734e+00 -4.253408470702643718e-14 -1.326062604991781746e-13 -5.254210423948774134e-14 9.357498906596359300e-14
2.870000000000000000e+02 4.779375839233398438e+01 5.273889541625976562e+00 7.155734338404329264e-14 -1.065854151357896462e-13 -1.050842118671072717e-14 -3.202566521438160452e-14
2.880000000000000000e+02 4.778911590576171875e+01 4.465427875518798828e+00 -1.000802037949425141e-14 -5.004010105043830980e-14 -1.801443583605670529e-14 5.004010105043830980e-14
2.890000000000000000e+02 4.848965454101562500e+01 6.862219810485839844e+00 2.151724233360498284e-14 -3.652927163229693908e-14 -4.503608959014176322e-15 -3.102486190588275849e-14
2.900000000000000000e+02 4.855233001708984375e+01 7.676135063171386719e+00 -1.000802037949425141e-15 -2.291836696550336727e-13 -6.905533680686207210e-14 -1.751403587587317678e-14
2.910000000000000000e+02 4.865792465209960938e+01 8.484895706176757812e+00 -4.753809447325708926e-14 -1.576263127184632240e-13 -6.154932385158198849e-14 1.251002526260957745e-14
2.920000000000000000e+02 4.894847106933593750e+01 1.008674144744873047e+01 9.857899544406245607e-14 1.566255127980961670e-13 7.656135653840573374e-14 -7.305854326459387815e-14
2.930000000000000000e+02 4.948369598388671875e+01 1.247221469879150391e+01 1.456166865690042278e-13 1.996600042415697107e-13 1.035830085984248972e-13 2.351884725653678038e-14
2.940000000000000000e+02 4.970121002197265625e+01 1.326047515869140625e+01 -4.253408470702643718e-14 1.876503780921107145e-13 4.353488801552528320e-14 9.257418236933295796e-14
2.950000000000000000e+02 5.020406341552734375e+01 1.481187725067138672e+01 9.007217918028352643e-15 -1.901523745048965680e-14 -3.002406113848275424e-15 5.054050101062183831e-14
2.960000000000000000e+02 5.047488021850585938e+01 1.557889556884765625e+01 6.705373696612795809e-14 -1.701363422162375377e-14 1.501202929869195624e-14 1.901523745048965680e-14
2.970000000000000000e+02 5.107189559936523438e+01 1.884762954711914062e+01 6.605293026949732305e-14 7.405934996122451319e-14 4.203368474684290867e-14 1.190954344691685929e-13
2.980000000000000000e+02 5.138301467895507812e+01 1.786861419677734375e+01 3.002406113848275424e-15 -3.302646513474866152e-14 -9.007217918028352643e-15 9.132318246887413671e-14
2.990000000000000000e+02 5.177217864990234375e+01 1.860038757324218750e+01 1.261010474642651480e-13 5.404330750817011586e-14 5.404330750817011586e-14 8.206576287668812530e-14
3.000000000000000000e+02 5.576075363159179688e+01 2.156439018249511719e+01 -7.581074982186686295e-14 1.326062689695076471e-14 -1.876503747039789255e-14 -4.328468803543351895e-14
3.010000000000000000e+02 5.737581634521484375e+01 2.193586540222167969e+01 -2.201764398785440585e-14 8.206576287668812530e-14 1.801443583605670529e-14 -1.000802037949425141e-15
3.020000000000000000e+02 5.885757446289062500e+01 2.306893539428710938e+01 -3.552847171192988207e-14 3.052446194569922999e-14 -1.501203056924137712e-15 -3.853087824929463112e-14
3.030000000000000000e+02 5.901277542114257812e+01 2.220466423034667969e+01 -1.258508542604369618e-13 -7.681155651849749799e-14 -6.079872391130669573e-14 -1.150922280114367868e-14
3.040000000000000000e+02 5.983990478515625000e+01 2.231407165527343750e+01 -1.298540539419051898e-13 1.273520541409875473e-13 -7.506015284620688559e-16 -1.951563910473907981e-14
3.050000000000000000e+02 6.238969039916992188e+01 2.214776992797851562e+01 2.401924891078620339e-14 5.604491073703601889e-14 2.401924891078620339e-14 9.507618725244828400e-15
3.060000000000000000e+02 6.241021347045898438e+01 2.293699073791503906e+01 -3.452766840343103605e-14 -6.054852393121493148e-14 -2.852285871683332696e-14 -8.306656957331876034e-14
3.070000000000000000e+02 6.326329803466796875e+01 2.277027320861816406e+01 -1.526223097284961500e-14 -5.229190425939597708e-14 -2.026624073908026707e-14 2.451964887096973189e-14
3.080000000000000000e+02 6.566838073730468750e+01 2.134321022033691406e+01 1.103384216134296880e-13 4.728789449316532501e-14 4.728789449316532501e-14 -1.371098736933570872e-13
3.090000000000000000e+02 4.304639434814453125e+01 5.525466442108154297e+00 -5.122855264994008451e-14 -2.195509399283146479e-14 -2.195509399283146479e-14 6.204972381176551699e-14
3.100000000000000000e+02 4.781464767456054688e+01 3.649998188018798828e+00 -3.352686848306397904e-14 -1.516214996437337259e-13 -5.554451077685249039e-14 2.101684237342145434e-14
3.110000000000000000e+02 4.582341384887695312e+01 3.816830635070800781e+00 -4.378508799561704745e-14 -1.876503747039789255e-14 -1.876503747039789255e-14 2.301844560228735737e-14
3.120000000000000000e+02 6.765880584716796875e+01 2.183815956115722656e+01 -1.451162933850842773e-14 3.953167816966168813e-14 7.506014649345978118e-15 -6.104892389139845998e-14
3.130000000000000000e+02 6.703143310546875000e+01 2.187313079833984375e+01 9.832879546397069181e-14 1.926543912464731556e-14 3.527827173183811782e-14 -3.903127820947815962e-14
3.140000000000000000e+02 7.057451629638671875e+01 2.131236076354980469e+01 6.004811719476782494e-14 -2.001604075898850282e-14 1.200962445539310169e-14 6.255012377194904549e-14
3.150000000000000000e+02 6.902838897705078125e+01 2.189816093444824219e+01 -8.506817110811876886e-15 -1.866495781717436575e-13 -5.854691731421723944e-14 6.154932385158198849e-14
3.160000000000000000e+02 1.796411705017089844e+01 1.168205022811889648e+00 -1.851483647386659159e-13 -1.251002475438980910e-13 -9.307458910578006450e-14 5.154130431912068433e-14
3.170000000000000000e+02 1.651307678222656250e+01 6.940427422523498535e-01 -1.165934346682509504e-13 4.153328478665938017e-14 -2.251804564210382886e-14 -1.180946345488015359e-13
3.180000000000000000e+02 1.724569702148437500e+01 1.262830257415771484e+00 -1.271018609371593611e-13 3.702967498061225660e-14 -2.702165375408505793e-14 -1.261010474642651480e-13
3.190000000000000000e+02 2.154986953735351562e+01 1.583842754364013672e+00 -9.307458910578006450e-14 -3.372702778951103264e-13 -1.291034607778934751e-13 -1.030826086382413687e-13
3.200000000000000000e+02 2.326751136779785156e+01 1.965006828308105469e+00 6.154932385158198849e-14 1.235990476633475055e-13 5.554451077685249039e-14 -1.391114735340912012e-13
3.210000000000000000e+02 2.229739379882812500e+01 3.206500053405761719e+00 4.053248147816053415e-14 1.746399520222846613e-13 6.455173038894673754e-14 -8.703849679837435960e-14
3.220000000000000000e+02 4.335561370849609375e+01 6.289378166198730469e+00 8.569367275241407400e-14 1.282277506831769331e-13 6.417642703067730214e-14 -7.155734338404329264e-14
3.230000000000000000e+02 4.579468536376953125e+01 4.637695312500000000e+00 8.006416303595401129e-14 8.006416303595401129e-14 4.803849782157240678e-14 7.506014649345978118e-15
3.240000000000000000e+02 1.437925815582275391e+01 1.750678658485412598e+00 -1.496198998029996119e-13 -1.556247128777291100e-13 -9.157338244896590096e-14 -6.505213034913026604e-15
3.250000000000000000e+02 1.582215404510498047e+01 1.488836169242858887e+00 -2.446960819732502124e-13 -1.506206997233666689e-13 -1.185950345089850644e-13 -1.225982477429804485e-13
3.260000000000000000e+02 1.510574626922607422e+01 1.617762088775634766e+00 -1.030826086382413687e-13 -2.271820562617724026e-13 -9.907939540424598457e-14 9.407538902614712151e-14
3.270000000000000000e+02 7.294643402099609375e+01 2.147139739990234375e+01 -6.054852393121493148e-14 6.555253030931379454e-14 1.501203056924137712e-15 6.805453688649501509e-14
3.280000000000000000e+02 7.372673797607421875e+01 2.147983932495117188e+01 9.282438912568830025e-14 1.999101974453978969e-13 8.782037597132585915e-14 -7.355895000104098469e-14
3.290000000000000000e+02 7.611219787597656250e+01 2.145014381408691406e+01 -3.227586519447336877e-14 -1.053344084590672469e-13 -4.128308141843582690e-14 4.503609128420765773e-14
3.300000000000000000e+02 7.372356414794921875e+01 2.226729202270507812e+01 -1.251002526260957745e-14 1.751403587587317678e-14 1.501203056924137712e-15 6.405133042876320904e-14
3.310000000000000000e+02 7.535866546630859375e+01 2.230793190002441406e+01 -1.040834085586084257e-13 2.401924891078620339e-14 -2.401924891078620339e-14 -6.805453688649501509e-14
3.320000000000000000e+02 8.918638229370117188e+00 3.129420757293701172e+00 -1.798941583804752886e-13 -1.228484409468086347e-13 -9.082278250869060821e-14 6.405133042876320904e-14
3.330000000000000000e+02 1.054290485382080078e+01 2.358867645263671875e+00 -5.329270756789482311e-14 -1.143416280711614941e-13 -5.029030103053007406e-14 9.607699564314481355e-14
3.340000000000000000e+02 8.934060096740722656e+00 2.476157426834106445e+00 -1.163432279118956081e-13 -1.413632801311806575e-13 -7.731195647868102649e-14 1.281026608575264181e-13
3.350000000000000000e+02 8.137133598327636719e+00 2.501413822174072266e+00 -1.018316019615189694e-13 1.393616802904465435e-13 1.125902282105191443e-14 0.000000000000000000e+00
3.360000000000000000e+02 7.344563007354736328e+00 2.517472028732299805e+00 -4.053248147816053415e-14 -1.546239129573620530e-13 -5.854691731421723944e-14 8.306656957331876034e-14
3.370000000000000000e+02 1.194035410881042480e+00 7.422776699066162109e+00 -1.251002475438980910e-13 -1.451162866088206993e-13 -8.106496295632106830e-14 6.955573676704560060e-14
3.380000000000000000e+02 6.554718017578125000e+00 2.528998851776123047e+00 -2.351884725653678038e-14 -1.015814019814272051e-13 -3.753007494079578510e-14 -8.406736949368581735e-14
3.390000000000000000e+02 1.858662843704223633e+00 4.151811599731445312e+00 4.728789449316532501e-14 2.026624073908026707e-14 2.026624073908026707e-14 -8.006416303595401129e-14
3.400000000000000000e+02 2.648560762405395508e+00 2.601700544357299805e+00 4.153328478665938017e-14 6.355093046857968053e-14 3.152526186606628700e-14 3.953167816966168813e-14
3.410000000000000000e+02 1.883320093154907227e+00 2.626268386840820312e+00 1.426142935841666348e-14 1.433648935244419276e-13 4.728789449316532501e-14 2.201764398785440585e-14
3.420000000000000000e+02 3.729506134986877441e-01 2.687660455703735352e+00 -1.676343424153198952e-14 -7.581074982186686295e-14 -2.777225538842624519e-14 -9.257418236933295796e-14
3.430000000000000000e+02 1.133640289306640625e+01 2.255797624588012695e+00 -1.756407519426517183e-13 -2.952365863720038397e-14 -6.154932385158198849e-14 -5.904731727440076794e-14
3.440000000000000000e+02 1.053126144409179688e+01 1.734623908996582031e+00 -2.101684169579509653e-13 -9.007218256841531545e-14 -9.007218256841531545e-14 -4.103288143834406265e-14
3.450000000000000000e+02 1.363810062408447266e+01 1.883384823799133301e+00 -1.456166865690042278e-13 -1.996600042415697107e-13 -1.035830085984248972e-13 1.215974478226133915e-13
3.460000000000000000e+02 1.288177871704101562e+01 2.011864185333251953e+00 -3.953167816966168813e-14 3.948163952889605088e-13 1.065854151357896462e-13 8.156536291650459680e-14
3.470000000000000000e+02 2.194324302673339844e+01 2.150238418579101562e+01 3.684202465673025451e-13 -3.440256841338515392e-14 1.002052987027907127e-13 8.971642873056850931e-14
3.480000000000000000e+02 2.324003028869628906e+01 2.175346946716308594e+01 4.155830410704219879e-13 2.124202235550404216e-13 1.884009712561224292e-13 1.150922347877003649e-13
3.490000000000000000e+02 2.557759475708007812e+01 2.127058982849121094e+01 -5.504410996963601463e-15 -1.396118734942747297e-13 -4.353488801552528320e-14 -1.676343424153198952e-14
3.500000000000000000e+02 4.810620117187500000e+01 9.358912467956542969e+00 6.255012631304788726e-15 -8.882117589169291616e-14 -2.476984885106149614e-14 1.150922347877003649e-13
3.510000000000000000e+02 4.427467346191406250e+01 7.847494125366210938e+00 8.506817110811876886e-15 1.266014474244486765e-13 4.053248147816053415e-14 -9.482598896642241426e-14
3.520000000000000000e+02 4.156032562255859375e+01 1.198604011535644531e+01 1.135910281308862013e-13 -1.286030608177099466e-13 -4.503608959014176322e-15 -1.601283260719080226e-14
3.530000000000000000e+02 4.006087112426757812e+01 1.290206909179687500e+01 -1.426142935841666348e-14 -1.433648935244419276e-13 -4.728789449316532501e-14 -3.002406113848275424e-15
3.540000000000000000e+02 2.354990386962890625e+01 2.290840911865234375e+01 1.386110735739076727e-13 -1.235990476633475055e-13 4.503608959014176322e-15 6.955573676704560060e-14
3.550000000000000000e+02 4.374022293090820312e+01 7.142287254333496094e+00 -5.354290754798658736e-14 -9.157338244896590096e-14 -4.353488801552528320e-14 1.526223097284961500e-14
3.560000000000000000e+02 4.733725738525390625e+01 1.197995948791503906e+01 1.160930347080674219e-13 1.641315257533762506e-13 8.406736949368581735e-14 1.371098736933570872e-13
3.570000000000000000e+02 4.309687805175781250e+01 7.870131969451904297e+00 5.241700424944185921e-14 1.139663314891556367e-13 4.991500106039242768e-14 -2.051644071917203133e-14
3.580000000000000000e+02 3.300896835327148438e+01 1.833961486816406250e+01 9.557658890669770702e-14 1.095878216731543953e-13 6.154932385158198849e-14 5.004010189747125706e-16
3.590000000000000000e+02 3.208554458618164062e+01 1.980417251586914062e+01 6.649078531685559401e-14 7.424699825222744187e-14 4.222133303784583735e-14 3.102486190588275849e-14
3.600000000000000000e+02 2.538014030456542969e+01 2.354227828979492188e+01 1.556247128777291100e-13 8.957178260823178695e-14 7.355895000104098469e-14 7.355895000104098469e-14
3.610000000000000000e+02 3.556356048583984375e+01 1.641048049926757812e+01 1.000802037949425141e-14 1.301042606982605321e-13 4.203368474684290867e-14 2.539535049535680128e-14
3.620000000000000000e+02 3.479754257202148438e+01 1.795179367065429688e+01 7.978268382318604024e-14 1.256944716495830838e-13 6.164314799708345283e-14 -2.802245536851800944e-14
3.630000000000000000e+02 2.759955215454101562e+01 2.187089729309082031e+01 7.418444656313860630e-14 -1.054595118372449181e-13 -9.382518735198946275e-15 1.651323256737433076e-14
3.640000000000000000e+02 3.020273208618164062e+01 1.991020393371582031e+01 4.253408470702643718e-14 -2.752205540833448094e-14 4.503608959014176322e-15 -3.753007494079578510e-14
3.650000000000000000e+02 3.105189514160156250e+01 2.206140518188476562e+01 3.102486190588275849e-14 1.391114735340912012e-13 5.104090097080536681e-14 1.015814019814272051e-13
3.660000000000000000e+02 3.846054840087890625e+01 1.472375869750976562e+01 1.261010474642651480e-13 5.404330750817011586e-14 5.404330750817011586e-14 -2.101684237342145434e-14
3.670000000000000000e+02 4.221637344360351562e+01 5.041628837585449219e+00 -4.253408470702643718e-14 2.752205540833448094e-14 -4.503608959014176322e-15 9.657739560332834206e-14
3.680000000000000000e+02 4.651434707641601562e+01 5.343604564666748047e+00 1.093376216930626310e-13 1.383608803700794865e-13 7.430954994131627744e-14 -6.505213034913026604e-15
3.690000000000000000e+02 4.055656814575195312e+01 1.225820159912109375e+01 2.351884725653678038e-14 1.015814019814272051e-13 3.753007494079578510e-14 -4.703769451307356075e-14
3.700000000000000000e+02 3.730659866333007812e+01 1.586026382446289062e+01 5.513793496217042622e-14 2.066343380039900590e-13 7.853168392272721898e-14 1.601283260719080226e-14
3.710000000000000000e+02 4.188118743896484375e+01 1.020035362243652344e+01 1.611291259922750796e-13 1.891515779726613000e-13 1.050842084789754827e-13 -8.882117927982470518e-15
3.720000000000000000e+02 4.146504592895507812e+01 1.090655612945556641e+01 4.478589130411589347e-14 -7.230794332431858540e-14 -8.256616283687165381e-15 -8.306656957331876034e-14
3.730000000000000000e+02 3.413369369506835938e+01 1.841910362243652344e+01 2.248676979755941108e-14 5.538813494226219047e-14 2.336247142194648047e-14 -6.805453688649501509e-14
3.740000000000000000e+02 4.266143035888671875e+01 4.181293964385986328e+00 -4.003208151797700565e-14 -4.003208151797700565e-14 -2.401924891078620339e-14 5.154130431912068433e-14
3.750000000000000000e+02 4.352939605712890625e+01 4.073114871978759766e+00 -5.904731727440076794e-14 -7.105694342385976414e-14 -3.903127820947815962e-14 -1.065854151357896462e-13
3.760000000000000000e+02 3.458049392700195312e+01 1.897858810424804688e+01 9.407538902614712151e-14 8.606896933441993136e-14 5.404330750817011586e-14 2.301844560228735737e-14
3.770000000000000000e+02 3.954430770874023438e+01 1.352597141265869141e+01 2.439454888092384977e-14 1.019567053396966405e-13 3.790537491093343148e-14 -1.000802037949425141e-15
3.780000000000000000e+02 3.670579147338867188e+01 1.640872192382812500e+01 4.871090815048665507e-15 2.087610530813631057e-15 2.087610530813631057e-15 -1.150922347877003649e-13
3.790000000000000000e+02 3.789162063598632812e+01 1.529924488067626953e+01 -3.277626515465689727e-14 -5.979791721467606069e-14 -2.777225538842624519e-14 -2.502005052521915490e-14
3.800000000000000000e+02 6.977088928222656250e+01 2.195626831054687500e+01 3.552847171192988207e-14 -3.052446194569922999e-14 1.501203056924137712e-15 -6.905533680686207210e-14
3.810000000000000000e+02 7.050794982910156250e+01 2.273280334472656250e+01 6.129912387149022424e-14 2.627105211974387067e-14 2.627105211974387067e-14 6.355093046857968053e-14
3.820000000000000000e+02 7.132914733886718750e+01 2.209396171569824219e+01 7.681155651849749799e-14 -1.043336085387001899e-13 -8.256616283687165381e-15 -5.204170427930421283e-14
3.830000000000000000e+02 7.291908264160156250e+01 2.222282028198242188e+01 4.203368474684290867e-14 3.382710778154773834e-13 1.140914348673333079e-13 -1.686351389475551632e-13
3.840000000000000000e+02 7.212306213378906250e+01 2.216382598876953125e+01 4.228388472693467293e-14 4.756311447126626568e-13 1.553745061213737677e-13 1.140914348673333079e-13
3.850000000000000000e+02 7.956247711181640625e+01 3.257921981811523438e+01 3.903127820947815962e-14 1.311050606186275891e-13 5.104090097080536681e-14 -1.501202929869195624e-14
3.860000000000000000e+02 7.869608306884765625e+01 3.795204925537109375e+01 1.401122768425900472e-14 6.004812227696550847e-15 6.004812227696550847e-15 1.801443583605670529e-14
3.870000000000000000e+02 7.950051879882812500e+01 4.124710464477539062e+01 1.130906281707026728e-13 -4.303448466720996568e-14 2.101684237342145434e-14 7.005613842129502361e-15
3.880000000000000000e+02 7.953831481933593750e+01 3.886303710937500000e+01 -4.778829445334885351e-14 2.527025050531091915e-14 -6.755413438521264483e-15 1.000802037949425141e-15
3.890000000000000000e+02 7.861377716064453125e+01 3.872516632080078125e+01 2.026624073908026707e-14 -8.281636281696341806e-14 -1.876503747039789255e-14 -5.604491073703601889e-14
3.900000000000000000e+02 7.748584747314453125e+01 3.923250961303710938e+01 -6.380113044867144478e-14 -1.188452412653404067e-13 -5.479391083657719763e-14 -1.000802037949425141e-14
3.910000000000000000e+02 7.882312011718750000e+01 3.500287628173828125e+01 -2.301844560228735737e-14 -1.471179000020819694e-13 -5.104090097080536681e-14 1.170938346284344789e-13
3.920000000000000000e+02 7.958827209472656250e+01 3.416793823242187500e+01 -4.353488801552528320e-14 -2.016616040823038247e-13 -7.355895000104098469e-14 1.501202929869195624e-14
3.930000000000000000e+02 7.867079162597656250e+01 3.264164733886718750e+01 -3.627907165220517482e-14 -6.129912387149022424e-14 -2.927345865710861972e-14 -1.451162933850842773e-14
3.940000000000000000e+02 7.868397521972656250e+01 3.346159744262695312e+01 6.255012631304788726e-15 -8.882117589169291616e-14 -2.476984885106149614e-14 1.501203056924137712e-15
3.950000000000000000e+02 7.959611511230468750e+01 3.016014671325683594e+01 7.180754336413505690e-14 3.077466192579099424e-14 3.077466192579099424e-14 1.501203056924137712e-15
3.960000000000000000e+02 7.884999084472656250e+01 2.933002853393554688e+01 5.204170427930421283e-14 6.805453688649501509e-14 3.602887167211341057e-14 5.404330750817011586e-14
3.970000000000000000e+02 7.891684722900390625e+01 2.774025344848632812e+01 -3.577867169202164632e-14 5.329270756789482311e-14 5.254210593355363584e-15 5.504410996963601463e-15
3.980000000000000000e+02 7.963410949707031250e+01 2.776359367370605469e+01 3.552847171192988207e-14 -3.052446194569922999e-14 1.501203056924137712e-15 -3.753007494079578510e-14
3.990000000000000000e+02 7.819559478759765625e+01 2.849212455749511719e+01 2.652125379390152943e-14 1.486190998826325549e-13 5.254210423948774134e-14 1.396118734942747297e-13
4.000000000000000000e+02 7.957881927490234375e+01 3.096598815917968750e+01 8.606896933441993136e-14 1.741395520621011328e-13 7.806255641895631925e-14 9.207378240914942946e-14
4.010000000000000000e+02 7.780702972412109375e+01 3.181331634521484375e+01 3.352686848306397904e-14 -1.686351389475551632e-13 -4.053248147816053415e-14 3.102486190588275849e-14
4.020000000000000000e+02 7.712293243408203125e+01 2.302153778076171875e+01 -6.880513682677030785e-14 1.626303258728256651e-14 -1.576263093303314350e-14 2.502005094873562853e-15
4.030000000000000000e+02 7.884360504150390625e+01 2.455602455139160156e+01 -2.802245536851800944e-14 -1.200962445539310169e-14 -1.200962445539310169e-14 7.155734338404329264e-14
4.040000000000000000e+02 7.881191253662109375e+01 2.376156044006347656e+01 2.401924891078620339e-14 -2.642117210779892922e-13 -7.205774334422682115e-14 -1.020818019416107336e-13
4.050000000000000000e+02 7.870803833007812500e+01 2.140846061706542969e+01 -3.602887167211341057e-14 -2.441956955655938399e-13 -8.406736949368581735e-14 -3.102486190588275849e-14
4.060000000000000000e+02 7.874406433105468750e+01 2.218557739257812500e+01 5.154130431912068433e-14 -2.066656172366662658e-13 -4.653729455289003225e-14 -8.807057595141762341e-14
4.070000000000000000e+02 7.713890838623046875e+01 4.088758850097656250e+01 -6.405133042876320904e-14 -9.607699564314481355e-14 -4.803849782157240678e-14 1.451162933850842773e-14
4.080000000000000000e+02 4.171526730060577393e-01 3.488173294067382812e+01 -9.232398238924119371e-14 -4.055750147616971057e-13 -1.493696930466442696e-13 7.506014649345978118e-15
4.090000000000000000e+02 4.348199069499969482e-01 3.407580947875976562e+01 1.005806020610601481e-13 -3.457770907707574670e-13 -7.355895000104098469e-14 -5.604491073703601889e-14
4.100000000000000000e+02 3.787659704685211182e-01 2.841713142395019531e+01 4.378508799561704745e-14 -3.014916062030886801e-13 -7.731195647868102649e-14 6.505213034913026604e-15
4.110000000000000000e+02 3.750408291816711426e-01 2.761340522766113281e+01 -9.157338244896590096e-14 -4.738797245232295730e-13 -1.696359388679222202e-13 -3.052446194569922999e-14
4.120000000000000000e+02 3.570432364940643311e-01 2.117960929870605469e+01 5.229190425939597708e-14 -5.952269926945419343e-13 -1.628805326291810074e-13 1.301042606982605321e-14
4.130000000000000000e+02 1.073911070823669434e+00 2.195353698730468750e+01 1.701363422162375377e-14 -5.874707729829065084e-13 -1.711371387484728057e-13 3.052446194569922999e-14
4.140000000000000000e+02 1.095335125923156738e+00 2.516923332214355469e+01 5.529431079676072613e-14 -3.880609754976921399e-13 -9.983000212078485536e-14 1.551243095294137925e-14
4.150000000000000000e+02 1.116323113441467285e+00 2.678253746032714844e+01 -5.504410996963601463e-15 -4.598685256380907749e-13 -1.396118734942747297e-13 2.802245536851800944e-14
4.160000000000000000e+02 1.104872703552246094e+00 2.597489547729492188e+01 7.956375629950690476e-14 -5.149126567835504709e-13 -1.306046606584440606e-13 -5.004010189747125706e-15
4.170000000000000000e+02 3.674772679805755615e-01 2.600293159484863281e+01 -4.453568793589234021e-14 -5.909735591516640518e-13 -1.906527778532118855e-13 5.104090097080536681e-14
4.180000000000000000e+02 1.128530025482177734e+00 2.759044456481933594e+01 5.079070099071360256e-14 -2.984892064419875091e-13 -7.430954994131627744e-14 1.346078738924394447e-13
4.190000000000000000e+02 1.140363931655883789e+00 2.839461898803710938e+01 -2.952365863720038397e-14 -5.159134295988632157e-13 -1.636311257931927221e-13 6.004811719476782494e-14
4.200000000000000000e+02 1.180683612823486328e+00 3.000221252441406250e+01 3.352686848306397904e-14 -1.686351389475551632e-13 -4.053248147816053415e-14 1.100882199392720293e-14
4.210000000000000000e+02 2.737331867218017578e+00 2.997203826904296875e+01 1.008308020411519124e-13 -3.685453363929530601e-13 -8.031436301604577555e-14 -7.956375629950690476e-14
4.220000000000000000e+02 1.317912697792053223e+00 3.328467559814453125e+01 4.803849782157240678e-14 -2.081668171172168513e-13 -4.803849782157240678e-14 -4.203368474684290867e-14
4.230000000000000000e+02 4.305098652839660645e-01 3.245170974731445312e+01 7.255814330441034965e-14 -1.976583908483084406e-13 -3.753007494079578510e-14 5.004010189747125706e-16
4.240000000000000000e+02 1.316963315010070801e+00 3.412572860717773438e+01 -8.531836939414463861e-14 -4.025726150005959347e-13 -1.463672932855430986e-13 5.304250758780305885e-14
4.250000000000000000e+02 1.174107193946838379e+00 3.575263595581054688e+01 -1.110890215537049808e-13 -6.194964246447609568e-13 -2.191756433463087905e-13 1.501202929869195624e-14
4.260000000000000000e+02 9.627352356910705566e-01 3.794008255004882812e+01 7.506014988159157020e-14 -4.253408606227915278e-13 -1.050842084789754827e-13 6.805453688649501509e-14
4.270000000000000000e+02 1.190049529075622559e+00 3.925522613525390625e+01 -2.164234401771675947e-14 -5.125357061507018752e-13 -1.602534158975585377e-13 2.401924891078620339e-14
4.280000000000000000e+02 3.868489563465118408e-01 3.955094146728515625e+01 -2.001604075898850282e-14 -4.203368339159019307e-13 -1.321058605389946461e-13 -2.201764398785440585e-14
4.290000000000000000e+02 1.954470992088317871e+00 3.929019546508789062e+01 -7.005613842129502361e-15 -6.435156769436789492e-13 -1.951563910473907981e-13 2.001604075898850282e-15
4.300000000000000000e+02 1.471274733543395996e+00 4.069725799560546875e+01 -4.422293965484352940e-14 -6.594659714143080720e-13 -2.111066719654927648e-13 -1.301042606982605321e-14
4.310000000000000000e+02 3.557294905185699463e-01 1.957078361511230469e+01 1.453664933651760416e-13 -5.782133669432476530e-13 -1.298540539419051898e-13 2.702165375408505793e-14
4.320000000000000000e+02 3.526498377323150635e-01 1.474708747863769531e+01 1.578765194748185663e-13 -2.754707540634365737e-13 -3.527827173183811782e-14 -7.506014649345978118e-15
4.330000000000000000e+02 3.524426221847534180e-01 1.394334030151367188e+01 -9.057258252859884395e-14 -4.048244215976853910e-13 -1.486190998826325549e-13 3.903127820947815962e-14
4.340000000000000000e+02 3.887782096862792969e-01 7.490569114685058594e+00 7.506014988159157020e-14 -1.050842084789754827e-13 -9.007217918028352643e-15 -6.004812227696550847e-15
4.350000000000000000e+02 3.702101707458496094e-01 5.085516452789306641e+00 -1.050842084789754827e-13 -4.503609128420765773e-14 -4.503609128420765773e-14 -5.004010189747125706e-15
4.360000000000000000e+02 4.900877475738525391e+00 3.878613710403442383e+00 -2.151724233360498284e-14 3.652927163229693908e-14 4.503608959014176322e-15 -1.050842084789754827e-13
4.370000000000000000e+02 1.195991516113281250e+00 6.613998889923095703e+00 1.083368149964319960e-13 -9.082278250869060821e-14 5.254210593355363584e-15 -5.504410996963601463e-15
4.380000000000000000e+02 1.063456177711486816e+00 1.069678115844726562e+01 -1.576263093303314350e-14 -4.871403844544652806e-13 -1.508709064797220112e-13 -1.000802037949425141e-15
4.390000000000000000e+02 1.078770041465759277e+00 9.887528419494628906e+00 2.577065215956034216e-14 -4.235894404333584440e-13 -1.193456412255239352e-13 5.304250758780305885e-14
4.400000000000000000e+02 1.054989099502563477e+00 1.230409431457519531e+01 5.229190425939597708e-14 -4.350986801751610678e-13 -1.148420280313450226e-13 5.754611739385018243e-14
4.410000000000000000e+02 3.523364663124084473e-01 1.233419609069824219e+01 -2.076664239332969009e-14 -3.520320970493151513e-13 -1.118396214939802735e-13 -4.403528797570881170e-14
4.420000000000000000e+02 1.056120276451110840e+00 1.391446590423583984e+01 -1.626303258728256651e-14 -4.416038932100740944e-13 -1.373600804497124295e-13 -6.505213034913026604e-15
4.430000000000000000e+02 2.462805509567260742e+00 1.549712371826171875e+01 -3.652927163229693908e-14 -5.189158564650186989e-13 -1.666335391068210492e-13 -8.506817110811876886e-15
4.440000000000000000e+02 1.060680985450744629e+00 1.712967491149902344e+01 1.115894215138885093e-13 -5.469383084454049193e-13 -1.306046606584440606e-13 3.402726844324750755e-14
4.450000000000000000e+02 1.061973690986633301e+00 1.793284034729003906e+01 -1.185950345089850644e-13 -4.168340477471443872e-13 -1.606287260320915511e-13 6.855493684667854359e-14
4.460000000000000000e+02 1.064084291458129883e+00 1.873664474487304688e+01 4.953969770212299228e-14 -5.049046033697712765e-13 -1.366094737331735587e-13 4.603689120457471473e-14
4.470000000000000000e+02 1.066356062889099121e+00 1.954168891906738281e+01 -1.728885453853787335e-13 -6.002310194014315314e-13 -2.319358626597795014e-13 -4.903929774193946378e-14
4.480000000000000000e+02 1.078082323074340820e+00 2.275569152832031250e+01 4.278428468711820143e-14 -2.104186237143063076e-13 -5.029030103053007406e-14 -7.005613842129502361e-15
4.490000000000000000e+02 1.911124038696289062e+01 1.865138053894042969e+01 1.025822086780578402e-13 2.727185339536364328e-13 1.125902282105191443e-13 1.691355389077386917e-13
4.500000000000000000e+02 2.049179267883300781e+01 2.073019218444824219e+01 1.721692179015160695e-13 1.652887082845971856e-13 1.012373778558339765e-13 1.190954344691685929e-13
4.510000000000000000e+02 1.813993644714355469e+01 1.717436981201171875e+01 8.807057595141762341e-14 3.122502256758252770e-13 1.200962343895356499e-13 -1.751403587587317678e-14
4.520000000000000000e+02 1.948075103759765625e+01 1.939606857299804688e+01 5.229190425939597708e-14 2.054146105599438665e-13 7.731195647868102649e-14 1.681347389873716347e-13
4.530000000000000000e+02 1.852377319335937500e+01 1.883620452880859375e+01 1.796439651766471024e-13 2.256808563812218171e-13 1.215974478226133915e-13 -2.552045048540268340e-14
4.540000000000000000e+02 1.867015838623046875e+01 1.782196640968322754e+00 -9.057258252859884395e-14 -8.456776945386934585e-14 -5.254210423948774134e-14 7.205774334422682115e-14
4.550000000000000000e+02 2.004832649230957031e+01 6.631970405578613281e+00 -1.501203056924137712e-15 1.366094737331735587e-13 4.053248147816053415e-14 1.075862116680249142e-14
4.560000000000000000e+02 1.882040786743164062e+01 1.136774635314941406e+01 -7.030634348358447139e-14 1.528725063204561252e-13 2.476984885106149614e-14 -1.251002526260957745e-14
4.570000000000000000e+02 1.950225257873535156e+01 8.173834800720214844e+00 1.796439651766471024e-13 3.057450126409122504e-13 1.456166865690042278e-13 -5.679551406544310066e-14
4.580000000000000000e+02 1.885084915161132812e+01 1.965408897399902344e+01 2.952365863720038397e-14 3.557851170794823492e-13 1.155926347478838934e-13 6.280032375204080974e-14
4.590000000000000000e+02 1.863393020629882812e+01 1.380762958526611328e+01 -1.723881454251952050e-13 3.150024186805711057e-13 4.278428468711820143e-14 2.752205540833448094e-14
4.600000000000000000e+02 1.863663101196289062e+01 8.910219192504882812e+00 8.782037597132585915e-14 1.748901452261128475e-13 7.881315635923161200e-14 4.803849782157240678e-14
4.610000000000000000e+02 1.943845367431640625e+01 6.525300502777099609e+00 -7.756215645877279075e-14 1.251002526260957745e-14 -1.951563910473907981e-14 -1.240994476235310340e-13
4.620000000000000000e+02 1.584181594848632812e+01 2.171364784240722656e+00 -3.227586519447336877e-14 2.149222369084852202e-13 5.479391083657719763e-14 4.003208151797700565e-14
4.630000000000000000e+02 2.308089828491210938e+01 1.154872775077819824e+00 9.007217918028352643e-15 -1.901523745048965680e-14 -3.002406113848275424e-15 -1.578765194748185663e-13
4.640000000000000000e+02 2.280229187011718750e+01 2.597066640853881836e+00 1.755156485644740472e-13 7.593585320004453409e-14 7.543545323986100559e-14 -1.074845711024861872e-13
4.650000000000000000e+02 1.924448966979980469e+01 2.043592834472656250e+01 1.348580670962676309e-13 1.378604804098959580e-13 8.181556289659636105e-14 1.889013847688331138e-13
4.660000000000000000e+02 1.795437622070312500e+01 1.471827602386474609e+01 -5.704571743366665393e-14 6.705373696612795809e-14 3.002406113848275424e-15 1.235990476633475055e-13
4.670000000000000000e+02 1.799106788635253906e+01 1.304809284210205078e+01 -9.007218256841531545e-14 1.901523778930283570e-13 3.002405859738391247e-14 -3.652927163229693908e-14
4.680000000000000000e+02 1.805676078796386719e+01 1.221356010437011719e+01 8.006416303595401129e-14 4.003208084035064784e-13 1.441154866884536423e-13 8.907137587178468041e-14
4.690000000000000000e+02 1.887043762207031250e+01 8.106264114379882812e+00 -2.677145377399329368e-14 3.545341104027599499e-13 9.832879546397069181e-14 -1.341074739322559162e-13
4.700000000000000000e+02 1.798143768310546875e+01 1.553789997100830078e+01 1.075862150561567032e-13 1.376102736535406157e-13 7.355895000104098469e-14 5.204170427930421283e-14
4.710000000000000000e+02 1.827560806274414062e+01 1.055336952209472656e+01 1.378604804098959580e-13 1.048340084988837184e-13 7.280834328450211390e-14 -1.701363422162375377e-14
4.720000000000000000e+02 1.843749427795410156e+01 9.726279258728027344e+00 4.978990107034654555e-14 1.128404281906109086e-13 4.878909776184769953e-14 -5.904731727440076794e-14
4.730000000000000000e+02 2.176736068725585938e+01 3.819921731948852539e+00 5.979791721467606069e-14 9.282438912568830025e-14 4.578669122448295048e-14 -8.771091220948629141e-14
4.740000000000000000e+02 2.034057044982910156e+01 2.780699133872985840e-01 -1.293536539817216613e-13 -2.384410756946925281e-13 -1.103384216134296880e-13 8.406736949368581735e-14
4.750000000000000000e+02 1.804386901855468750e+01 1.635523986816406250e+01 -1.000802021008766196e-13 1.401122870069854143e-13 1.200962445539310169e-14 5.154130431912068433e-14
4.760000000000000000e+02 1.795746231079101562e+01 1.388757705688476562e+01 6.004811719476782494e-14 3.002405995263662808e-13 1.080866150163402317e-13 -6.505213034913026604e-15
4.770000000000000000e+02 1.940388488769531250e+01 1.719109058380126953e+00 -2.251804564210382886e-14 -1.926543912464731556e-13 -6.455173038894673754e-14 5.154130431912068433e-14
4.780000000000000000e+02 5.458213043212890625e+01 2.228660011291503906e+01 -1.261010474642651480e-13 -5.404330750817011586e-14 -5.404330750817011586e-14 -1.791435652164635739e-13
4.790000000000000000e+02 5.819145202636718750e+01 2.208169174194335938e+01 -3.027426196560746574e-14 3.277626515465689727e-14 7.506015284620688559e-16 -2.301844560228735737e-14
4.800000000000000000e+02 5.005903625488281250e+01 1.650870323181152344e+01 9.532638892660594276e-14 -1.879005712959389007e-13 -2.777225538842624519e-14 3.302646513474866152e-14
4.810000000000000000e+02 4.781560897827148438e+01 6.077458858489990234e+00 -3.102486190588275849e-14 -5.904731727440076794e-14 -2.702165375408505793e-14 1.701363422162375377e-14
4.820000000000000000e+02 4.840027236938476562e+01 5.245557785034179688e+00 -5.004010189747125706e-15 -1.851483647386659159e-13 -5.704571743366665393e-14 4.703769451307356075e-14
4.830000000000000000e+02 4.882129287719726562e+01 1.257247447967529297e+01 -3.953167816966168813e-14 7.455974992140804170e-14 1.050842118671072717e-14 5.004010105043830980e-14
4.840000000000000000e+02 5.147298049926757812e+01 1.961650657653808594e+01 7.280834328450211390e-14 1.976583908483084406e-14 2.777225538842624519e-14 5.704571743366665393e-14
4.850000000000000000e+02 4.784655761718750000e+01 6.891546726226806641e+00 -1.876503747039789255e-14 -5.379310752807835161e-14 -2.176744400776264160e-14 5.804651735403371093e-14
4.860000000000000000e+02 4.994504547119140625e+01 1.403966140747070312e+01 2.952365863720038397e-14 3.552847171192988207e-14 1.951563910473907981e-14 1.301042606982605321e-14
4.870000000000000000e+02 4.903299713134765625e+01 1.337305641174316406e+01 2.877305869692509122e-14 1.038332085785166614e-13 3.978187814975345238e-14 -5.004010189747125706e-15
4.880000000000000000e+02 5.973920059204101562e+01 2.313317680358886719e+01 -5.179150429921244858e-14 -2.509511153568622088e-13 -9.082278250869060821e-14 6.054852393121493148e-14
4.890000000000000000e+02 5.964068984985351562e+01 2.404330635070800781e+01 -4.303448466720996568e-14 -8.706977603105056640e-14 -3.903127820947815962e-14 1.601283260719080226e-14
4.900000000000000000e+02 4.977438735961914062e+01 1.573103141784667969e+01 8.231596285677988956e-14 3.527827173183811782e-14 3.527827173183811782e-14 1.240994476235310340e-13
4.910000000000000000e+02 4.950893020629882812e+01 1.495291042327880859e+01 4.503609128420765773e-14 6.505213034913026604e-14 3.302646513474866152e-14 5.504411081666896188e-14
4.920000000000000000e+02 4.879301071166992188e+01 9.287989616394042969e+00 -1.351082687704252897e-14 -2.116696303910287069e-13 -6.755413692631148659e-14 -5.704571743366665393e-14
4.930000000000000000e+02 5.798749160766601562e+01 2.297123718261718750e+01 -5.929751725449253219e-14 1.118396214939802735e-13 1.576263093303314350e-14 5.104090097080536681e-14
4.940000000000000000e+02 4.797986984252929688e+01 8.541801452636718750e+00 2.752205498481800731e-15 -9.032238254850707970e-14 -2.627105211974387067e-14 -3.652927163229693908e-14
4.950000000000000000e+02 4.862376403808593750e+01 1.176861190795898438e+01 1.526223097284961500e-14 5.229190425939597708e-14 2.026624073908026707e-14 2.001604075898850282e-14
4.960000000000000000e+02 5.070388031005859375e+01 1.807044792175292969e+01 9.432558900623888576e-14 -9.682759558342010631e-14 -7.506015284620688559e-16 3.002405859738391247e-14
4.970000000000000000e+02 5.036650085449218750e+01 1.729022026062011719e+01 7.881315635923161200e-14 3.377706846315574329e-14 3.377706846315574329e-14 6.905533680686207210e-14
4.980000000000000000e+02 5.712868118286132812e+01 2.283905982971191406e+01 -1.030826086382413687e-13 9.307458910578006450e-14 -3.002406113848275424e-15 -5.704571743366665393e-14
4.990000000000000000e+02 5.628195190429687500e+01 2.267831039428710938e+01 -8.281636281696341806e-14 1.025822035958601566e-14 -2.176744400776264160e-14 -4.703769451307356075e-14
5.000000000000000000e+02 4.843770980834960938e+01 1.096717071533203125e+01 -1.000802037949425141e-15 9.107298248878237246e-14 2.702165375408505793e-14 -1.381106736137241442e-13
5.010000000000000000e+02 4.826349258422851562e+01 1.016685962677001953e+01 5.529431079676072613e-14 -6.780433690640325084e-14 -3.753007324672989059e-15 5.204170427930421283e-14
5.020000000000000000e+02 4.912018585205078125e+01 1.088152503967285156e+01 1.751403587587317678e-14 7.506014649345978118e-15 7.506014649345978118e-15 6.655333022968085155e-14
5.030000000000000000e+02 6.405592346191406250e+01 2.181082916259765625e+01 3.527827173183811782e-14 -1.678845322310162924e-13 -3.978187814975345238e-14 3.903127820947815962e-14
5.040000000000000000e+02 6.153791046142578125e+01 2.306766700744628906e+01 -8.431756947377758160e-14 -1.326062689695076471e-14 -2.927345865710861972e-14 3.502807175174635357e-14
5.050000000000000000e+02 6.322727203369140625e+01 2.199542427062988281e+01 -2.276824562219559311e-14 -9.757819552369539906e-15 -9.757819552369539906e-15 4.003208151797700565e-15
5.060000000000000000e+02 6.243907928466796875e+01 2.377635955810546875e+01 -5.004010189747125706e-15 -2.502005052521915490e-14 -9.007217918028352643e-15 -2.101684237342145434e-14
5.070000000000000000e+02 6.491613006591796875e+01 2.236349868774414062e+01 8.681957605095880215e-14 -5.429350748826188011e-14 9.757819552369539906e-15 -4.553649124439118623e-14
5.080000000000000000e+02 6.834848022460937500e+01 2.262836456298828125e+01 3.252606517456513302e-14 -7.756215645877279075e-14 -1.351082687704252897e-14 -2.652125379390152943e-14
5.090000000000000000e+02 6.409912872314453125e+01 2.257553672790527344e+01 -5.479391083657719763e-14 2.226784396794617010e-14 -9.757819552369539906e-15 2.151724233360498284e-14
5.100000000000000000e+02 7.784307861328125000e+01 2.141601943969726562e+01 1.801443583605670529e-14 -1.981587908084919691e-13 -5.404330750817011586e-14 1.245998475837145625e-13
5.110000000000000000e+02 7.877857971191406250e+01 2.297110939025878906e+01 -3.077466192579099424e-14 -8.181556289659636105e-14 -3.377706846315574329e-14 -5.904731727440076794e-14
5.120000000000000000e+02 7.887239074707031250e+01 2.535152435302734375e+01 -2.076664239332969009e-14 -1.919037845299342848e-13 -6.380113044867144478e-14 -2.902325867701685547e-14
5.130000000000000000e+02 2.061735343933105469e+01 4.182250022888183594e+00 7.430954994131627744e-14 1.233488409069921632e-13 5.929751725449253219e-14 -1.321058605389946461e-13
5.140000000000000000e+02 2.234115982055664062e+01 2.391731739044189453e+00 -4.428548795580057595e-14 1.676343424153198952e-14 -8.256616283687165381e-15 -1.137474039654765012e-13
5.150000000000000000e+02 4.503475189208984375e+01 4.770471096038818359e+00 -2.051644071917203133e-14 1.055846084391590112e-13 2.552045048540268340e-14 -3.252606517456513302e-14
5.160000000000000000e+02 4.346828079223632812e+01 4.891787052154541016e+00 1.951563910473907981e-14 1.456166865690042278e-13 4.953969770212299228e-14 1.701363422162375377e-14
5.170000000000000000e+02 5.244691467285156250e+01 2.111803245544433594e+01 -1.523721063602725967e-13 -6.530233032922203029e-14 -6.530233032922203029e-14 7.330875002094922044e-14
5.180000000000000000e+02 4.716952133178710938e+01 4.498287677764892578e+00 5.729591741375841818e-14 7.030634348358447139e-14 3.828067826920286687e-14 7.005613842129502361e-15
5.190000000000000000e+02 2.185156822204589844e+01 2.936667919158935547e+00 8.356696953350228885e-14 -7.856295637913984775e-14 1.501203056924137712e-15 -5.904731727440076794e-14
5.200000000000000000e+02 6.569770050048828125e+01 2.215120887756347656e+01 2.877305869692509122e-14 2.639615414266882620e-13 8.782037597132585915e-14 -1.741395520621011328e-13
5.210000000000000000e+02 7.054353332519531250e+01 2.202238273620605469e+01 2.977385861729214822e-14 1.276022524270134170e-14 1.276022524270134170e-14 1.266014474244486765e-13
5.220000000000000000e+02 6.706552124023437500e+01 2.274032592773437500e+01 -3.002406113848275424e-15 -4.703769451307356075e-14 -1.501202929869195624e-14 8.556856937423640286e-14
5.230000000000000000e+02 1.653329277038574219e+01 1.369062662124633789e+00 -1.656327256339268361e-13 2.051644071917203133e-14 -4.353488801552528320e-14 -2.351884725653678038e-14
5.240000000000000000e+02 1.868882179260253906e+01 1.079675316810607910e+00 -4.653729455289003225e-14 7.155734338404329264e-14 7.506014649345978118e-15 6.705373696612795809e-14
5.250000000000000000e+02 1.978311157226562500e+01 5.740809440612792969e+00 1.153424279915285511e-13 -8.782037597132585915e-14 8.256616283687165381e-15 -6.805453688649501509e-14
5.260000000000000000e+02 6.640143585205078125e+01 2.197540473937988281e+01 -8.581876935432816711e-14 1.233488409069921632e-13 1.125902282105191443e-14 9.957980214069309111e-14
5.270000000000000000e+02 2.007509422302246094e+01 2.404101371765136719e+00 2.852285871683332696e-14 -3.352686848306397904e-14 -1.501203056924137712e-15 -2.952365863720038397e-14
5.280000000000000000e+02 4.650820159912109375e+01 4.548169136047363281e+00 -9.107298248878237246e-14 -3.903127820947815962e-14 -3.903127820947815962e-14 -1.000802037949425141e-14
5.290000000000000000e+02 4.507619094848632812e+01 5.598464488983154297e+00 -4.053248147816053415e-14 1.656327256339268361e-13 3.753007494079578510e-14 -1.035830085984248972e-13
5.300000000000000000e+02 4.719999694824218750e+01 6.910881519317626953e+00 -3.527827173183811782e-14 -1.523721063602725967e-13 -5.629511410525957216e-14 -1.000802037949425141e-14
5.310000000000000000e+02 4.654781723022460938e+01 6.123398780822753906e+00 -4.453568793589234021e-14 -1.105886215935214523e-13 -4.653729455289003225e-14 5.354290754798658736e-14
5.320000000000000000e+02 1.513157844543457031e+01 2.303979635238647461e+00 -5.929751725449253219e-14 1.118396214939802735e-13 1.576263093303314350e-14 -9.557658890669770702e-14
5.330000000000000000e+02 1.922354698181152344e+01 3.224389076232910156e+00 6.780433690640325084e-14 7.480994990149980595e-14 4.278428468711820143e-14 7.706175649858926224e-14
5.340000000000000000e+02 1.440485954284667969e+01 2.434264183044433594e+00 -3.727987496070402085e-14 2.977385861729214822e-14 -2.251804479507088161e-15 8.807057595141762341e-14
5.350000000000000000e+02 2.510432052612304688e+01 2.247881698608398438e+01 1.313552673749829314e-13 -1.038332085785166614e-13 8.256616283687165381e-15 5.154130431912068433e-14
5.360000000000000000e+02 2.192965126037597656e+01 2.372705841064453125e+01 1.022069053197884048e-13 6.667843360785852269e-14 5.066560100066772043e-14 -6.505213034913026604e-15
5.370000000000000000e+02 2.024163055419921875e+01 9.474745392799377441e-01 6.480193036903850179e-14 2.777225538842624519e-14 2.777225538842624519e-14 -6.004812227696550847e-15
5.380000000000000000e+02 1.211433696746826172e+01 2.137202024459838867e+00 -1.581267126786467525e-13 -3.422742774969456114e-13 -1.501202997631831404e-13 2.552045048540268340e-14
5.390000000000000000e+02 1.748458290100097656e+01 1.139420318603515625e+01 9.382518904605535726e-14 1.088372149566155245e-13 6.079872391130669573e-14 -2.401924891078620339e-14
5.400000000000000000e+02 7.366477966308593750e+01 2.305139541625976562e+01 -1.301042606982605321e-14 -9.707779556351187056e-14 -3.302646513474866152e-14 -5.654531408535133641e-14
5.410000000000000000e+02 7.619372558593750000e+01 2.226544952392578125e+01 4.628709118466647898e-14 1.113392215337967450e-13 4.728789449316532501e-14 2.752205540833448094e-14
5.420000000000000000e+02 7.889741516113281250e+01 2.614788246154785156e+01 -4.878909776184769953e-14 -2.039134106793932810e-13 -7.581074982186686295e-14 3.202566521438160452e-14
5.430000000000000000e+02 9.738353729248046875e+00 2.432796955108642578e+00 -1.478684931660936841e-13 -1.548741061611902392e-13 -9.082278250869060821e-14 4.303448466720996568e-14
5.440000000000000000e+02 7.311509609222412109e+00 3.185090065002441406e+00 6.505213034913026604e-15 4.853889778175593528e-14 1.651323256737433076e-14 4.603689120457471473e-14
5.450000000000000000e+02 6.514148235321044922e+00 3.201365232467651367e+00 -1.025822035958601566e-14 -1.874001713357553722e-13 -5.929751725449253219e-14 6.855493684667854359e-14
5.460000000000000000e+02 5.720985412597656250e+00 3.212687492370605469e+00 -6.330072371222433825e-14 -1.643817325097315929e-13 -6.830473686658677934e-14 5.504411081666896188e-14
5.470000000000000000e+02 5.766726016998291016e+00 2.537983655929565430e+00 -1.010810020212436766e-13 -8.907137587178468041e-14 -5.704571743366665393e-14 1.170938346284344789e-13
5.480000000000000000e+02 5.684947490692138672e+00 3.868020057678222656e+00 5.154130431912068433e-14 -2.066656172366662658e-13 -4.653729455289003225e-14 9.607699564314481355e-14
5.490000000000000000e+02 4.151735305786132812e+00 3.250758886337280273e+00 6.555253030931379454e-14 1.195958344293521214e-13 5.554451077685249039e-14 -1.145918348275168364e-13
5.500000000000000000e+02 4.933104038238525391e+00 3.226134777069091797e+00 1.326062689695076471e-14 2.344378760132243000e-13 7.430954994131627744e-14 6.004812227696550847e-15
5.510000000000000000e+02 2.613708496093750000e+00 4.070352554321289062e+00 -3.903127820947815962e-14 2.902325867701685547e-14 -3.002406113848275424e-15 2.151724301123134064e-13
5.520000000000000000e+02 1.054279518127441406e+01 3.004233360290527344e+00 -4.453568793589234021e-14 -1.105886215935214523e-13 -4.653729455289003225e-14 -2.051644071917203133e-14
5.530000000000000000e+02 1.913719940185546875e+01 7.315028190612792969e+00 5.829671733412547519e-14 2.994900063623545661e-13 1.073360150760649390e-13 -3.002405859738391247e-14
5.540000000000000000e+02 1.913492393493652344e+01 5.628072261810302734e+00 -5.204170427930421283e-14 1.200962445539310169e-14 -1.200962445539310169e-14 -8.731997601114233065e-14
5.550000000000000000e+02 4.589534378051757812e+01 6.184918880462646484e+00 8.056456299613753980e-14 1.946559910872072696e-13 8.256616283687165381e-14 3.002405859738391247e-14
5.560000000000000000e+02 1.212744235992431641e+01 2.803318738937377930e+00 -1.528725063204561252e-13 -1.976583908483084406e-14 -5.179150429921244858e-14 -7.105694342385976414e-14
5.570000000000000000e+02 1.134411334991455078e+01 2.911428689956665039e+00 -1.341074739322559162e-13 -2.862293735361731706e-13 -1.261010474642651480e-13 4.753809447325708926e-14
5.580000000000000000e+02 1.365849304199218750e+01 2.562764167785644531e+00 -1.543737062010067107e-13 1.168436278720791366e-13 -1.125902282105191443e-14 1.501202929869195624e-14
5.590000000000000000e+02 1.289741897583007812e+01 2.685817956924438477e+00 -1.701363388281057487e-13 -5.304250419967126984e-13 -2.101684169579509653e-13 2.181748434259417335e-13
5.600000000000000000e+02 5.512753677368164062e+01 2.345759773254394531e+01 -6.955573676704560060e-14 -7.556054984177509870e-14 -4.353488801552528320e-14 -1.596279261117244941e-13
5.610000000000000000e+02 5.544277954101562500e+01 2.249164390563964844e+01 -3.152526186606628700e-14 -1.351082687704252897e-14 -1.351082687704252897e-14 1.100882199392720293e-14
5.620000000000000000e+02 3.544921493530273438e+01 1.746066093444824219e+01 -1.907778871606201875e-15 2.736880817463815951e-13 8.153409046009196803e-14 7.255814330441034965e-14
5.630000000000000000e+02 3.389388275146484375e+01 1.940473556518554688e+01 -3.502806921064751181e-15 -8.156536291650459680e-14 -2.552045048540268340e-14 -4.528629126429942198e-14
5.640000000000000000e+02 3.278030014038085938e+01 1.933610534667968750e+01 1.803632926605097664e-13 -5.995429304926636060e-14 3.612269581761487491e-14 -4.203368474684290867e-14
5.650000000000000000e+02 3.137315368652343750e+01 2.023025321960449219e+01 2.864795870687920909e-14 1.952814944255684693e-13 6.717883356804205119e-14 -3.002406113848275424e-15
5.660000000000000000e+02 3.062720489501953125e+01 2.056804847717285156e+01 6.767923352822557970e-14 -1.539984096190008533e-13 -2.589575214960622429e-14 -6.705373696612795809e-14
5.670000000000000000e+02 4.422323989868164062e+01 4.917778491973876953e+00 4.728789449316532501e-14 1.803945583406588171e-13 6.830473686658677934e-14 -8.106496295632106830e-14
5.680000000000000000e+02 6.975721740722656250e+01 2.266889381408691406e+01 2.577065215956034216e-14 5.679551406544310066e-14 2.476984885106149614e-14 -2.101684237342145434e-14
5.690000000000000000e+02 7.206494903564453125e+01 2.290494346618652344e+01 -3.753007494079578510e-14 -1.075862150561567032e-13 -4.353488801552528320e-14 8.106496295632106830e-14
5.700000000000000000e+02 3.724531936645507812e+01 1.694639587402343750e+01 9.757819552369539906e-14 1.276022608973428896e-13 6.755413692631148659e-14 3.196311352529276895e-14
5.710000000000000000e+02 3.660838699340820312e+01 1.749793624877929688e+01 -6.605293026949732305e-14 1.261010474642651480e-13 1.801443583605670529e-14 -5.629511410525957216e-14
5.720000000000000000e+02 7.811301422119140625e+01 2.927399253845214844e+01 1.551243095294137925e-14 -1.306046606584440606e-13 -3.452766840343103605e-14 1.301042606982605321e-14
5.730000000000000000e+02 7.879385375976562500e+01 3.014127731323242188e+01 3.377706846315574329e-14 -3.127506188597452275e-14 7.506015284620688559e-16 2.401924891078620339e-14
5.740000000000000000e+02 7.684069824218750000e+01 3.759574890136718750e+01 -1.751403587587317678e-14 -7.506014649345978118e-15 -7.506014649345978118e-15 1.311050606186275891e-13
5.750000000000000000e+02 7.796725463867187500e+01 3.703761672973632812e+01 -2.802245536851800944e-14 -1.200962445539310169e-14 -1.200962445539310169e-14 4.803849782157240678e-14
5.760000000000000000e+02 7.887887573242187500e+01 3.646665573120117188e+01 -5.679551406544310066e-14 -1.158428279517120796e-13 -5.179150429921244858e-14 7.005614350349270714e-14
5.770000000000000000e+02 7.874034118652343750e+01 3.424992370605468750e+01 1.426142935841666348e-14 -1.768917586193741176e-13 -4.878909776184769953e-14 1.035830085984248972e-13
5.780000000000000000e+02 7.891572570800781250e+01 2.694474792480468750e+01 3.002406113848275424e-15 4.703769451307356075e-14 1.501202929869195624e-14 -2.001604075898850282e-14
5.790000000000000000e+02 7.627651214599609375e+01 2.309772491455078125e+01 -1.093376216930626310e-13 -1.383608803700794865e-13 -7.430954994131627744e-14 5.204170427930421283e-14
5.800000000000000000e+02 7.686148834228515625e+01 3.857247924804687500e+01 -6.305052373213257400e-14 1.331066604593617031e-13 2.101684237342145434e-14 -5.004010189747125706e-15
5.810000000000000000e+02 7.691902923583984375e+01 3.176896095275878906e+01 4.328468803543351895e-14 -9.582678888678947127e-14 -1.576263093303314350e-14 3.202566521438160452e-14
5.820000000000000000e+02 7.774183654785156250e+01 3.270649719238281250e+01 1.233488409069921632e-13 -1.576263093303314350e-14 3.227586519447336877e-14 7.055654346367623564e-14
5.830000000000000000e+02 7.823796844482421875e+01 2.771903991699218750e+01 -7.005614350349270714e-14 -3.002405859738391247e-14 -3.002405859738391247e-14 -6.004812227696550847e-15
5.840000000000000000e+02 7.889347839355468750e+01 2.853371238708496094e+01 4.753809362622414200e-15 -1.123400282304273801e-13 -3.227586519447336877e-14 -6.805453688649501509e-14
5.850000000000000000e+02 7.755059814453125000e+01 2.842588043212890625e+01 -5.604491073703601889e-14 -2.401924891078620339e-14 -2.401924891078620339e-14 -8.807057595141762341e-14
5.860000000000000000e+02 7.801116180419921875e+01 3.008864974975585938e+01 -4.903929774193946378e-14 -2.101684237342145434e-14 -2.101684237342145434e-14 -5.504411081666896188e-14
5.870000000000000000e+02 7.789846038818359375e+01 2.219263648986816406e+01 -9.507618725244828400e-15 -9.557658890669770702e-14 -3.152526186606628700e-14 1.035830085984248972e-13
5.880000000000000000e+02 7.879158020019531250e+01 3.720182418823242188e+01 7.931355631941514051e-14 -1.175942362826839019e-14 2.026624073908026707e-14 -2.602085213965210642e-14
5.890000000000000000e+02 7.818668365478515625e+01 3.579405593872070312e+01 -8.406736949368581735e-14 -3.602887167211341057e-14 -3.602887167211341057e-14 -1.000802037949425141e-15
5.900000000000000000e+02 7.783176422119140625e+01 3.441786956787109375e+01 -5.129110433902892008e-14 2.376904723662854463e-14 -8.256616283687165381e-15 -1.501202929869195624e-14
5.910000000000000000e+02 7.557141876220703125e+01 2.410559272766113281e+01 -5.079070099071360256e-14 1.383608803700794865e-13 2.627105211974387067e-14 -1.070858150959731747e-13
5.920000000000000000e+02 4.242879486083984375e+01 1.058797359466552734e+01 1.050842084789754827e-13 4.503609128420765773e-14 4.503609128420765773e-14 -9.707779556351187056e-14
5.930000000000000000e+02 6.063965606689453125e+01 2.313925933837890625e+01 -2.977385861729214822e-14 -1.276022524270134170e-14 -1.276022524270134170e-14 -9.107298248878237246e-14
5.940000000000000000e+02 5.687001037597656250e+01 2.380324172973632812e+01 -6.780433690640325084e-14 8.531836939414463861e-14 5.254210593355363584e-15 -2.677145377399329368e-14
5.950000000000000000e+02 2.987250328063964844e+01 2.087174987792968750e+01 6.842984024476445049e-14 -6.217482718994318813e-14 1.876503662336494530e-15 -6.605293026949732305e-14
5.960000000000000000e+02 2.813313102722167969e+01 2.287196159362792969e+01 4.903929774193946378e-14 2.101684237342145434e-14 2.101684237342145434e-14 -5.704571743366665393e-14
5.970000000000000000e+02 1.727790069580078125e+01 1.395600414276123047e+01 -1.826463581614846954e-14 -9.932960216060132685e-14 -3.527827173183811782e-14 3.502807175174635357e-14
5.980000000000000000e+02 4.934313583374023438e+01 1.667553901672363281e+01 2.602085213965210642e-14 -1.261010474642651480e-13 -3.002405859738391247e-14 -1.150922280114367868e-14
5.990000000000000000e+02 4.905818557739257812e+01 1.588572216033935547e+01 7.931355631941514051e-14 1.483688931262772126e-13 6.830473686658677934e-14 6.004812227696550847e-15
6.000000000000000000e+02 4.102516555786132812e+01 1.159140110015869141e+01 7.443464654323037055e-14 3.190056522433572239e-14 3.190056522433572239e-14 3.002406113848275424e-15
6.010000000000000000e+02 4.008262252807617188e+01 1.396210670471191406e+01 8.656937607086703790e-14 -3.152526186606628700e-14 1.651323256737433076e-14 -4.456696378043675799e-14
6.020000000000000000e+02 3.678442239761352539e-01 3.484596014022827148e+00 -5.529431079676072613e-14 -9.232398238924119371e-14 -4.428548795580057595e-14 -1.601283260719080226e-14
6.030000000000000000e+02 1.057958006858825684e+00 3.650842666625976562e+01 1.005806020610601481e-13 -3.457770907707574670e-13 -7.355895000104098469e-14 1.230986477031639770e-13
6.040000000000000000e+02 2.966064929962158203e+00 4.098716735839843750e+01 -7.936828820033492438e-14 -6.287773036614541233e-13 -2.124436829795475767e-13 9.995509872269894847e-14
6.050000000000000000e+02 1.272230386734008789e+00 3.495620346069335938e+01 1.158428279517120796e-13 -1.333568672157170454e-13 -5.254210593355363584e-15 -1.251002526260957745e-14
6.060000000000000000e+02 2.335789203643798828e+00 3.716262435913085938e+01 4.503608959014176322e-15 -4.098284211995206761e-13 -1.215974478226133915e-13 -7.706175649858926224e-14
6.070000000000000000e+02 1.965270519256591797e+00 2.998443412780761719e+01 3.853087824929463112e-14 -3.037434128001781364e-13 -7.956375629950690476e-14 4.453568793589234021e-14
6.080000000000000000e+02 2.569682121276855469e+00 2.513486289978027344e+01 4.103288143834406265e-14 -3.712975565027532010e-13 -9.907939540424598457e-14 8.857097591160115191e-14
6.090000000000000000e+02 2.160552024841308594e+00 3.243763732910156250e+01 8.807057595141762341e-14 -1.681347389873716347e-13 -2.401924891078620339e-14 4.353488801552528320e-14
6.100000000000000000e+02 1.848317384719848633e+00 2.595717620849609375e+01 -1.726383420171551802e-14 -3.505309107212917219e-13 -1.103384216134296880e-13 7.105694342385976414e-14
6.110000000000000000e+02 2.209810972213745117e+00 3.330505752563476562e+01 -3.002405859738391247e-14 -3.102486258350911630e-13 -1.020818019416107336e-13 1.125902282105191443e-13
6.120000000000000000e+02 1.292846918106079102e+00 3.245032882690429688e+01 2.652125379390152943e-14 -1.716375387086563342e-13 -4.353488801552528320e-14 2.752205540833448094e-14
6.130000000000000000e+02 1.070755004882812500e+00 2.115189170837402344e+01 -3.002406113848275424e-15 -3.672943297162306608e-13 -1.110890215537049808e-13 5.054050101062183831e-14
6.140000000000000000e+02 1.796184301376342773e+00 2.273542594909667969e+01 6.955573676704560060e-14 -5.649527070120119454e-13 -1.486190998826325549e-13 7.405934996122451319e-14
6.150000000000000000e+02 2.509776830673217773e+00 2.271898269653320312e+01 -2.426944889087796764e-14 -3.535333104823928929e-13 -1.133408281507944371e-13 -5.954771723458429644e-14
6.160000000000000000e+02 1.831200480461120605e+00 2.515011024475097656e+01 2.577065215956034216e-14 -4.235894404333584440e-13 -1.193456412255239352e-13 -9.007217918028352643e-15
6.170000000000000000e+02 1.929193735122680664e+00 2.918175506591796875e+01 5.129110433902892008e-14 -1.838973716144706727e-13 -3.978187814975345238e-14 5.504411081666896188e-14
6.180000000000000000e+02 1.908919692039489746e+00 2.838568496704101562e+01 -6.580273028940555879e-14 -4.170842273984454174e-13 -1.448660934049925131e-13 3.302646513474866152e-14
6.190000000000000000e+02 1.890291571617126465e+00 2.758019065856933594e+01 6.154932385158198849e-14 -4.768821513893850561e-13 -1.245998475837145625e-13 -1.105886215935214523e-13
6.200000000000000000e+02 2.004759311676025391e+00 3.596419525146484375e+01 4.716279450311944288e-14 -2.085421136992227087e-13 -4.841379779171005315e-14 -4.503609128420765773e-14
6.210000000000000000e+02 2.024721384048461914e+00 3.079228782653808594e+01 1.140914348673333079e-13 -2.942358000041639388e-13 -5.404330750817011586e-14 -8.606896933441993136e-14
6.220000000000000000e+02 2.174154996871948242e+00 3.510401535034179688e+01 -4.578669122448295048e-14 -4.771323310406860863e-13 -1.568757195544515093e-13 -5.154130431912068433e-14
6.230000000000000000e+02 2.226347446441650391e+00 3.419913864135742188e+01 7.806255641895631925e-14 -2.181748434259417335e-13 -4.203368474684290867e-14 7.506014649345978118e-15
6.240000000000000000e+02 1.068453550338745117e+00 2.034734153747558594e+01 8.006416303595401129e-14 -5.604491480279416571e-13 -1.441154866884536423e-13 1.110890215537049808e-13
6.250000000000000000e+02 1.789101243019104004e+00 2.193407630920410156e+01 4.728789449316532501e-14 -2.999903927700109385e-13 -7.581074982186686295e-14 9.307458910578006450e-14
6.260000000000000000e+02 1.057187795639038086e+00 1.471837902069091797e+01 -4.328468803543351895e-14 -3.845581622238802844e-13 -1.283528540613546043e-13 4.603689120457471473e-14
6.270000000000000000e+02 1.762389183044433594e+00 1.550356197357177734e+01 -1.451162933850842773e-14 -6.009816125654432462e-13 -1.846479647784823874e-13 -5.004010189747125706e-16
6.280000000000000000e+02 1.149796724319458008e+00 8.246550559997558594e+00 2.502005094873562853e-15 -6.755413692631148659e-14 -1.951563910473907981e-14 -1.050842118671072717e-14
6.290000000000000000e+02 1.763979315757751465e+00 1.069352912902832031e+01 -7.656135653840573374e-14 -3.988195949704287369e-13 -1.426142868079030568e-13 4.703769451307356075e-14
6.300000000000000000e+02 1.769017219543457031e+00 1.791479873657226562e+01 5.104090097080536681e-14 -3.212574520641831022e-13 -8.106496295632106830e-14 -2.051644071917203133e-14
6.310000000000000000e+02 1.928576111793518066e+00 8.256972312927246094e+00 -8.331676955341052460e-14 -1.043336085387001899e-13 -5.629511410525957216e-14 7.305854326459387815e-14
6.320000000000000000e+02 1.155739545822143555e+00 5.813581466674804688e+00 -1.266014474244486765e-13 -8.506817110811876886e-15 -4.053248147816053415e-14 -2.101684237342145434e-14
6.330000000000000000e+02 1.055337786674499512e+00 1.310905075073242188e+01 -8.181556289659636105e-14 -4.010714015675181932e-13 -1.448660934049925131e-13 -5.004010189747125706e-15
6.340000000000000000e+02 2.076464414596557617e+00 7.396032333374023438e+00 5.179150429921244858e-14 -6.930553678695383635e-14 -5.254210593355363584e-15 1.150922280114367868e-14
6.350000000000000000e+02 1.124098062515258789e+00 2.654305219650268555e+00 4.553649124439118623e-14 1.951563910473907981e-14 1.951563910473907981e-14 4.103288143834406265e-14
6.360000000000000000e+02 1.787894606590270996e+00 9.893309593200683594e+00 -3.552847171192988207e-14 -6.099888389538010713e-13 -1.936551911668402126e-13 4.503608959014176322e-15
6.370000000000000000e+02 1.755192041397094727e+00 1.149019813537597656e+01 5.954771723458429644e-14 -2.947361864118203112e-13 -7.055654346367623564e-14 2.401924891078620339e-14
6.380000000000000000e+02 2.460511445999145508e+00 1.071852207183837891e+01 -6.455173038894673754e-14 -5.309254555094233829e-13 -1.786431517037528893e-13 -2.001604075898850282e-15
6.390000000000000000e+02 1.753445029258728027e+00 1.229001808166503906e+01 -4.353488801552528320e-14 -5.219182291210655578e-13 -1.696359388679222202e-13 1.110890215537049808e-13
6.400000000000000000e+02 1.759360909461975098e+00 1.470191669464111328e+01 8.081476297622930405e-14 -3.084972056456580791e-13 -6.830473686658677934e-14 3.002406113848275424e-15
6.410000000000000000e+02 1.754546880722045898e+00 1.309368896484375000e+01 7.030634348358447139e-14 -4.731291313592178582e-13 -1.208468411060745207e-13 2.652125379390152943e-14
6.420000000000000000e+02 1.766382336616516113e+00 1.711294937133789062e+01 -6.780433690640325084e-14 -5.551948874596424055e-13 -1.868997713755718437e-13 2.752205540833448094e-14
6.430000000000000000e+02 1.772075891494750977e+00 1.871826553344726562e+01 -1.085870149765237602e-13 -3.667939433085742884e-13 -1.426142868079030568e-13 1.251002526260957745e-14
6.440000000000000000e+02 1.775272607803344727e+00 1.952386665344238281e+01 -6.755413438521264483e-15 -5.061556100464936758e-13 -1.538733062408231822e-13 1.235990476633475055e-13
6.450000000000000000e+02 1.783209562301635742e+00 2.113334655761718750e+01 1.976583908483084406e-14 -5.176648497882962996e-13 -1.493696930466442696e-13 5.304250758780305885e-14
6.460000000000000000e+02 4.108784866333007812e+01 1.266420936584472656e+01 1.040834085586084257e-13 -8.406736949368581735e-14 6.004812227696550847e-15 -5.698316574457781836e-14
6.470000000000000000e+02 4.926193618774414062e+01 1.416680908203125000e+01 -1.080866150163402317e-13 -9.207378240914942946e-14 -6.004811719476782494e-14 8.606896933441993136e-14
6.480000000000000000e+02 1.822764778137207031e+01 8.043605804443359375e+00 5.154130431912068433e-14 2.737193609790578019e-13 9.757819552369539906e-14 -5.204170427930421283e-14
6.490000000000000000e+02 1.729369163513183594e+01 1.564771366119384766e+01 -1.060850151756061177e-13 4.603689120457471473e-14 -1.801443583605670529e-14 -1.000802037949425141e-14
6.500000000000000000e+02 2.121425437927246094e+01 3.483484506607055664e+00 3.452766840343103605e-14 6.054852393121493148e-14 2.852285871683332696e-14 -2.229286498239488323e-13
6.510000000000000000e+02 3.258252716064453125e+01 2.040668106079101562e+01 2.752205540833448094e-14 1.376102736535406157e-13 4.953969770212299228e-14 6.067362222719491910e-15
6.520000000000000000e+02 7.704709625244140625e+01 2.221951484680175781e+01 -1.175942362826839019e-14 -5.079070099071360256e-14 -1.876503747039789255e-14 -1.751403587587317678e-14
6.530000000000000000e+02 5.870748138427734375e+01 2.400438308715820312e+01 -2.276824562219559311e-14 -1.698861456242775625e-13 -5.779631737394194668e-14 -3.803047490097931360e-14
6.540000000000000000e+02 2.216973304748535156e+01 1.646446466445922852e+00 1.701363422162375377e-14 -1.070858150959731747e-13 -2.702165375408505793e-14 -9.957980214069309111e-14
6.550000000000000000e+02 1.827986717224121094e+01 3.957354307174682617e+00 -7.005614350349270714e-14 -3.002405859738391247e-14 -3.002405859738391247e-14 -6.455173038894673754e-14
6.560000000000000000e+02 1.726678466796875000e+01 1.480953693389892578e+01 1.118396214939802735e-13 2.309350627394124444e-13 1.028324086581496044e-13 5.004010189747125706e-15
6.570000000000000000e+02 1.860318946838378906e+01 2.503509283065795898e+00 7.005614350349270714e-14 3.002405859738391247e-14 3.002405859738391247e-14 -1.551243095294137925e-14
6.580000000000000000e+02 2.079998779296875000e+01 2.286288261413574219e+00 -1.013312020013354409e-13 -2.264314495452335319e-13 -9.832879546397069181e-14 -8.556856937423640286e-14
6.590000000000000000e+02 3.594693374633789062e+01 1.802391242980957031e+01 8.907137587178468041e-14 2.101684237342145434e-14 3.302646513474866152e-14 -7.543545323986100559e-14
6.600000000000000000e+02 4.266375350952148438e+01 8.701515197753906250e+00 8.907137587178468041e-14 3.012413994467333378e-13 1.170938346284344789e-13 2.664635378394741155e-14
6.610000000000000000e+02 4.789601516723632812e+01 7.718249797821044922e+00 -3.302646513474866152e-14 -1.971579908881249121e-13 -6.905533680686207210e-14 -6.004812227696550847e-15
6.620000000000000000e+02 4.325438308715820312e+01 9.148510932922363281e+00 -3.277626515465689727e-14 -5.979791721467606069e-14 -2.777225538842624519e-14 3.502807175174635357e-14
6.630000000000000000e+02 4.227691650390625000e+01 9.467576980590820312e+00 -1.901523745048965680e-14 1.291034607778934751e-13 3.302646513474866152e-14 -8.907137587178468041e-14
6.640000000000000000e+02 3.955321884155273438e+01 1.458831214904785156e+01 5.679551406544310066e-14 1.858989714552047867e-13 7.280834328450211390e-14 -8.175301120750752548e-14
6.650000000000000000e+02 5.364197540283203125e+01 2.206398391723632812e+01 -4.991500106039242768e-14 -3.416487741585844118e-13 -1.174691312104403362e-13 1.751403519824681898e-13
6.660000000000000000e+02 4.880113601684570312e+01 1.509020805358886719e+01 -5.804651735403371093e-14 1.581267126786467525e-13 3.002405859738391247e-14 1.521218996039172544e-13
6.670000000000000000e+02 5.194018173217773438e+01 2.036352348327636719e+01 1.631307258330091936e-13 2.071660171968497943e-13 1.110890215537049808e-13 1.401122870069854143e-13
6.680000000000000000e+02 5.778160476684570312e+01 2.392351722717285156e+01 -1.293536539817216613e-13 8.181556289659636105e-14 -1.426142935841666348e-14 2.627105211974387067e-14
6.690000000000000000e+02 3.901101684570312500e+01 1.413341617584228516e+01 -7.005613842129502361e-15 -3.002406113848275424e-15 -3.002406113848275424e-15 -2.902325867701685547e-14
6.700000000000000000e+02 3.785559082031250000e+01 1.637774658203125000e+01 7.656135653840573374e-14 1.386110735739076727e-13 6.455173038894673754e-14 -3.424619257879485401e-14
6.710000000000000000e+02 6.331158447265625000e+01 2.359224891662597656e+01 -4.128308141843582690e-14 -8.631917609077527365e-14 -3.828067826920286687e-14 1.100882199392720293e-14
6.720000000000000000e+02 1.738692092895507812e+01 1.224240589141845703e+01 -1.050842118671072717e-14 1.556247128777291100e-13 4.353488801552528320e-14 -1.786431517037528893e-13
6.730000000000000000e+02 1.761952972412109375e+01 1.054441928863525391e+01 -1.150922280114367868e-14 -7.355895000104098469e-14 -2.552045048540268340e-14 -3.903127820947815962e-14
6.740000000000000000e+02 4.451075744628906250e+01 6.665573596954345703e+00 1.065854151357896462e-13 -1.150922280114367868e-14 2.852285871683332696e-14 -2.852285871683332696e-14
6.750000000000000000e+02 7.285597991943359375e+01 2.298925590515136719e+01 -1.125902282105191443e-13 -2.502005094873562853e-15 -3.452766840343103605e-14 -1.145918348275168364e-13
6.760000000000000000e+02 1.731909561157226562e+01 1.309617328643798828e+01 7.531034986168333445e-14 1.924041844901178133e-13 8.031436301604577555e-14 4.303448466720996568e-14
6.770000000000000000e+02 1.738022804260253906e+01 1.647093009948730469e+01 9.732799554360363481e-14 2.704667544616012886e-13 1.103384216134296880e-13 -1.901523745048965680e-14
6.780000000000000000e+02 5.426370620727539062e+01 2.325125122070312500e+01 4.878909776184769953e-14 -1.964073977241131974e-13 -4.428548795580057595e-14 9.457578898633065001e-14
6.790000000000000000e+02 5.171216964721679688e+01 2.202230834960937500e+01 -8.381716951359405310e-14 1.013312020013354409e-13 5.254210593355363584e-15 1.065854151357896462e-13
6.800000000000000000e+02 4.727322769165039062e+01 8.598050117492675781e+00 -1.215974478226133915e-13 -3.037434128001781364e-13 -1.276022608973428896e-13 3.702967498061225660e-14
6.810000000000000000e+02 4.059408950805664062e+01 1.332248210906982422e+01 -3.002406113848275424e-15 1.301042606982605321e-14 3.002406113848275424e-15 -6.974338844618031830e-15
6.820000000000000000e+02 4.965166091918945312e+01 1.746537780761718750e+01 1.125902282105191443e-13 2.502005094873562853e-15 3.452766840343103605e-14 -2.126704235351321859e-14
6.830000000000000000e+02 4.857067489624023438e+01 1.428633308410644531e+01 -1.951563910473907981e-14 1.451162933850842773e-14 -1.501203056924137712e-15 5.654531408535133641e-14
6.840000000000000000e+02 4.836204910278320312e+01 1.348070907592773438e+01 8.056456299613753980e-14 3.452766840343103605e-14 3.452766840343103605e-14 1.190954344691685929e-13
6.850000000000000000e+02 4.582040786743164062e+01 5.431745052337646484e+00 -4.153328478665938017e-14 -6.355093046857968053e-14 -3.152526186606628700e-14 1.351082687704252897e-14
6.860000000000000000e+02 5.030954360961914062e+01 1.906071472167968750e+01 1.240994476235310340e-13 7.606094980195862720e-14 6.004811719476782494e-14 -7.556054984177509870e-14
6.870000000000000000e+02 4.399222183227539062e+01 1.079695606231689453e+01 1.697610422460998914e-13 1.642566291315539218e-13 1.002052987027907127e-13 5.104090097080536681e-14
6.880000000000000000e+02 4.777049255371093750e+01 1.106658172607421875e+01 1.851483749030612830e-14 -8.356696953350228885e-14 -1.951563910473907981e-14 4.853889778175593528e-14
6.890000000000000000e+02 1.799113082885742188e+01 8.866204261779785156e+00 -1.251002526260957745e-14 1.751403587587317678e-14 1.501203056924137712e-15 -1.000802037949425141e-15
6.900000000000000000e+02 7.795543670654296875e+01 2.297989845275878906e+01 1.551243095294137925e-14 -1.306046606584440606e-13 -3.452766840343103605e-14 3.302646513474866152e-14
6.910000000000000000e+02 1.828742790222167969e+01 1.800126266479492188e+01 -9.007217918028352643e-15 1.791435652164635739e-13 5.104090097080536681e-14 1.476182999622654979e-13
6.920000000000000000e+02 1.668709754943847656e+01 1.658719444274902344e+01 -1.175942345886180074e-13 1.326062604991781746e-13 4.503608959014176322e-15 -4.203368474684290867e-14
6.930000000000000000e+02 1.795343780517578125e+01 1.848618268966674805e+00 -7.380914998113274894e-14 1.513713064399055397e-13 2.326864727644501613e-14 2.852285871683332696e-14
6.940000000000000000e+02 4.688106155395507812e+01 1.285821247100830078e+01 7.105694342385976414e-14 2.592077214761540072e-13 9.907939540424598457e-14 1.516214996437337259e-13
6.950000000000000000e+02 4.757956314086914062e+01 1.026403808593750000e+01 8.706977603105056640e-14 8.306656957331876034e-14 5.104090097080536681e-14 2.151724233360498284e-14
6.960000000000000000e+02 8.905709266662597656e+00 3.785566091537475586e+00 6.255012631304788726e-15 -8.882117589169291616e-14 -2.476984885106149614e-14 -1.701363422162375377e-14
6.970000000000000000e+02 1.771831130981445312e+01 2.184721946716308594e+01 5.679551406544310066e-14 -4.428548795580057595e-14 3.753007324672989059e-15 -3.702967498061225660e-14
6.980000000000000000e+02 2.082171821594238281e+01 2.324018478393554688e+01 1.571259127582796955e-13 -4.703769451307356075e-14 3.302646513474866152e-14 -7.606094980195862720e-14
6.990000000000000000e+02 2.134227752685546875e+01 2.218517303466796875e+01 1.696359388679222202e-13 9.557658890669770702e-14 7.956375629950690476e-14 -7.843785977722575464e-14
7.000000000000000000e+02 6.415254974365234375e+01 2.338806533813476562e+01 -8.832077593150938766e-14 -1.293536539817216613e-13 -6.530233032922203029e-14 5.154130431912068433e-14
7.010000000000000000e+02 2.593874168395996094e+01 2.232999992370605469e+01 2.214274499433982468e-13 1.863993714153883152e-13 1.223480409866251062e-13 2.652125379390152943e-14
7.020000000000000000e+02 2.629589271545410156e+01 2.349057006835937500e+01 1.318556673351664599e-13 -1.493696930466442696e-13 -5.254210593355363584e-15 -1.150922280114367868e-14
7.030000000000000000e+02 2.101969528198242188e+01 9.277334809303283691e-01 -8.256616283687165381e-14 -1.726383521815505473e-13 -7.656135653840573374e-14 -2.051644071917203133e-14
7.040000000000000000e+02 2.191204261779785156e+01 2.195568799972534180e+00 1.010810020212436766e-13 8.907137587178468041e-14 5.704571743366665393e-14 -1.175942362826839019e-14
7.050000000000000000e+02 2.004254722595214844e+01 3.186406135559082031e+00 -5.129110433902892008e-14 2.376904723662854463e-14 -8.256616283687165381e-15 -6.605293026949732305e-14
7.060000000000000000e+02 1.858846426010131836e+00 3.386402130126953125e+00 -1.476182931860019198e-14 -9.782839550378716331e-14 -3.377706846315574329e-14 1.190954344691685929e-13
7.070000000000000000e+02 1.109567761421203613e+00 3.434977054595947266e+00 -2.326864727644501613e-14 3.577867169202164632e-14 3.753007324672989059e-15 -8.356696953350228885e-14
7.080000000000000000e+02 2.457136344909667969e+01 2.373063468933105469e+01 9.532638892660594276e-14 -2.777225538842624519e-14 2.026624073908026707e-14 7.856295637913984775e-14
7.090000000000000000e+02 2.380681228637695312e+01 2.398299598693847656e+01 2.176744299132310489e-13 2.076664171570333228e-13 1.276022608973428896e-13 1.240994476235310340e-13
7.100000000000000000e+02 1.812738037109375000e+01 1.986044311523437500e+01 8.431756947377758160e-14 1.733889453455622620e-13 7.731195647868102649e-14 -1.251002526260957745e-14
7.110000000000000000e+02 1.585876083374023438e+01 2.869460821151733398e+00 -1.090874217129708668e-13 -1.000802037949425141e-15 -3.302646513474866152e-14 -8.406736949368581735e-14
7.120000000000000000e+02 1.724295043945312500e+01 1.930731534957885742e+00 -1.175942345886180074e-13 -1.876503780921107145e-13 -9.157338244896590096e-14 -1.000802037949425141e-15
7.130000000000000000e+02 6.153128051757812500e+01 2.392689514160156250e+01 -9.857899544406245607e-14 -1.566255127980961670e-13 -7.656135653840573374e-14 -2.001604075898850282e-14
7.140000000000000000e+02 1.748575401306152344e+01 1.728919982910156250e+01 -6.480193036903850179e-14 2.924843798147308549e-13 6.830473686658677934e-14 7.906335633932337625e-14
7.150000000000000000e+02 2.167132377624511719e+01 2.283352279663085938e+01 1.865870197063912439e-13 3.421492012238222524e-14 6.624058533676382976e-14 6.805453688649501509e-14
7.160000000000000000e+02 6.769561767578125000e+01 2.266418647766113281e+01 2.502005052521915490e-14 -3.502807175174635357e-14 -3.002406113848275424e-15 -1.526222995641007829e-13
7.170000000000000000e+02 6.642259216308593750e+01 2.284834480285644531e+01 1.020818019416107336e-13 3.182550251980276190e-13 1.261010474642651480e-13 -1.671339390670045777e-13
7.180000000000000000e+02 2.971217155456542969e+01 2.198089027404785156e+01 9.432558900623888576e-14 5.329270756789482311e-14 4.428548795580057595e-14 -6.151805139516935972e-14
7.190000000000000000e+02 1.875777053833007812e+01 2.159072303771972656e+01 2.024122107988426955e-13 -4.753809362622414200e-15 5.929751725449253219e-14 4.653729455289003225e-14
7.200000000000000000e+02 2.724552345275878906e+01 2.330105590820312500e+01 1.344827705142617735e-13 1.188452361831427231e-14 4.391018798566292958e-14 1.751403587587317678e-14
7.210000000000000000e+02 5.108051681518554688e+01 2.071713638305664062e+01 6.680353698603619383e-14 8.581876935432816711e-14 4.578669122448295048e-14 6.042342055303726034e-14
7.220000000000000000e+02 2.896298789978027344e+01 2.242711639404296875e+01 1.433648935244419276e-13 -3.577867169202164632e-14 3.227586519447336877e-14 3.327666511484042577e-14
7.230000000000000000e+02 5.062706375122070312e+01 1.991265106201171875e+01 8.656937607086703790e-14 -3.152526186606628700e-14 1.651323256737433076e-14 8.381716951359405310e-14
7.240000000000000000e+02 4.070333862304687500e+01 1.553256988525390625e+01 2.139214234355910071e-14 5.491901082662307976e-14 2.289334561224147524e-14 -1.901523745048965680e-14
7.250000000000000000e+02 1.985709953308105469e+01 4.014540672302246094e+00 1.183448413051568782e-13 1.193456412255239352e-13 7.130714340395152839e-14 -2.977385861729214822e-14
7.260000000000000000e+02 2.302399826049804688e+01 2.428763580322265625e+01 9.107298248878237246e-14 3.903127820947815962e-14 3.903127820947815962e-14 7.455974992140804170e-14
7.270000000000000000e+02 4.521988677978515625e+01 6.354952812194824219e+00 8.256616283687165381e-15 4.928949772203122803e-14 1.726383420171551802e-14 -6.104892389139845998e-14
7.280000000000000000e+02 1.879912185668945312e+01 6.426238536834716797e+00 5.354290754798658736e-14 9.157338244896590096e-14 4.353488801552528320e-14 -8.256616283687165381e-14
7.290000000000000000e+02 6.903581237792968750e+01 2.263263511657714844e+01 5.179150429921244858e-14 -6.930553678695383635e-14 -5.254210593355363584e-15 1.411130869273524713e-13
7.300000000000000000e+02 6.496140289306640625e+01 2.318015289306640625e+01 1.801443583605670529e-14 -3.803047490097931360e-14 -6.004812227696550847e-15 -7.706175649858926224e-14
7.310000000000000000e+02 1.635584831237792969e+01 5.307541847229003906e+00 -1.726383420171551802e-14 1.298540539419051898e-13 3.377706846315574329e-14 -1.150922347877003649e-13
7.320000000000000000e+02 1.903527641296386719e+01 3.986999750137329102e+00 8.782037597132585915e-14 1.476182931860019198e-14 3.077466192579099424e-14 -2.752205540833448094e-14
7.330000000000000000e+02 1.441176795959472656e+01 3.129792213439941406e+00 -1.115894215138885093e-13 2.266816563015888741e-13 3.452766840343103605e-14 5.004010189747125706e-16
7.340000000000000000e+02 1.366119194030761719e+01 3.248701572418212891e+00 -1.701363422162375377e-14 -5.304250758780305885e-14 -2.101684237342145434e-14 1.526222995641007829e-13
7.350000000000000000e+02 7.427787017822265625e+01 2.395112609863281250e+01 -2.351884725653678038e-14 1.386110735739076727e-13 3.452766840343103605e-14 3.527827173183811782e-14
7.360000000000000000e+02 1.654418754577636719e+01 2.710721731185913086e+00 -5.154130431912068433e-14 -1.135910281308862013e-13 -4.953969770212299228e-14 -1.641315257533762506e-13
7.370000000000000000e+02 4.543762969970703125e+01 7.028382778167724609e+00 1.110890215537049808e-13 1.391114735340912012e-13 7.506014988159157020e-14 -4.728789449316532501e-14
7.380000000000000000e+02 4.716771697998046875e+01 5.301652908325195312e+00 -5.004010105043830980e-14 7.005614350349270714e-14 6.004812227696550847e-15 1.701363422162375377e-14
7.390000000000000000e+02 4.718379592895507812e+01 6.098389625549316406e+00 5.404330750817011586e-14 -1.140914348673333079e-13 -1.801443583605670529e-14 3.002406113848275424e-15
7.400000000000000000e+02 5.241159820556640625e+01 2.292205238342285156e+01 9.507618894651417851e-14 -5.004010189747125706e-15 2.702165375408505793e-14 -7.155734338404329264e-14
7.410000000000000000e+02 7.819045257568359375e+01 2.615393829345703125e+01 -1.115894215138885093e-13 -2.537033083616080376e-13 -1.095878216731543953e-13 -2.852285871683332696e-14
7.420000000000000000e+02 7.801489257812500000e+01 2.377293395996093750e+01 -9.582678888678947127e-14 -8.681957605095880215e-14 -5.479391083657719763e-14 5.104090097080536681e-14
7.430000000000000000e+02 7.813584136962890625e+01 2.536067199707031250e+01 -3.077466192579099424e-14 -2.419438889685043836e-13 -8.181556289659636105e-14 4.403528797570881170e-14
7.440000000000000000e+02 2.615147113800048828e+00 3.337384700775146484e+00 -3.552847171192988207e-14 3.052446194569922999e-14 -1.501203056924137712e-15 -5.004010189747125706e-16
7.450000000000000000e+02 8.074036598205566406e+00 5.147768497467041016e+00 -9.382518904605535726e-14 -2.689655410285235471e-13 -1.088372149566155245e-13 1.341074739322559162e-13
7.460000000000000000e+02 9.731291770935058594e+00 3.077919006347656250e+00 -6.079872391130669573e-14 -7.180754336413505690e-14 -3.978187814975345238e-14 8.456776945386934585e-14
7.470000000000000000e+02 4.584898757934570312e+01 7.539124011993408203e+00 9.807859548387892756e-14 -3.803047490097931360e-14 1.801443583605670529e-14 2.977385861729214822e-14
7.480000000000000000e+02 2.922343730926513672e+00 7.583671092987060547e+00 -1.374851702753629445e-13 -3.791788660400391420e-13 -1.549992095393679103e-13 -4.053248147816053415e-14
7.490000000000000000e+02 7.288666725158691406e+00 3.842148542404174805e+00 -2.226784396794617010e-14 -5.529431079676072613e-14 -2.326864727644501613e-14 6.204972381176551699e-14
7.500000000000000000e+02 8.112284660339355469e+00 3.162491559982299805e+00 -1.165934346682509504e-13 -2.787233605808930870e-13 -1.185950345089850644e-13 5.704571743366665393e-14
7.510000000000000000e+02 8.094393730163574219e+00 3.819549798965454102e+00 -8.156536291650459680e-14 5.654531408535133641e-14 -7.506014649345978118e-15 1.801443583605670529e-14
7.520000000000000000e+02 1.893109083175659180e+00 4.923929214477539062e+00 -9.082278250869060821e-14 9.832879546397069181e-14 2.251804479507088161e-15 1.150922280114367868e-14
7.530000000000000000e+02 2.780979394912719727e+00 5.536578178405761719e+00 -1.188452412653404067e-13 -2.339374625005136155e-13 -1.058348151955143535e-13 7.205774334422682115e-14
7.540000000000000000e+02 4.882500171661376953e+00 4.501428604125976562e+00 -5.404330750817011586e-14 -2.061652172764827373e-13 -7.806255641895631925e-14 -4.603689120457471473e-14
7.550000000000000000e+02 3.379574537277221680e+00 3.289540290832519531e+00 -5.479391083657719763e-14 2.226784396794617010e-14 -9.757819552369539906e-15 1.040834085586084257e-13
7.560000000000000000e+02 1.813188171386718750e+01 6.340644836425781250e+00 -3.702967498061225660e-14 7.005613842129502361e-15 -9.007217918028352643e-15 -1.736391521019176043e-13
7.570000000000000000e+02 1.849607467651367188e+01 7.231880187988281250e+00 -3.853087824929463112e-14 1.436150867282701138e-13 3.152526186606628700e-14 -1.621299259126421366e-13
7.580000000000000000e+02 3.044545745849609375e+01 2.271672248840332031e+01 7.355895000104098469e-14 3.152526186606628700e-14 3.152526186606628700e-14 -2.314354559233323949e-14
7.590000000000000000e+02 1.289691925048828125e+01 3.364053010940551758e+00 -3.577867169202164632e-14 2.134210234754074786e-13 5.329270756789482311e-14 1.301042606982605321e-14
7.600000000000000000e+02 3.713588333129882812e+01 1.808405876159667969e+01 6.605293026949732305e-14 3.402726844324750755e-14 3.002405859738391247e-14 -1.100882199392720293e-14
7.610000000000000000e+02 1.681472587585449219e+01 1.139587688446044922e+01 -1.075862116680249142e-14 -1.418636800913641860e-13 -4.578669122448295048e-14 -1.205966479022463345e-13
7.620000000000000000e+02 7.741533660888671875e+01 2.917235565185546875e+01 -5.704571743366665393e-14 6.705373696612795809e-14 3.002406113848275424e-15 6.405133042876320904e-14
7.630000000000000000e+02 7.779457092285156250e+01 3.778081130981445312e+01 -2.251804479507088161e-15 4.478589130411589347e-14 1.276022524270134170e-14 -1.951563910473907981e-14
7.640000000000000000e+02 7.628983306884765625e+01 3.618977737426757812e+01 -5.035284933148712061e-14 -2.157979402269381841e-14 -2.157979402269381841e-14 9.507618725244828400e-15
7.650000000000000000e+02 7.759001922607421875e+01 2.696635627746582031e+01 -8.506817110811876886e-15 1.336070739720723877e-13 3.753007494079578510e-14 -2.201764398785440585e-14
7.660000000000000000e+02 7.418524932861328125e+01 2.503755378723144531e+01 -1.407377852631489304e-14 3.971932984879640582e-14 7.693665481447748561e-15 2.001604075898850282e-14
7.670000000000000000e+02 7.640132141113281250e+01 2.393019294738769531e+01 -1.125902282105191443e-14 2.239294497443158893e-13 6.380113044867144478e-14 4.103288143834406265e-14
7.680000000000000000e+02 7.741915130615234375e+01 2.541754150390625000e+01 -2.251804479507088161e-15 -2.754707540634365737e-13 -8.331676955341052460e-14 -1.075862150561567032e-13
7.690000000000000000e+02 7.672862243652343750e+01 2.554024887084960938e+01 -1.040834085586084257e-13 2.401924891078620339e-14 -2.401924891078620339e-14 -3.552847171192988207e-14
7.700000000000000000e+02 7.807658386230468750e+01 2.456740951538085938e+01 2.777225538842624519e-14 -1.253504543002534333e-13 -2.927345865710861972e-14 -1.080866150163402317e-13
7.710000000000000000e+02 7.774083709716796875e+01 3.358826446533203125e+01 -9.607699564314481355e-14 -2.241796429481440756e-13 -9.607699564314481355e-14 4.203368474684290867e-14
7.720000000000000000e+02 7.677909851074218750e+01 3.274502182006835938e+01 -2.001604075898850282e-15 -1.381106736137241442e-13 -4.203368474684290867e-14 -6.054852393121493148e-14
7.730000000000000000e+02 7.684873962402343750e+01 3.471628952026367188e+01 -3.377706719260632241e-15 6.717883356804205119e-14 1.914033913460143344e-14 -1.000802037949425141e-15
7.740000000000000000e+02 7.800197601318359375e+01 3.515847778320312500e+01 -3.702967498061225660e-14 -1.531227130768114675e-13 -5.704571743366665393e-14 -1.701363422162375377e-14
7.750000000000000000e+02 7.672812652587890625e+01 3.375000000000000000e+01 -2.376904723662854463e-14 -7.881315635923161200e-14 -3.077466192579099424e-14 -1.050842118671072717e-14
7.760000000000000000e+02 7.760241699218750000e+01 3.609841537475585938e+01 -3.796792660002226705e-14 -1.077738633471596319e-13 -4.372253630652821188e-14 -3.002405859738391247e-14
7.770000000000000000e+02 7.713891601562500000e+01 3.673125457763671875e+01 -3.740497495074990297e-14 -1.990345009032085111e-13 -7.093184004568209300e-14 2.001604075898850282e-15
7.780000000000000000e+02 5.837786483764648438e+01 2.619737625122070312e+01 -3.903127820947815962e-14 -1.311050606186275891e-13 -5.104090097080536681e-14 -1.123400282304273801e-13
7.790000000000000000e+02 3.900645446777343750e+01 1.519939708709716797e+01 8.650682438177820233e-14 -1.784555034127499606e-13 -2.758460540335742200e-14 -5.301905155142769277e-14
7.800000000000000000e+02 3.842544555664062500e+01 1.692352294921875000e+01 8.419246609559991046e-14 -1.038332119666484504e-14 2.214274397790028798e-14 -8.453649699745671708e-14
7.810000000000000000e+02 4.858580780029296875e+01 1.684657859802246094e+01 8.206576287668812530e-14 -1.020818019416107336e-13 -6.004812227696550847e-15 4.728789449316532501e-14
7.820000000000000000e+02 4.831137847900390625e+01 1.603893089294433594e+01 1.220978477827969200e-13 9.807859548387892756e-14 6.605293026949732305e-14 2.231788430277770185e-13
7.830000000000000000e+02 7.046249389648437500e+01 2.344000434875488281e+01 4.353488801552528320e-14 2.016616040823038247e-13 7.355895000104098469e-14 -3.452766840343103605e-14
7.840000000000000000e+02 7.127967071533203125e+01 2.281477165222167969e+01 8.731997601114233065e-14 2.204266364705040337e-13 9.232398238924119371e-14 -1.301042606982605321e-14
7.850000000000000000e+02 3.967066526412963867e+00 3.680998611450195312e+01 -1.050842118671072717e-14 -3.247602382329406456e-13 -1.005806020610601481e-13 2.752205540833448094e-14
7.860000000000000000e+02 2.449339151382446289e+00 1.309238624572753906e+01 4.003208151797700565e-14 -6.004811990527325616e-13 -1.681347389873716347e-13 2.451964887096973189e-14
7.870000000000000000e+02 2.447294950485229492e+00 1.229435443878173828e+01 -5.004010189747125706e-16 -5.949768130432409041e-13 -1.786431517037528893e-13 -7.506014649345978118e-15
7.880000000000000000e+02 1.756556749343872070e+00 1.389850425720214844e+01 -1.751403460532375590e-15 -4.811355849322629386e-13 -1.448660934049925131e-13 2.702165375408505793e-14
7.890000000000000000e+02 3.826283216476440430e+00 1.313262081146240234e+01 3.878107822938639537e-14 -4.866399709417545960e-13 -1.343576671360841024e-13 -1.000802037949425141e-14
7.900000000000000000e+02 2.452676773071289062e+00 1.389432334899902344e+01 3.828067826920286687e-14 -6.012317922167442763e-13 -1.688853321513833494e-13 -1.210970478624298630e-13
7.910000000000000000e+02 2.488358974456787109e+00 2.031932067871093750e+01 1.426142935841666348e-14 -4.971483836581358506e-13 -1.448660934049925131e-13 3.602887167211341057e-14
7.920000000000000000e+02 1.837717413902282715e+00 9.083483695983886719e+00 -1.531227130768114675e-13 -4.773825649020957407e-13 -1.891515779726613000e-13 2.602085213965210642e-14
7.930000000000000000e+02 2.479450225830078125e+00 1.870927429199218750e+01 8.506817110811876886e-15 -2.937353864914532542e-13 -8.556856937423640286e-14 9.457578898633065001e-14
7.940000000000000000e+02 2.475661039352416992e+00 1.790598487854003906e+01 1.025822035958601566e-14 -2.929847933274415395e-13 -8.481796943396111010e-14 1.105886215935214523e-13
7.950000000000000000e+02 2.483399391174316406e+00 1.951459503173828125e+01 -1.676343390271881062e-13 -4.378508731799068965e-13 -1.816455650173812164e-13 -2.201764398785440585e-14
7.960000000000000000e+02 1.778756380081176758e+00 2.032952117919921875e+01 -1.328564672555335169e-13 -4.000706016471511361e-13 -1.598781193155526803e-13 -2.451964887096973189e-14
7.970000000000000000e+02 3.193590164184570312e+00 1.950982666015625000e+01 -2.151724233360498284e-14 -2.837273601827283720e-13 -9.157338244896590096e-14 2.251804564210382886e-14
7.980000000000000000e+02 2.490635633468627930e+00 9.938536643981933594e+00 -2.001604075898850282e-14 -1.000802021008766196e-13 -3.602887167211341057e-14 -2.702165375408505793e-14
7.990000000000000000e+02 2.466902732849121094e+00 1.630165290832519531e+01 2.952365863720038397e-14 -4.448564997275306077e-13 -1.245998475837145625e-13 7.055654346367623564e-14
8.000000000000000000e+02 2.471276998519897461e+00 1.710462570190429688e+01 -1.601283260719080226e-14 -4.643721388322696875e-13 -1.441154866884536423e-13 -3.152526186606628700e-14
8.010000000000000000e+02 1.764403104782104492e+00 1.630871963500976562e+01 3.202566521438160452e-14 -5.124106434301056723e-13 -1.441154866884536423e-13 4.853889778175593528e-14
8.020000000000000000e+02 2.091761112213134766e+00 6.530132293701171875e+00 -1.536231130369949960e-13 -1.115894215138885093e-13 -7.956375629950690476e-14 4.703769451307356075e-14
8.030000000000000000e+02 3.447641849517822266e+00 6.918622970581054688e+00 -1.000802037949425141e-15 -1.691355389077386917e-13 -5.104090097080536681e-14 2.839775703272155033e-14
8.040000000000000000e+02 2.552507400512695312e+00 9.157211303710937500e+00 -7.105694342385976414e-14 -5.794643736199700523e-13 -1.951563910473907981e-13 1.100882199392720293e-14
8.050000000000000000e+02 1.869006991386413574e+00 2.676834297180175781e+01 -5.979791721467606069e-14 -4.831371847729970526e-13 -1.628805326291810074e-13 1.000802021008766196e-13
8.060000000000000000e+02 2.661064386367797852e+00 2.758282089233398438e+01 -7.180754336413505690e-14 -5.111596367533832730e-13 -1.748901452261128475e-13 4.953969770212299228e-14
8.070000000000000000e+02 3.542313337326049805e+00 5.311727523803710938e+00 0.000000000000000000e+00 0.000000000000000000e+00 0.000000000000000000e+00 5.104090097080536681e-14
8.080000000000000000e+02 1.968911409378051758e+00 5.710066795349121094e+00 -5.354290754798658736e-14 -2.517017085208739235e-13 -9.157338244896590096e-14 8.056456299613753980e-14
8.090000000000000000e+02 4.131048202514648438e+00 3.914628505706787109e+00 -2.927345865710861972e-14 -5.829671733412547519e-14 -2.627105211974387067e-14 1.220978477827969200e-13
8.100000000000000000e+02 3.482932090759277344e+00 2.922093582153320312e+01 1.160930347080674219e-13 -3.162534253572935050e-13 -6.004811719476782494e-14 5.954771723458429644e-14
8.110000000000000000e+02 2.629961490631103516e+00 2.676347923278808594e+01 3.502807175174635357e-14 -4.653729116475824323e-13 -1.291034607778934751e-13 -6.655333022968085155e-14
8.120000000000000000e+02 2.543785333633422852e+00 2.432669258117675781e+01 -1.000802037949425141e-14 -5.304250419967126984e-13 -1.621299259126421366e-13 5.954771723458429644e-14
8.130000000000000000e+02 2.598443746566772461e+00 2.594647979736328125e+01 5.929751725449253219e-14 -2.719679407896247181e-13 -6.380113044867144478e-14 -2.602085213965210642e-14
8.140000000000000000e+02 1.816875576972961426e+00 2.434484291076660156e+01 3.127506188597452275e-14 -4.441058794584645808e-13 -1.238492544197028478e-13 -4.003208151797700565e-14
8.150000000000000000e+02 2.523298978805541992e+00 2.352125167846679688e+01 9.732799554360363481e-14 -5.301748623454116682e-13 -1.298540539419051898e-13 1.361090737729900302e-13
8.160000000000000000e+02 1.804985284805297852e+00 2.353935813903808594e+01 -5.554451077685249039e-14 -5.499406811014517782e-13 -1.816455650173812164e-13 -1.601283260719080226e-14
8.170000000000000000e+02 3.125474691390991211e+00 3.529721450805664062e+01 9.182358242905766521e-14 -1.894017847290166423e-13 -2.927345865710861972e-14 -5.004010189747125706e-16
8.180000000000000000e+02 2.955062627792358398e+00 3.155407714843750000e+01 6.780433690640325084e-14 -2.454467022423162392e-13 -5.329270756789482311e-14 -1.601283260719080226e-14
8.190000000000000000e+02 3.160564899444580078e+00 3.426602172851562500e+01 -4.478589130411589347e-14 -4.080770281151419043e-13 -1.358588670166346879e-13 9.507618725244828400e-15
8.200000000000000000e+02 2.834730863571166992e+00 3.075577354431152344e+01 -9.757819552369539906e-15 -3.930649750995274250e-13 -1.208468411060745207e-13 9.157338244896590096e-14
8.210000000000000000e+02 3.039752960205078125e+00 3.240422439575195312e+01 -1.451162933850842773e-14 -2.807249604216272010e-13 -8.857097591160115191e-14 1.501202929869195624e-14
8.220000000000000000e+02 3.110652446746826172e+00 3.330820465087890625e+01 8.331676955341052460e-14 -2.159230368288522772e-13 -3.978187814975345238e-14 -4.503609128420765773e-14
8.230000000000000000e+02 2.095414876937866211e+00 3.160261344909667969e+01 -4.078268145825229840e-14 -4.521123059264553490e-13 -1.478684931660936841e-13 5.604491073703601889e-14
8.240000000000000000e+02 1.660298347473144531e+01 1.400141620635986328e+01 1.048340084988837184e-13 6.780433690640325084e-14 5.179150429921244858e-14 -7.255814330441034965e-14
8.250000000000000000e+02 1.108711481094360352e+00 4.221992969512939453e+00 -7.305854326459387815e-14 -7.706175649858926224e-14 -4.503609128420765773e-14 8.807057595141762341e-14
8.260000000000000000e+02 3.107156181335449219e+01 2.130219650268554688e+01 1.128404281906109086e-13 2.999903927700109385e-13 1.238492544197028478e-13 -1.175942362826839019e-14
8.270000000000000000e+02 4.256328964233398438e+01 1.171527194976806641e+01 6.542743370739970143e-14 -1.092125183148849599e-13 -1.313552605987193533e-14 -3.502807175174635357e-14
8.280000000000000000e+02 6.776875305175781250e+01 2.344779586791992188e+01 4.778829445334885351e-14 -2.527025050531091915e-14 6.755413438521264483e-15 -6.505213034913026604e-14
8.290000000000000000e+02 7.120577239990234375e+01 2.353681182861328125e+01 -6.430153040885497329e-14 -2.334370760928572430e-13 -8.932157585187644466e-14 4.903929774193946378e-14
8.300000000000000000e+02 6.974375915527343750e+01 2.337456512451171875e+01 1.093376216930626310e-13 1.383608803700794865e-13 7.430954994131627744e-14 9.257418236933295796e-14
8.310000000000000000e+02 3.035172653198242188e+01 2.155166053771972656e+01 1.506206997233666689e-13 -1.956567910075743266e-13 -1.351082687704252897e-14 -6.486448205812733736e-14
8.320000000000000000e+02 3.346094512939453125e+01 1.887319564819335938e+01 5.235445594848481266e-14 -1.605661675667391375e-13 -3.246351348547629745e-14 -2.201764398785440585e-14
8.330000000000000000e+02 3.526972198486328125e+01 1.851770019531250000e+01 -9.007217918028352643e-15 1.791435652164635739e-13 5.104090097080536681e-14 -1.251002547436781426e-15
8.340000000000000000e+02 3.499458694458007812e+01 1.958962821960449219e+01 -5.904731727440076794e-14 -7.105694342385976414e-14 -3.903127820947815962e-14 -1.476182931860019198e-14
8.350000000000000000e+02 4.816436767578125000e+01 1.267561054229736328e+01 1.240994476235310340e-13 2.361892690976030718e-13 1.080866150163402317e-13 2.051644071917203133e-14
8.360000000000000000e+02 4.751786422729492188e+01 1.277462387084960938e+01 1.010810020212436766e-13 8.907137587178468041e-14 5.704571743366665393e-14 1.205966479022463345e-13
8.370000000000000000e+02 5.598608016967773438e+01 2.364751815795898438e+01 -4.578669122448295048e-14 8.331676955341052460e-14 1.125902282105191443e-14 5.204170427930421283e-14
8.380000000000000000e+02 5.478638076782226562e+01 2.446635627746582031e+01 3.127506188597452275e-14 -1.238492544197028478e-13 -2.777225538842624519e-14 6.480193036903850179e-14
8.390000000000000000e+02 1.949242210388183594e+01 4.837749481201171875e+00 1.991596042813861822e-13 5.104090097080536681e-14 7.506014988159157020e-14 5.004010105043830980e-14
8.400000000000000000e+02 4.740571212768554688e+01 9.443194389343261719e+00 7.155734338404329264e-14 5.354290754798658736e-14 3.753007494079578510e-14 5.004010189747125706e-16
8.410000000000000000e+02 4.721364974975585938e+01 7.748147487640380859e+00 5.354290754798658736e-14 9.157338244896590096e-14 4.353488801552528320e-14 9.507618725244828400e-15
8.420000000000000000e+02 2.087321472167968750e+01 1.604032516479492188e+00 2.952365863720038397e-14 3.552847171192988207e-14 1.951563910473907981e-14 -1.436150867282701138e-13
8.430000000000000000e+02 2.152040290832519531e+01 2.605746507644653320e+00 -1.140914348673333079e-13 -2.602085213965210642e-14 -4.203368474684290867e-14 -2.652125209983563492e-13
8.440000000000000000e+02 7.355272674560546875e+01 2.382806968688964844e+01 -2.426944889087796764e-14 -3.327666511484042577e-14 -1.726383420171551802e-14 -1.731387521417340758e-13
8.450000000000000000e+02 7.276181793212890625e+01 2.380219268798828125e+01 1.826463581614846954e-14 -6.079872391130669573e-14 -1.276022524270134170e-14 -2.001604075898850282e-15
8.460000000000000000e+02 3.901599884033203125e+01 1.631576538085937500e+01 1.200962343895356499e-13 2.001604075898850282e-14 4.203368474684290867e-14 8.225341286175694849e-15
8.470000000000000000e+02 1.671535682678222656e+01 1.226039218902587891e+01 9.332478908587182875e-14 -5.754611400571839341e-15 2.627105211974387067e-14 8.807057595141762341e-14
8.480000000000000000e+02 6.339072418212890625e+01 2.446452522277832031e+01 -5.679551406544310066e-14 4.428548795580057595e-14 -3.753007324672989059e-15 1.351082687704252897e-14
8.490000000000000000e+02 4.211166000366210938e+01 1.240709114074707031e+01 3.990698152793112352e-14 -2.864795870687920909e-14 3.377706719260632241e-15 5.904731727440076794e-14
8.500000000000000000e+02 4.200560760498046875e+01 1.129431152343750000e+01 1.100882216333379238e-13 7.005614350349270714e-14 5.404330750817011586e-14 6.868004022485621474e-14
8.510000000000000000e+02 4.787257766723632812e+01 1.439109039306640625e+01 1.050842118671072717e-14 4.503608959014176322e-15 4.503608959014176322e-15 1.190954344691685929e-13
8.520000000000000000e+02 5.954593658447265625e+01 2.506356430053710938e+01 -9.832879546397069181e-14 -1.793937584202917601e-13 -8.331676955341052460e-14 -4.003208151797700565e-15
8.530000000000000000e+02 5.756267166137695312e+01 2.494738769531250000e+01 -6.029832395112316723e-14 -1.173440413847898212e-13 -5.329270756789482311e-14 -3.302646513474866152e-14
8.540000000000000000e+02 4.997710037231445312e+01 1.825670814514160156e+01 6.305052373213257400e-14 2.702165375408505793e-14 2.702165375408505793e-14 1.163432279118956081e-13
8.550000000000000000e+02 4.889326858520507812e+01 1.764307212829589844e+01 8.456776945386934585e-14 -9.507618725244828400e-15 2.251804564210382886e-14 8.081476297622930405e-14
8.560000000000000000e+02 4.371649932861328125e+01 8.448199272155761719e+00 9.147955830346443662e-14 2.222093223400861683e-13 9.410666148255975028e-14 -1.601283260719080226e-14
8.570000000000000000e+02 4.477636337280273438e+01 8.489343643188476562e+00 1.326062604991781746e-13 -1.751403587587317678e-14 3.452766840343103605e-14 1.788933584601082316e-14
8.580000000000000000e+02 3.643949508666992188e+01 1.861783981323242188e+01 1.205966479022463345e-13 2.346880827695796423e-13 1.065854151357896462e-13 -8.244106623495756070e-14
8.590000000000000000e+02 7.196945190429687500e+01 2.365845298767089844e+01 -2.301844560228735737e-14 1.301042606982605321e-14 -3.002406113848275424e-15 9.157338244896590096e-14
8.600000000000000000e+02 2.014749526977539062e+01 1.657918572425842285e+00 -1.158428279517120796e-13 -1.868997713755718437e-13 -9.082278250869060821e-14 5.304250758780305885e-14
8.610000000000000000e+02 1.657490539550781250e+01 1.487181377410888672e+01 -6.255012631304788726e-15 8.882117589169291616e-14 2.476984885106149614e-14 -2.401924891078620339e-14
8.620000000000000000e+02 3.957717132568359375e+01 1.569547939300537109e+01 1.351082687704252897e-14 7.155734338404329264e-14 2.552045048540268340e-14 -8.509944864672908116e-14
8.630000000000000000e+02 3.779942321777343750e+01 1.751558685302734375e+01 1.095878216731543953e-13 5.554451077685249039e-14 4.953969770212299228e-14 -6.473937867994966622e-14
8.640000000000000000e+02 4.769064712524414062e+01 1.357592964172363281e+01 1.200962445539310169e-14 1.881507780522942430e-13 6.004811719476782494e-14 2.051644071917203133e-14
8.650000000000000000e+02 1.778907966613769531e+01 9.699897766113281250e+00 9.357498906596359300e-14 1.316054605788111176e-13 6.755413692631148659e-14 -1.090874217129708668e-13
8.660000000000000000e+02 1.783970832824707031e+01 7.158151626586914062e+00 1.601283260719080226e-14 1.441154866884536423e-13 4.803849782157240678e-14 -2.852285871683332696e-14
8.670000000000000000e+02 5.658709335327148438e+01 2.483277702331542969e+01 -9.182358242905766521e-14 2.927345865710861972e-14 -1.876503747039789255e-14 4.653729455289003225e-14
8.680000000000000000e+02 5.566045379638671875e+01 2.467444038391113281e+01 -7.731195647868102649e-14 -1.025822035958601566e-14 -2.627105211974387067e-14 -2.977385861729214822e-14
8.690000000000000000e+02 1.757519531250000000e+01 7.985651016235351562e+00 8.006416303595401129e-15 7.205774334422682115e-14 2.401924891078620339e-14 -7.280834328450211390e-14
8.700000000000000000e+02 4.425682830810546875e+01 5.849022865295410156e+00 1.501202929869195624e-14 -8.506816941405287436e-14 -2.101684237342145434e-14 1.050842118671072717e-14
8.710000000000000000e+02 1.713196372985839844e+01 9.670810699462890625e+00 5.704571743366665393e-14 -6.705373696612795809e-14 -3.002406113848275424e-15 -5.404330750817011586e-14
8.720000000000000000e+02 4.163596343994140625e+01 1.308990478515625000e+01 7.105694342385976414e-14 -6.104892389139845998e-14 3.002406113848275424e-15 6.305052373213257400e-14
8.730000000000000000e+02 7.721211242675781250e+01 2.382688903808593750e+01 -5.754611400571839341e-15 4.328468803543351895e-14 1.125902282105191443e-14 -3.252606517456513302e-14
8.740000000000000000e+02 7.731517791748046875e+01 2.462572860717773438e+01 -4.328468803543351895e-14 -6.430153040885497329e-14 -3.227586519447336877e-14 5.804651735403371093e-14
8.750000000000000000e+02 4.488272094726562500e+01 7.387511730194091797e+00 6.905533680686207210e-14 -7.906335633932337625e-14 -3.002406113848275424e-15 1.122149248522497089e-13
8.760000000000000000e+02 1.762079048156738281e+01 1.812744140625000000e+01 6.029832395112316723e-14 1.173440413847898212e-13 5.329270756789482311e-14 -5.054050101062183831e-14
8.770000000000000000e+02 4.299277114868164062e+01 1.101903629302978516e+01 1.075862150561567032e-13 1.376102736535406157e-13 7.355895000104098469e-14 -1.501202929869195624e-14
8.780000000000000000e+02 4.283999252319335938e+01 9.869462966918945312e+00 6.905533680686207210e-14 1.210970478624298630e-13 5.704571743366665393e-14 1.501202929869195624e-14
8.790000000000000000e+02 9.715153694152832031e+00 4.397124290466308594e+00 5.204170427930421283e-14 -2.522020949285302960e-13 -6.004811719476782494e-14 7.205774334422682115e-14
8.800000000000000000e+02 1.933051490783691406e+01 2.467416763305664062e+00 -2.552045048540268340e-14 8.056456299613753980e-14 1.651323256737433076e-14 7.455974992140804170e-14
8.810000000000000000e+02 1.133966445922851562e+01 3.575030326843261719e+00 -6.980593674713736485e-14 -2.129206235152239501e-13 -8.481796943396111010e-14 6.505213034913026604e-15
8.820000000000000000e+02 6.423646545410156250e+01 2.424215126037597656e+01 2.326864727644501613e-14 -3.577867169202164632e-14 -3.753007324672989059e-15 -7.005614350349270714e-14
8.830000000000000000e+02 1.514340305328369141e+01 3.731402873992919922e+00 -5.354290754798658736e-14 3.888115686617038547e-13 1.005806020610601481e-13 -1.901523745048965680e-14
8.840000000000000000e+02 1.875766181945800781e+01 4.758233547210693359e+00 -2.502005094873562853e-15 6.755413692631148659e-14 1.951563910473907981e-14 -5.304250758780305885e-14
8.850000000000000000e+02 1.664697456359863281e+01 1.312913227081298828e+01 1.243496543798863763e-13 5.329270756789482311e-14 5.329270756789482311e-14 -6.104892389139845998e-14
8.860000000000000000e+02 1.695469856262207031e+01 1.053028202056884766e+01 6.755413692631148659e-14 2.577065080430762656e-13 9.757819552369539906e-14 -4.253408470702643718e-14
8.870000000000000000e+02 3.187805938720703125e+01 2.097660636901855469e+01 6.555253030931379454e-14 1.195958344293521214e-13 5.554451077685249039e-14 3.190056522433572239e-14
8.880000000000000000e+02 4.970645904541015625e+01 2.003293418884277344e+01 5.304250758780305885e-14 -1.831467648979318019e-13 -3.903127820947815962e-14 -4.503608959014176322e-15
8.890000000000000000e+02 4.950324249267578125e+01 1.921122932434082031e+01 1.688853321513833494e-13 3.753007324672989059e-15 5.179150429921244858e-14 2.066656172366662658e-13
8.900000000000000000e+02 6.058891677856445312e+01 2.402151679992675781e+01 -4.153328478665938017e-14 -2.236792429879605471e-13 -7.956375629950690476e-14 -5.954771723458429644e-14
8.910000000000000000e+02 5.855134582519531250e+01 2.503904342651367188e+01 -3.953167816966168813e-14 -8.556856937423640286e-14 -3.753007494079578510e-14 -3.252606517456513302e-14
8.920000000000000000e+02 6.726045227050781250e+01 2.435414695739746094e+01 6.004812227696550847e-15 -2.261812563414053456e-13 -6.605293026949732305e-14 -1.120898214740720378e-13
8.930000000000000000e+02 6.503932952880859375e+01 2.402600288391113281e+01 -8.932157585187644466e-14 -3.828067826920286687e-14 -3.828067826920286687e-14 6.154932385158198849e-14
8.940000000000000000e+02 6.155194473266601562e+01 2.485457992553710938e+01 -1.901523745048965680e-14 -1.911531778133954140e-13 -6.305052373213257400e-14 3.853087824929463112e-14
8.950000000000000000e+02 2.879317474365234375e+01 2.383852386474609375e+01 1.048340084988837184e-13 4.778829445334885351e-14 4.578669122448295048e-14 2.595830214462916535e-14
8.960000000000000000e+02 4.458217239379882812e+01 1.127427864074707031e+01 3.114996189592864062e-14 -3.240096518451925089e-14 -3.753007642310344279e-16 -8.807057595141762341e-14
8.970000000000000000e+02 4.713032913208007812e+01 1.119127368927001953e+01 6.455173038894673754e-14 -1.095878216731543953e-13 -1.351082687704252897e-14 8.681957605095880215e-14
8.980000000000000000e+02 5.034466934204101562e+01 2.130916786193847656e+01 1.541860579100037820e-13 2.032879073410320814e-14 5.235445594848481266e-14 5.604491073703601889e-14
8.990000000000000000e+02 1.756233787536621094e+01 2.088862800598144531e+01 1.994097974852143684e-13 1.083368149964319960e-13 9.232398238924119371e-14 6.004811719476782494e-14
9.000000000000000000e+02 1.790382385253906250e+01 2.532668352127075195e+00 3.002406113848275424e-15 4.703769451307356075e-14 1.501202929869195624e-14 3.903127820947815962e-14
9.010000000000000000e+02 1.710684394836425781e+01 1.911906433105468750e+01 1.603785192757362088e-13 1.373600804497124295e-13 8.932157585187644466e-14 -4.978990107034654555e-14
9.020000000000000000e+02 2.142793273925781250e+01 2.156970500946044922e+00 4.903929774193946378e-14 2.101684237342145434e-14 2.101684237342145434e-14 -2.512012950081632390e-13
9.030000000000000000e+02 1.784488677978515625e+01 1.899337577819824219e+01 -4.128308141843582690e-14 7.380914998113274894e-14 9.757819552369539906e-15 1.143416280711614941e-13
9.040000000000000000e+02 1.615234947204589844e+01 1.701051139831542969e+01 -1.782678669802082935e-15 1.822397891230662093e-13 5.413713504180336922e-14 1.351082738526229732e-13
9.050000000000000000e+02 1.998644638061523438e+01 2.253885078430175781e+01 1.398620802506300720e-13 -7.731195647868102649e-14 1.876503747039789255e-14 -3.102486190588275849e-14
9.060000000000000000e+02 1.735179710388183594e+01 1.999918937683105469e+01 -2.401924891078620339e-14 -5.604491073703601889e-14 -2.401924891078620339e-14 5.504411081666896188e-14
9.070000000000000000e+02 2.514731216430664062e+01 2.573358345031738281e+01 -1.651323256737433076e-14 -9.857899544406245607e-14 -3.452766840343103605e-14 1.426142935841666348e-14
9.080000000000000000e+02 2.586912345886230469e+01 2.529210662841796875e+01 2.136712302317628209e-13 9.157338244896590096e-14 9.157338244896590096e-14 3.002406113848275424e-15
9.090000000000000000e+02 2.072412872314453125e+01 2.249496269226074219e+01 2.647121345906999768e-13 -6.955573676704560060e-14 5.854691731421723944e-14 -4.203368474684290867e-14
9.100000000000000000e+02 1.664713859558105469e+01 2.172253990173339844e+01 1.023320019217024979e-13 1.353584670564511594e-13 7.130714340395152839e-14 2.001604075898850282e-14
9.110000000000000000e+02 2.093990325927734375e+01 2.426658821105957031e+01 1.627554292510033362e-13 1.612542293704527507e-13 9.720289216542596367e-14 4.053248147816053415e-14
9.120000000000000000e+02 1.987839698791503906e+01 2.334508323669433594e+01 1.596279261117244941e-13 4.553649124439118623e-14 6.154932385158198849e-14 8.006416303595401129e-15
9.130000000000000000e+02 2.965127944946289062e+01 2.327915382385253906e+01 4.953969770212299228e-14 -4.503608959014176322e-15 1.351082687704252897e-14 -8.115878710182253264e-14
9.140000000000000000e+02 5.101177215576171875e+01 2.181202697753906250e+01 3.815557743212403749e-15 9.313713401860532204e-14 2.908580697797390202e-14 1.050842084789754827e-13
9.150000000000000000e+02 5.304111862182617188e+01 2.401848411560058594e+01 -1.626303258728256651e-14 3.878107822938639537e-14 6.755413438521264483e-15 2.251804479507088161e-15
9.160000000000000000e+02 7.729796600341796875e+01 4.001785278320312500e+01 -1.538733096289549712e-14 -1.209719444842521918e-13 -4.090778144829818053e-14 6.505213034913026604e-15
9.170000000000000000e+02 7.497316741943359375e+01 4.084773635864257812e+01 -2.401924891078620339e-14 -1.861491782115601290e-13 -6.305052373213257400e-14 3.415236843329338967e-14
9.180000000000000000e+02 3.547551631927490234e+00 3.843199539184570312e+01 -1.701363422162375377e-14 -5.334274688628681815e-13 -1.651323256737433076e-13 1.826463581614846954e-14
9.190000000000000000e+02 1.651610255241394043e+00 3.729562759399414062e+01 2.602085213965210642e-14 -4.463576860555540371e-13 -1.261010474642651480e-13 8.957178260823178695e-14
9.200000000000000000e+02 4.166721343994140625e+00 3.543110275268554688e+01 1.501203056924137712e-15 -2.967377862525544252e-13 -8.857097591160115191e-14 1.301042606982605321e-14
9.210000000000000000e+02 3.370964527130126953e+00 3.984874963760375977e+00 4.503608959014176322e-15 2.306848559830571022e-13 7.055654346367623564e-14 -7.756215645877279075e-14
9.220000000000000000e+02 1.844549751281738281e+01 5.538760185241699219e+00 1.471179000020819694e-13 6.305052373213257400e-14 6.305052373213257400e-14 -1.213472410662580492e-13
9.230000000000000000e+02 1.721928024291992188e+01 2.587487936019897461e+00 -1.105886215935214523e-13 1.356086738128065017e-13 7.506014649345978118e-15 -1.040834085586084257e-13
9.240000000000000000e+02 4.063862228393554688e+01 1.441198348999023438e+01 3.102486190588275849e-14 2.191756433463087905e-13 7.506014988159157020e-14 -6.286287628816259257e-15
9.250000000000000000e+02 4.011719512939453125e+01 1.505910682678222656e+01 1.473680932059101556e-13 -8.982198258832355120e-14 1.726383420171551802e-14 -6.836728855567561491e-14
9.260000000000000000e+02 4.537668609619140625e+01 8.061603546142578125e+00 1.225982477429804485e-13 -4.753809447325708926e-14 2.251804564210382886e-14 -1.964073909478496194e-14
9.270000000000000000e+02 1.590257263183593750e+01 3.610063076019287109e+00 -2.877305869692509122e-14 -1.038332085785166614e-13 -3.978187814975345238e-14 -1.085870149765237602e-13
9.280000000000000000e+02 1.779106521606445312e+01 3.221285581588745117e+00 -7.756215645877279075e-14 1.251002526260957745e-14 -1.951563910473907981e-14 -4.053248147816053415e-14
9.290000000000000000e+02 1.439655017852783203e+01 3.837492704391479492e+00 -4.128308141843582690e-14 7.380914998113274894e-14 9.757819552369539906e-15 7.806255641895631925e-14
9.300000000000000000e+02 1.514513492584228516e+01 3.007121562957763672e+00 -7.506014988159157020e-14 1.050842084789754827e-13 9.007217918028352643e-15 9.107298248878237246e-14
9.310000000000000000e+02 7.373431396484375000e+01 2.447436714172363281e+01 -1.901523745048965680e-14 -3.102486190588275849e-14 -1.501202929869195624e-14 -8.043945961795986865e-14
9.320000000000000000e+02 6.840295410156250000e+01 2.337728881835937500e+01 -7.506014649345978118e-15 4.253408470702643718e-14 1.050842118671072717e-14 8.506817110811876886e-15
9.330000000000000000e+02 7.314827728271484375e+01 2.500416183471679688e+01 -2.414434890083208551e-14 -2.848532770338002562e-13 -9.269928574751062911e-14 -9.907939540424598457e-14
9.340000000000000000e+02 1.212532424926757812e+01 3.474321603775024414e+00 -9.232398238924119371e-14 -8.531836939414463861e-14 -5.329270756789482311e-14 6.905533680686207210e-14
9.350000000000000000e+02 6.905784606933593750e+01 2.335334396362304688e+01 -1.426142935841666348e-14 -1.433648935244419276e-13 -4.728789449316532501e-14 -1.000802037949425141e-14
9.360000000000000000e+02 6.848267364501953125e+01 2.410360908508300781e+01 -6.204972381176551699e-14 -1.180946345488015359e-13 -5.404330750817011586e-14 -2.301844560228735737e-14
9.370000000000000000e+02 8.083127975463867188e+00 4.477698326110839844e+00 -6.855493684667854359e-14 -1.666335391068210492e-13 -7.055654346367623564e-14 1.396118734942747297e-13
9.380000000000000000e+02 9.722836494445800781e+00 3.733077526092529297e+00 -7.531034986168333445e-14 -3.227586519447336877e-14 -3.227586519447336877e-14 9.707779556351187056e-14
9.390000000000000000e+02 4.845584869384765625e+00 5.104422092437744141e+00 -1.801443583605670529e-14 3.803047490097931360e-14 6.004812227696550847e-15 4.003208151797700565e-14
9.400000000000000000e+02 6.483888626098632812e+00 3.858274221420288086e+00 -6.380113044867144478e-14 -1.188452412653404067e-13 -5.479391083657719763e-14 1.180946345488015359e-13
9.410000000000000000e+02 5.652755260467529297e+00 4.509475231170654297e+00 5.579471075694425464e-14 -1.133408281507944371e-13 -1.726383420171551802e-14 -8.556856937423640286e-14
9.420000000000000000e+02 4.148556232452392578e+00 4.540367603302001953e+00 -1.025822086780578402e-13 4.753809447325708926e-14 -1.651323256737433076e-14 4.703769451307356075e-14
9.430000000000000000e+02 6.462035179138183594e+00 4.502222061157226562e+00 -7.280834328450211390e-14 -2.599583146401657219e-13 -9.983000212078485536e-14 1.861491782115601290e-13
9.440000000000000000e+02 7.580625152587890625e+01 3.270682144165039062e+01 5.504410996963601463e-15 -1.005806020610601481e-13 -2.852285871683332696e-14 1.100882199392720293e-14
9.450000000000000000e+02 7.605662536621093750e+01 3.163602447509765625e+01 8.131516293641283255e-14 -3.377706846315574329e-14 1.426142935841666348e-14 -6.104892389139845998e-14
9.460000000000000000e+02 7.656433105468750000e+01 2.981362342834472656e+01 3.052446194569922999e-14 -5.554451077685249039e-14 -7.506014649345978118e-15 -1.416134868875359998e-13
9.470000000000000000e+02 7.708944702148437500e+01 3.084788894653320312e+01 1.150922280114367868e-14 -8.656937607086703790e-14 -2.251804564210382886e-14 -2.401924891078620339e-14
9.480000000000000000e+02 1.053635215759277344e+01 3.661555528640747070e+00 7.506015284620688559e-16 -2.284330493859676459e-13 -6.830473686658677934e-14 -4.203368474684290867e-14
9.490000000000000000e+02 7.751515197753906250e+01 2.620349311828613281e+01 -3.252606517456513302e-14 -2.426944821325160984e-13 -8.256616283687165381e-14 3.102486190588275849e-14
9.500000000000000000e+02 7.761580657958984375e+01 2.770438766479492188e+01 3.803047490097931360e-14 6.204972381176551699e-14 3.002405859738391247e-14 2.251804564210382886e-14
9.510000000000000000e+02 7.543972778320312500e+01 2.602768898010253906e+01 -6.580273028940555879e-14 6.330072371222433825e-14 -7.506015284620688559e-16 -1.000802037949425141e-14
9.520000000000000000e+02 2.702738046646118164e+00 2.918648147583007812e+01 -2.301844560228735737e-14 -1.471179000020819694e-13 -5.104090097080536681e-14 -7.305854326459387815e-14
9.530000000000000000e+02 3.468309640884399414e+00 2.995879745483398438e+01 -4.628709118466647898e-14 -1.113392215337967450e-13 -4.728789449316532501e-14 6.705373696612795809e-14
9.540000000000000000e+02 1.364294147491455078e+01 3.942665815353393555e+00 -7.005613842129502361e-15 -3.002406113848275424e-15 -3.002406113848275424e-15 1.035830085984248972e-13
9.550000000000000000e+02 1.288050842285156250e+01 4.047951698303222656e+00 -1.183448413051568782e-13 4.078268145825229840e-14 -2.326864727644501613e-14 -2.902325867701685547e-14
9.560000000000000000e+02 7.726297760009765625e+01 2.998325347900390625e+01 4.803849782157240678e-14 -4.803849782157240678e-14 0.000000000000000000e+00 6.154932385158198849e-14
9.570000000000000000e+02 7.674519348144531250e+01 2.899233436584472656e+01 -1.078364150362484675e-13 -2.749703405507258891e-13 -1.148420280313450226e-13 -9.907939540424598457e-14
9.580000000000000000e+02 7.517455291748046875e+01 2.527217292785644531e+01 -1.601283260719080226e-13 1.601283260719080226e-13 0.000000000000000000e+00 -1.180946345488015359e-13
9.590000000000000000e+02 7.706961059570312500e+01 2.770798301696777344e+01 -5.804651735403371093e-14 1.581267126786467525e-13 3.002405859738391247e-14 -1.180946345488015359e-13
9.600000000000000000e+02 7.687049865722656250e+01 2.631290245056152344e+01 -1.351082687704252897e-14 -2.116696303910287069e-13 -6.755413692631148659e-14 -1.766415518630187753e-13
9.610000000000000000e+02 7.630873870849609375e+01 3.067319488525390625e+01 8.957178260823178695e-14 -2.246800564608547601e-13 -4.053248147816053415e-14 2.502005094873562853e-15
9.620000000000000000e+02 7.716210937500000000e+01 3.552117156982421875e+01 -4.278428468711820143e-14 -1.098380216532461595e-13 -4.578669122448295048e-14 5.904731727440076794e-14
9.630000000000000000e+02 7.564109039306640625e+01 3.389308547973632812e+01 -5.254210593355363584e-15 -1.623801191164703228e-13 -5.029030103053007406e-14 -6.004812227696550847e-15
9.640000000000000000e+02 3.767935943603515625e+01 1.872079277038574219e+01 7.043144008549856450e-14 7.593585320004453409e-14 4.391018798566292958e-14 -1.010810020212436766e-13
9.650000000000000000e+02 2.662441492080688477e+00 4.801702022552490234e+00 5.379310752807835161e-14 6.880513682677030785e-14 3.677947500052049234e-14 1.155926347478838934e-13
9.660000000000000000e+02 4.157031059265136719e+00 3.014497375488281250e+01 7.843785977722575464e-14 -3.323913681189255565e-13 -7.618605318013629835e-14 -9.507618725244828400e-15
9.670000000000000000e+02 2.500856399536132812e+00 2.191983985900878906e+01 1.175942362826839019e-14 -4.295942670606150982e-13 -1.253504543002534333e-13 -3.753007494079578510e-14
9.680000000000000000e+02 3.214388847351074219e+00 2.270109176635742188e+01 1.506206997233666689e-13 -2.557049082023421516e-13 -3.152526186606628700e-14 8.106496295632106830e-14
9.690000000000000000e+02 3.258257627487182617e+00 2.430152511596679688e+01 7.631114978205039145e-14 -3.790537491093343148e-13 -9.082278250869060821e-14 6.255012377194904549e-14
9.700000000000000000e+02 7.572515106201171875e+01 3.733694839477539062e+01 -1.951563910473907981e-14 -6.555253030931379454e-14 -2.552045048540268340e-14 -4.578669122448295048e-14
9.710000000000000000e+02 2.457509040832519531e+00 1.469585227966308594e+01 7.506015284620688559e-16 -5.486896744247293789e-13 -1.643817325097315929e-13 5.004010189747125706e-15
9.720000000000000000e+02 3.159995794296264648e+00 1.549574947357177734e+01 -8.757017937936588392e-15 -6.442662701076906639e-13 -1.959069977639296689e-13 2.852285871683332696e-14
9.730000000000000000e+02 3.181580543518066406e+00 1.790138244628906250e+01 8.306656957331876034e-14 -1.931547912066566841e-13 -3.302646513474866152e-14 -2.051644071917203133e-14
9.740000000000000000e+02 2.678929090499877930e+00 8.375547409057617188e+00 3.302646513474866152e-14 -1.230986477031639770e-13 -2.702165375408505793e-14 1.501203056924137712e-15
9.750000000000000000e+02 3.139393329620361328e+00 1.310512924194335938e+01 5.454371085648543338e-14 -4.798845782555405393e-13 -1.276022608973428896e-13 3.302646513474866152e-14
9.760000000000000000e+02 2.449374914169311523e+00 1.150297641754150391e+01 1.251002526260957745e-14 -1.776423517833858323e-13 -4.953969770212299228e-14 1.266014474244486765e-13
9.770000000000000000e+02 3.137445449829101562e+00 1.231740570068359375e+01 1.451162933850842773e-14 -3.597883167609505772e-13 -1.035830085984248972e-13 7.205774334422682115e-14
9.780000000000000000e+02 3.141787052154541016e+00 1.154016304016113281e+01 8.006416303595401129e-14 -5.604491480279416571e-13 -1.441154866884536423e-13 -2.802245536851800944e-14
9.790000000000000000e+02 3.200846195220947266e+00 2.031375503540039062e+01 -2.101684169579509653e-13 -4.103288347122313606e-13 -1.861491782115601290e-13 4.653729455289003225e-14
9.800000000000000000e+02 3.174781799316406250e+00 1.709949111938476562e+01 -2.101684237342145434e-14 -3.292638514271195582e-13 -1.050842084789754827e-13 1.000802021008766196e-13
9.810000000000000000e+02 2.995918035507202148e+00 6.280992984771728516e+00 1.338572688699664684e-14 -1.772670552013799750e-13 -4.916439773198534591e-14 5.354290754798658736e-14
9.820000000000000000e+02 3.473644256591796875e+00 2.842123985290527344e+01 -2.702165375408505793e-14 -2.632109211576222352e-13 -8.706977603105056640e-14 6.355093046857968053e-14
9.830000000000000000e+02 3.441072940826416016e+00 2.759297752380371094e+01 1.200962445539310169e-14 -4.523625126828106913e-13 -1.321058605389946461e-13 -3.052446194569922999e-14
9.840000000000000000e+02 3.190359830856323242e+00 1.001593494415283203e+01 -7.055654346367623564e-14 -3.047442127205451934e-13 -1.125902282105191443e-13 9.657739560332834206e-14
9.850000000000000000e+02 3.206154584884643555e+00 2.111382484436035156e+01 5.779631737394194668e-14 -2.954867795758320259e-13 -7.130714340395152839e-14 1.326062604991781746e-13
9.860000000000000000e+02 2.494054079055786133e+00 2.112110328674316406e+01 -5.304250758780305885e-14 -2.972381997652651098e-13 -1.050842084789754827e-13 -2.251804564210382886e-14
9.870000000000000000e+02 3.157212495803833008e+00 1.077250957489013672e+01 -1.150922280114367868e-14 -2.336872557441582732e-13 -7.355895000104098469e-14 1.230986477031639770e-13
9.880000000000000000e+02 3.378061532974243164e+00 8.578407287597656250e+00 -1.266014474244486765e-13 -4.888918046438983644e-13 -1.846479647784823874e-13 -8.506817110811876886e-15
9.890000000000000000e+02 3.253931999206542969e+00 9.279137611389160156e+00 -6.104892389139845998e-14 1.110890215537049808e-13 1.501202929869195624e-14 4.903929774193946378e-14
9.900000000000000000e+02 3.875214338302612305e+00 3.143770790100097656e+01 -3.027426196560746574e-14 -4.476086927322764364e-13 -1.433648935244419276e-13 9.607699564314481355e-14
9.910000000000000000e+02 4.013344764709472656e+00 3.327317810058593750e+01 -8.932157585187644466e-14 -3.585373100842281779e-13 -1.343576671360841024e-13 4.803849782157240678e-14
9.920000000000000000e+02 4.134962081909179688e+00 3.427331161499023438e+01 -5.629511410525957216e-14 -3.215076317154841323e-13 -1.133408281507944371e-13 5.954771723458429644e-14
9.930000000000000000e+02 3.167729377746582031e+00 1.629756927490234375e+01 9.082278250869060821e-14 -9.832879546397069181e-14 -2.251804479507088161e-15 -9.307458910578006450e-14
9.940000000000000000e+02 4.035743713378906250e+00 7.412477016448974609e+00 -1.576263127184632240e-13 -2.476985088394056955e-13 -1.215974478226133915e-13 -4.143945640599317956e-15
9.950000000000000000e+02 2.685233831405639648e+00 2.839421653747558594e+01 5.929751725449253219e-14 -2.719679407896247181e-13 -6.380113044867144478e-14 -1.190954344691685929e-13
9.960000000000000000e+02 3.906219720840454102e+00 2.268682861328125000e+01 -3.402726844324750755e-14 -4.263416605431585849e-13 -1.381106736137241442e-13 -7.806255641895631925e-14
9.970000000000000000e+02 3.229605674743652344e+00 2.349741744995117188e+01 -8.556856937423640286e-14 -5.399326818977812081e-13 -1.876503780921107145e-13 -1.080866150163402317e-13
9.980000000000000000e+02 2.885983705520629883e+00 3.640687561035156250e+01 1.964073909478496194e-14 -4.262165436124537576e-13 -1.219727444046192488e-13 3.652927163229693908e-14
9.990000000000000000e+02 3.646841049194335938e+00 3.064076995849609375e+01 1.008308020411519124e-13 -2.084170238735721936e-13 -3.227586519447336877e-14 -2.752205498481800731e-15
1.000000000000000000e+03 4.601922225952148438e+01 1.760247993469238281e+01 7.424699825222744187e-14 1.690729939949134342e-13 7.299599835176862062e-14 5.454371085648543338e-14
1.001000000000000000e+03 4.751766204833984375e+01 1.618181800842285156e+01 1.140914348673333079e-13 1.861491782115601290e-13 9.007218256841531545e-14 1.301042606982605321e-14
1.002000000000000000e+03 3.572459030151367188e+01 1.911040496826171875e+01 6.054852393121493148e-14 9.457578898633065001e-14 4.653729455289003225e-14 -7.205774334422682115e-14
1.003000000000000000e+03 3.323363876342773438e+01 1.986526298522949219e+01 1.526222995641007829e-13 2.827265602623613150e-13 1.306046606584440606e-13 7.005613842129502361e-15
1.004000000000000000e+03 7.092572784423828125e+01 2.500169944763183594e+01 4.528629126429942198e-14 -1.178444413449733497e-13 -2.176744400776264160e-14 -6.204972381176551699e-14
1.005000000000000000e+03 7.109044647216796875e+01 2.426323890686035156e+01 5.504410996963601463e-15 1.396118734942747297e-13 4.353488801552528320e-14 -1.050842118671072717e-14
1.006000000000000000e+03 7.482170867919921875e+01 2.450687980651855469e+01 -5.610746242612485446e-14 2.170489401273970054e-14 -1.032077035460895673e-14 1.150922280114367868e-14
1.007000000000000000e+03 4.674525833129882812e+01 1.209633922576904297e+01 9.732799554360363481e-14 -4.978990107034654555e-14 1.426142935841666348e-14 1.801443583605670529e-14
1.008000000000000000e+03 1.613051605224609375e+01 1.139105892181396484e+01 3.627907165220517482e-14 6.129912387149022424e-14 2.927345865710861972e-14 4.853889778175593528e-14
1.009000000000000000e+03 1.627649116516113281e+01 1.050996398925781250e+01 -2.927345865710861972e-14 -5.829671733412547519e-14 -2.627105211974387067e-14 -1.551243095294137925e-14
1.010000000000000000e+03 5.968141555786132812e+01 2.738961219787597656e+01 -1.576263093303314350e-14 -8.681957605095880215e-14 -3.077466192579099424e-14 1.301042606982605321e-14
1.011000000000000000e+03 4.809230041503906250e+01 1.784033584594726562e+01 1.451162866088206993e-13 -7.506014988159157020e-14 2.101684237342145434e-14 4.303448466720996568e-14
1.012000000000000000e+03 3.320729446411132812e+01 2.094029998779296875e+01 -2.201764398785440585e-14 -1.581267126786467525e-13 -5.404330750817011586e-14 1.050842118671072717e-14
1.013000000000000000e+03 4.579360198974609375e+01 8.836541175842285156e+00 -4.078268145825229840e-14 -2.919839934070744825e-13 -9.983000212078485536e-14 6.255012377194904549e-14
1.014000000000000000e+03 4.690178298950195312e+01 1.039882755279541016e+01 9.057258252859884395e-14 -7.556054984177509870e-14 4.503608959014176322e-15 1.926543912464731556e-13
1.015000000000000000e+03 3.263122177124023438e+01 2.168342399597167969e+01 7.506014649345978118e-15 1.175942345886180074e-13 3.753007494079578510e-14 -6.342582709040200939e-14
1.016000000000000000e+03 3.903343582153320312e+01 1.749678230285644531e+01 4.939896148387079577e-14 1.584238247314892489e-13 6.234683586460801341e-14 2.952365863720038397e-14
1.017000000000000000e+03 4.426039886474609375e+01 9.008337020874023438e+00 6.523977864013319472e-14 2.795990537349506838e-14 2.795990537349506838e-14 -5.304250758780305885e-14
1.018000000000000000e+03 1.655277061462402344e+01 1.575929355621337891e+01 7.981396305586224704e-14 2.629607144012668929e-13 1.028324086581496044e-13 -7.005614350349270714e-14
1.019000000000000000e+03 1.589220619201660156e+01 1.486427593231201172e+01 1.010810020212436766e-13 8.907137587178468041e-14 5.704571743366665393e-14 -4.453568793589234021e-14
1.020000000000000000e+03 4.733285522460937500e+01 1.532067489624023438e+01 1.208468411060745207e-13 5.179150429921244858e-14 5.179150429921244858e-14 1.566255127980961670e-13
1.021000000000000000e+03 4.807619094848632812e+01 1.521771526336669922e+01 6.029832395112316723e-14 1.173440413847898212e-13 5.329270756789482311e-14 6.104892389139845998e-14
1.022000000000000000e+03 1.660305976867675781e+01 4.478979110717773438e+00 -6.104892389139845998e-14 1.110890215537049808e-13 1.501202929869195624e-14 -2.351884725653678038e-14
1.023000000000000000e+03 7.180309295654296875e+01 2.441422271728515625e+01 1.200962445539310169e-14 -1.321058605389946461e-13 -3.602887167211341057e-14 8.356696953350228885e-14
1.024000000000000000e+03 4.530246353149414062e+01 9.802442550659179688e+00 -4.803849782157240678e-14 -1.120898214740720378e-13 -4.803849782157240678e-14 5.854691731421723944e-14
1.025000000000000000e+03 3.692779541015625000e+01 1.925923538208007812e+01 4.215878473688879080e-14 -7.343384662286331355e-14 -9.382518735198946275e-15 -2.702165375408505793e-14
1.026000000000000000e+03 3.617055511474609375e+01 1.974117279052734375e+01 2.608340213467504748e-14 -1.718252005521864190e-13 -4.372253630652821188e-14 -7.806255641895631925e-14
1.027000000000000000e+03 4.519154739379882812e+01 1.460369300842285156e+01 2.527025050531091915e-14 1.023320019217024979e-13 3.828067826920286687e-14 -3.102486190588275849e-14
1.028000000000000000e+03 7.252512359619140625e+01 2.462266921997070312e+01 1.501202929869195624e-14 -5.004010189747125706e-15 3.002406113848275424e-15 3.177546523428984027e-14
1.029000000000000000e+03 4.313551712036132812e+01 1.216971588134765625e+01 6.386367536149670232e-14 7.312109495368271372e-14 4.109543312743289822e-14 -1.301042606982605321e-14
1.030000000000000000e+03 1.658881950378417969e+01 3.369813680648803711e+00 -1.506206997233666689e-13 -6.455173038894673754e-14 -6.455173038894673754e-14 -1.401122870069854143e-13
1.031000000000000000e+03 4.701136398315429688e+01 1.364638614654541016e+01 7.506014649345978118e-15 -4.253408470702643718e-14 -1.050842118671072717e-14 1.836471648581153304e-13
1.032000000000000000e+03 4.716525650024414062e+01 1.446785259246826172e+01 4.378508799561704745e-14 1.876503747039789255e-14 1.876503747039789255e-14 1.726383521815505473e-13
1.033000000000000000e+03 9.711250305175781250e+00 5.072150230407714844e+00 3.502807175174635357e-14 1.501202929869195624e-14 1.501202929869195624e-14 1.276022608973428896e-13
1.034000000000000000e+03 1.211172771453857422e+01 4.150809764862060547e+00 3.903127820947815962e-14 2.912333731380084556e-13 9.907939540424598457e-14 6.405133042876320904e-14
1.035000000000000000e+03 1.132849407196044922e+01 4.245584964752197266e+00 5.779631737394194668e-14 2.476984885106149614e-14 2.476984885106149614e-14 1.251002526260957745e-14
1.036000000000000000e+03 3.838587188720703125e+01 1.812761497497558594e+01 -3.804611451731741700e-14 2.944547071990523401e-14 -2.580192588652239181e-15 -7.205774334422682115e-14
1.037000000000000000e+03 7.039380645751953125e+01 2.414671897888183594e+01 2.401924891078620339e-14 -1.040834085586084257e-13 -2.401924891078620339e-14 -1.451162933850842773e-14
1.038000000000000000e+03 6.462008666992187500e+01 2.605435180664062500e+01 -5.291740759775717673e-14 -6.842984024476445049e-14 -3.640417164225105695e-14 2.552045048540268340e-14
1.039000000000000000e+03 6.352432632446289062e+01 2.538460731506347656e+01 -5.379310752807835161e-14 -6.880513682677030785e-14 -3.677947500052049234e-14 -1.130906281707026728e-13
1.040000000000000000e+03 6.055700302124023438e+01 2.499082565307617188e+01 -4.003208151797700565e-14 -2.001604042017532392e-13 -7.205774334422682115e-14 -4.403528797570881170e-14
1.041000000000000000e+03 5.948170089721679688e+01 2.622505760192871094e+01 -3.240096518451925089e-14 -1.740144486839234617e-13 -6.192462720985142388e-14 -1.351082687704252897e-14
1.042000000000000000e+03 1.847674179077148438e+01 3.232457637786865234e+00 8.331676955341052460e-14 -5.579471075694425464e-14 8.256616283687165381e-15 -8.306656957331876034e-14
1.043000000000000000e+03 3.427697753906250000e+01 1.994834709167480469e+01 1.381106736137241442e-13 8.206576287668812530e-14 6.605293026949732305e-14 5.554451077685249039e-14
1.044000000000000000e+03 3.370109176635742188e+01 2.033288383483886719e+01 3.953167816966168813e-14 -5.454371085648543338e-14 -4.503608959014176322e-15 -7.046271931817477130e-14
1.045000000000000000e+03 7.607140350341796875e+01 2.574053001403808594e+01 -1.213472410662580492e-13 -6.255012631304788726e-15 -3.828067826920286687e-14 -6.305052373213257400e-14
1.046000000000000000e+03 5.732275009155273438e+01 2.601401138305664062e+01 -3.978187814975345238e-14 -6.280032375204080974e-14 -3.077466192579099424e-14 2.602085213965210642e-14
1.047000000000000000e+03 5.628484725952148438e+01 2.592223548889160156e+01 -1.165934346682509504e-13 -1.986592043212026537e-13 -9.457578898633065001e-14 -1.050842118671072717e-14
1.048000000000000000e+03 6.972260284423828125e+01 2.406840705871582031e+01 7.556054984177509870e-14 1.696359388679222202e-13 7.355895000104098469e-14 8.907137587178468041e-14
1.049000000000000000e+03 6.648741149902343750e+01 2.369252204895019531e+01 -5.304250758780305885e-14 -2.972381997652651098e-13 -1.050842084789754827e-13 3.252606517456513302e-14
1.050000000000000000e+03 1.593343162536621094e+01 1.401709270477294922e+01 8.731997601114233065e-14 6.029832395112316723e-14 4.428548795580057595e-14 1.050842118671072717e-14
1.051000000000000000e+03 1.596985626220703125e+01 1.314836311340332031e+01 9.282438912568830025e-14 3.978187814975345238e-14 3.978187814975345238e-14 -8.456776945386934585e-14
1.052000000000000000e+03 4.341001510620117188e+01 1.032089424133300781e+01 7.055654346367623564e-14 -1.551243095294137925e-14 1.651323256737433076e-14 -1.200962445539310169e-14
1.053000000000000000e+03 4.357125473022460938e+01 1.148557472229003906e+01 4.090778144829818053e-14 -1.197209378075297925e-13 -2.364394724658266250e-14 1.401122768425900472e-14
1.054000000000000000e+03 4.267477035522460938e+01 1.285226726531982422e+01 6.355093046857968053e-14 -1.851483749030612830e-14 1.351082687704252897e-14 -2.201764398785440585e-14
1.055000000000000000e+03 4.114371490478515625e+01 1.375773620605468750e+01 1.030200569491525331e-13 -4.735044618225416058e-14 1.670088424650904846e-14 -9.607699564314481355e-14
1.056000000000000000e+03 1.733858299255371094e+01 8.822914123535156250e+00 7.506014649345978118e-15 1.175942345886180074e-13 3.753007494079578510e-14 -9.907939540424598457e-14
1.057000000000000000e+03 1.745026206970214844e+01 6.266667842864990234e+00 -3.953167816966168813e-14 7.455974992140804170e-14 1.050842118671072717e-14 -6.755413692631148659e-14
1.058000000000000000e+03 4.920973587036132812e+01 1.842833137512207031e+01 1.005806020610601481e-13 -1.856487782513766005e-13 -2.552045048540268340e-14 -2.251804479507088161e-15
1.059000000000000000e+03 1.678460884094238281e+01 1.735130119323730469e+01 1.451162866088206993e-13 2.451964954859608969e-13 1.170938346284344789e-13 -7.255814330441034965e-14
1.060000000000000000e+03 1.552105903625488281e+01 1.645087051391601562e+01 1.271018609371593611e-13 -3.702967498061225660e-14 2.702165375408505793e-14 5.004010105043830980e-14
1.061000000000000000e+03 1.625790405273437500e+01 7.874958038330078125e+00 -1.551243095294137925e-14 -1.896519779328448285e-13 -6.154932385158198849e-14 -7.380914998113274894e-14
1.062000000000000000e+03 3.208023071289062500e+01 2.263583755493164062e+01 6.830473686658677934e-14 2.927345865710861972e-14 2.927345865710861972e-14 -5.804651735403371093e-14
1.063000000000000000e+03 6.249782562255859375e+01 2.467405891418457031e+01 -5.229190425939597708e-14 -4.528629126429942198e-14 -2.927345865710861972e-14 -6.805453688649501509e-14
1.064000000000000000e+03 6.517047882080078125e+01 2.487994575500488281e+01 7.881315635923161200e-14 3.377706846315574329e-14 3.377706846315574329e-14 -5.004010189747125706e-16
1.065000000000000000e+03 4.889384078979492188e+01 1.999810218811035156e+01 8.306656957331876034e-14 1.271018609371593611e-13 6.305052373213257400e-14 1.511210996835501974e-13
1.066000000000000000e+03 1.646333503723144531e+01 9.636947631835937500e+00 8.731997601114233065e-14 2.204266364705040337e-13 9.232398238924119371e-14 2.802245536851800944e-14
1.067000000000000000e+03 8.896289825439453125e+00 4.447746276855468750e+00 1.351082687704252897e-14 5.154130431912068433e-14 1.951563910473907981e-14 2.251804564210382886e-14
1.068000000000000000e+03 4.669829559326171875e+01 9.562679290771484375e+00 -8.556856937423640286e-14 -2.196760433064923190e-13 -9.157338244896590096e-14 1.536231130369949960e-13
1.069000000000000000e+03 2.320824050903320312e+01 2.534557914733886719e+01 8.206576287668812530e-14 2.181748434259417335e-13 9.007218256841531545e-14 1.273520541409875473e-13
1.070000000000000000e+03 2.554820060729980469e+01 2.450391197204589844e+01 1.135910281308862013e-13 -8.857097591160115191e-14 7.506014649345978118e-15 5.004010189747125706e-16
1.071000000000000000e+03 4.841935348510742188e+01 1.861458206176757812e+01 9.782839550378716331e-14 -2.554547014459868093e-13 -4.728789449316532501e-14 1.318556673351664599e-13
1.072000000000000000e+03 6.579205322265625000e+01 2.384248161315917969e+01 -1.351082687704252897e-14 -5.154130431912068433e-14 -1.951563910473907981e-14 -7.756215645877279075e-14
1.073000000000000000e+03 6.536730194091796875e+01 2.569527053833007812e+01 -2.552045048540268340e-14 8.056456299613753980e-14 1.651323256737433076e-14 -6.455173038894673754e-14
1.074000000000000000e+03 4.382310104370117188e+01 9.638960838317871094e+00 1.826463649377482734e-13 3.252606517456513302e-14 6.455173038894673754e-14 7.105694342385976414e-14
1.075000000000000000e+03 4.653325271606445312e+01 1.136084270477294922e+01 1.281026608575264181e-13 1.921539912862896271e-13 9.607699564314481355e-14 6.605293026949732305e-14
1.076000000000000000e+03 4.652366638183593750e+01 8.655195236206054688e+00 7.130714340395152839e-14 -8.381716951359405310e-14 -3.753007324672989059e-15 4.803849782157240678e-14
1.077000000000000000e+03 3.040337181091308594e+01 2.414029502868652344e+01 1.055220635263337536e-13 4.522373957521058641e-14 4.522373957521058641e-14 1.200962445539310169e-14
1.078000000000000000e+03 2.953261566162109375e+01 2.472397041320800781e+01 3.477786838352280030e-14 9.782839550378716331e-14 3.978187814975345238e-14 -4.653729455289003225e-14
1.079000000000000000e+03 5.210065460205078125e+01 2.384542846679687500e+01 9.707779556351187056e-14 1.331066604593617031e-13 6.905533680686207210e-14 5.304250758780305885e-14
1.080000000000000000e+03 5.158553314208984375e+01 2.137563514709472656e+01 1.085870149765237602e-13 2.867297870488838551e-13 1.185950345089850644e-13 1.193456412255239352e-13
1.081000000000000000e+03 1.758186340332031250e+01 3.902470588684082031e+00 -4.403528797570881170e-14 4.003208151797700565e-15 -1.200962445539310169e-14 -2.802245536851800944e-14
1.082000000000000000e+03 1.731324768066406250e+01 4.609955787658691406e+00 -4.753809447325708926e-14 2.502005094873562853e-15 -1.351082687704252897e-14 -1.486190998826325549e-13
1.083000000000000000e+03 1.717571640014648438e+01 3.204500198364257812e+00 -7.005614350349270714e-14 -3.002405859738391247e-14 -3.002405859738391247e-14 -2.702165375408505793e-14
1.084000000000000000e+03 1.685865783691406250e+01 1.820773315429687500e+01 -7.881315635923161200e-14 -3.377706846315574329e-14 -3.377706846315574329e-14 7.906335633932337625e-14
1.085000000000000000e+03 1.578546428680419922e+01 1.569923973083496094e+01 2.051644071917203133e-14 5.454371085648543338e-14 2.251804564210382886e-14 9.557658890669770702e-14
1.086000000000000000e+03 2.878801918029785156e+01 2.544036102294921875e+01 8.539656069957157758e-14 -5.490337121028497636e-14 9.147955830346443662e-15 3.402726844324750755e-14
1.087000000000000000e+03 2.793201446533203125e+01 2.445874977111816406e+01 4.860144608271298183e-14 3.315156724237691178e-15 1.557498094796432031e-14 -4.702205828486724637e-14
1.088000000000000000e+03 1.667816162109375000e+01 2.090307998657226562e+01 6.705373696612795809e-14 -1.701363422162375377e-14 1.501202929869195624e-14 -3.252606517456513302e-14
1.089000000000000000e+03 7.656653594970703125e+01 2.474592399597167969e+01 -5.654531408535133641e-14 2.151724233360498284e-14 -1.050842118671072717e-14 -7.856295637913984775e-14
1.090000000000000000e+03 2.633192062377929688e+01 2.458170509338378906e+01 1.546239129573620530e-13 2.051644071917203133e-14 5.254210423948774134e-14 1.451162933850842773e-14
1.091000000000000000e+03 6.260368728637695312e+01 2.561334609985351562e+01 -5.704571743366665393e-14 -9.307458910578006450e-14 -4.503609128420765773e-14 5.554451077685249039e-14
1.092000000000000000e+03 6.162385177612304688e+01 2.581991195678710938e+01 -7.806255641895631925e-14 -2.622101212372551782e-13 -1.020818019416107336e-13 -2.401924891078620339e-14
1.093000000000000000e+03 1.566398334503173828e+01 1.758319091796875000e+01 1.050842118671072717e-14 -3.552847171192988207e-14 -7.506014649345978118e-15 1.075862150561567032e-13
1.094000000000000000e+03 1.926518058776855469e+01 2.228295135498046875e+01 1.266014474244486765e-13 -7.155734338404329264e-14 1.651323256737433076e-14 6.755413438521264483e-15
1.095000000000000000e+03 1.779099655151367188e+01 2.289008522033691406e+01 7.180754336413505690e-14 3.077466192579099424e-14 3.077466192579099424e-14 1.000802037949425141e-14
1.096000000000000000e+03 4.875464248657226562e+01 2.058962059020996094e+01 1.741395520621011328e-13 -7.405934996122451319e-14 3.002405859738391247e-14 5.754611739385018243e-14
1.097000000000000000e+03 4.952892684936523438e+01 2.087138175964355469e+01 6.154932385158198849e-14 1.636311257931927221e-13 6.755413692631148659e-14 1.426142935841666348e-14
1.098000000000000000e+03 5.393006515502929688e+01 2.423297119140625000e+01 -8.757017937936588392e-15 -3.753007324672989059e-15 -3.753007324672989059e-15 -1.501202929869195624e-14
1.099000000000000000e+03 5.308039474487304688e+01 2.610856056213378906e+01 -3.878107738235344812e-15 -4.741299448321120713e-14 -1.538733096289549712e-14 8.506816941405287436e-14
1.100000000000000000e+03 2.405790090560913086e+00 3.817614364624023438e+01 -1.200962445539310169e-14 -3.482791041242022656e-13 -1.080866150163402317e-13 -8.006416303595401129e-15
1.101000000000000000e+03 7.843058013916015625e+01 4.029066085815429688e+01 -7.706175649858926224e-14 -3.302646513474866152e-14 -3.302646513474866152e-14 1.501202929869195624e-14
1.102000000000000000e+03 7.427169799804687500e+01 3.899752426147460938e+01 -8.882117927982470518e-15 -7.243304670249625654e-14 -2.439454888092384977e-14 -5.529431079676072613e-14
1.103000000000000000e+03 1.980999183654785156e+01 2.444582557678222656e+01 1.357337771909841728e-13 -1.019567053396966405e-13 1.013312036954013354e-14 -5.004010189747125706e-15
1.104000000000000000e+03 1.625122451782226562e+01 2.339632606506347656e+01 1.346547791889265988e-13 -3.379270469136205768e-14 3.025862234926936234e-14 1.851483749030612830e-14
1.105000000000000000e+03 4.141413211822509766e+00 4.174993896484375000e+01 -5.054050101062183831e-14 -3.247602382329406456e-13 -1.125902282105191443e-13 4.916439773198534591e-14
1.106000000000000000e+03 7.675776672363281250e+01 4.189500045776367188e+01 -1.388612769421312260e-14 6.267522715012671664e-14 1.463672932855430986e-14 6.004811719476782494e-14
1.107000000000000000e+03 5.437912750244140625e+01 2.552762413024902344e+01 -3.352686848306397904e-14 -7.155734338404329264e-14 -3.152526186606628700e-14 -1.488692930864607411e-14
1.108000000000000000e+03 5.355228042602539062e+01 2.520785903930664062e+01 -9.057258252859884395e-14 -8.456776945386934585e-14 -5.254210423948774134e-14 2.902325867701685547e-14
1.109000000000000000e+03 4.887338638305664062e+00 4.026921844482421875e+01 -3.039936195565334787e-14 -3.561604136614882066e-13 -1.159679313298897507e-13 2.752205540833448094e-14
1.110000000000000000e+03 7.577024841308593750e+01 3.878124237060546875e+01 -4.753809362622414200e-15 -1.278524541011710758e-13 -3.978187814975345238e-14 7.405934996122451319e-14
1.111000000000000000e+03 1.773965644836425781e+01 5.461292266845703125e+00 -6.455173038894673754e-14 1.095878216731543953e-13 1.351082687704252897e-14 -1.030826086382413687e-13
1.112000000000000000e+03 1.585326480865478516e+01 4.424159049987792969e+00 -1.055846084391590112e-13 5.004010189747125706e-16 -3.152526186606628700e-14 -9.507618894651417851e-14
1.113000000000000000e+03 1.509193897247314453e+01 4.486921310424804688e+00 -8.181556289659636105e-14 -2.409430890481373266e-13 -9.682759558342010631e-14 -7.706175649858926224e-14
1.114000000000000000e+03 1.677242469787597656e+01 6.199458122253417969e+00 -1.851483749030612830e-14 8.356696953350228885e-14 1.951563910473907981e-14 -1.240994476235310340e-13
1.115000000000000000e+03 1.434956169128417969e+01 4.560411453247070312e+00 3.277626515465689727e-14 5.979791721467606069e-14 2.777225538842624519e-14 2.151724301123134064e-13
1.116000000000000000e+03 7.584842681884765625e+01 2.494861412048339844e+01 -1.248500543400699048e-13 -7.756215476470689624e-15 -3.978187814975345238e-14 6.555253030931379454e-14
1.117000000000000000e+03 4.552116012573242188e+01 1.283568859100341797e+01 -1.576263093303314350e-14 1.533729062806396537e-13 4.128308141843582690e-14 1.235990476633475055e-13
1.118000000000000000e+03 4.481026458740234375e+01 1.250703525543212891e+01 2.014114074903438495e-14 8.631917100857759012e-15 8.631917100857759012e-15 -1.951563910473907981e-14
1.119000000000000000e+03 4.169187545776367188e+00 6.469268321990966797e+00 -9.457578898633065001e-14 -2.807249604216272010e-13 -1.125902282105191443e-13 -5.079070099071360256e-14
1.120000000000000000e+03 5.598865985870361328e+00 5.165745258331298828e+00 -1.488692930864607411e-13 -3.840577758162239119e-13 -1.598781193155526803e-13 -1.235990476633475055e-13
1.121000000000000000e+03 3.414458274841308594e+00 4.659944534301757812e+00 -3.928147818956992388e-14 -1.083368149964319960e-13 -4.428548795580057595e-14 -1.200962445539310169e-14
1.122000000000000000e+03 7.275102615356445312e+00 4.491549968719482422e+00 -1.115894215138885093e-13 -9.357498906596359300e-14 -6.154932385158198849e-14 -2.151724233360498284e-14
1.123000000000000000e+03 6.446251392364501953e+00 5.131754398345947266e+00 -5.704571743366665393e-14 -2.532028948488973530e-13 -9.307458910578006450e-14 2.241796429481440756e-13
1.124000000000000000e+03 7.262743473052978516e+00 5.139015197753906250e+00 -6.630313024958908730e-14 -2.114194236346733646e-13 -8.331676955341052460e-14 -2.502005094873562853e-15
1.125000000000000000e+03 4.905469894409179688e+00 3.315335845947265625e+01 5.304250758780305885e-14 -3.432750774173126684e-13 -8.706977603105056640e-14 5.329270756789482311e-14
1.126000000000000000e+03 7.456929779052734375e+01 3.012875747680664062e+01 3.377706846315574329e-14 -1.113392215337967450e-13 -2.326864727644501613e-14 -1.038332119666484504e-14
1.127000000000000000e+03 7.527596282958984375e+01 3.153079986572265625e+01 -2.376904723662854463e-14 -2.389414892074032126e-13 -7.881315635923161200e-14 7.005613842129502361e-15
1.128000000000000000e+03 1.360223770141601562e+01 4.644734859466552734e+00 -7.706175649858926224e-14 -3.302646513474866152e-14 -3.302646513474866152e-14 2.001604075898850282e-14
1.129000000000000000e+03 7.698690032958984375e+01 2.704578018188476562e+01 1.098380216532461595e-13 9.282438912568830025e-14 6.079872391130669573e-14 -9.107298248878237246e-14
1.130000000000000000e+03 7.590737152099609375e+01 2.959535026550292969e+01 1.063352151556978820e-13 -2.289334628986783304e-13 -3.677947500052049234e-14 2.652125379390152943e-14
1.131000000000000000e+03 7.558454895019531250e+01 2.846708869934082031e+01 8.838332762059822323e-14 -2.366271241449613427e-13 -4.447313963493529365e-14 1.110890215537049808e-13
1.132000000000000000e+03 7.574544525146484375e+01 3.518767929077148438e+01 -4.591179121452883261e-14 -6.542743370739970143e-14 -3.340176849301809692e-14 2.802245536851800944e-14
1.133000000000000000e+03 7.426699066162109375e+01 2.933432960510253906e+01 -4.503608959014176322e-15 -7.055654346367623564e-14 -2.251804564210382886e-14 1.090874217129708668e-13
1.134000000000000000e+03 7.565083312988281250e+01 3.030566406250000000e+01 -3.490296837356868243e-14 -1.064603117576119751e-13 -4.240898471698055505e-14 8.006416303595401129e-15
1.135000000000000000e+03 7.641892242431640625e+01 2.721428298950195312e+01 -2.502005094873562853e-16 -1.373600804497124295e-13 -4.128308141843582690e-14 -2.151724301123134064e-13
1.136000000000000000e+03 7.625610351562500000e+01 2.649592971801757812e+01 3.302646513474866152e-14 1.971579908881249121e-13 6.905533680686207210e-14 4.003208151797700565e-15
1.137000000000000000e+03 7.696837615966796875e+01 2.830198478698730469e+01 -2.852285871683332696e-14 3.352686848306397904e-14 1.501203056924137712e-15 -4.253408470702643718e-14
1.138000000000000000e+03 7.482019042968750000e+01 2.638681602478027344e+01 -5.917242065257843908e-14 2.039134072912614920e-14 -1.163432363822250806e-14 -6.004812227696550847e-15
1.139000000000000000e+03 4.216638565063476562e+00 5.107280254364013672e+00 -2.827265704267566820e-14 -1.493696930466442696e-13 -5.329270756789482311e-14 -6.505213034913026604e-14
1.140000000000000000e+03 7.429774475097656250e+01 3.717549896240234375e+01 -5.341780755794070523e-14 -2.289334561224147524e-14 -2.289334561224147524e-14 3.828067826920286687e-14
1.141000000000000000e+03 3.208683013916015625e+00 2.190880584716796875e+01 7.506015284620688559e-16 -2.284330493859676459e-13 -6.830473686658677934e-14 1.070858150959731747e-13
1.142000000000000000e+03 4.579989433288574219e+00 2.269934463500976562e+01 2.051644071917203133e-14 -2.657129345110670338e-13 -7.355895000104098469e-14 5.704571743366665393e-14
1.143000000000000000e+03 3.396148204803466797e+00 2.675963783264160156e+01 -5.804651735403371093e-14 -4.823865916089853378e-13 -1.621299259126421366e-13 1.316054605788111176e-13
1.144000000000000000e+03 4.275100708007812500e+00 2.931604194641113281e+01 3.152526186606628700e-14 -3.067458125612793074e-13 -8.256616283687165381e-14 -2.552045048540268340e-14
1.145000000000000000e+03 1.284977149963378906e+01 4.737844467163085938e+00 -1.711371387484728057e-13 -1.190954344691685929e-13 -8.706977603105056640e-14 -1.451162933850842773e-14
1.146000000000000000e+03 3.920032978057861328e+00 2.190724754333496094e+01 3.727987496070402085e-14 -3.500304972085810373e-13 -9.382518904605535726e-14 -1.551243095294137925e-14
1.147000000000000000e+03 3.150884151458740234e+00 1.469760036468505859e+01 9.707779556351187056e-14 -5.074066167232160751e-13 -1.230986477031639770e-13 -4.453568793589234021e-14
1.148000000000000000e+03 3.854702711105346680e+00 1.549742126464843750e+01 9.282438912568830025e-14 -4.406030932897070373e-13 -1.043336085387001899e-13 1.301042606982605321e-13
1.149000000000000000e+03 3.143698215484619141e+00 1.390045547485351562e+01 9.257418236933295796e-14 -7.380914998113274894e-13 -1.936551911668402126e-13 1.055846084391590112e-13
1.150000000000000000e+03 3.841724634170532227e+00 1.470490741729736328e+01 1.108388215736132165e-13 -7.988901966175798730e-13 -2.064154104803109235e-13 1.100882199392720293e-14
1.151000000000000000e+03 3.875587701797485352e+00 1.709533882141113281e+01 9.457578898633065001e-14 -1.195958344293521214e-13 -7.506014649345978118e-15 9.307458910578006450e-14
1.152000000000000000e+03 3.187584638595581055e+00 1.870494651794433594e+01 -3.627907165220517482e-14 -3.815557624627791133e-13 -1.253504543002534333e-13 -4.253408470702643718e-14
1.153000000000000000e+03 3.853926181793212891e+00 1.084895133972167969e+01 4.628709118466647898e-14 -5.291740353199902991e-13 -1.448660934049925131e-13 -1.351082738526229732e-13
1.154000000000000000e+03 3.826480388641357422e+00 1.235762691497802734e+01 1.588773193951856233e-13 -2.064154104803109235e-13 -1.426142935841666348e-14 -9.607699564314481355e-14
1.155000000000000000e+03 3.909795999526977539e+00 1.950437927246093750e+01 -1.263512542206204903e-13 -3.515317106416587789e-13 -1.433648935244419276e-13 1.501203056924137712e-15
1.156000000000000000e+03 3.615133523941040039e+00 7.936987400054931641e+00 -6.004812227696550847e-15 -2.542037218743187221e-13 -7.806255641895631925e-14 1.000802037949425141e-14
1.157000000000000000e+03 4.034807682037353516e+00 8.778940200805664062e+00 -5.479391083657719763e-14 2.226784396794617010e-14 -9.757819552369539906e-15 1.311050606186275891e-13
1.158000000000000000e+03 4.635765552520751953e+00 1.948933219909667969e+01 4.803849782157240678e-14 -3.682951296365977178e-13 -9.607699564314481355e-14 1.050842118671072717e-14
1.159000000000000000e+03 3.944408178329467773e+00 9.417246818542480469e+00 -4.978990107034654555e-14 -1.128404281906109086e-13 -4.878909776184769953e-14 8.706977603105056640e-14
1.160000000000000000e+03 3.885980129241943359e+00 1.789649772644042969e+01 -5.304250758780305885e-14 -4.573665122846459763e-13 -1.531227130768114675e-13 9.557658890669770702e-14
1.161000000000000000e+03 4.177744865417480469e+00 8.234572410583496094e+00 -1.861491782115601290e-13 -3.542839036464046076e-13 -1.621299259126421366e-13 1.501202997631831404e-13
1.162000000000000000e+03 3.347706794738769531e+00 2.593217086791992188e+01 1.090874217129708668e-13 -3.192558522234489882e-13 -6.305052373213257400e-14 6.805453688649501509e-14
1.163000000000000000e+03 4.274209022521972656e+00 2.846151733398437500e+01 1.008308020411519124e-13 -3.685453363929530601e-13 -8.031436301604577555e-14 -6.505213034913026604e-15
1.164000000000000000e+03 3.888109922409057617e+00 1.011565113067626953e+01 -8.807057595141762341e-14 -3.122502256758252770e-13 -1.200962343895356499e-13 -1.020818019416107336e-13
1.165000000000000000e+03 3.929977178573608398e+00 3.235305023193359375e+01 1.243496543798863763e-13 -2.669639411877894331e-13 -4.278428468711820143e-14 -4.253408470702643718e-14
1.166000000000000000e+03 3.865880489349365234e+00 1.629545211791992188e+01 2.802245536851800944e-14 -3.082470259943570490e-13 -8.406736949368581735e-14 1.446158866486371708e-13
1.167000000000000000e+03 3.299712419509887695e+00 2.511286544799804688e+01 -4.478589130411589347e-14 -5.682053135294684587e-13 -1.838973716144706727e-13 1.135910281308862013e-13
1.168000000000000000e+03 4.158408641815185547e+00 2.674217987060546875e+01 1.050842118671072717e-14 -4.758813785740723112e-13 -1.396118734942747297e-13 -1.951563910473907981e-14
1.169000000000000000e+03 4.227105140686035156e+00 2.759852409362792969e+01 -9.157338244896590096e-14 -3.137514391089030186e-13 -1.215974478226133915e-13 2.502005052521915490e-14
1.170000000000000000e+03 4.815200328826904297e+00 3.234627532958984375e+01 -5.929751725449253219e-14 -2.084170238735721936e-13 -8.031436301604577555e-14 4.653729455289003225e-14
1.171000000000000000e+03 4.007380008697509766e+00 2.507460021972656250e+01 1.193456412255239352e-13 -4.521123059264553490e-13 -9.983000212078485536e-14 2.552045048540268340e-14
1.172000000000000000e+03 3.910897254943847656e+00 2.346919822692871094e+01 6.204972381176551699e-14 -3.622903301143953758e-13 -9.007218256841531545e-14 1.306046606584440606e-13
1.173000000000000000e+03 3.946094036102294922e+00 2.426561927795410156e+01 2.752205540833448094e-14 -2.627105347499658627e-13 -7.055654346367623564e-14 1.000802037949425141e-14
1.174000000000000000e+03 5.397708415985107422e+00 3.538379287719726562e+01 6.017322057294549609e-14 -1.114643249119744162e-13 -1.538733096289549712e-14 -6.255012631304788726e-15
1.175000000000000000e+03 3.902697753906250000e+01 1.878903770446777344e+01 1.028949535709748619e-14 4.409783966479764727e-15 4.409783966479764727e-15 3.702967498061225660e-14
1.176000000000000000e+03 4.898172378540039062e+00 3.143363571166992188e+01 9.107298248878237246e-14 -2.812253739343378856e-13 -5.704571743366665393e-14 -9.207378240914942946e-14
1.177000000000000000e+03 4.777069091796875000e+01 1.702598571777343750e+01 8.206576287668812530e-14 5.804651735403371093e-14 4.203368474684290867e-14 1.666335391068210492e-13
1.178000000000000000e+03 4.082373809814453125e+01 1.669137382507324219e+01 7.756215476470689624e-15 9.482598896642241426e-14 3.077466192579099424e-14 -5.004010189747125706e-15
1.179000000000000000e+03 4.324499130249023438e+01 1.332210445404052734e+01 -1.551243095294137925e-14 1.105886215935214523e-13 2.852285871683332696e-14 -3.715477497065813872e-14
1.180000000000000000e+03 4.621799468994140625e+01 1.060773181915283203e+01 -2.001604075898850282e-15 -1.381106736137241442e-13 -4.203368474684290867e-14 9.507618725244828400e-15
1.181000000000000000e+03 3.962848663330078125e+01 1.685392761230468750e+01 -2.821010704765272714e-14 1.251628060092505046e-13 2.908580697797390202e-14 -6.405133042876320904e-14
1.182000000000000000e+03 3.969584655761718750e+01 1.808039665222167969e+01 1.663833255742021289e-14 7.130714679208331741e-15 7.130714679208331741e-15 -4.003208151797700565e-14
1.183000000000000000e+03 4.227011108398437500e+01 1.463290596008300781e+01 1.346078738924394447e-13 2.406928822917819843e-13 1.125902282105191443e-13 2.802245536851800944e-14
1.184000000000000000e+03 1.525666618347167969e+01 1.402632331848144531e+01 5.579471075694425464e-14 4.678749453298179650e-14 3.077466192579099424e-14 -4.903929774193946378e-14
1.185000000000000000e+03 3.576419067382812500e+01 2.079842185974121094e+01 2.952365863720038397e-14 -1.245998475837145625e-13 -2.852285871683332696e-14 -1.220978477827969200e-13
1.186000000000000000e+03 1.052777099609375000e+01 4.328234672546386719e+00 2.401924891078620339e-14 5.604491073703601889e-14 2.401924891078620339e-14 2.451964887096973189e-14
1.187000000000000000e+03 8.891854286193847656e+00 5.121627807617187500e+00 -4.628709118466647898e-14 -4.315958669013492122e-13 -1.433648935244419276e-13 -1.251002526260957745e-14
1.188000000000000000e+03 7.135434722900390625e+01 2.585264396667480469e+01 -6.104892389139845998e-14 -2.091676170375839083e-13 -8.106496295632106830e-14 4.003208151797700565e-14
1.189000000000000000e+03 7.361495971679687500e+01 2.552543640136718750e+01 -6.558380954199000135e-14 -2.568620771810359305e-13 -9.673377143791864197e-14 -3.052446194569922999e-14
1.190000000000000000e+03 7.270122528076171875e+01 2.568852233886718750e+01 -6.930553678695383635e-14 -2.584571283121422924e-13 -9.832879546397069181e-14 -1.170938346284344789e-13
1.191000000000000000e+03 3.824754714965820312e+01 1.943183326721191406e+01 5.085325267980243813e-14 -2.395669722169736782e-14 8.068966298618342192e-15 -5.654531408535133641e-14
1.192000000000000000e+03 4.515560531616210938e+01 1.173805999755859375e+01 1.914033913460143344e-14 9.970489874260718421e-14 3.565357170197576420e-14 5.304250758780305885e-14
1.193000000000000000e+03 3.651113510131835938e+01 2.185370445251464844e+01 1.185950345089850644e-13 1.651323256737433076e-14 4.053248147816053415e-14 1.401122768425900472e-14
1.194000000000000000e+03 3.397882080078125000e+01 2.130234527587890625e+01 1.876503747039789255e-14 5.379310752807835161e-14 2.176744400776264160e-14 4.503608959014176322e-15
1.195000000000000000e+03 4.120890426635742188e+01 1.486316585540771484e+01 1.857738748532906936e-14 1.909655295223924854e-13 6.286287544112964532e-14 -3.903127820947815962e-14
1.196000000000000000e+03 4.631152725219726562e+01 1.368098545074462891e+01 -7.556054984177509870e-14 -9.507618725244828400e-15 -2.552045048540268340e-14 5.454371085648543338e-14
1.197000000000000000e+03 5.796317291259765625e+01 2.729228591918945312e+01 -3.452766840343103605e-14 -1.806447650970141594e-13 -6.455173038894673754e-14 -2.483240054015033171e-14
1.198000000000000000e+03 5.713590621948242188e+01 2.798744583129882812e+01 -6.855493684667854359e-14 -2.466976818139843264e-13 -9.457578898633065001e-14 -5.129110433902892008e-14
1.199000000000000000e+03 1.541703796386718750e+01 1.138083076477050781e+01 -2.727185542824271669e-14 -8.031436301604577555e-14 -3.227586519447336877e-14 -1.000802037949425141e-15
1.200000000000000000e+03 1.557756805419921875e+01 1.047961521148681641e+01 4.328468803543351895e-14 -9.582678888678947127e-14 -1.576263093303314350e-14 5.854691731421723944e-14
1.201000000000000000e+03 1.525017356872558594e+01 1.479757213592529297e+01 6.905533680686207210e-14 -1.991596042813861822e-13 -3.903127820947815962e-14 9.557658890669770702e-14
1.202000000000000000e+03 4.219388580322265625e+01 1.352930545806884766e+01 -1.889013746044377468e-14 3.765517493084166722e-14 5.629511410525957216e-15 5.204170427930421283e-14
1.203000000000000000e+03 1.717523574829101562e+01 7.093124389648437500e+00 -9.757819552369539906e-14 -2.476985088394056955e-13 -1.035830085984248972e-13 -1.783929584999247031e-13
1.204000000000000000e+03 3.501208114624023438e+01 2.073838043212890625e+01 3.652927163229693908e-14 3.853087824929463112e-14 2.251804564210382886e-14 6.705373696612795809e-14
1.205000000000000000e+03 1.603108787536621094e+01 1.227028083801269531e+01 3.878107822938639537e-14 -1.663833323504657069e-13 -3.828067826920286687e-14 -7.556054984177509870e-14
1.206000000000000000e+03 1.531799316406250000e+01 1.227985954284667969e+01 -8.006416303595401129e-15 -7.205774334422682115e-14 -2.401924891078620339e-14 6.855493684667854359e-14
1.207000000000000000e+03 7.217698669433593750e+01 2.537901306152343750e+01 9.957980214069309111e-14 -9.457578898633065001e-14 1.501203056924137712e-15 8.006416303595401129e-14
1.208000000000000000e+03 4.898572540283203125e+01 2.167408752441406250e+01 8.807057595141762341e-14 -8.807057595141762341e-14 0.000000000000000000e+00 1.327313638773558457e-13
1.209000000000000000e+03 5.147451019287109375e+01 2.279071617126464844e+01 5.829671733412547519e-14 -2.076664239332969009e-14 1.125902282105191443e-14 1.483688931262772126e-13
1.210000000000000000e+03 4.539051818847656250e+01 1.689634704589843750e+01 -6.605293026949732305e-14 2.061652172764827373e-13 4.203368474684290867e-14 3.039936195565334787e-14
1.211000000000000000e+03 1.527291488647460938e+01 1.316862678527832031e+01 8.506816941405287436e-14 -5.504411081666896188e-14 9.007217918028352643e-15 6.054852393121493148e-14
1.212000000000000000e+03 6.857703399658203125e+01 2.482975387573242188e+01 -3.502806921064751181e-15 1.586271126388302810e-13 4.653729455289003225e-14 -3.853087824929463112e-14
1.213000000000000000e+03 1.691706657409667969e+01 7.930986881256103516e+00 3.652927163229693908e-14 1.986592043212026537e-13 7.055654346367623564e-14 -1.190954344691685929e-13
1.214000000000000000e+03 1.611001968383789062e+01 6.138010025024414062e+00 -3.953167816966168813e-14 2.346880827695796423e-13 5.854691731421723944e-14 -3.377706846315574329e-14
1.215000000000000000e+03 6.713858795166015625e+01 2.355952835083007812e+01 3.878107822938639537e-14 1.538733062408231822e-13 5.779631737394194668e-14 -2.802245536851800944e-14
1.216000000000000000e+03 4.597397994995117188e+01 6.887014865875244141e+00 8.456776945386934585e-14 -9.507618725244828400e-15 2.251804564210382886e-14 -7.005614350349270714e-14
1.217000000000000000e+03 4.658510971069335938e+01 1.537321567535400391e+01 7.480994990149980595e-14 7.781235643886455500e-14 4.578669122448295048e-14 7.455974992140804170e-14
1.218000000000000000e+03 3.362439727783203125e+01 2.212574577331542969e+01 8.231596285677988956e-14 3.527827173183811782e-14 3.527827173183811782e-14 -8.156536291650459680e-14
1.219000000000000000e+03 5.484939193725585938e+01 2.704543876647949219e+01 -5.154130431912068433e-14 -3.352686848306397904e-14 -2.552045048540268340e-14 4.428548795580057595e-14
1.220000000000000000e+03 5.528546905517578125e+01 2.578215789794921875e+01 -2.126704235351321859e-14 1.376102770416724047e-14 -2.251804479507088161e-15 9.307458910578006450e-14
1.221000000000000000e+03 6.437792205810546875e+01 2.513163375854492188e+01 3.002406113848275424e-15 4.703769451307356075e-14 1.501202929869195624e-14 2.652125379390152943e-14
1.222000000000000000e+03 6.373182678222656250e+01 2.635915756225585938e+01 -5.004010105043830980e-14 -9.007218256841531545e-14 -4.203368474684290867e-14 -3.002405859738391247e-14
1.223000000000000000e+03 6.275776672363281250e+01 2.658577346801757812e+01 -8.857097591160115191e-14 -2.667137344314340908e-13 -1.065854151357896462e-13 -3.452766840343103605e-14
1.224000000000000000e+03 1.667826652526855469e+01 8.778189659118652344e+00 6.730393694621972234e-14 -1.999101974453978969e-13 -3.978187814975345238e-14 -6.705373696612795809e-14
1.225000000000000000e+03 6.803211212158203125e+01 2.489874649047851562e+01 5.454371085648543338e-14 -1.596279261117244941e-13 -3.152526186606628700e-14 -6.305052373213257400e-14
1.226000000000000000e+03 6.944252777099609375e+01 2.530701637268066406e+01 -4.753809447325708926e-14 2.502005094873562853e-15 -1.351082687704252897e-14 -1.150922280114367868e-14
1.227000000000000000e+03 1.651107788085937500e+01 7.033238410949707031e+00 -5.254210423948774134e-14 1.376102736535406157e-13 2.552045048540268340e-14 -7.981396305586224704e-14
1.228000000000000000e+03 8.059370994567871094e+00 5.847151279449462891e+00 2.652125379390152943e-14 -1.716375387086563342e-13 -4.353488801552528320e-14 4.453568793589234021e-14
1.229000000000000000e+03 1.209131431579589844e+01 4.834115505218505859e+00 3.202566521438160452e-14 -3.202566521438160452e-14 0.000000000000000000e+00 7.656135653840573374e-14
1.230000000000000000e+03 1.131603622436523438e+01 4.924508571624755859e+00 -2.351884725653678038e-14 2.186752433861252620e-13 5.854691731421723944e-14 6.305052373213257400e-14
1.231000000000000000e+03 1.578282070159912109e+01 9.592182159423828125e+00 1.138412281109779656e-13 4.878909776184769953e-14 4.878909776184769953e-14 -4.253408470702643718e-14
1.232000000000000000e+03 1.601327514648437500e+01 8.725700378417968750e+00 -1.451162933850842773e-14 -1.205966479022463345e-13 -4.053248147816053415e-14 -4.103288143834406265e-14
1.233000000000000000e+03 4.870724487304687500e+01 1.934172439575195312e+01 1.818957582212094026e-13 1.008308020411519124e-13 8.481796943396111010e-14 -5.104090097080536681e-14
1.234000000000000000e+03 4.687825775146484375e+01 1.722766876220703125e+01 8.081476297622930405e-14 9.182358242905766521e-14 5.179150429921244858e-14 -4.278428468711820143e-14
1.235000000000000000e+03 4.518173217773437500e+01 9.108709335327148438e+00 1.075862150561567032e-13 -1.826463649377482734e-13 -2.251804564210382886e-14 7.130714340395152839e-14
1.236000000000000000e+03 1.693868637084960938e+01 3.780754089355468750e+00 3.602887167211341057e-14 8.406736949368581735e-14 3.602887167211341057e-14 -1.180946345488015359e-13
1.237000000000000000e+03 4.665442276000976562e+01 1.629388618469238281e+01 6.430153040885497329e-14 2.334370760928572430e-13 8.932157585187644466e-14 1.556247128777291100e-13
1.238000000000000000e+03 6.677330780029296875e+01 2.540509986877441406e+01 -1.401122768425900472e-14 -6.004812227696550847e-15 -6.004812227696550847e-15 -1.501202997631831404e-13
1.239000000000000000e+03 4.439492034912109375e+01 1.012127399444580078e+01 -1.301042606982605321e-14 -9.707779556351187056e-14 -3.302646513474866152e-14 -8.406736949368581735e-14
1.240000000000000000e+03 4.601350021362304688e+01 1.162270641326904297e+01 1.124651248323414732e-13 9.395028564796945036e-14 6.192462720985142388e-14 -2.401924891078620339e-14
1.241000000000000000e+03 4.827330398559570312e+01 2.018468093872070312e+01 1.025822086780578402e-13 -4.753809447325708926e-14 1.651323256737433076e-14 -9.707779556351187056e-14
1.242000000000000000e+03 4.977795791625976562e+01 2.212825202941894531e+01 5.279230421957950559e-14 1.598781193155526803e-13 6.380113044867144478e-14 2.602085213965210642e-14
1.243000000000000000e+03 5.059589767456054688e+01 2.253368949890136719e+01 1.013312020013354409e-13 2.264314495452335319e-13 9.832879546397069181e-14 4.653729455289003225e-14
1.244000000000000000e+03 1.608048057556152344e+01 1.837096214294433594e+01 7.055654346367623564e-14 -1.551243095294137925e-14 1.651323256737433076e-14 1.035830085984248972e-13
1.245000000000000000e+03 1.471192836761474609e+01 1.731048011779785156e+01 3.753007494079578510e-14 1.075862150561567032e-13 4.353488801552528320e-14 3.803047490097931360e-14
1.246000000000000000e+03 6.058671951293945312e+01 2.601868438720703125e+01 -5.091580098075948468e-14 -9.044747915042117281e-14 -4.240898471698055505e-14 -3.452766840343103605e-14
1.247000000000000000e+03 5.866816329956054688e+01 2.811586761474609375e+01 -3.681074745693312111e-14 7.099439258180387582e-15 -8.913392925493941049e-15 -6.355093046857968053e-14
1.248000000000000000e+03 2.962114143371582031e+01 2.618368148803710938e+01 4.416038796575469383e-14 6.467682699086083065e-14 3.265116516461101515e-14 -7.506014649345978118e-15
1.249000000000000000e+03 2.719787979125976562e+01 2.528993225097656250e+01 1.154988106023824290e-13 -4.200240890229849089e-14 2.204891983239882364e-14 3.753007494079578510e-14
1.250000000000000000e+03 2.239789009094238281e+01 2.677907943725585938e+01 5.541941078680660826e-14 1.610040226140974085e-13 6.492702697095259490e-14 3.002405859738391247e-14
1.251000000000000000e+03 2.219428825378417969e+01 2.464180755615234375e+01 1.797690550022976175e-13 2.142967335701240206e-13 1.182197379269792070e-13 6.054852393121493148e-14
1.252000000000000000e+03 2.481359863281250000e+01 2.474910545349121094e+01 1.703865455844610910e-13 1.874001713357553722e-13 1.073360150760649390e-13 1.035830085984248972e-13
1.253000000000000000e+03 1.802431297302246094e+01 4.692002296447753906e+00 4.153328478665938017e-14 2.236792429879605471e-13 7.956375629950690476e-14 -7.355895000104098469e-14
1.254000000000000000e+03 4.475025177001953125e+01 9.509838104248046875e+00 5.873456560522016812e-14 -2.057899071419497239e-14 1.144667280612073762e-14 -4.103288143834406265e-14
1.255000000000000000e+03 6.175594711303710938e+01 2.679730796813964844e+01 -2.802245536851800944e-14 -1.200962445539310169e-14 -1.200962445539310169e-14 4.353488801552528320e-14
1.256000000000000000e+03 2.810611724853515625e+01 2.638475227355957031e+01 8.034563547245840431e-14 3.443384425792957171e-14 3.443384425792957171e-14 -2.577065215956034216e-14
1.257000000000000000e+03 1.635291481018066406e+01 1.924341392517089844e+01 2.927345865710861972e-14 5.829671733412547519e-14 2.627105211974387067e-14 1.506206997233666689e-13
1.258000000000000000e+03 1.516407394409179688e+01 1.701243209838867188e+01 9.107298248878237246e-14 -4.103288143834406265e-14 1.501202929869195624e-14 7.956375629950690476e-14
1.259000000000000000e+03 1.655815315246582031e+01 2.008036422729492188e+01 1.553745061213737677e-13 -4.778829445334885351e-14 3.227586519447336877e-14 -2.351884725653678038e-14
1.260000000000000000e+03 1.888125228881835938e+01 2.311547470092773438e+01 1.596279261117244941e-13 -1.145918348275168364e-13 1.351082687704252897e-14 1.200962445539310169e-14
1.261000000000000000e+03 1.684993553161621094e+01 2.299703216552734375e+01 2.326864727644501613e-14 -3.577867169202164632e-14 -3.753007324672989059e-15 -1.601283260719080226e-14
1.262000000000000000e+03 1.576325511932373047e+01 2.013704299926757812e+01 5.454371085648543338e-14 1.606287260320915511e-13 6.455173038894673754e-14 1.896519779328448285e-13
1.263000000000000000e+03 1.559869289398193359e+01 1.937637710571289062e+01 5.054050101062183831e-14 -1.155926347478838934e-13 -1.951563910473907981e-14 9.207378240914942946e-14
1.264000000000000000e+03 7.308348083496093750e+01 3.534130096435546875e+01 -4.003208151797700565e-15 -1.160930347080674219e-13 -3.602887167211341057e-14 -1.601283260719080226e-14
1.265000000000000000e+03 3.135193443298339844e+01 2.352298355102539062e+01 1.557498094796432031e-14 4.634964287375531455e-14 1.857738748532906936e-14 3.737369910620548519e-14
1.266000000000000000e+03 1.869144630432128906e+01 2.419020843505859375e+01 9.632719562323657780e-14 4.128308141843582690e-14 4.128308141843582690e-14 -2.552045048540268340e-14
1.267000000000000000e+03 1.835022354125976562e+01 2.531159210205078125e+01 1.566255127980961670e-13 -8.156536291650459680e-14 2.251804564210382886e-14 -5.829671733412547519e-14
1.268000000000000000e+03 2.225862121582031250e+01 2.562821578979492188e+01 7.255814669254213867e-15 -1.976583908483084406e-14 -3.753007324672989059e-15 -4.003208151797700565e-15
1.269000000000000000e+03 1.945273590087890625e+01 2.573736572265625000e+01 1.411130869273524713e-13 1.291034607778934751e-13 8.106496295632106830e-14 -2.664635378394741155e-14
1.270000000000000000e+03 7.619584655761718750e+01 4.009788513183593750e+01 -5.404330750817011586e-14 3.402726844324750755e-14 -6.004812227696550847e-15 5.591981074699013676e-14
1.271000000000000000e+03 5.238286972045898438e+01 2.581712341308593750e+01 -3.352686848306397904e-14 -1.516214996437337259e-13 -5.554451077685249039e-14 6.505213034913026604e-14
1.272000000000000000e+03 5.270703887939453125e+01 2.494430923461914062e+01 -3.177546523428984027e-14 -1.508709064797220112e-13 -5.479391083657719763e-14 7.205774334422682115e-14
1.273000000000000000e+03 2.648103904724121094e+01 2.613697814941406250e+01 2.695910375906211687e-14 -1.132157281607485549e-14 4.691259367599473137e-15 8.006416303595401129e-15
1.274000000000000000e+03 5.382887840270996094e+00 3.688998413085937500e+01 -2.064154070921791345e-14 -4.434803761201033812e-13 -1.392365769122688723e-13 -2.602085213965210642e-14
1.275000000000000000e+03 4.170384216308593750e+01 1.419718456268310547e+01 -4.203368474684290867e-14 2.021620040424873532e-13 4.803849782157240678e-14 5.979791721467606069e-14
1.276000000000000000e+03 4.179325866699218750e+01 1.529856872558593750e+01 -7.756215476470689624e-15 2.254306496248664748e-13 6.530233032922203029e-14 5.204170427930421283e-14
1.277000000000000000e+03 4.645854949951171875e+01 1.450857830047607422e+01 5.704571743366665393e-14 9.307458910578006450e-14 4.503609128420765773e-14 5.354290754798658736e-14
1.278000000000000000e+03 1.497235393524169922e+01 5.267030715942382812e+00 8.481796943396111010e-14 -3.227586519447336877e-14 1.576263093303314350e-14 -2.401924891078620339e-14
1.279000000000000000e+03 7.454405212402343750e+01 2.568495368957519531e+01 -8.631917609077527365e-14 8.757017937936588392e-15 -2.326864727644501613e-14 6.104892389139845998e-14
1.280000000000000000e+03 7.396107482910156250e+01 2.610150337219238281e+01 -4.253408470702643718e-14 2.752205540833448094e-14 -4.503608959014176322e-15 2.502005052521915490e-14
1.281000000000000000e+03 7.526921844482421875e+01 2.968199920654296875e+01 8.782037597132585915e-14 -1.453664933651760416e-13 -1.726383420171551802e-14 5.704571743366665393e-14
1.282000000000000000e+03 1.426511001586914062e+01 5.296469688415527344e+00 -1.951563910473907981e-14 -1.456166865690042278e-13 -4.953969770212299228e-14 1.055846084391590112e-13
1.283000000000000000e+03 4.612822055816650391e+00 7.018568515777587891e+00 2.802245536851800944e-14 -1.481186999224490264e-13 -3.602887167211341057e-14 -1.075862116680249142e-14
1.284000000000000000e+03 4.696825981140136719e+00 8.343791007995605469e+00 -1.261010474642651480e-13 -5.404330750817011586e-14 -5.404330750817011586e-14 -4.303448466720996568e-14
1.285000000000000000e+03 4.489768028259277344e+00 5.578387737274169922e+00 -4.103288143834406265e-14 -1.891515779726613000e-13 -6.905533680686207210e-14 -2.702165375408505793e-14
1.286000000000000000e+03 7.509484100341796875e+01 3.078854560852050781e+01 3.452766840343103605e-14 -1.951563910473907981e-14 4.503608959014176322e-15 -1.257257525763251851e-14
1.287000000000000000e+03 5.652772426605224609e+00 5.810614585876464844e+00 2.101684237342145434e-14 1.691355389077386917e-13 5.704571743366665393e-14 -3.502806921064751181e-15
1.288000000000000000e+03 5.100107669830322266e+00 2.848901367187500000e+01 -5.254210423948774134e-14 -3.427746910096562960e-13 -1.185950345089850644e-13 -8.606896933441993136e-14
1.289000000000000000e+03 7.232203006744384766e+00 5.789835929870605469e+00 4.153328478665938017e-14 -2.567057081227092086e-13 -6.455173038894673754e-14 7.906335633932337625e-14
1.290000000000000000e+03 7.443139648437500000e+01 2.747232437133789062e+01 -6.755413438521264483e-15 1.343576671360841024e-13 3.828067826920286687e-14 -3.302646513474866152e-14
1.291000000000000000e+03 7.608135986328125000e+01 2.883561134338378906e+01 2.802245536851800944e-14 1.200962445539310169e-14 1.200962445539310169e-14 -6.980593674713736485e-14
1.292000000000000000e+03 6.004137992858886719e+00 3.167981910705566406e+01 3.340176849301809692e-14 -2.373151859486749560e-13 -6.117402049331255309e-14 -1.501203056924137712e-15
1.293000000000000000e+03 5.014240741729736328e+00 3.041437339782714844e+01 7.831275639904808350e-14 -2.409430890481373266e-13 -4.878909776184769953e-14 1.526223097284961500e-14
1.294000000000000000e+03 7.659551239013671875e+01 2.789069938659667969e+01 2.627105211974387067e-14 1.125902282105191443e-14 1.125902282105191443e-14 -4.603689120457471473e-14
1.295000000000000000e+03 7.586598968505859375e+01 2.746103477478027344e+01 -9.757819552369539906e-15 -2.329366625801465585e-13 -7.280834328450211390e-14 1.030826086382413687e-13
1.296000000000000000e+03 7.529566955566406250e+01 2.779070091247558594e+01 -7.506014649345978118e-15 4.253408470702643718e-14 1.050842118671072717e-14 -4.903929774193946378e-14
1.297000000000000000e+03 4.647824287414550781e+00 2.193734359741210938e+01 -2.502005052521915490e-14 -2.852285736158061136e-13 -9.307458910578006450e-14 -6.605293026949732305e-14
1.298000000000000000e+03 7.609824371337890625e+01 2.813796806335449219e+01 3.903127820947815962e-14 -2.902325867701685547e-14 3.002406113848275424e-15 -1.371098736933570872e-13
1.299000000000000000e+03 7.499603271484375000e+01 2.892755126953125000e+01 4.916439773198534591e-14 -7.043144008549856450e-14 -6.380112621350670851e-15 -1.065854151357896462e-13
1.300000000000000000e+03 3.793988704681396484e+00 5.915168285369873047e+00 -2.802245536851800944e-14 -1.721379386688398627e-13 -6.004811719476782494e-14 1.851483749030612830e-14
1.301000000000000000e+03 4.595713615417480469e+00 2.421568489074707031e+01 2.196760433064923190e-13 -2.947361864118203112e-13 -2.251804564210382886e-14 -2.151724233360498284e-14
1.302000000000000000e+03 3.929719209671020508e+00 2.111419486999511719e+01 -9.157338244896590096e-14 -3.137514391089030186e-13 -1.215974478226133915e-13 -9.207378240914942946e-14
1.303000000000000000e+03 4.533723831176757812e+00 1.471903896331787109e+01 6.004811719476782494e-14 -3.402726776562114974e-13 -8.406736949368581735e-14 1.951563910473907981e-14
1.304000000000000000e+03 3.831303596496582031e+00 1.391715049743652344e+01 5.904731727440076794e-14 -5.694563202061908580e-13 -1.531227130768114675e-13 -9.507618894651417851e-14
1.305000000000000000e+03 1.354101085662841797e+01 5.351402282714843750e+00 3.477786838352280030e-14 1.979085976046637829e-13 6.980593674713736485e-14 -1.651323256737433076e-14
1.306000000000000000e+03 5.331845760345458984e+00 8.971261024475097656e+00 4.428548795580057595e-14 -3.470280974474798663e-13 -9.082278250869060821e-14 -1.005806020610601481e-13
1.307000000000000000e+03 4.515593051910400391e+00 1.317299365997314453e+01 1.808949583008423456e-13 -2.884811801332626269e-13 -3.227586519447336877e-14 -1.210970478624298630e-13
1.308000000000000000e+03 4.678190231323242188e+00 2.112737464904785156e+01 7.480994990149980595e-14 -2.424442753761607561e-13 -5.029030103053007406e-14 5.254210423948774134e-14
1.309000000000000000e+03 3.897024631500244141e+00 1.869956207275390625e+01 3.452766840343103605e-14 -9.957980214069309111e-14 -1.951563910473907981e-14 8.256616283687165381e-14
1.310000000000000000e+03 4.521177291870117188e+00 1.394327831268310547e+01 -4.253408470702643718e-14 -6.129912116098479302e-13 -1.966575909279413836e-13 -5.954771723458429644e-14
1.311000000000000000e+03 5.424368381500244141e+00 2.028152084350585938e+01 7.080674344376799989e-14 -1.984089975648473114e-13 -3.828067826920286687e-14 1.105886215935214523e-13
1.312000000000000000e+03 3.924174785614013672e+00 2.031060218811035156e+01 8.331676955341052460e-14 -2.159230368288522772e-13 -3.978187814975345238e-14 1.371098736933570872e-13
1.313000000000000000e+03 4.676915168762207031e+00 8.907419204711914062e+00 -4.303448466720996568e-14 -2.471980953266950110e-13 -8.706977603105056640e-14 -1.200962445539310169e-14
1.314000000000000000e+03 4.627947330474853516e+00 9.540294647216796875e+00 -4.553649124439118623e-14 -3.397722912485551250e-13 -1.155926347478838934e-13 -7.005613842129502361e-15
1.315000000000000000e+03 4.548281669616699219e+00 1.550392532348632812e+01 5.729591741375841818e-14 -4.100786279558760183e-13 -1.058348151955143535e-13 1.110890215537049808e-13
1.316000000000000000e+03 4.572806835174560547e+00 1.709123802185058594e+01 3.052446194569922999e-14 -3.758011425918778015e-13 -1.035830085984248972e-13 1.751403587587317678e-14
1.317000000000000000e+03 4.588374137878417969e+00 1.788760566711425781e+01 3.753007494079578510e-14 -5.254210423948774134e-14 -4.503608959014176322e-15 1.801443583605670529e-14
1.318000000000000000e+03 3.834441423416137695e+00 1.159761333465576172e+01 -7.255814669254213867e-15 -4.606191188021024896e-13 -1.403624802108136005e-13 -1.301042606982605321e-13
1.319000000000000000e+03 4.529051303863525391e+00 1.166902160644531250e+01 8.306656957331876034e-14 -1.931547912066566841e-13 -3.302646513474866152e-14 1.301042606982605321e-14
1.320000000000000000e+03 4.881044387817382812e+00 6.083117008209228516e+00 -6.505213034913026604e-14 -1.651323256737433076e-13 -6.905533680686207210e-14 -9.582678888678947127e-14
1.321000000000000000e+03 4.560802459716796875e+00 1.629640960693359375e+01 6.405133042876320904e-14 -3.843079825725792542e-13 -9.607699564314481355e-14 1.256006475040816195e-13
1.322000000000000000e+03 5.243281841278076172e+00 1.551835155487060547e+01 9.007217918028352643e-15 -4.994002173602796191e-13 -1.471179000020819694e-13 -1.135910281308862013e-13
1.323000000000000000e+03 4.082412242889404297e+00 2.589999389648437500e+01 -2.101684237342145434e-14 -3.292638514271195582e-13 -1.050842084789754827e-13 -5.704571743366665393e-14
1.324000000000000000e+03 5.016798496246337891e+00 2.757711791992187500e+01 9.657739560332834206e-14 -3.017418129594440224e-13 -6.154932385158198849e-14 -1.261010474642651480e-13
1.325000000000000000e+03 4.583046436309814453e+00 1.022252368927001953e+01 6.755413692631148659e-14 -3.828067691395015126e-13 -9.457578898633065001e-14 1.251002526260957745e-14
1.326000000000000000e+03 4.550266742706298828e+00 1.093723201751708984e+01 -1.866495781717436575e-13 -6.290040645458294666e-13 -2.446960819732502124e-13 3.202566521438160452e-14
1.327000000000000000e+03 4.792140007019042969e+00 2.583738517761230469e+01 8.306656957331876034e-14 -5.134114162454184171e-13 -1.291034607778934751e-13 3.803047490097931360e-14
1.328000000000000000e+03 4.907249450683593750e+00 2.669287872314453125e+01 -6.179952383167375274e-14 -3.009911926903779955e-13 -1.088372149566155245e-13 -2.251804564210382886e-14
1.329000000000000000e+03 4.550538539886474609e+00 2.344448280334472656e+01 5.954771723458429644e-14 -2.947361864118203112e-13 -7.055654346367623564e-14 -2.246800564608547601e-13
1.330000000000000000e+03 5.225169658660888672e+00 2.280077362060546875e+01 3.002406113848275424e-15 -4.333472599857279839e-13 -1.291034607778934751e-13 -9.457578898633065001e-14
1.331000000000000000e+03 5.671438694000244141e+00 3.267464065551757812e+01 -3.190056310675335426e-15 -5.503785361488100492e-13 -1.660705806812851071e-13 -1.070858150959731747e-13
1.332000000000000000e+03 7.157492828369140625e+01 2.515441322326660156e+01 -2.251804479507088161e-15 4.478589130411589347e-14 1.276022524270134170e-14 1.801443583605670529e-14
1.333000000000000000e+03 5.124502182006835938e+00 2.942817306518554688e+01 8.706977603105056640e-14 -2.371900690179701288e-13 -4.503609128420765773e-14 -5.804651735403371093e-14
1.334000000000000000e+03 9.715000152587890625e+00 5.756618022918701172e+00 -1.251002547436781426e-15 -3.665437365522189461e-13 -1.103384216134296880e-13 5.254210423948774134e-14
1.335000000000000000e+03 4.726749801635742188e+01 1.809097862243652344e+01 9.907939540424598457e-14 -4.903929774193946378e-14 1.501202929869195624e-14 1.050842084789754827e-13
1.336000000000000000e+03 4.762591171264648438e+01 1.886983680725097656e+01 4.228388472693467293e-14 -4.753809362622414200e-15 1.125902282105191443e-14 1.651323256737433076e-14
1.337000000000000000e+03 4.560371780395507812e+01 1.105588054656982422e+01 -1.205653652814383386e-14 8.633480893084979901e-14 2.228348189021837900e-14 1.113392198397308505e-14
1.338000000000000000e+03 3.973664093017578125e+01 1.932740592956542969e+01 1.376102770416724047e-14 -5.129110433902892008e-14 -1.125902282105191443e-14 -2.727185542824271669e-14
1.339000000000000000e+03 4.578248596191406250e+01 1.453076267242431641e+01 1.751403587587317678e-14 7.506014649345978118e-15 7.506014649345978118e-15 3.702967498061225660e-14
1.340000000000000000e+03 3.955010604858398438e+01 2.010210990905761719e+01 -1.175942362826839019e-14 -2.109190236744898361e-13 -6.680353698603619383e-14 1.501202929869195624e-14
1.341000000000000000e+03 3.461207199096679688e+01 2.233182525634765625e+01 1.010810020212436766e-13 8.907137587178468041e-14 5.704571743366665393e-14 7.405934996122451319e-14
1.342000000000000000e+03 4.568452453613281250e+01 1.210345649719238281e+01 7.180754336413505690e-14 3.077466192579099424e-14 3.077466192579099424e-14 3.002405859738391247e-14
1.343000000000000000e+03 4.622780990600585938e+01 1.289733409881591797e+01 1.626303258728256651e-14 -3.878107822938639537e-14 -6.755413438521264483e-15 -3.502807175174635357e-14
1.344000000000000000e+03 4.195220184326171875e+01 1.639861869812011719e+01 5.004010189747125706e-15 1.050842084789754827e-13 3.302646513474866152e-14 -1.463672932855430986e-14
1.345000000000000000e+03 1.457733535766601562e+01 1.409077644348144531e+01 1.996600042415697107e-13 -7.455974992140804170e-14 3.753007494079578510e-14 1.160930347080674219e-13
1.346000000000000000e+03 1.506076240539550781e+01 1.543466567993164062e+01 1.985341009430249826e-13 -5.216680426935009496e-14 4.391018798566292958e-14 6.305052373213257400e-14
1.347000000000000000e+03 5.694668960571289062e+01 3.137612724304199219e+01 -5.222935595843893053e-14 -9.101043079969353689e-14 -4.297193636625291913e-14 1.100882199392720293e-14
1.348000000000000000e+03 5.600294113159179688e+01 2.833965873718261719e+01 2.564555216951446004e-14 -1.188452361831427231e-14 4.128308141843582690e-15 3.753007494079578510e-14
1.349000000000000000e+03 4.029754638671875000e+01 1.739588356018066406e+01 7.205774334422682115e-14 1.681347389873716347e-13 7.205774334422682115e-14 -3.602887167211341057e-14
1.350000000000000000e+03 3.740329742431640625e+01 1.996235656738281250e+01 -1.025822035958601566e-14 -2.727185542824271669e-14 -1.125902282105191443e-14 -2.426944889087796764e-14
1.351000000000000000e+03 3.658369827270507812e+01 2.047611427307128906e+01 8.825822424242055209e-14 -1.451788450741731129e-13 -1.707618421664669484e-14 -5.004010189747125706e-15
1.352000000000000000e+03 7.073464202880859375e+01 2.576404762268066406e+01 2.802245536851800944e-14 -1.481186999224490264e-13 -3.602887167211341057e-14 -6.555253030931379454e-14
1.353000000000000000e+03 7.027568054199218750e+01 2.486369705200195312e+01 1.010810020212436766e-13 8.907137587178468041e-14 5.704571743366665393e-14 2.201764398785440585e-14
1.354000000000000000e+03 7.185212707519531250e+01 2.605478477478027344e+01 -3.127506315652394363e-15 -2.758460506454424310e-13 -8.369206613541638196e-14 -4.803849782157240678e-14
1.355000000000000000e+03 3.709618377685546875e+01 2.124398422241210938e+01 -1.901523745048965680e-14 -7.105694342385976414e-14 -2.702165375408505793e-14 2.645870379887858836e-14
1.356000000000000000e+03 1.466049385070800781e+01 1.136361980438232422e+01 5.804651735403371093e-14 -1.581267126786467525e-13 -3.002405859738391247e-14 1.491194998428160834e-13
1.357000000000000000e+03 1.485937213897705078e+01 1.042705535888671875e+01 1.018316019615189694e-13 -1.393616802904465435e-13 -1.125902282105191443e-14 2.777225538842624519e-14
1.358000000000000000e+03 1.477139854431152344e+01 1.608239555358886719e+01 1.230986477031639770e-13 7.005613842129502361e-15 3.903127820947815962e-14 8.606896933441993136e-14
1.359000000000000000e+03 1.465401935577392578e+01 1.490067005157470703e+01 6.505213034913026604e-15 -1.115894215138885093e-13 -3.152526186606628700e-14 2.652125379390152943e-14
1.360000000000000000e+03 1.480532741546630859e+01 6.053903102874755859e+00 7.155734338404329264e-14 5.354290754798658736e-14 3.753007494079578510e-14 1.020818019416107336e-13
1.361000000000000000e+03 4.275371170043945312e+01 1.397832584381103516e+01 4.816359781161828890e-14 2.064154070921791345e-14 2.064154070921791345e-14 -4.003208151797700565e-14
1.362000000000000000e+03 1.456074523925781250e+01 1.230282497406005859e+01 -2.301844560228735737e-14 -1.471179000020819694e-13 -5.104090097080536681e-14 -1.501202929869195624e-14
1.363000000000000000e+03 1.052114391326904297e+01 5.004905700683593750e+00 4.403528797570881170e-14 -1.641315257533762506e-13 -3.602887167211341057e-14 -2.001604075898850282e-15
1.364000000000000000e+03 1.051933670043945312e+01 5.692880630493164062e+00 -3.552847171192988207e-14 3.052446194569922999e-14 -1.501203056924137712e-15 1.100882216333379238e-13
1.365000000000000000e+03 1.455290031433105469e+01 1.321718692779541016e+01 8.982198258832355120e-14 -7.255814669254213867e-15 2.476984885106149614e-14 2.151724233360498284e-14
1.366000000000000000e+03 4.238939666748046875e+01 1.570670509338378906e+01 9.307458910578006450e-14 1.771419518232023038e-13 8.106496295632106830e-14 5.004010189747125706e-15
1.367000000000000000e+03 4.330466079711914062e+01 1.443707275390625000e+01 8.381716951359405310e-14 2.189254365899534482e-13 9.082278250869060821e-14 -3.602887167211341057e-14
1.368000000000000000e+03 1.280881023406982422e+01 5.433187007904052734e+00 1.458668933253595701e-13 3.370200711387549841e-13 1.448660934049925131e-13 2.852285871683332696e-14
1.369000000000000000e+03 1.207026576995849609e+01 5.527337074279785156e+00 2.752205498481800731e-15 2.299342628190453874e-13 6.980593674713736485e-14 6.305052373213257400e-14
1.370000000000000000e+03 3.331005096435546875e+01 2.312649726867675781e+01 5.729591741375841818e-14 7.030634348358447139e-14 3.828067826920286687e-14 -3.252606517456513302e-14
1.371000000000000000e+03 4.372586059570312500e+01 1.266405487060546875e+01 6.398877873967437346e-14 -1.832718750523730511e-14 1.369847770914429941e-14 2.902325867701685547e-14
1.372000000000000000e+03 1.545854568481445312e+01 6.088193893432617188e+00 9.057258252859884395e-14 8.456776945386934585e-14 5.254210423948774134e-14 -8.506817110811876886e-15
1.373000000000000000e+03 6.899616241455078125e+01 2.596910095214843750e+01 -4.816359781161828890e-14 -2.064154070921791345e-14 -2.064154070921791345e-14 -3.803047490097931360e-14
1.374000000000000000e+03 1.497992324829101562e+01 2.021454048156738281e+01 9.182358242905766521e-14 -1.894017847290166423e-13 -2.927345865710861972e-14 2.902325867701685547e-14
1.375000000000000000e+03 4.598300552368164062e+01 9.749428749084472656e+00 1.075862150561567032e-13 -2.251804564210382886e-14 2.552045048540268340e-14 2.351884725653678038e-14
1.376000000000000000e+03 6.649626922607421875e+01 2.689649200439453125e+01 -5.504411081666896188e-14 1.751403519824681898e-13 3.602887167211341057e-14 -7.765598060427425509e-14
1.377000000000000000e+03 6.913075256347656250e+01 2.477283096313476562e+01 -1.516214996437337259e-13 2.652125379390152943e-14 -3.753007494079578510e-14 9.957980214069309111e-14
1.378000000000000000e+03 1.704126930236816406e+01 5.383662223815917969e+00 -4.753809362622414200e-15 2.724683543023354027e-13 8.031436301604577555e-14 -5.604491073703601889e-14
1.379000000000000000e+03 4.795536041259765625e+01 1.957955169677734375e+01 1.245998475837145625e-13 3.052446194569922999e-14 4.653729455289003225e-14 1.078364150362484675e-13
1.380000000000000000e+03 4.525639343261718750e+01 1.809913444519042969e+01 2.814755705262978608e-15 1.842101232836512725e-13 5.610746242612485446e-14 7.405934996122451319e-14
1.381000000000000000e+03 6.590993499755859375e+01 2.468979644775390625e+01 1.601283260719080226e-14 1.441154866884536423e-13 4.803849782157240678e-14 -7.155734338404329264e-14
1.382000000000000000e+03 6.788052368164062500e+01 2.419840812683105469e+01 -2.552045048540268340e-14 8.056456299613753980e-14 1.651323256737433076e-14 -1.080866150163402317e-13
1.383000000000000000e+03 1.510085296630859375e+01 9.523126602172851562e+00 -5.004010189747125706e-16 -1.145918348275168364e-13 -3.452766840343103605e-14 8.506817110811876886e-15
1.384000000000000000e+03 4.380556106567382812e+01 1.382358837127685547e+01 2.476984885106149614e-14 1.776423585596494104e-14 1.276022524270134170e-14 2.595830299166211261e-15
1.385000000000000000e+03 6.073629379272460938e+01 2.703197097778320312e+01 -6.730393694621972234e-14 -1.203464411458909922e-13 -5.629511410525957216e-14 -6.830473686658677934e-14
1.386000000000000000e+03 5.936616897583007812e+01 2.919205665588378906e+01 -2.200200606558219696e-14 -9.429431654982625699e-15 -9.429431654982625699e-15 -1.175942362826839019e-14
1.387000000000000000e+03 1.560743904113769531e+01 7.810041904449462891e+00 9.057258252859884395e-14 -7.556054984177509870e-14 4.503608959014176322e-15 1.050842118671072717e-14
1.388000000000000000e+03 8.898389816284179688e+00 5.806904315948486328e+00 1.148420280313450226e-13 -4.228388472693467293e-14 2.176744400776264160e-14 -1.000802037949425141e-15
1.389000000000000000e+03 1.572414302825927734e+01 2.147393226623535156e+01 1.228484409468086347e-13 -1.303544674546158744e-13 -2.251804479507088161e-15 1.501202929869195624e-14
1.390000000000000000e+03 1.586175346374511719e+01 2.084601783752441406e+01 1.583769194350020948e-13 1.593777193553691518e-13 9.532638892660594276e-14 1.451162933850842773e-14
1.391000000000000000e+03 4.416649627685546875e+01 1.198495101928710938e+01 -1.713873421166963590e-14 3.840577825924874900e-14 6.380112621350670851e-15 6.605293026949732305e-14
1.392000000000000000e+03 6.605401611328125000e+01 2.554665756225585938e+01 -4.953969770212299228e-14 2.451964887096973189e-14 -7.506014649345978118e-15 -9.507618725244828400e-15
1.393000000000000000e+03 1.396963596343994141e+01 1.506993579864501953e+01 1.145918348275168364e-13 -1.796439651766471024e-13 -1.951563910473907981e-14 -1.501203056924137712e-15
1.394000000000000000e+03 5.014756774902343750e+01 2.342229080200195312e+01 2.076664239332969009e-14 1.919037845299342848e-13 6.380113044867144478e-14 8.807057595141762341e-14
1.395000000000000000e+03 4.825319671630859375e+01 2.119890403747558594e+01 3.552847171192988207e-14 -1.306046606584440606e-13 -2.852285871683332696e-14 -8.788292935448058923e-15
1.396000000000000000e+03 4.766975402832031250e+01 2.063104820251464844e+01 8.306656957331876034e-14 -7.305854326459387815e-14 3.002406113848275424e-15 7.731195647868102649e-14
1.397000000000000000e+03 6.660511779785156250e+01 2.452998161315917969e+01 -4.878909776184769953e-14 1.163432279118956081e-13 2.026624073908026707e-14 -6.154932385158198849e-14
1.398000000000000000e+03 4.650049591064453125e+01 7.747043132781982422e+00 -6.129912387149022424e-14 -1.863993714153883152e-13 -7.430954994131627744e-14 -4.803849782157240678e-14
1.399000000000000000e+03 5.178790664672851562e+01 2.476973533630371094e+01 4.328468803543351895e-14 -9.582678888678947127e-14 -1.576263093303314350e-14 -1.251002547436781426e-15
1.400000000000000000e+03 4.645939254760742188e+01 1.843217277526855469e+01 -3.627907334627106933e-15 8.994707919023764431e-14 2.589575214960622429e-14 -4.153328478665938017e-14
1.401000000000000000e+03 4.835025405883789062e+01 2.247934341430664062e+01 6.780433690640325084e-14 1.148420280313450226e-13 5.479391083657719763e-14 -1.107137198895014399e-14
1.402000000000000000e+03 5.319786071777343750e+01 2.869457244873046875e+01 -2.251804479507088161e-15 -1.153424279915285511e-13 -3.527827173183811782e-14 2.677145377399329368e-14
1.403000000000000000e+03 5.380395126342773438e+01 2.667152786254882812e+01 -4.378508799561704745e-14 2.126704235351321859e-14 -6.755413438521264483e-15 7.756215476470689624e-15
1.404000000000000000e+03 1.876987457275390625e+01 2.702387809753417969e+01 1.010810020212436766e-13 -7.105694342385976414e-14 9.007217918028352643e-15 -4.816359781161828890e-14
1.405000000000000000e+03 3.020320510864257812e+01 2.554461097717285156e+01 7.205774334422682115e-14 4.803849782157240678e-14 3.602887167211341057e-14 2.489495053517327278e-14
1.406000000000000000e+03 3.051798057556152344e+01 2.646547126770019531e+01 1.726383420171551802e-14 3.027426196560746574e-14 1.426142935841666348e-14 2.502005094873562853e-15
1.407000000000000000e+03 3.334878158569335938e+01 2.431439399719238281e+01 2.301844560228735737e-14 6.705373696612795809e-14 2.702165375408505793e-14 -1.030826086382413687e-13
1.408000000000000000e+03 1.534766387939453125e+01 1.861427688598632812e+01 1.130906281707026728e-13 -4.303448466720996568e-14 2.101684237342145434e-14 9.107298248878237246e-14
1.409000000000000000e+03 2.137937355041503906e+01 2.530389022827148438e+01 5.863292165154965208e-14 9.375481754879746998e-14 4.571632311535685222e-14 2.502005094873562853e-15
1.410000000000000000e+03 6.097113418579101562e+01 2.797559738159179688e+01 -3.502807175174635357e-14 -1.501202929869195624e-14 -1.501202929869195624e-14 1.501203056924137712e-15
1.411000000000000000e+03 6.292642211914062500e+01 2.759090614318847656e+01 -2.864795870687920909e-14 -3.515317174179223569e-14 -1.914033913460143344e-14 -6.505213034913026604e-15
1.412000000000000000e+03 7.445648193359375000e+01 3.548792648315429688e+01 -1.263512525265545958e-14 -5.116600096085124894e-14 -1.914033913460143344e-14 -3.277626515465689727e-14
1.413000000000000000e+03 1.572812080383300781e+01 2.285390853881835938e+01 4.753809362622414200e-15 -7.230794332431858540e-14 -2.026624073908026707e-14 8.269126621504932495e-14
1.414000000000000000e+03 4.921552658081054688e+01 2.300837135314941406e+01 1.676343390271881062e-13 1.175942345886180074e-13 8.556856937423640286e-14 8.819567932959529455e-14
1.415000000000000000e+03 1.768917465209960938e+01 2.392494010925292969e+01 8.706977603105056640e-14 -7.706175649858926224e-14 3.002406113848275424e-15 -4.953969770212299228e-14
1.416000000000000000e+03 1.649477958679199219e+01 2.448336982727050781e+01 1.223480409866251062e-13 -8.481796943396111010e-14 1.125902282105191443e-14 2.552045048540268340e-14
1.417000000000000000e+03 6.819172859191894531e+00 3.508077239990234375e+01 -1.125902239753544080e-15 -2.978637031036263094e-13 -8.969687921014588006e-14 -4.203368474684290867e-14
1.418000000000000000e+03 7.083336353302001953e+00 3.669987106323242188e+01 1.376102749240900366e-15 -2.052895071817661954e-13 -6.117402049331255309e-14 1.000802037949425141e-15
1.419000000000000000e+03 3.211620330810546875e+01 2.461989402770996094e+01 1.049591118770613896e-13 -2.364394724658266250e-14 2.439454888092384977e-14 -2.401924891078620339e-14
1.420000000000000000e+03 2.053909683227539062e+01 2.642333793640136719e+01 8.985325504473617997e-14 -3.011788613101716583e-14 1.792061169055524095e-14 3.002406113848275424e-15
1.421000000000000000e+03 7.161537170410156250e+00 3.846783065795898438e+01 -2.301844560228735737e-14 -3.873103823336804252e-13 -1.230986477031639770e-13 -5.454371085648543338e-14
1.422000000000000000e+03 1.566944026947021484e+01 5.264595985412597656e+00 -5.079070099071360256e-14 1.383608803700794865e-13 2.627105211974387067e-14 -5.704571743366665393e-14
1.423000000000000000e+03 1.585917949676513672e+01 6.973288536071777344e+00 -7.506014649345978118e-15 -1.175942345886180074e-13 -3.753007494079578510e-14 -6.580273028940555879e-14
1.424000000000000000e+03 1.486839294433593750e+01 1.949011230468750000e+01 1.100882216333379238e-13 -9.007218256841531545e-14 6.004812227696550847e-15 6.004812227696550847e-15
1.425000000000000000e+03 7.421058654785156250e+01 2.676279830932617188e+01 -5.642021409530545428e-14 -6.993104012531503599e-14 -3.790537491093343148e-14 7.806255641895631925e-14
1.426000000000000000e+03 1.549496746063232422e+01 2.216337013244628906e+01 1.276022608973428896e-13 7.756215645877279075e-14 6.154932385158198849e-14 1.100882216333379238e-13
1.427000000000000000e+03 5.970852851867675781e+00 2.845724487304687500e+01 8.406736949368581735e-14 -2.842277736954390566e-13 -6.004811719476782494e-14 -7.055654346367623564e-14
1.428000000000000000e+03 6.836862182617187500e+01 2.548378944396972656e+01 1.403624802108136005e-13 1.974081976444802544e-13 1.013312020013354409e-13 -2.602085213965210642e-14
1.429000000000000000e+03 7.353030395507812500e+01 2.930915260314941406e+01 -1.651323256737433076e-14 -9.857899544406245607e-14 -3.452766840343103605e-14 4.103288143834406265e-14
1.430000000000000000e+03 7.459572601318359375e+01 3.132701301574707031e+01 -9.507618725244828400e-15 -1.756407519426517183e-13 -5.554451077685249039e-14 -8.506817110811876886e-15
1.431000000000000000e+03 7.343418121337890625e+01 2.645958137512207031e+01 -3.502806921064751181e-15 -1.501203056924137712e-15 -1.501203056924137712e-15 -4.403528797570881170e-14
1.432000000000000000e+03 7.177506256103515625e+01 3.279775619506835938e+01 -8.850842422251231634e-14 -5.973537230185080316e-14 -4.447313963493529365e-14 -6.825782394680309992e-15
1.433000000000000000e+03 7.468441772460937500e+01 2.818768310546875000e+01 5.504411081666896188e-14 -2.051644173561156803e-13 -4.503609128420765773e-14 1.043336085387001899e-13
1.434000000000000000e+03 6.449600219726562500e+00 5.725581169128417969e+00 6.855493684667854359e-14 1.666335391068210492e-13 7.055654346367623564e-14 5.004010105043830980e-14
1.435000000000000000e+03 5.061413764953613281e+00 7.618593692779541016e+00 -1.185950345089850644e-13 -9.657739560332834206e-14 -6.455173038894673754e-14 -4.228388472693467293e-14
1.436000000000000000e+03 6.186352729797363281e+00 6.953928470611572266e+00 -1.556247128777291100e-13 -1.696359388679222202e-13 -9.757819552369539906e-14 -7.756215476470689624e-15
1.437000000000000000e+03 7.056078910827636719e+00 6.338074684143066406e+00 -4.966480108030066343e-14 -2.042887072613991384e-13 -7.618605318013629835e-14 4.203368474684290867e-14
1.438000000000000000e+03 7.500411987304687500e+01 3.242765426635742188e+01 -4.503608959014176322e-15 -1.506206997233666689e-13 -4.653729455289003225e-14 -1.663833255742021289e-14
1.439000000000000000e+03 7.258376312255859375e+01 3.358110809326171875e+01 -4.422293965484352940e-14 -1.790810067511111603e-13 -6.699118527703912251e-14 2.151724233360498284e-14
1.440000000000000000e+03 7.154200077056884766e+00 3.058092308044433594e+01 -3.027426196560746574e-14 -1.273520541409875473e-13 -4.728789449316532501e-14 -6.255012377194904549e-14
1.441000000000000000e+03 6.061711311340332031e+00 3.053359603881835938e+01 1.135910281308862013e-13 -2.486993087597727525e-13 -4.053248147816053415e-14 -8.506816941405287436e-14
1.442000000000000000e+03 1.346481704711914062e+01 6.051766395568847656e+00 1.163432279118956081e-13 1.413632801311806575e-13 7.731195647868102649e-14 -2.351884725653678038e-14
1.443000000000000000e+03 5.205430984497070312e+00 2.413770866394042969e+01 -3.602887167211341057e-14 -2.441956955655938399e-13 -8.406736949368581735e-14 -4.703769451307356075e-14
1.444000000000000000e+03 5.459657192230224609e+00 2.115137863159179688e+01 -9.507618894651417851e-14 -3.152526254369264480e-13 -1.230986477031639770e-13 -1.801443583605670529e-14
1.445000000000000000e+03 7.505638122558593750e+01 2.709235572814941406e+01 1.438652934846254561e-14 5.191660428925833071e-14 1.989093907487672619e-14 4.503609128420765773e-14
1.446000000000000000e+03 4.586544418334960938e+01 1.533492660522460938e+01 4.503608959014176322e-15 7.055654346367623564e-14 2.251804564210382886e-14 1.080866150163402317e-13
1.447000000000000000e+03 4.578022003173828125e+01 1.616581344604492188e+01 1.578765194748185663e-13 2.049142105997603380e-13 1.088372149566155245e-13 1.551243095294137925e-14
1.448000000000000000e+03 7.401028442382812500e+01 2.859194755554199219e+01 5.929751725449253219e-14 -1.118396214939802735e-13 -1.576263093303314350e-14 4.403528797570881170e-14
1.449000000000000000e+03 4.683186531066894531e+00 2.501140975952148438e+01 -2.101684237342145434e-14 -1.691355389077386917e-13 -5.704571743366665393e-14 -4.053248147816053415e-14
1.450000000000000000e+03 5.810439586639404297e+00 2.749864196777343750e+01 2.577065215956034216e-14 -2.634611279139775775e-13 -7.130714340395152839e-14 -1.751403587587317678e-14
1.451000000000000000e+03 4.665764331817626953e+00 2.030407524108886719e+01 -5.829671733412547519e-14 -2.994900063623545661e-13 -1.073360150760649390e-13 -9.257418236933295796e-14
1.452000000000000000e+03 5.415103912353515625e+00 2.205060577392578125e+01 4.003208151797700565e-14 -2.802245740139708285e-13 -7.205774334422682115e-14 8.456776945386934585e-14
1.453000000000000000e+03 5.254390716552734375e+00 1.630177497863769531e+01 1.951563910473907981e-14 -4.948966041661007065e-13 -1.426142868079030568e-13 -3.102486190588275849e-14
1.454000000000000000e+03 5.218097686767578125e+00 1.397846698760986328e+01 3.377706846315574329e-14 -3.515317106416587789e-13 -9.532638892660594276e-14 8.456776945386934585e-14
1.455000000000000000e+03 5.230132579803466797e+00 1.474278259277343750e+01 2.552045048540268340e-14 -4.008211948111628509e-13 -1.125902282105191443e-13 8.256616283687165381e-14
1.456000000000000000e+03 4.608597755432128906e+00 1.868591690063476562e+01 -1.651323256737433076e-14 -2.587073079634433226e-13 -8.256616283687165381e-14 -7.005613842129502361e-15
1.457000000000000000e+03 9.753641128540039062e+00 7.164310932159423828e+00 -6.054852393121493148e-14 -2.547041082819750946e-13 -9.457578898633065001e-14 3.252606517456513302e-14
1.458000000000000000e+03 4.518005847930908203e+00 1.241306018829345703e+01 1.826463581614846954e-14 -5.411836885745036074e-13 -1.568757195544515093e-13 3.402726844324750755e-14
1.459000000000000000e+03 5.290556907653808594e+00 1.787111473083496094e+01 1.501202929869195624e-14 -8.506816941405287436e-14 -2.101684237342145434e-14 -2.902325867701685547e-14
1.460000000000000000e+03 5.943501949310302734e+00 1.554238605499267578e+01 7.180754336413505690e-14 -6.097386050923914169e-13 -1.613793191961032658e-13 7.856295637913984775e-14
1.461000000000000000e+03 4.500615596771240234e+00 7.862859249114990234e+00 7.956375629950690476e-14 -2.346880827695796423e-13 -4.653729455289003225e-14 2.176744400776264160e-14
1.462000000000000000e+03 5.235987186431884766e+00 6.682915210723876953e+00 -8.256616283687165381e-14 -1.251002526260957745e-14 -2.852285871683332696e-14 -4.303448466720996568e-14
1.463000000000000000e+03 5.227511882781982422e+00 1.174695014953613281e+01 9.507618894651417851e-14 -3.252606517456513302e-13 -6.905533680686207210e-14 -1.706367387882892772e-13
1.464000000000000000e+03 5.267802715301513672e+00 1.708637237548828125e+01 2.326864727644501613e-14 -3.560353238358376915e-13 -9.983000212078485536e-14 -1.451162933850842773e-14
1.465000000000000000e+03 5.309738159179687500e+00 9.639477729797363281e+00 6.154932385158198849e-14 -1.566255127980961670e-13 -2.852285871683332696e-14 -6.605293026949732305e-14
1.466000000000000000e+03 5.276428222656250000e+00 1.032324028015136719e+01 -4.253408470702643718e-14 -2.927345865710861972e-13 -1.005806020610601481e-13 1.951563910473907981e-14
1.467000000000000000e+03 5.471127510070800781e+00 2.573309707641601562e+01 -3.177546523428984027e-14 -1.508709064797220112e-13 -5.479391083657719763e-14 -8.606896933441993136e-14
1.468000000000000000e+03 5.247786521911621094e+00 1.102768039703369141e+01 8.606896933441993136e-14 -4.663737386730038015e-13 -1.140914348673333079e-13 -1.601283260719080226e-14
1.469000000000000000e+03 6.002097129821777344e+00 9.729929924011230469e+00 6.830473686658677934e-14 -2.909831934867074255e-13 -6.680353698603619383e-14 8.156536291650459680e-14
1.470000000000000000e+03 5.121559143066406250e+00 2.342893791198730469e+01 1.686351389475551632e-13 -2.937353864914532542e-13 -3.753007494079578510e-14 9.807859548387892756e-14
1.471000000000000000e+03 3.565801620483398438e+01 2.407390213012695312e+01 4.378508799561704745e-14 1.788933584601082316e-13 6.680353698603619383e-14 -6.930553678695383635e-14
1.472000000000000000e+03 3.481916046142578125e+01 2.149895668029785156e+01 1.125902282105191443e-14 -2.239294497443158893e-13 -6.380113044867144478e-14 9.807859548387892756e-14
1.473000000000000000e+03 4.502480697631835938e+01 1.054921245574951172e+01 1.731387521417340758e-13 1.371098736933570872e-13 9.307458910578006450e-14 -2.126704277702969222e-15
1.474000000000000000e+03 6.365358829498291016e+00 3.364978408813476562e+01 6.599038535667206551e-14 -2.004731558709338390e-13 -4.034482979902581645e-14 -3.702967498061225660e-14
1.475000000000000000e+03 7.145106792449951172e+00 3.171360206604003906e+01 7.568565321995276984e-14 -2.420689787941548987e-13 -4.991500106039242768e-14 -1.200962343895356499e-13
1.476000000000000000e+03 1.276977729797363281e+01 6.132532119750976562e+00 1.000802037949425141e-15 -9.107298248878237246e-14 -2.702165375408505793e-14 -9.007217918028352643e-15
1.477000000000000000e+03 4.042003631591796875e+01 1.867431831359863281e+01 1.197834861084868391e-14 -5.545068663135102605e-14 -1.304170106733752374e-14 -6.229601642887159715e-15
1.478000000000000000e+03 4.466272735595703125e+01 1.637997245788574219e+01 1.536231130369949960e-13 3.152526186606628700e-14 5.554451077685249039e-14 1.976583908483084406e-14
1.479000000000000000e+03 4.523584747314453125e+01 1.520875453948974609e+01 1.155926347478838934e-13 2.096680169977674368e-13 9.757819552369539906e-14 3.502807175174635357e-14
1.480000000000000000e+03 4.028309631347656250e+01 1.990230178833007812e+01 -3.502806921064751181e-15 -8.156536291650459680e-14 -2.552045048540268340e-14 4.778829445334885351e-14
1.481000000000000000e+03 4.105274200439453125e+01 1.793956375122070312e+01 5.254210593355363584e-15 2.251804479507088161e-15 2.251804479507088161e-15 -4.003208151797700565e-15
1.482000000000000000e+03 3.897491455078125000e+01 2.112167358398437500e+01 3.677947500052049234e-14 -1.443656934448089846e-13 -3.227586519447336877e-14 0.000000000000000000e+00
1.483000000000000000e+03 3.709944915771484375e+01 2.349824714660644531e+01 1.476182931860019198e-14 9.782839550378716331e-14 3.377706846315574329e-14 2.502005094873562853e-15
1.484000000000000000e+03 1.389741134643554688e+01 1.420636081695556641e+01 1.276022524270134170e-14 -4.028228149806876990e-14 -8.256616283687165381e-15 -1.361090737729900302e-13
1.485000000000000000e+03 3.869565582275390625e+01 2.026907730102539062e+01 3.315156512479454365e-14 1.057097118173366823e-13 4.165838477670526230e-14 2.001604075898850282e-14
1.486000000000000000e+03 7.180039215087890625e+01 2.715042686462402344e+01 -6.017322057294549609e-14 -1.737642419275681194e-13 -7.018124010540680024e-14 -4.477807149594684177e-14
1.487000000000000000e+03 7.232682800292968750e+01 2.641748428344726562e+01 8.056456299613753980e-14 -2.056648173162992088e-13 -3.753007494079578510e-14 4.053248147816053415e-14
1.488000000000000000e+03 1.130731201171875000e+01 5.615824222564697266e+00 -5.929751725449253219e-14 -2.084170238735721936e-13 -8.031436301604577555e-14 3.953167816966168813e-14
1.489000000000000000e+03 1.287375926971435547e+01 1.265462017059326172e+01 5.516921080671484401e-14 -2.966126964269039101e-13 -7.243304670249625654e-14 -2.151724233360498284e-14
1.490000000000000000e+03 4.283796691894531250e+01 1.506026172637939453e+01 -5.254210423948774134e-14 1.776423517833858323e-13 3.753007494079578510e-14 -1.463672932855430986e-14
1.491000000000000000e+03 4.487894821166992188e+01 1.390060710906982422e+01 2.814755705262978608e-14 -7.943865969759281165e-14 -1.538733096289549712e-14 6.004812227696550847e-15
1.492000000000000000e+03 4.557380294799804688e+01 1.369110107421875000e+01 -4.228388472693467293e-14 -1.553745061213737677e-13 -5.929751725449253219e-14 7.506014649345978118e-15
1.493000000000000000e+03 9.024526596069335938e+00 7.933574676513671875e+00 5.404330750817011586e-14 -4.343480599060950409e-13 -1.140914348673333079e-13 1.291034607778934751e-13
1.494000000000000000e+03 1.414514446258544922e+01 1.032677555084228516e+01 9.507618725244828400e-15 -1.446158866486371708e-13 -4.053248147816053415e-14 9.357498906596359300e-14
1.495000000000000000e+03 1.373705768585205078e+01 1.236188888549804688e+01 1.240994476235310340e-13 -2.441956955655938399e-13 -3.602887167211341057e-14 -1.401122768425900472e-14
1.496000000000000000e+03 4.435643768310546875e+01 1.321561622619628906e+01 2.952365863720038397e-14 1.551243095294137925e-14 1.351082687704252897e-14 7.443464654323037055e-15
1.497000000000000000e+03 7.006515502929687500e+01 2.558913040161132812e+01 -4.378508799561704745e-14 -1.876503747039789255e-14 -1.876503747039789255e-14 4.903929774193946378e-14
1.498000000000000000e+03 4.684361648559570312e+01 1.921537017822265625e+01 9.845389884214836296e-14 8.794547934950353030e-14 5.591981074699013676e-14 4.003208151797700565e-14
1.499000000000000000e+03 4.477994537353515625e+01 2.118710136413574219e+01 5.429350748826188011e-14 1.033328086183331329e-13 4.728789449316532501e-14 6.980593674713736485e-14
1.500000000000000000e+03 1.381947803497314453e+01 1.332203102111816406e+01 7.656135653840573374e-14 -8.156536291650459680e-14 -1.501203056924137712e-15 4.553649124439118623e-14
1.501000000000000000e+03 1.497296237945556641e+01 7.729278087615966797e+00 9.107298248878237246e-14 1.991596042813861822e-13 8.706977603105056640e-14 -1.801443583605670529e-14
1.502000000000000000e+03 1.463587188720703125e+01 1.879983901977539062e+01 7.205774334422682115e-14 -1.521218996039172544e-13 -2.401924891078620339e-14 5.004010189747125706e-15
1.503000000000000000e+03 1.535463142395019531e+01 8.654733657836914062e+00 -9.507618725244828400e-15 -9.557658890669770702e-14 -3.152526186606628700e-14 -1.185950345089850644e-13
1.504000000000000000e+03 2.374676322937011719e+01 2.756346893310546875e+01 1.085870149765237602e-13 2.066656172366662658e-13 9.457578898633065001e-14 9.507618894651417851e-14
1.505000000000000000e+03 6.051333904266357422e+00 1.860413169860839844e+01 -4.278428468711820143e-14 -4.300946534682714706e-13 -1.418636800913641860e-13 -9.957980214069309111e-14
1.506000000000000000e+03 1.308685970306396484e+01 1.108775234222412109e+01 1.376102736535406157e-13 -3.252606517456513302e-14 3.152526186606628700e-14 1.291034607778934751e-13
1.507000000000000000e+03 4.384187698364257812e+01 1.490935134887695312e+01 6.918044018503974324e-14 2.964875862724626610e-14 2.964875862724626610e-14 -5.904731727440076794e-14
1.508000000000000000e+03 1.459663200378417969e+01 6.844902038574218750e+00 -2.877305869692509122e-14 -1.038332085785166614e-13 -3.978187814975345238e-14 -3.202566521438160452e-14
1.509000000000000000e+03 1.205821132659912109e+01 6.242010116577148438e+00 -1.456166865690042278e-13 -1.996600042415697107e-13 -1.035830085984248972e-13 1.135910281308862013e-13
1.510000000000000000e+03 1.346564102172851562e+01 1.014161586761474609e+01 1.351082687704252897e-14 -2.687153342721682048e-13 -7.656135653840573374e-14 -1.701363422162375377e-14
1.511000000000000000e+03 3.543257904052734375e+01 2.325496101379394531e+01 3.627907165220517482e-14 6.129912387149022424e-14 2.927345865710861972e-14 3.002406113848275424e-15
1.512000000000000000e+03 3.449041748046875000e+01 2.325236129760742188e+01 5.079070099071360256e-14 2.176744400776264160e-14 2.176744400776264160e-14 -2.752205540833448094e-14
1.513000000000000000e+03 6.745437622070312500e+01 2.512546157836914062e+01 6.555253030931379454e-14 1.195958344293521214e-13 5.554451077685249039e-14 -1.053344084590672469e-13
1.514000000000000000e+03 4.431351470947265625e+01 1.436754417419433594e+01 -1.014875744477939518e-14 1.329033725520206710e-13 3.682638707327122451e-14 1.601283260719080226e-14
1.515000000000000000e+03 6.503425598144531250e+01 2.701294326782226562e+01 -1.826463581614846954e-14 1.008308020411519124e-13 2.476984885106149614e-14 -5.316760757784894098e-14
1.516000000000000000e+03 6.401522827148437500e+01 2.741716575622558594e+01 5.029030103053007406e-14 6.730393694621972234e-14 3.527827173183811782e-14 2.001604075898850282e-14
1.517000000000000000e+03 6.404044342041015625e+01 2.851575279235839844e+01 1.288532607978017108e-14 -1.317305639569887887e-13 -3.565357170197576420e-14 -2.151724233360498284e-14
1.518000000000000000e+03 1.443189811706542969e+01 9.414627075195312500e+00 1.901523745048965680e-14 -4.903929774193946378e-14 -9.007217918028352643e-15 1.826463581614846954e-14
1.519000000000000000e+03 1.470887756347656250e+01 8.555705070495605469e+00 3.602887167211341057e-14 -7.606094980195862720e-14 -1.200962445539310169e-14 1.240994476235310340e-13
1.520000000000000000e+03 4.860277175903320312e+01 2.400711441040039062e+01 3.252606517456513302e-15 1.843977715746542012e-13 5.629511410525957216e-14 1.751403587587317678e-14
1.521000000000000000e+03 4.646658706665039062e+01 2.039984703063964844e+01 8.656937607086703790e-14 -3.152526186606628700e-14 1.651323256737433076e-14 4.478589130411589347e-14
1.522000000000000000e+03 4.143748474121093750e+01 2.026626586914062500e+01 -6.868004022485621474e-14 -7.518525325976924134e-14 -4.315958804538763682e-14 4.903929774193946378e-14
1.523000000000000000e+03 6.306076049804687500e+01 2.858282089233398438e+01 -9.570169228487537816e-14 -1.813953582610258741e-14 -3.415236843329338967e-14 1.801443583605670529e-14
1.524000000000000000e+03 6.347893905639648438e+01 2.943703269958496094e+01 5.435605917735071568e-14 -2.245549564708088780e-14 9.570169567300716718e-15 -3.002406113848275424e-15
1.525000000000000000e+03 5.464773178100585938e+01 2.852013969421386719e+01 -5.879711814134195094e-15 -2.539535049535680128e-14 -9.382518735198946275e-15 6.730393694621972234e-14
1.526000000000000000e+03 4.722557830810546875e+01 1.995407676696777344e+01 6.505213034913026604e-14 -7.506014988159157020e-14 -3.002406113848275424e-15 -4.353488801552528320e-14
1.527000000000000000e+03 4.341167068481445312e+01 1.548432350158691406e+01 2.395669722169736782e-14 1.017690570486937118e-13 3.771772661993050280e-14 -1.100882199392720293e-14
1.528000000000000000e+03 1.435481643676757812e+01 1.812561225891113281e+01 7.531034986168333445e-14 3.227586519447336877e-14 3.227586519447336877e-14 -1.000802037949425141e-15
1.529000000000000000e+03 5.996437549591064453e+00 1.784269142150878906e+01 3.978187814975345238e-14 -2.574563283917752354e-13 -6.530233032922203029e-14 -6.505213034913026604e-15
1.530000000000000000e+03 1.685120964050292969e+01 2.373222541809082031e+01 1.496198998029996119e-13 -4.503608959014176322e-15 4.353488801552528320e-14 3.402726844324750755e-14
1.531000000000000000e+03 5.208534240722656250e+00 3.412363052368164062e+01 2.752205498481800731e-15 -4.105790143635323908e-13 -1.223480409866251062e-13 -3.803047490097931360e-14
1.532000000000000000e+03 2.919127082824707031e+01 2.726681900024414062e+01 7.681155651849749799e-14 5.579471075694425464e-14 3.978187814975345238e-14 4.678749453298179650e-14
1.533000000000000000e+03 2.720181846618652344e+01 2.723381614685058594e+01 1.014563053795131120e-13 1.349831704744453020e-13 7.093184004568209300e-14 6.004811719476782494e-14
1.534000000000000000e+03 5.279003524780273438e+01 2.754436492919921875e+01 -1.225982443548486595e-14 -4.528629126429942198e-14 -1.726383420171551802e-14 2.276824562219559311e-14
1.535000000000000000e+03 5.079384613037109375e+01 2.465360641479492188e+01 5.429350748826188011e-14 1.833969716542871442e-13 7.130714340395152839e-14 2.952365863720038397e-14
1.536000000000000000e+03 6.191056442260742188e+01 2.780569458007812500e+01 -6.555253030931379454e-14 -1.195958344293521214e-13 -5.554451077685249039e-14 -2.952365863720038397e-14
1.537000000000000000e+03 1.971100997924804688e+01 2.760863876342773438e+01 9.132317908074234769e-15 4.966480108030066343e-14 1.763913586591905891e-14 -1.000802037949425141e-15
1.538000000000000000e+03 5.184417343139648438e+01 2.850106620788574219e+01 -3.627907165220517482e-14 1.876503747039789255e-14 -5.254210593355363584e-15 6.204972381176551699e-14
1.539000000000000000e+03 6.095296859741210938e+01 2.896065902709960938e+01 -6.755413438521264483e-15 -2.577065215956034216e-14 -9.757819552369539906e-15 -3.102486190588275849e-14
1.540000000000000000e+03 3.107331275939941406e+01 2.511702346801757812e+01 -2.451964887096973189e-14 6.955573676704560060e-14 1.351082687704252897e-14 -4.503608959014176322e-15
1.541000000000000000e+03 4.765802001953125000e+01 2.333255767822265625e+01 4.328468803543351895e-14 2.426944889087796764e-14 2.026624073908026707e-14 2.039134072912614920e-14
1.542000000000000000e+03 7.450508117675781250e+01 3.403752517700195312e+01 -2.939855864715450184e-14 -1.269767575589816899e-13 -4.691259452302767863e-14 7.255814669254213867e-15
1.543000000000000000e+03 2.561284828186035156e+01 2.674801826477050781e+01 9.344988568778592186e-14 6.292542713021848089e-14 4.691259452302767863e-14 4.753809447325708926e-14
1.544000000000000000e+03 3.459423446655273438e+01 2.427101325988769531e+01 5.229190425939597708e-14 4.528629126429942198e-14 2.927345865710861972e-14 3.502807175174635357e-14
1.545000000000000000e+03 3.372131347656250000e+01 2.554518318176269531e+01 7.430954994131627744e-14 4.328468803543351895e-14 3.527827173183811782e-14 -9.007217918028352643e-15
1.546000000000000000e+03 7.206553936004638672e+00 4.174761581420898438e+01 -3.609142336120224615e-14 -2.785357122898901583e-13 -9.438814069532772133e-14 -4.553649124439118623e-14
1.547000000000000000e+03 7.033246040344238281e+00 4.018728637695312500e+01 -1.813953582610258741e-14 -1.907778812313895567e-13 -6.267522715012671664e-14 -4.528629126429942198e-14
1.548000000000000000e+03 5.228045272827148438e+01 2.667995834350585938e+01 -6.467682699086083065e-14 4.090778144829818053e-14 -7.130714679208331741e-15 4.853889778175593528e-14
1.549000000000000000e+03 5.064454269409179688e+01 2.573916625976562500e+01 4.528629126429942198e-14 -1.178444413449733497e-13 -2.176744400776264160e-14 2.301844560228735737e-14
1.550000000000000000e+03 7.343267059326171875e+01 3.405749893188476562e+01 -3.127506188597452275e-14 -3.627907165220517482e-14 -2.026624073908026707e-14 -2.051644071917203133e-14
1.551000000000000000e+03 2.611197090148925781e+01 2.783981132507324219e+01 2.927345865710861972e-14 5.829671733412547519e-14 2.627105211974387067e-14 -9.507618725244828400e-15
1.552000000000000000e+03 5.630652618408203125e+01 2.974106597900390625e+01 -1.269767524767840064e-14 -1.655701807211015786e-13 -5.348035585889775179e-14 -5.154130431912068433e-14
1.553000000000000000e+03 5.602696228027343750e+01 2.708490180969238281e+01 1.926543912464731556e-14 8.256616283687165381e-15 8.256616283687165381e-15 5.929751725449253219e-14
1.554000000000000000e+03 7.162435054779052734e+00 2.943678855895996094e+01 1.566255127980961670e-13 -1.616295259524586081e-13 -1.501203056924137712e-15 -1.313552673749829314e-13
1.555000000000000000e+03 7.374273681640625000e+01 2.786042976379394531e+01 -2.351884725653678038e-14 -1.015814019814272051e-13 -3.753007494079578510e-14 1.356086738128065017e-13
1.556000000000000000e+03 7.430551910400390625e+01 3.212355804443359375e+01 -7.506015284620688559e-16 -2.519519152772292658e-13 -7.581074982186686295e-14 5.454371085648543338e-14
1.557000000000000000e+03 7.197294616699218750e+01 2.849393844604492188e+01 -3.477786838352280030e-14 -1.979085976046637829e-13 -6.980593674713736485e-14 5.004010189747125706e-15
1.558000000000000000e+03 1.414531135559082031e+01 6.036324977874755859e+00 1.901523745048965680e-14 3.102486190588275849e-14 1.501202929869195624e-14 9.007217918028352643e-15
1.559000000000000000e+03 6.481793880462646484e+00 6.250923633575439453e+00 -5.054050101062183831e-14 -2.046640038434049957e-13 -7.656135653840573374e-14 5.304250758780305885e-14
1.560000000000000000e+03 6.874165534973144531e+00 2.831525611877441406e+01 3.577867169202164632e-14 -3.735493359947883452e-13 -1.013312020013354409e-13 -1.023320019217024979e-13
1.561000000000000000e+03 5.637283325195312500e+00 2.659305572509765625e+01 8.731997601114233065e-14 -4.200866542646009005e-13 -9.983000212078485536e-14 -9.907939540424598457e-14
1.562000000000000000e+03 6.228014945983886719e+00 2.215439987182617188e+01 -6.780433690640325084e-14 -3.950666020453158511e-13 -1.388612803302630150e-13 -1.636311257931927221e-13
1.563000000000000000e+03 5.620622634887695312e+00 2.325583267211914062e+01 -2.301844560228735737e-14 -1.471179000020819694e-13 -5.104090097080536681e-14 -9.007217918028352643e-15
1.564000000000000000e+03 6.595829963684082031e+00 2.733074951171875000e+01 9.457578898633065001e-14 -2.797241605012601440e-13 -5.554451077685249039e-14 -8.406736949368581735e-14
1.565000000000000000e+03 1.310485553741455078e+01 1.590843963623046875e+01 1.240994476235310340e-13 7.606094980195862720e-14 6.004811719476782494e-14 -3.753007494079578510e-14
1.566000000000000000e+03 5.212517738342285156e+00 1.322266292572021484e+01 -1.751403460532375590e-15 -3.210072453078277599e-13 -9.682759558342010631e-14 2.852285871683332696e-14
1.567000000000000000e+03 5.932893753051757812e+00 1.477612400054931641e+01 1.541235129971785245e-13 -2.542037218743187221e-13 -3.002405859738391247e-14 -3.152526186606628700e-14
1.568000000000000000e+03 5.370759963989257812e+00 1.945299339294433594e+01 -9.007218256841531545e-14 -4.503609128420765773e-13 -1.621299259126421366e-13 -5.004010189747125706e-15
1.569000000000000000e+03 6.286579132080078125e+00 2.115643310546875000e+01 8.156536291650459680e-14 -2.166736299928639919e-13 -4.053248147816053415e-14 -6.505213034913026604e-14
1.570000000000000000e+03 6.116406440734863281e+00 2.557700538635253906e+01 7.430954994131627744e-14 -1.969077976842967259e-13 -3.677947500052049234e-14 -1.686351389475551632e-13
1.571000000000000000e+03 5.215665340423583984e+00 1.247804737091064453e+01 1.000802037949425141e-15 -4.113296346325984176e-13 -1.230986477031639770e-13 -8.406736949368581735e-14
1.572000000000000000e+03 5.922425270080566406e+00 1.402124118804931641e+01 -2.201764398785440585e-14 -5.584474939770989188e-13 -1.741395520621011328e-13 6.004812227696550847e-15
1.573000000000000000e+03 6.191935062408447266e+00 2.021895980834960938e+01 -1.939053843706683988e-13 -4.491099061653541780e-13 -1.929045844503013418e-13 -1.416134868875359998e-13
1.574000000000000000e+03 5.324655055999755859e+00 1.865650749206542969e+01 -2.426944889087796764e-14 -1.934049844104848703e-13 -6.530233032922203029e-14 1.751403587587317678e-14
1.575000000000000000e+03 8.137145996093750000e+00 6.565408706665039062e+00 7.881315635923161200e-14 -4.466078928119093794e-13 -1.103384216134296880e-13 8.156536291650459680e-14
1.576000000000000000e+03 6.115293979644775391e+00 1.938262939453125000e+01 1.451162933850842773e-14 -3.953167816966168813e-14 -7.506014649345978118e-15 -7.656135653840573374e-14
1.577000000000000000e+03 8.986570358276367188e+00 7.215432167053222656e+00 9.057258252859884395e-14 -2.356888826899466993e-13 -4.353488801552528320e-14 5.154130431912068433e-14
1.578000000000000000e+03 5.653058528900146484e+00 7.298986911773681641e+00 6.154932385158198849e-14 -1.566255127980961670e-13 -2.852285871683332696e-14 -3.402726844324750755e-14
1.579000000000000000e+03 1.318893527984619141e+01 1.507506752014160156e+01 2.627105211974387067e-14 -1.488692930864607411e-13 -3.677947500052049234e-14 -4.303448466720996568e-14
1.580000000000000000e+03 5.951489925384521484e+00 1.631284713745117188e+01 6.930553678695383635e-14 -3.820561759754897979e-13 -9.382518904605535726e-14 -7.606094980195862720e-14
1.581000000000000000e+03 5.916929721832275391e+00 1.327674102783203125e+01 1.331066604593617031e-13 5.704571743366665393e-14 5.704571743366665393e-14 7.656135653840573374e-14
1.582000000000000000e+03 9.041332244873046875e+00 8.655142784118652344e+00 1.551243129175455815e-13 -2.502005052521915490e-14 3.903127820947815962e-14 0.000000000000000000e+00
1.583000000000000000e+03 5.949382305145263672e+00 1.111406326293945312e+01 3.002406113848275424e-15 -2.732189474663471174e-13 -8.106496295632106830e-14 -4.503609128420765773e-14
1.584000000000000000e+03 5.919588565826416016e+00 1.254409217834472656e+01 3.152526186606628700e-14 -3.067458125612793074e-13 -8.256616283687165381e-14 2.602085213965210642e-14
1.585000000000000000e+03 6.342314243316650391e+00 2.642503547668457031e+01 -7.856295637913984775e-14 -2.166736299928639919e-13 -8.857097591160115191e-14 -3.252606517456513302e-14
1.586000000000000000e+03 5.769081115722656250e+00 2.400500869750976562e+01 8.156536291650459680e-14 -3.768019425122448585e-13 -8.857097591160115191e-14 -1.361090737729900302e-13
1.587000000000000000e+03 5.922878265380859375e+00 2.477483367919921875e+01 -5.704571743366665393e-14 -2.532028948488973530e-13 -9.307458910578006450e-14 -9.107298248878237246e-14
1.588000000000000000e+03 7.295716094970703125e+01 2.727695655822753906e+01 5.604491073703601889e-14 -2.962373998448980528e-13 -7.205774334422682115e-14 5.004010189747125706e-15
1.589000000000000000e+03 7.288820648193359375e+01 2.660905265808105469e+01 2.001604075898850282e-14 -2.201764432666758475e-13 -6.004811719476782494e-14 -1.120898214740720378e-13
1.590000000000000000e+03 1.444066810607910156e+01 2.304288482666015625e+01 9.682759558342010631e-14 -1.643817325097315929e-13 -2.026624073908026707e-14 -2.752205540833448094e-14
1.591000000000000000e+03 9.335115432739257812e+00 2.683675193786621094e+01 6.680353698603619383e-14 -1.143416280711614941e-13 -1.426142935841666348e-14 -1.731387521417340758e-13
1.592000000000000000e+03 8.107317924499511719e+00 3.111302185058593750e+01 7.828148394263545473e-14 -3.782093453523482918e-13 -8.997835842291385111e-14 -3.803047490097931360e-14
1.593000000000000000e+03 4.131480407714843750e+01 1.598612022399902344e+01 1.636311257931927221e-13 1.616295259524586081e-13 9.757819552369539906e-14 -2.802245536851800944e-14
1.594000000000000000e+03 1.338000774383544922e+01 6.712594032287597656e+00 6.004811719476782494e-14 -2.001604075898850282e-14 1.200962445539310169e-14 1.401122768425900472e-14
1.595000000000000000e+03 7.565902709960937500e+01 2.675734138488769531e+01 -1.170938346284344789e-13 8.706977603105056640e-14 -9.007217918028352643e-15 -3.102486190588275849e-14
1.596000000000000000e+03 4.567841720581054688e+01 1.883884811401367188e+01 7.931355631941514051e-14 -1.175942362826839019e-14 2.026624073908026707e-14 8.957178260823178695e-14
1.597000000000000000e+03 4.475077819824218750e+01 1.489097499847412109e+01 4.745990655596193930e-14 -2.541098841762901017e-14 6.614675949719647091e-15 -1.501202929869195624e-14
1.598000000000000000e+03 3.486131286621093750e+01 2.546776390075683594e+01 3.665437501047461022e-14 2.714675374413094006e-14 1.914033913460143344e-14 -3.803047490097931360e-14
1.599000000000000000e+03 1.514420032501220703e+01 2.097868919372558594e+01 7.305854326459387815e-14 7.706175649858926224e-14 4.503609128420765773e-14 2.196760433064923190e-13
1.600000000000000000e+03 1.427447223663330078e+01 2.014020538330078125e+01 1.083368149964319960e-13 -9.082278250869060821e-14 5.254210593355363584e-15 1.701363422162375377e-14
1.601000000000000000e+03 1.736620521545410156e+01 2.490156173706054688e+01 8.857097591160115191e-14 2.652125379390152943e-14 3.452766840343103605e-14 -1.100882199392720293e-14
1.602000000000000000e+03 9.729903221130371094e+00 6.452973842620849609e+00 4.578669122448295048e-14 -1.633809325893645359e-13 -3.527827173183811782e-14 5.154130431912068433e-14
1.603000000000000000e+03 1.130495834350585938e+01 6.326071262359619141e+00 -1.616295259524586081e-13 -2.351884725653678038e-14 -5.554451077685249039e-14 2.101684237342145434e-14
1.604000000000000000e+03 6.856143951416015625e+01 2.684918785095214844e+01 3.077466192579099424e-14 1.751403460532375590e-15 9.757819552369539906e-15 -5.654531408535133641e-14
1.605000000000000000e+03 6.728418731689453125e+01 2.743166160583496094e+01 -1.033328086183331329e-13 -4.253408555405938443e-15 -3.227586519447336877e-14 -5.091580098075948468e-14
1.606000000000000000e+03 4.152243423461914062e+01 1.714333343505859375e+01 1.108388215736132165e-13 1.751403460532375590e-15 3.377706846315574329e-14 -1.701363422162375377e-14
1.607000000000000000e+03 7.135720825195312500e+01 2.653420639038085938e+01 4.741299448321120713e-14 -7.118204002577385725e-14 -7.130714679208331741e-15 3.602887167211341057e-14
1.608000000000000000e+03 1.208617687225341797e+01 7.007456779479980469e+00 -6.054852393121493148e-14 6.555253030931379454e-14 1.501203056924137712e-15 6.255012377194904549e-14
1.609000000000000000e+03 7.121077728271484375e+01 2.795739936828613281e+01 -2.364394724658266250e-14 -1.013312036954013354e-14 -1.013312036954013354e-14 3.102486190588275849e-14
1.610000000000000000e+03 7.059800720214843750e+01 2.660375022888183594e+01 2.527025050531091915e-14 -5.779631737394194668e-14 -9.757819552369539906e-15 -7.706175649858926224e-14
1.611000000000000000e+03 3.851405715942382812e+01 2.273166084289550781e+01 5.548196247589544383e-14 1.152798830787032935e-13 5.122855264994008451e-14 -3.753007494079578510e-14
1.612000000000000000e+03 4.476174163818359375e+01 1.744974327087402344e+01 1.000802037949425141e-14 9.007218256841531545e-14 3.002405859738391247e-14 -1.057097118173366823e-14
1.613000000000000000e+03 4.606459045410156250e+01 1.961406898498535156e+01 5.579471075694425464e-14 -1.133408281507944371e-13 -1.726383420171551802e-14 -2.001604075898850282e-14
1.614000000000000000e+03 4.501765441894531250e+01 1.580324745178222656e+01 4.653729455289003225e-14 2.486993087597727525e-13 8.857097591160115191e-14 2.151724233360498284e-14
1.615000000000000000e+03 4.439225006103515625e+01 1.538147735595703125e+01 1.225982477429804485e-13 2.126704303113957639e-13 1.005806020610601481e-13 4.378508799561704745e-14
1.616000000000000000e+03 7.034551239013671875e+01 2.752095603942871094e+01 -1.100882199392720293e-14 -1.190954344691685929e-13 -3.903127820947815962e-14 -1.726383420171551802e-14
1.617000000000000000e+03 6.977320098876953125e+01 2.635596847534179688e+01 -2.314354559233323949e-14 -5.566961076689837251e-14 -2.364394724658266250e-14 -1.451162933850842773e-14
1.618000000000000000e+03 3.703431320190429688e+01 2.251948928833007812e+01 8.556856937423640286e-14 -1.005806020610601481e-13 -4.503608959014176322e-15 7.105694342385976414e-14
1.619000000000000000e+03 3.630252838134765625e+01 2.257208061218261719e+01 -7.280834328450211390e-14 6.029832395112316723e-14 -3.753007324672989059e-15 -3.853087824929463112e-14
1.620000000000000000e+03 3.786359786987304688e+01 2.071346855163574219e+01 4.853889778175593528e-14 -1.351082687704252897e-14 1.050842118671072717e-14 -7.806255641895631925e-14
1.621000000000000000e+03 3.894078826904296875e+01 2.189962005615234375e+01 4.753809447325708926e-14 1.576263127184632240e-13 6.154932385158198849e-14 -3.702967498061225660e-14
1.622000000000000000e+03 4.098915100097656250e+01 1.942244720458984375e+01 -3.352686848306397904e-14 8.857097591160115191e-14 1.651323256737433076e-14 -3.102486190588275849e-14
1.623000000000000000e+03 1.384816837310791016e+01 1.132708930969238281e+01 8.782037597132585915e-14 -2.254306496248664748e-13 -4.128308141843582690e-14 1.501202929869195624e-14
1.624000000000000000e+03 1.421719169616699219e+01 1.957203674316406250e+01 -2.752205540833448094e-14 -3.778027695376662276e-13 -1.215974478226133915e-13 6.805453688649501509e-14
1.625000000000000000e+03 6.890612602233886719e+00 1.926720237731933594e+01 2.702165375408505793e-14 -2.171740299530475204e-13 -5.704571743366665393e-14 -1.501202929869195624e-14
1.626000000000000000e+03 1.306526184082031250e+01 1.354398632049560547e+01 1.401122870069854143e-13 6.004811719476782494e-14 6.004811719476782494e-14 -5.454371085648543338e-14
1.627000000000000000e+03 1.233189487457275391e+01 1.390280437469482422e+01 1.303544674546158744e-13 -1.728885453853787335e-13 -1.276022524270134170e-14 6.705373696612795809e-14
1.628000000000000000e+03 1.340107059478759766e+01 1.758146667480468750e+01 1.606287260320915511e-13 -2.056648173162992088e-13 -1.351082687704252897e-14 -8.356696953350228885e-14
1.629000000000000000e+03 1.194755649566650391e+01 1.512564563751220703e+01 8.932157585187644466e-14 -1.218476410264415777e-13 -9.757819552369539906e-15 4.978990107034654555e-14
1.630000000000000000e+03 5.930614471435546875e+00 1.182363986968994141e+01 3.402726844324750755e-14 -5.344282958882895507e-13 -1.501202997631831404e-13 1.030826086382413687e-13
1.631000000000000000e+03 4.420552062988281250e+01 1.690726470947265625e+01 -3.552847171192988207e-14 1.105886215935214523e-13 2.251804564210382886e-14 2.064154070921791345e-14
1.632000000000000000e+03 1.052227306365966797e+01 6.393597126007080078e+00 -7.506014649345978118e-15 -2.777225606605260300e-13 -8.556856937423640286e-14 1.436150867282701138e-13
1.633000000000000000e+03 9.005754470825195312e+00 9.369502067565917969e+00 -4.903929774193946378e-14 -3.412734775765785544e-13 -1.170938346284344789e-13 1.306046606584440606e-13
1.634000000000000000e+03 1.278447628021240234e+01 6.831876277923583984e+00 9.232398238924119371e-14 -2.349382624208806725e-13 -4.278428468711820143e-14 5.254210423948774134e-14
1.635000000000000000e+03 1.434840106964111328e+01 7.629099369049072266e+00 7.656135653840573374e-14 7.856295637913984775e-14 4.653729455289003225e-14 -8.006416303595401129e-15
1.636000000000000000e+03 6.942712402343750000e+01 2.720582199096679688e+01 -1.055846084391590112e-13 -7.956375629950690476e-14 -5.554451077685249039e-14 8.757017937936588392e-15
1.637000000000000000e+03 1.052563285827636719e+01 7.105724334716796875e+00 2.602085213965210642e-14 -1.261010474642651480e-13 -3.002405859738391247e-14 1.381106736137241442e-13
1.638000000000000000e+03 1.378022575378417969e+01 9.257211685180664062e+00 1.323560672953499884e-13 -3.477786838352280030e-14 2.927345865710861972e-14 2.101684237342145434e-14
1.639000000000000000e+03 4.756874465942382812e+01 2.188071823120117188e+01 1.477433897879160130e-13 3.114996189592864062e-14 5.366800753803246948e-14 1.946872703198834764e-14
1.640000000000000000e+03 4.526702117919921875e+01 2.001043319702148438e+01 6.630313024958908730e-14 5.129110433902892008e-14 3.527827173183811782e-14 4.103288143834406265e-14
1.641000000000000000e+03 4.193875122070312500e+01 1.833556175231933594e+01 4.128308141843582690e-14 -7.380914998113274894e-14 -9.757819552369539906e-15 -5.129110433902892008e-14
1.642000000000000000e+03 1.407229804992675781e+01 8.422232627868652344e+00 3.352686848306397904e-14 -8.857097591160115191e-14 -1.651323256737433076e-14 5.004010189747125706e-15
1.643000000000000000e+03 8.271574020385742188e+00 8.626732826232910156e+00 1.220978477827969200e-13 -2.221780431074099615e-13 -3.002405859738391247e-14 1.210970478624298630e-13
1.644000000000000000e+03 7.475879192352294922e+00 6.745748996734619141e+00 1.003304020809683839e-13 -2.752205498481800731e-15 2.927345865710861972e-14 2.702165375408505793e-14
1.645000000000000000e+03 7.651941299438476562e+00 3.301913833618164062e+01 1.050842118671072717e-14 -3.557851170794823492e-13 -1.035830085984248972e-13 -4.078268145825229840e-14
1.646000000000000000e+03 6.711785125732421875e+01 2.617238235473632812e+01 -8.006416303595401129e-15 -9.207378240914942946e-14 -3.002405859738391247e-14 -1.139037730238032231e-13
1.647000000000000000e+03 6.507396697998046875e+01 2.899783134460449219e+01 -2.533280050033386022e-14 -5.660786238630838296e-14 -2.458219886599267295e-14 2.101684237342145434e-14
1.648000000000000000e+03 1.455981540679931641e+01 2.215483283996582031e+01 1.200962445539310169e-14 1.881507780522942430e-13 6.004811719476782494e-14 8.406736949368581735e-14
1.649000000000000000e+03 6.776287078857421875e+01 2.583942222595214844e+01 -1.015814019814272051e-13 1.165934346682509504e-13 4.503608959014176322e-15 -1.233488409069921632e-13
1.650000000000000000e+03 6.433493804931640625e+01 3.026956939697265625e+01 1.563753157826197181e-15 -2.220529397292322904e-14 -6.192462212765374036e-15 9.507618725244828400e-15
1.651000000000000000e+03 6.246445465087890625e+01 3.014059066772460938e+01 -2.927345865710861972e-14 2.176744400776264160e-14 -2.251804479507088161e-15 -1.801443583605670529e-14
1.652000000000000000e+03 4.564496612548828125e+01 2.083824348449707031e+01 9.957980214069309111e-14 6.555253030931379454e-14 4.953969770212299228e-14 -1.876503747039789255e-14
1.653000000000000000e+03 4.505297470092773438e+01 2.208624076843261719e+01 -1.651323256737433076e-14 -9.857899544406245607e-14 -3.452766840343103605e-14 -5.354290754798658736e-14
1.654000000000000000e+03 1.330009078979492188e+01 1.921715354919433594e+01 1.497450031811772830e-13 -2.560802047843480089e-13 -3.190056522433572239e-14 -3.002406113848275424e-15
1.655000000000000000e+03 5.963555335998535156e+00 1.707926940917968750e+01 4.003208151797700565e-15 -4.403528797570881170e-14 -1.200962445539310169e-14 -5.354290754798658736e-14
1.656000000000000000e+03 3.263712692260742188e+01 2.595026588439941406e+01 -2.276824562219559311e-14 -9.757819552369539906e-15 -9.757819552369539906e-15 -4.666239454293591438e-14
1.657000000000000000e+03 3.047802925109863281e+01 2.773954772949218750e+01 7.443464654323037055e-14 3.190056522433572239e-14 3.190056522433572239e-14 -1.000802037949425141e-14
1.658000000000000000e+03 2.468790245056152344e+01 2.721174430847167969e+01 3.978187814975345238e-14 -1.726383420171551802e-14 6.755413438521264483e-15 3.828067826920286687e-14
1.659000000000000000e+03 2.282058143615722656e+01 2.785297203063964844e+01 -1.476182931860019198e-14 6.229992379185728124e-14 1.426142935841666348e-14 2.151724233360498284e-14
1.660000000000000000e+03 1.808233070373535156e+01 2.831575965881347656e+01 -1.351082687704252897e-14 -5.154130431912068433e-14 -1.951563910473907981e-14 -3.753007494079578510e-14
1.661000000000000000e+03 6.033514022827148438e+01 3.009672927856445312e+01 -8.763272768032293047e-14 8.194066288664224318e-15 -2.383159723165148569e-14 -2.502005052521915490e-14
1.662000000000000000e+03 6.328774261474609375e+01 3.135757637023925781e+01 9.757819552369539906e-15 -1.273520541409875473e-13 -3.527827173183811782e-14 -3.127506315652394363e-15
1.663000000000000000e+03 2.807825851440429688e+01 2.974420356750488281e+01 1.055846084391590112e-13 1.195958344293521214e-13 6.755413692631148659e-14 2.114194236346733646e-14
1.664000000000000000e+03 2.447532844543457031e+01 3.229977798461914062e+01 -1.876503747039789255e-14 -5.379310752807835161e-14 -2.176744400776264160e-14 3.652927163229693908e-14
1.665000000000000000e+03 8.947781562805175781e+00 3.627024841308593750e+01 -1.939053911469319769e-14 -3.171291354520100469e-13 -1.009559054193295835e-13 -3.540337172188399995e-14
1.666000000000000000e+03 2.136436080932617188e+01 2.748876571655273438e+01 2.406616098353693556e-14 1.018159691214444440e-13 3.776463869268123497e-14 2.001604075898850282e-14
1.667000000000000000e+03 2.204878425598144531e+01 2.847942924499511719e+01 3.224458934992895098e-14 -3.193183768074835116e-14 9.382519105775860698e-17 4.953969770212299228e-14
1.668000000000000000e+03 4.951338195800781250e+01 2.575479507446289062e+01 -2.802245536851800944e-14 1.481186999224490264e-13 3.602887167211341057e-14 7.756215645877279075e-14
1.669000000000000000e+03 4.694368362426757812e+01 2.117917633056640625e+01 -2.001604075898850282e-15 -1.801443583605670529e-14 -6.004812227696550847e-15 -5.779631737394194668e-14
1.670000000000000000e+03 5.515916824340820312e+01 3.217519760131835938e+01 2.026624073908026707e-14 -8.281636281696341806e-14 -1.876503747039789255e-14 1.601283260719080226e-14
1.671000000000000000e+03 5.831378555297851562e+01 3.027435302734375000e+01 -3.793665075547784926e-14 -1.306359398911202674e-13 -5.057177685516625609e-14 -5.104090097080536681e-14
1.672000000000000000e+03 7.091441345214843750e+01 3.641086578369140625e+01 -2.001604075898850282e-14 -1.000802021008766196e-13 -3.602887167211341057e-14 -1.388612769421312260e-14
1.673000000000000000e+03 6.992529296875000000e+01 2.843265151977539062e+01 -1.651323256737433076e-14 6.154932385158198849e-14 1.351082687704252897e-14 -4.753809362622414200e-15
1.674000000000000000e+03 9.350654602050781250e+00 3.828274917602539062e+01 -1.976583908483084406e-14 -1.228484409468086347e-13 -4.278428468711820143e-14 4.578669122448295048e-14
1.675000000000000000e+03 2.669720649719238281e+01 3.022596549987792969e+01 -1.038332119666484504e-14 6.417642703067730214e-14 1.613793259723668438e-14 2.677145377399329368e-14
1.676000000000000000e+03 5.045928192138671875e+01 2.777426910400390625e+01 -1.876503747039789255e-14 6.630313024958908730e-14 1.426142935841666348e-14 1.426142935841666348e-14
1.677000000000000000e+03 5.119534683227539062e+01 2.657470321655273438e+01 1.326062604991781746e-13 -1.376102736535406157e-13 -1.501203056924137712e-15 5.204170427930421283e-14
1.678000000000000000e+03 4.689118194580078125e+01 2.675160598754882812e+01 5.648276239626250084e-14 1.843352131093017876e-13 7.224539163522974983e-14 1.551243095294137925e-14
1.679000000000000000e+03 1.522442436218261719e+01 6.910288333892822266e+00 -2.652125379390152943e-14 -1.486190998826325549e-13 -5.254210423948774134e-14 1.123400282304273801e-13
1.680000000000000000e+03 7.120550632476806641e+00 2.098554039001464844e+01 -1.017065053596048763e-13 -2.723432373716305754e-13 -1.122149248522497089e-13 1.851483749030612830e-14
1.681000000000000000e+03 6.728555202484130859e+00 2.535810661315917969e+01 -6.755413438521264483e-15 -1.858989714552047867e-13 -5.779631737394194668e-14 7.005613842129502361e-15
1.682000000000000000e+03 7.359662628173828125e+01 2.708711051940917969e+01 4.728789449316532501e-14 2.026624073908026707e-14 2.026624073908026707e-14 -4.003208151797700565e-15
1.683000000000000000e+03 6.191033840179443359e+00 7.779736042022705078e+00 -1.120898214740720378e-13 -4.803849782157240678e-14 -4.803849782157240678e-14 4.503609128420765773e-14
1.684000000000000000e+03 7.336507797241210938e+00 1.410524940490722656e+01 8.031436301604577555e-14 -4.230890540257020715e-13 -1.028324086581496044e-13 2.702165375408505793e-14
1.685000000000000000e+03 6.641032218933105469e+00 1.481342124938964844e+01 4.178348476675114442e-14 -4.396022933693399803e-13 -1.193456412255239352e-13 8.006416303595401129e-15
1.686000000000000000e+03 6.709079742431640625e+00 1.779245758056640625e+01 -5.004010189747125706e-16 -2.747201608994248589e-13 -8.256616283687165381e-14 -1.175942345886180074e-13
1.687000000000000000e+03 7.358778476715087891e+00 2.704573822021484375e+01 -2.777225538842624519e-14 -1.949061842910354558e-13 -6.680353698603619383e-14 -6.605293026949732305e-14
1.688000000000000000e+03 6.967978000640869141e+00 2.008670043945312500e+01 6.054852393121493148e-14 -2.256808563812218171e-13 -4.953969770212299228e-14 -2.301844560228735737e-14
1.689000000000000000e+03 6.020447254180908203e+00 9.049135208129882812e+00 2.502005094873562853e-16 -1.828965716941036157e-13 -5.479391083657719763e-14 8.206576287668812530e-14
1.690000000000000000e+03 6.652956008911132812e+00 1.557390213012695312e+01 4.903929774193946378e-14 -2.992397996059992238e-13 -7.506014988159157020e-14 -1.326062604991781746e-13
1.691000000000000000e+03 1.249516296386718750e+01 1.189890956878662109e+01 1.461170865291877563e-13 -1.261010474642651480e-13 6.004812227696550847e-15 2.802245536851800944e-14
1.692000000000000000e+03 5.975226402282714844e+00 1.041613769531250000e+01 1.326062689695076471e-14 -4.060754011693534782e-13 -1.178444413449733497e-13 -5.004010189747125706e-16
1.693000000000000000e+03 7.046875953674316406e+00 7.097312927246093750e+00 2.622414004699313850e-14 -3.451203217522472166e-14 -2.486367384359590774e-15 -3.152526186606628700e-14
1.694000000000000000e+03 6.630761146545410156e+00 1.406457424163818359e+01 2.852285871683332696e-14 -3.537835172387482352e-13 -9.757819552369539906e-14 -5.004010189747125706e-15
1.695000000000000000e+03 6.662285804748535156e+00 1.633190727233886719e+01 4.003208151797700565e-14 -4.403528865333516951e-13 -1.200962343895356499e-13 8.456776945386934585e-14
1.696000000000000000e+03 6.783562660217285156e+00 8.510335922241210938e+00 -2.852285871683332696e-14 -2.867297870488838551e-13 -9.457578898633065001e-14 1.421138868477195283e-13
1.697000000000000000e+03 7.520877838134765625e+00 8.580979347229003906e+00 -1.133408281507944371e-13 -4.145822411500549309e-13 -1.583769194350020948e-13 -1.881507780522942430e-13
1.698000000000000000e+03 6.637496948242187500e+00 1.189508724212646484e+01 -5.729591741375841818e-14 -3.905629888511369385e-13 -1.343576671360841024e-13 -5.804651735403371093e-14
1.699000000000000000e+03 6.479265213012695312e+00 2.459508323669433594e+01 8.656937607086703790e-14 -1.916535777735789425e-13 -3.152526186606628700e-14 -1.391114735340912012e-13
1.700000000000000000e+03 6.287370681762695312e+00 2.385522842407226562e+01 -9.507618894651417851e-14 -3.152526254369264480e-13 -1.230986477031639770e-13 -1.321058605389946461e-13
1.701000000000000000e+03 1.397731781005859375e+01 2.060010719299316406e+01 -3.878107822938639537e-14 -3.039936195565334787e-13 -1.028324086581496044e-13 4.760064616234592483e-14
1.702000000000000000e+03 6.625985622406005859e+00 1.260605430603027344e+01 1.613793191961032658e-13 -1.138412281109779656e-13 1.426142935841666348e-14 -3.302646513474866152e-14
1.703000000000000000e+03 1.322646141052246094e+01 1.433587837219238281e+01 7.430954994131627744e-14 -1.969077976842967259e-13 -3.677947500052049234e-14 -5.004010189747125706e-15
1.704000000000000000e+03 1.004086399078369141e+01 3.133286857604980469e+01 -3.260425266834380935e-15 -2.987784986866609538e-13 -9.061167479318052442e-14 -2.401924891078620339e-14
1.705000000000000000e+03 7.241072845458984375e+01 2.769009399414062500e+01 7.631114978205039145e-14 -5.879711729430900369e-14 5.254210593355363584e-15 -2.101684237342145434e-14
1.706000000000000000e+03 7.302698516845703125e+01 2.800720405578613281e+01 -5.004010189747125706e-16 -1.145918348275168364e-13 -3.452766840343103605e-14 3.753007494079578510e-14
1.707000000000000000e+03 4.451962280273437500e+01 1.852420234680175781e+01 6.405133042876320904e-14 9.607699564314481355e-14 4.803849782157240678e-14 7.581074982186686295e-14
1.708000000000000000e+03 4.308321380615234375e+01 1.761721420288085938e+01 4.578669122448295048e-14 1.568757195544515093e-13 6.079872391130669573e-14 -3.502807175174635357e-14
1.709000000000000000e+03 3.614945983886718750e+01 2.520874595642089844e+01 9.213633409823826503e-14 6.236247548094611681e-14 4.634964287375531455e-14 2.401924891078620339e-14
1.710000000000000000e+03 3.622396850585937500e+01 2.342135238647460938e+01 8.932157585187644466e-14 3.828067826920286687e-14 3.828067826920286687e-14 -3.152526186606628700e-14
1.711000000000000000e+03 7.166779327392578125e+01 3.096884727478027344e+01 -5.523175910767189056e-14 2.208019398287734691e-14 -9.945469537438363095e-15 2.952365863720038397e-14
1.712000000000000000e+03 7.149317932128906250e+01 2.939523506164550781e+01 5.879711814134195094e-15 -1.347329637180899597e-13 -3.865597823934051325e-14 -3.352686848306397904e-14
1.713000000000000000e+03 7.451601028442382812e+00 9.909201622009277344e+00 6.154932385158198849e-14 -1.566255127980961670e-13 -2.852285871683332696e-14 4.403528797570881170e-14
1.714000000000000000e+03 4.323545074462890625e+01 1.701055145263671875e+01 8.857097591160115191e-14 2.652125379390152943e-14 3.452766840343103605e-14 1.251002547436781426e-15
1.715000000000000000e+03 3.772431945800781250e+01 2.203607368469238281e+01 2.439454888092384977e-15 1.382983219047270729e-13 4.222133303784583735e-14 -7.556054984177509870e-14
1.716000000000000000e+03 8.405971527099609375e+00 1.983645820617675781e+01 4.853889778175593528e-14 -5.739599334003697706e-13 -1.576263127184632240e-13 -1.050842084789754827e-13
1.717000000000000000e+03 1.243768405914306641e+01 1.068182373046875000e+01 5.379310752807835161e-14 -2.514515017645185813e-13 -5.929751725449253219e-14 3.202566521438160452e-14
1.718000000000000000e+03 3.984049224853515625e+01 2.211393356323242188e+01 7.380914998113274894e-14 8.757017937936588392e-15 2.476984885106149614e-14 7.005613842129502361e-15
1.719000000000000000e+03 1.321031951904296875e+01 1.678476333618164062e+01 1.025822086780578402e-13 -2.076664171570333228e-13 -3.152526186606628700e-14 -1.035830085984248972e-13
1.720000000000000000e+03 1.163192081451416016e+01 1.428894519805908203e+01 8.344186615532461770e-14 -1.472429898277324845e-13 -1.914033913460143344e-14 -2.101684237342145434e-14
1.721000000000000000e+03 6.775337219238281250e+01 2.657024574279785156e+01 3.052446194569922999e-14 1.045838085187919542e-13 4.053248147816053415e-14 -6.129912387149022424e-14
1.722000000000000000e+03 4.401230239868164062e+01 1.591951942443847656e+01 4.828869780166417103e-14 2.494499019237844673e-13 8.932157585187644466e-14 1.701363422162375377e-14
1.723000000000000000e+03 4.335763168334960938e+01 1.826058387756347656e+01 -2.076664239332969009e-14 -1.118396214939802735e-13 -3.978187814975345238e-14 -2.752205498481800731e-15
1.724000000000000000e+03 1.342960929870605469e+01 8.246426582336425781e+00 -2.301844560228735737e-14 1.301042606982605321e-14 -3.002406113848275424e-15 7.706175649858926224e-14
1.725000000000000000e+03 6.746796131134033203e+00 9.152128219604492188e+00 -2.502005052521915490e-14 -2.852285736158061136e-13 -9.307458910578006450e-14 -1.000802037949425141e-15
1.726000000000000000e+03 8.244987487792968750e+00 7.264943599700927734e+00 -1.601283260719080226e-14 -4.643721388322696875e-13 -1.441154866884536423e-13 5.204170427930421283e-14
1.727000000000000000e+03 6.687182426452636719e+00 1.050396442413330078e+01 6.755413692631148659e-14 -3.828067691395015126e-13 -9.457578898633065001e-14 7.255814330441034965e-14
1.728000000000000000e+03 8.920943260192871094e+00 1.006890487670898438e+01 -1.476182931860019198e-14 -9.782839550378716331e-14 -3.377706846315574329e-14 1.110890215537049808e-13
1.729000000000000000e+03 6.823668956756591797e+00 7.921021938323974609e+00 7.781235643886455500e-14 -1.954065978037461404e-13 -3.527827173183811782e-14 6.405133042876320904e-14
1.730000000000000000e+03 7.562982082366943359e+00 7.303714752197265625e+00 1.293536539817216613e-13 -4.020722014878852502e-13 -8.181556289659636105e-14 -7.255814330441034965e-14
1.731000000000000000e+03 8.947318077087402344e+00 3.229537200927734375e+01 2.821010704765272714e-14 -1.251628060092505046e-13 -2.908580697797390202e-14 -8.356696953350228885e-14
1.732000000000000000e+03 6.814302062988281250e+01 2.781031227111816406e+01 4.678749453298179650e-14 6.580273028940555879e-14 3.377706846315574329e-14 -1.276022524270134170e-14
1.733000000000000000e+03 4.409511947631835938e+01 1.790113067626953125e+01 -1.150922280114367868e-14 8.656937607086703790e-14 2.251804564210382886e-14 9.007217918028352643e-15
1.734000000000000000e+03 4.491262817382812500e+01 1.923363876342773438e+01 -7.155734338404329264e-14 2.652125379390152943e-14 -1.351082687704252897e-14 -3.652927163229693908e-14
1.735000000000000000e+03 1.053898048400878906e+01 9.666635513305664062e+00 6.555253030931379454e-14 -2.006608041619367677e-13 -4.053248147816053415e-14 2.211772431870429045e-13
1.736000000000000000e+03 1.130341625213623047e+01 7.055021762847900391e+00 -1.228484409468086347e-13 -1.899021846892001708e-13 -9.382518904605535726e-14 6.455173038894673754e-14
1.737000000000000000e+03 1.281480503082275391e+01 9.882046699523925781e+00 4.453568793589234021e-14 -2.096680169977674368e-13 -4.953969770212299228e-14 1.411130869273524713e-13
1.738000000000000000e+03 1.120595169067382812e+01 9.995957374572753906e+00 1.213472444543898382e-14 -2.235541531623100320e-13 -6.342582709040200939e-14 6.605293026949732305e-14
1.739000000000000000e+03 4.299715423583984375e+01 1.608691596984863281e+01 3.903127820947815962e-14 2.111692168783180223e-13 7.506014988159157020e-14 -5.304250758780305885e-14
1.740000000000000000e+03 6.658544540405273438e+00 1.119481277465820312e+01 9.182358242905766521e-14 -1.894017847290166423e-13 -2.927345865710861972e-14 1.100882199392720293e-14
1.741000000000000000e+03 1.372624301910400391e+01 7.501091480255126953e+00 -9.157338244896590096e-14 -3.137514391089030186e-13 -1.215974478226133915e-13 -2.602085213965210642e-14
1.742000000000000000e+03 6.973880290985107422e+00 2.242996788024902344e+01 5.754611400571839341e-15 -3.635413367911177751e-13 -1.073360150760649390e-13 -2.001604075898850282e-15
1.743000000000000000e+03 7.732045173645019531e+00 1.992761802673339844e+01 -7.506015284620688559e-16 -9.182358242905766521e-14 -2.777225538842624519e-14 9.007217918028352643e-15
1.744000000000000000e+03 6.663978099822998047e+00 1.706910133361816406e+01 1.541235129971785245e-13 -2.542037218743187221e-13 -3.002405859738391247e-14 -4.703769451307356075e-14
1.745000000000000000e+03 6.613323974609375000e+01 2.965239715576171875e+01 7.005613842129502361e-15 -1.571259127582796955e-13 -4.503609128420765773e-14 2.051644071917203133e-14
1.746000000000000000e+03 2.126704978942871094e+01 2.967321777343750000e+01 -4.028228149806876990e-14 2.276824562219559311e-14 -5.254210593355363584e-15 -2.877305700285919671e-15
1.747000000000000000e+03 2.401793670654296875e+01 2.881133651733398438e+01 5.879711814134195094e-15 2.539535049535680128e-14 9.382518735198946275e-15 7.105694342385976414e-14
1.748000000000000000e+03 6.426323699951171875e+01 3.273841094970703125e+01 -2.126704235351321859e-14 -6.630313024958908730e-14 -2.627105211974387067e-14 1.876503747039789255e-14
1.749000000000000000e+03 3.444330215454101562e+01 2.659537124633789062e+01 2.514515051526503703e-14 7.868805975731751889e-14 3.114996189592864062e-14 -5.551323493230807260e-15
1.750000000000000000e+03 4.413138198852539062e+01 2.178978919982910156e+01 -9.814114717296776313e-14 3.690457329650047996e-15 -2.833520703769860927e-14 1.261010474642651480e-13
1.751000000000000000e+03 7.498658657073974609e+00 2.402432060241699219e+01 8.081476297622930405e-14 -1.483688931262772126e-13 -2.026624073908026707e-14 -9.407538902614712151e-14
1.752000000000000000e+03 4.778517150878906250e+01 2.490885925292968750e+01 6.079872391130669573e-14 1.118396214939802735e-13 5.179150429921244858e-14 4.203368474684290867e-14
1.753000000000000000e+03 4.699174499511718750e+01 2.423757553100585938e+01 -1.050842118671072717e-14 1.956567910075743266e-13 5.554451077685249039e-14 1.213472444543898382e-14
1.754000000000000000e+03 7.275872802734375000e+01 2.891362571716308594e+01 -6.655333022968085155e-14 1.316054605788111176e-13 1.951563910473907981e-14 5.154130431912068433e-14
1.755000000000000000e+03 7.344766235351562500e+01 3.196426391601562500e+01 3.753007324672989059e-15 -2.126704235351321859e-14 -5.254210593355363584e-15 -1.826463581614846954e-14
1.756000000000000000e+03 7.756406307220458984e+00 2.799709129333496094e+01 8.256616283687165381e-14 -2.276824562219559311e-13 -4.353488801552528320e-14 -1.140914348673333079e-13
1.757000000000000000e+03 3.184333229064941406e+01 2.777203178405761719e+01 1.050842118671072717e-14 4.503608959014176322e-15 4.503608959014176322e-15 -1.651323256737433076e-14
1.758000000000000000e+03 3.153834724426269531e+01 2.630230140686035156e+01 1.093376216930626310e-13 -2.176744400776264160e-14 2.627105211974387067e-14 5.454371085648543338e-14
1.759000000000000000e+03 4.206377029418945312e+01 1.983873748779296875e+01 5.254210423948774134e-14 2.026624040026708817e-13 7.656135653840573374e-14 1.557498094796432031e-14
1.760000000000000000e+03 4.418387222290039062e+01 1.955650711059570312e+01 2.051644071917203133e-14 -1.055846084391590112e-13 -2.552045048540268340e-14 1.230986477031639770e-13
1.761000000000000000e+03 7.089000701904296875e+01 3.031066894531250000e+01 -4.403528797570881170e-14 -1.060850151756061177e-13 -4.503609128420765773e-14 -1.271331316995060953e-14
1.762000000000000000e+03 7.184758758544921875e+01 3.482121658325195312e+01 -5.360545584894363391e-14 -4.584924291357178605e-14 -2.983641030638098379e-14 -7.355895000104098469e-14
1.763000000000000000e+03 2.039581680297851562e+01 2.857094764709472656e+01 9.069768336567767333e-16 -2.248676979755941108e-14 -6.473938037401556073e-15 3.402726844324750755e-14
1.764000000000000000e+03 2.293711280822753906e+01 2.891324806213378906e+01 6.880513682677030785e-14 1.438652934846254561e-13 6.380113044867144478e-14 2.326864727644501613e-14
1.765000000000000000e+03 2.765946769714355469e+01 2.850757598876953125e+01 1.576263093303314350e-14 6.755413438521264483e-15 6.755413438521264483e-15 5.704571743366665393e-14
1.766000000000000000e+03 7.226534271240234375e+01 4.131366348266601562e+01 -1.057097118173366823e-14 4.122053311747878035e-14 9.194868750130123086e-15 -5.454371085648543338e-14
1.767000000000000000e+03 6.137110519409179688e+01 3.096215820312500000e+01 -4.514946156199996230e-14 -4.222524294193036321e-14 -2.621241202880545546e-14 1.351082687704252897e-14
1.768000000000000000e+03 5.934873962402343750e+01 3.147281646728515625e+01 3.687329914602195668e-14 -5.282358006412392337e-14 -4.785084783650358359e-15 1.025822035958601566e-14
1.769000000000000000e+03 1.779178047180175781e+01 2.644408035278320312e+01 8.982198258832355120e-14 3.277626515465689727e-14 3.677947500052049234e-14 -3.452766840343103605e-14
1.770000000000000000e+03 1.686377906799316406e+01 2.585394859313964844e+01 9.557658890669770702e-14 -9.057258252859884395e-14 1.501203056924137712e-15 -5.504410996963601463e-15
1.771000000000000000e+03 7.341342926025390625e+01 3.303715133666992188e+01 -1.170938346284344789e-13 -2.331868693365019007e-13 -1.050842084789754827e-13 -7.180754336413505690e-14
1.772000000000000000e+03 7.436027526855468750e+01 3.296126556396484375e+01 -1.476182931860019198e-14 -2.579567147994316079e-13 -8.181556289659636105e-14 5.729591741375841818e-14
1.773000000000000000e+03 5.308515548706054688e+01 3.034813117980957031e+01 -9.007217918028352643e-15 -6.104892389139845998e-14 -2.101684237342145434e-14 3.002405859738391247e-14
1.774000000000000000e+03 4.953005599975585938e+01 2.935338020324707031e+01 7.024379179449563582e-14 5.297995589871422328e-14 3.696712329152342102e-14 -5.004010189747125706e-16
1.775000000000000000e+03 7.252503967285156250e+01 3.158493995666503906e+01 4.265918469707231930e-14 -1.189703446435180778e-13 -2.289334561224147524e-14 -2.502005094873562853e-15
1.776000000000000000e+03 9.900784492492675781e+00 3.373463439941406250e+01 -2.652125379390152943e-14 -2.286832561423229881e-13 -7.656135653840573374e-14 -5.660786238630838296e-14
1.777000000000000000e+03 8.350054740905761719e+00 3.453470993041992188e+01 7.581074982186686295e-14 -1.333568672157170454e-13 -1.726383420171551802e-14 -2.151724233360498284e-14
1.778000000000000000e+03 2.685330200195312500e+01 3.201688003540039062e+01 2.502005094873562853e-15 1.251002526260957745e-14 4.503608959014176322e-15 3.928147818956992388e-14
1.779000000000000000e+03 2.037491798400878906e+01 3.142725563049316406e+01 1.482437931362313305e-14 -2.795990537349506838e-14 -3.940657733258285875e-15 4.053248147816053415e-14
1.780000000000000000e+03 6.201924896240234375e+01 3.215953826904296875e+01 -5.266720422953362346e-14 -9.119808586696004360e-14 -4.315958804538763682e-14 -1.901523745048965680e-14
1.781000000000000000e+03 6.065087127685546875e+01 3.225243377685546875e+01 -2.276824562219559311e-14 -9.757819552369539906e-15 -9.757819552369539906e-15 -1.050842118671072717e-14
1.782000000000000000e+03 4.786326980590820312e+01 2.826126861572265625e+01 -3.252606517456513302e-14 8.757017599123409490e-14 1.651323256737433076e-14 1.251002547436781426e-15
1.783000000000000000e+03 6.609503269195556641e+00 7.424953937530517578e+00 -5.454371085648543338e-14 -4.008211948111628509e-13 -1.366094737331735587e-13 9.382518904605535726e-14
1.784000000000000000e+03 7.021300792694091797e+00 2.617197036743164062e+01 -8.006416303595401129e-15 -2.321860694161348437e-13 -7.205774334422682115e-14 -1.441154866884536423e-13
1.785000000000000000e+03 8.246468544006347656e+00 2.908647537231445312e+01 2.039134072912614920e-14 -3.343929679596596705e-13 -9.420048562806121462e-14 4.003208151797700565e-15
1.786000000000000000e+03 4.370540618896484375e+01 1.736699295043945312e+01 1.138412281109779656e-13 4.878909776184769953e-14 4.878909776184769953e-14 -1.060850151756061177e-13
1.787000000000000000e+03 7.328058719635009766e+00 1.337642955780029297e+01 8.782037597132585915e-14 -4.656231455089920868e-13 -1.133408281507944371e-13 4.803849782157240678e-14
1.788000000000000000e+03 7.156594276428222656e+00 2.345693397521972656e+01 -7.531034986168333445e-14 -3.227586519447336877e-14 -3.227586519447336877e-14 -1.000802037949425141e-15
1.789000000000000000e+03 7.509335994720458984e+00 2.181704902648925781e+01 5.079070099071360256e-14 -3.385212845718327257e-13 -8.631917609077527365e-14 -5.660786238630838296e-14
1.790000000000000000e+03 7.349617958068847656e+00 1.484767723083496094e+01 1.150922280114367868e-14 -4.068260214384195050e-13 -1.185950345089850644e-13 -7.305854326459387815e-14
1.791000000000000000e+03 1.351778984069824219e+01 2.301484298706054688e+01 -6.930553678695383635e-14 2.219278499035817753e-13 4.578669122448295048e-14 1.100882216333379238e-13
1.792000000000000000e+03 6.717428207397460938e+00 9.821969032287597656e+00 7.205774334422682115e-14 -1.521218996039172544e-13 -2.401924891078620339e-14 4.103288143834406265e-14
1.793000000000000000e+03 7.523177146911621094e+00 7.921780586242675781e+00 7.030634348358447139e-14 -1.528725063204561252e-13 -2.476984885106149614e-14 -5.354290754798658736e-14
1.794000000000000000e+03 6.807888984680175781e+00 1.851491355895996094e+01 7.506014988159157020e-14 -1.050842084789754827e-13 -9.007217918028352643e-15 4.003208151797700565e-15
1.795000000000000000e+03 1.065889072418212891e+01 1.752028656005859375e+01 1.571259127582796955e-13 -2.071660171968497943e-13 -1.501202929869195624e-14 -6.505213034913026604e-15
1.796000000000000000e+03 7.410736083984375000e+00 1.637120628356933594e+01 1.045838085187919542e-13 -6.955573676704560060e-14 1.050842118671072717e-14 -1.876503780921107145e-13
1.797000000000000000e+03 7.958527565002441406e+00 1.737185287475585938e+01 7.709302556687010199e-15 -2.712017080092749000e-13 -7.904772349924885089e-14 -1.030826086382413687e-13
1.798000000000000000e+03 1.207316684722900391e+01 1.312759399414062500e+01 1.597530159373750092e-13 -2.060401138983050662e-13 -1.388612769421312260e-14 4.603689120457471473e-14
1.799000000000000000e+03 6.624310970306396484e+00 1.332905864715576172e+01 3.552847171192988207e-14 -3.507810903725927520e-13 -9.457578898633065001e-14 -8.506817110811876886e-15
1.800000000000000000e+03 8.242966651916503906e+00 9.305878639221191406e+00 -9.257418745153064149e-15 -2.784731538245377447e-13 -8.631917609077527365e-14 3.602887167211341057e-14
1.801000000000000000e+03 1.196518516540527344e+01 1.137404441833496094e+01 4.691259367599473137e-15 -1.892141228854865576e-13 -5.535686248584956171e-14 5.477827122023909423e-14
1.802000000000000000e+03 8.771963119506835938e+00 2.609927749633789062e+01 -2.852285871683332696e-14 -4.653729455289003225e-14 -2.251804564210382886e-14 -8.994707919023764431e-14
1.803000000000000000e+03 7.311974525451660156e+00 2.506191825866699219e+01 2.039134072912614920e-14 -1.742646554402788039e-13 -4.616199119462059686e-14 -9.307458910578006450e-14
1.804000000000000000e+03 6.672251892089843750e+01 2.843737983703613281e+01 -2.151724233360498284e-14 7.656135653840573374e-14 1.651323256737433076e-14 -4.065758146820641628e-14
1.805000000000000000e+03 7.538346290588378906e+00 2.298935699462890625e+01 4.444186379039087587e-14 -3.012101202140571310e-13 -7.703047726591305544e-14 -1.230986477031639770e-13
1.806000000000000000e+03 1.275743198394775391e+01 8.002327919006347656e+00 7.606094980195862720e-14 -3.602887167211341057e-14 1.200962445539310169e-14 -7.405934996122451319e-14
1.807000000000000000e+03 1.262731742858886719e+01 1.467819499969482422e+01 3.158781355515512257e-14 -3.221331350538453320e-14 -1.876503821155172140e-16 -4.353488801552528320e-14
1.808000000000000000e+03 1.221730804443359375e+01 1.603956222534179688e+01 1.009559054193295835e-13 -1.397369768724524008e-13 -1.163432363822250806e-14 3.252606517456513302e-14
1.809000000000000000e+03 1.100904560089111328e+01 1.154457569122314453e+01 1.256006475040816195e-13 -1.406126869671689428e-13 -4.503608959014176322e-15 1.543737062010067107e-13
1.810000000000000000e+03 4.382661056518554688e+01 1.887874794006347656e+01 -2.201764398785440585e-14 2.001604075898850282e-15 -6.004812227696550847e-15 0.000000000000000000e+00
1.811000000000000000e+03 7.073711395263671875e+01 2.885394668579101562e+01 3.302646513474866152e-14 -1.230986477031639770e-13 -2.702165375408505793e-14 -3.002405859738391247e-14
1.812000000000000000e+03 1.367525768280029297e+01 2.213679122924804688e+01 6.680353698603619383e-14 -1.543737062010067107e-13 -2.627105211974387067e-14 2.602085213965210642e-14
1.813000000000000000e+03 1.296458911895751953e+01 1.851588821411132812e+01 1.611291259922750796e-13 -2.512012950081632390e-13 -2.702165375408505793e-14 -1.160930347080674219e-13
1.814000000000000000e+03 4.595326232910156250e+01 2.372883987426757812e+01 9.532638892660594276e-14 5.229190425939597708e-14 4.428548795580057595e-14 -2.727185542824271669e-14
1.815000000000000000e+03 3.803580474853515625e+01 2.369710922241210938e+01 6.192462212765374036e-15 -4.309703635629880125e-14 -1.107137198895014399e-14 2.151724233360498284e-14
1.816000000000000000e+03 9.782407760620117188e+00 7.893390655517578125e+00 6.455173038894673754e-14 -1.095878216731543953e-13 -1.351082687704252897e-14 3.853087824929463112e-14
1.817000000000000000e+03 1.202766895294189453e+01 7.826317310333251953e+00 -5.329270756789482311e-14 -1.143416280711614941e-13 -5.029030103053007406e-14 1.341074739322559162e-13
1.818000000000000000e+03 1.311564445495605469e+01 7.304597854614257812e+00 7.305854326459387815e-14 -3.002406113848275424e-15 2.101684237342145434e-14 5.179150429921244858e-14
1.819000000000000000e+03 4.230147552490234375e+01 1.750710678100585938e+01 9.007217918028352643e-15 -1.901523745048965680e-14 -3.002406113848275424e-15 1.150922280114367868e-14
1.820000000000000000e+03 1.102239322662353516e+01 1.954162597656250000e+01 9.932960216060132685e-14 3.828067826920286687e-14 4.128308141843582690e-14 6.122093256606328526e-14
1.821000000000000000e+03 1.091259670257568359e+01 3.022651100158691406e+01 -2.977385861729214822e-14 -1.328564672555335169e-13 -4.878909776184769953e-14 -6.054852393121493148e-14
1.822000000000000000e+03 6.820512390136718750e+01 3.284316253662109375e+01 1.989093907487672619e-14 -1.287281641958876177e-13 -3.265116516461101515e-14 1.351082687704252897e-14
1.823000000000000000e+03 7.024140167236328125e+01 2.967740249633789062e+01 -7.912590802841221183e-14 -1.254129992130786908e-13 -6.136167556057905981e-14 -5.304250758780305885e-14
1.824000000000000000e+03 6.903596496582031250e+01 2.812667274475097656e+01 -2.026624073908026707e-14 2.752205498481800731e-15 -5.254210593355363584e-15 2.176744400776264160e-14
1.825000000000000000e+03 1.052435207366943359e+01 7.823811531066894531e+00 -1.263512542206204903e-13 -1.914033845697507563e-13 -9.532638892660594276e-14 1.591275125990138095e-13
1.826000000000000000e+03 1.176503467559814453e+01 1.245012283325195312e+01 8.093985957814339716e-14 -2.398171721970654424e-13 -4.766319446330297138e-14 4.103288143834406265e-14
1.827000000000000000e+03 7.409906864166259766e+00 1.058765888214111328e+01 1.376102770416724047e-14 -1.313552673749829314e-13 -3.527827173183811782e-14 -3.002405859738391247e-14
1.828000000000000000e+03 8.834745407104492188e+00 2.486059951782226562e+01 1.069607117177955036e-14 -1.326688189645305882e-13 -3.659182332138577465e-14 -3.602887167211341057e-14
1.829000000000000000e+03 9.405350685119628906e+00 1.413328742980957031e+01 1.105886215935214523e-13 -1.356086738128065017e-13 -7.506014649345978118e-15 8.356696953350228885e-14
1.830000000000000000e+03 7.371432781219482422e+00 1.127122879028320312e+01 1.576263093303314350e-14 -3.135012323525476763e-13 -8.932157585187644466e-14 4.903929774193946378e-14
1.831000000000000000e+03 1.143304347991943359e+01 1.096786117553710938e+01 2.989895860733803035e-14 -3.989447119011335641e-13 -1.107137249716991234e-13 1.010810020212436766e-13
1.832000000000000000e+03 1.241310882568359375e+01 1.694301223754882812e+01 1.626303258728256651e-13 -6.755413692631148659e-14 2.852285871683332696e-14 -3.502806921064751181e-15
1.833000000000000000e+03 8.443638801574707031e+00 1.689789009094238281e+01 3.502806921064751181e-15 -1.986592043212026537e-13 -5.854691731421723944e-14 7.105694342385976414e-14
1.834000000000000000e+03 8.271467208862304688e+00 7.946090698242187500e+00 9.532638892660594276e-14 -1.879005712959389007e-13 -2.777225538842624519e-14 -4.453568793589234021e-14
1.835000000000000000e+03 1.126718902587890625e+01 7.788496017456054688e+00 -1.000802037949425141e-15 -2.291836696550336727e-13 -6.905533680686207210e-14 6.855493684667854359e-14
1.836000000000000000e+03 1.181951141357421875e+01 8.624601364135742188e+00 4.803849782157240678e-14 -2.081668171172168513e-13 -4.803849782157240678e-14 1.225982477429804485e-13
1.837000000000000000e+03 1.313248920440673828e+01 9.053192138671875000e+00 6.530233032922203029e-14 -1.776423585596494104e-14 1.426142935841666348e-14 -8.006416303595401129e-15
1.838000000000000000e+03 1.341901302337646484e+01 2.022830200195312500e+01 1.188452412653404067e-13 -8.631917609077527365e-14 9.757819552369539906e-15 6.004811719476782494e-14
1.839000000000000000e+03 4.605803680419921875e+01 2.178338241577148438e+01 4.559904293348002180e-14 -2.620850212472092960e-14 5.817161819111254031e-15 3.002405859738391247e-14
1.840000000000000000e+03 1.451058864593505859e+01 2.391463088989257812e+01 7.005614350349270714e-14 3.002405859738391247e-14 3.002405859738391247e-14 -7.756215476470689624e-15
1.841000000000000000e+03 1.575276088714599609e+01 2.398699569702148438e+01 5.435605917735071568e-14 -2.245549564708088780e-14 9.570169567300716718e-15 6.004811719476782494e-14
1.842000000000000000e+03 1.475985336303710938e+01 2.654848289489746094e+01 5.379310752807835161e-14 -9.132318246887413671e-14 -1.125902282105191443e-14 -2.652125379390152943e-14
1.843000000000000000e+03 8.580424308776855469e+00 2.748694801330566406e+01 -4.003208151797700565e-15 -3.602887167211341057e-14 -1.200962445539310169e-14 -2.564555216951446004e-14
1.844000000000000000e+03 4.442807769775390625e+01 2.036455345153808594e+01 1.751403460532375590e-15 1.608789192359197373e-13 4.878909776184769953e-14 1.090874217129708668e-13
1.845000000000000000e+03 4.273831939697265625e+01 2.025301933288574219e+01 9.132317908074234769e-15 4.966480108030066343e-14 1.763913586591905891e-14 -7.305854326459387815e-14
1.846000000000000000e+03 3.732469940185546875e+01 2.452194786071777344e+01 4.391018798566292958e-14 8.744507261305642376e-14 3.940657817961580600e-14 -3.202566521438160452e-14
1.847000000000000000e+03 3.817766189575195312e+01 2.547276496887207031e+01 4.644346701925677889e-14 1.684162114238760277e-13 6.445790624344527320e-14 1.340527386632043433e-14
1.848000000000000000e+03 6.542632293701171875e+01 3.118260192871093750e+01 1.807698583107964635e-14 -8.375461782450521753e-14 -1.970328908980790300e-14 -2.201764398785440585e-14
1.849000000000000000e+03 5.594402313232421875e+01 3.459611511230468750e+01 -7.506015284620688559e-16 -5.179150429921244858e-14 -1.576263093303314350e-14 5.792141397585603979e-14
1.850000000000000000e+03 5.297993087768554688e+01 3.241996765136718750e+01 -2.702165375408505793e-14 -2.301844560228735737e-14 -1.501202929869195624e-14 2.176744400776264160e-14
1.851000000000000000e+03 3.951120376586914062e+01 2.322414779663085938e+01 3.602887167211341057e-14 8.406736949368581735e-14 3.602887167211341057e-14 8.506817110811876886e-15
1.852000000000000000e+03 2.268590354919433594e+01 3.028325653076171875e+01 -1.413632852133783410e-14 -7.468484652332213480e-14 -2.664635378394741155e-14 7.055654346367623564e-14
1.853000000000000000e+03 3.971876907348632812e+01 2.887856292724609375e+01 -2.220529481995617629e-15 2.192381814828704700e-14 5.910986811645665626e-15 -6.004812227696550847e-15
1.854000000000000000e+03 3.022484588623046875e+01 2.949385833740234375e+01 7.143224000586562150e-14 6.492702697095259490e-14 4.090778144829818053e-14 4.903929774193946378e-14
1.855000000000000000e+03 6.827321624755859375e+01 4.100769042968750000e+01 -1.601283260719080226e-14 -6.405133042876320904e-14 -2.401924891078620339e-14 4.572414292352590393e-14
1.856000000000000000e+03 7.082604217529296875e+01 3.401489257812500000e+01 1.122774782354044390e-14 -4.093905729284259831e-14 -8.913392925493941049e-15 -2.301844560228735737e-14
1.857000000000000000e+03 1.936979293823242188e+01 3.362111282348632812e+01 -1.150922280114367868e-14 8.656937607086703790e-14 2.251804564210382886e-14 -4.203368474684290867e-14
1.858000000000000000e+03 1.359047794342041016e+01 3.091248512268066406e+01 -8.694467095880700075e-15 -2.096054720849421793e-13 -6.548997862022495897e-14 -7.005614350349270714e-14
1.859000000000000000e+03 4.990846252441406250e+01 3.446505737304687500e+01 -1.288532607978017108e-14 1.163432363822250806e-14 -3.753007642310344279e-16 3.490296837356868243e-14
1.860000000000000000e+03 2.430302810668945312e+01 3.479457855224609375e+01 -1.882758746542083361e-14 7.199519165513798558e-14 1.595028261216786120e-14 6.380112621350670851e-15
1.861000000000000000e+03 6.959548187255859375e+01 3.537920761108398438e+01 -3.928147818956992388e-14 -1.283528540613546043e-13 -5.029030103053007406e-14 -4.497353959511882215e-14
1.862000000000000000e+03 6.681527709960937500e+01 3.324530792236328125e+01 -3.102486190588275849e-14 -5.904731727440076794e-14 -2.702165375408505793e-14 -9.007217918028352643e-15
1.863000000000000000e+03 1.199933719635009766e+01 2.328109741210937500e+01 1.323560672953499884e-13 5.254210593355363584e-15 4.128308141843582690e-14 -2.151724233360498284e-14
1.864000000000000000e+03 9.177565574645996094e+00 2.839174842834472656e+01 -3.102486190588275849e-14 -1.190954344691685929e-13 -4.503609128420765773e-14 -2.044763555524020671e-13
1.865000000000000000e+03 8.090495109558105469e+00 2.663124656677246094e+01 1.153424279915285511e-13 -8.782037597132585915e-14 8.256616283687165381e-15 -1.391114735340912012e-13
1.866000000000000000e+03 7.368398666381835938e+00 1.560082626342773438e+01 -1.526223097284961500e-14 -3.725485360744212882e-13 -1.163432279118956081e-13 4.653729455289003225e-14
1.867000000000000000e+03 7.634624004364013672e+00 1.835271835327148438e+01 -3.127506188597452275e-14 -1.964073977241131974e-13 -6.830473686658677934e-14 -1.160930347080674219e-13
1.868000000000000000e+03 7.490769386291503906e+00 9.239370346069335938e+00 3.377706846315574329e-14 -3.515317106416587789e-13 -9.532638892660594276e-14 -6.405133042876320904e-14
1.869000000000000000e+03 8.129977226257324219e+00 1.066903591156005859e+01 2.201764398785440585e-14 -8.206576287668812530e-14 -1.801443583605670529e-14 6.605293026949732305e-14
1.870000000000000000e+03 8.751958847045898438e+00 1.634452438354492188e+01 -4.978990107034654555e-14 -1.128404281906109086e-13 -4.878909776184769953e-14 -3.102486190588275849e-14
1.871000000000000000e+03 7.966042518615722656e+00 2.360222053527832031e+01 -6.179952383167375274e-14 1.926543912464731556e-14 -1.276022524270134170e-14 -2.502005052521915490e-14
1.872000000000000000e+03 8.282515525817871094e+00 2.537769317626953125e+01 4.703769451307356075e-14 -1.170938346284344789e-13 -2.101684237342145434e-14 -1.080866150163402317e-13
1.873000000000000000e+03 1.106109809875488281e+01 1.283108043670654297e+01 1.140914348673333079e-13 -1.341074739322559162e-13 -6.004812227696550847e-15 1.000802021008766196e-13
1.874000000000000000e+03 1.143621253967285156e+01 1.190259933471679688e+01 1.571259127582796955e-13 -1.271018609371593611e-13 9.007217918028352643e-15 1.120898214740720378e-13
1.875000000000000000e+03 1.136570167541503906e+01 1.352872943878173828e+01 8.757017302661877951e-16 -3.198813284567558757e-13 -9.570169228487537816e-14 -1.301042606982605321e-14
1.876000000000000000e+03 7.343107223510742188e+00 1.196105957031250000e+01 4.253408555405938443e-15 -2.269318495054170604e-13 -6.680353698603619383e-14 7.556054984177509870e-14
1.877000000000000000e+03 8.370576858520507812e+00 2.423102569580078125e+01 5.079070099071360256e-14 -2.984892064419875091e-13 -7.430954994131627744e-14 -1.451162866088206993e-13
1.878000000000000000e+03 1.217303752899169922e+01 9.604310989379882812e+00 1.651323256737433076e-13 -2.952365999245309958e-13 -3.903127820947815962e-14 5.004010105043830980e-14
1.879000000000000000e+03 1.118106651306152344e+01 8.477224349975585938e+00 -6.505213034913026604e-14 -1.651323256737433076e-13 -6.905533680686207210e-14 7.756215645877279075e-14
1.880000000000000000e+03 8.077644348144531250e+00 1.560738563537597656e+01 1.128404281906109086e-13 -1.803945583406588171e-13 -2.026624073908026707e-14 -1.301042606982605321e-14
1.881000000000000000e+03 7.227828979492187500e+01 2.992502593994140625e+01 -1.576263093303314350e-14 -4.678749453298179650e-14 -1.876503747039789255e-14 7.330875002094922044e-14
1.882000000000000000e+03 1.266105365753173828e+01 1.776505851745605469e+01 1.273520541409875473e-13 -3.800545490297013718e-13 -7.581074982186686295e-14 -8.782037597132585915e-14
1.883000000000000000e+03 1.071204662322998047e+01 1.384484386444091797e+01 1.040834085586084257e-13 -1.841475648182988589e-13 -2.401924891078620339e-14 9.007218256841531545e-14
1.884000000000000000e+03 4.259762954711914062e+01 2.095904922485351562e+01 -2.226784396794617010e-14 -5.529431079676072613e-14 -2.326864727644501613e-14 4.453568793589234021e-14
1.885000000000000000e+03 4.356993865966796875e+01 2.045183563232421875e+01 -2.627105211974387067e-14 -1.125902282105191443e-14 -1.125902282105191443e-14 9.607699564314481355e-14
1.886000000000000000e+03 9.835186958312988281e+00 8.665088653564453125e+00 -4.503608959014176322e-15 -3.908131956074922808e-13 -1.185950345089850644e-13 1.796439651766471024e-13
1.887000000000000000e+03 1.264626216888427734e+01 2.266407394409179688e+01 8.200321118759928973e-14 -5.635766240621661871e-14 7.693665481447748561e-15 -5.104090097080536681e-14
1.888000000000000000e+03 8.057523727416992188e+00 1.487335681915283203e+01 2.251804564210382886e-14 -4.478588994886317787e-13 -1.276022608973428896e-13 9.257418236933295796e-14
1.889000000000000000e+03 1.133241367340087891e+01 1.631831169128417969e+01 5.341780755794070523e-14 -2.973632895909156248e-13 -7.318364664277154930e-14 4.453568793589234021e-14
1.890000000000000000e+03 4.240180206298828125e+01 1.931614112854003906e+01 1.501203056924137712e-15 1.836471648581153304e-13 5.554451077685249039e-14 -1.401122768425900472e-14
1.891000000000000000e+03 9.626444816589355469e+00 1.017513465881347656e+01 -7.255814669254213867e-15 -1.403624802108136005e-13 -4.428548795580057595e-14 8.006416303595401129e-14
1.892000000000000000e+03 6.724288177490234375e+01 3.008943367004394531e+01 -5.792141397585603979e-14 -9.344988568778592186e-14 -4.541139125434530410e-14 -6.104892389139845998e-14
1.893000000000000000e+03 7.890640258789062500e+00 2.069075012207031250e+01 9.907939540424598457e-14 -3.692959295569647749e-13 -8.106496295632106830e-14 -9.807859548387892756e-14
1.894000000000000000e+03 3.981581115722656250e+01 2.104930114746093750e+01 1.576263093303314350e-14 1.668837323106492354e-13 5.479391083657719763e-14 2.101684237342145434e-14
1.895000000000000000e+03 7.329021930694580078e+00 1.266171932220458984e+01 1.205966479022463345e-13 -8.556856937423640286e-14 1.050842118671072717e-14 6.204972381176551699e-14
1.896000000000000000e+03 1.028769111633300781e+01 1.035422611236572266e+01 4.028228149806876990e-14 1.726383420171551802e-14 1.726383420171551802e-14 1.711371387484728057e-13
1.897000000000000000e+03 1.182455253601074219e+01 1.032139778137207031e+01 4.916439773198534591e-14 -7.043144008549856450e-14 -6.380112621350670851e-15 1.200962343895356499e-13
1.898000000000000000e+03 8.076516151428222656e+00 1.134614181518554688e+01 2.451964887096973189e-14 1.050842118671072717e-14 1.050842118671072717e-14 1.301042606982605321e-14
1.899000000000000000e+03 9.168542861938476562e+00 1.925436210632324219e+01 9.732799554360363481e-14 -3.700465498260308017e-13 -8.181556289659636105e-14 -1.811451650571976879e-13
1.900000000000000000e+03 9.937417984008789062e+00 2.931232070922851562e+01 7.506014649345978118e-15 -1.726383521815505473e-13 -4.953969770212299228e-14 -4.222524294193036321e-14
1.901000000000000000e+03 9.002935409545898438e+00 3.021504211425781250e+01 5.054050101062183831e-14 -1.456166865690042278e-13 -2.852285871683332696e-14 -1.471491656822310201e-13
1.902000000000000000e+03 1.273670864105224609e+01 2.009665107727050781e+01 1.223480409866251062e-13 -2.449462887296055547e-13 -3.677947500052049234e-14 5.804651735403371093e-14
1.903000000000000000e+03 1.295857906341552734e+01 2.199316978454589844e+01 1.200962445539310169e-14 -1.321058605389946461e-13 -3.602887167211341057e-14 -3.602887167211341057e-14
1.904000000000000000e+03 1.153410625457763672e+01 9.337598800659179688e+00 -8.056456299613753980e-14 -1.946559910872072696e-13 -8.256616283687165381e-14 3.452766840343103605e-14
1.905000000000000000e+03 1.513835525512695312e+01 2.466294288635253906e+01 1.123400282304273801e-13 6.530233032922203029e-14 5.329270756789482311e-14 7.931355631941514051e-14
1.906000000000000000e+03 8.845604896545410156e+00 2.376815414428710938e+01 -2.389414722667442675e-14 -1.474931965840878267e-13 -5.141620432907480220e-14 -1.110890215537049808e-13
1.907000000000000000e+03 4.326780700683593750e+01 1.920359039306640625e+01 9.957980214069309111e-14 -5.454371085648543338e-14 1.351082687704252897e-14 -3.552847171192988207e-14
1.908000000000000000e+03 4.336441802978515625e+01 2.125891494750976562e+01 3.753007494079578510e-14 1.876503780921107145e-13 6.755413692631148659e-14 -3.702967498061225660e-14
1.909000000000000000e+03 1.599939823150634766e+01 2.526032829284667969e+01 1.078364150362484675e-13 7.480994990149980595e-14 5.479391083657719763e-14 -7.005613842129502361e-15
1.910000000000000000e+03 1.057447147369384766e+01 2.528983688354492188e+01 5.754611739385018243e-14 -3.252606517456513302e-14 7.506014649345978118e-15 -1.135910281308862013e-13
1.911000000000000000e+03 1.707299613952636719e+01 2.757868766784667969e+01 7.136969509304036396e-14 -1.295413158252517460e-13 -1.745148418678434121e-14 1.551243095294137925e-14
1.912000000000000000e+03 1.533331012725830078e+01 2.762192153930664062e+01 8.744507261305642376e-14 -3.114996189592864062e-14 1.688853423157787165e-14 3.102486190588275849e-14
1.913000000000000000e+03 2.225808525085449219e+01 3.213507461547851562e+01 -2.039134072912614920e-14 9.420048562806121462e-14 2.214274397790028798e-14 3.577867169202164632e-14
1.914000000000000000e+03 1.870414161682128906e+01 3.057663345336914062e+01 -1.175942362826839019e-14 2.927345865710861972e-14 5.254210593355363584e-15 -4.528629126429942198e-14
1.915000000000000000e+03 4.273339462280273438e+01 2.171820068359375000e+01 1.551243095294137925e-14 2.952365863720038397e-14 1.351082687704252897e-14 -1.751403587587317678e-14
1.916000000000000000e+03 4.252103424072265625e+01 2.797663497924804688e+01 -6.004812227696550847e-15 2.602085213965210642e-14 6.004812227696550847e-15 -9.507618725244828400e-15
1.917000000000000000e+03 3.935976409912109375e+01 2.635708808898925781e+01 6.655333022968085155e-14 2.852285871683332696e-14 2.852285871683332696e-14 -4.215878473688879080e-14
1.918000000000000000e+03 3.679799652099609375e+01 2.934941482543945312e+01 2.226784396794617010e-14 -3.477786838352280030e-14 -3.753007324672989059e-15 -1.000802037949425141e-14
1.919000000000000000e+03 1.758216667175292969e+01 3.250452041625976562e+01 -1.726383420171551802e-14 -2.026624073908026707e-14 -1.125902282105191443e-14 -1.075862116680249142e-14
1.920000000000000000e+03 6.769213867187500000e+01 2.885462570190429688e+01 -5.341780755794070523e-14 -2.289334561224147524e-14 -2.289334561224147524e-14 -6.555253030931379454e-14
1.921000000000000000e+03 3.899411392211914062e+01 2.434393692016601562e+01 2.201764398785440585e-14 3.803047490097931360e-14 1.801443583605670529e-14 -1.338572688699664684e-14
1.922000000000000000e+03 3.321413040161132812e+01 2.735745620727539062e+01 6.605293026949732305e-14 7.405934996122451319e-14 4.203368474684290867e-14 4.503608959014176322e-15
1.923000000000000000e+03 6.918359375000000000e+01 3.209624481201171875e+01 -6.294106674655658429e-14 -2.697474168133432576e-14 -2.697474168133432576e-14 -2.502005052521915490e-14
1.924000000000000000e+03 6.249884796142578125e+01 3.388298797607421875e+01 3.940657733258285875e-15 -7.837530808813691907e-14 -2.233039396296911117e-14 -6.505213034913026604e-15
1.925000000000000000e+03 6.020051956176757812e+01 3.425884246826171875e+01 5.379310583401245710e-15 -8.919647924996235155e-14 -2.514515051526503703e-14 -5.004010189747125706e-16
1.926000000000000000e+03 5.813779449462890625e+01 3.322554779052734375e+01 -2.061124403476052164e-14 -2.027112811918592439e-14 -1.226471096855757600e-14 -3.496552006265751800e-14
1.927000000000000000e+03 3.396074676513671875e+01 2.897480773925781250e+01 -1.113392198397308505e-14 -2.764715539838036307e-14 -1.163432363822250806e-14 2.977385861729214822e-14
1.928000000000000000e+03 5.289230728149414062e+01 3.493690872192382812e+01 2.126704277702969222e-15 -3.340176849301809692e-14 -9.382518735198946275e-15 -1.751403460532375590e-15
1.929000000000000000e+03 6.775999450683593750e+01 3.688414382934570312e+01 -3.828067826920286687e-14 6.079872391130669573e-14 6.755413438521264483e-15 1.182197362329133125e-14
1.930000000000000000e+03 6.677400970458984375e+01 3.163176155090332031e+01 -3.765517493084166722e-14 -1.762662552810129180e-13 -6.417642703067730214e-14 4.103288143834406265e-14
1.931000000000000000e+03 4.479143905639648438e+01 2.324005699157714844e+01 -1.075862116680249142e-14 9.832879546397069181e-14 2.627105211974387067e-14 5.016520104048419193e-14
1.932000000000000000e+03 4.060421752929687500e+01 2.366706466674804688e+01 7.756215645877279075e-14 -1.251002526260957745e-14 1.951563910473907981e-14 1.601283260719080226e-14
1.933000000000000000e+03 4.398681259155273438e+01 3.377680587768554688e+01 -7.679982511217802593e-15 1.958405395588880965e-14 3.571221348698007392e-15 2.489495053517327278e-14
1.934000000000000000e+03 4.658095550537109375e+01 2.991811180114746094e+01 2.123576820303469531e-14 9.101042910562764238e-15 9.101042910562764238e-15 -1.601283260719080226e-14
1.935000000000000000e+03 6.352521514892578125e+01 3.613204574584960938e+01 -1.485565515816755083e-14 -2.924218281256420193e-14 -1.322935189943929418e-14 -2.802245536851800944e-14
1.936000000000000000e+03 8.039343833923339844e+00 1.202279281616210938e+01 2.502005052521915490e-14 -3.552847035667716646e-13 -9.907939540424598457e-14 9.007217918028352643e-15
1.937000000000000000e+03 1.055589771270751953e+01 8.540371894836425781e+00 -5.854691731421723944e-14 -1.165934346682509504e-13 -5.254210423948774134e-14 9.057258252859884395e-14
1.938000000000000000e+03 8.451156616210937500e+00 2.316618537902832031e+01 1.426142868079030568e-13 -2.076664171570333228e-13 -1.951563910473907981e-14 -8.281636281696341806e-14
1.939000000000000000e+03 8.112435340881347656e+00 1.632172203063964844e+01 1.926543912464731556e-14 -6.322566710632859799e-13 -1.838973716144706727e-13 7.105694342385976414e-14
1.940000000000000000e+03 9.124650955200195312e+00 1.737096977233886719e+01 -8.331676955341052460e-14 -3.445260840940350677e-13 -1.283528540613546043e-13 -8.438012116286641717e-14
1.941000000000000000e+03 8.435455322265625000e+00 1.797865295410156250e+01 1.195958344293521214e-13 -7.455974992140804170e-14 1.351082687704252897e-14 7.881315635923161200e-14
1.942000000000000000e+03 8.190295219421386719e+00 9.987202644348144531e+00 5.529431079676072613e-14 -6.780433690640325084e-14 -3.753007324672989059e-15 2.051644071917203133e-14
1.943000000000000000e+03 9.788938522338867188e+00 9.449266433715820312e+00 -3.702967498061225660e-14 -3.132510255961923340e-13 -1.050842084789754827e-13 8.006416303595401129e-15
1.944000000000000000e+03 1.047039318084716797e+01 1.318010330200195312e+01 2.752205540833448094e-14 -2.627105347499658627e-13 -7.055654346367623564e-14 1.130906281707026728e-13
1.945000000000000000e+03 9.316255569458007812e+00 2.431150436401367188e+01 5.149439224636995216e-14 6.781997652274135424e-14 3.579430792022796071e-14 -1.481186999224490264e-13
1.946000000000000000e+03 8.026204109191894531e+00 2.251607894897460938e+01 -1.266014474244486765e-13 -1.886511780124777715e-13 -9.457578898633065001e-14 -4.672494284389296093e-14
1.947000000000000000e+03 8.216681480407714844e+00 2.141552162170410156e+01 -1.332317638375393742e-13 -2.858540769541673132e-13 -1.257257508822592906e-13 -6.405133042876320904e-14
1.948000000000000000e+03 9.383335113525390625e+00 2.547896766662597656e+01 3.860906616658978108e-14 -1.207060981115587461e-13 -2.462911263280929963e-14 -1.396118734942747297e-13
1.949000000000000000e+03 9.539005279541015625e+00 1.567822265625000000e+01 8.581876935432816711e-14 -1.233488409069921632e-13 -1.125902282105191443e-14 1.150922280114367868e-14
1.950000000000000000e+03 8.036262512207031250e+00 1.413849639892578125e+01 5.429350748826188011e-14 -2.969879930089097675e-13 -7.280834328450211390e-14 6.755413692631148659e-14
1.951000000000000000e+03 9.349174499511718750e+00 1.343469619750976562e+01 6.955573676704560060e-14 -2.446960819732502124e-13 -5.254210423948774134e-14 3.903127820947815962e-14
1.952000000000000000e+03 1.113099575042724609e+01 1.543062973022460938e+01 1.018316019615189694e-13 -1.393616802904465435e-13 -1.125902282105191443e-14 1.451162933850842773e-14
1.953000000000000000e+03 1.157252502441406250e+01 1.719348907470703125e+01 1.328564672555335169e-13 -8.031436301604577555e-14 1.576263093303314350e-14 2.401924891078620339e-14
1.954000000000000000e+03 8.492098808288574219e+00 1.915656089782714844e+01 8.356696953350228885e-14 -7.856295637913984775e-14 1.501203056924137712e-15 9.857899544406245607e-14
1.955000000000000000e+03 8.998130798339843750e+00 2.277308654785156250e+01 -8.093985957814339716e-14 -8.043945961795986865e-14 -4.841379779171005315e-14 -7.506014988159157020e-14
1.956000000000000000e+03 1.092062568664550781e+01 1.459632301330566406e+01 7.005614350349270714e-14 -2.902325732176413986e-13 -6.605293026949732305e-14 4.103288143834406265e-14
1.957000000000000000e+03 1.226609992980957031e+01 1.877218627929687500e+01 1.911531778133954140e-13 -3.412734775765785544e-13 -4.503609128420765773e-14 -8.006416303595401129e-15
1.958000000000000000e+03 8.698779106140136719e+00 1.343614768981933594e+01 1.393616802904465435e-13 -3.177546523428984027e-14 3.227586519447336877e-14 2.602085213965210642e-14
1.959000000000000000e+03 1.094832515716552734e+01 2.173189544677734375e+01 9.832879546397069181e-14 -1.408628801709971290e-13 -1.276022524270134170e-14 -4.503609128420765773e-14
1.960000000000000000e+03 4.375813293457031250e+01 2.277689743041992188e+01 2.114194236346733646e-14 7.768725306068688385e-14 2.964875862724626610e-14 1.901523745048965680e-14
1.961000000000000000e+03 1.466073226928710938e+01 2.552548408508300781e+01 1.014563053795131120e-13 1.349831704744453020e-13 7.093184004568209300e-14 -1.000802037949425141e-15
1.962000000000000000e+03 4.353057098388671875e+01 1.974051094055175781e+01 -2.952365863720038397e-14 1.245998475837145625e-13 2.852285871683332696e-14 -1.070858150959731747e-13
1.963000000000000000e+03 6.955035400390625000e+01 2.931451416015625000e+01 1.200962445539310169e-14 -1.321058605389946461e-13 -3.602887167211341057e-14 -3.652927163229693908e-14
1.964000000000000000e+03 1.090188694000244141e+01 9.052618026733398438e+00 -5.404330750817011586e-14 -2.061652172764827373e-13 -7.806255641895631925e-14 7.556054984177509870e-14
1.965000000000000000e+03 1.088346099853515625e+01 1.063260269165039062e+01 1.797690550022976175e-13 -4.262165436124537576e-13 -7.393424658304684205e-14 1.961571909677578551e-13
1.966000000000000000e+03 1.005989933013916016e+01 1.151707839965820312e+01 1.401122768425900472e-14 -3.142518255165593910e-13 -9.007218256841531545e-14 1.175942345886180074e-13
1.967000000000000000e+03 1.084080600738525391e+01 1.215623950958251953e+01 -1.951563910473907981e-14 -1.456166865690042278e-13 -4.953969770212299228e-14 4.003208151797700565e-15
1.968000000000000000e+03 9.425142288208007812e+00 1.149347591400146484e+01 4.378508799561704745e-14 -3.014916062030886801e-13 -7.731195647868102649e-14 1.170938346284344789e-13
1.969000000000000000e+03 8.830192565917968750e+00 1.075339412689208984e+01 4.428548795580057595e-14 -2.677145377399329368e-14 5.254210593355363584e-15 3.803047490097931360e-14
1.970000000000000000e+03 1.619869041442871094e+01 2.678705024719238281e+01 -1.075862116680249142e-14 -1.518717064000890682e-13 -4.878909776184769953e-14 -2.872614662417435905e-14
1.971000000000000000e+03 4.084872436523437500e+01 2.242542076110839844e+01 5.617001411521369003e-14 9.269928574751062911e-14 4.466078792593822233e-14 -1.050842118671072717e-14
1.972000000000000000e+03 4.192255020141601562e+01 2.175793266296386719e+01 3.602887167211341057e-14 -7.606094980195862720e-14 -1.200962445539310169e-14 1.501202929869195624e-14
1.973000000000000000e+03 1.073049926757812500e+01 2.835671997070312500e+01 4.753809362622414200e-15 -3.227586519447336877e-14 -8.256616283687165381e-15 -3.521572004274928225e-14
1.974000000000000000e+03 1.354635429382324219e+01 2.411669731140136719e+01 1.000802037949425141e-14 5.004010105043830980e-14 1.801443583605670529e-14 -1.376102770416724047e-14
1.975000000000000000e+03 1.271662616729736328e+01 2.975437164306640625e+01 4.172093307766230885e-14 -7.362149491386624223e-14 -9.570169567300716718e-15 -1.651323256737433076e-14
1.976000000000000000e+03 1.363806915283203125e+01 2.544122886657714844e+01 4.803849782157240678e-14 -4.803849782157240678e-14 0.000000000000000000e+00 1.401122768425900472e-14
1.977000000000000000e+03 6.866059875488281250e+01 2.914104461669921875e+01 -7.030634348358447139e-14 -7.255814669254213867e-15 -2.326864727644501613e-14 -1.651323256737433076e-14
1.978000000000000000e+03 6.950422668457031250e+01 3.024614334106445312e+01 -4.240898471698055505e-14 -6.392622705058553789e-14 -3.190056522433572239e-14 -5.004010189747125706e-16
1.979000000000000000e+03 4.405728149414062500e+01 2.457501029968261719e+01 6.930553678695383635e-14 5.829671733412547519e-14 3.828067826920286687e-14 1.601283260719080226e-14
1.980000000000000000e+03 4.329425811767578125e+01 2.617416763305664062e+01 6.486448205812733736e-14 1.421764317605447858e-13 6.211227550085435256e-14 2.702165375408505793e-14
1.981000000000000000e+03 4.452357482910156250e+01 2.878470802307128906e+01 1.613793259723668438e-14 9.269928574751062911e-14 3.265116516461101515e-14 3.227586519447336877e-14
1.982000000000000000e+03 6.705525207519531250e+01 3.493811798095703125e+01 -4.491099129416177560e-14 -1.565004094199184959e-13 -6.042342055303726034e-14 5.029030103053007406e-14
1.983000000000000000e+03 1.134574317932128906e+01 3.255622482299804688e+01 9.007217918028352643e-15 -1.891515779726613000e-13 -5.404330750817011586e-14 -3.154090148240439040e-14
1.984000000000000000e+03 1.454640102386474609e+01 3.271900558471679688e+01 7.443464654323037055e-15 -7.687410143132275553e-14 -2.082919238835263115e-14 1.401122768425900472e-14
1.985000000000000000e+03 4.543043136596679688e+01 2.511268997192382812e+01 1.188452361831427231e-14 1.194707446037016063e-13 3.940657817961580600e-14 3.502806921064751181e-15
1.986000000000000000e+03 1.426483821868896484e+01 2.829107284545898438e+01 4.703769451307356075e-14 -1.170938346284344789e-13 -2.101684237342145434e-14 -8.006416303595401129e-15
1.987000000000000000e+03 4.512295150756835938e+01 2.682770156860351562e+01 2.439454888092384977e-15 5.823416564503663961e-14 1.820208582112552848e-14 -1.100882199392720293e-14
1.988000000000000000e+03 4.015646743774414062e+01 2.497979545593261719e+01 6.405133042876320904e-14 9.607699564314481355e-14 4.803849782157240678e-14 5.404330750817011586e-14
1.989000000000000000e+03 3.399079132080078125e+01 3.445046234130859375e+01 -2.720930373915388112e-14 1.141539797801585654e-13 2.608340213467504748e-14 3.627907165220517482e-14
1.990000000000000000e+03 1.607382202148437500e+01 3.451529693603515625e+01 -1.869466936127179429e-14 -6.520068637555151425e-14 -2.516860655164040311e-14 -3.477786838352280030e-14
1.991000000000000000e+03 2.157605743408203125e+01 3.445692825317382812e+01 -1.376102770416724047e-14 5.129110433902892008e-14 1.125902282105191443e-14 6.555253030931379454e-14
1.992000000000000000e+03 5.672814178466796875e+01 3.759967041015625000e+01 6.004812227696550847e-15 -6.605293026949732305e-14 -1.801443583605670529e-14 -1.601283260719080226e-14
1.993000000000000000e+03 9.490637779235839844e+00 1.084876632690429688e+01 8.106496295632106830e-14 -1.100882199392720293e-14 2.101684237342145434e-14 1.621299259126421366e-13
1.994000000000000000e+03 8.021249771118164062e+00 1.270929527282714844e+01 1.251002475438980910e-13 -1.751403519824681898e-13 -1.501202929869195624e-14 -1.000802037949425141e-15
1.995000000000000000e+03 8.722050666809082031e+00 1.207978439331054688e+01 7.906335633932337625e-14 -1.491194998428160834e-13 -2.101684237342145434e-14 8.506817110811876886e-15
1.996000000000000000e+03 9.948775291442871094e+00 1.340387916564941406e+01 1.521218996039172544e-13 -7.205774334422682115e-14 2.401924891078620339e-14 9.757819552369539906e-14
1.997000000000000000e+03 9.306760787963867188e+00 2.335895729064941406e+01 1.311050606186275891e-13 -2.411932958044926689e-13 -3.302646513474866152e-14 -5.929751725449253219e-14
1.998000000000000000e+03 8.619912147521972656e+00 2.211304664611816406e+01 6.330072371222433825e-14 -1.558749060815572962e-13 -2.777225538842624519e-14 -4.003208151797700565e-14
1.999000000000000000e+03 9.554117202758789062e+00 2.016445541381835938e+01 6.955573676704560060e-14 -8.456776945386934585e-14 -4.503608959014176322e-15 -7.706175649858926224e-14
2.000000000000000000e+03 1.048417568206787109e+01 2.335522651672363281e+01 -9.257418745153064149e-15 -2.784731538245377447e-13 -8.631917609077527365e-14 -1.030826086382413687e-13
2.001000000000000000e+03 1.160673618316650391e+01 1.911233329772949219e+01 8.306656957331876034e-14 -3.532831037260375506e-13 -8.106496295632106830e-14 -8.894627926987058730e-14
2.002000000000000000e+03 8.793257713317871094e+00 1.563445472717285156e+01 7.556054984177509870e-14 -4.708773518671827141e-13 -1.185950345089850644e-13 5.754611739385018243e-14
2.003000000000000000e+03 9.483811378479003906e+00 1.487621307373046875e+01 4.953969770212299228e-14 -3.447762908503904100e-13 -8.857097591160115191e-14 3.352686848306397904e-14
2.004000000000000000e+03 8.762807846069335938e+00 1.142152786254882812e+01 9.957980214069309111e-14 -9.457578898633065001e-14 1.501203056924137712e-15 3.002405859738391247e-14
2.005000000000000000e+03 1.051108551025390625e+01 2.002474784851074219e+01 8.850842422251231634e-14 -3.280754032157495725e-13 -7.187009505322389247e-14 9.307458910578006450e-14
2.006000000000000000e+03 8.967164993286132812e+00 1.859699630737304688e+01 -1.266014474244486765e-13 -4.888918046438983644e-13 -1.846479647784823874e-13 -9.244908576741886486e-14
2.007000000000000000e+03 1.028944492340087891e+01 2.409189414978027344e+01 1.238492442553074807e-14 -8.619407271259760250e-14 -2.214274397790028798e-14 -7.205774334422682115e-14
2.008000000000000000e+03 9.903161048889160156e+00 2.480369377136230469e+01 6.004811719476782494e-14 -2.201764432666758475e-13 -4.803849782157240678e-14 -1.188452412653404067e-13
2.009000000000000000e+03 8.910581588745117188e+00 2.105464172363281250e+01 1.536231130369949960e-13 -2.887313868896179692e-13 -4.053248147816053415e-14 5.379310752807835161e-14
2.010000000000000000e+03 8.769892692565917969e+00 1.488870811462402344e+01 8.181556289659636105e-14 -2.394418756150595851e-13 -4.728789449316532501e-14 2.602085213965210642e-14
2.011000000000000000e+03 1.068823337554931641e+01 2.672943687438964844e+01 7.925101140658988297e-14 3.396471675415867197e-14 3.396471675415867197e-14 -1.070858150959731747e-13
2.012000000000000000e+03 1.000406932830810547e+01 2.609341621398925781e+01 1.004554986828824770e-13 6.092382051322078884e-14 4.841379779171005315e-14 -6.056415677128945685e-14
2.013000000000000000e+03 1.130370426177978516e+01 2.583555984497070312e+01 2.939855907067097547e-15 9.276183743659946468e-14 2.871050700783625564e-14 9.507618725244828400e-15
2.014000000000000000e+03 9.982098579406738281e+00 2.759343719482421875e+01 -3.940657733258285875e-15 -1.618171742434615368e-13 -4.972734938125770998e-14 -1.301042606982605321e-14
2.015000000000000000e+03 9.502754211425781250e+00 1.656326866149902344e+01 8.181556289659636105e-14 -3.995701881344404516e-13 -9.532638892660594276e-14 -5.954771723458429644e-14
2.016000000000000000e+03 1.210830974578857422e+01 1.978343200683593750e+01 1.894643296418418998e-13 -1.475557414969130843e-13 1.257257525763251851e-14 -7.105694342385976414e-14
2.017000000000000000e+03 1.208616352081298828e+01 2.094853973388671875e+01 7.681155651849749799e-14 -1.043336085387001899e-13 -8.256616283687165381e-15 -5.404330750817011586e-14
2.018000000000000000e+03 1.006706809997558594e+01 1.404755687713623047e+01 2.451964887096973189e-14 -3.097482123223804784e-13 -8.556856937423640286e-14 4.003208151797700565e-14
2.019000000000000000e+03 1.020031547546386719e+01 1.479122543334960938e+01 5.504411081666896188e-14 -2.051644173561156803e-13 -4.503609128420765773e-14 1.065854151357896462e-13
2.020000000000000000e+03 1.189349555969238281e+01 1.801568794250488281e+01 1.368596804895289010e-13 -3.645421367114848321e-13 -6.830473686658677934e-14 -3.027426196560746574e-14
2.021000000000000000e+03 1.001010036468505859e+01 1.282749080657958984e+01 3.903127820947815962e-14 -1.891515779726613000e-13 -4.503609128420765773e-14 7.005614350349270714e-14
2.022000000000000000e+03 6.842308807373046875e+01 3.033512496948242188e+01 -6.780433690640325084e-14 -7.480994990149980595e-14 -4.278428468711820143e-14 -3.052446194569922999e-14
2.023000000000000000e+03 1.012753868103027344e+01 1.216992855072021484e+01 4.628709118466647898e-14 -2.089174238337557221e-13 -4.878909776184769953e-14 1.311050606186275891e-13
2.024000000000000000e+03 1.008040142059326172e+01 1.095973587036132812e+01 7.205774334422682115e-14 -1.521218996039172544e-13 -2.401924891078620339e-14 5.904731727440076794e-14
2.025000000000000000e+03 1.220293045043945312e+01 2.807060432434082031e+01 4.578669122448295048e-14 -4.328468803543351895e-14 7.506015284620688559e-16 1.351082687704252897e-14
2.026000000000000000e+03 1.033215808868408203e+01 2.214961814880371094e+01 -6.129912217742432973e-15 -3.228837553229113588e-13 -9.870409882224012721e-14 -1.701363422162375377e-14
2.027000000000000000e+03 1.118406200408935547e+01 2.352909469604492188e+01 1.155926347478838934e-13 -2.707169341129023188e-13 -4.653729455289003225e-14 -6.154932385158198849e-14
2.028000000000000000e+03 1.144541263580322266e+01 2.243874359130859375e+01 5.054050101062183831e-14 -2.356888826899466993e-13 -5.554451077685249039e-14 -1.206591928150715920e-13
2.029000000000000000e+03 6.816407012939453125e+01 3.162453079223632812e+01 -5.304250758780305885e-14 -5.704571743366665393e-14 -3.302646513474866152e-14 -4.828869780166417103e-14
2.030000000000000000e+03 4.185669708251953125e+01 2.270012855529785156e+01 4.478589130411589347e-14 8.782037597132585915e-14 3.978187814975345238e-14 -6.355093046857968053e-14
2.031000000000000000e+03 4.081256484985351562e+01 2.717441558837890625e+01 5.654531408535133641e-14 1.386110735739076727e-13 5.854691731421723944e-14 4.034482979902581645e-14
2.032000000000000000e+03 1.497502708435058594e+01 2.981392288208007812e+01 4.553649124439118623e-14 -8.056456299613753980e-14 -1.050842118671072717e-14 7.881315466516571749e-15
2.033000000000000000e+03 1.616338729858398438e+01 2.871627998352050781e+01 4.441058794584645808e-14 -5.316760757784894098e-14 -2.627105296677681792e-15 -6.330072371222433825e-14
2.034000000000000000e+03 4.188263320922851562e+01 2.398398971557617188e+01 5.379310752807835161e-14 6.880513682677030785e-14 3.677947500052049234e-14 -1.075862116680249142e-14
2.035000000000000000e+03 4.161282348632812500e+01 2.553352546691894531e+01 2.502005052521915490e-14 4.503609128420765773e-14 2.101684237342145434e-14 -1.613793259723668438e-14
2.036000000000000000e+03 1.162221527099609375e+01 2.910737609863281250e+01 -7.556054984177509870e-14 -1.696359388679222202e-13 -7.355895000104098469e-14 -2.652125379390152943e-14
2.037000000000000000e+03 1.611096572875976562e+01 3.122754287719726562e+01 -2.658380378892447049e-14 -3.033681026656451230e-14 -1.707618421664669484e-14 -4.756155050963245534e-14
2.038000000000000000e+03 3.014222526550292969e+01 3.330577087402343750e+01 -1.013312036954013354e-14 4.140818140848170903e-14 9.382518735198946275e-15 -1.751403460532375590e-15
2.039000000000000000e+03 1.381022357940673828e+01 2.682900619506835938e+01 5.792141397585603979e-14 -6.667843360785852269e-14 -2.627105296677681792e-15 2.001604075898850282e-14
2.040000000000000000e+03 2.731660079956054688e+01 3.445816802978515625e+01 -1.613793259723668438e-14 -1.263512525265545958e-14 -8.631917100857759012e-15 3.240096518451925089e-14
2.041000000000000000e+03 6.874978637695312500e+01 3.410023117065429688e+01 -4.075140561370788062e-14 5.410586004429189869e-15 -1.060224617924513876e-14 -3.402726844324750755e-14
2.042000000000000000e+03 6.544486999511718750e+01 3.438108444213867188e+01 3.803047490097931360e-14 -9.807859548387892756e-14 -1.801443583605670529e-14 -4.303448466720996568e-14
2.043000000000000000e+03 3.127806472778320312e+01 3.594124984741210938e+01 -2.164234401771675947e-14 -3.215076520442748664e-14 -1.613793259723668438e-14 8.631917100857759012e-15
2.044000000000000000e+03 1.160736370086669922e+01 2.023484039306640625e+01 9.718334942126691245e-14 -5.872244964594264260e-13 -1.470123393680633495e-13 -6.986018073707953024e-14
2.045000000000000000e+03 9.651679039001464844e+00 2.247624588012695312e+01 7.355895000104098469e-14 -2.887313868896179692e-13 -6.455173038894673754e-14 -8.006416303595401129e-15
2.046000000000000000e+03 9.402166366577148438e+00 1.212968635559082031e+01 3.953167816966168813e-14 -3.948163952889605088e-13 -1.065854151357896462e-13 5.004010189747125706e-15
2.047000000000000000e+03 9.776945114135742188e+00 1.805047607421875000e+01 1.989093975250308399e-13 -6.255012631304788726e-15 5.779631737394194668e-14 -3.502807175174635357e-14
2.048000000000000000e+03 8.978387832641601562e+00 1.995188522338867188e+01 7.155734338404329264e-14 -1.065854151357896462e-13 -1.050842118671072717e-14 7.856295637913984775e-14
2.049000000000000000e+03 1.039319610595703125e+01 1.884002304077148438e+01 6.298797881930731646e-14 -5.402454200144346519e-13 -1.431772316809118428e-13 4.239334848877424067e-14
2.050000000000000000e+03 1.032157993316650391e+01 1.562632369995117188e+01 5.179150429921244858e-14 -2.294338493063347029e-13 -5.329270756789482311e-14 -3.102486190588275849e-14
2.051000000000000000e+03 1.180935287475585938e+01 2.490854454040527344e+01 4.416038796575469383e-14 6.467682699086083065e-14 3.265116516461101515e-14 4.353488801552528320e-14
2.052000000000000000e+03 9.699707984924316406e+00 2.377218437194824219e+01 1.000802037949425141e-14 -2.702165477052459464e-13 -7.806255641895631925e-14 -8.506816941405287436e-14
2.053000000000000000e+03 1.104571342468261719e+01 2.441648101806640625e+01 4.503609128420765773e-14 -2.552045217946857791e-13 -6.305052373213257400e-14 -1.458668933253595701e-13
2.054000000000000000e+03 4.284504318237304688e+01 2.262900924682617188e+01 3.928147818956992388e-14 -5.179150429921244858e-14 -3.753007324672989059e-15 5.704571743366665393e-14
2.055000000000000000e+03 4.308798599243164062e+01 2.369597816467285156e+01 4.259663639611527275e-14 8.688212096378405969e-14 3.884362653034344193e-14 4.153328478665938017e-14
2.056000000000000000e+03 1.111991977691650391e+01 1.836165237426757812e+01 9.507618894651417851e-14 -8.506816941405287436e-14 3.002406113848275424e-15 2.364394724658266250e-14
2.057000000000000000e+03 8.728707313537597656e+00 1.415263938903808594e+01 7.005613842129502361e-15 -3.172542252776605620e-13 -9.307458910578006450e-14 -3.502806921064751181e-15
2.058000000000000000e+03 8.021442413330078125e+00 1.341482448577880859e+01 -2.426944889087796764e-14 -5.136616501068280716e-13 -1.613793191961032658e-13 -5.004010189747125706e-15
2.059000000000000000e+03 9.271041870117187500e+00 2.176948165893554688e+01 -4.253408470702643718e-14 -3.727987428307766304e-13 -1.245998475837145625e-13 -1.075862116680249142e-14
2.060000000000000000e+03 1.151607227325439453e+01 2.132617568969726562e+01 2.051644071917203133e-14 -4.658733251602931169e-13 -1.336070739720723877e-13 -1.857113231642018580e-13
2.061000000000000000e+03 9.360150337219238281e+00 1.277254295349121094e+01 9.957980214069309111e-14 -9.457578898633065001e-14 1.501203056924137712e-15 7.405934996122451319e-14
2.062000000000000000e+03 9.876302719116210938e+00 1.948213386535644531e+01 2.420689889585502658e-14 -8.112751464540990387e-14 -1.707618421664669484e-14 9.407538902614712151e-14
2.063000000000000000e+03 1.213075447082519531e+01 2.643381500244140625e+01 5.254210423948774134e-14 -5.754611739385018243e-14 -1.501203056924137712e-15 5.379310583401245710e-15
2.064000000000000000e+03 1.250882816314697266e+01 2.427748870849609375e+01 -3.302646513474866152e-14 -3.702967498061225660e-14 -2.101684237342145434e-14 -2.051644071917203133e-14
2.065000000000000000e+03 9.849377632141113281e+00 2.317207145690917969e+01 1.501202929869195624e-14 -8.506816941405287436e-14 -2.101684237342145434e-14 -6.355093046857968053e-14
2.066000000000000000e+03 1.273341941833496094e+01 3.423503494262695312e+01 -2.168925609046749164e-14 -1.579859832366581340e-13 -5.390257128991791935e-14 -5.204170427930421283e-14
2.067000000000000000e+03 4.147600173950195312e+01 2.982793807983398438e+01 -1.125902239753544080e-15 1.024571052998801690e-13 3.039936195565334787e-14 3.196311352529276895e-14
2.068000000000000000e+03 4.344651794433593750e+01 3.073148155212402344e+01 -7.881315466516571749e-15 3.665437501047461022e-14 8.631917100857759012e-15 -6.817963857060679173e-15
2.069000000000000000e+03 4.562627029418945312e+01 3.578468322753906250e+01 -7.549018512078078946e-14 -2.091519841975093830e-14 -2.892161472334633943e-14 -6.255012631304788726e-15
2.070000000000000000e+03 1.104396057128906250e+01 2.065480613708496094e+01 8.281636281696341806e-14 -8.031436301604577555e-14 7.506015284620688559e-16 8.819567932959529455e-15
2.071000000000000000e+03 1.006841468811035156e+01 2.050386810302734375e+01 4.628709372576532075e-15 -1.588773261714492013e-14 -3.377706719260632241e-15 1.379034825785621643e-13
2.072000000000000000e+03 1.049721431732177734e+01 2.107695198059082031e+01 2.401924891078620339e-14 -4.243400607024244708e-13 -1.200962343895356499e-13 2.039134072912614920e-14
2.073000000000000000e+03 1.040768718719482422e+01 1.656978797912597656e+01 1.561251128379126385e-13 -2.762213472274482884e-13 -3.602887167211341057e-14 2.151724233360498284e-14
2.074000000000000000e+03 1.200225830078125000e+01 2.200694656372070312e+01 9.620209224505890666e-14 1.327313638773558457e-13 6.868004022485621474e-14 -6.004811719476782494e-14
2.075000000000000000e+03 1.083145141601562500e+01 2.281045532226562500e+01 4.603689120457471473e-14 -2.261812563414053456e-13 -5.404330750817011586e-14 -2.451964887096973189e-14
2.076000000000000000e+03 9.557374954223632812e+00 2.080112266540527344e+01 1.000802037949425141e-15 -2.512012950081632390e-13 -7.506014988159157020e-14 -1.245998475837145625e-13
2.077000000000000000e+03 1.261466121673583984e+01 2.537850189208984375e+01 5.429350748826188011e-14 2.326864727644501613e-14 2.326864727644501613e-14 1.501202929869195624e-14
2.078000000000000000e+03 1.142924594879150391e+01 2.738912010192871094e+01 -2.502005052521915490e-14 -2.502005052521915490e-14 -1.501202929869195624e-14 -2.752205540833448094e-14
2.079000000000000000e+03 4.231149291992187500e+01 3.263782501220703125e+01 5.754611400571839341e-15 1.168436278720791366e-13 3.677947500052049234e-14 4.428548795580057595e-14
2.080000000000000000e+03 4.023323822021484375e+01 3.189108085632324219e+01 -3.690457499056637447e-14 -4.378508968968294196e-15 -1.238492442553074807e-14 -8.631917100857759012e-15
2.081000000000000000e+03 1.407978916168212891e+01 3.646501922607421875e+01 -3.438693218517883954e-14 -8.336368162616125677e-14 -3.532518380458884999e-14 2.852285871683332696e-14
2.082000000000000000e+03 4.856661605834960938e+01 3.118525123596191406e+01 -1.760786002137464112e-14 6.108019634781108875e-14 1.304170106733752374e-14 1.976583908483084406e-14
2.083000000000000000e+03 1.170393943786621094e+01 3.779154205322265625e+01 -5.272975591862245903e-14 -2.056022588509467952e-13 -7.749960476968395517e-14 -4.228388472693467293e-14
2.084000000000000000e+03 1.085833168029785156e+01 3.551342010498046875e+01 3.402726844324750755e-14 -9.407538902614712151e-14 -1.801443583605670529e-14 1.476182931860019198e-14
2.085000000000000000e+03 3.832809829711914062e+01 3.076848602294921875e+01 1.863993748035201042e-14 9.019727917032940856e-14 3.265116516461101515e-14 1.052405826194998881e-14
2.086000000000000000e+03 3.501644134521484375e+01 3.084781074523925781e+01 1.713873421166963590e-14 1.217225376482639065e-13 4.165838477670526230e-14 5.629511198767720402e-16
2.087000000000000000e+03 4.236827850341796875e+01 3.737182998657226562e+01 -2.802245536851800944e-14 -1.200962445539310169e-14 -1.200962445539310169e-14 4.566159123443706835e-14
2.088000000000000000e+03 1.864082145690917969e+01 4.061227035522460938e+01 -7.118204002577385725e-14 3.240096518451925089e-14 -1.163432363822250806e-14 2.552045048540268340e-14
2.089000000000000000e+03 6.527126312255859375e+01 3.905029296875000000e+01 8.115878371369074362e-15 -1.680878201383573245e-13 -4.799158236068988559e-14 1.063352117675660929e-14
2.090000000000000000e+03 3.394586181640625000e+01 3.729069519042968750e+01 -2.451964887096973189e-14 2.952365863720038397e-14 1.501203056924137712e-15 2.877305869692509122e-14
2.091000000000000000e+03 2.303660583496093750e+01 4.085026550292968750e+01 -3.133761357506335832e-14 4.947714940116594573e-14 5.441861001940660400e-15 -2.039134072912614920e-14
2.092000000000000000e+03 3.651581573486328125e+01 3.292317962646484375e+01 -3.061633113915843141e-14 3.262966408027791199e-14 6.039996599896955195e-16 -2.927345865710861972e-14
2.093000000000000000e+03 4.741418075561523438e+01 3.334368515014648438e+01 3.565357339604165871e-15 -4.422293965484352940e-14 -1.219727444046192488e-14 -2.802245536851800944e-14
2.094000000000000000e+03 3.893330764770507812e+01 3.440383911132812500e+01 -1.251002547436781426e-15 7.380914998113274894e-14 2.176744400776264160e-14 3.252606517456513302e-15
2.095000000000000000e+03 4.183693313598632812e+01 3.470716094970703125e+01 -3.965677815970757025e-14 5.879711814134195094e-15 -1.013312036954013354e-14 2.051644071917203133e-14
2.096000000000000000e+03 3.554092025756835938e+01 2.782848548889160156e+01 5.093144059709758809e-14 1.590806073025266554e-13 6.300361165938184183e-14 -4.253408555405938443e-15
2.097000000000000000e+03 2.677867698669433594e+01 2.214650726318359375e+01 9.182358242905766521e-14 5.079070099071360256e-14 4.278428468711820143e-14 -4.103288143834406265e-14
2.098000000000000000e+03 7.817298126220703125e+01 3.638526916503906250e+01 1.326062689695076471e-14 -8.581876935432816711e-14 -2.176744400776264160e-14 7.005613842129502361e-15
2.099000000000000000e+03 6.572502899169921875e+01 2.299426078796386719e+01 -8.631917609077527365e-14 8.757017937936588392e-15 -2.326864727644501613e-14 1.150922280114367868e-14
2.100000000000000000e+03 1.420664668083190918e+00 4.180992889404296875e+01 1.050842118671072717e-14 -4.758813785740723112e-13 -1.396118734942747297e-13 -7.931355631941514051e-14
2.101000000000000000e+03 1.264831900596618652e+00 3.996934509277343750e+01 6.986848843622620042e-14 -4.733168067552750991e-13 -1.210344893970774494e-13 9.207378240914942946e-14
2.102000000000000000e+03 7.771556091308593750e+01 3.854291915893554688e+01 -1.301042606982605321e-14 -9.707779556351187056e-14 -3.302646513474866152e-14 1.551243095294137925e-14
2.103000000000000000e+03 1.998766899108886719e+01 2.186673545837402344e+01 1.646319257135597791e-13 -2.497001086801398095e-13 -2.552045048540268340e-14 -1.100882199392720293e-14
2.104000000000000000e+03 1.582262277603149414e+00 3.803195953369140625e+01 1.476182931860019198e-14 -5.426848749025270369e-13 -1.583769194350020948e-13 -3.803047490097931360e-14
2.105000000000000000e+03 2.086432456970214844e+01 2.962243795394897461e+00 7.455974992140804170e-14 1.005806020610601481e-13 5.254210423948774134e-14 -1.175942345886180074e-13
2.106000000000000000e+03 2.651927471160888672e+00 3.987421417236328125e+01 -1.851483749030612830e-14 -3.968179951296946228e-13 -1.245998475837145625e-13 5.204170427930421283e-14
2.107000000000000000e+03 6.996244049072265625e+01 3.306904983520507812e+01 -7.030634348358447139e-14 -4.728789449316532501e-14 -3.527827173183811782e-14 -2.451964887096973189e-14
2.108000000000000000e+03 6.908801269531250000e+01 2.405998229980468750e+01 -2.852285871683332696e-14 3.352686848306397904e-14 1.501203056924137712e-15 1.120898214740720378e-13
2.109000000000000000e+03 5.112674713134765625e+01 2.367776870727539062e+01 5.229190425939597708e-14 -3.477786838352280030e-14 5.254210593355363584e-15 -1.951563910473907981e-14
2.110000000000000000e+03 7.089339447021484375e+01 3.201437377929687500e+01 -4.738171863866678934e-14 4.831997025807679980e-14 2.814755599383860201e-16 -7.506014649345978118e-15
2.111000000000000000e+03 2.404337120056152344e+01 2.504031181335449219e+01 3.477786838352280030e-14 3.778027492088754935e-14 2.176744400776264160e-14 8.907137587178468041e-14
2.112000000000000000e+03 2.343306159973144531e+01 2.643597412109375000e+01 -1.751403587587317678e-14 -8.757017599123409490e-14 -3.152526186606628700e-14 6.430153040885497329e-14
2.113000000000000000e+03 1.751610994338989258e+00 3.666769027709960938e+01 4.553649124439118623e-14 -3.007410130390769654e-13 -7.656135653840573374e-14 -4.403528797570881170e-14
2.114000000000000000e+03 2.432876777648925781e+01 2.610406494140625000e+01 5.516921080671484401e-14 2.364394724658266250e-14 2.364394724658266250e-14 1.391114735340912012e-13
2.115000000000000000e+03 7.004828643798828125e+01 3.117349243164062500e+01 1.025822035958601566e-14 7.255814669254213867e-15 5.254210593355363584e-15 -5.279230421957950559e-14
2.116000000000000000e+03 6.967808532714843750e+01 2.473170852661132812e+01 -1.180946345488015359e-13 -1.421138868477195283e-13 -7.806255641895631925e-14 -2.001604075898850282e-15
2.117000000000000000e+03 5.155609130859375000e+01 2.567916870117187500e+01 -8.757017937936588392e-15 -3.753007324672989059e-15 -3.753007324672989059e-15 2.001604075898850282e-14
2.118000000000000000e+03 4.967787933349609375e+01 2.449328804016113281e+01 7.531034986168333445e-14 3.227586519447336877e-14 3.227586519447336877e-14 6.204972381176551699e-14
2.119000000000000000e+03 4.828445816040039062e+01 2.601647758483886719e+01 -2.376904723662854463e-14 8.131516293641283255e-14 1.726383420171551802e-14 -1.200962445539310169e-14
2.120000000000000000e+03 1.216883373260498047e+01 3.108455467224121094e+01 -2.076664239332969009e-14 -1.118396214939802735e-13 -3.978187814975345238e-14 1.276022524270134170e-14
2.121000000000000000e+03 4.656652450561523438e+01 6.911070823669433594e+00 1.045838085187919542e-13 9.057258252859884395e-14 5.854691731421723944e-14 6.505213034913026604e-15
2.122000000000000000e+03 2.655905151367187500e+01 2.897040176391601562e+01 1.251002475438980910e-13 1.451162866088206993e-13 8.106496295632106830e-14 4.603689120457471473e-14
2.123000000000000000e+03 5.707428741455078125e+01 2.704745674133300781e+01 -5.454371085648543338e-14 -5.004010189747125706e-16 -1.651323256737433076e-14 -1.476182931860019198e-14
2.124000000000000000e+03 4.908802032470703125e+01 2.701696205139160156e+01 1.077738633471596319e-13 4.378508651330938976e-16 3.246351348547629745e-14 2.652125379390152943e-14
2.125000000000000000e+03 7.314986419677734375e+01 2.601741790771484375e+01 8.531836939414463861e-14 8.231596285677988956e-14 5.029030103053007406e-14 -9.807859548387892756e-14
2.126000000000000000e+03 2.432004928588867188e+01 3.031395721435546875e+01 4.203368474684290867e-14 9.807859548387892756e-14 4.203368474684290867e-14 4.778829445334885351e-14
2.127000000000000000e+03 3.696470260620117188e+01 2.659294319152832031e+01 2.314354559233323949e-14 5.566961076689837251e-14 2.364394724658266250e-14 -3.502806921064751181e-15
2.128000000000000000e+03 3.822435760498046875e+01 2.781081199645996094e+01 5.416840749821599799e-14 1.447409900268148419e-13 5.967282061276196758e-14 2.522333843256018698e-14
2.129000000000000000e+03 6.017352676391601562e+01 2.836320686340332031e+01 -2.014114074903438495e-14 -8.631917100857759012e-15 -8.631917100857759012e-15 -6.705373696612795809e-14
2.130000000000000000e+03 1.633094787597656250e+01 2.240441322326660156e+01 2.026624040026708817e-13 -2.752205540833448094e-14 5.254210423948774134e-14 3.177546523428984027e-14
2.131000000000000000e+03 1.314087104797363281e+01 2.850234794616699219e+01 4.228388472693467293e-14 -4.753809362622414200e-15 1.125902282105191443e-14 -2.952365863720038397e-14
2.132000000000000000e+03 1.546020317077636719e+01 2.603057861328125000e+01 8.656937607086703790e-14 -5.154130431912068433e-14 1.050842118671072717e-14 8.444266607569167471e-14
2.133000000000000000e+03 1.514564418792724609e+01 2.337466239929199219e+01 5.354290754798658736e-14 -6.855493684667854359e-14 -4.503608959014176322e-15 9.857899544406245607e-14
2.134000000000000000e+03 6.580607604980468750e+01 2.632661628723144531e+01 -7.446592577590657736e-14 -6.032959640753579600e-14 -4.043865733265906981e-14 -1.191188955877416425e-14
2.135000000000000000e+03 5.869637012481689453e+00 6.409325599670410156e+00 -6.605293026949732305e-14 -7.405934996122451319e-14 -4.203368474684290867e-14 -1.150922280114367868e-14
2.136000000000000000e+03 1.287019252777099609e+01 2.727186775207519531e+01 -1.200962445539310169e-14 -2.802245536851800944e-14 -1.200962445539310169e-14 -3.903127820947815962e-14
2.137000000000000000e+03 3.551706695556640625e+01 2.243474578857421875e+01 -1.601283260719080226e-14 -1.441154866884536423e-13 -4.803849782157240678e-14 -5.304250758780305885e-14
2.138000000000000000e+03 3.544433212280273438e+01 2.016911888122558594e+01 1.050842084789754827e-13 -1.951563910473907981e-13 -2.702165375408505793e-14 -3.327666511484042577e-14
2.139000000000000000e+03 1.502643394470214844e+01 1.791478538513183594e+01 4.853889778175593528e-14 -1.351082687704252897e-14 1.050842118671072717e-14 8.256616283687165381e-15
2.140000000000000000e+03 4.619729232788085938e+01 1.219832229614257812e+01 -2.001604075898850282e-14 2.201764432666758475e-13 6.004811719476782494e-14 -1.301042606982605321e-14
2.141000000000000000e+03 7.672607898712158203e+00 2.582206344604492188e+01 1.049591118770613896e-13 -1.837722682362930016e-13 -2.364394724658266250e-14 -1.351082738526229732e-13
2.142000000000000000e+03 4.361173629760742188e+01 1.646553993225097656e+01 7.055654346367623564e-14 1.446158866486371708e-13 6.455173038894673754e-14 1.751403587587317678e-14
2.143000000000000000e+03 6.678356170654296875e+00 6.685757160186767578e+00 1.901523778930283570e-13 -1.000802037949425141e-14 5.404330750817011586e-14 5.629511410525957216e-14
2.144000000000000000e+03 1.409802627563476562e+01 1.744265365600585938e+01 1.060850151756061177e-13 -2.061652172764827373e-13 -3.002405859738391247e-14 -8.506817110811876886e-15
2.145000000000000000e+03 1.366253757476806641e+01 1.830708503723144531e+01 1.351082738526229732e-13 -1.251002475438980910e-13 3.002406113848275424e-15 -4.428548795580057595e-14
2.146000000000000000e+03 1.395773220062255859e+01 1.671540451049804688e+01 7.681155651849749799e-14 -1.043336085387001899e-13 -8.256616283687165381e-15 4.003208151797700565e-15
2.147000000000000000e+03 1.397583293914794922e+01 6.776890277862548828e+00 5.554451077685249039e-14 6.955573676704560060e-14 3.753007494079578510e-14 3.252606517456513302e-14
2.148000000000000000e+03 1.362119483947753906e+01 2.139692115783691406e+01 -6.505213034913026604e-15 -2.086672170774003798e-13 -6.455173038894673754e-14 9.057258252859884395e-14
2.149000000000000000e+03 1.439340019226074219e+01 2.126297378540039062e+01 1.000802037949425141e-15 -9.107298248878237246e-14 -2.702165375408505793e-14 0.000000000000000000e+00
2.150000000000000000e+03 7.862374305725097656e+00 2.467934226989746094e+01 -7.731195647868102649e-14 -1.703865455844610910e-13 -7.430954994131627744e-14 -1.491194998428160834e-13
2.151000000000000000e+03 1.371303653717041016e+01 1.978862571716308594e+01 9.157338244896590096e-14 -2.066656172366662658e-13 -3.452766840343103605e-14 8.194066627477403220e-14
2.152000000000000000e+03 1.395216274261474609e+01 1.897075271606445312e+01 1.020818019416107336e-13 -1.621299259126421366e-13 -1.801443583605670529e-14 5.854691731421723944e-14
2.153000000000000000e+03 4.260943603515625000e+01 1.674478912353515625e+01 7.105694342385976414e-14 -6.104892389139845998e-14 3.002406113848275424e-15 -9.757819552369539906e-15
2.154000000000000000e+03 4.066464996337890625e+01 2.074942207336425781e+01 2.101684237342145434e-14 9.007217918028352643e-15 9.007217918028352643e-15 -3.315156512479454365e-14
2.155000000000000000e+03 4.120655822753906250e+01 2.147962951660156250e+01 1.200962445539310169e-14 6.805453688649501509e-14 2.401924891078620339e-14 1.989093907487672619e-14
2.156000000000000000e+03 4.182756042480468750e+01 2.101799011230468750e+01 4.503609128420765773e-14 6.505213034913026604e-14 3.302646513474866152e-14 -3.652927163229693908e-14
2.157000000000000000e+03 1.343080902099609375e+01 2.076845169067382812e+01 4.053248147816053415e-14 -1.656327256339268361e-13 -3.753007494079578510e-14 2.001604075898850282e-14
2.158000000000000000e+03 3.831947708129882812e+01 2.143737983703613281e+01 2.426944889087796764e-14 -1.268516541808040188e-13 -3.077466192579099424e-14 -2.401924891078620339e-14
2.159000000000000000e+03 5.308464527130126953e+00 8.289668083190917969e+00 6.204972381176551699e-14 -2.021620040424873532e-13 -4.203368474684290867e-14 6.905533680686207210e-14
2.160000000000000000e+03 4.295377731323242188e+01 1.964435577392578125e+01 3.252606517456513302e-14 -7.756215645877279075e-14 -1.351082687704252897e-14 5.204170427930421283e-14
2.161000000000000000e+03 4.273456192016601562e+01 1.871670913696289062e+01 -1.100882199392720293e-14 1.000802037949425141e-15 -3.002406113848275424e-15 1.626303258728256651e-14
2.162000000000000000e+03 4.174856567382812500e+01 1.914883995056152344e+01 7.506014649345978118e-15 1.175942345886180074e-13 3.753007494079578510e-14 1.351082687704252897e-14
2.163000000000000000e+03 7.005689144134521484e+00 2.435880088806152344e+01 -1.386110735739076727e-13 -1.966575909279413836e-13 -1.005806020610601481e-13 -9.907939540424598457e-14
2.164000000000000000e+03 1.296232700347900391e+01 2.141297721862792969e+01 1.050842118671072717e-14 -3.157530389496371326e-13 -9.157338244896590096e-14 5.304250758780305885e-14
2.165000000000000000e+03 1.264839458465576172e+01 1.945613861083984375e+01 5.604491073703601889e-14 -3.763015561045884860e-13 -9.607699564314481355e-14 -4.903929774193946378e-14
2.166000000000000000e+03 1.245640659332275391e+01 2.159587860107421875e+01 9.595189226496714241e-14 -3.248853551636454728e-13 -6.868004022485621474e-14 -3.402726844324750755e-14
2.167000000000000000e+03 1.275107383728027344e+01 2.076607322692871094e+01 5.254210593355363584e-15 -3.180048455467265889e-13 -9.382518904605535726e-14 3.002405859738391247e-14
2.168000000000000000e+03 1.247803592681884766e+01 8.826014518737792969e+00 6.004812227696550847e-15 -2.261812563414053456e-13 -6.605293026949732305e-14 9.757819552369539906e-15
2.169000000000000000e+03 6.762909889221191406e+00 2.372776412963867188e+01 1.371098736933570872e-13 -1.471179000020819694e-13 -3.002406113848275424e-15 -9.407538902614712151e-14
2.170000000000000000e+03 9.910811424255371094e+00 2.145007514953613281e+01 2.502005052521915490e-14 -1.951563910473907981e-13 -5.104090097080536681e-14 4.753809362622414200e-15
2.171000000000000000e+03 6.727733135223388672e+00 2.312672805786132812e+01 -5.154130431912068433e-14 -2.737193609790578019e-13 -9.757819552369539906e-14 -2.191756433463087905e-13
2.172000000000000000e+03 7.731655120849609375e+00 1.912151527404785156e+01 -2.076664239332969009e-14 -1.919037845299342848e-13 -6.380113044867144478e-14 -1.200962445539310169e-14
2.173000000000000000e+03 7.368398189544677734e+00 1.707693481445312500e+01 -9.507618894651417851e-14 -6.355092775807424932e-13 -2.191756433463087905e-13 -6.555253030931379454e-14
2.174000000000000000e+03 1.054642009735107422e+01 1.122536468505859375e+01 6.755413692631148659e-14 -6.255012377194904549e-14 1.501203056924137712e-15 1.100882216333379238e-13
2.175000000000000000e+03 7.402332305908203125e+00 1.769489669799804688e+01 2.076664171570333228e-13 -1.626303258728256651e-13 1.351082687704252897e-14 9.007217918028352643e-15
2.176000000000000000e+03 8.697924613952636719e+00 1.274531555175781250e+01 1.601283260719080226e-14 -4.963977904941241359e-13 -1.441154866884536423e-13 -4.303448466720996568e-14
2.177000000000000000e+03 8.566740036010742188e+00 2.042162895202636719e+01 -6.505213034913026604e-14 -3.252606517456513302e-13 -1.170938346284344789e-13 -2.326864727644501613e-14
2.178000000000000000e+03 6.730359649658203125e+01 2.006446456909179688e+01 7.130714340395152839e-14 6.255012631304788726e-15 2.326864727644501613e-14 -2.652125379390152943e-14
2.179000000000000000e+03 6.785742187500000000e+01 2.024817085266113281e+01 3.302646513474866152e-14 2.772221471478153454e-13 9.307458910578006450e-14 6.204972381176551699e-14
2.180000000000000000e+03 6.843544006347656250e+01 2.036746025085449219e+01 1.205966479022463345e-13 -8.556856937423640286e-14 1.050842118671072717e-14 -3.702967498061225660e-14
2.181000000000000000e+03 6.837969207763671875e+01 1.981138801574707031e+01 -6.305052373213257400e-14 -1.871499781319271860e-13 -7.506014988159157020e-14 8.256616283687165381e-14
2.182000000000000000e+03 6.910498809814453125e+01 2.044125938415527344e+01 1.466175000418984409e-13 1.085870149765237602e-13 7.656135653840573374e-14 4.203368474684290867e-14
2.183000000000000000e+03 6.914658355712890625e+01 1.969249343872070312e+01 4.103288143834406265e-14 -5.104090097080536681e-14 -3.002406113848275424e-15 -8.556856937423640286e-14
2.184000000000000000e+03 6.788764953613281250e+01 1.943605232238769531e+01 1.401122768425900472e-14 8.606896933441993136e-14 3.002405859738391247e-14 1.100882199392720293e-14
2.185000000000000000e+03 4.793592453002929688e+01 2.822010040283203125e+00 -6.004811719476782494e-14 2.001604075898850282e-14 -1.200962445539310169e-14 8.456776945386934585e-14
2.186000000000000000e+03 4.812395095825195312e+01 2.069889783859252930e+00 9.983000212078485536e-14 -1.173440413847898212e-13 -5.254210593355363584e-15 -5.504410996963601463e-15
2.187000000000000000e+03 4.858486938476562500e+01 2.799956321716308594e+00 8.957178260823178695e-14 -2.246800564608547601e-13 -4.053248147816053415e-14 3.878107822938639537e-14
2.188000000000000000e+03 4.725434494018554688e+01 2.872648239135742188e+00 4.353488801552528320e-14 4.153328478665938017e-14 2.552045048540268340e-14 -2.802245536851800944e-14
2.189000000000000000e+03 4.727879714965820312e+01 2.129680871963500977e+00 6.680353698603619383e-14 -1.543737062010067107e-13 -2.627105211974387067e-14 1.150922280114367868e-14
2.190000000000000000e+03 4.893646240234375000e+01 2.038698196411132812e+00 3.953167816966168813e-14 8.556856937423640286e-14 3.753007494079578510e-14 -1.200962445539310169e-14
2.191000000000000000e+03 4.574391174316406250e+01 2.291988372802734375e+00 -7.255814669254213867e-15 1.976583908483084406e-14 3.753007324672989059e-15 6.154932385158198849e-14
2.192000000000000000e+03 4.508349609375000000e+01 3.115487337112426758e+00 -8.306656957331876034e-14 1.931547912066566841e-13 3.302646513474866152e-14 1.751403587587317678e-14
2.193000000000000000e+03 4.654520034790039062e+01 2.946180820465087891e+00 6.054852393121493148e-14 -6.555253030931379454e-14 -1.501203056924137712e-15 -6.605293026949732305e-14
2.194000000000000000e+03 4.435177612304687500e+01 3.206143379211425781e+00 8.231596285677988956e-14 3.527827173183811782e-14 3.527827173183811782e-14 -1.516214996437337259e-13
2.195000000000000000e+03 4.426314163208007812e+01 2.471468925476074219e+00 2.827265704267566820e-14 -1.075862116680249142e-14 5.254210593355363584e-15 -1.180946345488015359e-13
2.196000000000000000e+03 4.500381088256835938e+01 2.379753112792968750e+00 1.225982477429804485e-13 5.254210423948774134e-14 5.254210423948774134e-14 -6.004812227696550847e-15
2.197000000000000000e+03 4.581465530395507812e+01 3.028782367706298828e+00 7.781235643886455500e-14 1.248500543400699048e-13 6.079872391130669573e-14 2.201764398785440585e-14
2.198000000000000000e+03 4.648339843750000000e+01 2.208327293395996094e+00 -7.405934996122451319e-14 -1.461170865291877563e-13 -6.605293026949732305e-14 -6.154932385158198849e-14
2.199000000000000000e+03 4.352040100097656250e+01 3.340096235275268555e+00 5.504410996963601463e-15 1.396118734942747297e-13 4.353488801552528320e-14 -7.155734338404329264e-14
2.200000000000000000e+03 4.208160400390625000e+01 3.624291181564331055e+00 2.802245536851800944e-14 1.200962445539310169e-14 1.200962445539310169e-14 -1.060850151756061177e-13
2.201000000000000000e+03 4.214762496948242188e+01 3.124073743820190430e+00 -6.605293026949732305e-14 -7.405934996122451319e-14 -4.203368474684290867e-14 -8.006416303595401129e-15
2.202000000000000000e+03 4.225471496582031250e+01 2.620652198791503906e+00 8.932157585187644466e-14 3.828067826920286687e-14 3.828067826920286687e-14 -9.507618725244828400e-15
2.203000000000000000e+03 4.342701339721679688e+01 2.605990171432495117e+00 -1.225982443548486595e-14 -5.254210593355363584e-15 -5.254210593355363584e-15 2.101684237342145434e-14
2.204000000000000000e+03 4.263119506835937500e+01 3.513111829757690430e+00 -6.054852393121493148e-14 6.555253030931379454e-14 1.501203056924137712e-15 5.354290754798658736e-14
2.205000000000000000e+03 4.265762329101562500e+01 2.893339157104492188e+00 -9.057258252859884395e-14 7.556054984177509870e-14 -4.503608959014176322e-15 2.502005052521915490e-14
2.206000000000000000e+03 2.371788406372070312e+01 -1.034829497337341309e+00 1.396118734942747297e-13 1.055846084391590112e-13 7.355895000104098469e-14 -3.002405859738391247e-14
2.207000000000000000e+03 2.290890312194824219e+01 -6.706237792968750000e-01 -8.506817110811876886e-15 1.336070739720723877e-13 3.753007494079578510e-14 -1.421138868477195283e-13
2.208000000000000000e+03 2.298635482788085938e+01 -1.157213449478149414e+00 -9.007217918028352643e-15 1.791435652164635739e-13 5.104090097080536681e-14 -1.401122768425900472e-14
2.209000000000000000e+03 2.215120697021484375e+01 -2.782767117023468018e-01 -9.857899544406245607e-14 3.502806921064751181e-15 -2.852285871683332696e-14 -1.100882199392720293e-14
2.210000000000000000e+03 2.285777664184570312e+01 -1.680052876472473145e-01 -5.704571743366665393e-14 -2.532028948488973530e-13 -9.307458910578006450e-14 -1.170938346284344789e-13
2.211000000000000000e+03 2.223422241210937500e+01 -1.267524600028991699e+00 -1.486190998826325549e-13 7.355895000104098469e-14 -2.251804564210382886e-14 -1.120898214740720378e-13
2.212000000000000000e+03 2.441258430480957031e+01 -8.829056024551391602e-01 1.401122768425900472e-14 -1.541235129971785245e-13 -4.203368474684290867e-14 2.802245536851800944e-14
2.213000000000000000e+03 2.508922195434570312e+01 -7.265396118164062500e-01 -6.905533680686207210e-14 -4.103288143834406265e-14 -3.302646513474866152e-14 3.477786838352280030e-14
2.214000000000000000e+03 2.403813362121582031e+01 -3.115713298320770264e-01 5.229190425939597708e-14 -1.148420280313450226e-13 -1.876503747039789255e-14 -3.002405859738391247e-14
2.215000000000000000e+03 2.219159698486328125e+01 -7.760061621665954590e-01 -1.701363422162375377e-14 -5.304250758780305885e-14 -2.101684237342145434e-14 -2.902325867701685547e-14
2.216000000000000000e+03 2.355065155029296875e+01 -5.588377714157104492e-01 -2.902325867701685547e-14 7.906335633932337625e-14 1.501202929869195624e-14 -3.002406113848275424e-15
2.217000000000000000e+03 2.350938415527343750e+01 -6.331801414489746094e-02 8.306656957331876034e-14 1.271018609371593611e-13 6.305052373213257400e-14 -6.305052373213257400e-14
2.218000000000000000e+03 2.455982017517089844e+01 -5.249218642711639404e-02 -2.001604075898850282e-15 -5.804651735403371093e-14 -1.801443583605670529e-14 -8.319166278710106444e-15
2.219000000000000000e+03 2.060691452026367188e+01 -8.924546837806701660e-01 -9.732799554360363481e-14 4.978990107034654555e-14 -1.426142935841666348e-14 -4.453568793589234021e-14
2.220000000000000000e+03 2.141465187072753906e+01 -8.284914493560791016e-01 -1.093376216930626310e-13 1.818957582212094026e-13 2.176744400776264160e-14 -1.050842084789754827e-13
2.221000000000000000e+03 2.010277366638183594e+01 -1.234057188034057617e+00 -2.171740299530475204e-13 -2.532028948488973530e-13 -1.411130869273524713e-13 1.025822086780578402e-13
2.222000000000000000e+03 2.134324264526367188e+01 -3.273400664329528809e-01 -8.206576287668812530e-14 -2.181748434259417335e-13 -9.007218256841531545e-14 -1.251002475438980910e-13
2.223000000000000000e+03 1.946084213256835938e+01 -3.835231065750122070e-01 -1.733889453455622620e-13 -7.430954994131627744e-14 -7.430954994131627744e-14 7.706175649858926224e-14
2.224000000000000000e+03 1.935324859619140625e+01 -1.120623826980590820e+00 -1.521218996039172544e-13 7.205774334422682115e-14 -2.401924891078620339e-14 -8.006416303595401129e-15
2.225000000000000000e+03 2.075156402587890625e+01 -1.323369979858398438e+00 -3.520320970493151513e-13 1.693857456640940340e-13 -5.479391083657719763e-14 -7.305854326459387815e-14
2.226000000000000000e+03 2.147612190246582031e+01 -1.315930008888244629e+00 -2.491996951674291250e-13 -6.104892389139845998e-14 -9.307458910578006450e-14 5.304250758780305885e-14
2.227000000000000000e+03 2.042321777343750000e+01 -3.587145507335662842e-01 -7.130714340395152839e-14 -7.631114978205039145e-14 -4.428548795580057595e-14 9.307458910578006450e-14
2.228000000000000000e+03 1.706781387329101562e+01 -8.498843908309936523e-01 -8.231596285677988956e-14 -3.527827173183811782e-14 -3.527827173183811782e-14 9.007217918028352643e-15
2.229000000000000000e+03 1.780313491821289062e+01 -9.543285965919494629e-01 5.004010189747125706e-16 2.747201608994248589e-13 8.256616283687165381e-14 -5.004010189747125706e-16
2.230000000000000000e+03 1.633273124694824219e+01 -7.435764670372009277e-01 -1.386110735739076727e-13 -3.652927163229693908e-14 -5.254210423948774134e-14 6.004812227696550847e-15
2.231000000000000000e+03 1.853857803344726562e+01 -1.058050036430358887e+00 -2.451964887096973189e-14 -1.050842118671072717e-14 -1.050842118671072717e-14 3.402726844324750755e-14
2.232000000000000000e+03 1.860903930664062500e+01 -3.206039965152740479e-01 -1.381106736137241442e-13 2.381908689383371858e-13 3.002405859738391247e-14 1.170938346284344789e-13
2.233000000000000000e+03 1.644419097900390625e+01 -1.198618113994598389e-02 -1.771419518232023038e-13 -5.304250758780305885e-14 -6.905533680686207210e-14 -7.305854326459387815e-14
2.234000000000000000e+03 1.788726234436035156e+01 -2.188344895839691162e-01 -2.086672170774003798e-13 -6.655333022968085155e-14 -8.256616283687165381e-14 1.100882199392720293e-14
2.235000000000000000e+03 1.716560745239257812e+01 -1.163421869277954102e-01 -9.157338244896590096e-14 6.505213034913026604e-15 -2.552045048540268340e-14 1.701363422162375377e-14
2.236000000000000000e+03 1.425216674804687500e+01 3.718594610691070557e-01 -1.761411519028352468e-13 1.601283260719080226e-14 -4.803849782157240678e-14 1.671339390670045777e-13
2.237000000000000000e+03 1.486107063293457031e+01 -4.904564023017883301e-01 -3.622903301143953758e-13 -1.801443583605670529e-14 -1.140914348673333079e-13 3.302646513474866152e-14
2.238000000000000000e+03 1.338883495330810547e+01 -2.235203832387924194e-01 -1.393616802904465435e-13 3.177546523428984027e-14 -3.227586519447336877e-14 7.405934996122451319e-14
2.239000000000000000e+03 1.498471641540527344e+01 2.391885817050933838e-01 -1.663833323504657069e-13 -7.130714340395152839e-14 -7.130714340395152839e-14 -4.103288143834406265e-14
2.240000000000000000e+03 1.559718132019042969e+01 -6.234676241874694824e-01 -2.612093213168881212e-13 -8.907137587178468041e-14 -1.050842084789754827e-13 1.901523745048965680e-14
2.241000000000000000e+03 1.571725749969482422e+01 1.068236008286476135e-01 -2.049142105997603380e-13 -8.782037597132585915e-14 -8.782037597132585915e-14 -5.004010189747125706e-15
2.242000000000000000e+03 1.351961708068847656e+01 5.048320889472961426e-01 -7.906335633932337625e-14 -1.100882199392720293e-14 -2.702165375408505793e-14 1.195958344293521214e-13
2.243000000000000000e+03 1.412495326995849609e+01 -3.571392297744750977e-01 -2.334370760928572430e-13 -5.429350748826188011e-14 -8.631917609077527365e-14 1.291034607778934751e-13
2.244000000000000000e+03 1.115447902679443359e+01 1.927391290664672852e-01 -2.519519152772292658e-13 2.927345865710861972e-14 -6.680353698603619383e-14 -4.253408470702643718e-14
2.245000000000000000e+03 1.124617767333984375e+01 9.282501339912414551e-01 -2.226784430675934900e-13 -7.255814330441034965e-14 -8.857097591160115191e-14 -9.307458910578006450e-14
2.246000000000000000e+03 1.040858840942382812e+01 3.243718445301055908e-01 -3.662935297958636038e-13 2.602085213965210642e-14 -1.020818019416107336e-13 1.100882216333379238e-13
2.247000000000000000e+03 1.190096187591552734e+01 5.598175525665283203e-02 -2.139214234355910071e-13 9.132318246887413671e-14 -3.677947500052049234e-14 -1.501202929869195624e-14
2.248000000000000000e+03 1.277217197418212891e+01 6.438671946525573730e-01 -1.396118734942747297e-13 2.146720301521298779e-13 2.251804564210382886e-14 3.102486190588275849e-14
2.249000000000000000e+03 1.264777946472167969e+01 -8.565847575664520264e-02 -2.752205498481800731e-15 9.032238254850707970e-14 2.627105211974387067e-14 4.603689120457471473e-14
2.250000000000000000e+03 1.048394012451171875e+01 1.062875509262084961e+00 -1.586271126388302810e-13 -2.967377862525544252e-13 -1.366094737331735587e-13 1.010810020212436766e-13
2.251000000000000000e+03 1.200900745391845703e+01 7.885000705718994141e-01 -2.609591145605327789e-13 -1.118396214939802735e-13 -1.118396214939802735e-13 -8.757017599123409490e-14
2.252000000000000000e+03 8.878479003906250000e+00 3.908094167709350586e-01 -1.503705065195384827e-13 -8.731997601114233065e-14 -7.130714340395152839e-14 2.652125379390152943e-14
2.253000000000000000e+03 9.649624824523925781e+00 3.904530405998229980e-01 -2.179246366695863912e-13 -2.476984885106149614e-14 -7.280834328450211390e-14 4.953969770212299228e-14
2.254000000000000000e+03 7.383328437805175781e+00 1.131017208099365234e+00 -7.531034986168333445e-14 -3.227586519447336877e-14 -3.227586519447336877e-14 8.556856937423640286e-14
2.255000000000000000e+03 7.334236621856689453e+00 3.910171389579772949e-01 -1.128404281906109086e-13 1.803945583406588171e-13 2.026624073908026707e-14 -1.000802037949425141e-14
2.256000000000000000e+03 5.016752243041992188e+00 3.915317654609680176e-01 -9.507618725244828400e-15 -9.557658890669770702e-14 -3.152526186606628700e-14 -8.006416303595401129e-15
2.257000000000000000e+03 2.718189001083374023e+00 1.131889939308166504e+00 -1.576263093303314350e-14 -6.755413438521264483e-15 -6.755413438521264483e-15 2.652125379390152943e-14
2.258000000000000000e+03 3.472350120544433594e+00 3.917863070964813232e-01 -2.176744400776264160e-14 -1.008308020411519124e-13 -3.677947500052049234e-14 0.000000000000000000e+00
2.259000000000000000e+03 2.700102567672729492e+00 3.918899297714233398e-01 4.903929774193946378e-14 2.101684237342145434e-14 2.101684237342145434e-14 5.004010189747125706e-15
2.260000000000000000e+03 1.941753506660461426e+00 1.131839513778686523e+00 7.806255641895631925e-14 -5.804651735403371093e-14 6.004812227696550847e-15 -1.601283260719080226e-14
2.261000000000000000e+03 1.928834557533264160e+00 3.918395042419433594e-01 5.754611739385018243e-14 -1.125902282105191443e-13 -1.651323256737433076e-14 -4.503609128420765773e-14
2.262000000000000000e+03 1.157405972480773926e+00 3.914729654788970947e-01 6.930553678695383635e-14 -6.179952383167375274e-14 2.251804479507088161e-15 1.501202929869195624e-14
2.263000000000000000e+03 3.884848952293395996e-01 1.130593895912170410e+00 -2.527025050531091915e-14 -1.023320019217024979e-13 -3.828067826920286687e-14 -2.051644071917203133e-14
2.264000000000000000e+03 3.859011232852935791e-01 3.905938863754272461e-01 1.876503747039789255e-14 5.379310752807835161e-14 2.176744400776264160e-14 -1.501202929869195624e-14
2.265000000000000000e+03 4.244657516479492188e+00 3.916697502136230469e-01 -5.254210593355363584e-15 -2.251804479507088161e-15 -2.251804479507088161e-15 0.000000000000000000e+00
2.266000000000000000e+03 3.495604276657104492e+00 1.131786346435546875e+00 3.227586519447336877e-14 1.053344084590672469e-13 4.128308141843582690e-14 -1.551243095294137925e-14
2.267000000000000000e+03 4.273078918457031250e+00 1.131669759750366211e+00 1.050842118671072717e-14 4.503608959014176322e-15 4.503608959014176322e-15 -7.506014649345978118e-15
2.268000000000000000e+03 5.789580821990966797e+00 3.914089500904083252e-01 -4.003208151797700565e-14 1.200962343895356499e-13 2.401924891078620339e-14 8.857097591160115191e-14
2.269000000000000000e+03 5.828337669372558594e+00 1.131408929824829102e+00 1.276022524270134170e-14 -4.028228149806876990e-14 -8.256616283687165381e-15 8.656937607086703790e-14
2.270000000000000000e+03 6.606027126312255859e+00 1.131122112274169922e+00 -5.854691731421723944e-14 2.036632039230379387e-13 4.353488801552528320e-14 -1.751403587587317678e-14
2.271000000000000000e+03 6.562102794647216797e+00 3.911220729351043701e-01 -1.145918348275168364e-13 -1.406126869671689428e-13 -7.656135653840573374e-14 -1.801443583605670529e-14
2.272000000000000000e+03 8.106598854064941406e+00 3.909416198730468750e-01 -1.243496543798863763e-13 -5.329270756789482311e-14 -5.329270756789482311e-14 5.504410996963601463e-15
2.273000000000000000e+03 8.937906265258789062e+00 1.130809426307678223e+00 -1.663833323504657069e-13 -7.130714340395152839e-14 -7.130714340395152839e-14 8.857097591160115191e-14
2.274000000000000000e+03 9.714219093322753906e+00 1.130452990531921387e+00 -2.667137344314340908e-13 9.157338244896590096e-14 -5.254210423948774134e-14 9.307458910578006450e-14
2.275000000000000000e+03 8.160858154296875000e+00 1.130941629409790039e+00 -1.683849321911998209e-13 -2.094178237939392506e-13 -1.133408281507944371e-13 -1.165934346682509504e-13
2.276000000000000000e+03 5.050341606140136719e+00 1.131531715393066406e+00 -3.552847171192988207e-14 3.052446194569922999e-14 -1.501203056924137712e-15 2.451964887096973189e-14
2.277000000000000000e+03 1.165157318115234375e+00 1.131472945213317871e+00 -7.255814669254213867e-15 -1.403624802108136005e-13 -4.428548795580057595e-14 -1.200962445539310169e-14
2.278000000000000000e+03 7.085674285888671875e+01 1.834455108642578125e+01 8.899893761413549265e-14 1.296443014791107129e-13 6.559297105034750386e-14 1.651070231055429272e-13
2.279000000000000000e+03 7.157161712646484375e+01 1.839747047424316406e+01 1.775242144041663805e-13 1.218327603516242141e-13 8.980709513724260962e-14 -6.630060947953805850e-14
2.280000000000000000e+03 7.014206695556640625e+01 1.828974723815917969e+01 1.927267075313779388e-13 3.684621442050055318e-14 6.887187624675036868e-14 7.280398614702143778e-14
2.281000000000000000e+03 7.228646087646484375e+01 1.844851303100585938e+01 2.136057037629632283e-13 2.745491009016609585e-13 1.464464400441345404e-13 2.737930663979960821e-14
2.282000000000000000e+03 7.078132629394531250e+01 1.908099365234375000e+01 2.444934445872126716e-13 1.962848015634593990e-13 1.322334711346961900e-13 6.513103993849647666e-14
2.283000000000000000e+03 7.225451660156250000e+01 1.918817329406738281e+01 1.614979715713546482e-13 -2.510432183314148524e-13 -2.686357877140256589e-14 -6.022599411369122802e-14
2.284000000000000000e+03 7.004491424560546875e+01 1.902457809448242188e+01 8.274380258656982567e-14 3.546162725986436171e-14 3.546162725986436171e-14 3.823503335774122713e-14
2.285000000000000000e+03 7.151793670654296875e+01 1.913552093505859375e+01 2.884532890323754373e-13 3.066266316374688383e-13 1.785239843324695763e-13 5.129473302817495750e-14
2.286000000000000000e+03 7.374032592773437500e+01 1.920004653930664062e+01 2.372695647541358394e-14 -1.270841477841663791e-13 -3.100715891728514362e-14 -3.380244218212369312e-14
2.287000000000000000e+03 7.523300933837890625e+01 1.917081069946289062e+01 -5.089951761938146801e-14 2.069406657752986822e-13 4.681234309152244866e-14 4.558810604406507427e-14
2.288000000000000000e+03 7.301275634765625000e+01 1.846849632263183594e+01 -5.628787705575823141e-14 -1.156252692332757070e-13 -5.157394558077607605e-14 -1.453605980158631517e-13
2.289000000000000000e+03 7.448616027832031250e+01 1.918730545043945312e+01 -5.089395769511569079e-14 -2.181169639705899527e-14 -2.181169639705899527e-14 -3.131959549020936484e-14
2.290000000000000000e+03 7.448789215087890625e+01 1.844716835021972656e+01 7.693807613576297832e-14 3.297346120104127642e-14 3.297346120104127642e-14 -1.487365054253855789e-13
2.291000000000000000e+03 7.522699737548828125e+01 1.843080711364746094e+01 -4.687159135211699246e-14 7.141407284321291127e-14 7.362744108515596742e-15 -2.530890231276002739e-14
2.292000000000000000e+03 7.374979400634765625e+01 1.845977973937988281e+01 4.239252940791424576e-15 1.816822567905903782e-15 1.816822567905903782e-15 -9.747996003060463432e-14
2.293000000000000000e+03 7.299554443359375000e+01 1.920889472961425781e+01 1.575188276255884423e-13 2.047609179650980438e-13 1.086839223219532302e-13 -5.805273118773476848e-14
2.294000000000000000e+03 7.965508270263671875e+01 1.839410781860351562e+01 -2.588491521007905277e-14 -3.396900951713535677e-14 -1.795617860401044902e-14 1.088329865681428310e-13
2.295000000000000000e+03 7.834077453613281250e+01 1.833137702941894531e+01 -3.683718504928282234e-14 -1.072892656336400796e-13 -4.323793520487687059e-14 1.086795313031546639e-13
2.296000000000000000e+03 7.712158203125000000e+01 1.886017036437988281e+01 -1.459473004689765263e-13 -2.455526287945680730e-13 -1.174499814895688110e-13 -2.604555373797640995e-15
2.297000000000000000e+03 7.959309387207031250e+01 1.914372634887695312e+01 -8.860180791088120844e-14 -8.372314885644882576e-14 -5.169748703019901026e-14 4.921691038658332351e-14
2.298000000000000000e+03 7.879411315917968750e+01 1.914002037048339844e+01 -1.836016080380802051e-14 1.980106345816218250e-13 5.389514111690460463e-14 5.303833595053783143e-15
2.299000000000000000e+03 7.898009490966796875e+01 1.839118194580078125e+01 -1.433505278456564946e-13 -1.529378430538755329e-13 -8.888651262511232387e-14 4.359077524938512194e-14
2.300000000000000000e+03 7.754741668701171875e+01 1.858674049377441406e+01 1.238107296671958277e-14 -2.463240386402915094e-13 -7.018289351371984064e-14 3.940837727759577414e-14
2.301000000000000000e+03 7.776091003417968750e+01 1.823843955993652344e+01 -1.492976207072282957e-14 -2.809041519356847427e-13 -8.875017420192227169e-14 4.488207020121072477e-14
2.302000000000000000e+03 7.723519134521484375e+01 1.824313545227050781e+01 8.039131426523793422e-14 1.259553171397559401e-13 6.190398671099273109e-14 -1.353796581267255675e-14
2.303000000000000000e+03 7.605379486083984375e+01 1.917475318908691406e+01 -1.061501079635367162e-13 -4.549290292892547993e-14 -4.549290292892547993e-14 -2.528907665959659323e-14
2.304000000000000000e+03 7.598192596435546875e+01 1.843441581726074219e+01 -1.970031769822893492e-14 -7.706941367643244112e-14 -2.903091924299182336e-14 8.662939682550947762e-15
2.305000000000000000e+03 7.761851501464843750e+01 1.927333068847656250e+01 -1.147779787880054414e-13 -1.178169839249551543e-13 -6.977848610338274749e-14 3.385878681377504917e-14
2.306000000000000000e+03 7.667385101318359375e+01 1.836942100524902344e+01 -1.277769123148031483e-13 -2.377653195856366253e-13 -1.096626722806373633e-13 6.852316294676114028e-14
2.307000000000000000e+03 7.690111541748046875e+01 1.925911712646484375e+01 -1.546311364543362377e-13 2.523141235061341497e-14 -3.881991638408389955e-14 -3.217091103604498292e-14
2.308000000000000000e+03 7.809616851806640625e+01 1.892626380920410156e+01 -1.066906979430015667e-13 2.636452583183318814e-17 -3.199929877279947266e-14 9.055027506889995470e-14
2.309000000000000000e+03 6.784416961669921875e+01 1.776588058471679688e+01 -2.995632306665788058e-14 1.244144219071652291e-13 2.833742965215220455e-14 -7.426008152313073180e-15
2.310000000000000000e+03 6.795767974853515625e+01 1.837204360961914062e+01 2.299023771107789466e-14 -3.589798814110367609e-14 -3.872325467820913331e-15 -4.388987274745598244e-14
2.311000000000000000e+03 6.838352203369140625e+01 1.774797630310058594e+01 1.551944777387643387e-14 -8.485070556330659430e-14 -2.079937682860927978e-14 4.446498778985091826e-14
2.312000000000000000e+03 6.934860992431640625e+01 1.818100929260253906e+01 7.216207069827423881e-14 1.681794487744595057e-13 7.210245313131469214e-14 1.333277699399129657e-13
2.313000000000000000e+03 6.923367309570312500e+01 1.891350364685058594e+01 -1.166635334208998218e-14 -1.651281921529607066e-13 -5.303836051449330180e-14 6.872865991602861158e-14
2.314000000000000000e+03 6.841355895996093750e+01 1.874402809143066406e+01 3.567226063692398308e-14 8.391453764494682943e-14 3.587603982337442265e-14 -2.226148105644639580e-14
2.315000000000000000e+03 6.800460052490234375e+01 1.769305610656738281e+01 -3.829678544772785465e-14 1.265588111740156840e-13 2.647860568500727541e-14 -4.846574124016747587e-14
2.316000000000000000e+03 6.824581909179687500e+01 1.804478836059570312e+01 1.359707295757808798e-13 3.327788619753718757e-13 1.406248842416094047e-13 -4.674592893219413348e-14
2.317000000000000000e+03 6.866309356689453125e+01 1.813762855529785156e+01 6.551978062744115427e-14 1.653327539978544092e-13 6.925575835470959563e-14 -1.124399391546878138e-15
2.318000000000000000e+03 8.661221504211425781e+00 -1.128501772880554199e+00 6.087751152792850173e-14 1.175922559196532213e-13 5.354092887902180131e-14 -1.593539685515281412e-14
2.319000000000000000e+03 8.720003128051757812e+00 -3.885017633438110352e-01 1.931366579253218640e-14 8.277285581666064818e-15 8.277285581666064818e-15 -5.152004718027639041e-14
2.320000000000000000e+03 9.549606323242187500e+00 -3.893687427043914795e-01 7.708041155221959095e-14 2.160382604147331742e-13 8.793559955720675614e-14 3.547541695624566171e-14
2.321000000000000000e+03 7.889697074890136719e+00 -3.882405161857604980e-01 -4.065271102875970405e-15 -9.324415832555679740e-14 -2.919282789679358836e-14 6.891638952219447667e-14
2.322000000000000000e+03 7.058670520782470703e+00 -3.882131278514862061e-01 -8.607226937478243411e-14 1.003647306322547061e-13 4.287739224274628863e-15 3.311981494179966345e-14
2.323000000000000000e+03 6.228112220764160156e+00 -3.882330358028411865e-01 -4.489420310114719537e-14 -1.107422733701533824e-13 -4.669094294139017332e-14 -1.584939590595219050e-14
2.324000000000000000e+03 5.397459506988525391e+00 -3.882989287376403809e-01 8.359893316879987712e-14 1.730809641659405984e-13 7.700396852279578486e-14 -1.064250057303045213e-14
2.325000000000000000e+03 4.566254138946533203e+00 -3.882672786712646484e-01 -2.290924272659554395e-14 -5.556919670506726971e-14 -2.354353149068566520e-14 7.331417780807522599e-14
2.326000000000000000e+03 3.735541105270385742e+00 -3.881431519985198975e-01 -1.649902274265119262e-14 2.216837282319195079e-13 6.155541571253864142e-14 -3.125818221340163905e-14
2.327000000000000000e+03 2.905454397201538086e+00 -3.881077766418457031e-01 1.757885930732654839e-14 -1.297190436663764324e-13 -3.364205818762698585e-14 -5.619873869652097786e-14
2.328000000000000000e+03 2.075164079666137695e+00 -3.881983160972595215e-01 3.653091487621461242e-14 -3.009484344672005984e-14 1.930821555903307861e-15 7.384426457899412322e-14
2.329000000000000000e+03 1.245145082473754883e+00 -3.885309398174285889e-01 5.292485809956122556e-14 -2.306886608550561685e-14 8.956797434810093161e-15 5.518481484766916273e-15
2.330000000000000000e+03 4.151333570480346680e-01 -3.893930315971374512e-01 2.419877246175906882e-14 5.612185182183281051e-14 2.409618660745120600e-14 4.292263904872271885e-14
2.331000000000000000e+03 4.123342633247375488e-01 -1.129392981529235840e+00 4.377930784278498411e-14 -1.642412334607046276e-13 -3.613857599130999854e-14 4.460244090839955711e-14
2.332000000000000000e+03 9.485227584838867188e+00 -1.129368782043457031e+00 1.325780733602759196e-15 2.293229354240894358e-13 6.919461612844499121e-14 1.520688922820780803e-14
2.333000000000000000e+03 7.836514472961425781e+00 -1.128240466117858887e+00 4.736253842460916297e-14 6.604917621947509199e-14 3.402351439322527649e-14 8.611377398919789483e-14
2.334000000000000000e+03 7.011085987091064453e+00 -1.128213167190551758e+00 6.949657998600936026e-14 -1.532195458833415791e-13 -2.511689010801284455e-14 5.217227610218935774e-14
2.335000000000000000e+03 6.186125755310058594e+00 -1.128233075141906738e+00 4.615474736885567808e-14 2.027844038521298131e-13 7.468174299460339505e-14 -2.774146235266176236e-14
2.336000000000000000e+03 5.361071109771728516e+00 -1.128298878669738770e+00 -1.282281437064644591e-13 -3.294606070163713651e-13 -1.373066292826088941e-13 -8.125820844103945340e-14
2.337000000000000000e+03 4.535463809967041016e+00 -1.128267288208007812e+00 3.751871114677542141e-14 1.075813429226440965e-13 4.353001588201267646e-14 1.526923661294976586e-13
2.338000000000000000e+03 3.710349321365356445e+00 -1.128143191337585449e+00 -7.707455686048816923e-14 -1.245338467764645074e-13 -6.048252312396487640e-14 -7.030896589758917070e-14
2.339000000000000000e+03 2.885860681533813477e+00 -1.128107786178588867e+00 6.063086230995162751e-14 1.174865462078358846e-13 5.343522594346804266e-14 -7.850070284564844569e-14
2.340000000000000000e+03 2.061168670654296875e+00 -1.128198385238647461e+00 -8.271928098274681368e-15 -9.504701035554716237e-14 -3.099567992678395334e-14 9.708082455333125194e-14
2.341000000000000000e+03 1.236747741699218750e+00 -1.128530979156494141e+00 -4.689811703589320813e-14 -1.573520366738787035e-13 -6.127504780699746800e-14 5.414293467639321941e-15
2.342000000000000000e+03 1.105858802795410156e+01 -5.865809917449951172e-01 -1.093121971521178459e-13 1.361557080189340629e-13 8.053054784704170160e-15 8.236164164955941946e-14
2.343000000000000000e+03 1.167972469329833984e+01 -1.452614903450012207e+00 -1.144649018581730959e-13 2.712002443363420445e-13 4.702060477632975799e-14 7.320868493669238641e-14
2.344000000000000000e+03 1.025387477874755859e+01 -1.193646550178527832e+00 -5.025255046613684440e-14 3.902217362173471260e-13 1.019907560641762634e-13 3.738131626174190630e-16
2.345000000000000000e+03 1.239226341247558594e+01 -1.585148334503173828e+00 -1.369519037427600547e-14 -5.869367424265851951e-15 -5.869367424265851951e-15 7.887421049406970197e-14
2.346000000000000000e+03 1.251665687561035156e+01 -8.556226491928100586e-01 -8.907906693094574946e-14 2.134534682254191074e-13 3.731231971071564957e-14 -8.395478865060035378e-15
2.347000000000000000e+03 1.178777027130126953e+01 -7.200965881347656250e-01 -9.384515191855624661e-14 -1.734387542709926039e-14 -3.335670634022416814e-14 6.559136507587950971e-14
2.348000000000000000e+03 1.096688938140869141e+01 -1.322091937065124512e+00 5.196918470649208865e-14 -2.347844039682096123e-14 8.547223123494748775e-15 1.958445544950580819e-14
2.349000000000000000e+03 1.032922649383544922e+01 -4.551429152488708496e-01 -8.558610634437635589e-14 9.071188387303839168e-15 -2.295447598004481810e-14 -1.371423455484230280e-13
2.350000000000000000e+03 4.974968719482421875e+01 6.135250329971313477e-01 -1.090477670185122094e-13 -2.297385643269117539e-13 -1.016358966931217578e-13 4.798365074417179632e-14
2.351000000000000000e+03 4.901140213012695312e+01 1.282631158828735352e+00 -2.557335955141997602e-14 -5.671095984851638738e-14 -2.468529632820067737e-14 -5.171825627806568570e-14
2.352000000000000000e+03 4.978162384033203125e+01 1.065497040748596191e+00 -4.669328075232459518e-14 2.573954233347358622e-14 -6.286122033875071041e-15 6.057224085373805189e-14
2.353000000000000000e+03 5.040945053100585938e+01 6.835607886314392090e-01 -1.739163961499493039e-13 -1.202865389758611681e-13 -8.826088053774314157e-14 1.130466773251355417e-13
2.354000000000000000e+03 4.794509887695312500e+01 6.084127426147460938e-01 -8.282980014763866028e-14 -1.727513260479235369e-13 -7.667433718104230134e-14 -2.697063695967193142e-14
2.355000000000000000e+03 4.723731231689453125e+01 1.378266572952270508e+00 4.638405782240225678e-15 -8.951400818496546563e-14 -2.546268114433404561e-14 -8.150567081064569175e-14
2.356000000000000000e+03 4.713964462280273438e+01 6.398035287857055664e-01 -5.212595695250170358e-14 1.377886249109144812e-13 2.569880004871065438e-14 -1.000790264191458306e-14
2.357000000000000000e+03 4.944421386718750000e+01 4.038022458553314209e-01 -4.899571281460554650e-14 -1.125000564710862405e-13 -4.844873281858660952e-14 -6.745767003801458883e-14
2.358000000000000000e+03 4.875239181518554688e+01 5.439907908439636230e-01 -3.079176860319374209e-14 1.926827973433922758e-13 4.856730726680684451e-14 3.825710280118193793e-15
2.359000000000000000e+03 4.989886474609375000e+01 3.266886174678802490e-01 1.647079960484867933e-13 2.993438830145578322e-13 1.392155569426498096e-13 -5.375488601336644856e-14
2.360000000000000000e+03 4.812343597412109375e+01 1.346964478492736816e+00 2.292930258436889392e-15 1.839864794805218251e-13 5.588382201112719605e-14 8.241184698640907635e-14
2.361000000000000000e+03 5.017858886718750000e+01 4.406909644603729248e-01 -5.152975756598371371e-14 1.609196174749694119e-13 3.281695661744299386e-14 3.591496268136665226e-14
2.362000000000000000e+03 1.473077964782714844e+01 -1.259489893913269043e+00 7.707253075767833694e-14 3.303108315837709197e-14 3.303108315837709197e-14 -3.219169680105412983e-15
2.363000000000000000e+03 1.399090099334716797e+01 -1.125491499900817871e+00 4.878655242784120036e-15 2.090852337661010078e-15 2.090852337661010078e-15 1.778405303879890265e-14
2.364000000000000000e+03 1.312020874023437500e+01 -1.719582676887512207e+00 -8.705553232500953809e-14 1.456942883394998778e-13 1.759162578790756520e-14 4.649911708389138643e-14
2.365000000000000000e+03 1.535054302215576172e+01 -2.123512268066406250e+00 -3.494901308458142619e-14 7.652374827554764281e-14 1.247242123491622279e-14 -2.374514989608765905e-15
2.366000000000000000e+03 1.547062015533447266e+01 -1.393221139907836914e+00 -1.192364468201615943e-14 -9.661202908647567589e-14 -3.256070204584425587e-14 -4.155722193774878670e-14
2.367000000000000000e+03 1.460713481903076172e+01 -1.989134907722473145e+00 5.841021974905755143e-14 1.165348470933552649e-13 5.248352005272384491e-14 -4.267928648297655836e-14
2.368000000000000000e+03 1.325099086761474609e+01 -9.912301898002624512e-01 -5.213924012318054552e-15 4.351640914474798338e-14 1.149074562443227338e-14 6.118810156902770858e-14
2.369000000000000000e+03 1.386368751525878906e+01 -1.854490160942077637e+00 -1.144084691350952254e-14 -5.065416944401157640e-14 -1.862850422962997188e-14 7.602019735280032831e-14
2.370000000000000000e+03 2.599559402465820312e+01 -1.565289378166198730e+00 -7.962842895909566510e-14 -1.256283624221157802e-13 -6.157703876961614919e-14 2.196993401006736013e-14
2.371000000000000000e+03 2.647139739990234375e+01 -1.981183648109436035e+00 -2.003108101481312908e-13 -8.584748715937187691e-14 -8.584748715937187691e-14 2.493910026407641922e-13
2.372000000000000000e+03 2.619397926330566406e+01 -2.111383676528930664e+00 -9.734440765398963413e-14 -1.332209353683416753e-13 -6.916960493957846623e-14 7.619516725464875462e-14
2.373000000000000000e+03 2.563897132873535156e+01 -2.181031227111816406e+00 -2.572678398440886305e-13 -1.331331285448975055e-13 -1.171202891614431252e-13 1.171282444948837376e-13
2.374000000000000000e+03 2.465613555908203125e+01 -1.561793804168701172e+00 -1.774933417473048558e-13 -3.031762327624330788e-14 -6.234328510249312338e-14 6.377835796788451292e-15
2.375000000000000000e+03 2.387401390075683594e+01 -1.677321195602416992e+00 -1.468518367889540266e-13 9.719181975073945545e-14 -1.489800849959616036e-14 -2.872551643166160185e-14
2.376000000000000000e+03 2.308360862731933594e+01 -1.799807786941528320e+00 -1.759644676063015778e-13 -2.966239585769706033e-14 -6.168806107207866485e-14 2.449651978931200597e-14
2.377000000000000000e+03 2.229205894470214844e+01 -1.920661091804504395e+00 -2.181154291468895279e-13 -4.772709462884383580e-14 -7.975275984322544032e-14 -8.878896153464294061e-14
2.378000000000000000e+03 2.236020088195800781e+01 -2.660181283950805664e+00 -6.718767659201138609e-14 -2.117985149242829213e-13 -8.369585406675650319e-14 -1.207071670671381811e-14
2.379000000000000000e+03 2.485083580017089844e+01 -2.286876916885375977e+00 -2.585482826097940112e-13 -1.108064039286558999e-13 -1.108064039286558999e-13 2.107153359675977000e-14
2.380000000000000000e+03 2.402652740478515625e+01 -2.407216548919677734e+00 -2.388535333061603261e-13 3.488704415416030158e-14 -6.118994471272093394e-14 4.189871512889561944e-14
2.381000000000000000e+03 2.540208625793457031e+01 -1.460760474205017090e+00 -8.759110109316306514e-14 1.912156956211663594e-13 3.108737971365370389e-14 8.936986350613351782e-14
2.382000000000000000e+03 2.319393539428710938e+01 -2.534515619277954102e+00 -1.586728117604005450e-13 -6.800263748375084960e-14 -6.800263748375084960e-14 3.598750258296951055e-14
2.383000000000000000e+03 1.922108840942382812e+01 -1.901556968688964844e+00 -1.295762203589422012e-14 4.019768323542879940e-14 8.172018021047194880e-15 3.241366051433269835e-14
2.384000000000000000e+03 2.075429344177246094e+01 -2.688717842102050781e+00 -5.806585003402184308e-14 -7.063631363851685663e-14 -3.861065181226704113e-14 9.880920544659901883e-15
2.385000000000000000e+03 1.917129516601562500e+01 -2.640394687652587891e+00 -8.845176110647279266e-14 -2.209116949699468924e-13 -9.280903411242047429e-14 5.066059334188355301e-14
2.386000000000000000e+03 2.154723358154296875e+01 -2.711827993392944336e+00 -1.640587080249666929e-13 1.126929224850442557e-13 -1.540973667841626787e-14 -1.498396540308352676e-13
2.387000000000000000e+03 2.151402282714843750e+01 -1.970406651496887207e+00 -6.093160644007195037e-14 1.963740178497277999e-14 -1.238826258237587727e-14 -3.040285511952782460e-14
2.388000000000000000e+03 1.998429870605468750e+01 -1.925167441368103027e+00 -2.328975364342469878e-14 -1.929851135666627027e-13 -6.488245948539986263e-14 -3.706787955466521456e-14
2.389000000000000000e+03 1.996217155456542969e+01 -2.664836645126342773e+00 -2.218538361646506946e-14 1.277448199304975773e-13 3.166783106361634181e-14 -6.711837574439882825e-14
2.390000000000000000e+03 2.074875450134277344e+01 -1.948217391967773438e+00 -4.460768573640895573e-14 1.638862114593242492e-13 3.578355737806140913e-14 -1.391739845655985686e-14
2.391000000000000000e+03 1.771456718444824219e+01 -1.730482935905456543e+00 5.587251920347903467e-14 2.527000960914072003e-13 9.257179034828991182e-14 -6.182549047370478057e-14
2.392000000000000000e+03 1.610380172729492188e+01 -2.246368169784545898e+00 6.563966628266373893e-14 -3.836272662385842303e-13 -9.539627930914978959e-14 -5.154390301620286052e-14
2.393000000000000000e+03 1.839386558532714844e+01 -2.573463201522827148e+00 -4.034138745712817498e-14 1.428391503384765504e-13 3.074932886440451263e-14 -3.529113308010922712e-14
2.394000000000000000e+03 1.696483802795410156e+01 -1.623387813568115234e+00 6.868531893418350354e-14 -1.306917491979489587e-13 -1.860192941794281546e-14 3.639176091550788694e-14
2.395000000000000000e+03 1.846432685852050781e+01 -1.836017131805419922e+00 8.260114529759325641e-15 -4.221090098006745339e-14 -1.018523576568584887e-14 1.905058492947196680e-16
2.396000000000000000e+03 1.763043975830078125e+01 -2.465977191925048828e+00 -6.309858776969157201e-14 -1.185441447695140260e-13 -5.449282111701439502e-14 -2.534659866704463277e-14
2.397000000000000000e+03 1.621526145935058594e+01 -1.514777898788452148e+00 4.920206359308385013e-14 -7.041529902565568655e-14 -6.363969867441898395e-15 2.447020925190439289e-14
2.398000000000000000e+03 1.686704444885253906e+01 -2.356930017471313477e+00 -7.028879973718094032e-14 -2.588785034864787837e-13 -9.875019096709791722e-14 -1.917202833122411132e-14
2.399000000000000000e+03 6.815097045898437500e+01 1.614118003845214844e+01 -8.744053929272271874e-14 -1.747273658224413051e-13 -7.865037017929649155e-14 1.786244254993549913e-14
2.400000000000000000e+03 6.814373779296875000e+01 1.533703041076660156e+01 9.028661742934221413e-14 -2.586868978575462830e-13 -5.052008412846122065e-14 -3.668584397853100199e-14
2.401000000000000000e+03 7.236592102050781250e+01 1.773731040954589844e+01 -2.187227958157841184e-14 2.193809099226146087e-13 5.925259062697016410e-14 9.543153451448040808e-15
2.402000000000000000e+03 7.655450439453125000e+01 1.771897315979003906e+01 1.249802534684582578e-13 -8.368987740228067684e-14 1.238711231163350593e-14 2.310742471933052711e-14
2.403000000000000000e+03 6.708494567871093750e+01 1.037787437438964844e+01 -5.231990039236862622e-14 -6.817376524415053041e-14 -3.614810002976892589e-14 9.887133531328012176e-15
2.404000000000000000e+03 6.564340209960937500e+01 9.462751388549804688e+00 -4.838368068823747925e-14 -1.551292731424847027e-13 -6.105388411633758117e-14 -1.798008492310057549e-13
2.405000000000000000e+03 6.000455093383789062e+01 2.398864746093750000e+00 -1.577766373496783392e-13 6.963428721444217540e-14 -2.644270334650495463e-14 -1.260158867717482006e-15
2.406000000000000000e+03 5.623883438110351562e+01 -8.636907577514648438e+00 5.439161931454234572e-15 1.109895731094337479e-13 3.492861991934333166e-14 3.301273303660777481e-14
2.407000000000000000e+03 5.642701339721679688e+01 -9.574040412902832031e+00 1.118642362714274835e-14 4.794181493987395917e-15 4.794181493987395917e-15 6.322188866175748601e-14
2.408000000000000000e+03 5.708514404296875000e+01 -9.993645668029785156e+00 -5.060284263553975481e-14 -4.456240674318052986e-14 -2.854957413598972760e-14 -7.483748863668093776e-14
2.409000000000000000e+03 6.070763397216796875e+01 -1.134775733947753906e+01 1.853740278683416176e-13 -1.493087337794962721e-13 1.081959059834585596e-14 -9.024616313578134874e-14
2.410000000000000000e+03 6.321525955200195312e+01 -1.116594982147216797e+01 5.385472748092520745e-14 -1.599231950208737651e-13 -3.182054093961092511e-14 -8.723624849837213757e-14
2.411000000000000000e+03 6.762380981445312500e+01 -1.395066356658935547e+01 -1.811316802926773994e-13 -5.351373641090950706e-13 -2.148807119652790254e-13 2.856244226052441493e-14
2.412000000000000000e+03 6.777496337890625000e+01 -1.581852531433105469e+01 -2.792756057337121567e-14 -8.469237680955310488e-13 -2.624553948737257114e-13 1.902102200789304587e-13
2.413000000000000000e+03 6.809290313720703125e+01 -1.902864646911621094e+01 1.130770349859651358e-13 -6.606781094431468659e-13 -1.642803189490227300e-13 1.889570839613786621e-15
2.414000000000000000e+03 6.882690429687500000e+01 -1.972270774841308594e+01 -1.049253847191676178e-14 -6.450100870081243443e-13 -1.966507875593090371e-13 -4.036313587508187639e-14
2.415000000000000000e+03 6.809844207763671875e+01 -1.985956573486328125e+01 -2.748308342243131058e-14 -9.039219568164613694e-13 -2.794215054648108154e-13 5.856576210322775311e-14
2.416000000000000000e+03 6.878120422363281250e+01 -1.886765861511230469e+01 -1.730949639264928175e-13 -7.604478028180872151e-13 -2.800628381548903034e-13 6.869689956863836433e-14
2.417000000000000000e+03 6.766947174072265625e+01 -2.155494880676269531e+01 -1.133798797577946493e-13 -4.489121747941471341e-13 -1.686876143327034616e-13 -1.647401019853195203e-13
2.418000000000000000e+03 6.767774963378906250e+01 -2.277420616149902344e+01 -5.142656184795382779e-14 -2.965456385225356817e-13 -1.043916607887732106e-13 -1.403234760376584345e-13
2.419000000000000000e+03 6.774641418457031250e+01 -3.110080146789550781e+01 2.470290783723998879e-14 -1.952923093422390122e-13 -5.117681926565358086e-14 -1.199479561899211011e-13
2.420000000000000000e+03 6.977485656738281250e+01 -3.534332656860351562e+01 -5.659034235682737501e-14 -3.330719218225947076e-13 -1.168986782373870881e-13 -7.819371100050917511e-14
2.421000000000000000e+03 7.864438629150390625e+01 -3.736196899414062500e+01 5.407400313514566445e-15 -6.153203489268899151e-13 -1.829738888615289882e-13 -4.667196855633872973e-15
2.422000000000000000e+03 7.876178741455078125e+01 -3.815193939208984375e+01 6.482638336319278619e-15 -5.919840355764205420e-13 -1.756504284470411514e-13 9.429135193451086694e-15
2.423000000000000000e+03 7.955824279785156250e+01 -3.571504592895507812e+01 3.688220993262707192e-14 -6.018311391776942632e-13 -1.694846791123333363e-13 2.155421870988442207e-15
2.424000000000000000e+03 7.882012176513671875e+01 -3.075636482238769531e+01 -2.576049009353389551e-16 -5.948727296346822957e-13 -1.785391089527757491e-13 8.080912004273469590e-15
2.425000000000000000e+03 7.210490417480468750e+01 -3.283922195434570312e+01 3.736369734116430641e-14 -3.271191097945630455e-13 -8.692662068670101161e-14 -4.638650574761982170e-14
2.426000000000000000e+03 6.613744354248046875e+01 1.010286331176757812e+01 -9.571571237421833134e-14 -9.820970263158673719e-14 -5.817762450174152056e-14 -2.399962654553011027e-14
2.427000000000000000e+03 6.394494628906250000e+01 7.744967460632324219e+00 -2.310232219285626720e-14 -6.708967826814585256e-14 -2.705760183236653044e-14 5.948526718944913139e-14
2.428000000000000000e+03 6.093507766723632812e+01 5.129662990570068359e+00 -2.831578626628396267e-14 -7.504289073825831657e-14 -3.100760276254950487e-14 -7.868395334158923005e-14
2.429000000000000000e+03 6.216754150390625000e+01 6.138376235961914062e+00 -1.556162493245201450e-14 9.627036987687118130e-14 2.421262314451257114e-14 1.779937586481473294e-14
2.430000000000000000e+03 5.597172164916992188e+01 1.113978862762451172e+00 -1.710530859750508670e-13 -1.419348850690421715e-13 -9.389638724746976473e-14 -1.516338731010272167e-13
2.431000000000000000e+03 5.667712783813476562e+01 1.509296894073486328e+00 -1.861490562388157244e-13 -1.115174186311742102e-14 -5.919023544952509153e-14 -2.779993134294483220e-14
2.432000000000000000e+03 5.370125198364257812e+01 3.057257533073425293e-01 -2.371836722251524643e-13 -3.304048928984976152e-13 -1.702765668265895926e-13 -4.933449888845295450e-14
2.433000000000000000e+03 5.213189315795898438e+01 1.068741604685783386e-01 -1.598903542829592950e-15 2.219023033898925856e-14 6.177397731798456304e-15 7.292700243601707433e-14
2.434000000000000000e+03 5.104416656494140625e+01 -6.540047526359558105e-01 -1.644527613045565495e-13 1.125240376678889043e-13 -1.557861641337393577e-14 1.036279843538582060e-14
2.435000000000000000e+03 5.012256240844726562e+01 -8.558571338653564453e-02 -2.031955807497813626e-14 -2.674871771562309375e-13 -8.634202565156040565e-14 7.647832020452050017e-14
2.436000000000000000e+03 5.064810943603515625e+01 -8.400180816650390625e+00 -1.329227933234353176e-13 -5.696690948825411382e-14 -5.696690948825411382e-14 -3.526735855934569341e-14
2.437000000000000000e+03 5.212536239624023438e+01 -7.712573528289794922e+00 -1.360038790572046241e-13 -2.870421185897226168e-13 -1.269137925178145943e-13 7.776465154327519280e-14
2.438000000000000000e+03 5.315856933593750000e+01 -8.150893211364746094e+00 -7.865643493519883234e-14 -1.023363251778652838e-13 -5.429782735629287704e-14 2.589356511053641369e-14
2.439000000000000000e+03 5.562453460693359375e+01 -8.209959030151367188e+00 1.099273090902821298e-14 -1.454091296156090340e-13 -4.032492113663355138e-14 -2.640891350817308608e-14
2.440000000000000000e+03 5.046602630615234375e+01 1.420953124761581421e-02 -1.316599417379785142e-13 -5.642569270440829510e-14 -5.642569270440829510e-14 1.446580214555653887e-13
2.441000000000000000e+03 4.927510833740234375e+01 -1.777477860450744629e-01 -6.185180270517828816e-14 -3.632439807927864694e-15 -1.964527241511866695e-14 1.663371453379178244e-14
2.442000000000000000e+03 4.632747650146484375e+01 7.919944822788238525e-03 -1.067536968654865526e-13 -4.575158340288515424e-14 -4.575158340288515424e-14 1.875236755157286272e-14
2.443000000000000000e+03 4.262476348876953125e+01 4.056013226509094238e-01 -1.052305893247881818e-13 -2.222334932722690171e-14 -3.823618193441770396e-14 -9.626323616538940559e-15
2.444000000000000000e+03 4.181917190551757812e+01 5.626694858074188232e-02 -1.934114760709926273e-13 -3.802717960400131547e-13 -1.721049789227963034e-13 -3.004375465450641672e-15
2.445000000000000000e+03 4.046733856201171875e+01 -3.030702829360961914e+00 1.222797599666810425e-14 -4.051038747076435298e-14 -8.484723950448642971e-15 -2.863005243037425318e-13
2.446000000000000000e+03 3.794225692749023438e+01 -3.579799175262451172e+00 5.461791094266491009e-14 6.915862739258205050e-14 3.713296217820044598e-14 2.972617870917473003e-15
2.447000000000000000e+03 3.658479309082031250e+01 -4.660855293273925781e+00 2.475452568623248695e-13 -2.141658161577963959e-13 1.001383187254536317e-14 -2.967470155235477081e-14
2.448000000000000000e+03 3.438165664672851562e+01 -1.539596843719482422e+01 -2.132924913078593221e-13 -9.141106383121766488e-14 -9.141106383121766488e-14 7.035076189133848690e-14
2.449000000000000000e+03 3.364070129394531250e+01 -1.573865985870361328e+01 -4.628432511387392534e-13 -3.813651868259104738e-13 -2.532625530734383679e-13 2.680070249928834247e-13
2.450000000000000000e+03 3.493976593017578125e+01 -1.754649543762207031e+01 -1.665300791145116199e-13 -4.030644091060353595e-13 -1.708783532424276719e-13 2.504403748184585998e-13
2.451000000000000000e+03 3.639455413818359375e+01 -1.835822677612304688e+01 -2.280657216899295570e-13 -2.750273695849986266e-13 -1.509279355139947487e-13 -1.589681111627359172e-14
2.452000000000000000e+03 4.696951293945312500e+01 -2.301119041442871094e+01 -8.567564789129650249e-14 -4.713521239985141165e-13 -1.671083383432067637e-13 1.504299479036450005e-13
2.453000000000000000e+03 4.878825378417968750e+01 -2.576005935668945312e+01 -3.026042686826019290e-13 -3.262736489404588491e-13 -1.886633752869182334e-13 2.029657231129508577e-13
2.454000000000000000e+03 4.728945159912109375e+01 -2.378193283081054688e+01 -2.049282239128397132e-13 -3.737698085065632725e-13 -1.736094178573371893e-13 2.804293255942447161e-13
2.455000000000000000e+03 4.675185775756835938e+01 -2.220919036865234375e+01 -1.743510934584802108e-14 -5.793590433789130856e-13 -1.790382485279337632e-13 1.595116454287254237e-13
2.456000000000000000e+03 4.677391433715820312e+01 -1.570177173614501953e+01 3.532542436194587021e-14 6.089041353378107924e-14 2.886475170753126374e-14 4.777183152098601893e-14
2.457000000000000000e+03 4.769443130493164062e+01 -1.258067131042480469e+01 6.106758572129236673e-14 -2.025829184309005382e-13 -4.245460252338788265e-14 -1.368288349377216884e-13
2.458000000000000000e+03 4.806465530395507812e+01 -1.184899520874023438e+01 -1.237320928224386329e-13 -2.360318429421581765e-13 -1.079291820846317584e-13 -7.335813542990593517e-14
2.459000000000000000e+03 5.028003692626953125e+01 -9.399264335632324219e+00 -1.736754186645872444e-13 -1.201832687189319238e-13 -8.815761028081389727e-14 -3.596248461783940753e-14
2.460000000000000000e+03 5.094676208496093750e+01 -8.929736137390136719e+00 1.084135223001353454e-13 4.646293861264826075e-14 4.646293861264826075e-14 -4.269589002280863715e-15
2.461000000000000000e+03 4.064246368408203125e+01 -1.817857980728149414e+00 4.778063727550567463e-14 9.039679608698926450e-15 1.704609591229432758e-14 -1.748990898940358529e-13
2.462000000000000000e+03 4.487230682373046875e+01 -1.266717314720153809e+00 -1.362521478021766486e-13 -1.264283155840957920e-14 -4.466849592575823646e-14 1.105684452687178548e-14
2.463000000000000000e+03 4.666048431396484375e+01 -1.651036834716796875e+01 3.966640723025195714e-14 -2.875105955721900253e-14 3.274603963096707482e-15 -1.650116743007364051e-14
2.464000000000000000e+03 3.579401779174804688e+01 -1.616741371154785156e+01 -1.915950037512104132e-13 -3.566178385580598409e-13 -1.644638472717702138e-13 3.379186443467838141e-14
2.465000000000000000e+03 3.415021514892578125e+01 -4.697437763214111328e+00 2.501023205810776195e-13 3.856028045695972239e-14 8.659877827853212917e-14 7.382340723970093332e-14
2.466000000000000000e+03 3.185178184509277344e+01 -5.134388923645019531e+00 7.252328620456494068e-14 -8.329596642422595898e-14 -3.231804023546658126e-15 1.071407841461181898e-13
2.467000000000000000e+03 2.993358612060546875e+01 -5.165827274322509766e+00 -2.378526249655760205e-13 -2.759154599132722374e-14 -7.963324688249964756e-14 8.840268571157477301e-15
2.468000000000000000e+03 2.864788055419921875e+01 -4.356868743896484375e+00 -2.792801526065730178e-13 -1.196914881660196550e-13 -1.196914881660196550e-13 1.041506629746204171e-13
2.469000000000000000e+03 2.700929069519042969e+01 -3.224668979644775391e+00 -2.435222975962630931e-13 -2.187440631190237794e-13 -1.386799068593333462e-13 1.900545557520158524e-13
2.470000000000000000e+03 2.810094451904296875e+01 -3.834387063980102539e+00 -7.260365269060042870e-14 -1.226177498295580315e-13 -5.856641940079482245e-14 2.542264901199409177e-13
2.471000000000000000e+03 2.758319664001464844e+01 -3.363166332244873047e+00 -2.105811185149075726e-13 -4.449810338995677239e-14 -7.652376860433837691e-14 1.165903989021679910e-13
2.472000000000000000e+03 2.411161994934082031e+01 -3.115520477294921875e+00 -1.429932832298225209e-13 2.589738048574402596e-13 3.479415513303260599e-14 -6.760572462093106250e-14
2.473000000000000000e+03 2.067963981628417969e+01 -4.085491180419921875e+00 -4.827617526657196345e-14 -2.068978939995941291e-14 -2.068978939995941291e-14 -1.477034640429142343e-13
2.474000000000000000e+03 2.073397827148437500e+01 -3.397074460983276367e+00 -1.078251935437632425e-13 9.104204884554864541e-14 -5.034944680013800009e-15 -1.869821571881535860e-13
2.475000000000000000e+03 1.753227424621582031e+01 -3.167683124542236328e+00 -7.327146701874287515e-14 1.973526864932489966e-13 3.722436719760455204e-14 -1.679011205242553206e-13
2.476000000000000000e+03 1.731853675842285156e+01 -4.513906002044677734e+00 -1.065381034223064876e-16 9.145624118049242024e-14 2.740491075172921120e-14 -8.059316560470042301e-14
2.477000000000000000e+03 1.153907585144042969e+01 -2.176931619644165039e+00 2.317078108971925426e-14 5.568128288091153677e-14 2.365561936059582676e-14 4.766797850538906367e-14
2.478000000000000000e+03 1.012026500701904297e+01 -1.946486473083496094e+00 -2.418699404511102415e-15 -4.678753519056326471e-14 -1.476186997618166019e-14 -5.171873400464793713e-14
2.479000000000000000e+03 8.579205513000488281e+00 -1.866579771041870117e+00 -5.493483340207779009e-14 6.795839525884986299e-14 3.907069065251390222e-15 -4.221197840597636086e-14
2.480000000000000000e+03 7.723689556121826172e+00 -2.588568449020385742e+00 1.185609499031875513e-13 5.081183615681349186e-14 5.081183615681349186e-14 1.144052436336320810e-13
2.481000000000000000e+03 3.605021238327026367e+00 -2.702179193496704102e+00 3.848317335370526893e-14 -1.893864839258574406e-13 -4.527099384927200931e-14 5.506603880560748121e-14
2.482000000000000000e+03 1.093035221099853516e+00 -8.281592369079589844e+00 6.011737569073302007e-15 -2.029901583194132497e-14 -4.286183224750522713e-15 2.833823433345209614e-14
2.483000000000000000e+03 1.080414652824401855e+00 -1.551865196228027344e+01 3.152502130870926678e-14 -1.694930681266429429e-13 -4.139041404538010283e-14 -2.132052020215459247e-15
2.484000000000000000e+03 1.090384125709533691e+00 -2.194929122924804688e+01 -2.879469869466154408e-14 -3.521605885592818397e-14 -1.920322624873738171e-14 2.652286654463310162e-14
2.485000000000000000e+03 1.167970538139343262e+00 -2.917751502990722656e+01 6.128155979629595906e-14 3.388051320887212198e-15 1.940088308104506720e-14 -3.335193923879702094e-14
2.486000000000000000e+03 3.941242396831512451e-01 -3.644300079345703125e+01 5.775036753061929540e-14 2.475015872316962268e-14 2.475015872316962268e-14 3.316455522207363560e-14
2.487000000000000000e+03 1.652712345123291016e+00 -4.114479827880859375e+01 -6.759227627882750597e-17 -1.372818146053861321e-13 -4.120482235037310759e-14 6.621817623311126999e-14
2.488000000000000000e+03 9.411181449890136719e+00 -3.471219253540039062e+01 2.387672714708119481e-14 -1.498954362326096468e-13 -3.780561475853760900e-14 -6.741763587279556158e-14
2.489000000000000000e+03 7.530091285705566406e+00 -3.308215332031250000e+01 -9.473409605604068973e-15 -4.060032627613676184e-15 -4.060032627613676184e-15 -3.791373682018872593e-14
2.490000000000000000e+03 1.483004474639892578e+01 -2.476305198669433594e+01 1.292245492199011608e-14 5.128914261072307912e-14 1.926347909040736911e-14 2.236952349700047082e-13
2.491000000000000000e+03 1.316144466400146484e+01 -2.411168289184570312e+01 -3.321840415584920159e-13 -4.626212065338142221e-13 -2.384415906907244587e-13 1.312634218984462531e-13
2.492000000000000000e+03 1.169913578033447266e+01 -2.165777206420898438e+01 -6.892131586581570768e-14 -3.497943579754136945e-13 -1.256147014747424628e-13 5.670262843244719408e-14
2.493000000000000000e+03 1.265977001190185547e+01 -2.225401687622070312e+01 -7.989779898884968867e-14 -2.858721289203391969e-13 -1.097309770175039501e-13 1.727970116169666448e-13
2.494000000000000000e+03 1.197724437713623047e+01 -1.985734939575195312e+01 3.446893852700021188e-14 -2.597332884792663554e-13 -6.757930396924030636e-14 4.015536716344986906e-15
2.495000000000000000e+03 1.184439849853515625e+01 -1.739833259582519531e+01 -1.553420202902641972e-15 -4.641670077812354300e-14 -1.439103556374193849e-14 6.142639565401286639e-14
2.496000000000000000e+03 1.193592357635498047e+01 -1.656661987304687500e+01 1.078909402411291213e-14 4.623897378403180394e-15 4.623897378403180394e-15 5.212268740532530198e-14
2.497000000000000000e+03 1.196466636657714844e+01 -1.468253803253173828e+01 7.916886276323337190e-14 -5.185351388721504140e-14 8.194605001618678053e-15 6.167001588217035923e-14
2.498000000000000000e+03 1.306788825988769531e+01 -1.434376049041748047e+01 6.575991785611953744e-14 2.818282072828987711e-14 2.818282072828987711e-14 -9.097679342729217411e-14
2.499000000000000000e+03 1.309892177581787109e+01 -1.331814575195312500e+01 1.786486506416464642e-14 1.320417570855464406e-13 4.497198783075945228e-14 -1.115854777284860933e-13
2.500000000000000000e+03 1.494403457641601562e+01 -1.266492938995361328e+01 6.575564881006537576e-14 1.196828958638027074e-13 5.563156204690770934e-14 3.941292753858842424e-14
2.501000000000000000e+03 1.782041931152343750e+01 -1.248537063598632812e+01 2.123372278787366563e-13 1.424714838292595598e-13 1.064426189334097272e-13 -1.429197607700008477e-13
2.502000000000000000e+03 1.739474105834960938e+01 -1.186210250854492188e+01 1.092482563289955133e-13 -9.043216479473481506e-14 5.644826613245262220e-15 -4.200012868960448231e-14
2.503000000000000000e+03 1.907168960571289062e+01 -1.328399085998535156e+01 8.411307539151965940e-14 2.461072524159030328e-14 3.261714154518570441e-14 -1.595467464740596419e-13
2.504000000000000000e+03 2.080563545227050781e+01 -1.327489757537841797e+01 1.604283248130347617e-13 1.156630943365682951e-14 5.159839095163383516e-14 -7.496531607281697873e-14
2.505000000000000000e+03 2.350659370422363281e+01 -1.457748794555664062e+01 1.165348877509367331e-13 4.192572108035292830e-15 3.621823774593337097e-14 3.560699166614035571e-14
2.506000000000000000e+03 2.430167007446289062e+01 -1.465203189849853516e+01 4.380628075995735005e-14 -4.101353859396056345e-15 1.191147790076179866e-14 -9.803117519135984281e-14
2.507000000000000000e+03 2.826997566223144531e+01 -1.508108901977539062e+01 -5.416758757032305582e-14 -1.375920590570428592e-13 -5.752789602108884792e-14 -7.975757776662942278e-14
2.508000000000000000e+03 2.942994499206542969e+01 -5.835742473602294922e+00 -1.362965865387213982e-13 -2.409961200868990239e-14 -4.811886091947610578e-14 1.735869477673124273e-13
2.509000000000000000e+03 1.774745559692382812e+01 -3.831573486328125000e+01 -3.144342493083436552e-14 -1.347575293676262290e-14 -1.347575293676262290e-14 -1.214116951913464179e-14
2.510000000000000000e+03 1.906964302062988281e+01 -2.854419898986816406e+01 -1.469655831493749121e-13 -1.659248910143573674e-13 -9.386714089386696824e-14 2.163301649090159512e-14
2.511000000000000000e+03 1.836672210693359375e+01 -2.810640525817871094e+01 -1.011923631368850940e-13 3.669600498576626457e-14 -1.934890744533564882e-14 2.261242002020782960e-13
2.512000000000000000e+03 2.272764587402343750e+01 -3.836914825439453125e+01 -7.598130837612598887e-14 2.462526879729465962e-14 -1.540681272068234603e-14 5.773585277403514571e-14
2.513000000000000000e+03 2.472138595581054688e+01 -3.635155105590820312e+01 -6.883264845689712752e-14 -4.093744454211102612e-14 -3.293102823851562500e-14 1.807049755870367841e-14
2.514000000000000000e+03 2.701537132263183594e+01 -3.037110519409179688e+01 -1.152499180176447518e-15 1.138834442330691199e-13 3.381928458524689762e-14 -4.959733660011775291e-14
2.515000000000000000e+03 2.354508972167968750e+01 -3.114438629150390625e+01 -2.779808989331750135e-14 -1.191346673412195176e-14 -1.191346673412195176e-14 6.047551646742518883e-14
2.516000000000000000e+03 2.211998176574707031e+01 -2.978680038452148438e+01 -1.238847857577742712e-14 -2.818482311417718628e-14 -1.217199050698638402e-14 -3.772800621177838098e-14
2.517000000000000000e+03 2.981225967407226562e+01 -3.830693435668945312e+01 -8.042045897488706019e-14 -3.446590953718083050e-14 -3.446590953718083050e-14 3.641416324289686868e-14
2.518000000000000000e+03 2.898787117004394531e+01 -3.484197998046875000e+01 -8.006615525744595341e-14 1.143688110525047791e-14 -2.058878410913112661e-14 2.841588523185868687e-14
2.519000000000000000e+03 3.030093574523925781e+01 -2.990895271301269531e+01 -8.654057695066039169e-14 1.001640244813369052e-13 4.087033920389775143e-15 1.268629366596614461e-14
2.520000000000000000e+03 3.472045135498046875e+01 -2.626197052001953125e+01 3.853682103245256729e-14 1.651578044247967170e-14 1.651578044247967170e-14 6.204832281927075838e-15
2.521000000000000000e+03 3.107777214050292969e+01 -2.960609626770019531e+01 -4.449515571530032743e-14 2.668159713081676848e-14 -5.344067660048362409e-15 1.453156849408679396e-14
2.522000000000000000e+03 3.577458953857421875e+01 -3.825342941284179688e+01 -2.425338745213213160e-14 -3.326978381917693184e-14 -1.725695121198612958e-14 -3.614142541014456200e-14
2.523000000000000000e+03 3.694399642944335938e+01 -4.101437377929687500e+01 -8.093838912894696369e-14 -1.147520392510287257e-13 -5.870712851399270682e-14 1.610756307794582870e-14
2.524000000000000000e+03 4.401301956176757812e+01 -2.899598693847656250e+01 -1.751729864678600035e-14 -1.447602617204307718e-13 -4.868326607728595823e-14 3.951888543105930643e-15
2.525000000000000000e+03 4.713231658935546875e+01 -2.492467308044433594e+01 -2.112056596238406914e-13 -5.022752504711680555e-13 -2.140442770942607709e-13 2.228145375452947330e-13
2.526000000000000000e+03 3.621548080444335938e+01 -2.426049041748046875e+01 -8.222130184272653797e-15 -1.865275647697575701e-13 -5.842491068849473002e-14 6.340719914182599282e-14
2.527000000000000000e+03 3.574227523803710938e+01 -2.319732284545898438e+01 -3.222170251969413979e-14 -2.883149990452749112e-13 -9.616100775898528408e-14 9.698030545941468961e-14
2.528000000000000000e+03 4.236772155761718750e+01 -3.684732818603515625e+01 -5.508503944868028968e-14 -1.165394956101697965e-13 -5.148735848477595245e-14 -6.833398491425547033e-15
2.529000000000000000e+03 4.480806350708007812e+01 -3.799404907226562500e+01 -3.002744334104114066e-14 -1.272462766665344303e-13 -4.718211363058041896e-14 1.575231237766969161e-14
2.530000000000000000e+03 5.338153457641601562e+01 -2.916220664978027344e+01 -2.782271483516007837e-13 -1.192402025642497199e-13 -1.192402025642497199e-13 3.581214304596534725e-14
2.531000000000000000e+03 5.501744079589843750e+01 -2.953595542907714844e+01 -2.028988278389085020e-13 -1.833021988318847550e-14 -6.636871770476088228e-14 6.037462467901183460e-14
2.532000000000000000e+03 5.180661392211914062e+01 -2.854874038696289062e+01 -3.385041270724531426e-13 -1.908241360065732195e-13 -1.587984707921916150e-13 2.006192792187305729e-13
2.533000000000000000e+03 5.112053680419921875e+01 -2.806642723083496094e+01 -2.897946097500658791e-13 -1.413542948056761839e-13 -1.293446686562171877e-13 1.722984954580578099e-13
2.534000000000000000e+03 4.765120697021484375e+01 -4.114576721191406250e+01 -3.351872002611139267e-14 -1.173048068186730020e-13 -4.524705669818260279e-14 -2.872110635462172233e-15
2.535000000000000000e+03 5.257931518554687500e+01 -2.889803314208984375e+01 -2.570245448765828833e-13 4.223994489279585610e-15 -7.584016558205911029e-14 1.062242335108168345e-13
2.536000000000000000e+03 5.989478683471679688e+01 -3.851462936401367188e+01 -1.481497352096364239e-13 -5.777387438897149674e-14 -6.177708084670330280e-14 5.564943444209477508e-14
2.537000000000000000e+03 5.839851760864257812e+01 -4.109978103637695312e+01 -1.411179793896558121e-13 -7.763573990496666632e-14 -6.562612053177124816e-14 2.503465591432866080e-15
2.538000000000000000e+03 5.585498046875000000e+01 -2.959656524658203125e+01 -1.421852409031962305e-13 3.056537024891982368e-14 -3.348596017984338535e-14 7.692633287098224470e-14
2.539000000000000000e+03 5.669342422485351562e+01 -2.957240104675292969e+01 -8.675362267755379331e-14 5.432177467177765062e-14 -9.729554062919663904e-15 3.650090280482749805e-14
2.540000000000000000e+03 6.297774124145507812e+01 -3.890937805175781250e+01 -9.975628314931941909e-14 -1.987721714113120652e-14 -3.589004974832200878e-14 -6.466227157669521275e-14
2.541000000000000000e+03 6.227677154541015625e+01 -2.946116256713867188e+01 7.456862682669526676e-14 -1.379296677550935837e-14 1.823269759183929889e-14 -1.238520191352426858e-13
2.542000000000000000e+03 5.982308959960937500e+01 -3.072024917602539062e+01 -3.715292505070133533e-14 9.845469166498699298e-14 1.839052862903298169e-14 -6.614769631563613417e-14
2.543000000000000000e+03 6.302450561523437500e+01 -2.757370758056640625e+01 4.760853034501896786e-14 1.147649819144627714e-13 4.871205503309723739e-14 -5.608760119757763563e-14
2.544000000000000000e+03 6.596508026123046875e+01 -2.461462783813476562e+01 -8.186740131296832423e-14 -2.524030246961461721e-13 -1.002811318684924957e-13 -4.999461199303896486e-14
2.545000000000000000e+03 6.695349121093750000e+01 -4.119919967651367188e+01 -8.594852802558394789e-14 -1.683690621819000643e-13 -7.629527299648705685e-14 1.242532450898298918e-14
2.546000000000000000e+03 7.961169433593750000e+01 -3.009140777587890625e+01 4.823803083185826054e-15 -5.469440547169190925e-13 -1.626360721443398383e-13 1.766259529042621401e-14
2.547000000000000000e+03 7.891904449462890625e+01 -2.437984466552734375e+01 2.693267294297599368e-14 -4.917178860266990803e-13 -1.394355551159742745e-13 -2.387366766407571228e-14
2.548000000000000000e+03 6.708334350585937500e+01 -2.222904014587402344e+01 -6.639520611908741876e-14 -1.657079286071158619e-13 -6.963093974023462640e-14 -7.637646618667906506e-14
2.549000000000000000e+03 7.964221191406250000e+01 -2.372054290771484375e+01 1.054167739428582551e-13 -4.580818146679432878e-13 -1.057995176385363723e-13 -4.608643924385730228e-14
2.550000000000000000e+03 7.894864654541015625e+01 -1.880559730529785156e+01 -3.713324678127072342e-14 -3.819218433263188439e-13 -1.257165216112660078e-13 -5.787835759708120920e-14
2.551000000000000000e+03 7.825528717041015625e+01 -1.867007255554199219e+01 -2.721485858122197482e-14 -1.946673074473825871e-13 -6.656464658985616900e-14 -4.724952728878649422e-14
2.552000000000000000e+03 7.895016479492187500e+01 -1.163903999328613281e+01 -8.162140261629494131e-14 5.652129900723078249e-14 -7.530030574499479296e-15 4.367761984340121084e-14
2.553000000000000000e+03 7.756200408935546875e+01 -7.371578216552734375e+00 2.421634128033783862e-13 5.803337817895590223e-14 9.005903661707392871e-14 5.184596343552321657e-15
2.554000000000000000e+03 7.895266723632812500e+01 1.100268363952636719e+00 -1.183686612268863847e-12 -4.033807640533735792e-15 -3.563161050934571250e-13 4.644257526296990957e-13
2.555000000000000000e+03 7.896299743652343750e+01 8.263007164001464844e+00 -2.181711706910824389e-13 -9.350192739206522607e-14 -9.350192739206522607e-14 1.584953414172918240e-13
2.556000000000000000e+03 7.591734313964843750e+01 1.773126220703125000e+01 -4.299163157634247612e-14 2.732596389291332140e-14 -4.699700050918862240e-15 5.738036321046788291e-14
2.557000000000000000e+03 7.966800689697265625e+01 1.289898204803466797e+01 7.684950359453449065e-14 -2.873211380188117614e-13 -6.314148829440410782e-14 -3.103037100817170046e-14
2.558000000000000000e+03 7.906941986083984375e+01 1.764702033996582031e+01 7.134159392798225530e-14 -6.092693081820310663e-14 3.124399398801865589e-15 5.815630637652502433e-14
2.559000000000000000e+03 3.288920211791992188e+01 -1.578237819671630859e+01 -4.363402813980371553e-13 -3.999184745298242638e-15 -1.321018354384292937e-13 2.367197963256545412e-13
2.560000000000000000e+03 3.509643554687500000e+01 -2.553502655029296875e+01 -3.074313535949418918e-14 -5.892657780996735095e-14 -2.690091428965164094e-14 -7.766357679574523165e-14
2.561000000000000000e+03 3.482695770263671875e+01 -2.736535835266113281e+01 4.919771492593264656e-15 6.501602641678649874e-14 2.098074013514358155e-14 -8.637531743451928867e-14
2.562000000000000000e+03 3.439568710327148438e+01 -2.942365455627441406e+01 7.135509902129327786e-14 7.705281691286394036e-15 2.371811345144424904e-14 -9.959603129196248350e-14
2.563000000000000000e+03 2.724496841430664062e+01 -3.249982070922851562e+01 -6.803956134398755906e-14 -2.915981394064140475e-14 -2.915981394064140475e-14 -1.216461708518053533e-14
2.564000000000000000e+03 2.784214210510253906e+01 -3.031821250915527344e+01 -6.281303581075496547e-16 -9.177109349138221073e-14 -2.771976814481668522e-14 1.891486065810823319e-14
2.565000000000000000e+03 6.187837600708007812e+01 -2.734594154357910156e+01 2.035360710539186463e-14 1.002248753282676541e-13 3.617354489950444507e-14 -1.026016633307903769e-13
2.566000000000000000e+03 5.989329147338867188e+01 -2.873333358764648438e+01 7.233308326219309303e-14 3.099989137459770172e-14 3.099989137459770172e-14 5.430076825468574397e-14
2.567000000000000000e+03 5.862855529785156250e+01 -3.013201904296875000e+01 5.706408687837508033e-17 1.144018283967887517e-13 3.433766874896652943e-14 -6.247063820017870195e-14
2.568000000000000000e+03 7.965323638916015625e+01 7.330789566040039062e+00 -2.333323963731037676e-13 3.725324424484234564e-14 -5.882374801017067889e-14 6.668642959888060329e-14
2.569000000000000000e+03 6.736152648925781250e+01 1.219761753082275391e+01 7.814439674232002975e-15 -2.254056994223721522e-13 -6.527738012672770762e-14 -8.992133616490469161e-14
2.570000000000000000e+03 7.346335601806640625e+01 2.710287809371948242e+00 -1.238827020567240256e-13 -1.531727896646531417e-13 -8.311664616116043458e-14 1.509230701567457200e-13
2.571000000000000000e+03 6.731810760498046875e+01 3.592062234878540039e+00 -4.743195446870254739e-14 2.541777010221790700e-13 6.202373006468017702e-14 -6.477680398369115022e-14
2.572000000000000000e+03 7.965078735351562500e+01 9.614069461822509766e-01 -2.298299137809545201e-12 -1.717000456744055548e-12 -1.204589813313949875e-12 1.525298984339507058e-12
2.573000000000000000e+03 6.287418746948242188e+01 -9.621396064758300781e+00 -1.614280642481518563e-14 -6.918345731639786306e-15 -6.918345731639786306e-15 -2.670183783012435724e-14
2.574000000000000000e+03 6.084368515014648438e+01 -8.436098098754882812e+00 5.875203481272434081e-14 7.093038992527639364e-14 3.890472809902657814e-14 2.959737422053403122e-14
2.575000000000000000e+03 6.981829071044921875e+01 -8.831901550292968750e+00 4.953012622981901869e-14 -5.735351429891899500e-13 -1.572015087547562473e-13 -4.613264658519591888e-14
2.576000000000000000e+03 7.965016174316406250e+01 -4.611780643463134766e+00 -3.394042317160506084e-13 -5.395705583721710497e-14 -1.180083862659803140e-13 1.435582440412457722e-14
2.577000000000000000e+03 6.771680450439453125e+01 -9.119616508483886719e+00 7.627473414158203457e-14 -3.593725320040659643e-14 1.210124377413286309e-14 1.474645194366255851e-13
2.578000000000000000e+03 1.656582832336425781e+01 -1.215462970733642578e+01 6.144349894328382522e-14 7.208387261658372180e-14 4.005821079033390630e-14 -2.136791804830057498e-15
2.579000000000000000e+03 1.675649261474609375e+01 -3.058597803115844727e+00 1.209408295759677524e-14 -3.150734610279232184e-13 -9.089381130351556481e-14 -1.293926174972953591e-13
2.580000000000000000e+03 6.302138137817382812e+01 -1.180138015747070312e+01 5.650963705761298528e-14 -2.153253297236881747e-14 1.049313139497983979e-14 -1.218443087988270793e-14
2.581000000000000000e+03 6.660427093505859375e+01 -1.362410736083984375e+01 -1.192788679242259842e-13 -3.885327660730492072e-13 -1.523434834229189794e-13 1.174190952801801302e-13
2.582000000000000000e+03 5.315913677215576172e+00 -1.932103753089904785e+00 1.516655351925955825e-14 1.895037403908117479e-13 6.140109308581248593e-14 -5.348006447956389631e-14
2.583000000000000000e+03 4.581047058105468750e+01 -1.892068099975585938e+01 -7.385793569076280762e-15 -2.090446143011154279e-13 -6.492912083639820753e-14 -2.828096812995412740e-14
2.584000000000000000e+03 4.659276580810546875e+01 -1.732110023498535156e+01 5.445410832319308447e-14 2.333747547967300606e-14 2.333747547967300606e-14 -1.928822431092845624e-14
2.585000000000000000e+03 1.078794479370117188e+00 -1.471631145477294922e+01 -2.808475294772266873e-14 -2.179155971339732933e-13 -7.380010366925607301e-14 -3.185055639912982850e-14
2.586000000000000000e+03 4.536687088012695312e+01 -1.341305828094482422e+01 -3.834753627379554330e-14 -6.218560822529584087e-14 -3.015994301091423635e-14 -2.006706839542335419e-13
2.587000000000000000e+03 1.087336659431457520e+00 -2.114531517028808594e+01 2.063037681497310177e-14 1.232189670392555558e-13 4.315480061516975552e-14 3.203477928889406079e-14
2.588000000000000000e+03 1.052048683166503906e+01 -1.738648223876953125e+01 7.536430924855522240e-14 -3.632743384536160636e-14 1.171106228214490591e-14 1.132616678396758392e-13
2.589000000000000000e+03 1.155677556991577148e+00 -2.837739181518554688e+01 -3.809230491799708851e-14 9.805210029328881305e-14 1.798793725733480175e-14 1.903493604871100281e-14
2.590000000000000000e+03 1.139521002769470215e+00 -3.481454086303710938e+01 2.033580924910415727e-14 1.459681984658511844e-13 4.989119943457458184e-14 -1.307750836874316258e-13
2.591000000000000000e+03 1.236836242675781250e+01 -2.858337211608886719e+01 2.534482498005308226e-14 -3.488888052158994890e-14 -2.863216789516002080e-15 4.416079115343758688e-15
2.592000000000000000e+03 1.817614173889160156e+01 -3.010412025451660156e+01 -1.151097717578403179e-13 -1.865856102435670127e-13 -9.050861460042219919e-14 1.084041320928820842e-14
2.593000000000000000e+03 4.396920013427734375e+01 -2.723466682434082031e+01 -1.089834467246295069e-13 -3.212128913548939479e-13 -1.290589000686043208e-13 9.069414192092520310e-14
2.594000000000000000e+03 6.748365783691406250e+01 -1.504727745056152344e+01 -2.227922300855958437e-13 -5.758673702824235185e-13 -2.395978652026259370e-13 2.272122648448032800e-13
2.595000000000000000e+03 7.895023345947265625e+01 -1.243650150299072266e+01 1.170206916393731755e-13 1.874045759070810946e-13 9.132758026393628104e-14 1.538422404604496835e-14
2.596000000000000000e+03 4.263938522338867188e+01 -1.708618164062500000e+00 8.960988553833107439e-14 1.756570827378747812e-13 7.958009387099354570e-14 3.023319103206099923e-14
2.597000000000000000e+03 6.785028839111328125e+01 1.712234878540039062e+01 -3.935768743790028779e-14 -1.998713694550957598e-13 -7.176871537383291977e-14 -6.631301681814943949e-14
2.598000000000000000e+03 7.105586242675781250e+01 1.688977622985839844e+01 8.315121188167198807e-14 1.271381274998290012e-13 6.308680384732937019e-14 -1.704506422616457184e-15
2.599000000000000000e+03 6.804357910156250000e+01 1.452267265319824219e+01 -6.517753188290537070e-14 -3.024389278512978896e-13 -1.102849365650082625e-13 4.545634159879019531e-14
2.600000000000000000e+03 6.957003021240234375e+01 1.629640769958496094e+01 4.193533744540310637e-14 -7.352960877974809573e-14 -9.478280892083728454e-15 7.620008004574282956e-14
2.601000000000000000e+03 6.702975463867187500e+01 1.145836162567138672e+01 -1.090929308152598087e-13 -1.325371426106822237e-13 -7.248902541591439874e-14 -6.439362660714403885e-14
2.602000000000000000e+03 6.510863494873046875e+01 8.855630874633789062e+00 -2.331096504248984097e-14 -2.044319439209116296e-13 -6.832287014792159940e-14 -3.787862899859092969e-14
2.603000000000000000e+03 6.335889434814453125e+01 7.203550338745117188e+00 2.147643228620627065e-14 6.067400000388939452e-14 2.464513002584187845e-14 -7.782920223011954852e-14
2.604000000000000000e+03 6.277219009399414062e+01 6.661894321441650391e+00 5.896304088428075407e-14 -1.005452367414463866e-13 -1.247465740189697414e-14 -3.046809275009240356e-15
2.605000000000000000e+03 5.973199462890625000e+01 4.094789505004882812e+00 -1.025648207857166039e-13 -8.970730110352889697e-14 -5.768163588914729245e-14 -6.666924499444670804e-14
2.606000000000000000e+03 6.137829589843750000e+01 4.549635887145996094e+00 -1.227476372498217949e-13 -5.260613315403658841e-14 -5.260613315403658841e-14 -9.326049589704343834e-15
2.607000000000000000e+03 6.017927169799804688e+01 3.507968187332153320e+00 -6.405479309945158461e-14 -7.320299965155041555e-14 -4.117733782530060005e-14 -2.981234779441538363e-14
2.608000000000000000e+03 5.914721298217773438e+01 3.557592391967773438e+00 -6.761799643427088280e-14 -5.185461503004647199e-14 -3.584178581098745875e-14 -3.142303854185984902e-14
2.609000000000000000e+03 5.797233200073242188e+01 2.473841667175292969e+00 -1.524026266514280636e-13 -1.225040983368272385e-13 -8.247202020698202185e-14 -1.204704637100279668e-14
2.610000000000000000e+03 5.734624099731445312e+01 1.964842438697814941e+00 -1.147027487097621035e-13 7.665678665837519223e-14 -1.141378759897653666e-14 -1.980253390735861596e-13
2.611000000000000000e+03 5.548657608032226562e+01 2.167313545942306519e-01 -1.197777364488408769e-13 -5.582366403714730113e-15 -3.760802907699749287e-14 -2.108198327282345685e-13
2.612000000000000000e+03 5.523980712890625000e+01 7.728283405303955078e-01 -2.751936319881492787e-13 -2.780684482586032180e-13 -1.659786267845311802e-13 1.600487219155250634e-14
2.613000000000000000e+03 4.857664489746093750e+01 -1.128686219453811646e-01 -1.302859323247876344e-13 -5.583683201134531648e-14 -5.583683201134531648e-14 -1.032676819490846443e-14
2.614000000000000000e+03 4.783940505981445312e+01 -7.238404452800750732e-02 1.054287137192827517e-13 2.281875318040083034e-13 1.000848709464818853e-13 -5.802304437699939976e-14
2.615000000000000000e+03 4.708589553833007812e+01 -4.143113642930984497e-02 -1.356745119897306839e-13 7.910662955853270395e-14 -1.697036269648032059e-14 8.020676272669016726e-14
2.616000000000000000e+03 4.556745529174804688e+01 7.861246913671493530e-02 -1.241266204404789519e-13 -5.319712159386306982e-14 -5.319712159386306982e-14 8.300412630444717332e-14
2.617000000000000000e+03 4.403443527221679688e+01 2.165132164955139160e-01 -3.730742724841230873e-14 2.976205097800742327e-14 -2.263612542308286735e-15 -3.518788315197071692e-14
2.618000000000000000e+03 4.330532455444335938e+01 2.909753024578094482e-01 -1.581192181311294465e-13 2.373652117145397950e-14 -4.031480756324333503e-14 -8.481294314045210309e-15
2.619000000000000000e+03 4.159622955322265625e+01 -1.670188307762145996e+00 4.382696191639751104e-14 -2.696796372369039685e-14 5.057699796625313160e-15 -1.166560066861305200e-13
2.620000000000000000e+03 4.110993957519531250e+01 -1.156789898872375488e+00 -2.365320125093800518e-13 -3.301256024188653493e-13 -1.699972898994844828e-13 -5.928304315548985071e-14
2.621000000000000000e+03 4.007780838012695312e+01 -2.419230937957763672e+00 -8.870422435859962040e-14 -3.353972644320329932e-13 -1.272304473148161419e-13 2.406998787839263049e-14
2.622000000000000000e+03 3.869873046875000000e+01 -3.290030956268310547e+00 9.251811556448830132e-14 -1.433531705884519281e-13 -1.525051820125498253e-14 1.245463151014480907e-13
2.623000000000000000e+03 3.641464996337890625e+01 -4.014351844787597656e+00 1.469982311872938818e-13 -5.137813189216161591e-14 2.868603114379239538e-14 2.017780541718923459e-14
2.624000000000000000e+03 3.507785415649414062e+01 -5.123305320739746094e+00 2.324443805837295152e-13 8.117123509801538184e-15 7.216845393856474722e-14 -2.636878278119807184e-14
2.625000000000000000e+03 3.490476608276367188e+01 -4.462776660919189453e+00 2.515694358558306920e-13 -6.561903679523336044e-15 7.350225977994714888e-14 6.764200473612785869e-14
2.626000000000000000e+03 3.338531875610351562e+01 -4.902323722839355469e+00 2.862374237373038754e-13 3.117128002114513685e-14 9.522261044990834589e-14 7.031407520032700864e-14
2.627000000000000000e+03 3.112826538085937500e+01 -5.236865520477294922e+00 2.106180457632760711e-14 1.234038641672458025e-13 4.333970113129179125e-14 5.864854093909702137e-14
2.628000000000000000e+03 3.050249862670898438e+01 -5.634102344512939453e+00 -2.108469818282599634e-14 -1.005381962035888088e-13 -3.648686916295738880e-14 7.703825641650063893e-14
2.629000000000000000e+03 2.926739692687988281e+01 -4.824481964111328125e+00 -1.984624893895323150e-13 -8.505535549962681130e-14 -8.505535549962681130e-14 1.957694667183498827e-13
2.630000000000000000e+03 2.495322227478027344e+01 -2.971309185028076172e+00 -1.223145526920224602e-13 1.305832747705917840e-13 2.480613489548892311e-15 1.843261058110529094e-13
2.631000000000000000e+03 2.688713455200195312e+01 -2.542514562606811523e+00 -9.161949492261442507e-14 -6.214097297710732826e-14 -4.612814036991652600e-14 6.669874206980189180e-14
2.632000000000000000e+03 2.643153953552246094e+01 -4.032546520233154297e+00 -1.733863974704569211e-13 1.719344237566689665e-14 -4.685788635903041788e-14 1.543307040323405044e-13
2.633000000000000000e+03 2.325812911987304688e+01 -3.251110553741455078e+00 -1.413962127721699047e-13 -1.978512297572121437e-13 -1.017742341140673301e-13 6.593158094134188296e-14
2.634000000000000000e+03 2.240027809143066406e+01 -3.366268396377563477e+00 -9.686219518524954997e-14 4.998952979535543906e-14 -1.406179893934187547e-14 -9.887281423280602777e-14
2.635000000000000000e+03 2.155620765686035156e+01 -3.413022041320800781e+00 3.999103430135306225e-15 -4.403704641610731163e-14 -1.201138289579160162e-14 2.384493630650484641e-14
2.636000000000000000e+03 1.831372451782226562e+01 -3.269977092742919922e+00 -2.847854195303298197e-14 -5.795604068273979559e-14 -2.593037377429229656e-14 5.264188810880608693e-14
2.637000000000000000e+03 1.911109924316406250e+01 -3.337751150131225586e+00 -7.557532887263879173e-14 2.421162771139295788e-13 4.996227905137637371e-14 -6.575944351766907503e-14
2.638000000000000000e+03 1.992086791992187500e+01 -3.371255159378051758e+00 -3.999970114246936825e-14 -1.086446267694642087e-13 -4.459329972883278870e-14 6.828644773118966449e-14
2.639000000000000000e+03 1.598435783386230469e+01 -2.945010900497436523e+00 -1.051503206710581017e-15 -9.195254150121123793e-14 -2.790121276651392340e-14 1.295062012273903718e-13
2.640000000000000000e+03 1.522219753265380859e+01 -2.821583747863769531e+00 -4.824653588968164097e-14 -2.951827692866670905e-13 -1.030287915529046194e-13 -1.034416015300784752e-13
2.641000000000000000e+03 1.225180149078369141e+01 -2.298869609832763672e+00 -8.348478700882788761e-14 1.929755454824905181e-13 3.284722957497786255e-14 1.130948497829117882e-13
2.642000000000000000e+03 1.298098373413085938e+01 -2.424774885177612305e+00 9.755533410444900549e-15 -8.732095179309756761e-14 -2.326962644653204210e-14 4.102126692257131169e-14
2.643000000000000000e+03 1.082899856567382812e+01 -2.058348655700683594e+00 -1.697688891593232552e-13 1.559966484330002623e-13 -4.131669168578287754e-15 6.745330612427033468e-14
2.644000000000000000e+03 9.950714111328125000e+00 -2.697084903717041016e+00 -9.152259435344853311e-14 1.209043444787977206e-13 8.814526392857471859e-15 1.176903575815383199e-14
2.645000000000000000e+03 7.776562690734863281e+00 -1.864703178405761719e+00 5.320459920072143079e-14 -2.059527678607842027e-13 -4.582445195327154719e-14 7.348004041167477407e-14
2.646000000000000000e+03 6.961904048919677734e+00 -1.883772253990173340e+00 5.656696424748315633e-14 -6.725891545100726177e-14 -3.207584386969342290e-15 1.023671504008817623e-13
2.647000000000000000e+03 6.138849735260009766e+00 -1.919058442115783691e+00 1.265045061977013163e-14 -2.004576517798672963e-13 -5.634215831515007600e-14 -2.538018860560094930e-14
2.648000000000000000e+03 3.670623064041137695e+00 -1.899991989135742188e+00 -9.644937165554853808e-15 -1.413863871899817548e-13 -4.530939832310051929e-14 -7.427966492487125122e-15
2.649000000000000000e+03 1.103890776634216309e+00 -6.672260284423828125e+00 1.535053076946908679e-14 5.232974630334751021e-14 2.030408278303180020e-14 -6.414112947369932094e-14
2.650000000000000000e+03 1.096029520034790039e+00 -7.476009845733642578e+00 -5.553694507856761498e-14 2.194940193142591589e-14 -1.007626243592274137e-14 1.249607513818806748e-13
2.651000000000000000e+03 1.808186769485473633e+00 -7.453134536743164062e+00 -2.425650792150981644e-15 4.471138289794361620e-14 1.268572022466085344e-14 -8.306931396006786428e-14
2.652000000000000000e+03 3.519322156906127930e+00 -3.510337114334106445e+00 7.570615311134221842e-15 4.899549936230283842e-14 1.696983414792123390e-14 3.223727776152825186e-14
2.653000000000000000e+03 3.973933458328247070e-01 -2.694641828536987305e+00 -5.893809068178643140e-14 -7.101013299506270249e-14 -3.898446778068109797e-14 7.307869926060674148e-15
2.654000000000000000e+03 4.060629010200500488e-01 -1.897585749626159668e+00 1.802341607936349538e-14 3.059979705602802746e-14 1.458696444883722521e-14 3.839731131790799501e-14
2.655000000000000000e+03 4.243835508823394775e-01 -4.206968307495117188e+01 -3.029713524331512087e-14 -3.103656654596109732e-13 -1.021988347898669658e-13 3.842442653661549967e-14
2.656000000000000000e+03 5.099468827247619629e-01 -4.124236297607421875e+01 8.995926291215095016e-14 -1.902007739675026787e-13 -3.007245467185823418e-14 -2.496911335190307030e-14
2.657000000000000000e+03 5.178095102310180664e-01 -4.044270324707031250e+01 -6.674451573027151419e-14 -2.573595362428265920e-13 -9.723121694718214747e-14 -8.055390393352929168e-14
2.658000000000000000e+03 4.804514944553375244e-01 -3.883466720581054688e+01 -1.828123257971697030e-15 -1.380363244497459507e-13 -4.195933558286471521e-14 5.764554296823183946e-15
2.659000000000000000e+03 5.018204450607299805e-01 -3.963696670532226562e+01 5.223385200932295636e-14 -6.911596403709474590e-14 -5.064633608331536863e-15 1.501359292151258767e-14
2.660000000000000000e+03 4.222632944583892822e-01 -3.724395751953125000e+01 -8.916570146079091930e-14 1.447899282023754064e-13 1.668726565078309382e-14 1.340228976924725743e-14
2.661000000000000000e+03 3.802163600921630859e-01 -3.564129638671875000e+01 -4.999238006122294978e-15 1.351103202842235396e-13 3.903332464107872601e-14 -2.376105463373825305e-14
2.662000000000000000e+03 3.817997872829437256e-01 -3.484377288818359375e+01 -3.506843117761712647e-14 3.072162072263392996e-14 -1.304043432956490493e-15 -2.244699990661992717e-14
2.663000000000000000e+03 3.917473852634429932e-01 -3.404727172851562500e+01 4.521745797887374851e-14 6.512986086863389867e-14 3.310419565425229416e-14 -1.282502326316629568e-14
2.664000000000000000e+03 4.011981785297393799e-01 -3.324579238891601562e+01 -1.784323523082356061e-14 -3.052257475629274741e-14 -1.450974214910194515e-14 -2.267846860011610982e-14
2.665000000000000000e+03 4.050128161907196045e-01 -3.243977355957031250e+01 2.557333583449745290e-14 7.958642290117542983e-14 3.154792846773481207e-14 -6.601170432892150899e-15
2.666000000000000000e+03 1.174511432647705078e+00 -3.403709030151367188e+01 1.034060939089295750e-13 -1.386868999633458777e-13 -1.058424079988535410e-14 -9.884709831252738721e-14
2.667000000000000000e+03 4.036044180393218994e-01 -3.163242340087890625e+01 -3.433064853989968579e-14 5.391328795076658076e-14 5.874790976227121236e-15 -1.712801755082097449e-14
2.668000000000000000e+03 3.903827071189880371e-01 -2.921587753295898438e+01 -5.013070985887199682e-14 2.426635891468638395e-14 -7.759304605629326057e-15 -6.934442322252933402e-15
2.669000000000000000e+03 3.853613734245300293e-01 -2.841285133361816406e+01 7.624199801223655037e-14 -1.307580684895871814e-14 1.894985667135699187e-14 3.079897515950898168e-14
2.670000000000000000e+03 3.813821971416473389e-01 -2.761051940917968750e+01 -9.334927172617926705e-14 -8.575777620586227945e-14 -5.373211437961246395e-14 3.520916400773753396e-14
2.671000000000000000e+03 3.783599436283111572e-01 -2.680788040161132812e+01 1.051657404823463926e-13 1.365729225674336411e-13 7.252159891493401012e-14 9.789393764269628019e-16
2.672000000000000000e+03 3.754833638668060303e-01 -2.600391769409179688e+01 -9.722973294545855794e-14 7.270748537740664985e-14 -7.356673423382625171e-15 2.925802148164491009e-15
2.673000000000000000e+03 3.724953532218933105e-01 -2.519949913024902344e+01 1.373557842986039557e-13 3.562479358818620989e-13 1.480811187646452476e-13 -5.270845134593311887e-14
2.674000000000000000e+03 1.127035498619079590e+00 -2.597698783874511719e+01 -1.450180206225438334e-14 8.528683943971604453e-14 2.123551070501873000e-14 -1.849695662478959002e-14
2.675000000000000000e+03 3.698271512985229492e-01 -2.439553260803222656e+01 -1.418942816976825894e-13 1.679429165180046368e-13 7.814590446096614240e-15 -6.157585969975357121e-14
2.676000000000000000e+03 3.652109503746032715e-01 -2.198245429992675781e+01 2.412437925206761813e-14 1.033901967945755063e-14 1.033901967945755063e-14 1.175221283678841433e-14
2.677000000000000000e+03 3.641418814659118652e-01 -2.117858123779296875e+01 -8.794339056625560119e-15 -4.951995167005660003e-14 -1.749428645567499552e-14 8.512460044306485035e-15
2.678000000000000000e+03 3.633981943130493164e-01 -2.037458992004394531e+01 -5.357423760263962942e-14 2.279056155222395491e-14 -9.235101968091755098e-15 7.937904213063326497e-14
2.679000000000000000e+03 3.629615902900695801e-01 -1.957029914855957031e+01 3.384619651604706125e-14 -8.369961150491052326e-15 7.642870609666802678e-15 2.984927504278388211e-14
2.680000000000000000e+03 3.624425828456878662e-01 -1.876624488830566406e+01 -1.233864762749045663e-13 1.574650511978331613e-14 -3.229198931365730163e-14 1.015715577645142156e-14
2.681000000000000000e+03 1.084143042564392090e+00 -1.953656578063964844e+01 -2.187574564039857644e-14 -3.225079301923464148e-14 -1.623796210610973373e-14 5.133834167243139790e-14
2.682000000000000000e+03 3.619053959846496582e-01 -1.796255111694335938e+01 1.537201084738509804e-13 4.300457085164473281e-14 5.901740007070374605e-14 -5.684028483890317396e-14
2.683000000000000000e+03 3.618569672107696533e-01 -1.555106258392333984e+01 -5.435419909299854524e-14 -1.605475057368452307e-13 -6.447051009370041719e-14 3.649133133252352446e-14
2.684000000000000000e+03 3.612527847290039062e-01 -1.474759292602539062e+01 4.649088392364407463e-14 -1.630791313621260397e-13 -3.497647389273141061e-14 6.938891871028154967e-14
2.685000000000000000e+03 3.608700037002563477e-01 -1.394406700134277344e+01 -3.786235580160828007e-14 -1.992305246559938903e-13 -7.112786379846747220e-14 3.338445175144443000e-14
2.686000000000000000e+03 3.607161343097686768e-01 -1.314040565490722656e+01 -3.173336430867951252e-14 -2.652302205988221750e-13 -8.908907547225050627e-14 5.912161900453391516e-14
2.687000000000000000e+03 3.607635796070098877e-01 -1.233648586273193359e+01 6.359703616596462661e-14 -6.424602603388729349e-14 -1.946959095265498783e-16 4.495023602467396184e-14
2.688000000000000000e+03 3.610410690307617188e-01 -1.153247261047363281e+01 1.661105809651862442e-14 -1.758847651940967372e-13 -4.778211450096568613e-14 2.150443519544249782e-14
2.689000000000000000e+03 1.076456904411315918e+00 -1.230943298339843750e+01 2.583519268200933083e-14 -5.755419470003519944e-14 -9.515701960660476189e-15 -3.541531827457207460e-14
2.690000000000000000e+03 3.617035150527954102e-01 -1.072829532623291016e+01 1.089845580318563045e-13 2.383219354284635272e-14 3.984502615003715498e-14 -1.446343858482052047e-13
2.691000000000000000e+03 3.660519421100616455e-01 -8.314182281494140625e+00 3.273057619748200031e-14 5.977834058919911930e-14 2.775267537481751479e-14 -1.958587168859361738e-14
2.692000000000000000e+03 3.675006926059722900e-01 -7.509921550750732422e+00 -5.577442262379161964e-14 -1.382806900668970274e-13 -5.821653380720659410e-14 -2.589452225776681105e-14
2.693000000000000000e+03 3.701788485050201416e-01 -6.705981254577636719e+00 -1.972861368086491207e-14 3.729582967329850285e-14 5.270164035400424704e-15 4.002817839015605783e-14
2.694000000000000000e+03 3.743230700492858887e-01 -5.902597427368164062e+00 9.731308776373195912e-14 1.332075048139300111e-13 6.915618116143038008e-14 2.532087088830473065e-14
2.695000000000000000e+03 3.793718218803405762e-01 -5.099444389343261719e+00 4.812756926520682724e-15 1.164399794032627833e-13 3.637582314357235003e-14 3.837998187084011928e-15
2.696000000000000000e+03 3.848031163215637207e-01 -4.296455383300781250e+00 1.371533502004737559e-13 8.165548044582887632e-14 6.564264783863807406e-14 1.137733384202555334e-14
2.697000000000000000e+03 3.905948400497436523e-01 -3.494578838348388672e+00 -3.805390722043215657e-14 -1.764371390959237895e-13 -6.434731084558817371e-14 -7.129797511933044785e-14
2.698000000000000000e+03 7.955242156982421875e+01 -4.202764892578125000e+01 -2.805825436900076519e-14 -7.211646644439406728e-13 -2.247668739498165369e-13 -4.996631431633709319e-14
2.699000000000000000e+03 7.947932434082031250e+01 -4.116678619384765625e+01 4.220364021364358953e-14 -7.596788324272518711e-13 -2.152425644403460625e-13 -3.797778521649535985e-15
2.700000000000000000e+03 7.448953247070312500e+01 -3.812260818481445312e+01 -6.784517067072448615e-14 -4.522727678479832036e-13 -1.560353815556123069e-13 -3.692849350693094140e-15
2.701000000000000000e+03 5.198810958862304688e+01 -4.103054428100585938e+01 -6.251317958292160193e-14 -1.583253385166460969e-13 -6.625155610749666746e-14 8.068058279298885582e-15
2.702000000000000000e+03 3.298173904418945312e+01 -3.926150894165039062e+01 -1.131334202751979601e-13 -3.704801493798620671e-14 -4.505443124158160784e-14 5.198384176461137707e-14
2.703000000000000000e+03 1.331773948669433594e+01 -4.093669891357421875e+01 -2.921624327558748624e-14 -6.399106234050017106e-14 -2.796219236245265499e-14 6.614248012792826458e-17
2.704000000000000000e+03 1.515795707702636719e+00 -3.951685714721679688e+01 -1.612645021860370509e-14 -9.841323448441657851e-14 -3.436190405565336947e-14 -3.282399715530057160e-14
2.705000000000000000e+03 1.479209184646606445e+00 -4.202516555786132812e+01 -4.376423743258743559e-14 -2.703863066604028642e-13 -9.424516831009477347e-14 -2.528751303677596179e-14
2.706000000000000000e+03 7.969084167480468750e+01 1.762403869628906250e+01 4.184224174823628073e-14 6.368333865889447276e-14 3.165767344451286824e-14 5.114932118805391725e-14
2.707000000000000000e+03 7.908734130859375000e+01 1.689633941650390625e+01 5.804577874130370518e-14 -1.581270379392984982e-13 -3.002437708177208009e-14 8.587062132322728636e-14
2.708000000000000000e+03 7.844829559326171875e+01 1.545697879791259766e+01 1.766475670674937017e-15 -4.567524201741501866e-13 -1.364957815828612975e-13 7.725609296174371088e-14
2.709000000000000000e+03 7.908676910400390625e+01 1.613420104980468750e+01 1.619409935196911704e-14 -1.760634688171766604e-13 -4.796081134778203137e-14 6.520745586286597062e-14
2.710000000000000000e+03 7.900426483154296875e+01 1.302643394470214844e+01 -1.104575212220772207e-13 -4.133465217239645773e-13 -1.571412135614388972e-13 1.090573622077387062e-13
2.711000000000000000e+03 7.967601776123046875e+01 1.369082260131835938e+01 -3.371108798469642231e-14 -2.432023495351626208e-13 -8.307403023951817622e-14 3.492321246100806020e-14
2.712000000000000000e+03 7.965800476074218750e+01 1.131172847747802734e+01 1.415169793416576338e-13 -2.596065181402484878e-13 -3.542685825144546719e-14 -6.777551068114229249e-14
2.713000000000000000e+03 7.965591430664062500e+01 1.051632690429687500e+01 -1.913611820001867581e-13 -3.565176311722678681e-13 -1.643636398859782410e-13 -4.060561599689236495e-15
2.714000000000000000e+03 7.965454101562500000e+01 9.720024108886718750e+00 1.417542840921603986e-13 -2.595048199764693475e-13 -3.532515669953453785e-14 -4.630799426373882061e-15
2.715000000000000000e+03 7.896575164794921875e+01 9.857099533081054688e+00 -1.053461720526387146e-13 -1.366502532873861697e-13 -7.259892963488653872e-14 4.259867943958405012e-14
2.716000000000000000e+03 7.965351867675781250e+01 8.127059936523437500e+00 3.158250570789444822e-13 -4.765020097789209041e-14 8.045245649150253864e-14 -6.165632105347915171e-14
2.717000000000000000e+03 7.965213775634765625e+01 5.738604068756103516e+00 -4.234504728199001145e-13 -3.187316133679979346e-13 -2.226546312773802772e-13 1.201449015145530930e-13
2.718000000000000000e+03 7.965153503417968750e+01 4.942452907562255859e+00 4.752551976093533082e-13 -2.080777363562200111e-13 8.015323702068727352e-14 -9.049129447071674326e-14
2.719000000000000000e+03 7.965100860595703125e+01 4.146185874938964844e+00 -5.626983796448714603e-13 -4.699112193112808811e-13 -3.097828796868457024e-13 1.982162941812151691e-13
2.720000000000000000e+03 7.965077972412109375e+01 3.349803447723388672e+00 7.199948102998288135e-13 -1.489402947762313856e-13 1.713163438150575035e-13 -1.756734541906793123e-13
2.721000000000000000e+03 7.895330047607421875e+01 3.488942861557006836e+00 -4.281503537123532155e-13 -6.867534427419663690e-13 -3.344711389362958753e-13 4.161366889098017108e-13
2.722000000000000000e+03 7.965075683593750000e+01 1.757597804069519043e+00 1.226360267676807059e-12 -1.149302956407124987e-13 3.334290038081028085e-13 -4.204881343290722828e-13
2.723000000000000000e+03 7.965069580078125000e+01 -6.308587789535522461e-01 1.613699625313547159e-12 -4.521881729734750222e-13 3.484534167284836226e-13 -9.572259028175003626e-14
2.724000000000000000e+03 7.965031433105468750e+01 -1.427111744880676270e+00 -1.163126561211369481e-12 -4.527318732579221905e-13 -4.847575249197766389e-13 8.733478892332391386e-15
2.725000000000000000e+03 7.964998626708984375e+01 -2.223431587219238281e+00 8.851499719818300971e-13 -1.696613905139213174e-13 2.146465785061307807e-13 1.224504991110115010e-17
2.726000000000000000e+03 7.895077514648437500e+01 -2.084661483764648438e+00 -8.106161141635537248e-13 -4.389087834497096274e-13 -3.748574530209464184e-13 -3.485346776813114111e-13
2.727000000000000000e+03 7.964997863769531250e+01 -3.815824508666992188e+00 4.969488904583985178e-13 2.997430727019398389e-14 1.580769613514568239e-13 -3.855355586239147050e-15
2.728000000000000000e+03 7.965050506591796875e+01 -6.204455852508544922e+00 -3.467233553218485032e-13 -1.028447753391795172e-13 -1.348704405535611217e-13 1.228571281167156748e-13
2.729000000000000000e+03 7.965056610107421875e+01 -7.000492572784423828e+00 2.761902577301522665e-13 7.261630397470061893e-14 1.046419691890822234e-13 4.582473994447361365e-14
2.730000000000000000e+03 7.965052032470703125e+01 -7.796398639678955078e+00 -1.792552109351752687e-13 6.042918715334216762e-14 -3.564780510167085692e-14 1.181158442538007836e-13
2.731000000000000000e+03 7.965040588378906250e+01 -8.592388153076171875e+00 2.490009338041582199e-13 1.067146926923313865e-13 1.067146926923313865e-13 -2.546623021238304113e-14
2.732000000000000000e+03 7.895221710205078125e+01 -8.452475547790527344e+00 -1.660593320837455700e-13 -7.116828421071044741e-14 -7.116828421071044741e-14 9.919219308776594524e-14
2.733000000000000000e+03 7.964994812011718750e+01 -1.018497848510742188e+01 2.405337485179154244e-13 1.488368347839219563e-13 1.168111831220675079e-13 7.522610735288121075e-14
2.734000000000000000e+03 7.965004730224609375e+01 -1.257420921325683594e+01 -1.611804595770104792e-14 2.218470090790958249e-13 6.171868978345138035e-14 5.421094210469531993e-14
2.735000000000000000e+03 7.965052032470703125e+01 -1.337017250061035156e+01 9.746825064714179088e-14 2.247758999329024787e-13 9.667324585163963868e-14 3.812551538579303512e-14
2.736000000000000000e+03 7.965078735351562500e+01 -1.416612339019775391e+01 -1.201102341500878690e-13 1.315279807810598722e-13 3.425321829357585481e-15 -2.105988689373502337e-14
2.737000000000000000e+03 7.965078735351562500e+01 -1.496219158172607422e+01 1.404052740093747823e-14 9.751926913562081189e-14 3.346793870685760286e-14 -1.298719619124760402e-14
2.738000000000000000e+03 7.895222473144531250e+01 -1.482410049438476562e+01 -8.148676503526297576e-14 1.480808883716835944e-13 1.997823767855254340e-14 -7.938097336575300478e-14
2.739000000000000000e+03 7.965029144287109375e+01 -1.655443572998046875e+01 3.683827941585067489e-14 1.530406796299357830e-13 5.696368398679096945e-14 -3.557268005551297851e-14
2.740000000000000000e+03 7.964898681640625000e+01 -1.894356918334960938e+01 -1.031758906826565902e-13 -5.017277283740628757e-13 -1.814710897827739866e-13 1.216690068600633293e-14
2.741000000000000000e+03 7.964862823486328125e+01 -1.973984909057617188e+01 4.683072031834607796e-14 -4.831901480491229695e-13 -1.309078171383981637e-13 -1.794154695687957823e-15
2.742000000000000000e+03 7.964804077148437500e+01 -2.053600311279296875e+01 -1.049741314652821028e-14 -3.705064954926534648e-13 -1.143011737776006287e-13 -2.543742770404460590e-14
2.743000000000000000e+03 7.819938659667968750e+01 -2.344553947448730469e+01 -4.147303025092349826e-14 -4.981591311334354621e-13 -1.618896396061650367e-13 -8.969828867297011121e-14
2.744000000000000000e+03 7.964559173583984375e+01 -2.212876701354980469e+01 2.024810687541029578e-16 -6.861774603378334447e-13 -2.057924956746365330e-13 -1.689741621906278024e-14
2.745000000000000000e+03 7.964012145996093750e+01 -2.451724433898925781e+01 -1.544602661919525222e-13 -6.609595683271241029e-13 -2.446259611977447124e-13 3.516721893618950101e-14
2.746000000000000000e+03 7.963782501220703125e+01 -2.531369972229003906e+01 1.251833516404191049e-13 -5.411123480715540612e-13 -1.247786867320660464e-13 1.006868742027544616e-14
2.747000000000000000e+03 7.963538360595703125e+01 -2.610989189147949219e+01 -1.214942588808470836e-13 -6.010803291732480513e-13 -2.167723872582502653e-13 8.272177972994121387e-14
2.748000000000000000e+03 7.963240051269531250e+01 -2.690565109252929688e+01 2.471390401896124411e-14 -4.926687855420774920e-13 -1.403864546313526862e-13 5.470218733278492396e-14
2.749000000000000000e+03 7.889673614501953125e+01 -2.676713180541992188e+01 -7.409524382939736142e-14 -5.350155539950163242e-13 -1.827332366368186745e-13 -1.034042981990813959e-13
2.750000000000000000e+03 7.962348175048828125e+01 -2.849738502502441406e+01 6.844229501722087772e-15 -3.173233973762651372e-13 -9.314375442812106165e-14 3.476198143356409864e-14
2.751000000000000000e+03 7.960493469238281250e+01 -3.089085769653320312e+01 -2.480787385412963619e-14 -4.681414218950241679e-13 -1.478847968562624349e-13 5.519930758139668381e-15
2.752000000000000000e+03 7.959665679931640625e+01 -3.169275665283203125e+01 -9.834273804979897123e-16 -5.951837872379683869e-13 -1.788501665560618403e-13 1.816091578472423321e-15
2.753000000000000000e+03 7.958820343017578125e+01 -3.249602127075195312e+01 -3.652434190054391905e-14 -6.104156351389999902e-13 -1.940819873520391314e-13 5.209818782435891860e-14
2.754000000000000000e+03 7.879498291015625000e+01 -3.156928062438964844e+01 -8.466649283793772907e-14 -5.852970018371816963e-13 -2.009890599221839103e-13 -5.058630516427756185e-14
2.755000000000000000e+03 7.957633972167968750e+01 -3.409818267822265625e+01 -7.458957733961265463e-15 -6.437099659729883516e-13 -1.953506800767002005e-13 1.172776915999654973e-14
2.756000000000000000e+03 7.954981231689453125e+01 -3.652612304687500000e+01 -4.653812464517834147e-14 -7.062091254665670004e-13 -2.258241743558972447e-13 -6.062017614228906726e-14
2.757000000000000000e+03 7.955912017822265625e+01 -3.732666397094726562e+01 -8.387886739347205634e-14 -5.392085432667781397e-13 -1.869262123560533340e-13 -5.283719357765219449e-14
2.758000000000000000e+03 7.959481811523437500e+01 -3.811172485351562500e+01 4.237028886381818960e-14 -4.622262858924863771e-13 -1.259567943652159516e-13 -2.841064040384928824e-14
2.759000000000000000e+03 7.963227081298828125e+01 -3.888208389282226562e+01 1.204731678627120762e-15 -4.112422208324417738e-13 -1.230112474555344892e-13 7.784408968120049011e-14
2.760000000000000000e+03 7.954513549804687500e+01 -4.039874267578125000e+01 -4.982880021141625204e-14 -6.618685092184273255e-13 -2.135091826645577062e-13 -1.341928548533391496e-14
2.761000000000000000e+03 7.969794464111328125e+01 1.684301185607910156e+01 -2.042988919855569241e-14 -1.460085172341404891e-13 -4.993152159099567555e-14 3.287803108107181793e-14
2.762000000000000000e+03 7.655714416503906250e+01 1.569374179840087891e+01 3.255658546572059997e-14 -1.690509711382848224e-13 -4.094831705702198232e-14 -2.559317842831983214e-14
2.763000000000000000e+03 7.718605041503906250e+01 1.770500755310058594e+01 1.510665304329562864e-14 -1.765295131210195545e-13 -4.842685903975671446e-14 5.397245489619818815e-14
2.764000000000000000e+03 7.969225311279296875e+01 1.527044296264648438e+01 -6.694918599538246529e-14 -2.116963017644718503e-13 -8.359364768320901029e-14 -3.230999384598413904e-14
2.765000000000000000e+03 7.523773193359375000e+01 1.774542236328125000e+01 4.075889931419223941e-15 -2.727588933795072057e-13 -8.060489531695400056e-14 5.355710382018256943e-14
2.766000000000000000e+03 7.307534790039062500e+01 1.776485252380371094e+01 1.747650418479351764e-13 1.664012081337845617e-13 1.023498709287577746e-13 -2.176972117113804006e-13
2.767000000000000000e+03 7.379581451416015625e+01 1.776510047912597656e+01 -5.577473094378442020e-14 2.184749370347585651e-14 -1.017817151090574801e-14 -2.217728428742342384e-14
2.768000000000000000e+03 7.179141998291015625e+01 1.701280212402343750e+01 2.238492425004744851e-14 5.534448902855607089e-14 2.331882381417446637e-14 -1.164098927929763105e-13
2.769000000000000000e+03 7.094609069824218750e+01 1.761287879943847656e+01 6.431517102743755654e-14 -1.096892013525453680e-13 -1.361220994456529068e-14 8.683644217100452978e-14
2.770000000000000000e+03 6.942971038818359375e+01 1.748114776611328125e+01 5.507569159307439122e-14 -2.214708078659022999e-14 9.878582733725480014e-15 1.249300006977635547e-13
2.771000000000000000e+03 6.878620147705078125e+01 1.676682472229003906e+01 1.503107716385157413e-15 9.214608514152705654e-14 2.809475810089563652e-14 1.623232933701049263e-13
2.772000000000000000e+03 1.842879295349121094e+01 -1.288711452484130859e+01 2.476899165371887479e-13 7.183960186712273766e-14 9.585885416604073006e-14 -2.240668791459420051e-14
2.773000000000000000e+03 1.974410820007324219e+01 -1.364705562591552734e+01 2.650218098362161490e-13 1.250185122526198400e-13 1.170120993371562279e-13 -1.126278703546951254e-13
2.774000000000000000e+03 2.118289375305175781e+01 -1.419605541229248047e+01 2.968379123231834615e-13 -1.472894478908234883e-13 4.486453661920256075e-14 -7.545599887102960590e-14
2.775000000000000000e+03 2.193916511535644531e+01 -1.437795543670654297e+01 2.864536407555517972e-13 -3.736247422558847120e-14 7.472735402474714461e-14 6.672253226067494970e-16
2.776000000000000000e+03 2.297939109802246094e+01 -1.374949073791503906e+01 1.769543441897808433e-13 -6.141526902921773390e-14 3.466172322579529064e-14 3.137774260797247805e-14
2.777000000000000000e+03 2.375674819946289062e+01 -1.384070205688476562e+01 1.367825666100108695e-13 -7.863174900698405301e-14 1.744524494209486604e-14 -8.035188996374093007e-14
2.778000000000000000e+03 2.510053634643554688e+01 -1.473124504089355469e+01 2.244785439345711731e-13 9.620508735356039787e-14 9.620508735356039787e-14 7.818720578747426209e-15
2.779000000000000000e+03 2.669131278991699219e+01 -1.490498638153076172e+01 3.295592761903311241e-14 -1.002534033979311789e-13 -2.018924375010895667e-14 1.644687261815463986e-14
2.780000000000000000e+03 2.589805984497070312e+01 -1.481980991363525391e+01 1.035454003355668062e-13 4.437659820773903752e-14 4.437659820773903752e-14 -3.281693967678404877e-14
2.781000000000000000e+03 2.905124282836914062e+01 -1.519114875793457031e+01 4.461050466205741805e-14 4.199426044534590452e-14 2.598142953222099677e-14 -2.365123088289610223e-15
2.782000000000000000e+03 2.925721931457519531e+01 -1.457290744781494141e+01 2.619382643187680160e-14 5.697687737197740243e-14 2.495121046352990340e-14 3.060697989542074393e-14
2.783000000000000000e+03 3.060506820678710938e+01 -1.543493080139160156e+01 3.272812996633032989e-14 -3.172460598800490306e-14 3.010567911569781048e-16 4.088375959391404857e-14
2.784000000000000000e+03 3.138314819335937500e+01 -1.552061271667480469e+01 -1.554986608226505140e-13 7.061056383692032590e-14 -2.546642672402680413e-14 3.860992336393240243e-14
2.785000000000000000e+03 3.540419387817382812e+01 -1.817995834350585938e+01 -2.224810505095653479e-13 -4.499188836163542371e-13 -2.017199748167650131e-13 2.196668275880261922e-13
2.786000000000000000e+03 3.588487243652343750e+01 -2.084819030761718750e+01 -2.140990631852891790e-14 -2.836813629055606745e-13 -9.152738517179820343e-14 3.283046509888580544e-14
2.787000000000000000e+03 3.635204696655273438e+01 -1.944953346252441406e+01 -9.898223733706412730e-14 -5.514002882761603885e-13 -1.951147576839673548e-13 3.683226548192516936e-14
2.788000000000000000e+03 3.578760528564453125e+01 -2.240588951110839844e+01 2.995191849533215822e-14 -2.616691585632935357e-13 -6.951517405326748666e-14 2.074713691862031806e-14
2.789000000000000000e+03 3.563819885253906250e+01 -2.399644088745117188e+01 -2.307361794033971347e-14 -1.471415356094421534e-13 -5.106454674256091786e-14 -3.867623926743883611e-14
2.790000000000000000e+03 3.372837829589843750e+01 -2.757635307312011719e+01 -4.219129724953619986e-14 7.341991462494687481e-14 9.368585043216613034e-15 5.432196779528962460e-14
2.791000000000000000e+03 3.315375518798828125e+01 -2.817951393127441406e+01 1.068017880080998627e-13 1.830250360990159919e-13 8.694804723213475639e-14 -2.397918594644696949e-14
2.792000000000000000e+03 3.251683044433593750e+01 -2.873159980773925781e+01 1.252340923020914265e-13 9.942270124589994151e-14 6.739704280778191503e-14 1.669750627911539831e-14
2.793000000000000000e+03 3.181940078735351562e+01 -2.920949935913085938e+01 6.160210162749245669e-16 9.176590964974501441e-14 2.771457752691591087e-14 2.529555815570898314e-14
2.794000000000000000e+03 2.949427795410156250e+01 -3.011152267456054688e+01 -3.727542634366504126e-14 -1.597518199268534861e-14 -1.597518199268534861e-14 6.695576913544852571e-15
2.795000000000000000e+03 2.535317993164062500e+01 -3.037825584411621094e+01 -9.894176949097610585e-14 -1.567809873896305883e-13 -7.671682435367657704e-14 -2.099944601075074552e-15
2.796000000000000000e+03 2.452560043334960938e+01 -3.030343818664550781e+01 -6.564440966716836301e-14 1.091195276498035938e-13 1.304253708885646373e-14 3.080638500373156230e-14
2.797000000000000000e+03 2.371043777465820312e+01 -3.016903495788574219e+01 -7.957572318098571351e-14 -7.985483070150137253e-14 -4.782916548711976801e-14 4.471310406889243694e-14
2.798000000000000000e+03 2.133551788330078125e+01 -2.955081558227539062e+01 3.273012218782227201e-14 -5.459922878398026924e-14 -6.560731809440809720e-15 5.173482424251397982e-14
2.799000000000000000e+03 1.980959320068359375e+01 -2.891222000122070312e+01 -1.444730972225208299e-13 2.958485507357361266e-14 -3.446647196705780736e-14 1.227719098259583141e-13
2.800000000000000000e+03 1.771728706359863281e+01 -2.759493255615234375e+01 -1.761598543903106218e-13 -2.127499294356932635e-13 -1.166729337925484500e-13 7.151035677239320210e-14
2.801000000000000000e+03 1.596936607360839844e+01 -2.590323066711425781e+01 -2.637143230025708329e-14 1.917177896472443965e-13 4.960390957578844628e-14 5.778427595356377955e-14
2.802000000000000000e+03 1.425662040710449219e+01 -2.418765068054199219e+01 -1.890569948856390958e-13 -6.557707393599343515e-13 -2.534483040106394469e-13 6.326430129549240333e-14
2.803000000000000000e+03 1.368070220947265625e+01 -2.359625434875488281e+01 -1.453048768004609748e-14 -1.277533038124972764e-13 -4.268513778657619107e-14 2.034318622844838442e-13
2.804000000000000000e+03 1.312427711486816406e+01 -2.296362304687500000e+01 -1.784254168024634879e-13 -3.624114626021163188e-13 -1.622510719528902357e-13 1.468333104843316805e-13
2.805000000000000000e+03 1.233485126495361328e+01 -2.147370147705078125e+01 -5.603739586072797874e-14 -4.128990985924341217e-13 -1.406809510464540613e-13 1.972401869653264694e-13
2.806000000000000000e+03 1.187769889831542969e+01 -1.904391288757324219e+01 -1.700921779183676985e-14 -1.445425132666142143e-13 -4.846551762346940073e-14 1.699948368920692343e-14
2.807000000000000000e+03 1.218008899688720703e+01 -1.576067352294921875e+01 1.717526843675060838e-14 -1.756429610045781575e-13 -4.754031031144710651e-14 -1.769078454691083713e-14
2.808000000000000000e+03 1.426039695739746094e+01 -1.319176578521728516e+01 8.688748776453786293e-14 -8.513452766920667075e-15 2.351221160042799019e-14 9.064337415419856936e-14
2.809000000000000000e+03 5.508649826049804688e+01 -8.754219055175781250e+00 5.016537722333722082e-14 4.342841682108836490e-15 1.635246571398546456e-14 2.324287545199185678e-14
2.810000000000000000e+03 5.442356109619140625e+01 -8.389809608459472656e+00 7.246474436944840697e-15 1.168393520497613969e-14 5.679122977279588841e-15 -1.149434466742515690e-14
2.811000000000000000e+03 5.847162628173828125e+01 -1.067080497741699219e+01 -9.091521752015857549e-14 -1.608818974037622834e-14 -3.210102065350113609e-14 -3.721198696404748318e-14
2.812000000000000000e+03 5.776147079467773438e+01 -1.036649513244628906e+01 4.952580636178802176e-14 1.699159340789666017e-13 6.583251874409459803e-14 7.200221186420482922e-14
2.813000000000000000e+03 5.952381134033203125e+01 -1.027054214477539062e+01 6.933495932340966172e-14 5.259045626824880582e-14 3.657762704918979257e-14 -9.936325308552984570e-14
2.814000000000000000e+03 5.995426177978515625e+01 -1.114924716949462891e+01 2.041943545673385874e-13 1.103873394601995184e-13 9.437450685300871611e-14 -4.681555165232664795e-14
2.815000000000000000e+03 6.147319412231445312e+01 -1.151024246215820312e+01 1.166591644249578841e-13 4.245834386791590490e-15 3.627149917765672138e-14 3.315564782360030938e-14
2.816000000000000000e+03 6.419213104248046875e+01 -1.075103282928466797e+01 4.951309409131562922e-14 -2.990367556441470009e-13 -7.485709236721219129e-14 -2.172798413088185276e-14
2.817000000000000000e+03 6.380889511108398438e+01 -1.194193077087402344e+01 1.189673088774351184e-13 -1.320178097700616671e-13 -3.915150606601143501e-15 -2.389971900940146554e-14
2.818000000000000000e+03 6.459007263183593750e+01 -1.217314052581787109e+01 1.066027623705494143e-13 2.286906829272045139e-13 1.005880356222052519e-13 -1.329283024257242596e-14
2.819000000000000000e+03 6.886247253417968750e+01 -1.533171367645263672e+01 -1.042998762986087347e-13 -5.479603858334070043e-13 -1.956780820277365107e-13 6.677321998278806792e-14
2.820000000000000000e+03 6.795976257324218750e+01 -1.661326789855957031e+01 -8.790650228140267641e-14 -7.010629598548645536e-13 -2.366908481276491782e-13 1.365444758129330527e-13
2.821000000000000000e+03 6.807528686523437500e+01 -1.821957588195800781e+01 -4.521393093368138161e-14 -7.513926004835969064e-13 -2.389819570534912341e-13 -4.635543657911453397e-14
2.822000000000000000e+03 6.599793243408203125e+01 -2.345769882202148438e+01 -8.700848472698724523e-14 -8.304029799942672097e-14 -5.101463278504511645e-14 -6.945221578836396903e-14
2.823000000000000000e+03 6.489511871337890625e+01 -2.464305114746093750e+01 3.802818791202172699e-14 -7.520410482504333305e-14 -1.115277524331307127e-14 8.308112498748437824e-14
2.824000000000000000e+03 6.432941436767578125e+01 -2.522385597229003906e+01 6.252255115545002351e-14 2.679537737255554414e-14 2.679537737255554414e-14 -5.393114340529470141e-14
2.825000000000000000e+03 6.125492477416992188e+01 -2.785916519165039062e+01 7.760538224413707220e-14 -5.824244623912899765e-14 5.808880377985948737e-15 3.991598379409454223e-14
2.826000000000000000e+03 6.237760162353515625e+01 -2.810888862609863281e+01 -3.128931914454270713e-14 -2.078512465223877892e-13 -7.174216597313418098e-14 2.661664833848720324e-14
2.827000000000000000e+03 6.059881973266601562e+01 -2.832892608642578125e+01 1.414753866358156587e-13 3.808889510216462160e-13 1.567093080735021404e-13 1.740488178927912521e-13
2.828000000000000000e+03 5.914232635498046875e+01 -2.907149887084960938e+01 -1.438506059333200665e-14 -5.191597409674557351e-14 -1.989031057642986350e-14 5.149869517374200401e-14
2.829000000000000000e+03 5.834943771362304688e+01 -2.932301330566406250e+01 3.043664495785969315e-14 5.879522671677073209e-14 2.676955980832323306e-14 -6.704164557080590295e-15
2.830000000000000000e+03 4.991787719726562500e+01 -2.694240379333496094e+01 -1.761913369108941696e-13 -2.527955058825859247e-13 -1.286960447065277346e-13 1.502497670551050657e-13
2.831000000000000000e+03 4.934556579589843750e+01 -2.635898780822753906e+01 -8.317214375986453634e-14 -2.459029887266067638e-13 -9.872253703543595882e-14 2.053330921091001127e-13
2.832000000000000000e+03 4.824193191528320312e+01 -2.514447212219238281e+01 -1.785300152070540269e-13 -3.581671363574873146e-13 -1.610091454693624025e-13 2.631376019857079029e-13
2.833000000000000000e+03 4.772686004638671875e+01 -2.449352264404296875e+01 -1.970098346612547680e-13 -3.846733858097611813e-13 -1.745049688518102160e-13 3.310409943130948607e-13
2.834000000000000000e+03 4.648926925659179688e+01 -1.975905418395996094e+01 -6.038333895397318685e-14 -3.232597295312750196e-13 -1.150929259665853244e-13 -1.115781085418449808e-14
2.835000000000000000e+03 4.659416580200195312e+01 -2.139664268493652344e+01 -5.552675019001446222e-14 -5.270576184691899702e-13 -1.747753146635194765e-13 7.532717532414759387e-14
2.836000000000000000e+03 4.693606948852539062e+01 -1.490400028228759766e+01 7.404829787532873908e-15 9.467539328466417770e-14 3.062406624403275768e-14 6.402947359059225907e-15
2.837000000000000000e+03 4.713650131225585938e+01 -1.411568164825439453e+01 8.853683709569501459e-14 3.794435875529786339e-14 3.794435875529786339e-14 -2.708369722340554092e-14
2.838000000000000000e+03 4.850179672241210938e+01 -1.114412593841552734e+01 3.722020657176763891e-14 -1.670522850908892631e-13 -3.894962084523105605e-14 -9.421046706431165929e-14
2.839000000000000000e+03 5.165020370483398438e+01 -8.527343750000000000e+00 -2.335511341614027181e-13 -8.591450948835632068e-15 -7.264277883649999934e-14 1.197306278644463817e-13
2.840000000000000000e+03 5.085554885864257812e+01 1.053016930818557739e-01 6.984221686233416104e-14 6.424559235301829929e-14 4.022634344223209590e-14 1.542139219058366595e-13
2.841000000000000000e+03 7.905246734619140625e+01 1.459009552001953125e+01 -1.720559899252589037e-14 -1.446266744602534016e-13 -4.854968220524037703e-14 7.102784614805568442e-15
2.842000000000000000e+03 7.451802825927734375e+01 1.775806045532226562e+01 -9.655993994835132543e-14 -1.328847242746539203e-13 -6.883340062215428934e-14 -1.528954371964041936e-13
2.843000000000000000e+03 7.898617553710937500e+01 1.223777008056640625e+01 3.843368630079488368e-14 -1.207812604271663037e-13 -2.470427494841685723e-14 -4.849082696793335923e-14
2.844000000000000000e+03 4.199124908447265625e+01 5.614038109779357910e-01 3.314175648326533885e-15 -2.273343866670066160e-13 -6.720606059509859342e-14 3.136924517344562291e-14
2.845000000000000000e+03 4.148397827148437500e+01 -4.800358712673187256e-01 7.360376820834610423e-14 4.298220918183721928e-14 3.497579287824181815e-14 -1.192047491532094439e-13
2.846000000000000000e+03 7.022445678710937500e+01 1.756681442260742188e+01 9.893777149546506555e-14 1.339037930016273581e-13 6.985246934912772709e-14 9.440216078467067451e-14
2.847000000000000000e+03 7.165975952148437500e+01 1.767906188964843750e+01 8.540680641010156560e-14 8.235386927523541400e-14 5.032820067272202047e-14 -2.298767628344539765e-14
2.848000000000000000e+03 7.317708587646484375e+01 1.712081909179687500e+01 -9.863792860840062127e-14 4.922849779730176234e-14 -1.482282924332965768e-14 -1.508571371121314453e-13
2.849000000000000000e+03 7.076052856445312500e+01 1.583455657958984375e+01 2.575830919545295250e-14 -2.177154669654596253e-13 -5.758714766981518074e-14 -1.608646687536151310e-14
2.850000000000000000e+03 7.028454589843750000e+01 1.686105155944824219e+01 6.357858440024163893e-14 -1.850298411124225162e-14 1.352268025610640564e-14 1.852315501503498663e-13
2.851000000000000000e+03 9.372245788574218750e+00 -1.881697535514831543e+00 -7.118869431660748703e-14 1.067434037211115183e-13 1.066641231313144103e-14 1.617765674839701656e-14
2.852000000000000000e+03 9.828043937683105469e+00 -3.429042100906372070e+00 2.127671546977086270e-14 1.006204871484804586e-13 3.656916010784903859e-14 1.683625705213923074e-13
2.853000000000000000e+03 1.066448211669921875e+01 -2.780511140823364258e+00 4.981499865657369047e-15 1.851387288918579510e-13 5.703606803433153294e-14 -1.260493784544826357e-14
2.854000000000000000e+03 1.372532844543457031e+01 -2.555632114410400391e+00 -4.904752412592319755e-14 1.619834230940850328e-13 3.388076901282219278e-14 6.721181364287634463e-14
2.855000000000000000e+03 7.526368713378906250e+01 1.711228561401367188e+01 -7.169738164714695161e-14 1.502349981886367397e-14 -1.700216370145203604e-14 -3.804394950110423501e-14
2.856000000000000000e+03 7.387152862548828125e+01 1.713342666625976562e+01 -5.501025829789899652e-15 4.339336575069803470e-14 1.136770223038232469e-14 -1.132943971927577453e-13
2.857000000000000000e+03 7.593582916259765625e+01 1.708899879455566406e+01 7.675869488632525162e-14 -4.703638737182935792e-13 -1.180815428075687734e-13 2.094789219744905978e-14
2.858000000000000000e+03 1.447146034240722656e+01 -2.689009904861450195e+00 -6.342821911144505553e-14 1.856742468380346428e-14 -1.345823883651224573e-14 -3.378892014815372546e-14
2.859000000000000000e+03 1.138218307495117188e+01 -2.879495620727539062e+00 -9.049692554575008985e-14 1.670948806837407874e-13 2.297938552495767256e-14 1.501738864555582365e-13
2.860000000000000000e+03 1.433154582977294922e+01 -3.355158329010009766e+00 2.500280324034716284e-14 1.071548770802946068e-14 1.071548770802946068e-14 1.398057017376608258e-13
2.861000000000000000e+03 1.210673141479492188e+01 -2.987940788269042969e+00 3.063739981317196125e-15 -1.588152894783922964e-13 -4.672546461618846958e-14 -2.900797142638480985e-14
2.862000000000000000e+03 1.284126472473144531e+01 -3.102988481521606445e+00 8.689792321044803591e-15 1.867279930938686716e-13 5.862533223634225354e-14 1.058317591006406599e-13
2.863000000000000000e+03 4.780643463134765625e+01 -7.097439169883728027e-01 -1.292148761036435167e-13 3.612409172791195000e-14 -2.792723700678536453e-14 4.814297764155033021e-14
2.864000000000000000e+03 4.849481964111328125e+01 -7.635638713836669922e-01 -1.139680797651587696e-14 4.086660209453446546e-14 8.840938574218755452e-15 -1.348926260405156063e-13
2.865000000000000000e+03 4.707896804809570312e+01 -6.807390451431274414e-01 -3.619175949600220155e-14 7.599114751084129482e-14 1.193981623504513853e-14 -7.785120475795742623e-14
2.866000000000000000e+03 4.843322753906250000e+01 -1.423836588859558105e+00 -2.106251506756376402e-13 -9.026792171813041721e-14 -9.026792171813041721e-14 -1.232754404199148945e-13
2.867000000000000000e+03 4.982345199584960938e+01 -4.324164092540740967e-01 -6.324600538383171044e-14 -2.710543208883208627e-14 -2.710543208883208627e-14 -8.581949441453101679e-14
2.868000000000000000e+03 4.558703994750976562e+01 -6.031683087348937988e-01 -1.022378796206036000e-13 2.306894638422901656e-13 3.853547594413232746e-14 3.357860864361406072e-14
2.869000000000000000e+03 4.480219650268554688e+01 1.485631018877029419e-01 -9.896751929257263658e-14 3.336298666601158515e-15 -2.868936506547278831e-14 -4.396953534911230213e-15
2.870000000000000000e+03 4.248545074462890625e+01 -3.490048646926879883e-01 3.957177840345060121e-15 -8.980596350122507787e-14 -2.575463646059365785e-14 5.515896170805306697e-14
2.871000000000000000e+03 4.404336166381835938e+01 -5.429393649101257324e-01 -1.655645970799132782e-13 -1.167072081337261480e-13 -8.468154291934454347e-14 -1.219425053284022703e-14
2.872000000000000000e+03 4.633680343627929688e+01 -6.481859087944030762e-01 -3.274737116676015858e-14 7.746730909747104321e-14 1.341598120980667594e-14 5.086266152178053890e-14
2.873000000000000000e+03 1.663647270202636719e+01 -3.729990482330322266e+00 -3.651125778260768187e-15 2.500654577072131124e-13 7.392429902811428755e-14 -1.793379084558816006e-13
2.874000000000000000e+03 1.742381286621093750e+01 -3.839762926101684570e+00 -2.498664354577944530e-14 -5.645950964779447578e-14 -2.443384612747876578e-14 -6.532431930453275193e-14
2.875000000000000000e+03 1.509065437316894531e+01 -3.484540939331054688e+00 8.482449984622620395e-16 9.186543263291560568e-14 2.781410220415239665e-14 -1.054873351754963273e-13
2.876000000000000000e+03 3.153821754455566406e+01 -6.488080978393554688e+00 -2.253759516252645811e-14 1.733448318696692581e-13 4.524216762401105096e-14 6.056673175144910992e-14
2.877000000000000000e+03 4.211784744262695312e+01 -1.040464401245117188e+00 -1.378739922794705586e-13 -1.505907486383517568e-13 -8.653942498585212584e-14 2.639300284129186130e-14
2.878000000000000000e+03 2.828179359436035156e+01 -4.866024494171142578e+00 -7.144337340692433203e-14 -3.061859102306170588e-14 -3.061859102306170588e-14 2.035177582015990083e-13
2.879000000000000000e+03 4.069976043701171875e+01 -4.434840679168701172e+00 4.457682663207458706e-14 -3.469032244622638483e-13 -9.069792307600174630e-14 -1.534867746138049438e-13
2.880000000000000000e+03 3.905826950073242188e+01 -4.593110561370849609e+00 3.166684850539752683e-14 -3.524360978838375624e-13 -9.623076939252114825e-14 6.342448539021355858e-14
2.881000000000000000e+03 3.261157989501953125e+01 -5.037563323974609375e+00 2.096870989560031817e-13 1.356168459866816112e-13 1.035911807723000067e-13 8.380771831996858962e-15
2.882000000000000000e+03 3.811351776123046875e+01 -4.180129528045654297e+00 1.323378391463250758e-13 -1.720385308821500980e-13 -1.191020396320912819e-14 2.580444030382631621e-14
2.883000000000000000e+03 1.638779258728027344e+01 -1.128919315338134766e+01 7.913448677810200338e-14 -1.490890202092420846e-13 -2.098635935171566658e-14 2.365348314350285142e-14
2.884000000000000000e+03 1.715132713317871094e+01 -1.105395889282226562e+01 2.049049609999763211e-14 5.453259100795387893e-14 2.250692579357227441e-14 -8.700366002731968473e-14
2.885000000000000000e+03 3.890807342529296875e+01 -3.899721860885620117e+00 3.133215529475125161e-14 2.421828200222658767e-13 8.205448717409427606e-14 4.700626281446684818e-14
2.886000000000000000e+03 3.942168045043945312e+01 -2.911490440368652344e+00 9.322214224519176362e-14 2.229561479015484959e-13 9.485348704402207787e-14 -3.020752000452856315e-15
2.887000000000000000e+03 3.973008346557617188e+01 -3.569080591201782227e+00 5.356826432629559209e-14 -3.430497531008158685e-13 -8.684445171455376644e-14 8.977303763649940871e-14
2.888000000000000000e+03 3.676105499267578125e+01 -5.300963401794433594e+00 6.612538885593724491e-14 -1.741149576134446569e-14 1.461416775897124432e-14 -1.346893110281202621e-13
2.889000000000000000e+03 3.275384902954101562e+01 -5.660065650939941406e+00 5.323543797626506535e-14 -1.601886077126982166e-13 -3.208595024330358758e-14 1.674336938626425075e-13
2.890000000000000000e+03 3.717524337768554688e+01 -3.802588224411010742e+00 1.352978737075363758e-13 -3.351709033472087540e-14 3.053423670591054462e-14 4.580693870005411727e-14
2.891000000000000000e+03 3.565964889526367188e+01 -4.236944198608398438e+00 3.075491792660367540e-13 4.030489727776045972e-14 1.043562277065236688e-13 3.102357780393472098e-14
2.892000000000000000e+03 3.352482604980468750e+01 -5.536379337310791016e+00 1.411131682425154077e-13 -3.102482463643307931e-14 3.302650240419834071e-14 2.053425043392100025e-14
2.893000000000000000e+03 2.577066993713378906e+01 -2.829575538635253906e+00 -1.573107285711070058e-13 -6.741888270529391991e-14 -6.741888270529391991e-14 4.745443811125446554e-14
2.894000000000000000e+03 3.734057617187500000e+01 -4.427193164825439453e+00 1.151650254110556104e-13 3.605488490095653739e-15 3.563115243392783738e-14 -5.336508145104001954e-14
2.895000000000000000e+03 3.447779464721679688e+01 -6.003917217254638672e+00 1.353680622456776561e-13 -7.923796032293858871e-14 1.683903023800854132e-14 9.475082665081485667e-14
2.896000000000000000e+03 2.777870559692382812e+01 -4.377190589904785156e+00 -2.071403893679976682e-13 -3.158576373542276716e-14 -7.161784186526798379e-14 1.079725027376861324e-13
2.897000000000000000e+03 3.204109954833984375e+01 -5.766165256500244141e+00 -1.438884683060623337e-14 1.310861955008263413e-13 3.500920663394510579e-14 2.927125637144575854e-14
2.898000000000000000e+03 3.142380332946777344e+01 -5.891901016235351562e+00 -1.098148807131271720e-13 -1.843163615440276959e-13 -8.823937267714646038e-14 2.446468049845107462e-13
2.899000000000000000e+03 2.640062141418457031e+01 -2.703034639358520508e+00 -2.426344715422690257e-13 -1.954881027020627382e-13 -1.314367722732995292e-13 1.252351493992095999e-13
2.900000000000000000e+03 5.139766693115234375e+01 1.233543306589126587e-01 3.878340926405723921e-14 -9.775590981229292931e-14 -1.769175016447070703e-14 -1.389928550401577090e-14
2.901000000000000000e+03 6.803549957275390625e+01 -2.073750686645507812e+01 -1.352465096296148750e-13 -8.586044202008036308e-13 -2.981552721728619737e-13 -9.234026575061921038e-14
2.902000000000000000e+03 6.660754394531250000e+01 1.076327037811279297e+01 3.926806796394899379e-14 -1.784146832009558814e-14 6.427980147265905872e-15 -8.937936382766992205e-14
2.903000000000000000e+03 6.763219451904296875e+01 1.295949649810791016e+01 -6.596939249210731493e-14 -2.341518634801226240e-13 -9.003637679166898167e-14 -2.230692437406658901e-14
2.904000000000000000e+03 5.291387176513671875e+01 1.890065819025039673e-01 1.130594590523096091e-14 -1.552829181428530547e-13 -4.319308989251743891e-14 -7.051493042904352637e-14
2.905000000000000000e+03 4.945971679687500000e+01 -2.893296051025390625e+01 -1.780227712206566837e-13 -1.677973759288756139e-13 -1.037460455001124049e-13 8.440325532672182662e-14
2.906000000000000000e+03 5.018211364746093750e+01 -2.954122543334960938e+01 -1.211717358395869581e-13 -9.768169617358629653e-14 -6.565603095920469201e-14 9.392659583050064209e-14
2.907000000000000000e+03 6.787389373779296875e+01 1.373087978363037109e+01 1.654299899920674138e-14 -2.902913098703358008e-13 -8.212449275311894947e-14 -3.827088995646439618e-14
2.908000000000000000e+03 7.196573638916015625e+01 1.639909362792968750e+01 1.252386595037430217e-13 -1.293300861369972576e-13 -1.227427397053207705e-15 -1.676280235495333781e-13
2.909000000000000000e+03 5.448163986206054688e+01 4.945358037948608398e-01 -1.779760556595497145e-13 -2.364037784974293288e-13 -1.243139434708301350e-13 -3.275015621109073072e-14
2.910000000000000000e+03 5.240639114379882812e+01 -8.267460823059082031e+00 -2.228169498951285132e-13 1.103862891393449230e-13 -3.372920093724050827e-14 -1.026904798175076738e-13
2.911000000000000000e+03 5.698396301269531250e+01 9.556265473365783691e-01 -2.073340990267711487e-14 3.686520151104620557e-14 4.839537567214021938e-15 -1.510683125902773094e-13
2.912000000000000000e+03 6.609639739990234375e+01 9.022526741027832031e+00 1.829564908047923849e-15 -1.822196907252937592e-13 -5.411704003216270820e-14 4.721038716684329388e-16
2.913000000000000000e+03 5.312475204467773438e+01 -4.178020656108856201e-01 -1.062887774213976122e-13 -2.285561334375990628e-13 -1.004534725800726447e-13 -6.593643952232733363e-14
2.914000000000000000e+03 5.236170578002929688e+01 -5.292273759841918945e-01 -8.463442755868647027e-14 -8.202284879944843343e-14 -4.999718358506682891e-14 -1.689754602686194696e-15
2.915000000000000000e+03 6.453504180908203125e+01 8.288041114807128906e+00 -9.148015461465930365e-14 -6.208125376619411107e-14 -4.606842115900330881e-14 -5.399306490187077978e-14
2.916000000000000000e+03 6.497822570800781250e+01 7.788079261779785156e+00 -1.781109541267294344e-14 -5.338427521762480199e-14 -2.135861169730909198e-14 -3.994100514735643426e-14
2.917000000000000000e+03 5.470195388793945312e+01 -5.686457082629203796e-02 -7.907358849732620820e-14 1.491151088240175171e-13 2.101245813088646608e-14 3.054262910835194023e-14
2.918000000000000000e+03 6.439292144775390625e+01 7.215600013732910156e+00 -8.580682280164009246e-14 2.377313298475292047e-13 4.557735550189852269e-14 -1.379526918046658501e-13
2.919000000000000000e+03 6.824038696289062500e+01 1.261719417572021484e+01 6.172420566200390035e-14 -1.107996141125507095e-13 -1.472262355160357944e-14 -2.717095686356578443e-14
2.920000000000000000e+03 5.624881362915039062e+01 5.539845228195190430e-01 -1.448395440042937743e-13 1.209297012571067254e-13 -7.172950283057272919e-15 -2.084994469556036151e-15
2.921000000000000000e+03 5.897745895385742188e+01 2.444544076919555664e+00 -1.143786806804061862e-13 -4.901943651339224495e-14 -4.901943651339224495e-14 -5.165000913943951222e-14
2.922000000000000000e+03 6.751828002929687500e+01 1.110561180114746094e+01 2.195866635428650980e-15 -2.278136717898809893e-13 -6.768533894170938869e-14 -9.092232582065193358e-14
2.923000000000000000e+03 6.032821655273437500e+01 4.618171691894531250e+00 -3.065213013964118716e-14 -1.389517298965026182e-13 -5.088116072134857282e-14 2.688332480346895814e-14
2.924000000000000000e+03 6.198621749877929688e+01 5.065662384033203125e+00 6.946341864612435441e-15 2.977003595760118956e-15 2.977003595760118956e-15 1.554838136056345670e-15
2.925000000000000000e+03 6.164251327514648438e+01 2.893169879913330078e+00 -1.298500694989213056e-13 -2.729670330915701104e-13 -1.208451334876528560e-13 -3.494159646409526754e-14
2.926000000000000000e+03 6.320651245117187500e+01 6.119914531707763672e+00 -1.561798819882821016e-14 -6.693423332276458512e-15 -6.693423332276458512e-15 -1.132672108232826713e-13
2.927000000000000000e+03 6.922797393798828125e+01 1.551833057403564453e+01 1.375914491933208361e-13 -1.469115085660221975e-13 -2.796015736579687654e-15 4.661916198130805489e-14
2.928000000000000000e+03 6.259840393066406250e+01 5.587034702301025391e+00 -5.240504753235841751e-14 -6.821025542351824567e-14 -3.618459020913664115e-14 9.249250806442690931e-15
2.929000000000000000e+03 5.856625366210937500e+01 3.012292146682739258e+00 2.870657338682920667e-14 5.233489626366681635e-14 2.431244089514880691e-14 -9.571840932712238903e-14
2.930000000000000000e+03 6.077655792236328125e+01 4.031828403472900391e+00 -4.456355870798879570e-14 2.665228132051229715e-14 -5.373383046836360116e-15 -9.771194541419864210e-14
2.931000000000000000e+03 6.660840606689453125e+01 9.684105873107910156e+00 -9.791066611988807900e-14 -2.707164462219247003e-13 -1.105881337025438338e-13 -1.170858250848852422e-13
2.932000000000000000e+03 6.656339263916015625e+01 8.574038505554199219e+00 -1.256420911321248779e-13 -9.959755595126754124e-14 -6.757189751314951476e-14 -1.525787417418211778e-13
2.933000000000000000e+03 6.155023574829101562e+01 5.633193969726562500e+00 -1.023445515618490176e-13 -6.673742775856889020e-14 -5.072459515137808794e-14 4.383730249461759154e-14
2.934000000000000000e+03 5.958257675170898438e+01 2.977471828460693359e+00 -3.330412931112219921e-14 3.147775009398889878e-14 -5.479133733872520225e-16 -1.033876421432065873e-13
2.935000000000000000e+03 5.834950256347656250e+01 1.918663859367370605e+00 -1.947463457857567803e-13 -8.346272349461780760e-14 -8.346272349461780760e-14 -4.188807639507810543e-14
2.936000000000000000e+03 6.789847564697265625e+01 1.185546112060546875e+01 -1.307827544178019608e-13 -3.305554343701472275e-13 -1.384014566363847565e-13 1.243442079580355311e-14
2.937000000000000000e+03 3.575575256347656250e+01 -1.884984016418457031e+01 -6.044125567877464689e-14 -4.376619238462969852e-13 -1.494309640219168567e-13 1.438095383879053890e-13
2.938000000000000000e+03 3.395655822753906250e+01 -1.637207603454589844e+01 -4.198619262592989676e-13 -3.171936725863272466e-13 -2.211166769431824330e-13 2.734984005763052561e-13
2.939000000000000000e+03 5.281932449340820312e+01 -7.428083896636962891e+00 -1.798661724118980065e-13 -8.459076639838730011e-15 -5.649757192031229502e-14 -1.293784008963086429e-13
2.940000000000000000e+03 5.347929000854492188e+01 -7.075405120849609375e+00 -5.504588619772640690e-14 2.215985404343482484e-14 -9.865809476880885165e-15 5.360815957811126964e-14
2.941000000000000000e+03 7.956920623779296875e+01 -3.490364074707031250e+01 -3.132851305307805811e-14 -7.683171590264215034e-13 -2.398936897653886069e-13 5.777547782234064913e-15
2.942000000000000000e+03 7.868618011474609375e+01 -3.567385482788085938e+01 -6.928140397125361408e-15 -6.434825003572008928e-13 -1.951231873558584295e-13 1.806576942079210490e-14
2.943000000000000000e+03 7.961769866943359375e+01 -2.929380989074707031e+01 7.867544913079879687e-14 -5.152933201663101315e-13 -1.309853646987851894e-13 -3.174976964280193381e-14
2.944000000000000000e+03 7.876515960693359375e+01 -3.238869094848632812e+01 -4.290920680024516015e-15 -3.678465680927861525e-13 -1.116412463777333164e-13 -7.921216308749701174e-14
2.945000000000000000e+03 7.964418792724609375e+01 -2.292429351806640625e+01 -1.852739390671622605e-14 -5.569516744498292926e-13 -1.726437325348315066e-13 3.729940415233591600e-14
2.946000000000000000e+03 7.890602874755859375e+01 -2.597226333618164062e+01 1.940298584033662600e-15 -5.024288819190092514e-13 -1.501465781133387578e-13 2.215402306862592624e-14
2.947000000000000000e+03 7.964681243896484375e+01 -2.133261108398437500e+01 8.020084344869651740e-16 -5.486676651206279232e-13 -1.643596961005758250e-13 -4.881090462507476149e-15
2.948000000000000000e+03 7.892874145507812500e+01 -2.278653717041015625e+01 -4.049740753788062808e-14 -5.206164817826708369e-13 -1.683341644244731872e-13 -7.574515559043148993e-14
2.949000000000000000e+03 7.891338348388671875e+01 -2.517638778686523438e+01 -2.381183764705793737e-14 -5.592164643679342628e-13 -1.749084953478821647e-13 1.848875395772837937e-14
2.950000000000000000e+03 7.888505554199218750e+01 -2.756166076660156250e+01 1.304886781310424237e-14 -5.891699888377344152e-13 -1.728363274982464004e-13 5.810590452803160444e-14
2.951000000000000000e+03 7.962845611572265625e+01 -2.770142936706542969e+01 4.916506858207957131e-14 -4.364387540603531512e-13 -1.161821019165371061e-13 -3.886663618035560500e-15
2.952000000000000000e+03 7.885649871826171875e+01 -2.915076255798339844e+01 1.110070558694650766e-14 -5.900048787206568779e-13 -1.736712580387503313e-13 -8.201231848584816797e-14
2.953000000000000000e+03 7.883977508544921875e+01 -2.995062637329101562e+01 7.528399697262835866e-14 -2.879920694282001037e-13 -6.381242648005602813e-14 -2.381662338320992417e-14
2.954000000000000000e+03 7.872916412353515625e+01 -3.401529312133789062e+01 2.842638844040464019e-14 -6.969569778074446997e-13 -2.005591737607934077e-13 -4.125004713349290919e-14
2.955000000000000000e+03 7.873954772949218750e+01 -3.320465850830078125e+01 9.388545374618660622e-15 -7.279915060533215243e-13 -2.155808897282701642e-13 -6.167411552163507005e-14
2.956000000000000000e+03 7.958145904541015625e+01 -3.329758453369140625e+01 1.037899624643616459e-13 -3.672771180067424535e-13 -7.904615140609874691e-14 5.771395189015093852e-14
2.957000000000000000e+03 7.724839782714843750e+01 -3.903290939331054688e+01 1.615173754021103497e-14 -5.420892142289635007e-13 -1.577812452089114026e-13 -3.066286712928058267e-14
2.958000000000000000e+03 7.792911529541015625e+01 -3.955434036254882812e+01 -9.558626541108714014e-14 -3.154712276999538378e-13 -1.233172499661913668e-13 -5.462046898216561808e-14
2.959000000000000000e+03 7.890007781982421875e+01 -3.945903396606445312e+01 -1.018087117431523692e-13 -5.011417713099430848e-13 -1.808851462711813518e-13 -1.478355876301587490e-13
2.960000000000000000e+03 7.961682128906250000e+01 -3.964138031005859375e+01 7.534074140383081875e-14 -5.624734619041893424e-13 -1.461398141172284837e-13 1.814149755440842837e-14
2.961000000000000000e+03 7.865142822265625000e+01 -4.008259201049804688e+01 -1.767256148008360811e-14 -5.565853225357464407e-13 -1.722773670682214986e-13 2.456313808358060943e-15
2.962000000000000000e+03 7.831083679199218750e+01 -4.080155944824218750e+01 8.194941273698738010e-15 -3.167445147313208142e-13 -9.256487178317673870e-14 2.764342675934654964e-14
2.963000000000000000e+03 7.841339111328125000e+01 -4.184266281127929688e+01 -4.914843285499549685e-14 -5.586372835673925064e-13 -1.823357139102768643e-13 6.809959903928894387e-14
2.964000000000000000e+03 7.966199493408203125e+01 1.210571765899658203e+01 -1.303979981718411674e-13 -3.303905543247664944e-13 -1.382365630384768673e-13 2.631421861280184432e-14
2.965000000000000000e+03 7.968487548828125000e+01 1.448111152648925781e+01 2.913080983846152300e-15 -1.817553269348182177e-13 -5.365267624168716665e-14 5.861546769063852996e-15
2.966000000000000000e+03 7.897492218017578125e+01 1.144724273681640625e+01 -6.264721407649512241e-14 -3.013545088383778880e-13 -1.092005175520882609e-13 1.384783672279954470e-13
2.967000000000000000e+03 7.828235626220703125e+01 9.187072753906250000e+00 -6.296732476792146760e-14 -9.561242178849835294e-14 -4.757392396692594616e-14 2.291862446351933258e-13
2.968000000000000000e+03 7.969742584228515625e+01 1.605786132812500000e+01 9.350777530753306976e-14 -5.142713783035796071e-14 1.262419175137230107e-14 -2.172354737230413474e-14
2.969000000000000000e+03 7.781569671630859375e+01 1.768812179565429688e+01 9.499330507855945072e-15 -1.331817008022248561e-13 -3.710471193534362055e-14 8.076861662126288977e-14
2.970000000000000000e+03 7.658009338378906250e+01 1.706277084350585938e+01 -1.712903060222589063e-15 -4.648504956070338701e-14 -1.445938604038767700e-14 2.298560274679051912e-14
2.971000000000000000e+03 7.964944458007812500e+01 -1.814685821533203125e+01 1.223531367368357881e-13 3.269427643112082782e-13 1.347887730249186511e-13 -2.126969187257223004e-14
2.972000000000000000e+03 7.964989471435546875e+01 -1.735052871704101562e+01 -8.635922380852145697e-14 1.459927014349493568e-13 1.789004227148883325e-14 -9.242753216704303193e-15
2.973000000000000000e+03 7.964983367919921875e+01 -1.177764797210693359e+01 9.043452971072354907e-14 1.760105055410507435e-13 7.993350989790592998e-14 6.311497277502325920e-14
2.974000000000000000e+03 7.964982604980468750e+01 -1.098109436035156250e+01 -1.465779537676570321e-13 1.659356246158649739e-13 5.807301085055793094e-15 1.148104777481256944e-13
2.975000000000000000e+03 7.895764160156250000e+01 5.877491474151611328e+00 3.141966667310341910e-13 -2.313518842646244966e-13 2.485343406229655050e-14 -3.111854374984908411e-14
2.976000000000000000e+03 7.965276336669921875e+01 6.534627437591552734e+00 4.171890968535790778e-13 4.154248017633477286e-14 1.376194758194795864e-13 -8.239430324000554529e-14
2.977000000000000000e+03 7.895209503173828125e+01 -4.916543066501617432e-01 -1.337683653082621937e-12 -1.122304397853379765e-12 -7.379964152808005107e-13 -1.023316088984149719e-12
2.978000000000000000e+03 7.965086364746093750e+01 1.652729213237762451e-01 -3.455749575387301320e-12 -1.389533670417830713e-12 -1.453584973741539610e-12 -1.271311831849142315e-12
2.979000000000000000e+03 7.895224761962890625e+01 -6.065685272216796875e+00 2.343939929302929492e-13 1.004545635585087082e-13 1.004545635585087082e-13 -2.504845662213827512e-14
2.980000000000000000e+03 7.965038299560546875e+01 -5.408125877380371094e+00 2.477220902366572552e-13 1.061666081653492300e-13 1.061666081653492300e-13 -1.902776167964775889e-14
2.981000000000000000e+03 7.965388488769531250e+01 8.923421859741210938e+00 -2.147618969597017702e-13 -9.204080911057871406e-14 -9.204080911057871406e-14 8.912650755225556831e-14
2.982000000000000000e+03 7.896902465820312500e+01 1.065405559539794922e+01 1.425772477511855207e-13 -4.879068611803039079e-13 -1.035988853839882318e-13 9.330877677503693346e-14
2.983000000000000000e+03 7.896018981933593750e+01 6.672284603118896484e+00 -2.606188106036438912e-13 -2.031956823937350332e-13 -1.391443519649718241e-13 1.624445749356245861e-13
2.984000000000000000e+03 7.896187591552734375e+01 7.467515945434570312e+00 3.051648018483066327e-13 -9.796982967718789737e-14 6.215848961845654719e-14 -6.141942287879106899e-14
2.985000000000000000e+03 7.826277923583984375e+01 5.223716735839843750e+00 1.422101504481090850e-13 -3.965622860473139166e-13 -7.630564067976144949e-14 2.534217376692817630e-14
2.986000000000000000e+03 7.895561218261718750e+01 5.081896305084228516e+00 -3.642528986769200117e-13 -4.763650411632180948e-13 -2.521853711100197071e-13 1.814773239452657783e-13
2.987000000000000000e+03 7.825677490234375000e+01 2.834474086761474609e+00 -2.531165923559675068e-13 -8.404936902711712676e-13 -3.280831010511742196e-13 5.679825641931313118e-13
2.988000000000000000e+03 7.895291900634765625e+01 2.692571878433227539e+00 4.241858600484427200e-13 -3.214664862430383074e-13 3.081581078636860815e-14 -1.769950017712490498e-13
2.989000000000000000e+03 7.965080261230468750e+01 2.553630352020263672e+00 -8.798053973725628030e-13 -4.228104140673732969e-13 -3.907847353004645363e-13 3.456173606856960401e-13
2.990000000000000000e+03 7.825457763671875000e+01 -3.509730696678161621e-01 -8.196300626053809602e-13 -1.225152927242581513e-13 -2.826436187961661739e-13 -1.000058597131620042e-13
2.991000000000000000e+03 7.895273590087890625e+01 1.896491885185241699e+00 -4.742427696206863441e-13 -9.810130138787620524e-13 -4.365767187868019317e-13 8.255113172900285790e-13
2.992000000000000000e+03 7.895075988769531250e+01 -2.881329059600830078e+00 6.498909483482195881e-13 -2.247357437949390468e-13 1.275465600107314468e-13 1.061355389968439422e-13
2.993000000000000000e+03 7.964992523193359375e+01 -3.019763708114624023e+00 -7.275616741020396461e-13 -1.745593009331788958e-13 -2.706362965763237094e-13 3.254983630719687770e-14
2.994000000000000000e+03 7.895139312744140625e+01 -4.473578453063964844e+00 3.907449721857886304e-13 -1.554167053028059770e-14 1.125609886331799259e-13 3.711330762569235719e-14
2.995000000000000000e+03 7.825592803955078125e+01 -6.720046043395996094e+00 3.022046046567694599e-13 1.295162572025401748e-13 1.295162572025401748e-13 -5.559175488651854624e-15
2.996000000000000000e+03 7.895237731933593750e+01 -6.861201763153076172e+00 -2.798967383820655241e-13 1.087990036062989885e-13 -5.132931907747724509e-14 -4.952981452169442911e-14
2.997000000000000000e+03 7.895098114013671875e+01 -1.004533767700195312e+01 -1.958070343236265054e-13 5.333554710623515660e-14 -4.274144514877786794e-14 6.078949464031341288e-14
2.998000000000000000e+03 7.895168304443359375e+01 -9.248803138732910156e+00 1.984445593961048360e-13 2.680514501769010183e-13 1.399488028719017563e-13 1.958880242259111726e-14
2.999000000000000000e+03 7.965020751953125000e+01 -9.388673782348632812e+00 -2.549141724528941610e-13 2.800391720543440183e-14 -6.807307674364451722e-14 1.385027617768763708e-13
3.000000000000000000e+03 7.895052337646484375e+01 -1.084166908264160156e+01 2.075295095277027158e-13 4.319027096686897660e-14 7.521593618125058112e-14 6.040852632569274072e-14
3.001000000000000000e+03 7.895101928710937500e+01 -1.323269081115722656e+01 -9.099410000447047397e-14 -3.899747143048734599e-14 -3.899747143048734599e-14 -4.467743720554945286e-14
3.002000000000000000e+03 7.895200347900390625e+01 -1.641577148437500000e+01 -1.639635828368582460e-13 -2.451915759186032440e-14 -5.654482280624192891e-14 1.133722852603895673e-14
3.003000000000000000e+03 7.895240783691406250e+01 -1.561971282958984375e+01 4.199350489195695368e-14 2.010010132511355629e-13 7.289835239360914487e-14 -1.015103325290207803e-13
3.004000000000000000e+03 7.965063476562500000e+01 -1.575823307037353516e+01 -5.949611598743756447e-14 1.575054648338125585e-13 2.940280058815435138e-14 2.985917770497023213e-15
3.005000000000000000e+03 7.895137786865234375e+01 -1.721193504333496094e+01 5.145192540252641056e-14 2.508055612152060299e-13 9.067724869582516334e-14 -3.930218983919618603e-14
3.006000000000000000e+03 7.825799560546875000e+01 -1.707732772827148438e+01 -2.203285331145530407e-14 -5.519360196746397884e-14 -2.316793675308237432e-14 -3.820792152716551149e-14
3.007000000000000000e+03 7.894704437255859375e+01 -1.960215950012207031e+01 -8.161537174171049069e-14 -4.467365605047290966e-13 -1.585055735752946560e-13 -3.426508141351862491e-14
3.008000000000000000e+03 7.893864440917968750e+01 -2.119695472717285156e+01 -7.253804490663789961e-14 -4.885972269136340529e-13 -1.683405747698180077e-13 -1.258460024557150891e-13
3.009000000000000000e+03 6.532944488525390625e+01 -1.254105758666992188e+01 3.475203387863154414e-14 -1.681100598354204334e-13 -4.000740914228938239e-14 -1.034879240678979184e-13
3.010000000000000000e+03 3.597014236450195312e+01 -2.011005973815917969e+01 -1.209916684934619555e-14 -3.254420116640538430e-13 -1.012623483871190333e-13 9.778500708809700903e-14
3.011000000000000000e+03 3.803672027587890625e+01 -2.033573532104492188e+01 5.755342813521793430e-15 -2.720391186622483914e-13 -7.988513415222234237e-14 2.411356433539707522e-13
3.012000000000000000e+03 6.600749969482421875e+01 -1.302882385253906250e+01 1.434781113363037264e-13 8.436609429725988596e-14 6.835326169006908370e-14 8.935530131570432189e-14
3.013000000000000000e+03 6.561370086669921875e+01 -1.197520446777343750e+01 1.098661702521493144e-13 3.673421430320372716e-13 1.431625000838931960e-13 5.791800382121039398e-15
3.014000000000000000e+03 6.804239654541015625e+01 -1.741667366027832031e+01 -3.270455534534234820e-14 -9.519106423244716453e-13 -2.953845664160209550e-13 4.311825283756162697e-14
3.015000000000000000e+03 4.700752258300781250e+01 -2.620999717712402344e+01 -1.257663949112003410e-13 -4.199074898555976709e-13 -1.637021681405448348e-13 1.475862482355413952e-13
3.016000000000000000e+03 4.764963150024414062e+01 -2.566345024108886719e+01 -1.929380591923768318e-13 -2.656915486232147572e-13 -1.375888742131611830e-13 1.979352283205254581e-13
3.017000000000000000e+03 6.024025726318359375e+01 -1.047172832489013672e+01 4.136457954048884667e-14 -5.147797420675332206e-15 1.086503476299899643e-14 -1.419292048660978842e-14
3.018000000000000000e+03 5.752778244018554688e+01 -2.948295021057128906e+01 8.851656251506953565e-14 8.368661801949964230e-14 5.166095619324982680e-14 -2.273294764170113828e-15
3.019000000000000000e+03 6.713665008544921875e+01 -1.310891437530517578e+01 1.399877121773668298e-13 -2.602619183535159753e-13 -3.608225846471295462e-14 2.408734019535008208e-13
3.020000000000000000e+03 6.709675598144531250e+01 -1.430948638916015625e+01 -1.388079646884310403e-13 -4.111995574769544692e-13 -1.650022620706265153e-13 3.802812014938594665e-13
3.021000000000000000e+03 4.635869598388671875e+01 -2.326253890991210938e+01 -4.450182694679290230e-14 -3.850797989941173727e-13 -1.288744908315916926e-13 2.097758951139297445e-13
3.022000000000000000e+03 3.541180419921875000e+01 -2.478049468994140625e+01 7.440661991707162026e-14 -1.386239806619579337e-14 1.816326630115286389e-14 -6.978112206991460287e-14
3.023000000000000000e+03 3.597494506835937500e+01 -2.507653617858886719e+01 4.105935968827523208e-14 6.159131889807390944e-15 1.416554776988631845e-14 -2.063888949609300749e-14
3.024000000000000000e+03 5.947911834716796875e+01 -2.985204124450683594e+01 2.548625068312434377e-14 4.523588941580600209e-14 2.121664219908569321e-14 1.232598821187397276e-13
3.025000000000000000e+03 6.850822448730468750e+01 -1.641156768798828125e+01 -3.856945551784438098e-14 -7.942958899116725480e-13 -2.498595948197124272e-13 9.552813862211476104e-14
3.026000000000000000e+03 6.800230407714843750e+01 -1.476817226409912109e+01 -3.944737467448736212e-14 -5.201664294608721040e-13 -1.678841527602559225e-13 1.188646891418093654e-13
3.027000000000000000e+03 4.650993347167968750e+01 -2.057774734497070312e+01 2.185937588165993983e-14 -3.566392786560207417e-13 -1.004339704934950617e-13 4.574630469355786544e-14
3.028000000000000000e+03 4.612413787841796875e+01 -2.239200592041015625e+01 -9.702385650543071671e-14 -4.533401919918494949e-13 -1.651092186149422103e-13 1.146131936103148008e-13
3.029000000000000000e+03 4.901745986938476562e+01 -1.048110389709472656e+01 -2.296117397777852620e-13 -9.840502842922357885e-14 -9.840502842922357885e-14 -2.051502448008422214e-14
3.030000000000000000e+03 6.104244995117187500e+01 -2.910959815979003906e+01 -1.149602196206730986e-13 3.281766676986597187e-13 6.396493306814327040e-14 1.984460637266191596e-14
3.031000000000000000e+03 5.050656127929687500e+01 -2.751273727416992188e+01 -1.978251682474910234e-13 -2.191756297937816345e-13 -1.251002339913709349e-13 1.093863836857701666e-13
3.032000000000000000e+03 5.067642211914062500e+01 -2.877736854553222656e+01 -2.895398764496404098e-13 -2.613413771414968556e-13 -1.652643679458248860e-13 7.641630384025432932e-14
3.033000000000000000e+03 4.962170410156250000e+01 -9.900732994079589844e+00 -2.655076272771797474e-14 3.437205151036147599e-14 2.346386295979871472e-15 -1.873415973133868428e-13
3.034000000000000000e+03 4.846297073364257812e+01 -9.979508399963378906e+00 -3.598382984811021590e-14 -1.255098591246631146e-13 -4.844810940233743035e-14 -3.955885776287318412e-14
3.035000000000000000e+03 6.245798492431640625e+01 -1.098690605163574219e+01 4.450960948551227481e-14 -4.955087514889496003e-14 -1.512380609575223866e-15 -4.937973383596812316e-14
3.036000000000000000e+03 5.816012191772460938e+01 -9.748475074768066406e+00 -1.117031543217822387e-13 -1.622501503810436230e-13 -8.218599412135318971e-14 2.680462866640545561e-14
3.037000000000000000e+03 6.643970489501953125e+01 -1.242471218109130859e+01 3.810084639823720087e-14 -2.124258071962287220e-13 -5.229748790058427743e-14 1.124768545445950507e-13
3.038000000000000000e+03 5.402180862426757812e+01 -3.046814155578613281e+01 -1.975553509843408495e-13 -3.891563110712363549e-14 -7.094129293337345099e-14 5.537688634472265337e-14
3.039000000000000000e+03 5.419028472900390625e+01 -2.938448524475097656e+01 -1.977766366477451410e-13 9.824238455082359711e-14 -2.986027630670282096e-14 3.040253324700786797e-14
3.040000000000000000e+03 5.684483337402343750e+01 -3.060874176025390625e+01 -6.953654638859260717e-14 6.170052262079867011e-14 -2.350808019722775734e-15 1.214286239918302424e-13
3.041000000000000000e+03 4.649670028686523438e+01 -1.894203376770019531e+01 8.208684383267939033e-14 -5.632182274815239476e-14 7.729506833577867025e-15 -5.707789113313516127e-14
3.042000000000000000e+03 4.585275650024414062e+01 -2.064753150939941406e+01 -1.338192116796463327e-13 -4.233586951059992165e-13 -1.671533733909463804e-13 3.900325835958298737e-14
3.043000000000000000e+03 5.576214981079101562e+01 -9.151329994201660156e+00 -4.460299995014474495e-14 -1.911557189122371769e-14 -1.911557189122371769e-14 -8.768390202286424628e-14
3.044000000000000000e+03 5.672260665893554688e+01 -8.114220619201660156e+00 -5.513718194988031715e-15 -4.811397184530455395e-14 -1.608830663092294944e-14 -3.084326820638680355e-14
3.045000000000000000e+03 5.458199691772460938e+01 -7.241941452026367188e+00 -6.920013200699751121e-14 1.533466008254297241e-13 2.524393827383741157e-14 -2.018257590674817081e-15
3.046000000000000000e+03 5.389263153076171875e+01 -7.814477443695068359e+00 -1.097008497496360091e-13 -1.263702006535846745e-15 -3.328936722091745126e-14 -1.209014171329320098e-13
3.047000000000000000e+03 4.624950408935546875e+01 -1.284562015533447266e+01 -6.921483649896184587e-14 -1.669163532435138930e-13 -7.083935760036907947e-14 -4.799560068499165999e-14
3.048000000000000000e+03 4.738502502441406250e+01 -1.333776092529296875e+01 -1.595176898558370304e-13 -2.513685060882148159e-13 -1.232658587832155539e-13 5.822156857104507366e-14
3.049000000000000000e+03 4.752490234375000000e+01 -1.154719448089599609e+01 1.367927310053779211e-13 -6.718965526097617214e-14 2.088092238450734578e-14 -8.484425456038030555e-14
3.050000000000000000e+03 4.653757858276367188e+01 -1.812926101684570312e+01 -4.202993408495246663e-14 -1.095147261179381382e-13 -4.546339907730671814e-14 -8.026871302238645228e-15
3.051000000000000000e+03 4.580836868286132812e+01 -1.978237342834472656e+01 2.718426713929893851e-14 -2.171043428584110146e-13 -5.697602356276657010e-14 1.371580800324512239e-14
3.052000000000000000e+03 5.143280792236328125e+01 -2.930509757995605469e+01 -1.900373575950548011e-13 -2.186974288730797467e-13 -1.226204332299349331e-13 1.042110259305735476e-13
3.053000000000000000e+03 5.313264083862304688e+01 -3.017774963378906250e+01 -1.569288183558489869e-13 -2.150425901258946892e-14 -5.352992422697107344e-14 7.346493612015933539e-14
3.054000000000000000e+03 5.920770263671875000e+01 -1.092200183868408203e+01 7.594649193386204811e-14 -1.733307778990084147e-13 -2.921528443429119437e-14 -1.031355041517315052e-13
3.055000000000000000e+03 5.751754379272460938e+01 -9.414289474487304688e+00 -2.541236738726714017e-14 1.263618387443293800e-13 3.028483971305277744e-14 8.147508953311802249e-14
3.056000000000000000e+03 5.687775039672851562e+01 -9.040755271911621094e+00 -8.188861101796757191e-14 3.353130354757580256e-14 -1.450719088586481520e-14 -2.257924377254295206e-14
3.057000000000000000e+03 5.794113540649414062e+01 -8.831370353698730469e+00 -8.970768735055284493e-14 -3.844615123764667797e-14 -3.844615123764667797e-14 9.234759089154706557e-14
3.058000000000000000e+03 4.601610183715820312e+01 -1.639212989807128906e+01 5.386385510796481979e-14 -4.554191225525361375e-14 2.496582389945240822e-15 -1.652758427011613400e-15
3.059000000000000000e+03 4.913927078247070312e+01 -9.304179191589355469e+00 -1.583197413229306405e-13 -1.250400065606893651e-13 -8.500792165458057048e-14 -5.245940587174846223e-15
3.060000000000000000e+03 5.775279617309570312e+01 -3.038603591918945312e+01 -1.059559951170803427e-13 1.604695651531706790e-13 1.635406999438756420e-14 1.498525119909745879e-14
3.061000000000000000e+03 4.654921722412109375e+01 -1.391063022613525391e+01 -5.433998249201182906e-14 -4.616403762622116325e-14 -3.015120501903036099e-14 -5.778745402118187768e-14
3.062000000000000000e+03 6.224497985839843750e+01 -1.166415119171142578e+01 8.061895606387842195e-14 3.455097875013947439e-14 3.455097875013947439e-14 2.588470218129281832e-15
3.063000000000000000e+03 6.653454589843750000e+01 -2.284823226928710938e+01 -6.104191723485877241e-14 -2.091646219290824171e-13 -8.106196107155599906e-14 -1.121502386401337925e-13
3.064000000000000000e+03 6.709176635742187500e+01 -2.340132904052734375e+01 -9.765202969164166191e-14 -2.119872067598768672e-13 -9.289177229070827435e-14 -8.556916568543126989e-14
3.065000000000000000e+03 4.615205001831054688e+01 -1.555254173278808594e+01 -9.520978128888923225e-15 8.742147766327770797e-14 2.337015062264628795e-14 -1.705255131979194205e-13
3.066000000000000000e+03 6.374212646484375000e+01 -2.578457450866699219e+01 -6.506643504154349666e-14 -7.363656532406379074e-14 -4.161090010968218622e-14 4.618212686184272608e-14
3.067000000000000000e+03 6.545069122314453125e+01 -2.405420684814453125e+01 5.792733643022324186e-14 -1.124268457193891568e-13 -1.634985177031023779e-14 -2.663721938064422118e-14
3.068000000000000000e+03 6.170616149902343750e+01 -1.081814861297607422e+01 5.039498752654712754e-14 -2.300323560106010135e-13 -5.389121427216113369e-14 8.358761680862455967e-14
3.069000000000000000e+03 5.589999008178710938e+01 -3.072867774963378906e+01 -1.370739323913391927e-13 -1.299502192864728650e-14 -4.502068544896299651e-14 1.527401794453042694e-13
3.070000000000000000e+03 6.312916946411132812e+01 -2.631598854064941406e+01 3.054730134208899495e-14 -3.265924924705961019e-14 -6.335835032824136369e-16 -6.846315913277764564e-14
3.071000000000000000e+03 6.427172851562500000e+01 -2.644270324707031250e+01 1.432883624035916070e-13 1.565835101283077208e-14 4.768401453314648208e-14 -1.040260559577498370e-14
3.072000000000000000e+03 6.648757171630859375e+01 -2.516738700866699219e+01 4.758383764054061049e-14 -4.371164075232109036e-13 -1.168597689319220145e-13 -1.040430084751561846e-13
3.073000000000000000e+03 6.250181198120117188e+01 -2.682931518554687500e+01 -1.531883479658283087e-13 -1.114031013705468753e-13 -7.937743615616527082e-14 7.052620613163737562e-14
3.074000000000000000e+03 4.682249832153320312e+01 -1.310389614105224609e+01 -1.578698651839849365e-14 -1.554564311480322036e-13 -5.137302597755556699e-14 -3.011891273494923804e-14
3.075000000000000000e+03 4.632894897460937500e+01 -1.472654533386230469e+01 7.040270195166412059e-14 -3.845383552054416898e-14 9.584660606962343288e-15 -5.199247811254158191e-14
3.076000000000000000e+03 3.444887161254882812e+01 -1.694043159484863281e+01 -2.080399790155632034e-13 -2.378505649814482981e-13 -1.337671699753670285e-13 2.927973347718187958e-13
3.077000000000000000e+03 3.600303268432617188e+01 -1.516708278656005859e+01 -1.113221792308979885e-13 -1.735246196949216668e-13 -8.545403696724046538e-14 9.473669136499107690e-14
3.078000000000000000e+03 4.991345214843750000e+01 -8.822113037109375000e+00 -1.611858467065550166e-14 1.303448858179165337e-13 3.426789017477172017e-14 -1.578766685526172830e-13
3.079000000000000000e+03 6.864328765869140625e+01 -1.722998237609863281e+01 -1.520323580569971078e-13 -7.056700059362985833e-13 -2.573107200400104322e-13 9.895143921910196094e-14
3.080000000000000000e+03 6.366381835937500000e+01 -2.702666282653808594e+01 -9.119981381417244237e-14 -1.277280961119869884e-13 -6.567837230022147144e-14 1.044341987833843216e-14
3.081000000000000000e+03 4.999668502807617188e+01 -2.820804786682128906e+01 -1.933322344447110930e-13 -3.710572159861674768e-14 -6.913138681299835220e-14 1.043933074208226730e-13
3.082000000000000000e+03 4.585194778442382812e+01 -1.807098388671875000e+01 6.305482665950462584e-14 4.148023680723873785e-15 2.016085628791467604e-14 -5.690250787920847486e-14
3.083000000000000000e+03 4.876815414428710938e+01 -2.699381446838378906e+01 -8.064722663552598148e-14 -1.260649977420300050e-13 -6.201366731326679593e-14 2.032373022046313205e-13
3.084000000000000000e+03 4.936528396606445312e+01 -2.761153221130371094e+01 -1.184221991301637189e-13 -2.795071032263285460e-13 -1.193787907069476795e-13 1.691553255973865522e-13
3.085000000000000000e+03 6.540401458740234375e+01 -2.521702384948730469e+01 8.770200819914475421e-14 -2.369191268950660012e-13 -4.476513222064458508e-14 -9.058286889671030018e-14
3.086000000000000000e+03 4.819950485229492188e+01 -2.634775161743164062e+01 -8.983552156295246394e-14 -3.587575657555686082e-13 -1.345779228074245326e-13 2.062579165622302479e-13
3.087000000000000000e+03 6.652745056152343750e+01 -2.401099586486816406e+01 2.222264798394657515e-14 -3.107326407899430043e-13 -8.655299784179892875e-14 -7.414951492439383895e-14
3.088000000000000000e+03 6.872632598876953125e+01 -1.804371452331542969e+01 -5.276600638766610132e-15 -5.970237325347849122e-13 -1.806900983003512096e-13 1.046207188265015076e-13
3.089000000000000000e+03 3.425715255737304688e+01 -2.694186401367187500e+01 4.925755780365616288e-14 2.111038191585264123e-14 2.111038191585264123e-14 7.501224847435844501e-14
3.090000000000000000e+03 1.212507629394531250e+01 -2.066699028015136719e+01 -1.621925114830488623e-13 -3.440167801235100020e-13 -1.518627888372203749e-13 2.090674460742086675e-15
3.091000000000000000e+03 1.397804832458496094e+01 -2.705599212646484375e+01 -1.545285438237647968e-13 -5.192934366478503538e-14 -6.193736658537812856e-14 1.450269076922264255e-13
3.092000000000000000e+03 1.363310909271240234e+01 -1.373690795898437500e+01 1.173728269524693113e-13 4.551692478330961189e-15 3.657735599864667120e-14 2.126660528451243537e-14
3.093000000000000000e+03 1.573640727996826172e+01 -1.227669334411621094e+01 1.443854225362164317e-14 5.193889480829827487e-14 1.991323128798256487e-14 4.026387377805903944e-14
3.094000000000000000e+03 1.257625770568847656e+01 -1.501747798919677734e+01 -8.102640601656205255e-14 -8.047655288478602897e-14 -4.845088767040442446e-14 -4.104593591012714593e-14
3.095000000000000000e+03 1.149719619750976562e+01 -1.551315593719482422e+01 -2.434287648300954843e-14 -1.934364533785412621e-13 -6.533379929727842206e-14 2.713287934445491462e-14
3.096000000000000000e+03 3.215862655639648438e+01 -1.561113548278808594e+01 -3.333054860756023974e-13 -1.428452083181153132e-13 -1.428452083181153132e-13 1.286631527231199557e-13
3.097000000000000000e+03 1.183617401123046875e+01 -1.822463607788085938e+01 2.312579686395647288e-14 -1.959682145290936317e-13 -5.185272445250820039e-14 4.141586569137920004e-14
3.098000000000000000e+03 1.388130664825439453e+01 -2.588504219055175781e+01 -8.439498150889304662e-14 -1.276711754979314994e-13 -6.361984506916829041e-14 6.585906136852975878e-14
3.099000000000000000e+03 2.056641578674316406e+01 -2.924696350097656250e+01 -8.724522365948124414e-15 -1.066787175089956019e-13 -3.462097077663699174e-14 1.027653304249906419e-13
3.100000000000000000e+03 1.309442901611328125e+01 -1.228320598602294922e+01 -2.717783477109748935e-14 -2.099062125092933579e-16 -8.216322079353331059e-15 -1.125860337033643410e-13
3.101000000000000000e+03 2.016071319580078125e+01 -1.299973678588867188e+01 1.756884568382410805e-14 -6.109692016632167766e-14 -1.305842149771632363e-14 -1.274613688250283983e-13
3.102000000000000000e+03 2.271726226806640625e+01 -1.449406337738037109e+01 1.808156624644521870e-13 5.461695548950040724e-14 7.062978809669120950e-14 -1.237633042924790594e-14
3.103000000000000000e+03 1.854996681213378906e+01 -3.145313453674316406e+01 -1.196106066839522364e-13 -1.198881082299999012e-13 -7.184961718469107250e-14 2.046445661313314041e-14
3.104000000000000000e+03 1.792694282531738281e+01 -2.880352401733398438e+01 -3.365103334873609242e-14 -2.889275732727292212e-13 -9.677358198643959408e-14 7.598290757433040499e-14
3.105000000000000000e+03 2.291121482849121094e+01 -2.998393821716308594e+01 -1.266882242558289851e-13 -5.429495422053579046e-14 -5.429495422053579046e-14 -9.255324879707451519e-15
3.106000000000000000e+03 2.244025611877441406e+01 -3.201628494262695312e+01 -1.044204599089798569e-14 7.558899659627568712e-14 1.954408585923966823e-14 2.751015798355734704e-14
3.107000000000000000e+03 1.866258049011230469e+01 -2.930044174194335938e+01 -5.151379607712565367e-14 6.942455508043843260e-14 5.373228039807012579e-15 1.077397109787263385e-13
3.108000000000000000e+03 1.376982498168945312e+01 -2.472677230834960938e+01 -3.988045245602311883e-14 -6.284257375544985424e-14 -3.081690515293646071e-14 -2.753043214066635234e-15
3.109000000000000000e+03 2.045047187805175781e+01 -1.394989109039306641e+01 3.262821328224585482e-13 1.855861520233884066e-13 1.535604868090068020e-13 -1.113823660039980901e-13
3.110000000000000000e+03 2.866905975341796875e+01 -3.023684501647949219e+01 -8.083546446146019915e-14 5.685812335277234952e-14 -7.193201993793175986e-15 -5.664591449443083515e-14
3.111000000000000000e+03 2.977742004394531250e+01 -3.107500839233398438e+01 -4.234318380950605198e-14 -4.102255441265113822e-14 -2.500972180546033596e-14 -4.336855784973885075e-14
3.112000000000000000e+03 3.305142593383789062e+01 -2.942552566528320312e+01 4.314235600710869534e-14 1.848958066188489957e-14 1.848958066188489957e-14 -1.109426339316287036e-13
3.113000000000000000e+03 3.066308212280273438e+01 -3.087802124023437500e+01 -8.887562316954242259e-14 -3.808955036685261752e-14 -3.808955036685261752e-14 5.637043566306121356e-14
3.114000000000000000e+03 1.121279430389404297e+01 -1.823160552978515625e+01 2.867316640738949707e-14 -1.478398160186314425e-13 -3.574999793269119375e-14 1.213606851731968694e-13
3.115000000000000000e+03 1.371070861816406250e+01 -1.270900154113769531e+01 1.685788281972216973e-13 9.396190016374220133e-14 7.876221918591552740e-14 7.967637780017383653e-14
3.116000000000000000e+03 1.120272064208984375e+01 -1.736186218261718750e+01 9.459020209896112918e-14 -2.110915608977137481e-13 -3.495040899487850128e-14 2.111481189816678122e-14
3.117000000000000000e+03 3.230857086181640625e+01 -3.000731658935546875e+01 -4.822480780051867366e-14 3.080204141877804225e-14 -5.226829406302421072e-15 6.560175986420821448e-14
3.118000000000000000e+03 3.374152755737304688e+01 -2.879149627685546875e+01 7.528236558717194687e-15 -1.054321154035989250e-13 -2.937116221350850875e-14 7.366872547100514201e-14
3.119000000000000000e+03 2.269520950317382812e+01 -3.096740913391113281e+01 -4.712024295598117585e-14 -1.116962899667776898e-13 -4.764495953801448080e-14 -4.210779335346408192e-14
3.120000000000000000e+03 2.618479347229003906e+01 -3.039737319946289062e+01 -1.083100894128802283e-13 9.083423439413748635e-14 -5.242754896260222799e-15 7.710369818200550618e-15
3.121000000000000000e+03 1.430875492095947266e+01 -1.207312297821044922e+01 5.152453984302862722e-14 1.064420819145211680e-14 1.865062364801457068e-14 1.930509720723776190e-14
3.122000000000000000e+03 1.711674499511718750e+01 -2.703969764709472656e+01 -6.187944308431309048e-14 -2.651975962778257284e-14 -2.651975962778257284e-14 1.919317840510387230e-13
3.123000000000000000e+03 1.724702072143554688e+01 -2.824176025390625000e+01 -5.550767161991050636e-14 -6.953994807290878044e-14 -3.751428624665896494e-14 1.903812665241672031e-13
3.124000000000000000e+03 2.149308204650878906e+01 -1.348489189147949219e+01 2.474573551711906072e-13 1.518040928421074409e-13 1.197784276277258364e-13 -8.681292853638875040e-14
3.125000000000000000e+03 2.695191764831542969e+01 -1.420021438598632812e+01 1.196927858204948486e-14 2.338844450142790743e-13 7.375611216610747367e-14 1.621997214274958909e-13
3.126000000000000000e+03 2.982875823974609375e+01 -1.531743717193603516e+01 5.214281883738269494e-15 -2.064078176769717360e-14 -4.627950007539318594e-15 3.575572726354642183e-14
3.127000000000000000e+03 3.471638870239257812e+01 -1.597742176055908203e+01 -3.008069325311640840e-13 -1.632304724328778600e-13 -1.392112201339598676e-13 1.585005591402469105e-13
3.128000000000000000e+03 2.888476562500000000e+01 -3.119383430480957031e+01 -1.039365330455545300e-14 -9.595631716508359887e-14 -3.190499351258396787e-14 -9.198606706526356314e-15
3.129000000000000000e+03 1.818632698059082031e+01 -1.131401157379150391e+01 1.260360885075402157e-14 -8.610035021104980868e-14 -2.204902317041838866e-14 -1.534309110968676282e-13
3.130000000000000000e+03 1.150514125823974609e+01 -2.078318786621093750e+01 -1.717731181903256465e-13 -3.023717886317667247e-13 -1.422434761123858582e-13 1.649182906123675130e-13
3.131000000000000000e+03 2.441827011108398438e+01 -3.128449821472167969e+01 -1.207315768626121555e-13 -7.461757855478298729e-14 -5.860474594759218503e-14 -5.981369235628572478e-14
3.132000000000000000e+03 2.711820602416992188e+01 -3.138914299011230469e+01 -1.214127946401119540e-13 -2.915857727253841347e-14 -4.517140987972921573e-14 1.077593147092575920e-13
3.133000000000000000e+03 2.177098274230957031e+01 -1.279720211029052734e+01 1.285125299363074070e-13 5.507679951216939984e-14 5.507679951216939984e-14 2.381469214809018436e-14
3.134000000000000000e+03 2.023833465576171875e+01 -3.010811042785644531e+01 -8.871305383004179923e-14 7.731069609365551210e-15 -2.429459391095015880e-14 1.745339306023427350e-13
3.135000000000000000e+03 2.186661338806152344e+01 -3.074951934814453125e+01 -4.516321060079979410e-14 2.639528644211765890e-14 -5.630377501714524738e-15 -1.594378417539652620e-14
3.136000000000000000e+03 1.956707572937011719e+01 -1.265706729888916016e+01 1.291993313549955058e-13 1.497324806460850755e-13 8.367954360032417438e-14 -1.984916002178635508e-13
3.137000000000000000e+03 1.856770324707031250e+01 -1.183253097534179688e+01 1.107849435019042650e-13 -9.709424324928165456e-15 3.032265465194999843e-14 -1.427748063276713247e-14
3.138000000000000000e+03 1.434907054901123047e+01 -2.531922340393066406e+01 -1.847058848914156365e-14 -3.281726019405128980e-13 -1.039929589923688225e-13 1.449467444940982785e-13
3.139000000000000000e+03 2.748223495483398438e+01 -1.498812770843505859e+01 -8.670118117372338506e-14 1.000951979721748097e-13 4.018205717161785206e-15 1.211559335929229819e-13
3.140000000000000000e+03 2.535275268554687500e+01 -1.402043247222900391e+01 3.553944925892629780e-14 -7.627070226475310410e-14 -1.221937607115463134e-14 -6.439378246120633364e-14
3.141000000000000000e+03 3.511791610717773438e+01 -1.656171798706054688e+01 -2.931884878105972536e-13 -3.200937507674000981e-13 -1.839846634418829119e-13 2.855541595282035106e-13
3.142000000000000000e+03 3.554886245727539062e+01 -1.716781044006347656e+01 -1.510013766586534856e-13 -1.219035587534875176e-13 -8.187148062364230094e-14 2.084517996582546662e-13
3.143000000000000000e+03 3.526356124877929688e+01 -2.661758995056152344e+01 1.174039164497653331e-13 -1.841576478985029741e-13 -2.002612214512672351e-14 1.868193676200866765e-14
3.144000000000000000e+03 3.565125274658203125e+01 -2.586101913452148438e+01 -5.640580098267497511e-14 -4.704939034400924813e-14 -3.103655773681844587e-14 1.596246294594937803e-15
3.145000000000000000e+03 2.104835700988769531e+01 -3.046239089965820312e+01 -7.754053001356349395e-15 8.817873189438663051e-14 2.412740315968931598e-14 4.306797973807618973e-14
3.146000000000000000e+03 2.615635299682617188e+01 -1.410774993896484375e+01 9.321199817861544612e-14 3.994799825136896576e-14 3.994799825136896576e-14 2.205500661115779304e-14
3.147000000000000000e+03 1.126445293426513672e+01 -1.908347892761230469e+01 -4.077068069545559947e-14 -1.547259905919015632e-13 -5.864900172502032771e-14 2.737470216869833384e-14
3.148000000000000000e+03 2.800413131713867188e+01 -3.130977439880371094e+01 -1.195543908013088630e-13 -5.123759896181676043e-14 -5.123759896181676043e-14 -9.561919805207638734e-14
3.149000000000000000e+03 2.773790550231933594e+01 -1.430935764312744141e+01 1.095068249946061500e-13 -6.744587256312523094e-14 1.261828539063109683e-14 1.215230122612745781e-14
3.150000000000000000e+03 2.999536323547363281e+01 -1.471242809295654297e+01 1.018364673187679981e-13 2.266479918241331992e-13 9.854533774287035919e-14 1.459421674493161653e-14
3.151000000000000000e+03 3.147111892700195312e+01 -1.490141773223876953e+01 -1.415374707627176099e-13 3.084298360331652611e-14 -3.320834343731489391e-14 2.449317062103856246e-13
3.152000000000000000e+03 3.433523941040039062e+01 -2.810167694091796875e+01 6.100387529113168728e-14 -3.962246993721198207e-14 6.414420843846259032e-15 4.288025690817390267e-14
3.153000000000000000e+03 3.582969284057617188e+01 -2.162035560607910156e+01 -1.470790178016712080e-13 -2.460376466364294634e-13 -1.179349993314302014e-13 -3.596009259679636139e-14
3.154000000000000000e+03 3.692006683349609375e+01 -2.053564643859863281e+01 3.175968331641659814e-14 -2.151434548092537313e-13 -5.501512873734570874e-14 3.238271331857181523e-14
3.155000000000000000e+03 1.491645812988281250e+01 -2.590397262573242188e+01 -6.387632156339920902e-15 1.345152830269091826e-13 3.843829754815973609e-14 2.052345652366754925e-13
3.156000000000000000e+03 1.653967285156250000e+01 -2.647248458862304688e+01 -1.125605549523109317e-13 -5.109967150481765918e-14 -4.909806827595175616e-14 2.126496204059476203e-14
3.157000000000000000e+03 1.662737274169921875e+01 -2.765555191040039062e+01 -1.208369613137777465e-13 -1.432891620026938151e-13 -7.923783835019418409e-14 -2.134779847470444358e-14
3.158000000000000000e+03 2.621555519104003906e+01 -3.142159461975097656e+01 -5.837363470199974369e-14 -7.076822038532687431e-14 -3.874255517094526979e-14 -4.318479913402971382e-14
3.159000000000000000e+03 3.672424316406250000e+01 -2.119217681884765625e+01 -5.106823302994736857e-14 -3.421430348239662411e-13 -1.179633783232950095e-13 6.110959177921260199e-14
3.160000000000000000e+03 1.540054988861083984e+01 -2.533340454101562500e+01 -8.020076573342360682e-14 -1.401708203717724754e-13 -6.611147718681154029e-14 -2.247828591555971200e-14
3.161000000000000000e+03 3.658497238159179688e+01 -2.191170692443847656e+01 1.227860230889254653e-14 -2.692434220453315818e-13 -7.708945108783268885e-14 1.490676478739169641e-13
3.162000000000000000e+03 3.647993469238281250e+01 -2.267178916931152344e+01 1.017447929428866651e-14 -2.243942472156604251e-13 -6.426593469627955857e-14 1.216098619374883505e-13
3.163000000000000000e+03 1.548081398010253906e+01 -2.648764038085937500e+01 -1.046650559190925867e-13 -1.821093053916075788e-13 -8.603230974846276524e-14 -3.789210889267177144e-16
3.164000000000000000e+03 1.604738235473632812e+01 -2.707090759277343750e+01 -1.263531922320038081e-13 -5.415136858344903048e-14 -5.415136858344903048e-14 9.407311220158490195e-14
3.165000000000000000e+03 4.546087682247161865e-01 -3.803941726684570312e+01 3.795915472682050151e-14 6.201915608676500380e-14 2.999349426051518830e-14 -1.912421332135160607e-14
3.166000000000000000e+03 1.268315076828002930e+00 -3.715661239624023438e+01 7.140954460507688978e-15 -4.269053846864788448e-14 -1.066487579536512173e-14 -5.261583676348033367e-14
3.167000000000000000e+03 3.644611537456512451e-01 -9.119066238403320312e+00 3.821282838902895565e-15 -4.411325566443767554e-14 -1.208759214412196553e-14 -7.323997433376396027e-15
3.168000000000000000e+03 3.616655468940734863e-01 -1.635516738891601562e+01 2.670168367012795696e-14 -2.401866411923941902e-13 -6.404548928955894338e-14 -1.431911314915762859e-15
3.169000000000000000e+03 3.661436438560485840e-01 -2.278702735900878906e+01 -7.976282259463882141e-15 1.945706847050233945e-14 3.444235651553300380e-15 1.295782024160387763e-14
3.170000000000000000e+03 3.950854837894439697e-01 -3.002046394348144531e+01 7.979558582903861774e-14 -1.259302178594629007e-13 -1.384038791506139038e-14 4.906832047884418513e-14
3.171000000000000000e+03 1.127727627754211426e+00 -3.558828735351562500e+01 -5.632233096792074734e-14 -2.413814184339460600e-14 -2.413814184339460600e-14 1.260164542838228610e-14
3.172000000000000000e+03 2.407266855239868164e+00 -3.777403259277343750e+01 6.554103099002187016e-14 -1.091638308610767827e-13 -1.308684114716259991e-14 2.063762233480391506e-14
3.173000000000000000e+03 1.456385970115661621e+00 -3.871717071533203125e+01 3.859031963340114890e-14 -7.496318832605347593e-14 -1.091186043838910866e-14 5.926738659849280222e-15
3.174000000000000000e+03 1.385368585586547852e+00 -3.793481063842773438e+01 2.114327559332631473e-14 1.005633022601454263e-13 3.651197183138221725e-14 4.781772715420004594e-14
3.175000000000000000e+03 1.201578021049499512e+00 -3.323628234863281250e+01 -3.574587796443574883e-14 3.043128832150125695e-14 -1.594377422275939597e-15 -8.907550261630370336e-14
3.176000000000000000e+03 1.202833652496337891e+00 -3.160333061218261719e+01 5.329558409178369871e-14 1.143428613511326963e-13 5.029153431050127632e-14 9.346806640296578816e-14
3.177000000000000000e+03 1.208789229393005371e+00 -3.242022705078125000e+01 4.629558184292975609e-14 1.799692800385013780e-13 6.787945856442934023e-14 -1.628810205201586259e-13
3.178000000000000000e+03 3.995188176631927490e-01 -3.082595634460449219e+01 -7.642171807485317880e-14 -9.876692156187208416e-15 -2.588952306931211617e-14 2.612462045195433624e-14
3.179000000000000000e+03 1.191979050636291504e+00 -3.079118347167968750e+01 2.228000905513463636e-14 1.010504749538246316e-13 3.699914452506142259e-14 -5.436853089046608800e-14
3.180000000000000000e+03 1.943356275558471680e+00 -2.914361000061035156e+01 -7.696113576071902940e-14 -3.298334438146983960e-14 -3.298334438146983960e-14 4.262225744870382083e-14
3.181000000000000000e+03 1.887316226959228516e+00 -2.595900726318359375e+01 -4.853991422129264044e-14 -6.655377068681342378e-14 -3.452810547243181927e-14 4.416862451413379465e-14
3.182000000000000000e+03 1.136510133743286133e+00 -2.678111457824707031e+01 -5.936179689079376653e-14 6.606112954842674467e-14 2.009798060872351570e-15 3.889633230845339351e-14
3.183000000000000000e+03 1.117507576942443848e+00 -2.517115020751953125e+01 3.013345120845591085e-14 2.645445440398880299e-13 8.840339891331636113e-14 1.176081530340072900e-14
3.184000000000000000e+03 3.675386011600494385e-01 -2.359153175354003906e+01 7.901382185256794477e-14 1.482404422738919925e-13 6.817627923793798117e-14 9.629050215596152151e-15
3.185000000000000000e+03 1.100682139396667480e+00 -2.356145286560058594e+01 -5.719732955496159565e-14 8.986423259173259570e-14 9.800071249844478916e-15 -1.139053180118990150e-13
3.186000000000000000e+03 1.094421625137329102e+00 -2.275550651550292969e+01 5.073544394936652102e-14 -2.400718716161730215e-14 8.018478052764302366e-15 4.761239535635728923e-15
3.187000000000000000e+03 1.799113512039184570e+00 -2.031361961364746094e+01 -4.369846701829903368e-14 -1.788562380882277592e-13 -6.676640983789214334e-14 3.781461024843744967e-14
3.188000000000000000e+03 1.083048462867736816e+00 -1.873206710815429688e+01 9.095626812491430790e-14 -1.211470566876357569e-13 -9.057236907629613587e-15 -6.637539232438524617e-14
3.189000000000000000e+03 3.614418804645538330e-01 -1.715908432006835938e+01 -9.658474107304693135e-14 -1.786463094425802534e-13 -8.256931379943543980e-14 -7.293421915672768097e-14
3.190000000000000000e+03 1.080648183822631836e+00 -1.712563514709472656e+01 9.690574623126557707e-14 4.153103506715147275e-14 4.153103506715147275e-14 1.469712955395711951e-14
3.191000000000000000e+03 1.080187678337097168e+00 -1.632242965698242188e+01 -1.006881955741521784e-13 -6.602755993866116224e-14 -5.001472733147035998e-14 4.483165818832193783e-15
3.192000000000000000e+03 1.785330533981323242e+00 -1.149654865264892578e+01 3.166986394268975213e-14 -2.838083771900673513e-13 -7.564155329658692195e-14 -1.016684583336801076e-14
3.193000000000000000e+03 1.076404094696044922e+00 -1.311208724975585938e+01 -3.594262677742397771e-14 -1.526568314032944462e-13 -5.657983576014963267e-14 1.698941077339817529e-14
3.194000000000000000e+03 1.080825686454772949e+00 -1.070213508605957031e+01 1.878332660579500740e-14 -3.808330603996545882e-13 -1.086149196299381059e-13 1.851297740595395785e-14
3.195000000000000000e+03 1.077909827232360840e+00 -1.150633144378662109e+01 5.612088959240472963e-14 -2.733293463525604539e-13 -6.516254278787075860e-14 -1.012697345144190908e-13
3.196000000000000000e+03 3.628231585025787354e-01 -9.923906326293945312e+00 -7.150553884898921964e-14 -1.678980712056452052e-13 -7.182108233876396963e-14 -8.193238568068167416e-14
3.197000000000000000e+03 1.085285544395446777e+00 -9.896402359008789062e+00 5.354684455712542535e-14 1.830769693830780476e-13 7.098714113274243176e-14 1.554707121235229111e-14
3.198000000000000000e+03 1.801484823226928711e+00 -9.886603355407714844e+00 2.910702684736851675e-14 1.247443971442952979e-14 1.247443971442952979e-14 1.831044844013366563e-14
3.199000000000000000e+03 1.819193005561828613e+00 -6.651610851287841797e+00 5.325442167867892873e-14 1.143252159607754948e-13 5.027389230827586375e-14 7.171462046168947113e-14
3.200000000000000000e+03 4.492672443389892578e+00 -1.916563272476196289e+00 -3.461331021066202385e-14 -2.435890302399795759e-13 -8.346069739180797531e-14 9.234236639232840105e-14
3.201000000000000000e+03 1.117464065551757812e+00 -5.870398044586181641e+00 -5.613589308699944505e-15 -4.815677411419520826e-14 -1.613110889981360374e-14 4.106295026093864306e-15
3.202000000000000000e+03 2.852015972137451172e+00 -1.890933752059936523e+00 -4.059065231284617048e-14 5.123042967495120004e-14 3.191933123928214142e-15 -1.795783201232348941e-14
3.203000000000000000e+03 1.844708561897277832e+00 -5.854494094848632812e+00 2.894409497776646856e-14 -1.705991847355398106e-13 -4.249652726614518150e-14 -7.757703035732657626e-14
3.204000000000000000e+03 1.219731688499450684e+00 -1.890993237495422363e+00 -2.705664807326792209e-14 -1.259730845028575463e-13 -4.590891807877174602e-14 5.726440884691174227e-16
3.205000000000000000e+03 1.194801449775695801e+00 -2.677475214004516602e+00 -1.676591774213333913e-14 8.431650560039583020e-14 2.026517517163262116e-14 6.128466332501469882e-14
3.206000000000000000e+03 1.822429275512695312e+01 -3.935498476028442383e+00 -3.476031447272390218e-14 2.596084154940503375e-13 6.745443098402428839e-14 -6.034066882222230421e-14
3.207000000000000000e+03 1.903604316711425781e+01 -4.007724285125732422e+00 -3.615558780102265390e-14 -1.549525312477106204e-14 -1.549525312477106204e-14 2.467522171832603473e-14
3.208000000000000000e+03 2.327344894409179688e+01 -4.004161834716796875e+00 -1.528351962131954678e-13 2.547558518306569653e-13 3.057619532998573364e-14 1.402350712089535031e-14
3.209000000000000000e+03 8.475935935974121094e+00 -2.609821557998657227e+00 -1.053961910422399756e-14 4.123397044815402257e-14 9.208305233772418052e-15 -8.824354007924695154e-14
3.210000000000000000e+03 6.126548290252685547e+00 -2.779653310775756836e+00 4.327575014377409157e-14 -7.295514425865665120e-14 -8.903818912091125692e-15 -1.240538196527283393e-14
3.211000000000000000e+03 9.222885131835937500e+00 -2.640760898590087891e+00 7.167600931182183110e-14 5.359376679427152457e-14 3.758093418708072231e-14 2.732108371258771574e-15
3.212000000000000000e+03 2.035342216491699219e+00 -1.888559699058532715e+00 7.850220357627274350e-16 3.364380191082802724e-16 3.364380191082802724e-16 4.340499381899794173e-14
3.213000000000000000e+03 1.152964472770690918e+00 -4.268189430236816406e+00 6.055342994604542839e-14 -1.979947984536399586e-14 1.222618452198466141e-14 -1.294992352284321524e-13
3.214000000000000000e+03 1.172839999198913574e+00 -3.470335483551025391e+00 -5.871998308600023808e-14 -7.091665443900371790e-14 -3.889099261275390240e-14 4.134757450703976933e-14
3.215000000000000000e+03 2.152789497375488281e+01 -4.103466510772705078e+00 -2.026594258348283356e-14 1.743183912104526168e-13 4.621573374105798770e-14 -1.040530034639337853e-13
3.216000000000000000e+03 2.413876724243164062e+01 -3.862197399139404297e+00 -1.367560985244750671e-13 -1.958625996849663875e-13 -9.978561081808515199e-14 4.387340981509314786e-14
3.217000000000000000e+03 2.573254203796386719e+01 -3.536677122116088867e+00 -1.470029339142170377e-13 2.850063934856095216e-14 -3.555069108020225688e-14 1.227893383758810186e-13
3.218000000000000000e+03 2.418404006958007812e+01 -4.651299953460693359e+00 -4.471356824294753229e-14 7.233893795392451476e-14 8.287611760326041993e-15 -2.684440745119088569e-15
3.219000000000000000e+03 6.859602355957031250e+01 1.731844902038574219e+01 1.134343643050938349e-14 -8.664042519448272861e-14 -2.258909645978541408e-14 3.657432362069550080e-14
3.220000000000000000e+03 6.816474151611328125e+01 1.675166893005371094e+01 1.502618830143825912e-13 6.439794986330682480e-14 6.439794986330682480e-14 -1.220584776914085401e-13
3.221000000000000000e+03 6.951304626464843750e+01 1.686803627014160156e+01 3.714425143332145129e-14 -1.213338782744821653e-13 -2.525688940760092982e-14 7.395261025734331528e-14
3.222000000000000000e+03 7.844368743896484375e+01 1.766863059997558594e+01 -2.130227384192131396e-14 -1.921333372349037782e-13 -6.403068315364093821e-14 5.334316023836507825e-14
3.223000000000000000e+03 6.950112819671630859e+00 -2.631358385086059570e+00 6.431522523754618081e-14 -1.096891810237546339e-13 -1.361218538060982031e-14 1.259352729520921144e-13
3.224000000000000000e+03 3.443313837051391602e+00 -4.185083389282226562e+01 -2.060386637778993668e-14 -1.689585429030804331e-13 -5.686872820527197336e-14 4.002339434806996554e-14
3.225000000000000000e+03 5.166190719604492188e+01 -6.072596311569213867e-01 1.227460516041445349e-14 -1.548677771310083551e-13 -4.277795226880452828e-14 -2.888131628384776883e-14
3.226000000000000000e+03 7.846710968017578125e+01 1.620740318298339844e+01 9.022626124965266170e-14 -2.358372828623056527e-13 -4.368330851667497072e-14 6.160862293415336755e-14
3.227000000000000000e+03 7.841769409179687500e+01 1.469768619537353516e+01 7.875190571274975904e-14 -2.407548715509938431e-13 -4.860089042909958301e-14 4.278225858430836914e-14
3.228000000000000000e+03 1.054023647308349609e+01 -3.490704536437988281e+00 -3.589065283578045384e-14 -3.825718157524603258e-14 -2.224435066212112483e-14 -7.854430132550951904e-14
3.229000000000000000e+03 2.639658737182617188e+01 -3.371389389038085938e+00 -2.113239460808588599e-13 -1.363183518973340447e-13 -1.042926934592160182e-13 3.436645770477780859e-14
3.230000000000000000e+03 7.249026489257812500e+01 1.708570480346679688e+01 3.259195756159793955e-14 5.971893308641049170e-14 2.769326787202888718e-14 -3.430529853785425909e-14
3.231000000000000000e+03 7.456983184814453125e+01 1.712861251831054688e+01 1.415464696407492395e-13 2.436665778003666016e-13 1.155639169428401836e-13 -3.881481046947785063e-14
3.232000000000000000e+03 4.990304946899414062e+01 -6.413845062255859375e+00 -1.823470709280336499e-13 1.335315338797703547e-14 -5.069817449968733181e-14 3.462536179543555803e-14
3.233000000000000000e+03 4.324970245361328125e+01 -5.359715819358825684e-01 -1.700170630366051872e-14 -3.016192167987902240e-14 -1.414908822565527288e-14 -8.097122012598254037e-14
3.234000000000000000e+03 7.838115692138671875e+01 1.392792320251464844e+01 -9.618108582796700001e-14 -1.555978382163786256e-13 -7.553367518042461426e-14 1.584174685962530527e-13
3.235000000000000000e+03 7.018814086914062500e+01 1.623772811889648438e+01 3.571148080348069895e-15 1.530492079811652129e-15 1.530492079811652129e-15 8.488069730590297457e-14
3.236000000000000000e+03 6.926764678955078125e+01 1.288088417053222656e+01 1.108167529772054530e-14 4.749289594815865254e-15 4.749289594815865254e-15 -2.814558346586268356e-14
3.237000000000000000e+03 5.891920471191406250e+01 -8.584518432617187500e+00 -5.945356782843108645e-14 2.098570713634628077e-14 -1.154035888525179951e-14 -9.405036259068754595e-15
3.238000000000000000e+03 2.112670898437500000e+01 -1.263052272796630859e+01 3.866963579858204159e-14 1.995764935692340147e-13 7.147383948797117470e-14 -7.964272009898173965e-14
3.239000000000000000e+03 2.222033882141113281e+01 -1.363779449462890625e+01 1.645292924254068700e-13 -6.674028734179882072e-14 2.933670152508241480e-14 3.348653277411572926e-15
3.240000000000000000e+03 1.126011085510253906e+01 -3.573258161544799805e+00 -4.052291339398834957e-14 -1.088688601075249451e-13 -4.481753306689352512e-14 1.656098489680873920e-13
3.241000000000000000e+03 9.108788490295410156e+00 -3.395669460296630859e+00 -1.099056377523266285e-15 9.103087478690846668e-14 2.697954435814525764e-14 -2.776596701582582927e-14
3.242000000000000000e+03 5.882620239257812500e+01 -1.003437042236328125e+01 7.715228060372822383e-14 -1.728140064860203551e-13 -2.869851979756671279e-14 -2.202278480021788165e-13
3.243000000000000000e+03 5.853313827514648438e+01 -9.153254508972167969e+00 1.460578552092521576e-14 -8.524227195416331226e-14 -2.119094660759778675e-14 -1.922731315525186280e-13
3.244000000000000000e+03 6.139297103881835938e+01 -9.266588211059570312e+00 5.446573469742709700e-15 -8.916765302470139321e-14 -2.511632429000407868e-14 -3.876314145969533831e-15
3.245000000000000000e+03 6.048711776733398438e+01 -9.801117897033691406e+00 4.272041501476343817e-14 6.405969911428208152e-14 3.203403389990047700e-14 -4.712407832116634332e-14
3.246000000000000000e+03 6.944837951660156250e+01 1.490421295166015625e+01 -9.939420028129072882e-14 4.890438233410079882e-14 -1.514694470653062119e-14 1.085421984632845352e-14
3.247000000000000000e+03 6.876014709472656250e+01 1.423928356170654297e+01 -4.267847333134719423e-14 -1.784191013248087598e-13 -6.632927307447314402e-14 -8.206111435987359370e-14
3.248000000000000000e+03 4.482259750366210938e+01 -5.641315579414367676e-01 -1.604163172739744847e-14 2.218797655372320432e-13 6.175143946532402062e-14 -6.700040353660409106e-15
3.249000000000000000e+03 7.326141357421875000e+01 1.651310539245605469e+01 4.145507315244170710e-14 2.465212008053579984e-13 8.639288150971355384e-14 -2.008152623139344839e-13
3.250000000000000000e+03 7.460167694091796875e+01 1.650362586975097656e+01 -9.562216605552356641e-14 -1.324828240818406999e-13 -6.843150042934106891e-14 -2.136068828328258062e-13
3.251000000000000000e+03 7.261030578613281250e+01 1.648500633239746094e+01 4.026398643344102427e-15 5.049860269529249379e-13 1.527037366997816004e-13 -5.390942209239531213e-14
3.252000000000000000e+03 7.392815399169921875e+01 1.652203750610351562e+01 -2.941673597420257913e-14 -5.835812383466962294e-14 -2.633245692622212392e-14 -2.421087317444354375e-14
3.253000000000000000e+03 5.979838180541992188e+01 -9.630661964416503906e+00 -1.664470224518356523e-14 -1.443862932860862092e-13 -4.830929764294139561e-14 -3.469289742638603791e-14
3.254000000000000000e+03 6.096528625488281250e+01 -1.065139865875244141e+01 6.886701766576491801e-14 6.638963348932743272e-15 2.265179553260707190e-14 2.431168703582575058e-14
3.255000000000000000e+03 1.358366394042968750e+01 -3.226039409637451172e+00 -2.303787314996558200e-14 1.045039976863698650e-13 2.443983803854764270e-14 -1.043372406159780164e-13
3.256000000000000000e+03 2.004991722106933594e+01 -1.208154487609863281e+01 -2.972832551417954605e-14 9.162864287844477151e-14 1.857009453165320984e-14 -1.287749339671032112e-13
3.257000000000000000e+03 2.247809219360351562e+01 -1.291703033447265625e+01 2.761202182698097030e-13 7.258629190331350456e-14 1.046119571176951091e-13 3.751161301067743037e-14
3.258000000000000000e+03 2.323401260375976562e+01 -1.300027942657470703e+01 2.517282714740998184e-13 -2.936930212915633831e-14 6.670769351398847524e-14 3.732304992409146704e-14
3.259000000000000000e+03 3.583385086059570312e+01 -4.892482757568359375e+00 9.293400874159016278e-14 8.557981119551236193e-14 5.355414598113075741e-14 6.670366841342312281e-14
3.260000000000000000e+03 3.750826644897460938e+01 -5.062380313873291016e+00 1.625335472764041778e-13 -1.590975073038902732e-13 1.030808709501500765e-15 -3.441917851772257394e-16
3.261000000000000000e+03 1.961590766906738281e+01 -1.169962978363037109e+01 9.235543780477042941e-14 1.997092270202005526e-13 8.761939876986493680e-14 -1.106440514295897737e-13
3.262000000000000000e+03 1.903152084350585938e+01 -1.226266002655029297e+01 1.563922602532130668e-13 -7.594645805254415794e-14 2.413374066020067266e-14 -1.320083094485252628e-13
3.263000000000000000e+03 2.523580741882324219e+01 -3.247941589355468750e+01 -6.418102133738320947e-14 -4.630676606596530187e-15 -2.064350921378733245e-14 -2.278136785661445674e-14
3.264000000000000000e+03 2.735507774353027344e+01 -3.997947692871093750e+00 -2.961151628262138902e-14 -4.015737124340307274e-13 -1.293555648880506670e-13 2.797274402128319126e-13
3.265000000000000000e+03 1.420732975006103516e+01 -4.011125564575195312e+00 4.052957446108555739e-14 1.088717129144912976e-13 4.482038587385987760e-14 7.314071054267522881e-15
3.266000000000000000e+03 1.198697662353515625e+01 -3.668546438217163086e+00 -2.043417010307111564e-14 5.986891890444670516e-14 1.183042531803903466e-14 6.700099730670011633e-14
3.267000000000000000e+03 1.272030925750732422e+01 -3.772718191146850586e+00 -4.752263442790380377e-14 -1.347442123156294969e-13 -5.468005605593906360e-14 -1.367454733431847091e-14
3.268000000000000000e+03 3.430892944335937500e+01 -5.346045017242431641e+00 1.254483035463202500e-13 -3.773834001373488345e-14 2.631298872096243108e-14 9.417330603484971863e-14
3.269000000000000000e+03 3.525751876831054688e+01 -5.772100925445556641e+00 -3.222600205893440262e-14 -2.425658957548593175e-13 -8.243756290668771691e-14 -3.493912990415286302e-14
3.270000000000000000e+03 6.172731018066406250e+01 -2.863006591796875000e+01 1.927084522772987141e-13 1.283402908686809285e-13 9.631462565429932399e-14 -1.605488880946151498e-13
3.271000000000000000e+03 6.358572006225585938e+01 -2.832836341857910156e+01 -5.138245514832440186e-14 -2.507757998655713028e-13 -9.064747379366328017e-14 1.172251077945999503e-14
3.272000000000000000e+03 6.485124206542968750e+01 6.697172641754150391e+00 -1.398395661148920527e-14 2.227616149267502843e-13 6.263329563110583975e-14 2.800859452136914007e-14
3.273000000000000000e+03 6.380321502685546875e+01 6.662589550018310547e+00 5.995688158195316975e-14 7.144675476244977119e-14 3.942108954806816667e-14 6.868216797161971754e-14
3.274000000000000000e+03 6.886684417724609375e+01 -2.275578117370605469e+01 -4.744401282973965961e-14 -2.948388332525003763e-13 -1.026848555187379053e-13 -1.055693550698448557e-13
3.275000000000000000e+03 6.833098602294921875e+01 -2.208882522583007812e+01 -4.051455148473305512e-14 -4.634351171046990903e-13 -1.511849049814009693e-13 -1.987214849597483679e-14
3.276000000000000000e+03 3.073228263854980469e+01 -1.482882595062255859e+01 -1.054367029340412543e-13 1.378166379845460754e-13 9.713979668118499083e-15 -6.362102159793202663e-15
3.277000000000000000e+03 3.039443588256835938e+01 -1.356205844879150391e+01 -2.518005166082370322e-14 8.071044917470904245e-14 1.665911874594583342e-14 1.329121816946721157e-13
3.278000000000000000e+03 4.707590866088867188e+01 -1.369782209396362305e+00 -4.249847544192386639e-14 7.328826537615282244e-14 9.236936641455507913e-15 -8.279304569399140168e-14
3.279000000000000000e+03 4.777831649780273438e+01 -1.378090858459472656e+00 -2.716438049976330205e-14 7.986002131940214688e-14 1.580869258470483235e-14 3.458238673182366385e-14
3.280000000000000000e+03 4.911870193481445312e+01 -8.629567027091979980e-01 -4.976140010573733286e-14 7.017558192531914152e-14 6.124254884687721501e-15 9.133302160358944266e-14
3.281000000000000000e+03 6.119425964355468750e+01 -9.962182044982910156e+00 -4.403584024119042151e-14 1.183803489263057784e-13 2.230335158909507037e-14 5.736063750719222476e-14
3.282000000000000000e+03 4.561767578125000000e+01 -1.299991250038146973e+00 -1.347958609966212751e-13 -1.201870888375240407e-14 -4.404437155703516682e-14 2.433242324940748311e-15
3.283000000000000000e+03 4.635205459594726562e+01 -1.349887847900390625e+00 -8.836383231028421825e-14 7.880736095980649808e-15 -2.414492827136800746e-14 7.436206598404604406e-14
3.284000000000000000e+03 3.083547973632812500e+01 -1.424068164825439453e+01 -1.057363357569347795e-13 4.618632475712931840e-14 -1.786500228350210162e-14 9.181287593260437085e-14
3.285000000000000000e+03 4.334279251098632812e+01 -1.385939598083496094e+00 -1.602791521466279123e-13 -6.464287446926353007e-17 -4.810313998797506596e-14 -4.478236425892352657e-14
3.286000000000000000e+03 4.424901962280273438e+01 -1.972642183303833008e+00 -1.462876044258654140e-13 5.931733613139238831e-15 -4.210676336140022069e-14 -1.615687564206907956e-14
3.287000000000000000e+03 5.175719070434570312e+01 -5.441576004028320312e+00 5.968711852891162017e-14 1.628330445740261423e-13 6.675604893088132874e-14 4.860884237440840638e-14
3.288000000000000000e+03 4.903464889526367188e+01 -1.499424219131469727e+00 7.376831960494330265e-15 3.161499653649840758e-15 3.161499653649840758e-15 -8.950480263089470589e-15
3.289000000000000000e+03 4.592053604125976562e+01 -1.723351478576660156e+01 -5.869287803168810047e-14 -1.624069395677121830e-13 -6.632994392456736943e-14 -6.343842416439357534e-14
3.290000000000000000e+03 4.510715866088867188e+01 -1.887430191040039062e+01 -1.573076047135975319e-14 -7.536817849505828004e-14 -2.732968236755176777e-14 -5.815987069116707042e-14
3.291000000000000000e+03 6.061343383789062500e+01 2.931562662124633789e+00 -9.892420541578184068e-14 -4.239608948739155558e-14 -4.239608948739155558e-14 -1.401838579028966136e-13
3.292000000000000000e+03 6.121576690673828125e+01 3.458727836608886719e+00 -5.909469690933838448e-14 6.617559419278690180e-14 2.124269269737849922e-15 -6.278294941222672954e-14
3.293000000000000000e+03 2.454930305480957031e+01 -1.392949485778808594e+01 1.291501492339461321e-13 3.247458928829459468e-14 4.848742189548539694e-14 -9.935127942778745891e-14
3.294000000000000000e+03 5.226687240600585938e+01 -2.977475929260253906e+01 -1.886234359893892987e-13 -1.265895618581328042e-13 -9.456390342001477767e-14 1.899614363379265036e-13
3.295000000000000000e+03 5.494874954223632812e+01 -3.066253471374511719e+01 -1.034271071022850597e-13 1.425045371724437907e-15 -3.060062037205275864e-14 1.001256301719037622e-13
3.296000000000000000e+03 3.601459503173828125e+01 -5.537390708923339844e+00 1.098779541745115162e-13 -3.646679854786560870e-13 -7.643701210174880245e-14 3.651145683535028663e-14
3.297000000000000000e+03 1.585958671569824219e+01 -3.610439062118530273e+00 -3.956055860503127075e-14 -4.058375814228187828e-13 -1.336194474293658785e-13 8.109552390505800346e-14
3.298000000000000000e+03 1.652121543884277344e+01 -4.398339748382568359e+00 -8.163193292989520677e-14 2.395205886927820327e-13 4.736659401836061656e-14 -3.210568272284282376e-14
3.299000000000000000e+03 1.573936557769775391e+01 -4.272680759429931641e+00 1.754924330854557013e-13 3.497167290998637323e-13 1.575627513661012613e-13 -2.375677203515693531e-14
3.300000000000000000e+03 1.985317230224609375e+01 -4.054709434509277344e+00 -5.895999834193421663e-14 2.949880736815430060e-13 7.080842395713535242e-14 -5.436594913404285689e-14
3.301000000000000000e+03 6.181857299804687500e+01 3.981202363967895508e+00 7.732399112279561559e-14 3.313885285432215111e-14 3.313885285432215111e-14 -5.604314890850572994e-14
3.302000000000000000e+03 5.732758712768554688e+01 -8.489342689514160156e+00 2.714539849141533318e-14 8.026016645994865639e-14 3.222166863837624962e-14 4.955340947147314490e-14
3.303000000000000000e+03 5.937978363037109375e+01 1.865057587623596191e+00 -9.265998341875802957e-14 5.179047430714858735e-14 -1.226085273348283267e-14 -9.754794628308305349e-14
3.304000000000000000e+03 2.343762016296386719e+01 -1.220501708984375000e+01 2.072520215341822070e-13 -1.856833914057332002e-13 6.470588445611638942e-15 4.425232492184967559e-14
3.305000000000000000e+03 1.943919181823730469e+01 -2.972316360473632812e+01 -9.711951701836182838e-14 -8.737359658483531688e-14 -5.534793475858550138e-14 4.372342738518872340e-14
3.306000000000000000e+03 1.984737396240234375e+01 -3.097584152221679688e+01 -6.336686682100953205e-14 -7.290817797579729476e-14 -4.088251276141569024e-14 3.894692389232699836e-14
3.307000000000000000e+03 1.496773815155029297e+01 -4.141615390777587891e+00 1.935142313318899410e-14 -1.747103302958061266e-13 -4.660767282641149756e-14 7.481247744781441278e-14
3.308000000000000000e+03 6.888182830810546875e+01 -2.063563156127929688e+01 -1.159491339747242833e-13 -6.215793396484314837e-13 -2.212585447974521613e-13 -9.671206028941461974e-14
3.309000000000000000e+03 6.758284759521484375e+01 8.810263633728027344e+00 -1.017217028247445129e-14 -1.859335846095613864e-13 -5.883172367240202538e-14 -9.890661423553326337e-14
3.310000000000000000e+03 5.390892791748046875e+01 -2.666162252426147461e-01 -8.539051627245997089e-14 -3.111016218942941336e-13 -1.189476441605316626e-13 -1.333524490918641670e-13
3.311000000000000000e+03 3.878513336181640625e+01 -2.073989105224609375e+01 -1.148783140757724495e-15 -2.978735151332873032e-13 -8.970668446354329584e-14 -2.855526577387880287e-15
3.312000000000000000e+03 3.723111724853515625e+01 -1.992133140563964844e+01 -4.169590494813683879e-14 -3.381263097203962564e-13 -1.139466667722521809e-13 1.560804166033519236e-13
3.313000000000000000e+03 4.878759384155273438e+01 -2.829918861389160156e+01 -1.644565018020516245e-13 -1.619832469112320039e-13 -9.793192325873237292e-14 2.032939924257251563e-13
3.314000000000000000e+03 5.036975860595703125e+01 -7.801488876342773438e+00 -1.680614062629301464e-13 2.024793771234281725e-13 1.032539176636917619e-14 -4.163286875620217375e-14
3.315000000000000000e+03 4.961352539062500000e+01 -8.167253494262695312e+00 -4.932866113738047786e-14 -1.583936974636213080e-13 -6.231670859674007246e-14 -8.472692355652663987e-14
3.316000000000000000e+03 7.864018249511718750e+01 -3.652305221557617188e+01 -8.926901237530163180e-14 -5.643940718426387892e-13 -1.960989286535139153e-13 4.499546419592555246e-14
3.317000000000000000e+03 7.736873626708984375e+01 -4.003680419921875000e+01 -6.508378227630326474e-14 -4.854025167921882655e-13 -1.651458917534265325e-13 -6.346835492061775330e-14
3.318000000000000000e+03 7.892855834960937500e+01 -3.884995651245117188e+01 5.727287134132952318e-14 -2.499601816762647699e-13 -5.780619038997514281e-14 -1.192494318352430027e-13
3.319000000000000000e+03 7.714617919921875000e+01 -3.212162399291992188e+01 4.661247719728832395e-14 -4.832836604864998442e-13 -1.310013566808293506e-13 -8.657092783522640778e-14
3.320000000000000000e+03 7.892405700683593750e+01 -2.358231353759765625e+01 3.447446456994809894e-14 -4.884856625100852945e-13 -1.362033587044148009e-13 7.754031656126078587e-14
3.321000000000000000e+03 7.747036743164062500e+01 -2.410999107360839844e+01 -9.284566659332332828e-14 -5.888023900911532049e-13 -2.044944210711011068e-13 5.215891669854526291e-14
3.322000000000000000e+03 7.893290710449218750e+01 -2.199315071105957031e+01 4.807685740265471228e-15 -5.011999929666055564e-13 -1.489176891609350628e-13 3.891003730153996809e-14
3.323000000000000000e+03 7.887136077880859375e+01 -2.835565185546875000e+01 -2.217705050632998165e-14 -5.127649064899653109e-13 -1.604825755792405051e-13 -5.088383734546189641e-14
3.324000000000000000e+03 7.872018432617187500e+01 -3.483587646484375000e+01 -5.818914414982417904e-14 -6.425759989207857625e-13 -2.102295524079519917e-13 -8.225593193774208278e-14
3.325000000000000000e+03 7.771044158935546875e+01 -3.649490356445312500e+01 5.495797095406498856e-15 -5.924069828439071372e-13 -1.760733621620005906e-13 -7.016873112284174874e-14
3.326000000000000000e+03 7.819567108154296875e+01 -2.424351882934570312e+01 3.078932576017386069e-14 -6.044423859000169763e-13 -1.720959122821288934e-13 -2.357247799462513366e-14
3.327000000000000000e+03 7.744697570800781250e+01 -2.569013977050781250e+01 -1.349234970033112366e-14 -6.005447875101488364e-13 -1.842111397231879777e-13 9.327810062981917172e-14
3.328000000000000000e+03 7.817681884765625000e+01 -2.583247566223144531e+01 -1.232261498786482723e-13 -5.789471007634772182e-13 -2.106519846794066564e-13 -1.760776041030004402e-13
3.329000000000000000e+03 7.808389282226562500e+01 -2.980242156982421875e+01 6.035041308924751768e-14 -4.773959547989259367e-13 -1.251136645457825991e-13 -1.077161092526840447e-13
3.330000000000000000e+03 7.814119720458984375e+01 -2.742069244384765625e+01 3.280458654828129206e-15 -3.646016865158085984e-13 -1.083963648007557623e-13 -2.436978841380971206e-13
3.331000000000000000e+03 7.812310791015625000e+01 -2.821082115173339844e+01 1.030017983069415194e-14 -7.276008138004663728e-13 -2.151901974754150126e-13 -9.226082761269391308e-15
3.332000000000000000e+03 7.810694122314453125e+01 -2.900193977355957031e+01 -3.235779022113180470e-14 -4.485016416415354978e-13 -1.442578288811738330e-13 -3.788537476898286294e-14
3.333000000000000000e+03 7.730646514892578125e+01 -3.046671104431152344e+01 -2.359664384461029885e-15 -4.585207539174740443e-13 -1.382641288787123113e-13 1.368147775789290560e-14
3.334000000000000000e+03 7.794376373291015625e+01 -3.227058029174804688e+01 -9.147317167504213919e-15 -5.529316696346875393e-13 -1.686237006146354411e-13 -7.709384210663125514e-14
3.335000000000000000e+03 7.786553192138671875e+01 -3.395035171508789062e+01 -1.580890773107343494e-14 -6.472885378736026318e-13 -1.989292248722601686e-13 -8.629407681048223422e-14
3.336000000000000000e+03 7.787367248535156250e+01 -3.311470031738281250e+01 5.237861332814050530e-14 -4.808124384747536340e-13 -1.285301482216102964e-13 -6.099347372653940447e-14
3.337000000000000000e+03 7.784766387939453125e+01 -3.561059570312500000e+01 -8.783532440877900305e-14 -4.494022612811648942e-13 -1.611712743517304536e-13 -1.256914900936087487e-14
3.338000000000000000e+03 7.789704132080078125e+01 -3.477701568603515625e+01 6.500732569435230257e-14 -5.211511018739234391e-13 -1.368431328538713410e-13 4.325123362214876310e-14
3.339000000000000000e+03 7.902775573730468750e+01 1.381062793731689453e+01 7.888821703088549908e-14 -1.949455137248423675e-13 -3.481718765293434492e-14 -6.671500510238917436e-14
3.340000000000000000e+03 7.829117584228515625e+01 1.157566165924072266e+01 4.156776919200799725e-14 -3.481928287363267316e-13 -9.198752057380105152e-14 -4.175633227859396057e-14
3.341000000000000000e+03 7.831011962890625000e+01 1.236339569091796875e+01 1.829812411075111556e-14 -1.980372110873748759e-13 -5.392172778705302261e-14 2.265143910114286729e-13
3.342000000000000000e+03 7.828603363037109375e+01 1.078405952453613281e+01 -7.445444000914180904e-14 -3.064147514279108586e-13 -1.142607465890940754e-13 1.303906798071768902e-13
3.343000000000000000e+03 7.593775177001953125e+01 1.643205261230468750e+01 8.474823829361134708e-15 -4.211888270880953522e-14 -1.009321749442793070e-14 2.770431741682581953e-15
3.344000000000000000e+03 7.907332611083984375e+01 1.536476516723632812e+01 1.949611160717307917e-14 -3.576521132205023878e-13 -1.014467982817131297e-13 7.340987220232422783e-14
3.345000000000000000e+03 7.505761718750000000e+01 1.453496551513671875e+01 -2.889334753983056892e-14 -2.640130681349356356e-13 -8.787192978462754489e-14 3.921654464383340921e-14
3.346000000000000000e+03 7.894430541992187500e+01 -2.039887809753417969e+01 -3.258808492696309289e-14 -5.172267779005035315e-13 -1.649444469897787258e-13 4.731922454781836707e-14
3.347000000000000000e+03 7.820983886718750000e+01 -2.185872459411621094e+01 -1.486314326823445775e-13 -5.440841462263368289e-13 -2.078146682515935595e-13 -4.491104550427039988e-14
3.348000000000000000e+03 7.784269714355468750e+01 1.699333000183105469e+01 6.435967752661808650e-14 -2.469229790254268142e-13 -5.476898773913718710e-14 7.309092702823330456e-14
3.349000000000000000e+03 7.827697753906250000e+01 7.600494861602783203e+00 -1.647104083983205736e-13 -7.059017405981402038e-14 -7.059017405981402038e-14 2.351694143240545820e-13
3.350000000000000000e+03 7.896421051025390625e+01 9.059166908264160156e+00 2.276054507626551482e-13 -8.545860416889206057e-14 4.264405330050256848e-14 2.556968851062657588e-14
3.351000000000000000e+03 7.895034790039062500e+01 -1.800857543945312500e+01 5.708270905653914373e-14 1.159659120033434965e-13 5.191458835084386547e-14 -5.534125675082934848e-14
3.352000000000000000e+03 7.757963562011718750e+01 -1.775213623046875000e+01 -1.797126299025162723e-15 -4.652114671678357627e-14 -1.449548150240197175e-14 -7.719179977291532047e-14
3.353000000000000000e+03 7.825404357910156250e+01 -1.147473454475402832e+00 -7.059259860692224109e-13 -9.888039822700256387e-13 -5.084189905017744149e-13 -6.073932047427621495e-13
3.354000000000000000e+03 7.895260620117187500e+01 3.041657805442810059e-01 -1.559244595418507462e-12 -7.348535300231995304e-14 -4.898190143418079678e-13 1.066781211978007349e-13
3.355000000000000000e+03 7.756401824951171875e+01 -9.759910583496093750e+00 -1.139978817723749649e-13 -9.460718341548768340e-14 -6.258151820110607888e-14 -1.147414682798469920e-13
3.356000000000000000e+03 7.895172119140625000e+01 -1.402854824066162109e+01 1.498149206687754420e-13 1.099573448785917673e-13 7.793167966421016279e-14 -2.694774165910764768e-14
3.357000000000000000e+03 7.828500366210937500e+01 9.985548019409179688e+00 1.019138454725655729e-13 -4.595830552060753416e-13 -1.073007717291955820e-13 9.856727928433603458e-14
3.358000000000000000e+03 7.895423889160156250e+01 4.285586357116699219e+00 3.958799434100601644e-13 -3.335975972459243044e-13 1.868470486568029471e-14 -1.483726200712451315e-13
3.359000000000000000e+03 7.755910491943359375e+01 -1.805076718330383301e+00 -4.364217862963537531e-13 -5.987964572969073362e-13 -3.105654568149457395e-13 -4.182892910081087434e-13
3.360000000000000000e+03 7.895132446289062500e+01 -1.287898302078247070e+00 7.694748701062015250e-13 -4.022402257195661912e-13 1.101704041580123250e-13 1.241261461020284895e-13
3.361000000000000000e+03 7.895088195800781250e+01 -3.677614688873291016e+00 -5.498786105270769831e-13 -2.356622384215578681e-13 -2.356622384215578681e-13 -9.895191355755242335e-14
3.362000000000000000e+03 7.895246124267578125e+01 -7.656706333160400391e+00 3.163880561620618925e-13 4.409298447194398562e-14 1.081443149007071947e-13 -3.107388817286983740e-14
3.363000000000000000e+03 7.825585937500000000e+01 -9.107141494750976562e+00 -1.994505092767911991e-13 -8.547879065809102506e-14 -8.547879065809102506e-14 -7.402164683067632978e-14
3.364000000000000000e+03 7.689159393310546875e+01 -1.608216094970703125e+01 3.491489459746602297e-14 -9.941384466940345055e-14 -1.934968671564712278e-14 -3.826142012811409310e-14
3.365000000000000000e+03 7.826004028320312500e+01 4.428028583526611328e+00 -1.892717075733726939e-13 -5.386259472293930539e-13 -2.183692950855770087e-13 3.026322410986520550e-13
3.366000000000000000e+03 7.825512695312500000e+01 4.447555243968963623e-01 -1.148577218577917503e-12 -8.048884502691658338e-14 -3.687198116275602899e-13 1.068279172804567634e-13
3.367000000000000000e+03 7.895204925537109375e+01 -5.269721984863281250e+00 -3.263268019519649510e-13 4.314944736694310834e-14 -8.495321010245152071e-14 -2.054612583584150554e-14
3.368000000000000000e+03 7.825627136230468750e+01 -7.515405178070068359e+00 -2.121101281811824113e-13 -9.090433484085225224e-14 -9.090433484085225224e-14 -9.937046980624045234e-14
3.369000000000000000e+03 7.826715850830078125e+01 6.017493724822998047e+00 -1.706943912388111939e-13 -2.790340116083644961e-13 -1.349185249199108538e-13 3.050019004718906857e-13
3.370000000000000000e+03 7.827255249023437500e+01 6.809174537658691406e+00 2.555410039389166554e-13 -3.022409796396563486e-13 -1.400999271022190795e-14 3.016282969919847901e-14
3.371000000000000000e+03 7.827967071533203125e+01 8.392817497253417969e+00 1.561382858943083374e-13 -2.075892897249881353e-13 -1.543529843869850815e-14 1.686559319123443618e-14
3.372000000000000000e+03 7.825552368164062500e+01 1.241114974021911621e+00 -9.182735951837606159e-13 -3.935458458680790583e-13 -3.935458458680790583e-13 3.726923554926014903e-13
3.373000000000000000e+03 7.825807952880859375e+01 3.631538629531860352e+00 1.647593330213539820e-13 -3.411473848639184903e-13 -5.291642165140657272e-14 -8.058214062385896104e-14
3.374000000000000000e+03 7.825374603271484375e+01 -1.944922685623168945e+00 3.257473772059343853e-13 -2.264015662228544001e-13 2.980374193967127994e-14 1.802694414099539899e-13
3.375000000000000000e+03 7.825378417968750000e+01 -2.742266893386840820e+00 -5.627190879063659334e-13 -4.699200555589866379e-13 -3.097917430396057714e-13 -2.448358085282292818e-13
3.376000000000000000e+03 7.825611114501953125e+01 -5.129964828491210938e+00 2.508478450999329645e-13 -1.669994844450892191e-13 2.515450684120040803e-14 1.625230982779668487e-13
3.377000000000000000e+03 7.755935668945312500e+01 -2.603541851043701172e+00 1.970367770852410327e-13 -2.815632655413929930e-13 -2.535794382634015687e-14 1.582506234344346896e-13
3.378000000000000000e+03 7.825602722167968750e+01 -5.924898147583007812e+00 -2.768733593089267586e-13 -7.290906566632601726e-14 -1.049347308807076218e-13 -1.670754023140857275e-14
3.379000000000000000e+03 7.825341796875000000e+01 -1.149840164184570312e+01 2.367342162145485984e-13 1.014575251069571582e-13 1.014575251069571582e-13 5.655682356903862784e-14
3.380000000000000000e+03 7.756292724609375000e+01 -8.166944503784179688e+00 -1.927989018435383173e-13 -1.741299975304561043e-13 -1.100786671016928953e-13 -8.525972083287675085e-14
3.381000000000000000e+03 7.825505828857421875e+01 -9.903781890869140625e+00 1.435472698823811455e-13 1.530221533253134369e-13 8.897082967281380594e-14 -7.857850112778785867e-14
3.382000000000000000e+03 7.825456237792968750e+01 -1.070030975341796875e+01 -1.369839436110228958e-13 -5.870740634079940623e-14 -5.870740634079940623e-14 -7.969163794575157000e-14
3.383000000000000000e+03 7.825178527832031250e+01 -1.229779911041259766e+01 -5.911919987843655688e-14 -2.533679849584490051e-14 -2.533679849584490051e-14 -3.571958944988476436e-14
3.384000000000000000e+03 7.825309753417968750e+01 -1.468996715545654297e+01 1.232647339234616002e-13 2.358315365907914796e-13 1.077288825095286395e-13 4.224106551738507354e-14
3.385000000000000000e+03 7.825532531738281250e+01 -1.548512554168701172e+01 -1.491816381798266589e-13 7.331785731919809868e-14 -2.275913662988082037e-14 1.123999930808953010e-14
3.386000000000000000e+03 7.825739288330078125e+01 -1.787365722656250000e+01 1.300583989463643952e-13 1.014902612363026424e-13 6.946460279818461592e-14 -7.761876536470369015e-14
3.387000000000000000e+03 7.825714874267578125e+01 -1.628098678588867188e+01 8.230730956819073962e-14 1.725274111942509681e-13 7.645041555110615450e-14 -4.481168176329389241e-14
3.388000000000000000e+03 7.825157928466796875e+01 -1.946647453308105469e+01 -1.595614069203107194e-14 -3.270949862962252430e-13 -1.029153365718175894e-13 -9.389369707082928507e-14
3.389000000000000000e+03 7.824327850341796875e+01 -2.026344680786132812e+01 -9.670249898150601320e-14 -5.218288908620527522e-13 -1.855594128873094828e-13 -1.482844744346220600e-13
3.390000000000000000e+03 7.820168304443359375e+01 -2.264961051940917969e+01 8.820859658204092263e-15 -4.994800688502831765e-13 -1.471977650446126828e-13 6.984217620475269284e-14
3.391000000000000000e+03 6.555037689208984375e+01 8.389603614807128906e+00 1.327249975777242824e-14 5.688214181902469246e-15 5.688214181902469246e-15 -1.306430956254586717e-13
3.392000000000000000e+03 1.444276332855224609e+01 -2.647002983093261719e+01 -8.794458488271122976e-14 -2.206943395394178609e-13 -9.259167868189144279e-14 1.010826486532931390e-13
3.393000000000000000e+03 3.689078903198242188e+01 -1.629808616638183594e+01 -8.612300326019117769e-14 -8.266080691026606031e-14 -5.063514169588445579e-14 -5.194347556247702613e-14
3.394000000000000000e+03 6.948143005371093750e+01 -1.863709831237792969e+01 -6.563599354780444428e-14 -4.398882516923330321e-13 -1.516572783154257476e-13 1.836141780070174589e-14
3.395000000000000000e+03 4.757128143310546875e+01 -2.696082115173339844e+01 -2.611584451299442389e-13 -1.576759962830173722e-13 -1.256503310686357677e-13 1.718039230845513909e-13
3.396000000000000000e+03 3.773146057128906250e+01 -2.094081306457519531e+01 6.993341181756734803e-15 -1.342556979217618407e-13 -3.817870905488060518e-14 1.969606796452597064e-13
3.397000000000000000e+03 1.499744796752929688e+01 -2.705573272705078125e+01 -9.990550324957131467e-14 -4.281664473383510472e-14 -4.281664473383510472e-14 2.465705320042060888e-13
3.398000000000000000e+03 6.958460998535156250e+01 -1.946399307250976562e+01 -1.827375869980357725e-13 -5.358256156481888688e-13 -2.155689499518456675e-13 -9.166079794318843926e-15
3.399000000000000000e+03 3.750311660766601562e+01 -2.157054328918457031e+01 3.713617751526822330e-14 -3.958430263260870330e-13 -1.076120597254433264e-13 8.960945185746208019e-14
3.400000000000000000e+03 2.850906181335449219e+01 -1.443495082855224609e+01 2.708820005055314478e-14 8.023564993832332792e-14 3.219715550488271016e-14 -6.885818819432273918e-14
3.401000000000000000e+03 2.723862648010253906e+01 -1.348296165466308594e+01 2.442878595265186858e-14 -8.103241656235576906e-14 -1.698108952172434905e-14 -9.399820230179562613e-15
3.402000000000000000e+03 6.705083465576171875e+01 -2.456526756286621094e+01 -5.916829390805941613e-14 -2.083616346950853404e-13 -8.025898061382250037e-14 -1.240899473019946297e-13
3.403000000000000000e+03 1.554734230041503906e+01 -2.764488792419433594e+01 -6.547637188296026589e-14 -2.806130199354498617e-14 -2.806130199354498617e-14 -6.627223726393682846e-14
3.404000000000000000e+03 6.938674163818359375e+01 -1.781613540649414062e+01 -1.325668904077897947e-13 -5.600748272278910367e-13 -2.077925098696933870e-13 5.177991180629632623e-15
3.405000000000000000e+03 2.772574663162231445e+00 -3.238936233520507812e+01 6.988475824507706102e-14 -1.301777153954464250e-13 -1.808788375697902018e-14 1.417225796489446701e-14
3.406000000000000000e+03 1.956673979759216309e+00 -2.994901275634765625e+01 3.587143535227314828e-14 1.983772710987749543e-13 7.027461024124853628e-14 1.997634032475069377e-14
3.407000000000000000e+03 1.169299483299255371e+00 -3.637203216552734375e+01 -4.902887584855644687e-14 -8.963879985501854719e-14 -4.160030203344614042e-14 -7.192224517772044523e-14
3.408000000000000000e+03 2.778881788253784180e+00 -3.668815231323242188e+01 -4.543421625117496573e-15 -1.947180726730103791e-15 -1.947180726730103791e-15 1.688046878385411620e-14
3.409000000000000000e+03 2.090943098068237305e+00 -3.699373245239257812e+01 4.308471033285035667e-14 -1.187879682855788599e-13 -2.271097941869762438e-14 6.938807845359787341e-14
3.410000000000000000e+03 1.890255689620971680e+00 -3.481909561157226562e+01 -4.067684638555876808e-14 -2.004367266779383261e-13 -7.233407259667548606e-14 3.825003600530299530e-14
3.411000000000000000e+03 1.089692234992980957e+00 -9.089346885681152344e+00 -9.401079090545771955e-14 -1.741486356434274879e-14 -3.342769447746765654e-14 -2.581362383504044733e-14
3.412000000000000000e+03 5.266850471496582031e+00 -2.831126451492309570e+00 -5.941147367908433674e-14 -2.542168136155514846e-13 -9.408848754364346201e-14 7.486146983348360151e-14
3.413000000000000000e+03 1.077333331108093262e+00 -1.391418933868408203e+01 -4.923521413329877850e-16 -3.204676378865817243e-13 -9.628800171470122682e-14 -8.936748164948583872e-15
3.414000000000000000e+03 1.800838947296142578e+00 -2.111688232421875000e+01 2.294151807001772181e-14 5.558302705903003793e-14 2.355736353871432792e-14 -2.056513156111199753e-14
3.415000000000000000e+03 1.180055737495422363e+00 -2.998302268981933594e+01 -1.315499494275798598e-13 -1.478804464950453368e-13 -8.382912284254570578e-14 -8.379480784378653957e-14
3.416000000000000000e+03 1.145299553871154785e+00 -2.758002471923828125e+01 9.313863834911964568e-14 -7.446080969690516138e-14 5.603347409818219133e-15 -3.510555832576117696e-14
3.417000000000000000e+03 2.483510732650756836e+00 -1.229633712768554688e+01 2.722711853610053356e-14 -1.713350327500057224e-13 -4.323237189247930434e-14 4.138798475488737749e-14
3.418000000000000000e+03 1.798406839370727539e+00 -1.950715827941894531e+01 -5.728699286286791006e-16 -9.174741045017698049e-14 -2.769608510361145498e-14 6.801863031282795805e-15
3.419000000000000000e+03 1.085097312927246094e+00 -2.034154891967773438e+01 -3.151642561836053014e-14 -1.507598841772594955e-13 -5.468289192224647099e-14 -4.602976596342241156e-14
3.420000000000000000e+03 1.809681534767150879e+00 -8.261276245117187500e+00 -6.611308316127953444e-14 4.029224599366026949e-14 -7.746250980879190035e-15 2.143781774820684161e-14
3.421000000000000000e+03 1.108970999717712402e+00 -2.436659622192382812e+01 8.559295884091964318e-15 1.637965885972411662e-13 5.170676712316912838e-14 2.772472159349222837e-14
3.422000000000000000e+03 1.081900477409362793e+00 -1.792855644226074219e+01 -4.800475202895379545e-14 -8.919988771054210286e-14 -4.116139327710148510e-14 -3.746473481924458837e-14
3.423000000000000000e+03 2.512845277786254883e+00 -9.898892402648925781e+00 -3.464496213783502254e-14 -6.059879025443679068e-14 -2.857312504005518616e-14 1.130119150929802252e-13
3.424000000000000000e+03 2.738197326660156250e+00 -3.073556327819824219e+01 2.294781660701350479e-14 1.928385700905241307e-13 6.473591600926129064e-14 9.917331102930575237e-15
3.425000000000000000e+03 1.931439995765686035e+00 -2.834763145446777344e+01 4.455683326638759656e-14 -7.240611105477356979e-14 -8.354784014142149773e-15 -6.087269191045862476e-15
3.426000000000000000e+03 1.920594215393066406e+00 -2.755806350708007812e+01 -1.313300698388680104e-14 1.316244205643024578e-13 3.554742153302585528e-14 5.644553360416477983e-14
3.427000000000000000e+03 1.815060615539550781e+00 -2.272727394104003906e+01 -3.605057943248564378e-14 1.218025924261748050e-13 2.572560694742535847e-14 -1.043603137934612235e-13
3.428000000000000000e+03 1.869228959083557129e+00 -2.515049743652343750e+01 1.352131653306132622e-14 1.430476966263541372e-13 4.697070437134111265e-14 -5.758252795212085579e-15
3.429000000000000000e+03 2.668615579605102539e+00 -2.594647026062011719e+01 1.268219910869911732e-14 -8.606667218106697770e-14 -2.201534175230376866e-14 9.461646689658959053e-14
3.430000000000000000e+03 1.805075049400329590e+00 -2.192002868652343750e+01 -4.287269798615260530e-14 -1.837401487469331185e-14 -1.837401487469331185e-14 2.284932996865387915e-15
3.431000000000000000e+03 1.791300892829895020e+00 -1.629149627685546875e+01 3.623993534191023713e-14 -7.597050023571902400e-14 -1.191916811288992045e-14 1.351060647906965340e-13
3.432000000000000000e+03 1.797129154205322266e+00 -1.870135688781738281e+01 2.192041138177319021e-14 -3.635648707545242886e-14 -4.330822708103771596e-15 1.219571183408083015e-13
3.433000000000000000e+03 2.510157108306884766e+00 -1.948517608642578125e+01 -1.821637865507749754e-14 -1.450598674382699849e-13 -4.898287518325696033e-14 6.031443112964815501e-14
3.434000000000000000e+03 1.790434956550598145e+00 -1.549019050598144531e+01 -7.860912983916057417e-14 -1.251915238142942144e-13 -6.114019338553100535e-14 3.395714766774200755e-14
3.435000000000000000e+03 1.788052082061767578e+00 -1.469014453887939453e+01 4.597729057827411314e-14 -1.632992379556677531e-13 -3.519658726253670211e-14 1.085523205070042241e-13
3.436000000000000000e+03 1.784650325775146484e+00 -1.389135360717773438e+01 -5.786278468458770207e-16 -2.747536627465546610e-13 -8.259969178905576803e-14 6.412754306522536196e-14
3.437000000000000000e+03 1.809286832809448242e+00 -9.074039459228515625e+00 -3.295512801993090435e-14 8.751847648826548143e-15 -7.260984111331306862e-15 -1.771336644528463677e-14
3.438000000000000000e+03 1.782157540321350098e+00 -1.229567146301269531e+01 4.605483475052934983e-14 -1.403905339420266629e-13 -2.830070907982283612e-14 -5.865137341727263975e-14
3.439000000000000000e+03 3.132267236709594727e+00 -7.426182270050048828e+00 8.893624362351151835e-14 -5.338636569493862560e-14 1.066496388679163618e-14 1.102648093681156058e-14
3.440000000000000000e+03 1.134207010269165039e+00 -5.069328308105468750e+00 9.410330723208862325e-14 -7.404738307974570444e-14 6.016777838625938721e-15 1.993205405413644993e-14
3.441000000000000000e+03 2.798802852630615234e+00 -2.676918506622314453e+00 -1.344014790682478838e-14 3.999088522355434550e-14 7.965221703238635487e-15 -8.944590843007211439e-15
3.442000000000000000e+03 1.995801806449890137e+00 -2.670673131942749023e+00 -8.936857352789440872e-17 9.146360020273816560e-14 2.741226807990906206e-14 -1.019087531104866801e-14
3.443000000000000000e+03 1.999688148498535156e+00 -3.240488433837890625e+01 2.743868703753392368e-14 1.175943718079554626e-14 1.175943718079554626e-14 5.593328195898326916e-14
3.444000000000000000e+03 1.968983173370361328e+00 -3.406516647338867188e+01 -1.342666144823860541e-14 1.314985582446040469e-13 3.542156937772281133e-14 1.650324604892620256e-14
3.445000000000000000e+03 1.897345066070556641e+00 -3.626762390136718750e+01 7.539297284349030792e-14 1.695641240265222116e-13 7.348712838337739806e-14 8.797042955199785297e-14
3.446000000000000000e+03 1.841357588768005371e+00 -3.554042053222656250e+01 7.197094110185809496e-15 4.883541691153535369e-14 1.680975339121964368e-14 -5.542046449579299261e-14
3.447000000000000000e+03 6.883956909179687500e+01 1.504805088043212891e+01 -8.370151902310773995e-14 -3.103777814188884987e-13 -1.182237901325988716e-13 8.460505245607569114e-14
3.448000000000000000e+03 6.884928894042968750e+01 1.217423820495605469e+01 -1.578209134558972160e-13 -4.793960909667271952e-13 -1.911650904847655985e-13 -4.015572799948539939e-14
3.449000000000000000e+03 1.330319976806640625e+01 -2.529578208923339844e+01 -1.143929921490829948e-13 -1.862784151105204011e-13 -9.020142624363916561e-14 6.636295110445597500e-14
3.450000000000000000e+03 2.060586929321289062e+01 -4.791610717773437500e+00 -1.212144940627643552e-13 1.539301997498243590e-13 9.814710520271874988e-15 -9.364414083577743408e-14
3.451000000000000000e+03 1.895295143127441406e+01 -4.702375411987304688e+00 -7.769031593182415540e-14 1.268324773548781814e-13 1.474264571641077659e-14 -3.577730627491067239e-14
3.452000000000000000e+03 4.595736312866210938e+01 -2.151936531066894531e+01 -1.798743750789592172e-14 -3.737164928647312978e-13 -1.175111847022056177e-13 1.014620042171822389e-13
3.453000000000000000e+03 3.637112808227539062e+01 -2.345256996154785156e+01 -4.889272694898834284e-17 -9.152285185146449842e-14 -2.747152311676718389e-14 -8.075067307530825467e-14
3.454000000000000000e+03 2.642744255065917969e+01 -1.339082431793212891e+01 -4.843944933748470238e-14 -6.651071430803859319e-14 -3.448504909365698867e-14 1.802718266547334580e-13
3.455000000000000000e+03 2.561596679687500000e+01 -1.329831027984619141e+01 7.913185758783372603e-14 1.103817846181314247e-14 2.705101022197099747e-14 -8.776591514094919666e-14
3.456000000000000000e+03 6.192440795898437500e+01 -1.012695598602294922e+01 6.993768763988508774e-14 1.214751904751384948e-13 5.742386682263886377e-14 2.995315177530336048e-14
3.457000000000000000e+03 2.803779983520507812e+01 -1.360616970062255859e+01 4.257268908063049917e-14 -1.190074108052899260e-13 -2.293041516214511244e-14 -2.306191194500865904e-14
3.458000000000000000e+03 3.286075592041015625e+01 -6.313344001770019531e+00 6.720698216694520610e-14 2.575577283999569422e-13 9.742941588057607571e-14 1.039470227015733272e-13
3.459000000000000000e+03 3.686391448974609375e+01 -2.459856033325195312e+01 1.423684846228734369e-14 -1.769022889329743831e-13 -4.879963146357975401e-14 2.886359000184410446e-15
3.460000000000000000e+03 6.029141998291015625e+01 -2.951711845397949219e+01 -1.079688969184296708e-15 1.253523787591095950e-13 3.728180958395554967e-14 -3.008778596820353701e-14
3.461000000000000000e+03 6.292018890380859375e+01 -2.888329505920410156e+01 4.385259990964500421e-14 -1.184588722686480411e-13 -2.238188170770091107e-14 -1.068672805955815652e-13
3.462000000000000000e+03 7.136951446533203125e+01 1.354857254028320312e+01 -9.530244161112116918e-14 -3.441017476925149754e-14 -3.891378457529862112e-14 -3.199742852405193516e-14
3.463000000000000000e+03 6.857312774658203125e+01 1.339863395690917969e+01 -1.130511157777791542e-13 -1.857033271731797774e-13 -8.962633153003496389e-14 -2.464206884877050141e-14
3.464000000000000000e+03 5.337609100341796875e+01 -1.051229476928710938e+00 1.358563555639460789e-15 2.345771519466754301e-14 7.444883434509688008e-15 -1.522381396293348566e-13
3.465000000000000000e+03 1.136273479461669922e+01 -1.993155097961425781e+01 -7.470025066450090151e-15 -1.404542850297688106e-13 -4.437729277475578604e-14 1.996738684768503691e-13
3.466000000000000000e+03 1.070919609069824219e+01 -1.998146820068359375e+01 -9.337212636916208258e-15 -4.001662316668961467e-15 -4.001662316668961467e-15 5.328038493257816755e-14
3.467000000000000000e+03 4.879993057250976562e+01 -8.545436859130859375e+00 -1.276887395731257646e-13 3.677815362912277564e-14 -2.727317510557453889e-14 3.489143178482707885e-14
3.468000000000000000e+03 5.768616485595703125e+01 1.415718555450439453e+00 -1.347035818392156026e-13 -1.034810597128933696e-13 -7.145539449851176506e-14 -2.162547789767103185e-14
3.469000000000000000e+03 5.263223266601562500e+01 -1.203014135360717773e+00 -1.422347076273158817e-13 -2.897124814355001021e-13 -1.295841553635920795e-13 -4.207959393258409175e-14
3.470000000000000000e+03 1.249455738067626953e+01 -2.343209457397460938e+01 -1.257426644361500645e-13 -4.198972983551763072e-13 -1.636919901926506271e-13 2.131629155957201482e-13
3.471000000000000000e+03 4.815667343139648438e+01 -2.765075302124023438e+01 -1.766570695066124741e-13 -3.959668151091305655e-13 -1.717871721609864899e-13 1.016612263663764504e-13
3.472000000000000000e+03 1.921321296691894531e+01 -1.129604911804199219e+01 1.083106179614393150e-13 9.216978173525944285e-14 6.014412329714141636e-14 -1.421550729777468214e-13
3.473000000000000000e+03 4.455037689208984375e+01 -1.692523765563964844e+01 2.300308889495363690e-14 -8.164343224918713116e-14 -1.759210182042392212e-14 -5.972236187578097710e-14
3.474000000000000000e+03 6.703661346435546875e+01 -2.571533775329589844e+01 3.946854033377335258e-14 -2.018316340880038640e-13 -4.870892778745597451e-14 -1.815268719845483658e-13
3.475000000000000000e+03 2.531064224243164062e+01 -3.138406562805175781e+01 -8.675821698425970063e-14 -3.718209347727298442e-14 -3.718209347727298442e-14 9.483669546287570862e-14
3.476000000000000000e+03 5.595418548583984375e+01 -3.202446365356445312e+01 -6.872305594604957713e-14 3.917368477670234161e-14 -8.864812197837117907e-15 1.303007316844420616e-13
3.477000000000000000e+03 5.709654617309570312e+01 -3.166180992126464844e+01 -9.755215434276501285e-14 1.297579936294229741e-13 9.661752463623746179e-15 1.347224334044896943e-13
3.478000000000000000e+03 6.348717117309570312e+01 -2.962808799743652344e+01 -3.011992197470589154e-15 -4.704180092880184960e-14 -1.501613910255203410e-14 -1.438780735177336290e-13
3.479000000000000000e+03 3.096969795227050781e+01 -6.204541683197021484e+00 1.828754026466858362e-13 -1.046286199498334957e-13 2.347403413142934436e-14 1.186574032389572930e-13
3.480000000000000000e+03 4.421253681182861328e+00 -2.753431558609008789e+00 1.208635971118371052e-14 9.668176361495722793e-14 3.263043657432580791e-14 -2.861658799464469882e-14
3.481000000000000000e+03 2.610118389129638672e+00 -5.074803829193115234e+00 2.494664495594420273e-14 -8.081048037764798631e-14 -1.675914994888477727e-14 7.640530596446717948e-14
3.482000000000000000e+03 1.878600835800170898e+00 -5.057033538818359375e+00 -4.202595980636394946e-14 -1.323884984928344610e-13 -5.232433884501223875e-14 -1.793111659316708878e-14
3.483000000000000000e+03 8.360616683959960938e+00 -3.390264272689819336e+00 4.759422904073752625e-14 -1.168553237030148240e-13 -2.077832636580411590e-14 1.930422306923619546e-14
3.484000000000000000e+03 5.276673126220703125e+01 -3.128387832641601562e+01 -1.410855210871170273e-13 -8.334069654010456407e-14 -6.732786393291376181e-14 1.555924985206791344e-13
3.485000000000000000e+03 2.623738479614257812e+01 -3.254056930541992188e+01 -8.395828520260661954e-14 -3.598212222968855123e-14 -3.598212222968855123e-14 2.567164756055347052e-14
3.486000000000000000e+03 2.401056861877441406e+01 -1.308407783508300781e+01 1.726192973283691146e-13 -1.752220127348470824e-14 4.652912915527850080e-14 -5.399929228809899340e-14
3.487000000000000000e+03 3.017307090759277344e+01 -1.411851882934570312e+01 -9.147375782184163917e-14 6.547908154135853240e-15 -2.547775663672927765e-14 4.129181602218791325e-14
3.488000000000000000e+03 2.951260375976562500e+01 -1.393424415588378906e+01 -1.135486968123142204e-14 -1.421192129908918633e-13 -4.604222751214241682e-14 7.979430511522236924e-14
3.489000000000000000e+03 2.880696487426757812e+01 -1.375827121734619141e+01 -7.294316382465068638e-14 -7.701230332699676717e-14 -4.498664150074695167e-14 -6.375772170419055640e-14
3.490000000000000000e+03 6.484458160400390625e+01 -2.582741165161132812e+01 -7.429815226597802358e-14 -4.756895357759145793e-14 -3.656013073663130775e-14 4.181046446018708840e-14
3.491000000000000000e+03 3.362487030029296875e+01 -3.011614036560058594e+01 -1.759759906425160253e-14 8.396006735992764258e-14 1.990874201336211707e-14 6.229278838630961102e-14
3.492000000000000000e+03 6.704532623291015625e+01 8.116712570190429688e+00 -7.220542523264650292e-14 -2.396838966450126618e-13 -9.356678978703417138e-14 1.050546250062596790e-14
3.493000000000000000e+03 2.821724891662597656e+01 -3.237383270263671875e+01 -8.163340337909164024e-14 -3.498574382130616167e-14 -3.498574382130616167e-14 -4.735271961868459112e-14
3.494000000000000000e+03 6.427736663818359375e+01 -2.777127265930175781e+01 4.995368674915942608e-14 -7.009317578394666515e-14 -6.041846202216403366e-15 -3.930787851246994591e-14
3.495000000000000000e+03 6.489389038085937500e+01 -2.710836982727050781e+01 -1.303654178965579780e-13 -1.931237423669421305e-13 -9.704674672379731692e-14 1.809922044594507173e-14
3.496000000000000000e+03 4.536148452758789062e+01 -1.623162841796875000e+01 -1.444877610569036963e-14 -7.481875226788767264e-14 -2.678025952851294939e-14 -1.006021370267111414e-13
3.497000000000000000e+03 4.546696472167968750e+01 -2.257095527648925781e+01 -4.185372073873747101e-14 -2.924429903967962208e-13 -1.002890194392973278e-13 1.236954196839543108e-13
3.498000000000000000e+03 1.885442924499511719e+01 -1.083190822601318359e+01 7.227786349029569068e-14 -1.477472116005740244e-14 1.725094236025830757e-14 2.230849138501900947e-14
3.499000000000000000e+03 4.524427413940429688e+01 -1.710221862792968750e+01 1.753169312469163993e-14 -1.297392640368932870e-13 -3.366227178188026248e-14 -3.080127570099372436e-14
3.500000000000000000e+03 4.515958786010742188e+01 -1.797633361816406250e+01 -4.168683830746942875e-14 -2.008695808427760077e-13 -7.276692676151316763e-14 -5.309107306886683142e-14
3.501000000000000000e+03 4.571833419799804688e+01 -1.451536083221435547e+01 -4.252691880829266580e-14 -4.110129798355968700e-14 -2.508846537636888474e-14 -1.474383088491057481e-13
3.502000000000000000e+03 6.242797470092773438e+01 4.504385471343994141e+00 -2.542328225382545909e-14 8.060620313582456120e-14 1.655487609519314118e-14 2.323663790136827612e-14
3.503000000000000000e+03 6.304364395141601562e+01 5.033708095550537109e+00 -6.596739349435179478e-14 -7.402269037526734707e-14 -4.199702516088574256e-14 -1.297702451139720603e-13
3.504000000000000000e+03 6.399866485595703125e+01 -1.136902427673339844e+01 1.057816011976360493e-13 1.139613983692708277e-13 6.592290054769842089e-14 4.941870751593718802e-14
3.505000000000000000e+03 6.266709136962890625e+01 -1.031128311157226562e+01 1.348060660495697949e-13 -2.624826083482550976e-13 -3.830296201197923300e-14 -7.677876617904338952e-14
3.506000000000000000e+03 5.494594955444335938e+01 -6.438046097755432129e-01 -1.500437415372785077e-13 -1.855351132061186514e-14 -5.057917653499346966e-14 -4.530952029584492391e-14
3.507000000000000000e+03 5.653624725341796875e+01 -4.308738559484481812e-02 -9.089594582654264565e-14 -2.219591968988937625e-13 -9.385654281763092244e-14 -6.005942000241598633e-14
3.508000000000000000e+03 1.056202793121337891e+01 -1.825491714477539062e+01 4.557169816884381122e-15 -1.581752442783926349e-13 -4.608542280432059712e-14 2.617867640058221118e-14
3.509000000000000000e+03 6.543731689453125000e+01 7.294310569763183594e+00 6.533861722068240452e-14 7.375321192529607495e-14 4.172755009904625945e-14 -1.325949847965843253e-13
3.510000000000000000e+03 6.601040649414062500e+01 7.920863151550292969e+00 4.423820657668484091e-14 -1.640445591866157571e-13 -3.594190510535291705e-14 -3.615152881913941130e-14
3.511000000000000000e+03 2.068143463134765625e+01 -3.142818832397460938e+01 -1.465502659546771835e-13 5.157011699185448661e-14 -2.849404265596773567e-14 1.376515817563123134e-13
3.512000000000000000e+03 2.739286994934082031e+01 -4.854765892028808594e+00 -6.768730405814701867e-14 -2.900884556438637629e-14 -2.900884556438637629e-14 1.452192993677339783e-13
3.513000000000000000e+03 5.580308914184570312e+01 -6.254103183746337891e+00 1.205020512626969742e-13 7.451920753642066186e-14 5.850637492922985960e-14 -5.399142504608489546e-14
3.514000000000000000e+03 4.569589233398437500e+01 -2.351404380798339844e+01 -1.649856466723331749e-13 -4.367157135053145733e-13 -1.805104188953160493e-13 1.074990316489617126e-13
3.515000000000000000e+03 4.714776229858398438e+01 -1.231630897521972656e+01 -4.808770365954430359e-14 -1.349863824233812903e-13 -5.492222616369085708e-14 -6.554913540126119931e-14
3.516000000000000000e+03 4.552016067504882812e+01 -1.536637306213378906e+01 4.287975207653733911e-14 -1.417512889836589074e-13 -2.966146073332329158e-14 2.049321338169242390e-14
3.517000000000000000e+03 1.197729015350341797e+01 -2.258635520935058594e+01 -2.334151481039187237e-13 -1.915369582774009705e-13 -1.274856414011649175e-13 7.189556025175014575e-14
3.518000000000000000e+03 1.268575668334960938e+01 -2.469830703735351562e+01 -1.336728782676786798e-14 -4.632383344103929712e-13 -1.429816822665769260e-13 1.485770463908672734e-13
3.519000000000000000e+03 6.782887268066406250e+01 -1.271471691131591797e+01 7.564484656068584667e-14 -2.192110018896589740e-13 -4.306984321056014919e-14 1.379070062356227422e-13
3.520000000000000000e+03 6.671681976318359375e+01 -1.161135959625244141e+01 1.711145060281221708e-13 -1.816710844260160940e-14 4.588421859802981062e-14 9.601165890972540584e-14
3.521000000000000000e+03 1.672589874267578125e+01 -2.887978553771972656e+01 -1.397567500095731052e-13 -1.056466993423245404e-13 -7.362103412794293589e-14 -1.709972665038268086e-14
3.522000000000000000e+03 5.480691146850585938e+01 -3.191934776306152344e+01 -1.203794144444617076e-13 -5.159118100718680655e-14 -5.159118100718680655e-14 1.632848316193008520e-13
3.523000000000000000e+03 3.223271179199218750e+01 -1.494085502624511719e+01 -1.771578489375563725e-13 -5.304931773269898343e-14 -6.906214695175799667e-14 1.270789978238470730e-13
3.524000000000000000e+03 3.150612831115722656e+01 -1.427402973175048828e+01 -9.231891374408482398e-14 -3.956524777942727056e-14 -3.956524777942727056e-14 2.430270611489260268e-13
3.525000000000000000e+03 4.669133758544921875e+01 -2.411803817749023438e+01 -2.545042356114773918e-13 -4.293298843608545079e-13 -2.051502414127104323e-13 1.412230792377511257e-13
3.526000000000000000e+03 4.646427154541015625e+01 -2.538469123840332031e+01 -2.511058852169845146e-13 -2.906206091751739606e-13 -1.625179483176475426e-13 1.077004493075552072e-13
3.527000000000000000e+03 3.365222930908203125e+01 -6.236113071441650391e+00 2.111942653366342265e-14 -1.282016620684015007e-13 -3.212466981338847616e-14 8.678153410723171701e-14
3.528000000000000000e+03 4.595957946777343750e+01 -1.367463111877441406e+01 -4.881556245925171289e-14 -2.611134236347317783e-13 -9.297869819988729967e-14 -6.083297792369365964e-14
3.529000000000000000e+03 3.151258277893066406e+01 -3.050803947448730469e+01 -5.916400453321452035e-14 2.039494739541555801e-14 -1.163071697193309925e-14 -7.231841942781022659e-15
3.530000000000000000e+03 2.496625137329101562e+01 -3.705286502838134766e+00 -9.141821956555606921e-14 -3.917923792470454081e-14 -3.917923792470454081e-14 5.942714717674033031e-14
3.531000000000000000e+03 2.239751625061035156e+01 -4.088590145111083984e+00 -7.031954449206742966e-15 -3.013694733694570298e-15 -3.013694733694570298e-15 -1.249550627086069149e-14
3.532000000000000000e+03 2.579509735107421875e+01 -4.295118331909179688e+00 -1.572293185404805005e-13 -2.163304529002180177e-14 -5.365871050440340628e-14 6.176583224916376569e-14
3.533000000000000000e+03 2.502866744995117188e+01 -4.515378952026367188e+00 -1.255573200747636675e-13 -2.596895409216065653e-13 -1.155740677856800791e-13 9.224816277606656678e-14
3.534000000000000000e+03 2.344766044616699219e+01 -5.646691322326660156e+00 -2.601955617924280734e-14 8.035065668376972781e-14 1.629933133720420230e-14 -5.516513827230444533e-14
3.535000000000000000e+03 3.288018417358398438e+01 -3.082146072387695312e+01 -6.121268670032176465e-15 4.312754648305890115e-14 1.110188380977613840e-14 -1.111474803795926836e-13
3.536000000000000000e+03 1.813187980651855469e+01 -4.617445468902587891e+00 -8.047475717493784986e-14 -2.174929751271384437e-13 -8.939032104587560368e-14 -9.014866625542058975e-14
3.537000000000000000e+03 5.730215454101562500e+01 3.632518649101257324e-01 -3.479717057032483130e-14 3.083787430057868817e-14 -1.187788690341429806e-15 -2.052489368446915562e-15
3.538000000000000000e+03 5.803343200683593750e+01 8.312335610389709473e-01 -9.213304761040291835e-14 1.435181997116313779e-13 1.541554563036853787e-14 -7.398727084554496125e-14
3.539000000000000000e+03 5.616500091552734375e+01 -7.695294380187988281e+00 -2.411917508163968771e-14 2.747130593751950789e-13 7.517816528806661736e-14 6.861650597754856418e-14
3.540000000000000000e+03 5.507143783569335938e+01 -7.762331485748291016e+00 3.266269158895725166e-14 -7.750360276519499547e-14 -1.345227233643178644e-14 -3.071097182442104889e-14
3.541000000000000000e+03 1.061910915374755859e+01 -1.911648178100585938e+01 -8.344800883825810589e-15 -4.932729233213771491e-14 -1.730162711775611040e-14 1.547119501737678759e-13
3.542000000000000000e+03 5.520389175415039062e+01 -6.732698917388916016e+00 4.127940868357653226e-14 6.344212400430718213e-14 3.141645878992557761e-14 5.193552361716820276e-14
3.543000000000000000e+03 6.298585891723632812e+01 -3.030632209777832031e+01 -1.386018443029143898e-13 7.785205179090468053e-14 -1.822493707597655499e-14 -1.926792330287502297e-13
3.544000000000000000e+03 4.106059265136718750e+01 -2.331886291503906250e+00 -1.140623375915292281e-13 -4.888386041985472164e-14 -4.888386041985472164e-14 7.554202353715275264e-14
3.545000000000000000e+03 3.988692474365234375e+01 -4.393640041351318359e+00 6.954332942843421961e-14 5.101892215989001222e-13 1.739197707292111650e-13 6.416097037345580567e-14
3.546000000000000000e+03 3.104963874816894531e+01 -3.204529190063476562e+01 -3.369459794727927560e-14 -3.731601616249746733e-14 -2.130318355530666508e-14 -2.551258154932269095e-14
3.547000000000000000e+03 1.250033187866210938e+01 -1.396111202239990234e+01 6.526962130493085823e-14 -1.471676513292718980e-13 -2.456941036255502753e-14 -3.059880094528205641e-14
3.548000000000000000e+03 1.135018157958984375e+01 -1.293844604492187500e+01 5.527124439554109703e-14 6.943862260362643202e-14 3.741296077737661652e-14 1.270486994553237867e-14
3.549000000000000000e+03 4.795880508422851562e+01 -1.077961254119873047e+01 -7.567310357980625013e-14 -2.154351187461794881e-13 -8.733246466491664806e-14 -9.333855167719881663e-14
3.550000000000000000e+03 6.829682922363281250e+01 -1.558728504180908203e+01 -2.034818440046354260e-13 -4.989650186082439376e-13 -2.107340723363909651e-13 1.868593306345381344e-13
3.551000000000000000e+03 6.980851745605468750e+01 1.339216995239257812e+01 -1.950485264837556465e-13 -1.607969535516798332e-13 -1.067536426553779283e-13 -3.070755319944593054e-14
3.552000000000000000e+03 4.695950317382812500e+01 -1.124997901916503906e+01 -6.053108182876507093e-14 -1.517569978102401018e-13 -6.368642863508605645e-14 -8.226077018993679935e-14
3.553000000000000000e+03 5.402032852172851562e+01 -3.288493728637695312e+01 -1.503178685040643114e-13 -5.298420800410943987e-14 -6.099062769583663002e-14 5.584668808671956752e-14
3.554000000000000000e+03 2.910615539550781250e+01 -3.216913223266601562e+01 -6.164436772452749902e-14 -4.929448844015645037e-14 -3.328165583296564811e-14 -4.172199017478048222e-14
3.555000000000000000e+03 3.001136779785156250e+01 -3.216371154785156250e+01 -6.488512933324960819e-14 -2.336871744289953368e-13 -8.957169451680527250e-14 1.331706470222631875e-14
3.556000000000000000e+03 6.889151000976562500e+01 -1.335785102844238281e+01 8.073841481449559043e-14 -3.771563682024303699e-13 -8.892538127299592920e-14 -7.572048490880976118e-15
3.557000000000000000e+03 1.611193084716796875e+01 -2.824601745605468750e+01 -8.668371196621921237e-14 -8.290111354553389433e-14 -5.087544833115228982e-14 8.574965824209579424e-14
3.558000000000000000e+03 1.741119575500488281e+01 -2.952571678161621094e+01 -2.098804494728070263e-14 -8.994876647986857487e-15 -8.994876647986857487e-15 1.789680870948467950e-13
3.559000000000000000e+03 1.468309402465820312e+01 -1.131508731842041016e+01 9.456727122301306077e-14 8.627977889433258163e-14 5.425411367995097711e-14 1.167770985162699948e-13
3.560000000000000000e+03 4.777814483642578125e+01 -9.625187873840332031e+00 -1.400964847603214380e-13 -1.972941937860434036e-13 -1.012172049191621681e-13 -8.010692803539498641e-14
3.561000000000000000e+03 4.492907714843750000e+01 -1.943034052848815918e+00 -4.268892232978452328e-14 1.189575917154642171e-13 2.288060115451708704e-14 1.511145402604066601e-14
3.562000000000000000e+03 5.804264831542968750e+01 -3.126932144165039062e+01 -1.003123501147965002e-13 4.851089148438791909e-14 -1.554043725030939543e-14 -5.458603539879383626e-14
3.563000000000000000e+03 3.584487915039062500e+01 -2.698667335510253906e+01 6.198990295689862928e-14 -1.346497952470649545e-14 1.455747584381151399e-14 -1.088084700465175025e-13
3.564000000000000000e+03 2.334692955017089844e+01 -3.218100357055664062e+01 -3.604518213854573938e-14 -1.298253090318071679e-13 -4.976114599585315657e-14 -8.204705869514685584e-15
3.565000000000000000e+03 6.480436706542968750e+01 -1.162950611114501953e+01 8.352979495151319211e-14 5.867395870377822842e-14 4.266112609658742616e-14 -9.614636425339315173e-14
3.566000000000000000e+03 1.900691604614257812e+01 -3.055478477478027344e+01 -7.687490103042496359e-14 1.280456402935831531e-14 -1.922110033799034196e-14 9.857539047183894176e-14
3.567000000000000000e+03 3.826971817016601562e+01 -4.823043823242187500e+00 -4.076865459264576719e-14 2.827866758846938472e-14 -3.746995931846325290e-15 6.106192076494112997e-14
3.568000000000000000e+03 3.656478118896484375e+01 -1.739407920837402344e+01 -1.900135322523144321e-13 -8.143437096527761376e-14 -8.143437096527761376e-14 -4.368161106264867311e-14
3.569000000000000000e+03 6.758126831054687500e+01 9.968674659729003906e+00 -1.261392249332637938e-13 -2.828144077433869530e-13 -1.226860952240060865e-13 -1.212161474710773956e-13
3.570000000000000000e+03 6.803404235839843750e+01 1.070326137542724609e+01 -1.542596345799340796e-13 -6.611127389890419925e-14 -6.611127389890419925e-14 9.131881686106398804e-15
3.571000000000000000e+03 1.356179618835449219e+01 -1.166711044311523438e+01 1.971477993877035484e-14 7.707561395760634260e-14 2.903711952416572484e-14 6.515475686101959707e-14
3.572000000000000000e+03 1.252504730224609375e+01 -1.288956069946289062e+01 9.263781148433070101e-14 -6.180800093740987378e-14 9.248944180515784874e-15 2.856783277820074129e-14
3.573000000000000000e+03 1.284427642822265625e+01 -2.592129135131835938e+01 -9.742872470169111621e-14 -1.904457494483757785e-13 -8.636234088976735279e-14 9.000289527332991368e-14
3.574000000000000000e+03 6.822323608398437500e+01 -1.362967395782470703e+01 1.459450981833136651e-14 -4.512547020080193150e-13 -1.309980498642032698e-13 9.364933822994178647e-14
3.575000000000000000e+03 6.761146545410156250e+01 -1.173297405242919922e+01 1.034728739864911040e-13 -5.275413352684443780e-13 -1.272205404174650556e-13 2.100908558450367836e-13
3.576000000000000000e+03 1.124099540710449219e+01 -1.643832397460937500e+01 1.631441529992890688e-14 7.561831748877784198e-14 2.757981966720543521e-14 3.343160776968397141e-14
3.577000000000000000e+03 4.204358673095703125e+01 -2.238137960433959961e+00 -7.121006665193260754e-14 -3.507752356808613303e-13 -1.265955927327172548e-13 6.422279700234179156e-14
3.578000000000000000e+03 4.510309982299804688e+01 -1.979420089721679688e+01 -8.200976383447924900e-14 -2.639017747819299986e-13 -1.037734622625491321e-13 5.318582979764322274e-15
3.579000000000000000e+03 4.516342544555664062e+01 -2.071727561950683594e+01 -9.689537050117818552e-16 -2.291700087076603554e-13 -6.904168941201591081e-14 9.914134400587637508e-14
3.580000000000000000e+03 3.596574020385742188e+01 -1.778282928466796875e+01 -2.256965231026142327e-13 -3.826705120314743969e-13 -1.825101078297211576e-13 1.144378781190238947e-13
3.581000000000000000e+03 3.623857116699218750e+01 -1.677471923828125000e+01 -2.792739726541898504e-13 -4.628209707840946763e-13 -2.226284748999690644e-13 1.050282704231388087e-13
3.582000000000000000e+03 3.539020156860351562e+01 -1.558367633819580078e+01 -2.205782621443261315e-13 -2.203486552292480138e-13 -1.322780725015668124e-13 1.533286166218936208e-13
3.583000000000000000e+03 1.186520195007324219e+01 -1.351781845092773438e+01 7.454267712532318402e-15 2.607016131564356826e-14 1.005732870845276600e-14 1.261692336165191192e-14
3.584000000000000000e+03 1.080595874786376953e+01 -1.511769008636474609e+01 -8.166408968870476903e-15 -4.925083913831854177e-14 -1.722517392393693725e-14 1.060671190634965289e-13
3.585000000000000000e+03 3.718685531616210938e+01 -2.299063110351562500e+01 -1.827776652089680570e-14 -1.908371193275887334e-13 -6.273446524632589338e-14 5.574592504731419595e-14
3.586000000000000000e+03 3.704594421386718750e+01 -2.377232551574707031e+01 6.487493105656466641e-14 -1.794740673080868348e-14 1.407825763653997378e-14 1.682545162223769708e-13
3.587000000000000000e+03 4.631868743896484375e+01 -2.680199432373046875e+01 -1.744402284295856753e-13 -3.092337041814274823e-13 -1.451021784280512317e-13 7.860896043257112331e-14
3.588000000000000000e+03 5.412091827392578125e+01 -6.627449035644531250e+00 -7.876560054144096656e-14 -2.167604745868800808e-13 -8.865782050561724081e-14 -1.062151262125679563e-13
3.589000000000000000e+03 6.926510620117187500e+01 -1.699690628051757812e+01 3.782919552051445828e-16 -6.403511618527368832e-13 -1.919918624039215760e-13 8.937458656184740780e-14
3.590000000000000000e+03 6.909394836425781250e+01 -1.616973686218261719e+01 -1.111768351534127286e-13 -5.509076268089829753e-13 -1.986253501083667938e-13 1.533141967329995636e-13
3.591000000000000000e+03 5.892667770385742188e+01 -3.096328353881835938e+01 -6.192100868510075351e-14 1.107152699597949153e-13 1.463827939884778523e-14 1.232961486814093677e-13
3.592000000000000000e+03 3.503309249877929688e+01 -2.862211608886718750e+01 -3.982479561512493327e-14 1.659360311916796560e-13 3.783336694602144890e-14 -7.548094229726035054e-14
3.593000000000000000e+03 3.544749832153320312e+01 -2.775443649291992188e+01 3.292645087246866276e-14 -2.260811438233034654e-13 -5.794640483593183067e-14 -1.820842332163688515e-14
3.594000000000000000e+03 3.209475708007812500e+01 -7.469977855682373047e+00 5.720023233687183614e-15 -4.329951111201046920e-14 -1.127384589762886469e-14 1.420170404886622606e-13
3.595000000000000000e+03 1.083093738555908203e+01 -2.085669136047363281e+01 2.534685955319238709e-14 -4.008955981852496686e-13 -1.126646248083423840e-13 9.655961468769957978e-14
3.596000000000000000e+03 1.097470951080322266e+01 -2.176265907287597656e+01 -2.520308723004405227e-13 -1.995151277262713352e-13 -1.354637972975081261e-13 1.227695110286516900e-13
3.597000000000000000e+03 1.046459388732910156e+01 -1.649282264709472656e+01 6.121229283000129140e-14 -3.397737549214879804e-13 -8.356843320643514428e-14 5.720670112749001723e-14
3.598000000000000000e+03 6.341494750976562500e+01 -1.052290725708007812e+01 -6.746199837637505831e-15 -2.576670329196024262e-14 -9.753870684769440358e-15 1.704984657418476962e-14
3.599000000000000000e+03 3.660273361206054688e+01 -2.544159507751464844e+01 -8.052839130115799215e-14 -3.451216770049628235e-14 -3.451216770049628235e-14 4.009344481984084343e-15
3.600000000000000000e+03 5.138670730590820312e+01 -8.026702880859375000e+00 -1.606134658865138176e-13 -2.308339608868281712e-14 -5.510906130306442163e-14 1.032622880432765289e-13
3.601000000000000000e+03 4.840521240234375000e+01 -2.091370582580566406e+00 -3.419606178084455550e-14 3.109549428928840009e-14 -9.301699721811387649e-16 -8.548493672915630226e-14
3.602000000000000000e+03 6.583430480957031250e+01 -1.128429222106933594e+01 -1.366338005194187022e-14 -1.888595345649751733e-13 -6.075687370744875526e-14 4.387012671538959019e-14
3.603000000000000000e+03 2.783794784545898438e+01 -5.385578632354736328e+00 -2.162206909827810164e-13 -1.879544290388571182e-13 -1.212525360064914404e-13 7.207956291294809192e-14
3.604000000000000000e+03 1.956116795539855957e+00 -3.460496425628662109e+00 -8.418205097848047158e-14 -1.320254838885637910e-14 -2.921537930198128685e-14 -7.231862271571756762e-14
3.605000000000000000e+03 2.145975494384765625e+01 -4.831862449645996094e+00 -9.691185164474938607e-14 -2.702884032042274232e-13 -1.101600771323194006e-13 -1.023025116226108922e-13
3.606000000000000000e+03 5.100728225708007812e+01 -3.238531875610351562e+01 -6.008431599480168472e-14 -1.858787375321607760e-13 -7.378891605808873821e-14 8.569439781261692368e-14
3.607000000000000000e+03 3.465901565551757812e+01 -1.443937587738037109e+01 -4.029007758931529848e-14 -6.301812641596599152e-14 -3.099246120158438700e-14 -4.967508744841211965e-14
3.608000000000000000e+03 3.350242614746093750e+01 -1.507929420471191406e+01 -2.085383732017276337e-13 2.500378071636829430e-14 -5.506038062551982248e-14 1.280716187940754425e-14
3.609000000000000000e+03 5.185120010375976562e+01 -3.065495300292968750e+01 -9.143242939027920735e-14 -1.306872226538788317e-13 -6.663589900137920075e-14 1.068522508429654849e-13
3.610000000000000000e+03 3.220331954956054688e+01 -1.423248672485351562e+01 -1.629485256579230046e-13 -2.408413163454588279e-14 -5.610979346079569829e-14 1.509886643881810930e-13
3.611000000000000000e+03 3.060650634765625000e+01 -6.787768840789794922e+00 -7.563096877287803221e-14 -3.241327087917696137e-14 -3.241327087917696137e-14 1.023416513210376189e-13
3.612000000000000000e+03 2.999642753601074219e+01 -6.306477546691894531e+00 -1.339060562736624216e-13 -1.163735940430546748e-14 -4.366302377165412474e-14 6.256438103051722988e-14
3.613000000000000000e+03 6.344540596008300781e+00 -3.559010267257690430e+00 -1.602356790276430326e-14 -2.813729338500131627e-13 -8.921894933998711363e-14 1.818390341187976766e-14
3.614000000000000000e+03 5.245191955566406250e+01 -6.833334445953369141e+00 -2.331129030314158662e-14 -4.430376353867053474e-14 -2.028451632195022586e-14 9.177637220070949953e-14
3.615000000000000000e+03 2.493207931518554688e+00 -7.439231395721435547e+00 2.019341623440713135e-14 1.459071714360674066e-13 4.983017579292259303e-14 8.630224898435734371e-14
3.616000000000000000e+03 4.832558155059814453e+00 -4.563817977905273438e+00 2.115560161677475931e-14 -1.968125776284981865e-13 -5.269709432817633321e-14 5.261838125045388559e-15
3.617000000000000000e+03 3.765924072265625000e+01 -1.930990028381347656e+01 -1.154406431558285817e-13 -3.354179997985817785e-13 -1.352575955968285393e-13 1.670072229380953344e-13
3.618000000000000000e+03 3.689820480346679688e+01 -1.789660644531250000e+01 -2.173356031818021727e-13 -4.134004607820457311e-13 -1.892208178339016555e-13 1.046908938121156318e-13
3.619000000000000000e+03 5.051341629028320312e+01 -5.148638486862182617e-01 1.871347857489852329e-13 -1.485541155149192050e-13 1.157420208665934508e-14 8.819000420884869074e-15
3.620000000000000000e+03 5.192795562744140625e+01 -1.336228132247924805e+00 -1.222019582964098405e-13 -5.237226735729967608e-14 -5.237226735729967608e-14 -4.578011147254867907e-14
3.621000000000000000e+03 1.555632114410400391e+01 -1.141435718536376953e+01 3.194110422119131321e-14 1.368904430321072827e-14 1.368904430321072827e-14 3.958083996192032772e-14
3.622000000000000000e+03 5.554547786712646484e+00 -3.930289459228515625e+01 -2.950832395272329212e-14 -1.270237983807404047e-13 -4.695963534478639345e-14 -1.134525077508240221e-14
3.623000000000000000e+03 2.693932151794433594e+01 -3.891450405120849609e+00 -2.156755270254009926e-13 -4.668141890293124596e-14 -7.870708072918106146e-14 -2.642942356395790171e-14
3.624000000000000000e+03 7.846725463867187500e+01 1.694665336608886719e+01 5.389980996250987033e-14 -1.599038826696763671e-13 -3.180121842401816001e-14 9.832929690747546636e-14
3.625000000000000000e+03 1.045791435241699219e+01 -4.197816848754882812e+00 2.298774912827886152e-14 -8.165000522485782453e-14 -1.759867649016051000e-14 1.144246101949381034e-13
3.626000000000000000e+03 9.755483627319335938e+00 -4.153068065643310547e+00 3.817164564713345157e-15 -4.411502088109975350e-14 -1.208935651375109624e-14 2.416416438960015262e-14
3.627000000000000000e+03 6.988600921630859375e+01 1.225090789794921875e+01 -1.174552263175782096e-13 -3.248436404850590931e-13 -1.326896627512966220e-13 2.125641886628875515e-15
3.628000000000000000e+03 7.721366882324218750e+01 1.703217887878417969e+01 8.959974824801833493e-14 -1.903548526487400250e-13 -3.022652996496379141e-14 1.252127877294020863e-13
3.629000000000000000e+03 7.721601104736328125e+01 1.634021568298339844e+01 -4.323118265822135931e-14 -3.845352313479322159e-13 -1.283299231854065359e-13 5.684397451442141369e-14
3.630000000000000000e+03 5.839044189453125000e+01 -8.229099273681640625e+00 -1.211991119444422171e-13 5.246207402553231328e-15 -3.478587115080845893e-14 -1.328662115225587304e-13
3.631000000000000000e+03 7.658140563964843750e+01 1.638833427429199219e+01 7.776071453413635481e-14 -4.241834748036632519e-13 -1.039268294361107847e-13 2.922792555399601755e-14
3.632000000000000000e+03 7.527645874023437500e+01 1.647093963623046875e+01 3.179546876437219782e-14 -1.693771669144042424e-13 -4.127450944500961338e-14 1.302614022506351499e-13
3.633000000000000000e+03 7.768324279785156250e+01 1.327190494537353516e+01 4.155268777038213443e-15 -2.269739165497094979e-13 -6.684559047780147534e-14 1.577018545048311515e-13
3.634000000000000000e+03 7.269998168945312500e+01 1.593462753295898438e+01 -6.629568991218040552e-14 -1.199143323700468944e-13 -5.586300532941547436e-14 -2.332152754334210210e-13
3.635000000000000000e+03 2.198757171630859375e+01 -1.212446117401123047e+01 1.671105745101875151e-13 2.586786951904850723e-14 5.789353642749600626e-14 5.577216951615192320e-14
3.636000000000000000e+03 7.131012725830078125e+01 1.620584297180175781e+01 -2.882878668859084614e-14 2.278372802921868612e-13 5.970254808107880451e-14 8.265298032583343057e-14
3.637000000000000000e+03 7.086278533935546875e+01 1.491700458526611328e+01 -1.346397629888376746e-13 -4.237103560806448899e-13 -1.675050343655920537e-13 -2.044705178013295904e-14
3.638000000000000000e+03 2.049183464050292969e+01 -1.160664463043212891e+01 2.721232764677557897e-14 -7.983946891196996853e-14 -1.578814356540444303e-14 1.360622057459525552e-14
3.639000000000000000e+03 5.914052963256835938e+01 -9.425931930541992188e+00 9.150811178411637908e-15 3.921776098314566639e-15 3.921776098314566639e-15 -8.724589112144368053e-14
3.640000000000000000e+03 2.054881286621093750e+01 -1.240031814575195312e+01 1.770562320889401686e-13 8.731897990039635959e-14 7.931256020866916945e-14 -1.121251732411586433e-13
3.641000000000000000e+03 2.138273620605468750e+01 -1.200720119476318359e+01 4.125863604757806780e-14 -5.094415286756998063e-14 -2.905655045997573849e-15 -3.976401253082996468e-14
3.642000000000000000e+03 6.212702560424804688e+01 -9.425442695617675781e+00 -7.920334886264788349e-15 -2.092736926676344589e-13 -6.515821275544439461e-14 2.736313000457294559e-14
3.643000000000000000e+03 6.068976974487304688e+01 -9.126030921936035156e+00 -8.259966468400145589e-14 1.704794075005344745e-13 2.636392589427851568e-14 5.509072642788815505e-15
3.644000000000000000e+03 1.117421436309814453e+01 -4.266915321350097656e+00 3.901775956363998099e-14 -1.662818916847025319e-13 -3.817924099157148088e-14 1.246954301696145267e-14
3.645000000000000000e+03 7.664385795593261719e+00 -3.297425746917724609e+00 -3.680050513453492211e-14 2.997930476458278426e-14 -2.046359814524109817e-15 5.878961597052811960e-14
3.646000000000000000e+03 9.058922767639160156e+00 -4.140517711639404297e+00 -5.908806125322959429e-15 -9.403424355370129661e-14 -2.998291312493808758e-14 -1.044309089074171859e-13
3.647000000000000000e+03 1.346005630493164062e+01 -3.886795282363891602e+00 -1.261045541806667808e-14 8.609741608892051978e-14 2.204608904828909977e-14 9.066161585575063797e-14
3.648000000000000000e+03 2.192613410949707031e+01 -8.608800888061523438e+00 -3.076845486835351473e-14 1.698173123388518890e-13 4.171465825758904900e-14 -5.869332526508425074e-14
3.649000000000000000e+03 2.986993598937988281e+01 -1.326361274719238281e+01 -4.188933000384004179e-14 -2.009563712266834723e-13 -7.285371036915705423e-14 9.715770803988763027e-14
3.650000000000000000e+03 7.773884582519531250e+01 1.404116249084472656e+01 1.086458871544897231e-13 -4.493937367415837270e-14 1.911195506053894183e-14 -2.010693078236067827e-14
3.651000000000000000e+03 7.331044006347656250e+01 1.592779922485351562e+01 -6.847852092230904963e-14 6.215396307438642021e-14 -1.897367354376788828e-15 6.490617640792298304e-14
3.652000000000000000e+03 6.231478500366210938e+01 -8.697505950927734375e+00 -2.216190725129896927e-14 -5.524890983078789564e-14 -2.322324461640629112e-14 3.335219673681298624e-14
3.653000000000000000e+03 6.001913833618164062e+01 -8.992937088012695312e+00 3.068286049496757317e-14 3.602527347615347431e-14 2.001244086896267205e-14 6.528737257440646660e-15
3.654000000000000000e+03 3.545429229736328125e+01 -6.415480613708496094e+00 1.286112600966393682e-13 -1.278846820107482074e-13 2.179709323141097591e-16 7.815995843162698575e-14
3.655000000000000000e+03 3.620290756225585938e+01 -6.182879924774169922e+00 6.028669757688915470e-15 -8.891818488107605667e-14 -2.486685445231284763e-14 -1.073675856880750012e-13
3.656000000000000000e+03 4.961549377441406250e+01 -1.599590063095092773e+00 1.089521285284377264e-14 -8.683251871439284786e-14 -2.278119167376142784e-14 7.982363956025168017e-14
3.657000000000000000e+03 6.082416152954101562e+01 1.259167909622192383e+00 -1.197195859429459747e-14 4.062010873061988603e-14 8.594445210304176019e-15 -6.860684302568628712e-14
3.658000000000000000e+03 6.205463790893554688e+01 2.337863922119140625e+00 -1.170298124901492098e-13 4.134626668816920869e-14 -2.270506374059400034e-14 -4.163149317469583277e-14
3.659000000000000000e+03 3.693990707397460938e+01 -5.949736595153808594e+00 5.677628387644158628e-15 -1.576950511361988050e-13 -4.560522627399497819e-14 -9.477394048587953201e-14
3.660000000000000000e+03 7.395195007324218750e+01 1.594313812255859375e+01 -7.183498045536251819e-14 -1.680392614335571300e-13 -7.196227256667589445e-14 -2.111205226482462671e-13
3.661000000000000000e+03 6.485435485839843750e+01 -2.862985610961914062e+01 -9.865459144053900786e-14 -2.252843365416895560e-13 -9.718167568416313795e-14 -5.160356124074387540e-14
3.662000000000000000e+03 1.189643764495849609e+01 -4.347860336303710938e+00 -4.366386741646959002e-14 -6.446403198571981630e-14 -3.243837015947000080e-14 1.840422887873505164e-13
3.663000000000000000e+03 1.262298679351806641e+01 -4.436175823211669922e+00 -6.182173303555076049e-15 1.346033473483693177e-13 3.852635170522450414e-14 -9.193629540928290045e-15
3.664000000000000000e+03 1.335494422912597656e+01 -4.536813735961914062e+00 1.121463626173671568e-13 9.381367617423627681e-14 6.178801095985467229e-14 6.638664092192478328e-14
3.665000000000000000e+03 5.012219619750976562e+01 -7.134159088134765625e+00 -4.712507104378052536e-14 -6.594741029306017133e-14 -3.392174169054677779e-14 -1.219457613230515158e-13
3.666000000000000000e+03 6.041671752929687500e+01 1.824450016021728516e+00 -1.101430280531570660e-13 4.429774282848145117e-14 -1.975358760028175786e-14 -4.418662904646063205e-14
3.667000000000000000e+03 2.018775749206542969e+01 -1.117802619934082031e+01 6.164610244800347583e-14 -1.108330888546261994e-13 -1.475609490554728037e-14 -2.125738143453001494e-13
3.668000000000000000e+03 6.425857543945312500e+01 6.125682353973388672e+00 -6.591724914387434020e-14 1.090025964455010321e-13 1.292560419048800757e-14 -1.658518835505676248e-13
3.669000000000000000e+03 6.532881927490234375e+01 6.178046703338623047e+00 -4.886242032189382078e-14 -4.381651291796018199e-14 -2.780368031076937974e-14 -1.015661553883766277e-13
3.670000000000000000e+03 4.411394500732421875e+01 -1.286652445793151855e+00 -1.167891060553302718e-14 1.551230796375743792e-13 4.303324799910697440e-14 -8.620593964418863525e-15
3.671000000000000000e+03 2.154613685607910156e+01 -3.179827690124511719e+01 -1.149903604410681957e-13 -2.640610982911767435e-14 -4.241894243630847661e-14 5.651037058814530750e-15
3.672000000000000000e+03 2.510404014587402344e+01 -3.367358779907226562e+01 -5.853255841169538454e-14 -1.852137014720853236e-13 -7.312387999801328586e-14 -8.013101934648079322e-15
3.673000000000000000e+03 6.157110214233398438e+01 -3.000944328308105469e+01 1.477574031009953881e-13 2.005774425673997885e-13 1.045004537005185530e-13 -1.293304113976490033e-13
3.674000000000000000e+03 6.414556121826171875e+01 -2.912359046936035156e+01 3.683738156092658533e-14 6.153840051469419703e-14 2.951273530031259251e-14 -8.415333994970033982e-14
3.675000000000000000e+03 4.150394058227539062e+01 -2.844373703002929688e+00 -5.152593575332570230e-14 -2.965882476679143620e-13 -1.044342496053611569e-13 -2.761138180888602495e-14
3.676000000000000000e+03 2.669085502624511719e+01 -1.267054653167724609e+01 -2.804650771608824256e-14 -2.636501585627504252e-13 -8.750899988365160032e-14 5.465996104629840258e-14
3.677000000000000000e+03 6.365687561035156250e+01 5.573134422302246094e+00 -3.891316115904944195e-14 -6.242801550227286556e-14 -3.040235367602305006e-14 -2.662897266786975331e-14
3.678000000000000000e+03 6.473540496826171875e+01 5.581520080566406250e+00 -4.785205570548636822e-14 -1.005721859416962294e-13 -4.452727181652842148e-14 -2.126946147961057687e-14
3.679000000000000000e+03 2.266846275329589844e+01 -1.220982933044433594e+01 9.369804601254069776e-14 -1.885984451293135078e-13 -2.847011905740548521e-14 1.105066220279636580e-13
3.680000000000000000e+03 1.613846015930175781e+01 -9.763692855834960938e+00 3.826377826783924907e-14 -3.496088238786471125e-13 -9.340351571612143244e-14 1.246786284240727904e-13
3.681000000000000000e+03 2.480586814880371094e+01 -1.319058036804199219e+01 4.951765621076954088e-15 -1.351306626274847988e-13 -3.905366698433998529e-14 -3.841621031702713296e-14
3.682000000000000000e+03 1.409493064880371094e+01 -4.656949520111083984e+00 -2.164384665416518860e-14 -1.465287851991348145e-13 -5.045178955599000092e-14 2.275518098601714279e-14
3.683000000000000000e+03 1.484914970397949219e+01 -4.794674873352050781e+00 1.058553472741557977e-13 1.826194225137620086e-13 8.654243364688077311e-14 5.043065100175832260e-14
3.684000000000000000e+03 4.056325149536132812e+01 -5.330133438110351562e+00 3.452677393663873551e-14 3.767266446713657402e-14 2.165983185994577176e-14 1.409771144223956330e-14
3.685000000000000000e+03 5.415164184570312500e+01 -8.682250380516052246e-01 -1.111752427314718905e-13 -1.895585197055765780e-15 -3.392125041143737030e-14 -9.297205068531724792e-14
3.686000000000000000e+03 6.875029754638671875e+01 -2.395413970947265625e+01 2.573304728483404025e-14 -2.062885588261301195e-13 -5.416665244594928708e-14 -1.325298242460179465e-13
3.687000000000000000e+03 6.762486267089843750e+01 -2.396302223205566406e+01 3.134238406462229454e-14 -1.238204010893875773e-13 -2.774340375217686921e-14 -9.245829470962141361e-14
3.688000000000000000e+03 5.124951171875000000e+01 -1.449689865112304688e+00 1.010484048053015421e-14 -4.142030414402281258e-14 -9.394638929641208058e-15 1.331015376040967091e-13
3.689000000000000000e+03 6.224975967407226562e+01 3.418179273605346680e+00 -5.271693522793281794e-14 2.825026667962706644e-16 -1.573033017862254801e-14 -3.546008777748272701e-15
3.690000000000000000e+03 6.286776351928710938e+01 3.942662954330444336e+00 5.363427868607280324e-14 1.373634956865557588e-13 5.729933265060174752e-14 -1.586615089527523836e-13
3.691000000000000000e+03 1.977507019042968750e+01 -4.757684707641601562e+00 -1.065481998962190813e-13 -2.278803908810703160e-14 -3.880087169529783386e-14 -1.533441850874641549e-14
3.692000000000000000e+03 2.235519027709960938e+01 -4.897729873657226562e+00 -1.609493923771312951e-13 1.597764347043006961e-13 -3.518904941045996769e-16 -9.350637939723599468e-14
3.693000000000000000e+03 7.816096496582031250e+01 -2.662687683105468750e+01 3.836468022064797034e-14 -4.410674841852368910e-13 -1.208108455939480019e-13 1.040832476223484473e-14
3.694000000000000000e+03 7.760182952880859375e+01 1.169088649749755859e+01 -9.381511274211482010e-14 -4.062140706272143742e-13 -1.500087489121615381e-13 1.541271992845649752e-13
3.695000000000000000e+03 7.758168029785156250e+01 6.163666725158691406e+00 2.281864204967815057e-13 -1.767115100081984025e-13 1.544247280776175207e-14 -9.965985522453809503e-15
3.696000000000000000e+03 7.756356048583984375e+01 -8.963182449340820312e+00 1.775055390217453177e-13 7.607380437396615847e-14 7.607380437396615847e-14 -1.149420050241753422e-13
3.697000000000000000e+03 7.755748748779296875e+01 -2.086083441972732544e-01 -7.979669984677084660e-13 -2.962349061799013361e-13 -3.282605849468100967e-13 -2.803375207752895060e-13
3.698000000000000000e+03 7.688122558593750000e+01 -9.620546340942382812e+00 9.321404461021601251e-14 -1.201794469062739124e-13 -8.089619502971243797e-15 -1.384409080429360728e-13
3.699000000000000000e+03 7.825639343261718750e+01 -8.310938835144042969e+00 2.245539501956675399e-13 9.623740335456404393e-14 9.623740335456404393e-14 -8.053604170273759300e-14
3.700000000000000000e+03 7.756256866455078125e+01 -6.575354576110839844e+00 -1.414603026730909541e-13 -1.487489635859737952e-14 -4.690055987891308953e-14 -1.203252449934189006e-13
3.701000000000000000e+03 7.756768035888671875e+01 4.579104423522949219e+00 9.750404964762454663e-14 -1.869672900658633785e-13 -2.683897415835072298e-14 1.128816482019560918e-13
3.702000000000000000e+03 7.756357574462890625e+01 -1.135408973693847656e+01 -5.276007969813416298e-14 6.889043643269060491e-14 4.839106003927395872e-15 -1.869747439557992164e-13
3.703000000000000000e+03 7.825072479248046875e+01 -1.309672832489013672e+01 1.520601000800855807e-13 1.941766788592785842e-14 5.144333310030946294e-14 -8.854846008179723810e-15
3.704000000000000000e+03 7.692971038818359375e+01 -1.766191291809082031e+01 4.582166352080918603e-14 6.538880222874132730e-14 3.336314040249151180e-14 -1.176305689139234278e-13
3.705000000000000000e+03 7.756870269775390625e+01 -1.616140174865722656e+01 -1.649400559709801595e-13 -2.765678582417746556e-13 -1.324523715533210133e-13 -1.083392883326379785e-13
3.706000000000000000e+03 7.825109863281250000e+01 -1.389426231384277344e+01 -8.188355592533835825e-14 -3.509295108737424396e-14 -3.509295108737424396e-14 -9.954840771153605772e-14
3.707000000000000000e+03 7.755061340332031250e+01 -1.456881618499755859e+01 -1.092639501554422410e-13 -4.682740672545641913e-14 -4.682740672545641913e-14 -1.444934260132549331e-13
3.708000000000000000e+03 7.825403594970703125e+01 -3.539155721664428711e+00 4.968455117812520250e-13 -1.530738020063052152e-13 1.031315197087476210e-13 2.003696687735700976e-13
3.709000000000000000e+03 7.687154388427734375e+01 -8.025666236877441406e+00 2.065499193123349064e-13 1.989497095170565666e-14 6.793346538514627442e-14 -7.101983660450644775e-14
3.710000000000000000e+03 7.756013488769531250e+01 -3.400829315185546875e+00 -3.695640798592747522e-13 -2.956374565727531989e-13 -1.995604609296083853e-13 -3.006114237744106354e-13
3.711000000000000000e+03 7.825504302978515625e+01 -4.335075855255126953e+00 -3.889294485429073411e-13 -7.518214973105050158e-14 -1.392334733835501326e-13 4.860872717792757980e-14
3.712000000000000000e+03 7.756237792968750000e+01 -4.195333003997802734e+00 4.231474654177447281e-13 -4.740582858447743575e-14 1.127224940992987978e-13 5.154337446764377384e-14
3.713000000000000000e+03 7.754717254638671875e+01 -1.376756858825683594e+01 6.976742046495981731e-14 5.277579724150341378e-14 3.676296463431261152e-14 -2.852115448654345131e-14
3.714000000000000000e+03 7.756505584716796875e+01 -1.055610179901123047e+01 1.571714628020512428e-13 1.131101438098074119e-13 8.108447859542580738e-14 -7.514475153236332972e-14
3.715000000000000000e+03 7.755110931396484375e+01 -1.296260738372802734e+01 -1.362933474847310977e-13 -5.841143270023801959e-14 -5.841143270023801959e-14 -1.329426206706646463e-13
3.716000000000000000e+03 7.756463623046875000e+01 3.781943798065185547e+00 -2.287110930331015535e-13 -7.842832828487689145e-13 -3.038983181855720028e-13 4.358519567395496841e-13
3.717000000000000000e+03 7.825598907470703125e+01 2.037649631500244141e+00 -3.927814020213138413e-13 -2.140858291425212778e-13 -1.820601639281396733e-13 3.817018316004672229e-13
3.718000000000000000e+03 7.755810546875000000e+01 1.385534882545471191e+00 -6.345384829554989725e-13 -8.894127161108641988e-14 -2.170439256923492599e-13 4.774786794246865806e-13
3.719000000000000000e+03 7.755809783935546875e+01 -1.215654182434082031e+01 1.316669754995725139e-13 -8.082414132502130366e-14 1.525285262405761538e-14 -9.088954903372498118e-14
3.720000000000000000e+03 7.685929107666015625e+01 2.336134910583496094e+00 -3.678518535783770194e-13 -6.614888893802586822e-14 -1.302002261430526553e-13 2.616183907965669020e-13
3.721000000000000000e+03 7.756217956542968750e+01 2.983081579208374023e+00 -2.094914953315596406e-13 -1.812839700403301446e-13 -1.172326396115669356e-13 2.297966775633569769e-13
3.722000000000000000e+03 7.746909332275390625e+01 -2.171882057189941406e+01 -5.906411563181071522e-14 -5.285736041568678267e-13 -1.762913274562516452e-13 2.034150300457560068e-14
3.723000000000000000e+03 7.757796478271484375e+01 -1.854422760009765625e+01 2.534741520680578591e-14 -1.263896620825807893e-13 -3.031267660383134277e-14 -1.092808772618601709e-13
3.724000000000000000e+03 7.757144927978515625e+01 -1.933715820312500000e+01 1.819265199167548371e-15 -3.194769481514730947e-13 -9.529730520332901911e-14 -1.054453087887853580e-13
3.725000000000000000e+03 7.822708892822265625e+01 -2.106286621093750000e+01 7.445415371200563709e-15 -3.399412370520826787e-13 -9.974874116795706680e-14 6.350657304719786733e-14
3.726000000000000000e+03 7.755239105224609375e+01 -2.012952041625976562e+01 -4.500028889559311296e-14 -2.937915210589336912e-13 -1.016375433251712201e-13 2.127587182495539742e-14
3.727000000000000000e+03 7.510636138916015625e+01 -1.771862983703613281e+01 -1.089412780363833988e-13 -4.668911673835589304e-14 -4.668911673835589304e-14 5.962711471492812554e-14
3.728000000000000000e+03 7.761405944824218750e+01 9.306877136230468750e+00 1.602877580013720160e-13 -2.973128470848407368e-13 -4.110752536978790062e-14 2.626871600287534331e-14
3.729000000000000000e+03 7.759968566894531250e+01 7.732887268066406250e+00 1.930280615252202847e-13 -5.452653641644690519e-14 4.155045583856611935e-14 -3.938916318222025759e-14
3.730000000000000000e+03 7.762007141113281250e+01 1.010094833374023438e+01 -9.746943649326794690e-14 -2.705273613630432283e-13 -1.103990352911352057e-13 9.364294821338770003e-14
3.731000000000000000e+03 7.759088134765625000e+01 6.948877811431884766e+00 -1.164049867781458136e-13 -2.786425875190429169e-13 -1.185142749996620504e-13 2.686260231182097113e-13
3.732000000000000000e+03 7.739987182617187500e+01 -2.728287124633789062e+01 6.772100241692058376e-14 -5.199880782034982385e-13 -1.356801227359732964e-13 1.011373517350927162e-14
3.733000000000000000e+03 7.545767974853515625e+01 -2.799802017211914062e+01 1.051230906793862441e-13 -5.039586369742776739e-13 -1.196506679542255758e-13 -7.680978113744005298e-14
3.734000000000000000e+03 7.738475799560546875e+01 -2.807282066345214844e+01 -1.892333606977845972e-14 -4.198685398925511292e-13 -1.316375665156438446e-13 -1.791800215145133990e-13
3.735000000000000000e+03 7.643295288085937500e+01 -3.738442993164062500e+01 -5.805022397021089575e-14 -5.281391101362442608e-13 -1.758567927780466111e-13 -3.136090359298106256e-14
3.736000000000000000e+03 7.747058105468750000e+01 -2.331354522705078125e+01 3.222070979707995775e-14 -5.352025246596614494e-13 -1.508945420870821952e-13 6.985719240484161707e-14
3.737000000000000000e+03 7.818830871582031250e+01 -2.503831481933593750e+01 -6.088014749446035712e-14 -5.522274261135495799e-13 -1.839322693718975499e-13 -8.801015200909229064e-14
3.738000000000000000e+03 7.762667846679687500e+01 1.248585510253906250e+01 -5.216218963385345353e-14 -3.426118709484032854e-13 -1.184322144477320538e-13 -8.658782783659002558e-14
3.739000000000000000e+03 7.525449371337890625e+01 1.582541751861572266e+01 -5.866235774053263352e-14 -1.166429149448977576e-13 -5.259158112800275953e-14 -2.622938318093664262e-14
3.740000000000000000e+03 7.834299468994140625e+01 1.314922904968261719e+01 -5.730828409478833096e-14 -2.533154350344013483e-13 -9.318711573875690379e-14 9.109020775079773591e-14
3.741000000000000000e+03 7.712264251708984375e+01 -3.477627182006835938e+01 -5.308240622775052542e-14 -4.802591158960256568e-13 -1.600024501996824555e-13 -6.247772617188132593e-14
3.742000000000000000e+03 7.725788116455078125e+01 -3.128593444824218750e+01 -6.181857190859160744e-14 -5.755050841264874872e-13 -1.911970880013810770e-13 -9.189285617161591091e-14
3.743000000000000000e+03 7.692382812500000000e+01 -3.395717620849609375e+01 -9.092904787412134371e-14 -5.879809985252781868e-13 -2.036730024001717765e-13 -5.380572831899244068e-14
3.744000000000000000e+03 7.805173492431640625e+01 -3.061271858215332031e+01 2.533650245782983514e-15 -4.564236358653439574e-13 -1.361669972740550683e-13 -9.758005899617935852e-14
3.745000000000000000e+03 7.735485076904296875e+01 -2.965616607666015625e+01 5.699555275439846524e-14 -3.873318766417499504e-13 -9.910089648857908773e-14 -4.045882349306730019e-14
3.746000000000000000e+03 7.800933074951171875e+01 -3.143308258056640625e+01 -3.254189452628342138e-14 -4.943314637836926373e-13 -1.580620129140036800e-13 -4.552946764719255357e-14
3.747000000000000000e+03 3.839790725708007812e+01 -5.502768993377685547e+00 1.073888631557100293e-13 -1.827309462597292988e-13 -2.260262527001895977e-14 -4.043898598144260448e-14
3.748000000000000000e+03 3.946847915649414062e+01 -2.115623855590820312e+01 -7.694620087579304157e-14 -1.130411004602108194e-13 -5.699618972317480048e-14 2.573864278448360216e-14
3.749000000000000000e+03 1.451502132415771484e+01 -2.762203788757324219e+01 -9.346580990719430271e-14 -5.743563126324327875e-15 -2.976280991952816313e-14 6.504120023597889655e-14
3.750000000000000000e+03 5.668157958984375000e+01 -7.197663307189941406e+00 7.136719465178006927e-14 -4.089991759441587160e-14 9.140183456022438202e-15 -9.959756950379469731e-14
3.751000000000000000e+03 4.445622253417968750e+01 -1.784002494812011719e+01 -2.598513106620049806e-14 -1.941402767713373834e-13 -6.603762269007454333e-14 -3.548153592225662678e-14
3.752000000000000000e+03 1.561772060394287109e+01 -4.937981605529785156e+00 -1.508872643799993862e-13 -6.466597141660881953e-14 -6.466597141660881953e-14 3.074024528307815751e-14
3.753000000000000000e+03 3.732733917236328125e+01 -2.225353050231933594e+01 1.976229679304542658e-14 -2.660361351786849626e-13 -7.388215066865891356e-14 -7.929235508474536537e-15
3.754000000000000000e+03 3.823964309692382812e+01 -2.194705390930175781e+01 3.311273374636061750e-14 1.419117136357370829e-14 1.419117136357370829e-14 1.482996126074553889e-13
3.755000000000000000e+03 1.502663993835449219e+01 -2.820581245422363281e+01 -1.004114665221524094e-13 -3.445518271193680204e-14 -4.045999578666630014e-14 2.085820936543331117e-13
3.756000000000000000e+03 3.355875492095947266e+00 -3.729258728027343750e+01 1.116004702116524944e-14 -1.782209227202055657e-13 -5.011826186267914762e-14 3.604688298070382602e-14
3.757000000000000000e+03 2.701221466064453125e+00 -2.675449562072753906e+01 1.377355870958892059e-14 1.431558051354780980e-13 4.707880610420149547e-14 3.033970373111233299e-14
3.758000000000000000e+03 3.130182027816772461e+00 -3.614831161499023438e+01 4.186281787259098219e-14 1.794120814370067651e-14 1.794120814370067651e-14 1.521721117170304893e-14
3.759000000000000000e+03 2.514713525772094727e+00 -8.249582290649414062e+00 1.348379974976153875e-14 -3.997217595981539251e-14 -7.946513286532629755e-15 5.791374324548570485e-14
3.760000000000000000e+03 1.791921138763427734e+00 -1.069428253173828125e+01 -5.106092144154666945e-14 -2.735134709865028046e-13 -9.737231908366755784e-14 -7.822954388230982103e-14
3.761000000000000000e+03 2.483873844146728516e+00 -1.308424472808837891e+01 1.339896177679749528e-14 -2.687632831132463762e-13 -7.660929860322032714e-14 -5.691916393508328342e-14
3.762000000000000000e+03 1.795874118804931641e+00 -1.789704895019531250e+01 9.080073254700768426e-14 -5.258729852942144178e-14 1.146403020527587274e-14 8.536673836356464817e-14
3.763000000000000000e+03 2.500388860702514648e+00 -1.625954627990722656e+01 -6.704818042999396988e-14 -1.431123015233071172e-13 -6.304814526361668392e-14 1.076808675998805823e-14
3.764000000000000000e+03 1.782192707061767578e+00 -1.309340095520019531e+01 9.193906351295452750e-14 -1.893522908998426790e-13 -2.922396821606644546e-14 2.513383584915561408e-14
3.765000000000000000e+03 2.493805170059204102e+00 -1.466861248016357422e+01 2.372814232153973996e-14 -8.133269313028920755e-14 -1.728136608965778753e-14 -6.883266878568786162e-14
3.766000000000000000e+03 3.221429586410522461e+00 -2.029368019104003906e+01 -9.740896511709756789e-14 -1.561240692933216212e-13 -7.605991303363118794e-14 6.865546949312226199e-14
3.767000000000000000e+03 2.504547595977783203e+00 -1.706105232238769531e+01 9.713204632971761399e-14 -4.987387591673733689e-14 1.417745112389408313e-14 1.032228501892523687e-13
3.768000000000000000e+03 2.497510194778442383e+00 -1.546321010589599609e+01 9.454736256062079569e-14 -1.424835049208469928e-13 -1.438084236925468024e-14 8.837955006541170586e-16
3.769000000000000000e+03 1.793714284896850586e+00 -1.709337615966796875e+01 -6.985535603741196975e-14 6.156388604201118442e-14 -2.487441845653182854e-15 9.515101244894283439e-14
3.770000000000000000e+03 2.488078594207763672e+00 -1.387540626525878906e+01 1.057714029209511075e-13 -1.605486712541806527e-13 -1.643317778946343233e-14 -1.121157796457735931e-14
3.771000000000000000e+03 2.509762525558471680e+00 -2.029491996765136719e+01 -3.403516289619503603e-16 -4.589681228388958756e-14 -1.387114961060682480e-14 -9.885394233874120196e-14
3.772000000000000000e+03 2.510455846786499023e+00 -2.189650917053222656e+01 -4.473253839283423960e-14 9.520628643094886101e-14 1.514212339499484972e-14 -3.819674408039354374e-14
3.773000000000000000e+03 4.149204730987548828e+00 -4.418822765350341797e+00 -3.158187077199718640e-14 -8.216151148104575141e-14 -3.412301365947334464e-14 -1.135533216122062289e-14
3.774000000000000000e+03 1.851529359817504883e+00 -2.434387779235839844e+01 9.732347577579708586e-15 4.171006225681724716e-15 4.171006225681724716e-15 -7.287495395547419208e-14
3.775000000000000000e+03 3.421301126480102539e+00 -4.325165271759033203e+00 2.720138228703115890e-14 -1.484705912900563529e-13 -3.638075965158894809e-14 8.293658728536490443e-14
3.776000000000000000e+03 2.738694906234741211e+00 -3.471016407012939453e+00 1.142855900654370441e-14 -1.094794150084330009e-13 -2.941525874874256763e-14 3.217999122923954902e-14
3.777000000000000000e+03 2.560439586639404297e+00 -2.350969123840332031e+01 1.046169546120839094e-14 -1.098937903024933826e-13 -2.982962726653937136e-14 -5.150558324566907598e-14
3.778000000000000000e+03 2.527046680450439453e+00 -2.270016098022460938e+01 -3.662683288716168939e-14 -1.569721457851669388e-14 -1.569721457851669388e-14 6.548184710393131769e-14
3.779000000000000000e+03 1.831809878349304199e+00 -2.353579711914062500e+01 -3.965484692458783045e-14 -6.274588325045488135e-14 -3.072021803607327683e-14 5.141594174886115337e-15
3.780000000000000000e+03 2.674082756042480469e+00 -4.273981571197509766e+00 -5.553881871544694149e-14 6.769954876643252684e-14 3.648218337669317801e-15 -3.374739859307931966e-14
3.781000000000000000e+03 1.916732430458068848e+00 -4.257315158843994141e+00 2.623559023837412213e-14 1.027457199181958103e-13 3.869439287756439028e-14 9.073496890898286038e-14
3.782000000000000000e+03 1.906292676925659180e+00 -2.676410675048828125e+01 5.111182134541307487e-14 -2.384588328933987672e-14 8.179781078008780543e-15 5.780667150468918325e-14
3.783000000000000000e+03 2.726610660552978516e+00 -2.832987403869628906e+01 1.814626126770378656e-14 1.450298214855649803e-13 4.895282245428837775e-14 2.705510986143570828e-14
3.784000000000000000e+03 2.723856449127197266e+00 -2.754535865783691406e+01 5.323524824088488039e-14 1.143170031293189171e-13 5.026567608868749704e-14 -2.636350068373899402e-14
3.785000000000000000e+03 1.970825672149658203e+00 -3.075899505615234375e+01 -1.312667016100180217e-13 -5.625716025295900147e-14 -5.625716025295900147e-14 -5.784872923161920102e-15
3.786000000000000000e+03 2.726817607879638672e+00 -2.992711639404296875e+01 -2.253015651918367085e-14 1.504725434964965247e-13 3.838271524616090891e-14 6.535495733326788723e-15
3.787000000000000000e+03 1.985899567604064941e+00 -3.157564353942871094e+01 1.243036706552458348e-13 3.277786841861946021e-13 1.356247064524321311e-13 -1.558690513898258745e-13
3.788000000000000000e+03 2.723084688186645508e+00 -2.912348556518554688e+01 -2.801848108992949227e-14 -1.035098181755185476e-13 -3.945849113488712756e-14 -7.555941820575756696e-14
3.789000000000000000e+03 2.002372503280639648e+00 -3.324579620361328125e+01 7.735880756505955635e-14 -5.834812206962844416e-14 5.703204547486502227e-15 2.283506296920680134e-14
3.790000000000000000e+03 2.818214416503906250e+00 -3.417929458618164062e+01 6.105909506302908962e-14 2.616818335643162491e-14 2.616818335643162491e-14 6.830626152589183708e-14
3.791000000000000000e+03 3.110399484634399414e+00 -3.541829681396484375e+01 2.682848619639782023e-14 -1.715058759073351258e-13 -4.340321504980870770e-14 2.917993944346816693e-14
3.792000000000000000e+03 2.803745031356811523e+00 -3.326502609252929688e+01 2.151154010780406689e-14 1.235966082084594131e-13 4.353244178437361278e-14 2.360896309179516539e-14
3.793000000000000000e+03 7.033547210693359375e+01 -1.913348388671875000e+01 -1.088125832385093694e-13 -3.668905999322513711e-13 -1.427109569841072956e-13 8.111428737890558072e-14
3.794000000000000000e+03 7.019136810302734375e+01 -1.834314346313476562e+01 -9.182997244561175165e-14 -4.053632971824649989e-13 -1.491579754674121627e-13 1.773855720513597967e-14
3.795000000000000000e+03 3.847338867187500000e+01 -2.133233261108398438e+01 -6.010507677233888763e-15 -4.832688204692639489e-14 -1.630121683254479037e-14 1.402801350558133264e-13
3.796000000000000000e+03 2.491865873336791992e+00 -3.858781814575195312e+01 -1.525440947061466879e-14 1.633786964223837845e-14 3.250382261876582713e-16 8.398707754654968771e-14
3.797000000000000000e+03 4.317325592041015625e+00 -3.809731292724609375e+01 -6.480659243838018946e-14 -5.922803344776336743e-14 -3.721038776584306706e-14 -1.404142186772977877e-14
3.798000000000000000e+03 1.968671607971191406e+01 -5.498201847076416016e+00 -8.872617945259245187e-14 2.364801876455352447e-13 4.432620313550919566e-14 -4.606783501220380883e-14
3.799000000000000000e+03 5.872567749023437500e+01 1.338106513023376465e+00 -1.573456805386425073e-13 1.155699342648974781e-13 -1.253272574559599270e-14 -5.015504342138071836e-14
3.800000000000000000e+03 6.103482055664062500e+01 2.362400770187377930e+00 -1.418070576329061305e-13 -1.522763442033878145e-13 -8.822502055088818351e-14 1.982646843264588600e-15
3.801000000000000000e+03 4.938221740722656250e+01 -7.440764427185058594e+00 -4.465886007895027154e-14 1.638642834703857298e-13 3.576162600099110078e-14 3.118623057618064888e-15
3.802000000000000000e+03 4.863053131103515625e+01 -7.698291778564453125e+00 -8.605806632632287401e-14 -1.741348764402322891e-13 -7.805788079708747551e-14 -9.873213900092603357e-14
3.803000000000000000e+03 4.755126953125000000e+01 -2.979617691040039062e+01 -1.079342507297881282e-13 -2.635745354612195612e-13 -1.114526358573023068e-13 1.045324173358161413e-13
3.804000000000000000e+03 2.506847000122070312e+01 -1.244368934631347656e+01 4.109516207688977685e-14 4.048768698777793773e-14 2.447485438058713547e-14 -6.567314102473922888e-14
3.805000000000000000e+03 4.817087936401367188e+01 -2.903075218200683594e+01 -1.787377347907750935e-13 -3.282320975347280401e-13 -1.520909456318927933e-13 1.042706299450059382e-13
3.806000000000000000e+03 2.836363601684570312e+01 -1.287545394897460938e+01 5.069373604704371927e-14 -1.149586975024668827e-15 1.486324457337494936e-14 -3.038852332206028184e-14
3.807000000000000000e+03 2.691725540161132812e+01 -5.233155727386474609e+00 -1.273492081102847728e-13 -1.575178653961603614e-13 -8.546012205193354028e-14 1.681495112419717497e-13
3.808000000000000000e+03 1.553606605529785156e+01 -1.056997871398925781e+01 5.603432536629418190e-15 -1.577268453649069424e-13 -4.563702389083490463e-14 1.063833401796290823e-13
3.809000000000000000e+03 4.635887908935546875e+01 -2.114933490753173828e+00 -1.733638189602149104e-13 -7.429877568222720274e-14 -7.429877568222720274e-14 1.300144413245336861e-14
3.810000000000000000e+03 2.551316022872924805e+00 -5.865820884704589844e+00 9.434135059532139378e-14 -5.106988982639219798e-14 1.298143890830511654e-14 5.964128388206979547e-14
3.811000000000000000e+03 4.299886703491210938e+00 -3.590262413024902344e+00 -1.245089558662764925e-14 -2.569663232199204117e-13 -8.082516454082158686e-14 -7.041843982382410549e-15
3.812000000000000000e+03 4.687770462036132812e+01 -2.763710212707519531e+01 8.573808099577272246e-15 -2.593934724133550862e-13 -7.524590081879264925e-14 4.251803512674186269e-14
3.813000000000000000e+03 4.748904800415039062e+01 -2.837119865417480469e+01 -1.678762787419782465e-13 -2.620993428802814718e-13 -1.289926959734469247e-13 1.535248707676406532e-13
3.814000000000000000e+03 1.196700572967529297e+01 -2.409283256530761719e+01 -1.332900803618919383e-13 -1.943771613934983100e-13 -9.830017252661707450e-14 6.556710605227014654e-14
3.815000000000000000e+03 1.342288589477539062e+01 -2.648929214477539062e+01 -1.286130896878054375e-13 -2.266859524526973479e-13 -1.065897112868981200e-13 6.742138314655421460e-14
3.816000000000000000e+03 5.110074234008789062e+01 -7.464084148406982422e+00 -6.943699630036770376e-14 6.174318597628597471e-14 -2.308144452477234321e-15 2.998698565934848626e-14
3.817000000000000000e+03 4.969680786132812500e+01 -1.020782113075256348e+00 -1.619368261175906792e-14 -1.441929935912591998e-13 -4.811600472437796427e-14 -6.884382929180088428e-14
3.818000000000000000e+03 6.594180297851562500e+01 -2.577355194091796875e+01 -5.906383780500401581e-14 2.043787502518240595e-14 -1.158779018919919857e-14 -1.045493308897069151e-13
3.819000000000000000e+03 6.813558959960937500e+01 -2.567435073852539062e+01 5.791856794515326534e-14 -1.581815462035202069e-13 -3.007889551038915588e-14 -4.539531795713820650e-14
3.820000000000000000e+03 6.845124816894531250e+01 1.144226455688476562e+01 9.253689259086303465e-14 -5.184323090723537419e-14 1.220809782746194033e-14 -3.608380345280874646e-14
3.821000000000000000e+03 7.036410522460937500e+01 1.274054718017578125e+01 -8.812530105607382924e-14 -3.776798616688878396e-14 -3.776798616688878396e-14 3.068020081151319467e-14
3.822000000000000000e+03 6.809022521972656250e+01 8.347358703613281250e+00 -4.055818638701086040e-15 -1.389910593303095299e-13 -4.291406029903292729e-14 -1.817799959223740519e-14
3.823000000000000000e+03 6.708974456787109375e+01 9.255019187927246094e+00 -6.786024785718561270e-14 -2.908296433540291659e-14 -2.908296433540291659e-14 5.644616125557869526e-15
3.824000000000000000e+03 3.147162246704101562e+01 -1.364698028564453125e+01 -1.169464780006665428e-13 8.713293080759784703e-14 -8.944064835546966519e-15 2.118424251122685842e-13
3.825000000000000000e+03 6.541551971435546875e+01 -2.640289306640625000e+01 5.509315063618319686e-14 -2.213959809753418551e-14 9.886065422781524503e-15 -5.499427817431609689e-14
3.826000000000000000e+03 6.652214813232421875e+01 -2.631716728210449219e+01 6.357170649270993401e-14 -1.100078280422481236e-13 -1.393083663426804633e-14 -4.413317449122530767e-14
3.827000000000000000e+03 4.622011566162109375e+01 -2.878855228424072266e+00 -1.163201208530945108e-14 6.364127839086561322e-14 1.560277887522731194e-14 -3.162587243954115279e-14
3.828000000000000000e+03 2.587796211242675781e+01 -1.258026313781738281e+01 -3.372107958534223404e-14 3.129905663530434257e-14 -7.266062497366570019e-16 5.099285387390531388e-14
3.829000000000000000e+03 5.717743682861328125e+01 -7.598377227783203125e+00 -8.675724797856804171e-14 1.744164572969539306e-13 2.629776245670258777e-14 -3.105935308749495360e-14
3.830000000000000000e+03 5.365137100219726562e+01 -1.688950419425964355e+00 3.625145160186110660e-15 -8.994826503636380033e-14 -2.589693630166648580e-14 -1.735900919536126352e-13
3.831000000000000000e+03 8.349491119384765625e+00 -4.174529552459716797e+00 -5.665362249425084928e-14 1.129727211844448742e-13 1.689572892943184967e-14 -1.539375655483336824e-14
3.832000000000000000e+03 1.938921356201171875e+01 -3.180396842956542969e+01 -9.752187799709835514e-14 -4.179508911812852834e-14 -4.179508911812852834e-14 9.683012312973471314e-14
3.833000000000000000e+03 6.973956298828125000e+01 -2.027829360961914062e+01 -4.388728082663738428e-14 -3.390654727472575125e-13 -1.148858297991134370e-13 -1.430198868406298840e-14
3.834000000000000000e+03 6.758481597900390625e+01 -2.512002944946289062e+01 4.344322210997342282e-14 -3.052123983236787463e-13 -7.853075557461702827e-14 -8.551005633824007579e-14
3.835000000000000000e+03 6.412653350830078125e+01 5.014236927032470703e+00 -3.230405445095799188e-14 -1.282219637540812918e-13 -4.815780749439085850e-14 -1.901824102932062055e-13
3.836000000000000000e+03 3.218601608276367188e+01 -6.404330730438232422e+00 1.194714561113772999e-14 5.120205322418523372e-15 5.120205322418523372e-15 2.023717565052818301e-13
3.837000000000000000e+03 3.133292388916015625e+01 -7.162798881530761719e+00 -1.074228799988717620e-13 -9.178932841667070130e-14 -5.976366320228909679e-14 1.820008580693047162e-13
3.838000000000000000e+03 5.306100463867187500e+01 -6.449804306030273438e+00 -2.356628618378070472e-13 3.625447381541690994e-14 -5.982251505146432558e-14 -1.705875160096584353e-13
3.839000000000000000e+03 5.125373458862304688e+01 -3.136276721954345703e+00 -1.063040070737892445e-14 -1.418087381462734831e-13 -4.573173911499688049e-14 4.755209762194109735e-14
3.840000000000000000e+03 1.943965339660644531e+01 -1.043108367919921875e+01 4.445304801342642165e-14 -1.182015368830086066e-13 -2.212454801612737110e-14 -1.504491789396794621e-13
3.841000000000000000e+03 1.679099273681640625e+01 -3.025524902343750000e+01 -6.040418951700279870e-14 -1.545620592234217550e-13 -6.448986987874286148e-14 -2.705882833607415466e-14
3.842000000000000000e+03 4.382141494750976562e+01 -1.671031188964843750e+01 -6.127564665929117679e-15 -2.085053727981026062e-13 -6.438987933338538583e-14 3.001069919373981765e-14
3.843000000000000000e+03 1.720707511901855469e+01 -5.197351455688476562e+00 -3.586198246458179029e-14 7.613248004028835836e-14 1.208114876449220207e-14 1.121675333588508308e-14
3.844000000000000000e+03 1.802816200256347656e+01 -5.318165779113769531e+00 6.978107463606955663e-14 2.129099712288792801e-13 8.480731037135286199e-14 -9.400206307796921124e-14
3.845000000000000000e+03 2.328428459167480469e+01 -4.834498405456542969e+00 1.327078875121897455e-14 -1.718799425975015699e-14 -1.175161334921999510e-15 3.128826204742453376e-14
3.846000000000000000e+03 2.575668907165527344e+01 -5.512234687805175781e+00 1.967046825716769337e-14 -1.745735988493285484e-13 -4.647093799180213036e-14 -2.115624027961698905e-14
3.847000000000000000e+03 5.640415954589843750e+01 -3.342143630981445312e+01 -1.001860676667562511e-13 6.000275011011288462e-14 -1.205499408114688378e-14 1.216836961054346133e-13
3.848000000000000000e+03 5.758911514282226562e+01 -3.268056869506835938e+01 -8.291455765247271459e-14 1.074369068644782932e-13 7.356703069535779071e-15 -9.295927192275849592e-16
3.849000000000000000e+03 3.757618713378906250e+01 -2.937936973571777344e+01 2.627872454418010012e-14 -1.031150601645165754e-13 -2.305090051669435314e-14 -7.547735765382757034e-14
3.850000000000000000e+03 3.491140365600585938e+01 -3.020324516296386719e+01 -5.597210317302182825e-14 -1.612408936837311790e-13 -6.516389804058636548e-14 8.088466691130030695e-15
3.851000000000000000e+03 2.427213668823242188e+01 -3.234850311279296875e+01 -4.239580488432127814e-14 -8.679605564007944474e-14 -3.875755781850703796e-14 5.431137988344894585e-14
3.852000000000000000e+03 2.740041160583496094e+01 -3.372537994384765625e+01 -9.831945099649658237e-14 -1.926143435287269723e-14 -3.527426696006349949e-14 2.446946047477902009e-14
3.853000000000000000e+03 1.351981449127197266e+01 -2.768845748901367188e+01 -5.759397814350183942e-14 -7.043408282829399791e-14 -3.840841761391239340e-14 8.963872531611918881e-14
3.854000000000000000e+03 6.558627319335937500e+01 -2.832645225524902344e+01 8.147677152879303272e-16 -6.827723878898711574e-14 -2.023874096741470896e-14 -6.415274398947207191e-14
3.855000000000000000e+03 6.559174346923828125e+01 -2.757225990295410156e+01 7.238181814984631646e-14 -1.291075400885674518e-13 -1.701771692042951950e-14 -1.727185899185780527e-14
3.856000000000000000e+03 2.213152885437011719e+01 -5.717608928680419922e+00 -7.977155719839090775e-14 3.443861135935671891e-14 -1.359988392111684610e-14 -2.171271924191961467e-13
3.857000000000000000e+03 4.658346939086914062e+01 -1.203796195983886719e+01 -4.610331891643018598e-14 7.174333149046960290e-14 7.692004449838182878e-15 -6.089349673370908489e-14
3.858000000000000000e+03 4.566537475585937500e+01 -1.256933212280273438e+01 -4.469692573959987980e-14 -1.106577191532266691e-13 -4.660639550072703807e-14 -1.232395397754784683e-13
3.859000000000000000e+03 1.885811614990234375e+01 -5.432523250579833984e+00 -1.705311442729527671e-14 -7.308478095716802736e-15 -7.308478095716802736e-15 -1.020324876834215883e-14
3.860000000000000000e+03 7.005950927734375000e+01 -1.754002761840820312e+01 -7.851436379302176305e-14 -5.369094383499140033e-13 -1.846271480967706657e-13 -2.785571693285100042e-14
3.861000000000000000e+03 9.877744674682617188e+00 -1.829752349853515625e+01 8.697470505305074373e-14 1.059012971174784490e-13 5.786279929590604221e-14 6.926956837988162974e-14
3.862000000000000000e+03 1.000588798522949219e+01 -2.000113487243652344e+01 6.692532677132420615e-14 -8.569508899150188319e-14 -5.630928920163187287e-15 1.763276346765027536e-13
3.863000000000000000e+03 4.528987121582031250e+01 -2.164241981506347656e+01 -1.315814590532177197e-13 -2.851467976669463944e-13 -1.250184715950383718e-13 1.043186668775106241e-13
3.864000000000000000e+03 4.499378204345703125e+01 -2.372803497314453125e+01 -5.405542685557943039e-14 -5.264270464856724008e-13 -1.741447426800019072e-13 6.014158219829965346e-14
3.865000000000000000e+03 3.318875885009765625e+01 -7.314316272735595703e+00 -4.387358599794617675e-14 -1.560558052140365026e-13 -5.997881634715526711e-14 1.204361182180826995e-13
3.866000000000000000e+03 3.259310531616210938e+01 -6.888625144958496094e+00 7.635029625674069620e-14 1.070668483342182564e-13 5.502514405491404359e-14 2.011520155087084816e-13
3.867000000000000000e+03 3.842852020263671875e+01 -1.971631050109863281e+01 -2.245717107825055681e-14 -3.184434053254969754e-13 -1.022701752928165120e-13 6.962272013251447067e-14
3.868000000000000000e+03 5.763270187377929688e+01 -2.675572633743286133e-01 -5.628868004299222849e-14 4.450270108479446873e-14 -3.535793772162622653e-15 -2.165837157514470535e-14
3.869000000000000000e+03 5.574553680419921875e+01 -3.744289875030517578e-01 -1.815532316498669196e-13 3.656884501159265999e-14 -4.349531463622956229e-14 -2.616299951479442859e-14
3.870000000000000000e+03 2.404821586608886719e+01 -3.349620056152343750e+01 -6.045013258406187195e-14 -1.174090935151389514e-13 -5.335776986263932042e-14 -4.723745537522222593e-14
3.871000000000000000e+03 1.787843513488769531e+01 -1.068258285522460938e+01 5.997386289847972396e-14 7.145403246953258014e-14 3.942836725515097562e-14 -1.347417322031599363e-13
3.872000000000000000e+03 1.694445800781250000e+01 -1.030172538757324219e+01 6.935374990231155112e-14 -1.990317090826143609e-13 -3.890338639883812732e-14 -2.154279901168953959e-14
3.873000000000000000e+03 6.698428344726562500e+01 6.972237110137939453e+00 -5.505546868145869480e-15 -4.811046851703471017e-14 -1.608480499671900016e-14 5.215106639719011006e-14
3.874000000000000000e+03 4.796102905273437500e+01 -8.724953651428222656e+00 -4.515905336309467000e-14 -8.798030256803104909e-14 -3.994180813459043133e-14 -7.060880878465361499e-14
3.875000000000000000e+03 4.510530090332031250e+01 -1.427104187011718750e+01 -2.695124668144338598e-14 -1.030524339365283815e-13 -3.900110350776517243e-14 2.334080262508982095e-14
3.876000000000000000e+03 7.031951904296875000e+01 1.536115264892578125e+01 2.207931476267809695e-14 2.267795733102914713e-13 7.465766693011063881e-14 1.875207617223900725e-13
3.877000000000000000e+03 6.072914886474609375e+01 -3.042829895019531250e+01 2.055475201937634333e-14 1.003110761772438297e-13 3.625974913661240973e-14 2.424416326333653227e-14
3.878000000000000000e+03 6.462916564941406250e+01 -2.993553733825683594e+01 3.972691248774022632e-15 -2.270521688415086392e-13 -6.692384276960061662e-14 -1.240876027147966298e-13
3.879000000000000000e+03 2.960963249206542969e+01 -3.305574798583984375e+01 -1.114407435147228564e-13 -7.063579186622134798e-14 -5.462295925903054572e-14 2.270181791034012186e-14
3.880000000000000000e+03 3.756762695312500000e+01 -2.498747825622558594e+01 2.905590332680403620e-14 -7.904937013129831325e-14 -1.499803800846920970e-14 5.406359564132275086e-14
3.881000000000000000e+03 3.625214767456054688e+01 -2.624092483520507812e+01 -8.946821927790279266e-15 -2.325890944687020179e-13 -7.246077517305757332e-14 1.117839121370393582e-14
3.882000000000000000e+03 1.009923839569091797e+01 -2.087596321105957031e+01 -1.995851671866138988e-13 -1.770383969632027821e-13 -1.129870733107031511e-13 1.171889056064343015e-13
3.883000000000000000e+03 6.591414642333984375e+01 6.800958156585693359e+00 4.107216343830592808e-14 -5.273118062803974077e-15 1.073971369735388093e-14 1.600810446927922875e-14
3.884000000000000000e+03 6.648772430419921875e+01 7.448390483856201172e+00 4.655804347196597359e-14 5.712609069596571998e-14 3.110524194444540258e-14 -1.882922528832764453e-13
3.885000000000000000e+03 3.701122283935546875e+01 -1.525561141967773438e+01 -1.545209544085573983e-13 -9.481761350463996374e-14 -7.480157443971735542e-14 -3.344716607085913840e-14
3.886000000000000000e+03 9.810811996459960938e+00 -1.747109985351562500e+01 7.428177403690991443e-14 -2.426706567897757294e-13 -5.051666211535431328e-14 2.879847984973808728e-14
3.887000000000000000e+03 9.931319236755371094e+00 -1.914074134826660156e+01 -1.915800654781526363e-14 -7.683699461196943914e-14 -2.879850017852882138e-14 2.310208502363103600e-14
3.888000000000000000e+03 5.133742141723632812e+01 -3.147299957275390625e+01 -1.586109309214059349e-13 -1.480402714477968562e-13 -9.199536071076083732e-14 1.163733009696549248e-13
3.889000000000000000e+03 4.438492965698242188e+01 -1.879360580444335938e+01 -8.918706024358888373e-14 -2.441022915484342137e-13 -9.998680485998057144e-14 -1.591523408287637276e-14
3.890000000000000000e+03 4.444568252563476562e+01 -2.078714370727539062e+01 -1.152282208451843593e-13 -2.552627976614568750e-13 -1.111473041967396547e-13 5.499592141823377023e-14
3.891000000000000000e+03 2.219463920593261719e+01 -3.320126724243164062e+01 -6.461695870214889670e-14 -5.056845648601301924e-14 -3.455562726695400599e-14 -9.682524252589263386e-15
3.892000000000000000e+03 1.555754184722900391e+01 -2.880873298645019531e+01 -1.181761529996452897e-13 1.619235446409777318e-14 -3.059513837481812881e-14 -4.353691411833511549e-14
3.893000000000000000e+03 5.683344268798828125e+01 -6.264055252075195312e+00 -1.084003560200032246e-13 1.479842317480065117e-13 1.187516390424711230e-14 -2.069556413178061383e-13
3.894000000000000000e+03 5.566841506958007812e+01 -7.237875938415527344e+00 1.673809880845325559e-13 -4.836152908260088479e-14 3.570584041108493256e-14 3.642064812714104760e-14
3.895000000000000000e+03 3.805693817138671875e+01 -2.261104202270507812e+01 2.144168021844632122e-14 -3.656165539593636549e-14 -4.535992722653602732e-15 6.345298635482277128e-14
3.896000000000000000e+03 4.600057601928710938e+01 -1.174754428863525391e+01 -8.576759501178685130e-14 8.993407892856318531e-15 -2.303225562745939148e-14 -6.204859895201156328e-14
3.897000000000000000e+03 3.588930892944335938e+01 -2.892225837707519531e+01 8.223033121394426881e-14 -7.913580137323614205e-14 9.283591216190274775e-16 -1.401693499225760420e-14
3.898000000000000000e+03 5.910485839843750000e+01 7.450975775718688965e-01 -3.232227243558753738e-14 1.348381855389296780e-13 3.075477359218946327e-14 -9.399908152199487610e-14
3.899000000000000000e+03 6.304969024658203125e+01 -3.246326828002929688e+01 -3.024549672671870970e-14 8.997728099700494364e-14 1.791953426464633348e-14 -4.775038125862975102e-14
3.900000000000000000e+03 4.736680984497070312e+01 -1.046403503417968750e+01 2.678541118289815004e-14 -4.570922497925886119e-14 -5.677143884798329168e-15 -4.532446534516627878e-14
3.901000000000000000e+03 4.507036972045898438e+01 -1.228224182128906250e+01 -6.329172483419270856e-15 -1.857162969416681353e-13 -5.761364286040529525e-14 -1.096768753290969234e-13
3.902000000000000000e+03 3.468899536132812500e+01 -6.653535842895507812e+00 3.962728447248417551e-15 -1.355545314668180068e-13 -3.947754259993677128e-14 -1.357596625178522642e-14
3.903000000000000000e+03 2.311774444580078125e+01 -3.324176406860351562e+01 -7.241370724624454636e-14 -7.678539336482270716e-14 -4.475973153857289166e-14 3.430081265136560031e-14
3.904000000000000000e+03 5.719367218017578125e+01 -6.744463443756103516e+00 -1.318219486476021607e-13 -3.361964569584263707e-14 -4.963247830303343933e-14 1.668352684735391334e-14
3.905000000000000000e+03 2.050782203674316406e+01 -5.520113945007324219e+00 -8.036563900254076187e-14 -3.444241623135578523e-14 -3.444241623135578523e-14 -1.622347614864579068e-14
3.906000000000000000e+03 2.017697334289550781e+01 -3.243262481689453125e+01 -1.082112033984859722e-13 -2.350075463278342852e-14 -3.951358893404012529e-14 4.304582813243959527e-14
3.907000000000000000e+03 1.286938571929931641e+01 -1.131878280639648438e+01 -1.833491964549631599e-15 -7.857822478328881696e-16 -7.857822478328881696e-16 -6.950866206396899560e-14
3.908000000000000000e+03 6.761303710937500000e+01 -1.077894687652587891e+01 8.376750627783063896e-14 -9.850589141851672642e-15 2.217507522549698462e-14 2.068695150077293210e-13
3.909000000000000000e+03 3.282176971435546875e+01 -3.252248001098632812e+01 -6.277567848140749862e-14 -7.980339886094409141e-14 -4.277372388033183481e-14 -5.229317819694864755e-14
3.910000000000000000e+03 3.204750442504882812e+01 -3.149042892456054688e+01 -1.264273652131289727e-13 3.731874360858762618e-14 -2.673258512610968834e-14 9.312692218939322419e-14
3.911000000000000000e+03 1.672886466979980469e+01 -3.200840377807617188e+01 -3.560381698665404659e-14 -1.124795447212355304e-13 -4.442500783474051529e-14 3.413687620068810852e-15
3.912000000000000000e+03 2.855202865600585938e+01 -3.352199172973632812e+01 -1.061561049568032766e-13 -1.598728473824889695e-13 -7.980868434653495824e-14 -2.835742471190508956e-14
3.913000000000000000e+03 1.113518619537353516e+01 -2.274061203002929688e+01 -1.528705073227006050e-14 -3.268082419266571392e-13 -1.026285854259859076e-13 -2.079247689822094625e-14
3.914000000000000000e+03 1.116675472259521484e+01 -2.541248893737792969e+01 8.093815195972173249e-14 -1.940669711519502072e-13 -3.393864508004218461e-14 -8.907061015400036252e-14
3.915000000000000000e+03 6.981112670898437500e+01 1.579463672637939453e+01 -1.092057691563612376e-13 -1.668987078531566914e-13 -8.283134513573445212e-14 6.931409520785289380e-14
3.916000000000000000e+03 1.199230003356933594e+01 -1.243769454956054688e+01 5.177051143464769800e-14 2.366449321656444171e-13 8.652463240246127674e-14 -2.642134117557520118e-14
3.917000000000000000e+03 6.861957550048828125e+01 -1.249105644226074219e+01 1.389400476180940869e-13 -2.607109135781965348e-13 -3.653125707752530316e-14 9.855594937163356106e-14
3.918000000000000000e+03 4.705293655395507812e+01 -9.449580192565917969e+00 1.653680951770291740e-15 -2.051705430983902234e-13 -6.105506318620015915e-14 -6.000546061554409838e-14
3.919000000000000000e+03 5.098039245605468750e+01 -3.010660362243652344e+01 -1.664247759785089653e-13 -2.085777568456431696e-13 -1.125007612024983561e-13 1.180186319765103020e-13
3.920000000000000000e+03 5.079122924804687500e+01 -3.377621078491210938e+01 -6.171799860456642084e-14 -1.408279417559887836e-13 -6.076377872003477232e-14 7.992220031399419056e-14
3.921000000000000000e+03 4.636694717407226562e+01 -1.095355796813964844e+01 3.058936161011785448e-14 5.886067187040738835e-14 2.683501004415757285e-14 -5.912175452980547585e-14
3.922000000000000000e+03 3.730242156982421875e+01 -2.590093803405761719e+01 -2.793839073663480915e-15 -2.070766247277283645e-13 -6.296113803927472219e-14 -2.715230350400135023e-14
3.923000000000000000e+03 4.042734909057617188e+01 -6.135443687438964844e+00 7.871533930041679089e-15 -4.312604960643451335e-13 -1.270166833039834686e-13 3.982901383920225968e-14
3.924000000000000000e+03 6.947750854492187500e+01 1.415523815155029297e+01 -1.379630730404673988e-13 -1.963798725414592217e-13 -1.003028836745779862e-13 1.270720436833501152e-14
3.925000000000000000e+03 5.916500854492187500e+01 -3.179045486450195312e+01 -7.108614911988109242e-14 1.528545492219743340e-14 -1.674020859811827661e-14 -5.445892624659706693e-14
3.926000000000000000e+03 3.913306045532226562e+01 -5.333240032196044922e+00 -5.114003770695201012e-15 2.265630310313918039e-13 6.643470495948378129e-14 8.935648038556689987e-14
3.927000000000000000e+03 3.986254119873046875e+01 -5.258717536926269531e+00 -9.958968870925344330e-14 -4.086888976111840988e-13 -1.524835758961312626e-13 -1.197330673193344741e-13
3.928000000000000000e+03 1.051160717010498047e+01 -1.396150588989257812e+01 -7.838104927745340872e-15 -3.359187614418337846e-15 -3.359187614418337846e-15 6.499905865278710060e-14
3.929000000000000000e+03 1.614087104797363281e+01 -2.948119163513183594e+01 -8.609239487760919629e-14 -1.026637271289015940e-13 -5.662683592432687929e-14 4.276390846253905198e-14
3.930000000000000000e+03 4.601417922973632812e+01 -2.447061157226562500e+01 -1.052665018276858697e-14 -3.247680715936368534e-13 -1.005884150929656218e-13 1.496580908245254138e-13
3.931000000000000000e+03 4.558975601196289062e+01 -2.740509223937988281e+01 -7.480549112006545931e-14 -2.150632916111255843e-13 -8.696063075359916628e-14 5.332304828806547214e-14
3.932000000000000000e+03 5.474229812622070312e+01 -6.163402557373046875e+00 1.742860413281310805e-14 -4.400041393520445765e-14 -7.971543110123994330e-15 -8.276302684634070927e-14
3.933000000000000000e+03 1.022715854644775391e+01 -1.573544597625732422e+01 -2.498911857605132236e-14 -1.022115199552850462e-13 -3.816019291465362617e-14 5.747579333043734140e-14
3.934000000000000000e+03 1.128380393981933594e+01 -1.427289867401123047e+01 5.461687756246925984e-14 -1.481588289553581461e-13 -2.806258440142712918e-14 5.619675325129261378e-14
3.935000000000000000e+03 6.857038879394531250e+01 -1.448832130432128906e+01 -1.121465252476930297e-13 -3.568817062617885005e-13 -1.407084626765808810e-13 7.839504734393973329e-14
3.936000000000000000e+03 6.938642883300781250e+01 -1.228070449829101562e+01 1.081185041127384616e-13 -1.824182488006573233e-13 -2.228992103468340619e-14 -2.500572889214697919e-14
3.937000000000000000e+03 6.500067138671875000e+01 -1.099744033813476562e+01 -8.558319255103780110e-14 -1.053049384887663753e-13 -5.726644066719396853e-14 -4.062696630936085684e-14
3.938000000000000000e+03 4.478796005249023438e+01 -2.273143386840820312e+01 -1.383659083576543880e-13 -2.880544110531180202e-13 -1.279260985337371537e-13 4.422359441131175697e-15
3.939000000000000000e+03 4.525661087036132812e+01 -2.481469535827636719e+01 -2.017691840428686989e-13 -2.351630988463998539e-13 -1.310796767352642722e-13 2.471949443641312250e-14
3.940000000000000000e+03 2.154563331604003906e+01 -7.148280143737792969e+00 -4.643034478483791527e-14 9.447865124793952685e-14 1.441449329418319908e-14 -3.106399482804590717e-14
3.941000000000000000e+03 1.248168945312500000e+01 -1.188563251495361328e+01 4.009344397280789618e-14 -7.431899605274405740e-14 -1.026766477694790111e-14 6.868020539628092933e-15
3.942000000000000000e+03 4.886616516113281250e+01 -2.970835876464843750e+01 -1.422533152471011642e-13 -2.439695038873590516e-13 -1.158668430298326335e-13 9.994921692591321460e-14
3.943000000000000000e+03 4.891380691528320312e+01 -3.132662963867187500e+01 -7.688072184083849514e-14 -2.216715445100062021e-13 -8.956568397101155599e-14 7.748510356562696155e-14
3.944000000000000000e+03 6.990501403808593750e+01 -1.672686958312988281e+01 -9.510000073672739140e-14 -4.525156833447285809e-13 -1.642847099678212963e-13 2.240946618266119461e-14
3.945000000000000000e+03 4.360898590087890625e+01 -2.160806655883789062e+00 1.024828415489495437e-13 8.967216617687678859e-14 5.764650096249518407e-14 9.934411522311958204e-15
3.946000000000000000e+03 4.100829696655273438e+01 -3.566077470779418945e+00 2.848185554592264079e-15 2.299754082914912123e-13 6.984707544331961171e-14 2.076234116002353275e-14
3.947000000000000000e+03 4.299827194213867188e+01 -2.462688922882080078e+00 -1.315377114955579296e-13 -1.936261481011447572e-13 -9.754915923426352165e-14 -4.071217782385463946e-14
3.948000000000000000e+03 6.919051361083984375e+01 -1.421147632598876953e+01 -1.561073569097558202e-15 -3.666766326335113568e-13 -1.104713109184585207e-13 -7.042219726197812557e-14
3.949000000000000000e+03 6.946879577636718750e+01 -1.505885791778564453e+01 -5.516197036908171425e-14 -4.811503300818087414e-13 -1.608936914905198523e-13 1.053087941827422769e-13
3.950000000000000000e+03 6.809127044677734375e+01 9.530059814453125000e+00 1.698337587540722522e-16 -3.567014305455584733e-14 -1.065009252933669243e-14 -2.806830282673316137e-16
3.951000000000000000e+03 6.856459808349609375e+01 1.025486469268798828e+01 1.079085924077499009e-14 -2.698810413429703070e-13 -7.772705683294425794e-14 4.160771187766872103e-14
3.952000000000000000e+03 2.893268966674804688e+01 -6.445256710052490234e+00 -2.417586530273352352e-13 -1.210895516208466624e-14 -7.616028304974903351e-14 -2.887520070596859278e-14
3.953000000000000000e+03 3.690754699707031250e+01 -2.674036407470703125e+01 2.259338922276209888e-14 -1.275699652251299776e-13 -3.149297297011695307e-14 -9.888100631195539773e-16
3.954000000000000000e+03 5.841305541992187500e+01 -3.207460403442382812e+01 -1.372031150801908406e-13 1.813911434250803367e-13 1.325641206100522732e-14 1.599430630256845620e-13
3.955000000000000000e+03 9.385027885437011719e+00 -2.172157859802246094e+01 -2.003144964355177415e-13 -2.688528653177479910e-13 -1.407502044602215729e-13 9.050716448001649983e-14
3.956000000000000000e+03 3.291793441772460938e+01 -1.507278060913085938e+01 -2.388996390035452722e-13 -2.853893607979857139e-13 -1.572866999404592958e-13 3.473304814333860735e-13
3.957000000000000000e+03 4.392839431762695312e+01 -2.718657255172729492e+00 -4.529880024686447348e-14 -1.109156711788517047e-13 -4.686434075008849565e-14 -1.085368435209919935e-13
3.958000000000000000e+03 1.092675113677978516e+01 -2.465397644042968750e+01 -3.218020129341046809e-14 -2.882972181296461489e-13 -9.614322006709294377e-14 -5.513737930855702740e-14
3.959000000000000000e+03 1.110425567626953125e+01 -2.373040008544921875e+01 -1.720777247906854490e-13 -1.423740140539531129e-13 -9.433552300864428419e-14 6.316917610738395639e-14
3.960000000000000000e+03 1.054860782623291016e+01 -1.317581367492675781e+01 3.030196671924625940e-14 3.586202989842683653e-14 1.984919898530192878e-14 1.542455941618003923e-13
3.961000000000000000e+03 1.015762996673583984e+01 -1.469295215606689453e+01 6.691436277685494649e-14 5.802109196605597860e-15 2.181494053324697924e-14 1.226376449394231405e-13
3.962000000000000000e+03 3.775186920166015625e+01 -2.412115859985351562e+01 -4.914316769819536412e-14 -1.125632586814785674e-13 -4.851192825271535836e-14 -1.143593276716273199e-13
3.963000000000000000e+03 3.502030944824218750e+01 -1.500999450683593750e+01 -1.806385173819952117e-13 -2.947335030114434096e-13 -1.426116034075261552e-13 9.308862952391375178e-14
3.964000000000000000e+03 5.364015197753906250e+01 -5.976318836212158203e+00 1.054863068774983606e-14 1.417736913110478891e-13 4.569669566790307558e-14 -1.107134945787374702e-13
3.965000000000000000e+03 6.360752105712890625e+01 -9.865949630737304688e+00 2.614496787741327904e-14 -3.776780862878303946e-13 -1.054599319655867562e-13 -1.468768683066112857e-13
3.966000000000000000e+03 2.917037963867187500e+01 -1.304360294342041016e+01 -4.341029624524775365e-14 -1.101063074808276976e-13 -4.605498044019627757e-14 -2.210586077524504672e-14
3.967000000000000000e+03 3.345344161987304688e+01 -1.363738536834716797e+01 -1.678433867585704675e-13 -2.091857232138644163e-13 -1.131087343469831807e-13 1.346543726131119167e-13
3.968000000000000000e+03 3.321210479736328125e+01 -1.456283760070800781e+01 -2.587074163836605711e-13 -1.509066851514140328e-13 -1.228842331710278124e-13 2.713400522064840503e-13
3.969000000000000000e+03 6.822165679931640625e+01 -2.335718536376953125e+01 2.896420692806607466e-14 -2.620924581964861888e-13 -6.993847368646013973e-14 -3.873064249957508531e-14
3.970000000000000000e+03 6.815468597412109375e+01 -2.453297996520996094e+01 5.223107712938775127e-14 -3.164582311476760168e-13 -7.926814180091515394e-14 -4.179554312778825664e-14
3.971000000000000000e+03 2.836260604858398438e+01 -5.926973819732666016e+00 -5.792131910816594731e-14 -1.477791006969722543e-13 -6.171012458628874486e-14 1.553415192702758962e-13
3.972000000000000000e+03 2.843451690673828125e+01 -7.026237010955810547e+00 2.855927774543347286e-14 -1.822018420470292166e-13 -4.609276827403918642e-14 1.093991095087697152e-13
3.973000000000000000e+03 5.180064773559570312e+01 -7.153620243072509766e+00 -4.426292977434929943e-14 4.965659502510766377e-14 1.618099956392335566e-15 1.321284526017638128e-13
3.974000000000000000e+03 3.718826293945312500e+01 -1.737548446655273438e+01 -5.370130948538671956e-14 -4.347733924183611043e-13 -1.465424054889266636e-13 8.082477829379763890e-14
3.975000000000000000e+03 3.743878555297851562e+01 -1.829413604736328125e+01 -1.712047874583217440e-15 -1.837375331091919972e-13 -5.563487225166557915e-14 5.406331442638426243e-14
3.976000000000000000e+03 3.745183181762695312e+01 -1.575907135009765625e+01 -1.632423037890851081e-13 4.441638503933746651e-14 -3.564777460848475577e-14 1.296047552048693041e-13
3.977000000000000000e+03 5.088178157806396484e+00 -3.729544162750244141e+00 -1.895923163201720246e-14 1.475008944195124738e-14 -1.262742741723081250e-15 -5.428527093988277930e-14
3.978000000000000000e+03 2.515354156494140625e+00 -3.934773254394531250e+01 -1.076585906333677942e-14 -5.036488736373349873e-14 -1.833922384341778872e-14 1.107110212425314877e-13
3.979000000000000000e+03 7.606937408447265625e+01 -3.867332839965820312e+01 -4.624120571584781902e-14 -5.002026353881361409e-13 -1.639331438608657154e-13 -1.633287214784957808e-14
3.980000000000000000e+03 7.762132263183593750e+01 -3.747974395751953125e+01 -5.679149912927311528e-14 -7.106034510817593741e-13 -2.302184864185624624e-13 -6.119516921193959846e-14
3.981000000000000000e+03 7.506748199462890625e+01 -3.510504531860351562e+01 2.658241380785802618e-15 -5.478721317765666843e-13 -1.635641627565145861e-13 -3.865758760194029642e-14
3.982000000000000000e+03 7.214315032958984375e+01 1.515921497344970703e+01 -1.239051585942216316e-13 -6.453994646658453571e-14 -5.653353016298913458e-14 -1.015636278420620209e-13
3.983000000000000000e+03 7.126693725585937500e+01 1.529197502136230469e+01 -4.254511985226326620e-14 7.326827539859762095e-14 9.216945816867359170e-15 1.045535253968617184e-13
3.984000000000000000e+03 9.722917556762695312e+00 -4.871479511260986328e+00 5.861287068762224828e-14 -6.638209404906392219e-14 -2.330767855465449429e-15 2.778044280889440526e-14
3.985000000000000000e+03 1.041041564941406250e+01 -4.908692836761474609e+00 -2.075832283572175835e-14 -1.003983205708110227e-13 -3.634699353017960266e-14 6.668490493957554555e-14
3.986000000000000000e+03 2.151926612854003906e+01 -1.138158321380615234e+01 6.956377341564914940e-14 1.213149453940451372e-13 5.726361496528192818e-14 -9.818015812238650719e-14
3.987000000000000000e+03 7.784375000000000000e+01 1.627883911132812500e+01 2.970722761752933594e-14 -3.532759208866448342e-13 -9.707060594785557606e-14 1.553903625781463682e-14
3.988000000000000000e+03 5.059570312500000000e+01 -1.649511694908142090e+00 -5.299813322576230057e-14 -1.142153862807027132e-13 -5.016405585193950412e-14 -1.315978576110765630e-13
3.989000000000000000e+03 5.157215499877929688e+01 -2.218708515167236328e+00 -1.344516945694929078e-13 -5.762215384745930646e-14 -5.762215384745930646e-14 6.280464023194001766e-14
3.990000000000000000e+03 5.262436294555664062e+01 -5.941505908966064453e+00 9.729191871631417965e-14 -1.413072539839174691e-13 -1.320460329078641804e-14 -6.711694595278386299e-14
3.991000000000000000e+03 7.218285369873046875e+01 1.587236595153808594e+01 3.086475912632453966e-14 3.334844065391168177e-13 1.093047432621820081e-13 -1.242914598282782168e-13
3.992000000000000000e+03 7.292070007324218750e+01 1.517420482635498047e+01 -1.456392684673780274e-14 1.081356887171723569e-13 2.807152906935013459e-14 -3.408169200417449085e-14
3.993000000000000000e+03 7.591033172607421875e+01 1.575940990447998047e+01 1.974599140881078130e-14 -4.490469140191327702e-13 -1.287902754278438811e-13 9.576758467190818469e-14
3.994000000000000000e+03 2.096145820617675781e+01 -1.138041114807128906e+01 -1.509708970250794868e-13 -1.562037174954178376e-13 -9.215238029039105050e-14 1.599106386044636674e-14
3.995000000000000000e+03 1.675556373596191406e+01 -9.594122886657714844e+00 3.847975472873015057e-14 1.649132321316065103e-14 1.649132321316065103e-14 -1.188732645033673679e-14
3.996000000000000000e+03 1.480012416839599609e+01 -1.050433349609375000e+01 3.081538049363140297e-14 1.047084917686277872e-13 4.065716133986457814e-14 1.214839132204293196e-14
3.997000000000000000e+03 7.171087646484375000e+01 1.562184429168701172e+01 2.586811685266910549e-14 -1.178913923812396555e-14 4.223693369066836706e-15 -5.975654134926858263e-14
3.998000000000000000e+03 7.092584228515625000e+01 1.216761302947998047e+01 -7.008026022556693158e-14 -2.702268747309388708e-13 -1.020921425198308141e-13 5.766956058745123515e-14
3.999000000000000000e+03 1.112005996704101562e+01 -4.969182014465332031e+00 1.821192664990672894e-14 -1.294477356252390909e-13 -3.337074337022606640e-14 1.092731387688540556e-13
4.000000000000000000e+03 6.015354537963867188e+01 -8.346979141235351562e+00 -1.084256043780949808e-13 -7.171660145999486213e-16 -3.274283107016287553e-14 4.442286314731806740e-14
4.001000000000000000e+03 2.082816886901855469e+01 -1.084301662445068359e+01 4.460074006624147047e-14 1.106164991418814858e-13 4.656517210125006578e-14 1.627268876288126553e-14
4.002000000000000000e+03 1.855383110046386719e+01 -1.027264118194580078e+01 5.496286002823654038e-14 1.608083512270180870e-13 6.473136236013685152e-14 -1.313478676951557178e-13
4.003000000000000000e+03 1.708651161193847656e+01 -5.889668464660644531e+00 6.399977661546152330e-14 1.418058514579892404e-13 6.174168842203522911e-14 -3.832212867350970331e-14
4.004000000000000000e+03 7.459395599365234375e+01 1.589198684692382812e+01 -4.686234175233297550e-14 -1.115857555552927927e-13 -4.753442851466137264e-14 -2.813675568848639924e-14
4.005000000000000000e+03 7.451910400390625000e+01 1.528592205047607422e+01 -1.775586242706156392e-13 -1.675984519352788360e-13 -1.035471215065156270e-13 -1.938358734588849219e-13
4.006000000000000000e+03 6.311558532714843750e+01 -8.885842323303222656e+00 -2.572061495875071525e-15 -1.102312054535156596e-15 -1.102312054535156596e-15 -4.977275712349411851e-14
4.007000000000000000e+03 6.169369506835937500e+01 -7.799217700958251953e+00 -5.787139159812298983e-14 2.094892388357881552e-14 -1.107674048376984174e-14 4.916855835782225903e-14
4.008000000000000000e+03 6.245274734497070312e+01 1.798883795738220215e+00 -5.676367240288991700e-14 -1.043914507246022916e-13 -4.834653659943448367e-14 -1.736341783244513270e-13
4.009000000000000000e+03 6.156062316894531250e+01 -8.552153587341308594e+00 4.633810967314550000e-14 1.571120349704718810e-13 6.103504610359064553e-14 -4.397575511204399046e-14
4.010000000000000000e+03 2.425465393066406250e+01 -1.226652526855468750e+01 3.218233920456933794e-14 -7.770946565269568063e-14 -1.365813861206426061e-14 3.920139630660471330e-14
4.011000000000000000e+03 2.371820068359375000e+01 -6.367144107818603516e+00 -1.340220523535912145e-13 -1.168707430907866412e-14 -4.371273782939437413e-14 8.487320275838566852e-14
4.012000000000000000e+03 4.242812728881835938e+01 -2.838434457778930664e+00 -1.066269671840501532e-13 4.580462460604221853e-14 -1.824670243458920149e-14 -1.912535808637982025e-15
4.013000000000000000e+03 5.977774429321289062e+01 1.283252716064453125e+00 -1.012208166676492604e-13 5.955928431651200117e-14 -1.249845987474776723e-14 -7.887886578714781161e-14
4.014000000000000000e+03 6.123624038696289062e+01 7.099635601043701172e-01 -5.131855498278353744e-14 -5.630687769883103988e-14 -3.228762878804483649e-14 -1.473038677797175455e-13
4.015000000000000000e+03 3.090165710449218750e+01 -1.368418788909912109e+01 -1.365079788573017594e-13 -5.850342047830983661e-14 -5.850342047830983661e-14 5.202414359224173668e-14
4.016000000000000000e+03 3.184993934631347656e+01 -1.030047321319580078e+01 -1.228247646818669825e-13 -5.263918437963845121e-14 -5.263918437963845121e-14 2.133786718280447636e-13
4.017000000000000000e+03 3.567071151733398438e+01 -7.069962978363037109e+00 -3.909769914507005284e-14 7.474573802783435195e-14 1.069441268126882644e-14 -4.019447128649281109e-14
4.018000000000000000e+03 3.640158081054687500e+01 -6.842138767242431641e+00 3.798489775215345421e-14 -2.947170841247938322e-14 2.553956590143984483e-15 -8.761330690890828388e-14
4.019000000000000000e+03 5.756336975097656250e+01 -7.117125511169433594e+00 -9.131997729620172644e-15 -3.913713615206126581e-15 -3.913713615206126581e-15 7.709657971711678104e-14
4.020000000000000000e+03 7.252873229980468750e+01 1.550418949127197266e+01 3.712449862499148101e-14 2.162936747296482359e-14 1.762615932116712303e-14 -1.503205925620226813e-13
4.021000000000000000e+03 7.340132141113281250e+01 1.540941524505615234e+01 -3.104313410062092826e-14 -1.963079899374234327e-13 -6.820533585616059269e-14 -6.493687288193147888e-14
4.022000000000000000e+03 1.398705863952636719e+01 -5.289535045623779297e+00 8.429389320883592940e-14 -5.537594444408530658e-14 8.675384290612007943e-15 1.188644045387390880e-13
4.023000000000000000e+03 6.583792877197265625e+01 5.650286197662353516e+00 -4.913835655105495970e-14 -2.105929566473783987e-14 -2.105929566473783987e-14 -3.810671464249577867e-14
4.024000000000000000e+03 3.783019638061523438e+01 -6.393958091735839844e+00 1.133375213341683563e-13 2.822273969702807778e-15 3.484793833705146504e-14 2.342479271807366287e-14
4.025000000000000000e+03 3.766936874389648438e+01 -5.718820571899414062e+00 5.465821277029526970e-14 5.494744551090416981e-16 1.656230626820645591e-14 -3.517006835502406448e-14
4.026000000000000000e+03 9.061367988586425781e+00 -4.865604877471923828e+00 4.061982751568139760e-14 1.089103986032582960e-13 4.485906817449508699e-14 -1.060212437590732359e-13
4.027000000000000000e+03 2.753399848937988281e+01 -1.273426246643066406e+01 -1.857489720846414172e-14 -2.138399456423287215e-13 -6.972445217761150116e-14 1.724164680893690207e-16
4.028000000000000000e+03 1.183702373504638672e+01 -5.035614967346191406e+00 8.686764008851780017e-14 -8.521961212875836522e-15 2.350370230743987349e-14 2.200983603814661571e-14
4.029000000000000000e+03 1.255254554748535156e+01 -5.098799228668212891e+00 2.033532644032422232e-14 5.446608875719904930e-14 2.244042354281744478e-14 8.128832215638023828e-14
4.030000000000000000e+03 5.940483474731445312e+01 -8.859644889831542969e+00 -6.073766300020502773e-14 -2.603042869415376354e-14 -2.603042869415376354e-14 -1.371735299134091424e-13
4.031000000000000000e+03 1.640251922607421875e+01 -5.072852134704589844e+00 6.420506352055807553e-15 1.857554366400948620e-13 5.765278255883202196e-14 -1.182116606207941900e-13
4.032000000000000000e+03 2.705705451965332031e+01 -4.386720657348632812e+00 -2.785893260873195665e-13 -2.789353187174822141e-14 -9.194486399457732495e-14 1.831782880760968180e-13
4.033000000000000000e+03 3.255539321899414062e+01 -1.333270931243896484e+01 -1.701578466887024299e-13 1.857710457632468642e-14 -4.547422415837262810e-14 2.157716008904103644e-13
4.034000000000000000e+03 3.204610824584960938e+01 -1.299794006347656250e+01 -5.564531786197111918e-14 6.765390385497088710e-14 3.602575543790046200e-15 1.733023718020892945e-13
4.035000000000000000e+03 6.349829101562500000e+01 4.471858024597167969e+00 -6.074742081975739727e-14 8.834276490682010929e-14 8.278603564931992509e-15 -2.475731276344213250e-14
4.036000000000000000e+03 6.533917999267578125e+01 -2.955380821228027344e+01 7.442285584460459069e-15 1.462728829932421343e-14 6.620871995728812298e-15 -6.176682158364615871e-14
4.037000000000000000e+03 6.017709350585937500e+01 7.058206200599670410e-01 -7.602321279009255361e-14 1.504224126985462262e-13 2.231976031134928068e-14 -4.617574362155221768e-14
4.038000000000000000e+03 5.292702865600585938e+01 -1.874262332916259766e+00 -9.902244090887260541e-14 2.778184583426823728e-13 5.363880184201114121e-14 -8.724036846662758249e-14
4.039000000000000000e+03 7.738098144531250000e+01 -2.886089134216308594e+01 8.113329479824196722e-14 -5.142399635456318396e-13 -1.299320080781068976e-13 -4.094237088573225714e-14
4.040000000000000000e+03 7.656314086914062500e+01 -3.033749771118164062e+01 -2.710108680981267171e-14 -6.063770904667087347e-13 -1.900434562322750320e-13 -1.120041491736549488e-13
4.041000000000000000e+03 4.437934494018554688e+01 -2.539699316024780273e+00 -5.371631213294848772e-14 -6.877222451457179475e-14 -3.674655930019019023e-14 -5.173161906984156955e-14
4.042000000000000000e+03 4.562853622436523438e+01 -2.003954172134399414e+00 -1.118692879759249081e-13 -2.309477750098848370e-13 -1.028451209286219969e-13 7.381843854443233960e-15
4.043000000000000000e+03 7.603666687011718750e+01 -3.267093658447265625e+01 -5.628523346592985074e-15 -3.226688664523247319e-13 -9.848921672791707826e-14 2.562616527941770361e-14
4.044000000000000000e+03 2.042015457153320312e+01 -6.254348754882812500e+00 -1.227536545718790895e-13 1.303950843785026126e-13 2.292427332624457151e-15 -7.271262856146237796e-14
4.045000000000000000e+03 2.769868469238281250e+01 -1.197834300994873047e+01 9.629162023945189719e-14 -5.023406143096417753e-14 1.381726730373313700e-14 3.476097515842276053e-14
4.046000000000000000e+03 7.745703125000000000e+01 -2.251202201843261719e+01 -9.392600629556935310e-14 -5.206389789777499111e-13 -1.843694874504794856e-13 -2.955462277362021217e-14
4.047000000000000000e+03 7.674156951904296875e+01 -2.397434234619140625e+01 -3.450435466859080869e-14 -6.095498997042703149e-13 -1.932162790223637683e-13 -3.091269102674376601e-14
4.048000000000000000e+03 7.671732330322265625e+01 -2.555288124084472656e+01 -4.596245056103821780e-14 -7.059624152622179238e-13 -2.255774641515481682e-13 -7.519572936326088253e-14
4.049000000000000000e+03 7.745885467529296875e+01 -2.489863586425781250e+01 9.134127509262748856e-14 -4.641141529253267617e-13 -1.118318694484470022e-13 1.563346010264275721e-14
4.050000000000000000e+03 7.778499603271484375e+01 1.479682922363281250e+01 1.874845595342244237e-14 -2.664706291993085285e-13 -7.431665824180963553e-14 1.603928985070487978e-13
4.051000000000000000e+03 7.702795410156250000e+01 1.340684986114501953e+01 6.294477336273376911e-14 -1.560274668797531628e-13 -2.792480602222674468e-14 -1.687737499601426987e-15
4.052000000000000000e+03 7.761271667480468750e+01 1.089627170562744141e+01 4.009164487482792805e-14 -3.488254607039720234e-13 -9.262014576518276532e-14 -4.272791972667611127e-14
4.053000000000000000e+03 7.692783355712890625e+01 7.874127864837646484e+00 -4.684789137025281713e-14 -2.488324216814996603e-13 -8.870408883332805972e-14 2.881070490685921914e-13
4.054000000000000000e+03 7.696025848388671875e+01 9.428193092346191406e+00 -6.723212210481971374e-15 -1.858851749825599087e-13 -5.778251412503349060e-14 2.232412795203850275e-13
4.055000000000000000e+03 7.757649993896484375e+01 -1.695846366882324219e+01 5.006256097606770483e-14 6.720633164564171480e-14 3.518066643126011028e-14 -1.867042355137640830e-13
4.056000000000000000e+03 7.106305694580078125e+01 -1.877459716796875000e+01 -1.308510456021413915e-13 -1.933318685264778791e-13 -9.725487288333306557e-14 7.142488775988345417e-14
4.057000000000000000e+03 7.691839599609375000e+01 -1.922025871276855469e+01 -6.645606374228174573e-14 -1.199830707877824754e-13 -5.593174035901926633e-14 -4.075520201537747439e-15
4.058000000000000000e+03 7.757317352294921875e+01 5.373961448669433594e+00 -9.636002662027215449e-14 -4.530556973417892985e-13 -1.648247104123548579e-13 3.672362164797854378e-13
4.059000000000000000e+03 7.687239837646484375e+01 3.944533586502075195e+00 -2.474398724111592784e-13 -6.093061168457869492e-13 -2.570237859350621434e-13 8.608091588710800601e-14
4.060000000000000000e+03 7.686711883544921875e+01 3.140808343887329102e+00 -2.505813482059360275e-13 -4.276486391570355483e-13 -2.034689962088914728e-13 2.776386434123756519e-13
4.061000000000000000e+03 7.687902069091796875e+01 -1.201464748382568359e+01 -1.632001825346840462e-13 -6.994293924415806440e-14 -6.994293924415806440e-14 -1.788087093754914259e-13
4.062000000000000000e+03 7.688994598388671875e+01 -1.121075820922851562e+01 6.925653084875749155e-14 -1.606957873245915686e-14 1.595608478785655315e-14 -4.531211560479531109e-14
4.063000000000000000e+03 7.755941772460937500e+01 -1.536555194854736328e+01 1.303644963247113653e-13 1.016214429229098104e-13 6.959578448479178392e-14 -1.141803665505314314e-13
4.064000000000000000e+03 7.755844116210937500e+01 -1.006572842597961426e+00 -5.240639194305229953e-13 -1.330969161923364896e-13 -1.971482466210996987e-13 -1.560269247786669200e-13
4.065000000000000000e+03 7.686765289306640625e+01 -2.469784736633300781e+00 -2.709184330866587498e-13 -5.507419065069185660e-13 -2.464981072990840572e-13 -3.719131393912361583e-13
4.066000000000000000e+03 7.755744934082031250e+01 5.882127881050109863e-01 -8.509372676976378891e-13 -3.646874198025978897e-13 -3.646874198025978897e-13 1.384745996254460598e-13
4.067000000000000000e+03 7.686224365234375000e+01 -8.694143295288085938e-01 -5.585341759407891349e-13 -2.851227283787172162e-13 -2.530970767168627678e-13 -1.821216788489010696e-13
4.068000000000000000e+03 7.688768005371093750e+01 -1.041585063934326172e+01 -8.335443202637723981e-14 1.002762241595961043e-14 -2.199804195138904683e-14 -2.065237629349236936e-13
4.069000000000000000e+03 7.756462097167968750e+01 -5.779616832733154297e+00 3.619079049031054263e-13 -2.790040639114813731e-14 1.002022493841805972e-13 9.188602400386335772e-15
4.070000000000000000e+03 7.687050628662109375e+01 -7.227780818939208984e+00 -1.362698338501153184e-13 -1.499032560407786985e-13 -8.585192561201548944e-14 -1.632767814181701471e-13
4.071000000000000000e+03 7.756488800048828125e+01 -4.986950397491455078e+00 -2.841057467409258130e-13 -3.047634030989981868e-13 -1.766607422414717687e-13 -1.371919206927599277e-13
4.072000000000000000e+03 7.688288116455078125e+01 -5.629668235778808594e+00 -2.801423643842421152e-13 -3.030648106604194592e-13 -1.749621498028930411e-13 -2.150406724433021055e-13
4.073000000000000000e+03 7.692989349365234375e+01 -1.844014930725097656e+01 -1.179916353424154130e-13 -3.708244919898434633e-13 -1.466448354891722317e-13 -3.275400851693484328e-14
4.074000000000000000e+03 7.687545776367187500e+01 -4.057241916656494141e+00 -1.992333029240608844e-13 -1.311366515594283855e-13 -9.911098634504678095e-14 -2.893993909531406006e-13
4.075000000000000000e+03 7.627621459960937500e+01 -1.685402679443359375e+01 5.681331869799438605e-14 2.434856515628330831e-14 2.434856515628330831e-14 -1.338957834580781214e-13
4.076000000000000000e+03 7.617063140869140625e+01 3.308898210525512695e+00 -2.362858715111715302e-13 -4.215220295207544599e-13 -1.973423730200832282e-13 2.179054462911333978e-13
4.077000000000000000e+03 7.755957794189453125e+01 2.183880090713500977e+00 -4.812062749139089934e-13 -4.807369780035486428e-13 -2.885829867172590157e-13 4.873471418087582663e-13
4.078000000000000000e+03 7.751422882080078125e+01 -2.092493057250976562e+01 -1.321622932620725166e-13 -3.768976233539667042e-13 -1.527179804058226287e-13 -4.746298636775815594e-14
4.079000000000000000e+03 7.681130981445312500e+01 -2.076997375488281250e+01 -6.979764260051785074e-14 -3.959208720420714922e-13 -1.397155503270186561e-13 3.306345336948936231e-14
4.080000000000000000e+03 7.760716247558593750e+01 8.518185615539550781e+00 -1.921613333678764274e-14 -9.973738415020028114e-14 -3.568605372143707211e-14 2.284008756864991385e-13
4.081000000000000000e+03 7.742873382568359375e+01 -2.648630332946777344e+01 -6.305467080544233105e-14 -4.845329324397462667e-13 -1.642762802959302215e-13 -1.448524053525648836e-13
4.082000000000000000e+03 7.669355773925781250e+01 -2.875015449523925781e+01 1.521299442993338021e-15 -5.026084257987728510e-13 -1.503261490981566695e-13 -7.552806443418200177e-14
4.083000000000000000e+03 7.694401550292968750e+01 8.648758888244628906e+00 1.521536125174624554e-13 -1.177951101461252592e-13 1.030755155843410611e-14 8.838679029128659881e-14
4.084000000000000000e+03 7.688183593750000000e+01 -4.841794013977050781e+00 2.722361181969890076e-13 -2.035840165068650287e-13 2.059563152347673037e-14 -1.649354243948245730e-14
4.085000000000000000e+03 7.683995819091796875e+01 -1.447608757019042969e+01 1.497340391867080234e-13 1.842078295184301079e-14 5.044644647215872080e-14 -1.363272694602027379e-13
4.086000000000000000e+03 7.685819244384765625e+01 -1.283177947998046875e+01 1.477313822488557360e-13 1.756250140704917334e-14 4.958816492736488335e-14 -1.883510911799245180e-14
4.087000000000000000e+03 7.685699462890625000e+01 -6.758078187704086304e-02 -7.453151052057294113e-13 -1.135414868678671918e-13 -2.576569871088479902e-13 1.841481204719122577e-13
4.088000000000000000e+03 7.685411834716796875e+01 1.533769011497497559e+00 -4.807502594801615903e-13 -2.060358177471965924e-13 -2.060358177471965924e-13 9.607339744718487728e-14
4.089000000000000000e+03 7.685364532470703125e+01 7.333502769470214844e-01 -7.561453091269043636e-13 -3.926886756305120185e-13 -3.446501981377303458e-13 2.014805558720259016e-13
4.090000000000000000e+03 7.676033782958984375e+01 -2.320140457153320312e+01 -8.825019437008058132e-14 -3.580781504641805668e-13 -1.338985075160364913e-13 -7.230785523289207095e-14
4.091000000000000000e+03 7.650906372070312500e+01 1.498299980163574219e+01 4.704920399676085219e-14 -2.085907943767673078e-13 -4.846247846925465230e-14 1.655086929053944944e-13
4.092000000000000000e+03 7.715193176269531250e+01 1.489004325866699219e+01 5.800524313257990339e-14 -1.581444122791125784e-13 -3.004174803345437128e-14 -3.013805229142539621e-14
4.093000000000000000e+03 7.596381378173828125e+01 -3.433322143554687500e+01 -5.762087313364305796e-14 -6.423324871128455182e-13 -2.099859999424302792e-13 1.483052030249072673e-14
4.094000000000000000e+03 7.693317413330078125e+01 -3.302209854125976562e+01 9.672176898105604853e-15 -4.533642612800786731e-13 -1.331076226887897840e-13 -2.728833868939628537e-14
4.095000000000000000e+03 7.532726287841796875e+01 -3.347486114501953125e+01 -3.168116675033791352e-14 -4.768059861867679494e-13 -1.525461479140108323e-13 -2.886291195196982740e-14
4.096000000000000000e+03 7.645877075195312500e+01 -3.509794616699218750e+01 -1.813196504562002848e-14 -3.737784279138345322e-13 -1.175731197513088522e-13 -4.115691077874461534e-14
4.097000000000000000e+03 7.707294464111328125e+01 -3.548932266235351562e+01 8.221838466125619416e-14 -5.137749492338528068e-13 -1.294669666612735526e-13 -4.457526470331985013e-14
4.098000000000000000e+03 7.689325714111328125e+01 6.325198650360107422e+00 -8.841384791175369018e-14 -3.123973519106315599e-13 -1.202433606243419328e-13 2.211178695655721671e-13
4.099000000000000000e+03 7.690913391113281250e+01 7.101325035095214844e+00 3.691106665107413143e-14 -3.501885738853294239e-13 -9.398324539401300970e-14 1.626100987260452324e-14
4.100000000000000000e+03 7.670720672607421875e+01 -2.634920692443847656e+01 4.470436268887677256e-14 -7.128561521456411310e-13 -2.004455358205897708e-13 4.843953404077942781e-14
4.101000000000000000e+03 7.671544647216796875e+01 -2.475551223754882812e+01 -8.502874511255587020e-14 -3.109465809836287065e-13 -1.187926032498662354e-13 -3.461259107968980495e-15
4.102000000000000000e+03 7.600241088867187500e+01 -2.380729866027832031e+01 -1.566342677306389874e-13 -3.187591792082333786e-13 -1.426180408579252878e-13 2.680865207290491353e-14
4.103000000000000000e+03 7.029509067535400391e+00 -3.298076629638671875e+00 1.094852968052187348e-13 -6.745510183411851379e-14 1.260905781370370848e-14 1.093902597085368023e-13
4.104000000000000000e+03 7.324849605560302734e+00 -3.823248386383056641e+00 -1.489754601960695951e-14 -1.207620293911318421e-13 -4.069787313144140883e-14 3.025737001105684686e-15
4.105000000000000000e+03 2.460564041137695312e+01 -1.145387744903564453e+01 3.548622509665262659e-14 -1.220444643783291649e-13 -2.596747042925024590e-14 3.117759211066807590e-14
4.106000000000000000e+03 7.585188293457031250e+01 -3.584546661376953125e+01 1.295374516609463719e-14 -4.977088077610936079e-13 -1.454265310604774264e-13 -2.983523462465019482e-14
4.107000000000000000e+03 3.587110280990600586e+00 -3.324554443359375000e+01 -1.386803507045977074e-14 -9.744534009998445656e-14 -3.339401305935303654e-14 6.570265165262156870e-14
4.108000000000000000e+03 3.501142740249633789e+00 -3.072643470764160156e+01 4.293160065730466934e-14 6.415020289063030901e-14 3.212454106438049350e-14 1.056973790176246597e-13
4.109000000000000000e+03 7.698138427734375000e+01 1.020227432250976562e+01 8.498991034599015504e-14 -2.380814458340790862e-13 -4.592745793592124814e-14 2.437954792742797611e-14
4.110000000000000000e+03 7.444062805175781250e+01 1.472706699371337891e+01 1.000327784202257458e-14 -8.721478129535692458e-14 -2.316345086659371555e-14 1.990413415412905368e-14
4.111000000000000000e+03 7.692180633544921875e+01 1.261606216430664062e+01 -3.029930449469303913e-15 -3.673061204148564407e-13 -1.111008190285943387e-13 2.391538302028844987e-13
4.112000000000000000e+03 1.403728389739990234e+01 -2.818888664245605469e+01 -1.263973870230597485e-13 -1.256561722078400334e-13 -7.561606776926993456e-14 7.422122134557659900e-14
4.113000000000000000e+03 7.643919372558593750e+01 -3.188954734802246094e+01 -8.338515052324236426e-15 -5.983359966342527425e-13 -1.820023488472918838e-13 -4.706193998415576785e-14
4.114000000000000000e+03 4.257843017578125000e+01 -1.897138214111328125e+01 9.849551526491286124e-15 -1.787825529980802131e-13 -5.067990230494916204e-14 3.061019184435673224e-14
4.115000000000000000e+03 4.194131851196289062e+01 -3.294532299041748047e+00 8.238153675942452847e-14 -1.044457607831143428e-14 2.158108828903722298e-14 3.166758372999574356e-14
4.116000000000000000e+03 4.147350692749023438e+01 -4.700084209442138672e+00 7.808689675772861882e-14 -2.410398811970859700e-13 -4.888589668705992097e-14 1.881713372359899994e-13
4.117000000000000000e+03 1.485434818267822266e+01 -9.763490676879882812e+00 1.110165358622107468e-13 2.305823175625942856e-13 1.024796499288042895e-13 2.295328911747912537e-13
4.118000000000000000e+03 3.487292051315307617e+00 -2.992577171325683594e+01 5.671684164530212124e-14 7.005816960630253942e-14 3.803250100378914589e-14 1.630719582636122166e-15
4.119000000000000000e+03 3.464822530746459961e+00 -2.592663574218750000e+01 -2.315185837367759319e-14 -1.471750645616262676e-13 -5.109807908287682110e-14 -7.798781423169059979e-14
4.120000000000000000e+03 3.529606819152832031e+00 -2.674150657653808594e+01 -1.914677319686877710e-15 -8.205760319654898782e-16 -8.205760319654898782e-16 1.149887036446233662e-14
4.121000000000000000e+03 7.654803466796875000e+01 -3.115662193298339844e+01 5.587560579153882934e-14 -4.564382725946725117e-13 -1.201687946199292423e-13 -3.330316369356232931e-14
4.122000000000000000e+03 5.395716667175292969e+00 -2.372328567504882812e+01 1.173368449928699486e-13 -1.555920512872829842e-13 -1.147656290476344737e-14 3.712979088684592588e-14
4.123000000000000000e+03 2.638069391250610352e+00 -2.513233184814453125e+01 4.008547169870833871e-14 -1.200733577236962057e-13 -2.399636716274907572e-14 9.595407422183926949e-14
4.124000000000000000e+03 3.208416938781738281e+00 -2.188496398925781250e+01 -3.324348514023058032e-14 -1.972510018819970123e-13 -6.914834780073417231e-14 5.402775937139031592e-15
4.125000000000000000e+03 1.224248504638671875e+01 -2.535910415649414062e+01 -7.782424878144400537e-14 -2.106381746542346223e-13 -8.653872703070358829e-14 1.271690814718534623e-13
4.126000000000000000e+03 1.297486209869384766e+01 -2.713764953613281250e+01 -1.186532290605932238e-13 -5.085138581918668965e-14 -5.085138581918668965e-14 6.749506146043818267e-14
4.127000000000000000e+03 2.528006792068481445e+00 -9.075053215026855469e+00 -4.945229914855939907e-15 -4.787033467648811602e-14 -1.584466946210651150e-14 1.453206045082255926e-13
4.128000000000000000e+03 3.164654731750488281e+00 -6.675168514251708984e+00 1.463667173031389657e-14 -1.309799843455042301e-13 -3.490299547862299456e-14 8.907554327388517157e-14
4.129000000000000000e+03 3.213237762451171875e+00 -2.109598922729492188e+01 -2.652009505282968554e-14 5.726066729062548322e-14 9.222172010151918203e-15 -1.441286732973764972e-13
4.130000000000000000e+03 2.507818460464477539e+00 -2.109794807434082031e+01 -4.159197061737694712e-14 -6.357607718271776620e-14 -3.155041535646795070e-14 5.367291694099475541e-14
4.131000000000000000e+03 2.507034063339233398e+00 -6.649616241455078125e+00 -2.760395502400449924e-14 -1.033321648732932196e-13 -3.928083444453001061e-14 -5.636385252299515314e-14
4.132000000000000000e+03 3.946646928787231445e+00 -1.866700553894042969e+01 7.361206913122919637e-14 5.442350332874289209e-14 3.841067072155208983e-14 -1.124946354602238130e-13
4.133000000000000000e+03 2.509272813796997070e+00 -1.867648696899414062e+01 1.947021103371193718e-14 7.697079871258130646e-14 2.893230427914068870e-14 1.916308705143289493e-14
4.134000000000000000e+03 3.214310884475708008e+00 -1.622842979431152344e+01 6.030673329422350792e-14 -1.571580458001667346e-13 -2.905539510703568362e-14 4.132316640563168941e-14
4.135000000000000000e+03 3.188258647918701172e+00 -1.231192588806152344e+01 -4.295579869454183020e-14 -6.416057735016827968e-14 -3.213491213578667516e-14 1.837881289282303383e-15
4.136000000000000000e+03 3.187693595886230469e+00 -1.308611583709716797e+01 -1.550464672015611223e-14 -1.438976975770556166e-13 -4.782070193391080304e-14 1.926351127765936477e-14
4.137000000000000000e+03 4.655959606170654297e+00 -1.087600421905517578e+01 -3.590199630101008343e-14 -3.813941621289701489e-13 -1.251888539664444688e-13 -6.258601764012189372e-14
4.138000000000000000e+03 2.487493515014648438e+00 -1.150639724731445312e+01 -3.667785476377249942e-14 -1.529719276596730460e-13 -5.689493201652823240e-14 5.930811533072857800e-14
4.139000000000000000e+03 3.211604118347167969e+00 -8.226618766784667969e+00 -9.474387928658147690e-15 -7.268687198360226920e-14 -2.464837924422754595e-14 1.462078206984976370e-13
4.140000000000000000e+03 3.923092365264892578e+00 -6.025399208068847656e+00 7.057576984102948738e-16 -2.055768072049476980e-13 -6.146131374023047766e-14 1.098263461511012062e-13
4.141000000000000000e+03 2.496941089630126953e+00 -1.070861530303955078e+01 2.032159264811744109e-14 -1.742945387626579357e-13 -4.619188468139509562e-14 8.713563453676548276e-14
4.142000000000000000e+03 3.199722051620483398e+00 -1.074352073669433594e+01 2.689133604108408931e-14 1.259022318908856186e-13 4.583806885493160732e-14 8.139773848437475978e-14
4.143000000000000000e+03 3.190811157226562500e+00 -1.153341960906982422e+01 -4.068688203191783703e-14 -6.318818352672034289e-14 -3.116251831233873837e-14 1.527927225930883481e-13
4.144000000000000000e+03 2.507983684539794922e+00 -1.786863899230957031e+01 -6.086799087760136340e-14 4.254014268666519993e-14 -5.498354711390733215e-15 4.454223719464051046e-14
4.145000000000000000e+03 3.223093748092651367e+00 -1.784793663024902344e+01 9.114166669640932916e-14 8.481166073256996008e-14 5.278599890632014457e-14 3.594425646881449499e-14
4.146000000000000000e+03 3.224433898925781250e+00 -1.866381263732910156e+01 -8.130121060970565972e-14 -1.196790045944430211e-14 -2.798073221960215712e-14 1.104798083529853758e-13
4.147000000000000000e+03 3.223441123962402344e+00 -1.947895812988281250e+01 4.373435749834009290e-14 8.736972056206868120e-14 3.933122274049627443e-14 -7.279492628261760578e-14
4.148000000000000000e+03 2.602208137512207031e+00 -2.432121276855468750e+01 4.168166124209581047e-14 1.786356910375534734e-14 1.786356910375534734e-14 6.732684749337705665e-14
4.149000000000000000e+03 3.360769987106323242e+00 -2.428736686706542969e+01 -2.806013139401188072e-14 -2.407805129323731252e-13 -8.065219363672868069e-14 -1.028732102352188441e-14
4.150000000000000000e+03 3.420659303665161133e+00 -2.510385513305664062e+01 2.353477147594516122e-14 -1.271665200442209653e-13 -3.108952440107615178e-14 -5.933142567743701634e-14
4.151000000000000000e+03 3.205355167388916016e+00 -1.465082454681396484e+01 7.137812476493143876e-14 -1.524131705175554852e-13 -2.431051474222675063e-14 6.742904710066097151e-14
4.152000000000000000e+03 3.211627006530761719e+00 -1.543764495849609375e+01 -4.451518296230520810e-14 -1.563307859900331387e-13 -6.025379034688832514e-14 -4.845252752619030878e-14
4.153000000000000000e+03 2.754130363464355469e+00 -3.155294418334960938e+01 2.211521879524631223e-14 1.924817456030319951e-13 6.437909152176915506e-14 1.511851624794169346e-13
4.154000000000000000e+03 5.196407318115234375e+00 -3.148187255859375000e+01 7.632529862040132729e-14 1.242127467505557692e-13 6.016140954552898212e-14 -4.641417831400661970e-15
4.155000000000000000e+03 3.527092218399047852e+00 -3.237067413330078125e+01 -1.607809988390853512e-14 2.447396126904755054e-13 6.859845401137668053e-14 1.028053103801010448e-13
4.156000000000000000e+03 1.472301197052001953e+01 -5.444318294525146484e+00 -1.336683856049264429e-13 -3.441097775648549462e-14 -5.042381036367629688e-14 1.361173793545543322e-15
4.157000000000000000e+03 3.548885583877563477e+00 -2.833430862426757812e+01 -7.525902982947509090e-15 1.965008695039086040e-14 3.637255190233005392e-15 -1.947692969904955829e-15
4.158000000000000000e+03 3.573474168777465820e+00 -2.754023170471191406e+01 1.762399769308573005e-14 9.905504151294652893e-14 3.500371108418331989e-14 4.038766933736614995e-14
4.159000000000000000e+03 3.502232074737548828e+00 -2.912941932678222656e+01 -1.756422427206388859e-14 6.109889883528646370e-14 1.306040270777995144e-14 7.033711449649232561e-14
4.160000000000000000e+03 3.732407808303833008e+00 -3.423162078857421875e+01 1.222417027763609068e-14 5.098987909419455677e-14 1.896421557387884677e-14 6.537858362326565143e-14
4.161000000000000000e+03 3.790214157104492188e+01 -2.333242607116699219e+01 6.748083130692431042e-14 -1.683059209578799398e-14 1.519507311859361054e-14 -7.004324827390370767e-14
4.162000000000000000e+03 3.894127655029296875e+01 -2.230270957946777344e+01 -7.290782561009123697e-14 -1.227481115882722573e-13 -5.869678115950904829e-14 3.057129947955060378e-14
4.163000000000000000e+03 4.468786239624023438e+01 -1.602736282348632812e+01 -4.065132020066031249e-14 -2.461767497751593536e-13 -8.604841692698775302e-14 -8.741976326859246527e-14
4.164000000000000000e+03 4.364724349975585938e+01 -1.867082405090332031e+01 -1.206229262524019519e-13 -2.118238581500647699e-13 -9.973403667599273215e-14 -5.550725826783224626e-14
4.165000000000000000e+03 7.631938171386718750e+01 -1.837090492248535156e+01 1.008095787836255086e-13 8.895505453120414185e-14 5.692938931682253734e-14 -7.970186332749082392e-14
4.166000000000000000e+03 7.089649200439453125e+01 -1.801437187194824219e+01 -7.330848574666967710e-14 -4.889274206852645133e-13 -1.686707685414484681e-13 3.893029155337471292e-14
4.167000000000000000e+03 2.612026977539062500e+01 -1.188675594329833984e+01 1.996984527611114779e-14 7.718492864164719358e-14 2.914643082007478680e-14 5.978809840875148884e-14
4.168000000000000000e+03 2.535468292236328125e+01 -1.172148990631103516e+01 -3.875183865204717693e-14 2.914301897136324648e-14 -2.882646878293068475e-15 6.743119517621520842e-14
4.169000000000000000e+03 4.556009292602539062e+01 -2.689558267593383789e+00 -2.333271515450943689e-14 -5.575068198434597611e-14 -2.372502015809616061e-14 7.150172381259478627e-14
4.170000000000000000e+03 3.931310176849365234e+00 -3.531414794921875000e+01 7.890824088975859074e-14 -1.193313145102540759e-14 2.009253291632324967e-14 6.396245295567370981e-14
4.171000000000000000e+03 2.001634407043457031e+01 -1.026134681701660156e+01 2.477165853695330495e-16 -4.564478610076354304e-14 -1.361912003934899126e-14 -1.203481487643126568e-13
4.172000000000000000e+03 5.774495697021484375e+01 -6.612590312957763672e+00 -1.146893452604047514e-13 -3.401627564965804124e-15 -3.542729193231446139e-14 -8.706404331206354930e-14
4.173000000000000000e+03 4.673690032958984375e+01 -2.922642898559570312e+01 -4.624504108103298650e-14 -3.314976331630914430e-13 -1.133228032896768656e-13 5.137640733308100616e-14
4.174000000000000000e+03 5.435426712036132812e+00 -4.769023895263671875e+00 -2.395267550926380440e-14 1.261004206598841798e-14 -3.402789905927673837e-15 -7.803857522215365550e-14
4.175000000000000000e+03 1.162019729614257812e+01 -2.485253906250000000e+01 -1.034853965215833116e-13 -2.273546748001592510e-13 -9.925202071889641098e-14 9.221371225203583988e-14
4.176000000000000000e+03 1.192636585235595703e+01 -2.732196807861328125e+01 -9.065179704982606612e-14 -1.303526649685041172e-13 -6.630134131600448621e-14 7.164195181107863020e-14
4.177000000000000000e+03 3.326567173004150391e+00 -5.132409572601318359e+00 5.245297265651406582e-14 9.110626749547767744e-14 4.306777306203705968e-14 -1.586046832063869871e-14
4.178000000000000000e+03 4.815960693359375000e+01 -3.051509857177734375e+01 -1.496688379785601763e-13 -3.615249646957835461e-13 -1.533581340260395387e-13 9.224052592701412201e-14
4.179000000000000000e+03 1.493732643127441406e+01 -2.936651802062988281e+01 -4.761666863757618717e-14 -2.612601128005372780e-14 -2.212280312825602724e-14 8.375830411189166824e-14
4.180000000000000000e+03 3.180365562438964844e+01 -8.194012641906738281e+00 -5.842452444147078205e-14 -2.537938121379562650e-13 -9.366550639483897656e-14 1.521704583087174489e-13
4.181000000000000000e+03 6.927899932861328125e+01 -2.454800987243652344e+01 1.026006604437808278e-14 -4.988632662343561730e-13 -1.465809624286856794e-13 5.987768738951668168e-14
4.182000000000000000e+03 4.899381637573242188e+01 -2.884526491165161133e+00 -1.403031201418700191e-13 -2.431336924325899762e-13 -1.150310451275907142e-13 -5.254173832125452748e-14
4.183000000000000000e+03 6.266499710083007812e+01 2.860023021697998047e+00 -6.381379528529879108e-14 -7.309972261835759322e-14 -4.107405401584419968e-14 -1.174247737890585230e-13
4.184000000000000000e+03 6.329553222656250000e+01 3.375488042831420898e+00 -1.016460881935431215e-13 -4.356260970982302194e-14 -4.356260970982302194e-14 -3.961278326842718189e-15
4.185000000000000000e+03 1.316573905944824219e+01 -1.073375988006591797e+01 4.909949467943493240e-14 1.125445358652124583e-13 4.849320882458103832e-14 2.224507064012629098e-14
4.186000000000000000e+03 1.388351249694824219e+01 -1.101481437683105469e+01 -8.226162908134531521e-15 1.794782990846913173e-13 5.137564161529668827e-14 -2.712950137706126447e-14
4.187000000000000000e+03 5.767645359039306641e+00 -4.072503566741943359e+00 2.810824455948181949e-14 -1.709574051333290212e-13 -4.285474766393439217e-14 1.119070724216360280e-13
4.188000000000000000e+03 2.872960281372070312e+01 -1.226228904724121094e+01 -1.259652511421613386e-13 -5.114946010145726696e-13 -1.912379488707566244e-13 5.836347708289627012e-14
4.189000000000000000e+03 6.816828155517578125e+01 -2.675074577331542969e+01 4.078856325503803226e-14 -3.027758165713434479e-13 -7.859618039946295043e-14 -1.129391109170978236e-13
4.190000000000000000e+03 6.226836776733398438e+01 -3.105658912658691406e+01 4.721145146374151891e-14 1.117353754550957923e-13 4.768404841446437226e-14 -4.467269043291303976e-14
4.191000000000000000e+03 6.385960388183593750e+01 -3.047793006896972656e+01 -9.259162447178281852e-14 2.119480941665044527e-13 3.580694226366920585e-14 -2.657359365377826715e-14
4.192000000000000000e+03 7.052647399902343750e+01 -1.989076805114746094e+01 -1.875187966059524425e-13 -4.006218371366970787e-13 -1.764421941885530032e-13 8.258131456223213873e-14
4.193000000000000000e+03 3.884733963012695312e+01 -1.905710792541503906e+01 -5.289189496538587720e-14 -9.129437657240391246e-14 -4.325588213896329470e-14 1.247060587390366737e-13
4.194000000000000000e+03 4.777604675292968750e+01 -2.053234100341796875e+00 -1.508232693467684293e-13 -1.103894875357537553e-13 -7.836382909763572879e-14 -2.286051292114000405e-15
4.195000000000000000e+03 4.709130096435546875e+01 -2.114612102508544922e+00 -1.593974789399627001e-13 -1.598151000642769604e-13 -9.576377641177732936e-14 -9.511664324007504390e-14
4.196000000000000000e+03 6.958229064941406250e+01 -2.220218276977539062e+01 -5.488189045474260730e-14 -5.725322017695322341e-13 -1.882242191969529799e-13 5.476963826044067840e-14
4.197000000000000000e+03 4.572567367553710938e+01 -2.587746429443359375e+01 -6.106988965090889843e-14 -2.921001927749106164e-13 -1.059510281158776435e-13 8.540360801369273336e-14
4.198000000000000000e+03 6.760976409912109375e+01 -2.625311088562011719e+01 1.033088341977940472e-13 -2.302304668525684272e-13 -3.807649589506953425e-14 -1.369997865152683403e-13
4.199000000000000000e+03 2.425634002685546875e+01 -5.440919399261474609e+00 -4.146468528232714890e-14 -1.550234279053958053e-13 -5.894643226225099175e-14 1.377900614787930245e-13
4.200000000000000000e+03 2.607073211669921875e+01 -4.941739082336425781e+00 -9.669691534031771285e-14 5.006036207853663267e-14 -1.399096580912773460e-14 1.407744634838309361e-13
4.201000000000000000e+03 4.436481094360351562e+01 -1.978870582580566406e+01 -4.220802784431036681e-14 -1.095910539508811177e-13 -4.553972352211790864e-14 -3.524128010896562802e-14
4.202000000000000000e+03 3.285930252075195312e+01 -1.399454307556152344e+01 -8.664844829055912134e-14 5.436684698896694645e-14 -9.684480898697420820e-15 2.195832627055818720e-13
4.203000000000000000e+03 3.045011520385742188e+01 -1.266223430633544922e+01 -3.003152603984690638e-14 -1.287065377506783209e-14 -1.287065377506783209e-14 1.771232764407812410e-13
4.204000000000000000e+03 4.487741088867187500e+01 -1.514191436767578125e+01 -1.558647349099266666e-14 -1.896837179514443417e-13 -6.158105709391792359e-14 -9.823463928155390379e-14
4.205000000000000000e+03 4.374460983276367188e+01 -1.767290496826171875e+01 5.169261150855461451e-14 -2.294762416112788861e-13 -5.333508970844363928e-14 2.522121915612615672e-15
4.206000000000000000e+03 4.297305297851562500e+01 -1.842799377441406250e+01 6.168867093580068794e-14 -6.506389394270173376e-14 -1.012567325586787373e-15 5.333652966445397159e-14
4.207000000000000000e+03 6.144546890258789062e+01 1.804682254791259766e+00 -1.188297863021848047e-14 8.640919197614588265e-14 2.235786493551446263e-14 -1.003514898132232269e-13
4.208000000000000000e+03 2.257333183288574219e+01 -3.421091079711914062e+01 -1.493506652985171490e-13 4.751051169236270022e-14 -3.055204472659361903e-14 -2.687038044596901792e-14
4.209000000000000000e+03 1.873985671997070312e+01 -6.215810298919677734e+00 -4.699330998663743542e-14 1.399883355936160090e-13 2.789850564921449866e-14 -9.831194967271569829e-14
4.210000000000000000e+03 6.604087066650390625e+01 -2.692599487304687500e+01 -2.443737994893471072e-14 -2.392279083163195708e-13 -7.909958902067512621e-14 -1.395942416564446842e-13
4.211000000000000000e+03 6.395494079589843750e+01 3.890591859817504883e+00 -4.781766955595963264e-14 2.525766190164882574e-14 -6.768002465699831521e-15 -1.317644181698246486e-13
4.212000000000000000e+03 6.913262939453125000e+01 -2.148622894287109375e+01 -1.284204676193362316e-13 -4.782336093973882374e-13 -1.819962231050173407e-13 -6.854962425603336462e-14
4.213000000000000000e+03 1.866873359680175781e+01 -3.238281250000000000e+01 -5.779744223369590039e-14 3.824009861476580785e-15 -1.619203089751192204e-14 4.244411286736908540e-14
4.214000000000000000e+03 1.760266876220703125e+01 -3.102757072448730469e+01 -6.638941241372819935e-14 7.448702706068857649e-14 2.429284563494702592e-15 1.124980778021214545e-13
4.215000000000000000e+03 4.778704452514648438e+01 -7.048633575439453125e+00 -2.849035298044949593e-14 -1.723384754131682128e-13 -6.024864716283259702e-14 -6.325062001932835187e-14
4.216000000000000000e+03 6.680360412597656250e+01 -1.068622970581054688e+01 6.471609967346027628e-15 -2.946076271392178425e-13 -8.644080324573741314e-14 -2.502367413216750880e-14
4.217000000000000000e+03 6.596976470947265625e+01 -1.048163318634033203e+01 -3.968786426887180308e-14 -2.000128849436594303e-13 -7.191022408613301220e-14 5.531220690887031499e-14
4.218000000000000000e+03 2.953334045410156250e+01 -6.962732315063476562e+00 1.639349768401635737e-14 -1.302270601468216715e-13 -3.415006789180864699e-14 1.599540541252081338e-13
4.219000000000000000e+03 5.205410385131835938e+01 -3.218961715698242188e+01 -1.035030215831497791e-13 -1.587358039066219528e-13 -7.867164764693151957e-14 4.273962911013895472e-14
4.220000000000000000e+03 5.487665939331054688e+01 -3.435855865478515625e+01 -9.493153604791387812e-14 -8.643589045464333820e-14 -5.441022862839352270e-14 1.333155455604181916e-13
4.221000000000000000e+03 2.538469123840332031e+01 -6.929934024810791016e+00 5.941554621349473542e-14 -2.490418895412238598e-13 -5.688789825493423269e-14 5.980684155380833200e-14
4.222000000000000000e+03 2.729842376708984375e+01 -5.876109600067138672e+00 -1.109434538595216457e-13 -1.962377742942278402e-13 -9.215436573561941458e-14 1.132894437440822022e-13
4.223000000000000000e+03 2.782134437561035156e+01 -6.486721515655517578e+00 -1.788505189217678981e-13 -1.767304293361082745e-13 -1.066742858326155674e-13 7.468559191231571859e-14
4.224000000000000000e+03 6.861386108398437500e+01 7.866792201995849609e+00 -6.784927708645277500e-14 -1.205801544766973987e-13 -5.652883082419776772e-14 3.497774274808639755e-15
4.225000000000000000e+03 6.944371032714843750e+01 1.164603710174560547e+01 -4.374657848970307794e-14 -1.102504318308689113e-13 -4.619910140210570226e-14 -7.059871892818592176e-14
4.226000000000000000e+03 5.005654907226562500e+01 -1.976606607437133789e+00 7.523250075756708621e-15 9.472614749886365537e-14 3.067482045823223535e-14 6.003026851650328233e-14
4.227000000000000000e+03 6.901033782958984375e+01 1.096628570556640625e+01 -2.334967868334409877e-15 -2.297554507757482156e-13 -6.962712470384019303e-14 -6.512913834952989076e-15
4.228000000000000000e+03 3.560528945922851562e+01 -1.459905719757080078e+01 -1.231241264542173863e-13 -7.016532520336083920e-15 -3.904219815823416206e-14 8.882252436814494501e-14
4.229000000000000000e+03 3.520553970336914062e+01 -1.399181842803955078e+01 -2.316062109892352838e-13 -5.350885004724338645e-14 -8.553451864975677998e-14 1.056525337052652280e-13
4.230000000000000000e+03 3.915685653686523438e+01 -2.170795440673828125e+01 5.117271962618887005e-14 2.193116531207153080e-14 2.193116531207153080e-14 -1.295653173508451439e-13
4.231000000000000000e+03 2.277258110046386719e+01 -6.097314834594726562e+00 5.075543392692172251e-15 -1.808285644703047645e-13 -5.272590700091013549e-14 1.091152501334199595e-15
4.232000000000000000e+03 2.132244300842285156e+01 -5.574843406677246094e+00 -5.789990611525935860e-14 2.496914350627599255e-13 5.753746410526103250e-14 -1.213564838897784881e-13
4.233000000000000000e+03 4.449142837524414062e+01 -1.399549770355224609e+01 1.466926047592655852e-14 6.286826341770712992e-15 6.286826341770712992e-15 -1.988111145980950289e-13
4.234000000000000000e+03 3.389190292358398438e+01 -6.925122261047363281e+00 1.924653334926459958e-13 1.053606190465870840e-13 8.934778643939628173e-14 1.266527437397343969e-13
4.235000000000000000e+03 1.790174865722656250e+01 -6.023293018341064453e+00 -2.235685357817544100e-14 1.329396611375469398e-14 -2.718866281677871470e-15 -1.029414048578022878e-13
4.236000000000000000e+03 4.460407257080078125e+01 -2.176429557800292969e+01 1.286011054421512100e-15 -2.510790783182698105e-13 -7.493791963917098564e-14 -1.428605599432513501e-14
4.237000000000000000e+03 3.851416397094726562e+01 -6.193124294281005859e+00 1.428225789858964673e-14 9.762286465320180184e-14 3.357153761257038183e-14 -5.373589553468900715e-14
4.238000000000000000e+03 3.809710693359375000e+01 -1.868740653991699219e+01 -3.864731139822420725e-14 -4.511971579777146468e-13 -1.469533316648258259e-13 1.567388525827023704e-13
4.239000000000000000e+03 3.781161499023437500e+01 -1.771317672729492188e+01 -3.674553269625811802e-14 -2.902537693701134902e-13 -9.809979163635101918e-14 1.758072853963454918e-13
4.240000000000000000e+03 6.620636749267578125e+01 -2.801637268066406250e+01 -1.799583499253500085e-14 -4.344830701816237983e-13 -1.357436705358081031e-13 -1.343591308090169578e-13
4.241000000000000000e+03 6.670225524902343750e+01 -2.747951126098632812e+01 5.161437954554620733e-14 -1.151324044781909528e-13 -1.905540544691435023e-14 -6.866480718433279340e-14
4.242000000000000000e+03 1.466284275054931641e+01 -3.017081451416015625e+01 -1.287987728623707362e-13 -1.467013766324673507e-13 -8.265004620370414168e-14 7.660844479400949480e-14
4.243000000000000000e+03 5.772847366333007812e+01 -5.236573696136474609e+00 -1.072304612183098971e-13 8.557806291950922906e-14 -6.495719489640200406e-15 -8.258943930226220198e-14
4.244000000000000000e+03 5.624225997924804688e+01 -6.744194984436035156e+00 -1.966637708803245510e-13 2.073778296437719937e-13 3.214214749122212139e-15 1.689305433819759950e-13
4.245000000000000000e+03 4.422169494628906250e+01 -1.487359046936035156e+01 -1.712206799139946028e-14 -2.360927751042518619e-13 -7.596444903234383927e-14 1.799771540567790540e-14
4.246000000000000000e+03 6.641445159912109375e+01 6.306845188140869141e+00 8.471081637800165209e-14 -1.009482143601685145e-13 -4.871219564056648160e-15 -1.601777927960276737e-13
4.247000000000000000e+03 7.001503753662109375e+01 1.109986591339111328e+01 -8.308529238958486940e-14 -2.586438550312986084e-13 -1.025187421933859699e-13 5.734154199642932381e-14
4.248000000000000000e+03 4.900020980834960938e+01 -2.153934240341186523e+00 -8.235959521795885308e-14 -8.104792065342231178e-14 -4.902225205090891824e-14 -2.025037411791229952e-14
4.249000000000000000e+03 4.902639770507812500e+01 -6.041889190673828125e+00 -9.188451459115135056e-14 -1.766319295687379665e-13 -8.055493392559315291e-14 -6.183196180542180342e-14
4.250000000000000000e+03 6.435652923583984375e+01 -1.009570026397705078e+01 5.335491874973886245e-15 -2.058883493110796187e-14 -4.576003170950106863e-15 9.356811115843188809e-14
4.251000000000000000e+03 6.257784652709960938e+01 -7.063064098358154297e+00 -4.877611444083218561e-14 1.620997444346655714e-13 3.399709035340273133e-14 -6.336885226623789613e-14
4.252000000000000000e+03 3.584186553955078125e+01 -2.999632644653320312e+01 -5.469574988238579127e-14 -1.149429265960219548e-13 -5.089160294352232383e-14 -2.981705390947032852e-14
4.253000000000000000e+03 2.623492240905761719e+01 -3.375919342041015625e+01 -1.091566819030019564e-13 -9.253238637558364177e-14 -6.050672116120203725e-14 -1.004463591973816031e-14
4.254000000000000000e+03 4.836547470092773438e+01 -2.759779453277587891e+00 -1.208573307620933179e-13 -2.347998098034542735e-13 -1.066971421696642774e-13 -3.896056789904137063e-15
4.255000000000000000e+03 5.021940231323242188e+01 -9.460838437080383301e-01 2.112184396569488642e-14 -1.339195003806012418e-13 -3.383929489159283321e-14 1.067941579353109960e-13
4.256000000000000000e+03 3.493854904174804688e+01 -7.302589416503906250e+00 1.066863137004665785e-13 -1.144056095518652949e-13 -2.315789136584441195e-15 3.245730303990702892e-14
4.257000000000000000e+03 7.630294036865234375e+01 -1.912077522277832031e+01 -2.023878704600703959e-13 -2.239905038791539793e-13 -1.279135082360091658e-13 -1.140416699876162232e-13
4.258000000000000000e+03 9.331877708435058594e+00 -2.085480499267578125e+01 2.971317463585200838e-15 -1.588549035152694855e-13 -4.676507526493386968e-14 -6.219824595686887503e-14
4.259000000000000000e+03 4.356504440307617188e+01 -1.454546356201171875e+01 -1.038200575449775911e-14 -4.449431037641896763e-15 -4.449431037641896763e-15 -1.300311583667806969e-13
4.260000000000000000e+03 3.942427873611450195e+00 -1.949533462524414062e+01 -1.038246095000361358e-13 1.254687034878219226e-15 -3.077097563840454353e-14 7.488077540841742152e-14
4.261000000000000000e+03 9.194025993347167969e+00 -1.914911270141601562e+01 5.163318028884346378e-14 -1.379998139415875014e-13 -2.590999077344956908e-14 -2.591910145983023633e-14
4.262000000000000000e+03 9.254972457885742188e+00 -1.999417304992675781e+01 -8.643646643704747112e-14 -5.991967311864618284e-14 -4.390684051145538058e-14 -7.279296116617997581e-14
4.263000000000000000e+03 5.839067077636718750e+01 2.208669632673263550e-01 -1.239345675781503009e-13 -1.217412401357392815e-13 -7.370274231416687472e-14 -3.684194537444639150e-14
4.264000000000000000e+03 5.876737976074218750e+01 -4.045271873474121094e-01 -1.850811170989175025e-13 -1.250714348711642887e-13 -9.304576288051910615e-14 -3.624876142522062694e-14
4.265000000000000000e+03 4.961413192749023438e+01 -3.037939262390136719e+01 -2.550793506538723276e-13 -2.294159599704886920e-13 -1.453485904768028747e-13 5.668412245661558213e-14
4.266000000000000000e+03 3.642285156250000000e+01 -1.573043823242187500e+01 -1.430735277431136043e-13 2.446580129244688151e-14 -3.558231929045273245e-14 1.052421767355066207e-13
4.267000000000000000e+03 3.659024047851562500e+01 -1.472191047668457031e+01 -2.068836773986074129e-13 -4.291348431662879437e-14 -7.493914614287860987e-14 2.024718249776704532e-14
4.268000000000000000e+03 4.408963394165039062e+01 -2.285908317565917969e+01 -6.154137360033905962e-15 -1.627658104868048849e-13 -5.067598223646926914e-14 7.443899690444746864e-14
4.269000000000000000e+03 9.693262100219726562e+00 -1.667583465576171875e+01 9.642915128503168343e-14 -1.874279675689524693e-13 -2.729964319111034127e-14 4.139520486372977315e-14
4.270000000000000000e+03 1.845268058776855469e+01 -3.406018447875976562e+01 -8.396720954173889084e-14 -3.598594743047835165e-14 -3.598594743047835165e-14 4.983286258143128367e-14
4.271000000000000000e+03 3.422472000122070312e+01 -7.560748100280761719e+00 -7.245711599072543474e-14 -9.967947420166239914e-14 -5.164097638008999236e-14 9.953693549729844547e-14
4.272000000000000000e+03 1.238317966461181641e+01 -2.659389305114746094e+01 3.934096023125790986e-14 -3.033962241594939657e-13 -7.921658121134989017e-14 1.667378393558141547e-13
4.273000000000000000e+03 4.477170562744140625e+01 -1.313297653198242188e+01 -1.391798189285392562e-13 -1.053994402606256431e-13 -7.337377504624403857e-14 -4.824310032404757753e-14
4.274000000000000000e+03 5.949349212646484375e+01 1.500698029994964600e-01 -5.150575604039031585e-14 6.942800419859965211e-14 5.376674616869390327e-15 -4.819386738102136858e-14
4.275000000000000000e+03 4.370384979248046875e+01 -2.087339973449707031e+01 7.476025278441850164e-14 -5.946178743615124218e-14 4.589540027996651464e-15 3.586281594500188852e-14
4.276000000000000000e+03 4.391366195678710938e+01 -2.188969230651855469e+01 -2.145761324699735351e-13 -3.207159472891352170e-13 -1.605876212172271944e-13 5.234832004181490250e-14
4.277000000000000000e+03 5.744452667236328125e+01 -3.468249893188476562e+01 -1.092482698815226694e-13 8.013372815784611247e-14 -8.734363194729324875e-15 3.289041131462888679e-14
4.278000000000000000e+03 5.845886230468750000e+01 -3.353892135620117188e+01 -1.483562757234949125e-13 2.337999043498795171e-13 2.563309062079445477e-14 8.776741269519994226e-14
4.279000000000000000e+03 2.129689025878906250e+01 -7.842748165130615234e+00 -4.888342335085393842e-14 2.764311403478242335e-13 6.826430967808022610e-14 -6.433987728444306997e-14
4.280000000000000000e+03 4.505876922607421875e+01 -2.649283218383789062e+01 -1.738281285405818277e-13 -2.575015667274221931e-13 -1.293989058698957750e-13 -4.922061361462871931e-14
4.281000000000000000e+03 3.679458999633789062e+01 -2.988559150695800781e+01 2.290679988357566255e-14 -3.593374987213675265e-14 -3.908084657755148128e-15 -1.230977532363716764e-13
4.282000000000000000e+03 3.611112976074218750e+01 -2.804248809814453125e+01 2.201160464294048269e-14 -2.650721439220737885e-13 -7.291815941204773943e-14 -1.239506137703030864e-13
4.283000000000000000e+03 4.719704818725585938e+01 -8.699631690979003906e+00 -1.782908300434083576e-14 -1.448938760856624541e-13 -4.881689060691300763e-14 1.807744492293705818e-14
4.284000000000000000e+03 4.789168930053710938e+01 -7.855200767517089844e+00 -7.512917967866100666e-14 3.642820366103055596e-14 -1.161029416054185082e-14 1.451405185273757503e-13
4.285000000000000000e+03 5.441249465942382812e+01 -1.480112075805664062e+00 -7.573574336032160015e-14 8.191919907175881921e-14 1.855035612288334287e-15 -1.425747947437702723e-13
4.286000000000000000e+03 2.618453598022460938e+01 -3.505722808837890625e+01 -5.796566297702060444e-14 -4.771789923916844312e-14 -3.170507002010942987e-14 4.080866504094227132e-14
4.287000000000000000e+03 4.673880386352539062e+01 -1.019261550903320312e+01 -7.144495227633801404e-14 -1.678721181161413334e-13 -7.179512247299651984e-14 -7.949293079258928918e-14
4.288000000000000000e+03 4.610857391357421875e+01 -9.900650978088378906e+00 2.963407785220445456e-14 -3.075563350003751584e-13 -8.337667172344034872e-14 -3.410585954822555055e-14
4.289000000000000000e+03 7.050260925292968750e+01 1.453985404968261719e+01 -1.734391845637298091e-13 1.601425426728947388e-13 -3.988992821360405269e-15 1.977584084987202284e-13
4.290000000000000000e+03 2.115554046630859375e+01 -3.303924560546875000e+01 -1.596204044591528759e-13 3.453089051676239141e-14 -3.752685282746442974e-14 8.191076939986774441e-14
4.291000000000000000e+03 1.921213912963867188e+01 -9.899036407470703125e+00 5.791833755219161217e-14 -6.667974820299266137e-14 -2.628423279943609484e-15 -5.943216838805165381e-14
4.292000000000000000e+03 2.636964607238769531e+01 -5.533164978027343750e+00 -1.221520849964755073e-13 6.202648122769285899e-14 -1.803768011419525780e-14 6.542440471758032006e-14
4.293000000000000000e+03 4.147309494018554688e+01 -2.741191482543945312e+01 -2.112536254055778079e-14 -2.835594172662103674e-13 -9.140543275618431829e-14 2.958578680981559239e-14
4.294000000000000000e+03 6.970906829833984375e+01 -1.589956951141357422e+01 -3.912863617643556891e-14 -5.657808206313563737e-13 -1.814728245062499634e-13 4.094718880913623960e-14
4.295000000000000000e+03 4.438662719726562500e+01 -2.493088722229003906e+01 -8.439322645662633571e-14 -4.250515954831723953e-13 -1.528334479371923349e-13 5.128450764643570359e-14
4.296000000000000000e+03 1.598635005950927734e+01 -3.090320014953613281e+01 -3.110337508382965410e-14 -1.391451244590197200e-13 -5.107455189573388565e-14 7.335399513285975615e-14
4.297000000000000000e+03 4.540070724487304688e+01 -1.144815731048583984e+01 -5.662865196296579251e-14 2.148152634235105801e-14 -1.054413802499759925e-14 -1.080469874269358865e-13
4.298000000000000000e+03 1.220383262634277344e+01 -1.098701286315917969e+01 2.750494026060226055e-14 3.466330548334076167e-14 1.865047457021585392e-14 -3.342916153853230099e-14
4.299000000000000000e+03 6.861389160156250000e+01 9.063676834106445312e+00 2.584666404921399582e-15 -1.818960834818611483e-13 -5.379342601246651923e-14 5.096437323808683528e-14
4.300000000000000000e+03 6.910402679443359375e+01 9.774035453796386719e+00 -1.398782246986047390e-14 -5.994780816502218168e-15 -5.994780816502218168e-15 -3.229292782616285939e-14
4.301000000000000000e+03 6.839601898193359375e+01 -1.073922061920166016e+01 1.479698796217482348e-13 -5.542221412704884109e-13 -1.218756812051274840e-13 2.586068329152400175e-14
4.302000000000000000e+03 6.845207977294921875e+01 -1.161225128173828125e+01 5.545369868051146234e-14 -1.821133982548087116e-13 -3.799791156635506928e-14 7.722466465126878732e-14
4.303000000000000000e+03 2.179953765869140625e+01 -6.458885192871093750e+00 -1.741107122843130184e-13 -1.661207792418711859e-13 -1.020694420368443989e-13 -1.733966431809869091e-13
4.304000000000000000e+03 6.116143035888671875e+01 -3.151659202575683594e+01 -2.083359526561245900e-14 1.855128464040012304e-13 4.940377601914298922e-14 -2.917244150781907186e-14
4.305000000000000000e+03 3.980974578857421875e+01 -6.025019168853759766e+00 1.611373794813131255e-13 2.063117200950398411e-13 1.102347312281586056e-13 -3.914629257822108480e-15
4.306000000000000000e+03 5.552262878417968750e+01 -4.690094947814941406e+00 -2.072794925067275584e-13 -1.574604975487087222e-13 -1.094219997271363154e-13 -9.180113266782363723e-14
4.307000000000000000e+03 5.535534286499023438e+01 -5.712819576263427734e+00 -9.336793355607317380e-14 -8.576577897314793808e-14 -5.374011375876633356e-14 -1.126721125795961120e-13
4.308000000000000000e+03 1.019389629364013672e+01 -2.362185287475585938e+01 -3.196863618010886698e-14 -3.110820249400264581e-13 -1.029151942702824507e-13 -3.362098400789929886e-14
4.309000000000000000e+03 3.685071563720703125e+01 -2.803248977661132812e+01 -1.574173801835616893e-14 -2.355012072938894585e-13 -7.537288122198143592e-14 -2.929874428465005509e-14
4.310000000000000000e+03 7.056565856933593750e+01 1.056566333770751953e+01 1.654192326736372842e-14 -2.216653510050958786e-13 -6.153702493318785605e-14 3.992443379477635113e-14
4.311000000000000000e+03 6.008319473266601562e+01 -3.171577262878417969e+01 -2.965893318700868475e-14 1.931683030762312847e-13 4.905280961151406438e-14 4.042098483724755609e-14
4.312000000000000000e+03 3.361453247070312500e+01 -3.161155128479003906e+01 -6.939752456502565336e-14 -6.866322238568848060e-15 -2.287915442224317669e-14 4.123963201637347031e-14
4.313000000000000000e+03 6.959715270996093750e+01 -1.310869503021240234e+01 4.829157771368483565e-14 -4.596885480774581811e-13 -1.234190972077692239e-13 2.377547452263231026e-14
4.314000000000000000e+03 3.040811347961425781e+01 -3.418966674804687500e+01 -4.411032493044017566e-14 -7.609310994889997848e-14 -3.606103181905476185e-14 -6.270805137089871528e-14
4.315000000000000000e+03 1.186660766601562500e+01 -1.150762557983398438e+01 -6.261515557350744166e-14 -7.258601407650680515e-14 -4.056035225025698965e-14 -2.682388003123065134e-14
4.316000000000000000e+03 1.152556419372558594e+01 -1.200686645507812500e+01 6.695236406300056342e-14 -8.568350158078344436e-14 -5.619342356477695713e-15 6.159332213099416586e-15
4.317000000000000000e+03 3.949764633178710938e+01 -2.325416946411132812e+01 -3.513609894570737802e-14 -1.065602277640700923e-13 -4.250889733530688330e-14 1.459749899760222694e-15
4.318000000000000000e+03 4.414777374267578125e+01 -3.449222564697265625e+00 -8.271145948051186747e-14 -4.472063182010127536e-13 -1.589753312715783129e-13 -1.456857366948643984e-14
4.319000000000000000e+03 9.170166015625000000e+00 -1.834455299377441406e+01 6.320857330382664840e-14 -1.866156053742951820e-14 1.336410467695208631e-14 -3.989875853207917877e-14
4.320000000000000000e+03 7.076998901367187500e+01 -1.449601459503173828e+01 2.848950933563403065e-14 -1.021675826622450711e-13 -2.210342132035695434e-14 5.470686295465376769e-14
4.321000000000000000e+03 3.682433700561523438e+01 -2.892928886413574219e+01 -3.083581092831917669e-14 -1.275927199182250171e-13 -4.752856027040279485e-14 -1.362965729861942421e-13
4.322000000000000000e+03 3.449140548706054688e+01 -8.184490203857421875e+00 -2.497811561806648900e-14 -1.479577501099435533e-13 -5.188076124306231773e-14 9.043935441039110956e-14
4.323000000000000000e+03 6.985103607177734375e+01 -1.394045543670654297e+01 4.757469984910563110e-14 -2.083655920330149125e-13 -4.823726596110688991e-14 1.459407139407786769e-13
4.324000000000000000e+03 1.023726654052734375e+01 -2.268753433227539062e+01 -2.050461173465703557e-13 -2.251297564169474352e-13 -1.290527607738026217e-13 1.042417020757913093e-13
4.325000000000000000e+03 1.065175247192382812e+01 -2.598593711853027344e+01 -3.885075515962753412e-14 -1.081522228003027608e-13 -4.410089237153955177e-14 -5.668015495429064299e-14
4.326000000000000000e+03 6.765120697021484375e+01 -9.914566993713378906e+00 1.142278393590932459e-14 -4.754894936988274257e-13 -1.392200157240841563e-13 1.076128661008091125e-13
4.327000000000000000e+03 7.073781585693359375e+01 -1.723153686523437500e+01 -5.978253509635392260e-14 -3.001267854033096150e-13 -1.079727941170199879e-13 8.901775529809169418e-14
4.328000000000000000e+03 7.055841064453125000e+01 -1.643055915832519531e+01 -2.134235205285359843e-14 -4.666562275490448997e-13 -1.463995754052288545e-13 -2.240019964221823257e-14
4.329000000000000000e+03 7.003052520751953125e+01 1.485496902465820312e+01 -1.032391606556846975e-13 -2.730001012578309183e-13 -1.128717819621864737e-13 1.224391546266953568e-13
4.330000000000000000e+03 7.040382385253906250e+01 1.371615982055664062e+01 -1.342589776333336093e-13 1.998095292736826178e-13 1.966516244278609243e-14 9.684545103794822696e-14
4.331000000000000000e+03 3.808258819580078125e+01 -2.642222976684570312e+01 6.434592086452172940e-15 -1.344951575240824204e-13 -3.841817204533297392e-14 -2.324106364851767983e-15
4.332000000000000000e+03 9.692978858947753906e+00 -1.530397129058837891e+01 5.418484671365630945e-14 -3.313477693177996342e-13 -8.314888084700114423e-14 2.559805564403012240e-14
4.333000000000000000e+03 4.424560928344726562e+01 -2.385360336303710938e+01 -2.070512272918378915e-13 -2.259890815063322900e-13 -1.299120994157146325e-13 1.151957354375912623e-13
4.334000000000000000e+03 4.012985992431640625e+01 -2.720386886596679688e+01 -6.884314488917950281e-14 -3.955118025623927114e-13 -1.393064808473398752e-13 8.533586570670312343e-14
4.335000000000000000e+03 4.434499359130859375e+01 -2.998796701431274414e+00 4.567824051404829888e-14 1.568292343863061933e-13 6.075224551942495776e-14 8.329205652014143313e-14
4.336000000000000000e+03 4.273945236206054688e+01 -3.430769681930541992e+00 6.767724215376658484e-15 -2.258542880712380296e-13 -6.572596877559358508e-14 -2.116418883679402341e-13
4.337000000000000000e+03 9.386291503906250000e+00 -2.259903144836425781e+01 3.817129243439444652e-14 -2.810220318168882292e-13 -7.285522147593495590e-14 -4.427863037705960514e-14
4.338000000000000000e+03 6.136837005615234375e+01 -3.442543029785156250e+01 -1.191784843555809825e-13 9.761408939186824729e-14 -6.469316202124862983e-15 -6.425721364505462829e-14
4.339000000000000000e+03 6.009172821044921875e+01 -3.284270477294921875e+01 -9.868061229267865997e-14 1.178366350893314540e-13 5.746803874380522828e-15 -2.043036692513794383e-14
4.340000000000000000e+03 3.918742370605468750e+01 -2.012594223022460938e+01 3.873809300137913414e-14 8.522846192899127815e-14 3.718996749555066039e-14 9.705745322025061128e-14
4.341000000000000000e+03 5.390306472778320312e+01 -4.867091655731201172e+00 8.987495264071304613e-14 8.426878715227931194e-14 5.224312193789770742e-14 -1.311693402549288234e-13
4.342000000000000000e+03 5.491384887695312500e+01 -5.125432968139648438e+00 5.361040929761917706e-14 -2.277505915522330671e-14 9.250606059158297811e-15 -7.870594231689995168e-14
4.343000000000000000e+03 6.514762115478515625e+01 -1.027897834777832031e+01 7.563262218119107261e-15 -4.250955124474216362e-14 -1.048388603036055911e-14 -9.689788576551505717e-14
4.344000000000000000e+03 6.382470703125000000e+01 -9.205309867858886719e+00 4.872449625302650855e-14 1.581347764323046134e-13 6.205778078915979989e-14 7.364030582155886573e-14
4.345000000000000000e+03 3.421917343139648438e+01 -3.077409934997558594e+01 1.881466428374457475e-15 8.063427020780654288e-16 8.063427020780654288e-16 -5.277500103053299474e-14
4.346000000000000000e+03 3.595696640014648438e+01 -3.121532440185546875e+01 -4.422884516855178638e-14 -1.104571146462625386e-13 -4.640578760563111860e-14 -6.055998259292538766e-14
4.347000000000000000e+03 9.532883644104003906e+00 -1.593785572052001953e+01 3.024338253248236297e-14 -3.301706781241864341e-13 -8.997818224006082222e-14 -5.505441412543936319e-15
4.348000000000000000e+03 2.938424873352050781e+01 -1.240585708618164062e+01 1.835291358991131272e-14 5.361648421791688490e-14 2.159081900353528038e-14 1.426084490568305801e-14
4.349000000000000000e+03 4.994694900512695312e+01 -3.196822357177734375e+01 -6.421015249450517937e-14 -1.190205296515770006e-13 -5.496920599907736960e-14 9.049233123904418252e-14
4.350000000000000000e+03 4.825139236450195312e+01 -3.248876953125000000e+01 -6.685213634841785657e-14 -1.887792358415754657e-13 -7.668941436750342788e-14 8.694271431269884332e-14
4.351000000000000000e+03 7.676007843017578125e+01 -3.631477737426757812e+01 -3.926663139607045050e-14 -6.802173299451375055e-13 -2.158451775603406619e-13 -2.863821782798578464e-14
4.352000000000000000e+03 7.630906677246093750e+01 -4.171449661254882812e+01 -4.678468238359691223e-14 -4.661223121892044130e-13 -1.538721000659062921e-13 -4.585164171087841023e-14
4.353000000000000000e+03 3.462124252319335938e+01 -3.227111816406250000e+01 -3.392134189099567376e-14 8.337756110803496573e-15 -7.675076496387305686e-15 -3.183986345520369021e-14
4.354000000000000000e+03 3.368988752365112305e+00 -3.894358444213867188e+01 -4.669341119539847235e-15 -1.392539919096644208e-13 -4.317699965465139622e-14 -4.821308147639688513e-15
4.355000000000000000e+03 2.705102920532226562e+00 -4.010768890380859375e+01 -2.082535532910156917e-14 -1.004270519283818885e-13 -3.637572149961867951e-14 4.959429066963942645e-14
4.356000000000000000e+03 7.520481109619140625e+01 -3.685782241821289062e+01 -5.517357810859088718e-14 -4.811553174118021747e-13 -1.608986652679861296e-13 -5.739957391771161044e-14
4.357000000000000000e+03 7.595529937744140625e+01 -4.014591979980468750e+01 9.660196464099640029e-15 -4.076184648062891602e-13 -1.193874778768547196e-13 -3.133728492627982365e-14
4.358000000000000000e+03 7.709857940673828125e+01 1.415400791168212891e+01 7.317424796518881558e-14 -2.888962398299443901e-13 -6.471659688180031456e-14 1.394363547150764826e-13
4.359000000000000000e+03 7.176206207275390625e+01 1.480041408538818359e+01 -2.864209385075242031e-14 -2.410299336421534155e-13 -8.090160757024539295e-14 -3.383655389297551830e-14
4.360000000000000000e+03 7.135155487060546875e+01 1.443070411682128906e+01 -5.338466146464874995e-14 1.143737069029399089e-13 1.829671295386098989e-14 2.889991035110589523e-14
4.361000000000000000e+03 4.726522064208984375e+01 -2.781550884246826172e+00 -8.866433249491573187e-14 5.350290048782187224e-14 -1.054842909390838954e-14 9.879866835673517533e-14
4.362000000000000000e+03 5.032985305786132812e+01 -2.647038221359252930e+00 -1.558843250879307640e-13 -2.269358881585095689e-13 -1.148460666844375311e-13 -8.250270312846336163e-14
4.363000000000000000e+03 7.719350433349609375e+01 1.562326240539550781e+01 5.982922355240657963e-14 -3.403664882491858057e-13 -8.416118008666012562e-14 7.636995419738057400e-14
4.364000000000000000e+03 1.038066959381103516e+01 -5.616674423217773438e+00 5.569690216845890607e-14 -1.133827461172881579e-13 -1.730575216820923884e-14 9.584795115794367271e-14
4.365000000000000000e+03 1.109051609039306641e+01 -5.685426712036132812e+00 -4.517852241538731009e-15 -9.343812209421445414e-14 -2.938679166545124510e-14 -4.762821200258136878e-14
4.366000000000000000e+03 5.083517837524414062e+01 -6.848203659057617188e+00 -2.202804995701801438e-13 -4.865497856497945361e-14 -8.068064716749284715e-14 3.624489556684935831e-14
4.367000000000000000e+03 5.150337600708007812e+01 -6.596654891967773438e+00 5.318922047053108171e-14 -2.059593679415092082e-13 -4.583104186960118565e-14 -1.333630759672204194e-14
4.368000000000000000e+03 2.275287437438964844e+01 -1.155107593536376953e+01 8.161197683365789546e-14 -3.310310196531079940e-13 -7.482571149058231397e-14 4.457848004038762746e-14
4.369000000000000000e+03 7.229915618896484375e+01 1.436702632904052734e+01 -2.013236040550314687e-13 -1.193625361446898694e-14 -6.397795704674025252e-14 -1.264975537512702530e-13
4.370000000000000000e+03 6.606028747558593750e+01 -9.616016387939453125e+00 6.673558461487566484e-14 -6.290093093738388652e-14 1.150395785610178277e-15 -5.159305210296729130e-15
4.371000000000000000e+03 7.090863800048828125e+01 1.405814838409423828e+01 -1.281947638320790617e-13 -4.636231109851444987e-14 -5.236712078511215895e-14 6.353510789312497020e-14
4.372000000000000000e+03 3.470208358764648438e+01 -1.344993591308593750e+01 -1.288774605291047662e-14 -3.372176940897447794e-13 -1.050316314498735137e-13 -3.316682865850406614e-14
4.373000000000000000e+03 5.223241043090820312e+01 -2.043987751007080078e+00 1.181245297296419292e-14 -1.550658473153943007e-13 -4.297601567692689584e-14 -6.452317521422890056e-14
4.374000000000000000e+03 2.671158409118652344e+01 -6.861473560333251953e+00 -3.704279043876754218e-14 -2.446302166912717180e-13 -8.450190417189085146e-14 1.962014264163952637e-13
4.375000000000000000e+03 7.312892913818359375e+01 1.475700092315673828e+01 5.402579086682089693e-14 -2.513517822697042270e-13 -5.919779775967817792e-14 -6.198872388703605130e-14
4.376000000000000000e+03 2.904662513732910156e+01 -7.588525295257568359e+00 -9.872633174303965808e-14 -1.338131808050618821e-13 -6.976185715256225106e-14 4.067150668985927697e-14
4.377000000000000000e+03 3.618025970458984375e+01 -1.417542839050292969e+01 -9.390155076031622694e-14 -1.088699443096974306e-13 -6.083144648812502386e-14 2.622709280384726699e-14
4.378000000000000000e+03 3.518065643310546875e+01 -7.958982944488525391e+00 -3.939466212011383250e-14 7.461847302157528783e-14 1.056714259281207879e-14 4.317698949025602917e-14
4.379000000000000000e+03 7.518540954589843750e+01 1.517933464050292969e+01 1.128696406628958149e-13 -3.176348886604202226e-13 -6.142957372163096452e-14 1.287501734999890735e-13
4.380000000000000000e+03 5.892218399047851562e+01 -6.934363842010498047e+00 -9.924407216171937662e-14 3.217776099148942845e-15 -2.880788869171618805e-14 -8.588395700994885806e-14
4.381000000000000000e+03 3.846533966064453125e+01 -1.805597305297851562e+01 -3.573073979160241997e-14 3.043777320574543588e-14 -1.587889996932918910e-15 1.417537826486556241e-13
4.382000000000000000e+03 6.327555465698242188e+01 -8.067919731140136719e+00 2.100029304369799982e-14 7.762655129155485167e-14 2.958805346998244490e-14 3.074253904829932216e-14
4.383000000000000000e+03 4.165964508056640625e+01 -3.903222799301147461e+00 1.036696837858515352e-14 -2.243117529828614343e-13 -6.418343368721698972e-14 8.742177073667745796e-15
4.384000000000000000e+03 6.246239852905273438e+01 -7.919681549072265625e+00 -3.458864122310618960e-14 -1.482370338133122412e-14 -1.482370338133122412e-14 -9.779441254194332078e-14
4.385000000000000000e+03 1.181240558624267578e+01 -5.745024204254150391e+00 3.347834365958167469e-14 -1.229049820901037537e-13 -2.682799152915662372e-14 2.630049498499043015e-14
4.386000000000000000e+03 6.439191436767578125e+01 3.274930238723754883e+00 -3.998561667862242375e-14 1.717651865738075573e-14 -6.842728982856026779e-15 -1.764089430631755884e-14
4.387000000000000000e+03 6.604381561279296875e+01 -2.916986083984375000e+01 -1.278710481684292022e-13 -1.777575482642124172e-13 -9.168857892979248581e-14 -4.764055496668875844e-14
4.388000000000000000e+03 7.689262390136718750e+01 1.178096580505371094e+01 3.053509729138495499e-14 -3.071701692915901338e-13 -8.299051956718248024e-14 -7.659485160927195779e-14
4.389000000000000000e+03 7.392491149902343750e+01 1.540908527374267578e+01 4.634486560793280030e-14 6.561303556680206372e-14 3.358737035242045921e-14 6.798952202559556401e-15
4.390000000000000000e+03 3.795540237426757812e+01 -9.233035087585449219e+00 5.437347417474626410e-14 -1.025121895465060107e-13 -1.444161528915428178e-14 -8.369254725013042240e-14
4.391000000000000000e+03 3.661118698120117188e+01 -7.518548011779785156e+00 -3.277732902803864867e-15 1.815990527441815883e-13 5.349639527478695922e-14 -1.248307013312910385e-13
4.392000000000000000e+03 2.069835472106933594e+01 -1.019356727600097656e+01 5.560265450648381458e-14 6.958065986448561113e-14 3.755499465010400661e-14 -8.554983978170671577e-14
4.393000000000000000e+03 1.978470039367675781e+01 -1.080653190612792969e+01 8.401593765312853623e-14 8.175777492080288367e-14 4.973211309455306817e-14 -1.683512948187984581e-13
4.394000000000000000e+03 7.675820827484130859e+00 -4.384507656097412109e+00 -7.959841349957676171e-15 -1.406642136754163164e-13 -4.458721464413971380e-14 6.411709406678803291e-14
4.395000000000000000e+03 3.122925758361816406e+01 -1.236069869995117188e+01 -4.398660052190063452e-14 2.689954887254066701e-14 -5.126115918324463880e-15 8.944563568546309851e-14
4.396000000000000000e+03 3.731740570068359375e+01 -7.293635368347167969e+00 6.043468947936753155e-14 -1.571032122752932803e-13 -2.900055819403044022e-14 -7.979269914075437509e-14
4.397000000000000000e+03 3.712346267700195312e+01 -6.615035533905029297e+00 4.276332570387134102e-14 2.242064091892773114e-13 8.009092250082366915e-14 -1.161246934115039986e-13
4.398000000000000000e+03 4.900154876708984375e+01 -4.575102329254150391e+00 -4.730468946244348327e-15 -3.222839746810923778e-13 -9.810433850921188026e-14 -5.828474367638308840e-14
4.399000000000000000e+03 6.166824340820312500e+01 1.876941472291946411e-01 -4.039498431389863808e-14 2.114426120086373984e-13 5.131428593672937577e-14 -7.327057763414825814e-15
4.400000000000000000e+03 1.761816024780273438e+01 -1.000291156768798828e+01 -4.839046372807909169e-14 2.501217989507326794e-14 -7.013485319308336574e-15 -8.714652738046717306e-15
4.401000000000000000e+03 1.550813007354736328e+01 -9.820485115051269531e+00 -1.212716975858242272e-15 9.098216022804597736e-14 2.693083318741455734e-14 -1.706556716687263053e-13
4.402000000000000000e+03 2.338029479980468750e+01 -1.146779441833496094e+01 6.723650634735470200e-14 -1.999390914332946356e-13 -3.981077552578198009e-14 2.289718605962432624e-14
4.403000000000000000e+03 2.401966285705566406e+01 -9.825430870056152344e+00 2.672580547439986492e-14 1.145391663188565640e-14 1.145391663188565640e-14 1.257111548105122045e-13
4.404000000000000000e+03 1.326760673522949219e+01 -5.175294399261474609e+00 6.417025893675539633e-15 -1.345026927291811947e-13 -3.842570047416817014e-14 -1.523106185445655125e-14
4.405000000000000000e+03 3.486249542236328125e+01 -9.349909782409667969e+00 -9.106366512636257515e-14 -3.902728360209890834e-14 -3.902728360209890834e-14 1.771583097234796789e-13
4.406000000000000000e+03 9.705929756164550781e+00 -5.571386337280273438e+00 3.045358900493656817e-14 -1.699522548517448661e-13 -4.184960077048202609e-14 5.120102407915431975e-14
4.407000000000000000e+03 4.024111270904541016e+00 -5.235333919525146484e+00 -5.161823523952210890e-14 -2.212210009090980617e-14 -2.212210009090980617e-14 3.766566119872867546e-14
4.408000000000000000e+03 1.548383235931396484e+01 -5.614274024963378906e+00 3.110758991977519150e-14 2.878375164085122950e-13 9.568353189848624596e-14 2.102157728759660588e-14
4.409000000000000000e+03 1.252005481719970703e+01 -5.767889499664306641e+00 1.349455893166415232e-13 1.208287332357281182e-14 4.410853599685557458e-14 -3.011178410566514585e-14
4.410000000000000000e+03 1.320374584197998047e+01 -5.796183586120605469e+00 2.387223617839485251e-14 -3.551999121806197202e-14 -3.494326215438604312e-15 1.922282049249962599e-13
4.411000000000000000e+03 2.632756614685058594e+01 -1.123292255401611328e+01 1.418764347134839413e-14 9.758231549195084398e-14 3.353098845131942396e-14 -4.638952796117562505e-14
4.412000000000000000e+03 2.689750671386718750e+01 -1.196529483795166016e+01 1.197630590619308544e-13 7.420249852931048995e-14 5.818966592211968769e-14 5.653859880814550432e-14
4.413000000000000000e+03 7.666100311279296875e+01 -2.951892852783203125e+01 8.005644021305742021e-16 -4.114154492345506453e-13 -1.231844623051162047e-13 1.064469481188031440e-15
4.414000000000000000e+03 7.546614074707031250e+01 -3.078560447692871094e+01 4.523453077495860619e-14 -2.937218339642971854e-13 -7.454619061798839486e-14 -3.043335508189255745e-14
4.415000000000000000e+03 6.937894439697265625e+01 -2.339171981811523438e+01 6.700861382696182700e-14 -4.059160234499981090e-13 -1.016722242421636002e-13 5.138613465944727454e-14
4.416000000000000000e+03 7.364526367187500000e+01 1.501613807678222656e+01 -1.446507166434282676e-13 7.525967696264679319e-14 -2.081731359830033684e-14 6.723716830360298123e-16
4.417000000000000000e+03 7.336895751953125000e+01 1.430387115478515625e+01 -1.111541211178991573e-13 3.242668110479789145e-14 -2.361823132630402194e-14 -2.755218606433421091e-14
4.418000000000000000e+03 2.504345512390136719e+01 -5.365018367767333984e+00 -2.035449581236012384e-13 -8.723355154546807988e-14 -8.723355154546807988e-14 8.221207595986504413e-14
4.419000000000000000e+03 2.910668754577636719e+01 -1.115771293640136719e+01 -6.018253793536529339e-14 1.114603336927269539e-13 1.538333974364803486e-14 2.166285068536978609e-14
4.420000000000000000e+03 6.524856567382812500e+01 5.010150909423828125e+00 -4.681239052536749490e-14 2.568849673994025307e-14 -6.337168050924877824e-15 -1.547764330979764513e-13
4.421000000000000000e+03 6.639218139648437500e+01 5.127829551696777344e+00 -6.367988191743672796e-15 7.161615457563705323e-14 1.957445029633284039e-14 -1.434122053967437638e-13
4.422000000000000000e+03 7.462916564941406250e+01 -3.266195297241210938e+01 4.379777654916691687e-14 -4.215824195817619024e-13 -1.133353868111412754e-13 -5.192477985126522921e-14
4.423000000000000000e+03 7.665602874755859375e+01 -2.796336746215820312e+01 1.232595839631422940e-13 -4.504349096403487129e-13 -9.815259905841464128e-14 4.890642198943778718e-14
4.424000000000000000e+03 7.515792846679687500e+01 -2.461172485351562500e+01 -2.869149620036808013e-14 -3.783039419918976520e-13 -1.220986338293719720e-13 5.149616000413087188e-15
4.425000000000000000e+03 4.251307964324951172e+00 -2.917870521545410156e+01 3.107749653322514072e-14 5.906987545585204447e-14 2.704421193553633446e-14 4.347580238525661223e-14
4.426000000000000000e+03 1.627492713928222656e+01 -5.760338783264160156e+00 -1.319395981358439940e-13 1.208088449021265873e-14 -3.595761248432680079e-14 -9.019348446272570929e-14
4.427000000000000000e+03 7.668860626220703125e+01 -2.239265823364257812e+01 4.596655697676650665e-14 -3.691831183209176581e-13 -9.696496399867401972e-14 4.416906666533226139e-15
4.428000000000000000e+03 7.612893676757812500e+01 -2.312177085876464844e+01 5.305650396022348891e-14 -5.262728729367449620e-13 -1.419649174692200200e-13 9.789054061706131682e-14
4.429000000000000000e+03 7.665483093261718750e+01 -2.715321540832519531e+01 -4.557685405839374815e-14 -5.227933971146958569e-13 -1.705110662039710512e-13 -1.183195522894836538e-13
4.430000000000000000e+03 7.528045654296875000e+01 -2.981249427795410156e+01 1.068468433846302135e-13 -2.744651294434019562e-13 -5.028548649525788061e-14 9.965102914122770522e-15
4.431000000000000000e+03 1.387377357482910156e+01 -5.898358821868896484e+00 -6.008142253025386403e-14 -1.172510710484991892e-13 -5.319975078413134717e-14 6.644756630775489059e-15
4.432000000000000000e+03 1.456655311584472656e+01 -6.085296630859375000e+00 2.586923832429127018e-14 5.683776406885214516e-14 2.481210054853643515e-14 4.973378344352505365e-14
4.433000000000000000e+03 7.669302368164062500e+01 -2.156807708740234375e+01 -1.015038069871951332e-13 -4.552601785140497626e-13 -1.670291915846153219e-13 -2.202119644403519039e-14
4.434000000000000000e+03 7.625177001953125000e+01 8.037271499633789062e+00 1.291287226885123873e-13 -1.734138684430022725e-13 -1.328554152406130270e-14 -5.689056810278397824e-14
4.435000000000000000e+03 7.408046722412109375e+01 -1.873582077026367188e+01 6.015016772425302305e-14 2.903170063088566545e-15 1.891600245852113199e-14 9.751331957619929769e-14
4.436000000000000000e+03 7.696045684814453125e+01 1.097154140472412109e+01 -4.070282319198516296e-14 -2.233233400723150242e-13 -7.920784660759780382e-14 2.228418594400413677e-13
4.437000000000000000e+03 7.637193298339843750e+01 1.030486106872558594e+01 -4.266131837306645289e-15 -3.220849964773869756e-13 -9.790533320045216592e-14 2.722473396894742326e-13
4.438000000000000000e+03 7.601671600341796875e+01 -2.247706031799316406e+01 -2.136231594179402449e-13 -4.575603676330863845e-13 -2.013550594705607044e-13 2.769627314492574544e-14
4.439000000000000000e+03 7.688348388671875000e+01 -1.999502563476562500e+01 -1.263798636054469515e-13 -2.829175424750446366e-13 -1.227892164031366140e-13 -7.429338855268266539e-14
4.440000000000000000e+03 7.691589355468750000e+01 -1.687659835815429688e+01 -1.087385254538650314e-13 -3.211079134795430390e-13 -1.289539357457805679e-13 -5.369193113659471994e-14
4.441000000000000000e+03 7.630833435058593750e+01 -1.761866569519042969e+01 -8.515078561959626979e-14 -3.567498401725599511e-13 -1.325701836718887194e-13 -9.386797437428706647e-14
4.442000000000000000e+03 7.687613677978515625e+01 4.745192527770996094e+00 -4.402566229329621383e-14 -3.391247786060924696e-13 -1.149451356579483940e-13 3.208266172258916749e-13
4.443000000000000000e+03 7.541939544677734375e+01 2.670177459716796875e+00 -2.250976369275875522e-13 -3.252251712295567421e-13 -1.650968451576487195e-13 3.287885100896476009e-13
4.444000000000000000e+03 7.686315917968750000e+01 -1.528566074371337891e+01 -9.304289652102559760e-14 -1.085019457635651163e-13 -6.046345471825628759e-14 -1.920512766829737816e-13
4.445000000000000000e+03 7.564221954345703125e+01 -1.175548839569091797e+01 -1.295342820636577463e-13 -2.385184877298079931e-13 -1.104158268722815750e-13 -2.656324053947056729e-13
4.446000000000000000e+03 7.623439025878906250e+01 -1.187977981567382812e+01 1.790889214269703045e-13 5.387692313227505914e-14 6.988975235133407238e-14 -2.504985253243535021e-14
4.447000000000000000e+03 7.688239288330078125e+01 5.540447235107421875e+00 2.430299986591871048e-14 -2.640901278043450429e-13 -7.193613651805541576e-14 3.057636134844339548e-14
4.448000000000000000e+03 7.618496704101562500e+01 4.118117809295654297e+00 -1.660060028893864392e-13 -4.600284996686410111e-13 -1.878103521226609507e-13 3.491319104480250513e-13
4.449000000000000000e+03 7.623114776611328125e+01 -1.029764556884765625e+01 1.628280301389783968e-13 2.403248972981768261e-14 5.605815494419928713e-14 -2.841057560582882328e-15
4.450000000000000000e+03 7.624758911132812500e+01 -1.108283138275146484e+01 -8.467543750586073448e-14 -8.204041965090627664e-14 -5.001475782465646114e-14 -2.018998032995988900e-13
4.451000000000000000e+03 7.687638854980468750e+01 -8.823372840881347656e+00 -9.445601852758889194e-14 -2.006094671890695791e-13 -8.851964571499754131e-14 -1.245785972211338466e-13
4.452000000000000000e+03 7.618259429931640625e+01 -3.143446445465087891e+00 -2.523927789856161841e-13 -4.741759285567526128e-13 -2.179706203942269327e-13 -2.552857827475135677e-13
4.453000000000000000e+03 7.686590576171875000e+01 -1.670040369033813477e+00 -3.417994511555055848e-13 -2.379873912956159687e-13 -1.739360473143256036e-13 -2.852725312376368227e-14
4.454000000000000000e+03 7.687030029296875000e+01 -3.266682863235473633e+00 1.704041503172368244e-13 -2.929772310172884531e-13 -3.677192963102635104e-14 3.170755352071077948e-14
4.455000000000000000e+03 7.552042388916015625e+01 -3.821713924407958984e+00 -1.635780947544310249e-13 -3.674860708704347223e-13 -1.593192537532178710e-13 -1.366283659560291186e-13
4.456000000000000000e+03 7.617753601074218750e+01 -2.347786664962768555e+00 -1.195156576786968183e-13 -9.697194355015939515e-14 -6.494627833577779064e-14 1.122821898561735410e-15
4.457000000000000000e+03 7.621144866943359375e+01 -9.504380226135253906e+00 -4.625571708430017970e-14 -2.943295834920839349e-13 -1.021755854295307298e-13 -1.423806818973138988e-13
4.458000000000000000e+03 7.687623596191406250e+01 -6.427512645721435547e+00 2.034728315740766402e-13 -9.580115428167376712e-14 3.230149979958907291e-14 -5.213067662008380454e-14
4.459000000000000000e+03 7.618418884277343750e+01 -7.090472698211669922e+00 2.272189868982726901e-13 9.737956290943247661e-14 9.737956290943247661e-14 7.858301581339672409e-15
4.460000000000000000e+03 7.619425964355468750e+01 -8.704649925231933594e+00 1.855836041482830656e-13 -1.034679679716606071e-13 2.463468949773402195e-14 -2.130369516320680667e-14
4.461000000000000000e+03 7.614812469482421875e+01 2.496155738830566406e+00 -2.589584905017539018e-13 -3.397369462577320975e-13 -1.796086337383512310e-13 1.988520567826335128e-13
4.462000000000000000e+03 7.624257659912109375e+01 -1.985446548461914062e+01 -1.098055497981802187e-13 -1.614368903314622461e-13 -8.137273407177181284e-14 8.609447751986825780e-16
4.463000000000000000e+03 7.438665771484375000e+01 -2.191928863525390625e+01 -2.773334947109296067e-14 -2.863914075508511292e-13 -9.423742981708865818e-14 1.461593297563332228e-13
4.464000000000000000e+03 7.622640228271484375e+01 -1.607158660888671875e+01 -7.972471966453953396e-14 -2.629224691696324667e-13 -1.027941566502516002e-13 -2.310180313106618977e-13
4.465000000000000000e+03 7.683930969238281250e+01 -1.365435314178466797e+01 -6.858070020080223039e-14 -1.437690976468716797e-13 -6.370494138718124644e-14 -2.195967203650478483e-13
4.466000000000000000e+03 7.619554138183593750e+01 -3.928781032562255859e+00 1.069438794790676661e-13 -3.659254431583047751e-13 -7.769446978139749049e-14 -5.000385312249350928e-15
4.467000000000000000e+03 7.618038940429687500e+01 -7.899594306945800781e+00 -1.510863238988677248e-13 -2.020041306536463077e-13 -1.059271350105014942e-13 -1.294443745985043859e-13
4.468000000000000000e+03 7.617512512207031250e+01 -1.548199176788330078e+00 -3.283619307448831792e-13 -4.152322474575143030e-13 -2.230782561712246759e-13 -3.292176102044630515e-13
4.469000000000000000e+03 7.618431854248046875e+01 -1.270481872558593750e+01 -1.370043266118656233e-13 -1.730935138060871181e-13 -9.302935077013310683e-14 -2.923819498144852869e-13
4.470000000000000000e+03 7.612609100341796875e+01 -1.355587387084960938e+01 1.222823383349724846e-13 -3.909517837501902404e-14 2.495614866561239598e-14 -3.768233419526242911e-14
4.471000000000000000e+03 7.621226501464843750e+01 -4.701291084289550781e+00 -1.841152826986131030e-13 -1.704084464683452982e-13 -1.063571228158456672e-13 -2.502247541114055451e-13
4.472000000000000000e+03 7.621825408935546875e+01 -5.480376243591308594e+00 1.400106430533148982e-13 -2.145011327846918503e-13 -2.234714658059990672e-14 1.997516125488811578e-14
4.473000000000000000e+03 7.611693572998046875e+01 -1.442304611206054688e+01 5.123909312793571702e-14 -2.379133775566848880e-14 8.234326611680168467e-15 -1.511692111549542417e-13
4.474000000000000000e+03 7.613477325439453125e+01 1.685123324394226074e+00 -5.369135041080608239e-13 -2.072303239382053408e-13 -2.232431497691325650e-13 2.729222555418464591e-13
4.475000000000000000e+03 7.613943481445312500e+01 8.742452263832092285e-01 -5.111687440516321512e-13 5.543337666604093716e-14 -1.367206044558533229e-13 -1.457582596558083116e-14
4.476000000000000000e+03 7.615419006347656250e+01 6.357523798942565918e-02 -5.726634986526202287e-13 -2.911781601423746313e-13 -2.591525084805201828e-13 -8.316174219527225353e-14
4.477000000000000000e+03 7.436157226562500000e+01 -3.422591781616210938e+01 -2.266540735206944851e-14 -4.615043698759369040e-13 -1.452509309661162429e-13 -1.325926910313631607e-14
4.478000000000000000e+03 7.630418395996093750e+01 9.576342582702636719e+00 1.633095649813606776e-13 -4.438755542594471915e-14 3.567660422187750313e-14 8.482648719727869935e-14
4.479000000000000000e+03 7.629024505615234375e+01 8.792658805847167969e+00 -1.461623384173618700e-13 -4.743995452548277481e-13 -1.861685583253933074e-13 1.745251079071641342e-13
4.480000000000000000e+03 7.618820190429687500e+01 4.921371459960937500e+00 -1.249406258790539126e-13 -3.966781059443896806e-13 -1.564856100602640687e-13 1.076267100072990368e-13
4.481000000000000000e+03 7.621170043945312500e+01 7.278474330902099609e+00 -3.739220508203709714e-14 -3.820328114186727353e-13 -1.258275032561470552e-13 2.604080959114213334e-13
4.482000000000000000e+03 7.618949890136718750e+01 6.504723548889160156e+00 -9.217447260372133716e-15 -1.869541305619948357e-13 -5.885147648073199567e-14 1.352432299180431063e-13
4.483000000000000000e+03 6.462017822265625000e+01 4.422927379608154297e+00 2.602327465388125372e-14 -2.176019103404189248e-13 -5.747359104477448022e-14 -3.456310148568057794e-14
4.484000000000000000e+03 7.644810485839843750e+01 1.427227497100830078e+01 6.596567232340297404e-14 2.827100194029673330e-14 2.827100194029673330e-14 -1.448994360099282314e-14
4.485000000000000000e+03 7.584832000732421875e+01 1.507361698150634766e+01 2.804521514381073249e-14 -3.373157262949282031e-14 -1.705906991594742170e-15 -6.616099812103981570e-14
4.486000000000000000e+03 7.594185638427734375e+01 -2.461474990844726562e+01 -1.813435706666307462e-14 -6.025341900764424885e-13 -1.862005693945359419e-13 4.247484322269547141e-14
4.487000000000000000e+03 7.386346435546875000e+01 1.299527835845947266e+01 3.870533993137470485e-14 -4.409214963627117179e-13 -1.206648442188956727e-13 9.577608210643503983e-15
4.488000000000000000e+03 7.590556335449218750e+01 1.230330848693847656e+01 8.187656959758940478e-14 -5.596723713814644174e-13 -1.433387371470307148e-13 1.506128257050889929e-13
4.489000000000000000e+03 4.388038158416748047e+00 -2.668500328063964844e+01 -5.602342828742775532e-15 -2.082802788745674594e-13 -6.416478540985023904e-14 2.805832721383422906e-14
4.490000000000000000e+03 4.233899593353271484e+00 -2.588188934326171875e+01 -1.571233581069107765e-14 -1.668621837924710860e-13 -5.477235554213547020e-14 5.899106073417592633e-14
4.491000000000000000e+03 1.444353961944580078e+01 -2.877116203308105469e+01 -1.545216320349152017e-13 -1.234122396290282531e-13 -8.338016149918303643e-14 5.359722946495990015e-15
4.492000000000000000e+03 3.522347927093505859e+00 -3.154306602478027344e+01 5.168225060154379991e-14 -6.935236076827805407e-14 -5.301032880613686799e-15 8.410205718694177546e-14
4.493000000000000000e+03 4.913859844207763672e+00 -2.926719284057617188e+01 -4.741333329639010885e-14 7.118189772423871853e-14 7.130569836574351256e-15 8.190049658428344426e-14
4.494000000000000000e+03 7.599481201171875000e+01 -2.544652366638183594e+01 1.605468450511463724e-14 -4.963798469481695008e-13 -1.440975566950261633e-13 3.310652626540666436e-16
4.495000000000000000e+03 7.599950408935546875e+01 -2.621429061889648438e+01 -4.746502602309514429e-14 -6.837309039255112797e-13 -2.193587786457687483e-13 -1.272720671257124292e-13
4.496000000000000000e+03 3.898794889450073242e+00 -2.189606857299804688e+01 4.407716867275285333e-14 6.464116351564963558e-14 3.261549830126803107e-14 -1.074074961864837294e-14
4.497000000000000000e+03 1.255577182769775391e+01 -2.779760169982910156e+01 1.859256800980976093e-14 -8.353365742175267172e-14 -1.948232529892356818e-14 1.401163934227137031e-13
4.498000000000000000e+03 3.227990627288818359e+00 -2.267548179626464844e+01 4.550802077296807469e-14 1.950343844216682887e-14 1.950343844216682887e-14 -8.225437339711913487e-14
4.499000000000000000e+03 4.461268901824951172e+00 -6.951087474822998047e+00 1.636828998350606940e-14 -1.759888079450738774e-13 -4.788615725194282635e-14 9.380883114577798221e-15
4.500000000000000000e+03 3.261563062667846680e+00 -9.089214324951171875e+00 3.157426441613084278e-14 -1.237210204077521247e-13 -2.764402645867320568e-14 5.915752642523391946e-14
4.501000000000000000e+03 3.987629890441894531e+00 -9.224042892456054688e+00 1.496396729401203163e-13 -1.188725089499784171e-13 9.230148519416211950e-15 -6.303110296071792740e-14
4.502000000000000000e+03 7.621231842041015625e+01 1.171311378479003906e+01 -7.426543646542327348e-14 -1.690808951182454223e-13 -7.300389947510060873e-14 2.017081570130849211e-13
4.503000000000000000e+03 3.924411773681640625e+00 -2.112041664123535156e+01 -1.368726773630715710e-13 -2.874144607208084512e-13 -1.272861482014275847e-13 2.271117999609953420e-13
4.504000000000000000e+03 3.282589197158813477e+00 -2.347629356384277344e+01 -2.714555095734583895e-14 -5.738475422926644920e-14 -2.535909240301663370e-14 4.984929163247622808e-14
4.505000000000000000e+03 4.137978076934814453e+00 -2.422902870178222656e+01 -1.089322723820881911e-13 -2.983154901489010191e-13 -1.221743246935386162e-13 4.535959010742302011e-14
4.506000000000000000e+03 4.218390941619873047e+00 -2.506229972839355469e+01 5.701145664501611199e-14 7.018443172555205445e-14 3.815876651117044993e-14 3.003728925202002464e-14
4.507000000000000000e+03 3.701463460922241211e+00 -7.413795471191406250e+00 -3.173023536897235514e-15 -9.286176699558473802e-14 -2.881043656682152898e-14 8.118646136227522514e-14
4.508000000000000000e+03 3.810350656509399414e+00 -8.030318260192871094e+00 9.064573229392372533e-14 -6.902776842552778638e-15 2.512288710127940500e-14 2.288072312726149166e-14
4.509000000000000000e+03 6.489044189453125000e+00 -2.149540328979492188e+01 -6.589209565347267650e-14 -1.654923214525899633e-13 -6.941532580944514974e-14 1.446037164792510210e-13
4.510000000000000000e+03 3.929862499237060547e+00 -1.701078224182128906e+01 1.103556536517086295e-13 4.729527723233359349e-14 4.729527723233359349e-14 1.379280414518348555e-14
4.511000000000000000e+03 3.194000482559204102e+00 -1.386601543426513672e+01 -1.231412856476628639e-14 -9.677938246806239153e-14 -3.272805203929918250e-14 -1.778841695254315680e-14
4.512000000000000000e+03 4.595141887664794922e+00 -1.314293861389160156e+01 8.140365416247838382e-14 -5.661461493296389424e-14 7.436712107667525773e-15 3.530683029468774381e-14
4.513000000000000000e+03 3.901102304458618164e+00 -1.234681892395019531e+01 6.802264779009678519e-14 7.490350977272172694e-14 4.287784794647191144e-14 4.996499294493937648e-14
4.514000000000000000e+03 3.911706209182739258e+00 -1.079898929595947266e+01 9.905508894679157517e-14 4.245218000915873535e-14 4.245218000915873535e-14 -2.790655415627930902e-14
4.515000000000000000e+03 4.682542800903320312e+00 -1.868322753906250000e+01 -4.287098359146736259e-14 -2.242525419917165697e-13 -8.013706207952650540e-14 1.079290668881509319e-13
4.516000000000000000e+03 4.670547008514404297e+00 -1.782554244995117188e+01 1.071803643016774887e-13 4.593444087553841260e-14 4.593444087553841260e-14 -5.161726962196223900e-14
4.517000000000000000e+03 3.217909336090087891e+00 -1.703207969665527344e+01 -4.449597225506148057e-14 -4.194517658011841232e-14 -2.593234397292761007e-14 -7.624769684990567731e-14
4.518000000000000000e+03 3.239689588546752930e+00 -5.917873859405517578e+00 1.469908111786759342e-14 1.206769737307003543e-13 4.061281747100992101e-14 4.860285554553721299e-14
4.519000000000000000e+03 4.250017642974853516e+00 -8.512502670288085938e+00 1.337778341201729601e-14 8.579749866295671712e-14 2.975258453778890921e-14 4.093025153832294261e-14
4.520000000000000000e+03 3.219582080841064453e+00 -9.939127922058105469e+00 4.913786188381376319e-14 -2.991975699313809134e-13 -7.501790665444610373e-14 1.274156968085124464e-13
4.521000000000000000e+03 3.898468255996704102e+00 -1.157520389556884766e+01 -3.663642807638818610e-14 -1.072032274149897768e-13 -4.315189698622656778e-14 -7.555554895925450931e-14
4.522000000000000000e+03 3.943919658660888672e+00 -1.541549682617187500e+01 4.647179857727654073e-14 -1.173363571018923301e-13 -2.125936992907698914e-14 3.968367314984878880e-14
4.523000000000000000e+03 3.902552127838134766e+00 -1.385784530639648438e+01 7.358267369982768313e-14 -8.284194321197049793e-14 -2.777781234807670703e-15 2.418853522155855335e-14
4.524000000000000000e+03 3.931806087493896484e+00 -1.463028430938720703e+01 -2.510062876949145649e-14 -1.480102526001461638e-13 -5.193326712139671730e-14 -2.656711004008350911e-15
4.525000000000000000e+03 6.266855239868164062e+00 -3.197513961791992188e+01 4.217947944585610787e-14 1.553297692292315846e-13 5.925277358608677103e-14 1.300284207562951710e-13
4.526000000000000000e+03 4.340910434722900391e+00 -3.156872177124023438e+01 5.648269802175850951e-15 4.817163446022183770e-14 1.614597263397202220e-14 -2.244109269884577568e-14
4.527000000000000000e+03 4.907401561737060547e+00 -3.281490707397460938e+01 6.904376972493436737e-14 -1.991645509537981473e-13 -3.903623504628549179e-14 1.900382283449245785e-14
4.528000000000000000e+03 6.306088638305664062e+01 2.307393312454223633e+00 -5.971692731239139351e-14 1.459730909281545252e-13 2.587684806828940282e-14 -3.514582627207364640e-14
4.529000000000000000e+03 4.255862045288085938e+01 -2.043588638305664062e+01 3.177116230691778842e-14 -3.213473595293364626e-14 -1.090715326454297970e-16 2.773328983997347397e-13
4.530000000000000000e+03 5.100167751312255859e+00 -2.867588996887207031e+01 8.571131814277127559e-14 8.248436655922120053e-14 5.045870473297138503e-14 -7.659853789665840851e-14
4.531000000000000000e+03 7.441178894042968750e+01 -3.064199066162109375e+01 4.645431581724521197e-14 -3.918495573591168624e-13 -1.036185704296824217e-13 -2.267016259503533415e-14
4.532000000000000000e+03 4.395637989044189453e+00 -2.839743423461914062e+01 -4.879416301887228025e-14 -2.091178318290760896e-14 -2.091178318290760896e-14 3.661254513540740385e-14
4.533000000000000000e+03 4.493986511230468750e+01 -2.572800159454345703e+00 -1.142530352011422723e-13 -4.896558893486939457e-14 -4.896558893486939457e-14 8.038625917260872056e-14
4.534000000000000000e+03 7.593161773681640625e+01 -3.139913749694824219e+01 7.317103432218693276e-15 -5.916264114898261983e-13 -1.752928043604468078e-13 1.206503311563774175e-14
4.535000000000000000e+03 6.869379425048828125e+01 -2.510816955566406250e+01 7.560219675772569814e-14 -2.878557038999557394e-13 -6.367604739928450774e-14 -7.408497101381306127e-14
4.536000000000000000e+03 3.904048919677734375e+00 -3.638872528076171875e+01 5.069403759077294180e-14 -1.612777836626499983e-13 -3.317512280512358025e-14 6.918260181312113621e-14
4.537000000000000000e+03 7.675582408905029297e+00 -3.468435287475585938e+01 -1.077635837553117537e-13 -3.546151545151532414e-14 -4.296753179492719676e-14 -3.717621168048725055e-14
4.538000000000000000e+03 1.614201545715332031e+01 -6.465741634368896484e+00 3.461466885150941974e-14 3.579669655313921783e-13 1.177744967523208786e-13 3.842980350176466997e-14
4.539000000000000000e+03 1.775348854064941406e+01 -6.707923412322998047e+00 5.813773263805763203e-14 2.994218642558138521e-13 1.072678797457878030e-13 -8.590279502269579370e-14
4.540000000000000000e+03 1.352680683135986328e+01 -3.006255149841308594e+01 -4.669084468556829182e-14 -2.001036055604421549e-14 -2.001036055604421549e-14 1.060325414845237138e-14
4.541000000000000000e+03 5.426570892333984375e+01 -5.526004791259765625e+00 -1.435353843160652731e-13 -6.723403301114871944e-14 -6.323082655341691338e-14 -2.217379925506524074e-13
4.542000000000000000e+03 1.177522277832031250e+01 -2.602194595336914062e+01 8.762750127528013463e-16 -2.283791916430494284e-13 -6.825087912366856191e-14 8.213469780606746928e-14
4.543000000000000000e+03 2.505137062072753906e+01 -1.075328636169433594e+01 -2.446099522750416061e-14 -9.054744259072433632e-14 -3.450253185368831743e-14 9.258228678057228711e-14
4.544000000000000000e+03 4.691783142089843750e+01 -3.204575729370117188e+01 -7.754347430008814990e-14 -1.704857636357706707e-13 -7.440876799262585717e-14 8.326326417619836495e-14
4.545000000000000000e+03 4.723294067382812500e+01 -3.075530624389648438e+01 -5.711119646862120036e-14 -2.761064489022191371e-13 -9.996529022312031221e-14 7.962900494149979802e-14
4.546000000000000000e+03 4.682033157348632812e+01 -3.248845815658569336e+00 -2.573233509953198883e-13 -2.017833328812196347e-13 -1.377320024524564257e-13 -1.440527439934352009e-15
4.547000000000000000e+03 2.565133285522460938e+01 -1.106467628479003906e+01 8.459893179599883156e-15 2.650114353766781783e-14 1.048831093047701557e-14 9.858556164346957140e-14
4.548000000000000000e+03 5.683189392089843750e+01 -6.831782460212707520e-01 -9.324374497347853730e-14 -8.571255819900605588e-14 -5.368688959649266235e-14 -5.637137417556677133e-14
4.549000000000000000e+03 5.600901794433593750e+01 -1.004633069038391113e+00 -9.015725178137395934e-14 -1.758916634304191762e-13 -7.981467456353794065e-14 -8.786307490219694843e-15
4.550000000000000000e+03 6.999195098876953125e+01 -2.102767562866210938e+01 -8.015746540915996698e-14 -5.604891008779977479e-13 -1.921939712414000301e-13 7.615033549481647901e-14
4.551000000000000000e+03 7.126796722412109375e+01 -1.949635124206542969e+01 -9.358278176907833257e-14 -5.891182723941068566e-13 -2.048103169265819146e-13 4.385736701107215141e-14
4.552000000000000000e+03 2.043006134033203125e+01 -6.947697162628173828e+00 -1.310935545230720867e-13 3.531894625396526932e-14 -2.873238078666615070e-14 -2.602617828282444146e-14
4.553000000000000000e+03 1.960537528991699219e+01 -6.304364681243896484e+00 -1.183284698523523470e-13 -7.358767458234827252e-14 -5.757484197515747026e-14 6.859880553004979106e-15
4.554000000000000000e+03 4.236248016357421875e+01 -1.830664062500000000e+01 6.892668266656951093e-14 -1.077128430936394321e-13 -1.163584829752756580e-14 2.100158392190961537e-14
4.555000000000000000e+03 6.185046386718750000e+01 1.268810987472534180e+00 -9.184343010507772798e-14 1.665178005249082216e-13 2.240231214238868479e-14 -3.336820227138430350e-14
4.556000000000000000e+03 6.674735260009765625e+01 -2.871896934509277344e+01 4.006945261160986538e-14 -2.115821217231819706e-13 -5.145379903940573707e-14 -1.304430332195807840e-13
4.557000000000000000e+03 5.210566329956054688e+01 -6.316487312316894531e+00 -5.560018455840962104e-14 -1.382060156422670882e-13 -5.814185938257665498e-14 9.854475498420264823e-14
4.558000000000000000e+03 4.007635879516601562e+01 -2.160558509826660156e+01 -2.240612480709086585e-13 -2.790300542704349240e-13 -1.509273934129085060e-13 1.271324896485320766e-13
4.559000000000000000e+03 5.810118103027343750e+01 -7.361044883728027344e+00 -7.459240473559058948e-14 -9.092699636032309379e-15 -2.510553139619016438e-14 -8.311508762053748667e-14
4.560000000000000000e+03 5.967033004760742188e+01 -1.615127086639404297e+00 -3.422221477012397928e-14 -1.061685597292597039e-13 -4.211723268862828384e-14 -4.830430014855259524e-14
4.561000000000000000e+03 4.397981262207031250e+01 -1.577308559417724609e+01 5.003875596211806998e-14 -2.073095655644868751e-13 -4.718124288071064154e-14 -3.184087311847681734e-14
4.562000000000000000e+03 4.303068923950195312e+01 -1.648032951354980469e+01 4.557300175254963559e-14 -3.007253463176845498e-13 -7.654570336954047427e-14 -1.290699318257093609e-13
4.563000000000000000e+03 3.173080253601074219e+01 -3.337070846557617188e+01 -6.773068569757359492e-14 1.672351188466199984e-14 -1.530215163565371017e-14 8.361705289760754112e-14
4.564000000000000000e+03 2.665956115722656250e+01 -6.194880962371826172e+00 -1.740543066662894600e-13 -4.406022801380776732e-13 -1.843969719755519932e-13 1.782679093318556562e-13
4.565000000000000000e+03 7.176816558837890625e+01 -1.841088294982910156e+01 -1.073691103473800590e-13 -3.662719812776854544e-13 -1.420923247770142228e-13 -3.145367402949614255e-14
4.566000000000000000e+03 3.138522720336914062e+01 -1.302297306060791016e+01 -1.205180703497954475e-13 3.985129419384683680e-14 -2.420003454085047773e-14 1.532032015355913601e-13
4.567000000000000000e+03 3.205410385131835938e+01 -1.358697032928466797e+01 -6.818074479563590584e-14 -2.922031919812967393e-14 -2.922031919812967393e-14 7.149000765286836478e-14
4.568000000000000000e+03 5.394175720214843750e+01 -2.321470737457275391e+00 -1.366460791090221005e-13 -8.143807758145479858e-14 -6.542524497426399632e-14 -1.076315076019122852e-13
4.569000000000000000e+03 2.234003829956054688e+01 -6.709513187408447266e+00 -1.339647522687753556e-13 -9.172667508362819522e-14 -6.770742956097378085e-14 -1.836132699876980023e-13
4.570000000000000000e+03 1.406954479217529297e+01 -1.032211017608642578e+01 6.982503225790026580e-14 7.567596316303618065e-14 4.365029794865457613e-14 1.411070560527680207e-13
4.571000000000000000e+03 3.865621185302734375e+01 -6.875019550323486328e+00 1.503512348259225528e-13 -2.100694428521301949e-13 -1.791546173023593480e-14 -1.272762955141851227e-13
4.572000000000000000e+03 4.642711257934570312e+01 -9.270880699157714844e+00 3.546377872355038763e-14 -9.917860667929198626e-14 -1.911444872553565849e-14 -1.968050051539497330e-14
4.573000000000000000e+03 7.520855712890625000e+01 -2.673091697692871094e+01 -7.767727840070001721e-14 -8.568073550999089072e-13 -2.803453812410400259e-13 -1.106895675920434308e-13
4.574000000000000000e+03 3.002794647216796875e+01 -1.215177726745605469e+01 -1.003974803141273464e-13 5.991214468981098662e-14 -1.214560204254762354e-14 1.689406400147072662e-13
4.575000000000000000e+03 2.898924636840820312e+01 -1.175151157379150391e+01 1.005303967242104912e-13 -9.416838646749206565e-14 1.908603034663880309e-15 1.262390799533497088e-13
4.576000000000000000e+03 3.848414993286132812e+01 -2.447213935852050781e+01 1.184522586353958795e-13 5.014305875221001726e-15 3.703997151311907987e-14 1.547010132843529284e-13
4.577000000000000000e+03 3.976757049560546875e+01 -2.204137039184570312e+01 4.854445092975813447e-14 -3.909537624191550265e-13 -1.027227958185113199e-13 2.312367690989608482e-13
4.578000000000000000e+03 1.127510166168212891e+01 -2.669733810424804688e+01 -7.804783159820125049e-14 -3.994566721669812193e-13 -1.432513504519283831e-13 4.442327819346222201e-15
4.579000000000000000e+03 2.841326332092285156e+01 -1.183947563171386719e+01 -5.897678314681700784e-14 -2.540305205772641628e-13 -9.390218772909256217e-14 -1.046621082444361417e-13
4.580000000000000000e+03 6.714641571044921875e+01 -2.686247062683105469e+01 8.978379834306132734e-14 -3.275288297955453176e-13 -7.132350808049248148e-14 -2.251272763044778746e-13
4.581000000000000000e+03 6.869076538085937500e+01 -2.624134826660156250e+01 1.968348037730341393e-13 -2.358988655457028294e-13 -1.171921751536107031e-14 -5.575991125533925896e-14
4.582000000000000000e+03 4.358327865600585938e+01 -1.976563262939453125e+01 -1.369627203534964921e-13 -2.417021118840401162e-13 -1.135994442502501200e-13 1.508343553139820936e-13
4.583000000000000000e+03 6.582896423339843750e+01 4.389768123626708984e+00 -7.870793453839189380e-14 5.776992382730550268e-14 -6.281403213325917334e-15 -5.427077990022115273e-14
4.584000000000000000e+03 6.370101165771484375e+01 2.798716783523559570e+00 -3.866633237008774981e-14 -1.657128651151324600e-14 -1.657128651151324600e-14 -1.263309525349406992e-13
4.585000000000000000e+03 6.514495849609375000e+01 3.757934808731079102e+00 5.806060181788065544e-15 7.111473139965324153e-14 2.307623866027851828e-14 -1.950291192648681560e-13
4.586000000000000000e+03 4.699090194702148438e+01 -6.354654788970947266e+00 -4.565273126980878837e-14 -4.244093141161919824e-14 -2.642809880442839598e-14 -6.670268585520430782e-14
4.587000000000000000e+03 4.708848571777343750e+01 -7.164121627807617188e+00 -5.852539590109340217e-14 2.066863729320057852e-14 -1.135702792118102600e-14 6.011089250055473565e-14
4.588000000000000000e+03 7.034692382812500000e+01 -1.561130428314208984e+01 -7.042090299563472100e-14 -4.419389387864264274e-13 -1.537079518569919867e-13 1.150358071468201779e-14
4.589000000000000000e+03 8.777853965759277344e+00 -1.607934761047363281e+01 -4.080367432281704898e-14 -3.377439387192149312e-13 -1.135642822185436995e-13 9.609910659119993981e-14
4.590000000000000000e+03 1.548598194122314453e+01 -2.999418830871582031e+01 -6.807578724907573098e-14 3.945108806692812498e-14 -8.587408907611334546e-15 -3.929855776191835959e-14
4.591000000000000000e+03 6.829390716552734375e+01 -2.872157287597656250e+01 9.386466078139740765e-14 -4.859081886854355048e-13 -1.176130590488377869e-13 -3.303868273797985755e-14
4.592000000000000000e+03 6.805885314941406250e+01 7.173313140869140625e+00 -5.681339662502553345e-14 -2.073523915503000525e-13 -7.924973746903721250e-14 1.186792431364692979e-14
4.593000000000000000e+03 1.037749576568603516e+01 -1.243815135955810547e+01 1.224397102803087556e-13 2.126024779402352349e-13 1.005126564661631972e-13 4.822102664544213046e-14
4.594000000000000000e+03 1.099468326568603516e+01 -1.176456069946289062e+01 -3.813650309718481790e-14 -1.634421561307920767e-14 -1.634421561307920767e-14 3.756668031664432694e-14
4.595000000000000000e+03 5.638082885742187500e+01 -5.782981395721435547e+00 -1.980277378708927838e-13 -8.486902858002159933e-14 -8.486902858002159933e-14 2.822944989203622634e-14
4.596000000000000000e+03 1.679005622863769531e+01 -7.211483001708984375e+00 3.483470429428356385e-14 4.495631839886160552e-13 1.453193576757272343e-13 3.959507350356598898e-14
4.597000000000000000e+03 1.936598396301269531e+01 -8.254540443420410156e+00 -4.203210248929743764e-14 7.348813804665052518e-14 9.436811006019105164e-15 -1.089101478815059088e-13
4.598000000000000000e+03 3.019947624206542969e+01 -7.483237743377685547e+00 -1.253504543002534333e-13 3.778027830901933837e-14 -2.627105211974387067e-14 1.530938732990233531e-13
4.599000000000000000e+03 6.446276855468750000e+01 -9.444103240966796875e+00 1.140304213900766861e-13 -1.798845631912487919e-13 -1.975624220153845284e-14 -6.295053996303867638e-14
4.600000000000000000e+03 7.507777404785156250e+01 -1.947821235656738281e+01 -3.507278831509780259e-14 -3.810387877618837127e-13 -1.248334660468308766e-13 7.874361156613024493e-14
4.601000000000000000e+03 9.726249694824218750e+00 -1.320965385437011719e+01 5.476623657612450513e-14 6.922219552120759123e-14 3.719652691869419769e-14 3.594432084331848631e-14
4.602000000000000000e+03 9.575208663940429688e+00 -1.437897777557373047e+01 5.776972223346405616e-16 -2.834675887303326342e-14 -8.330718114044760592e-15 6.741804244861024364e-14
4.603000000000000000e+03 3.792760467529296875e+01 -1.620489120483398438e+01 -1.240876027147966298e-13 -1.618388989444927151e-13 -8.577794914253408787e-14 1.383650409959163996e-13
4.604000000000000000e+03 3.747579574584960938e+01 -1.677196693420410156e+01 -1.814864176909875004e-13 -6.634215475153498742e-14 -7.434857444326217757e-14 1.990103367472892404e-13
4.605000000000000000e+03 4.040375518798828125e+01 -1.996881103515625000e+01 -3.294500428214532095e-14 7.059145477363026888e-14 1.129393497803889493e-14 1.385791709249822867e-13
4.606000000000000000e+03 1.972842025756835938e+01 -7.140197753906250000e+00 7.899384373347400484e-15 1.406383012434939128e-13 4.456130560034909927e-14 -5.367856495668704708e-14
4.607000000000000000e+03 3.187197303771972656e+01 -8.925077438354492188e+00 -2.102079124102155389e-14 -5.475986011209757476e-14 -2.273419489771597024e-14 1.661729429188948948e-13
4.608000000000000000e+03 3.079226875305175781e+01 -1.318283081054687500e+01 -1.265146570405412119e-13 1.059077548966683158e-13 -6.182070389051984652e-15 6.302500432349769643e-14
4.609000000000000000e+03 1.768803787231445312e+01 -8.341576576232910156e+00 -3.214833591393476131e-14 -1.052797578933103995e-13 -4.122842746454719043e-14 4.101715034244765579e-14
4.610000000000000000e+03 1.625209236145019531e+01 -1.049491405487060547e+01 1.023118154325035334e-13 4.384792089964437145e-14 4.384792089964437145e-14 -1.288647736696207913e-13
4.611000000000000000e+03 6.754377746582031250e+01 7.649815559387207031e+00 6.219596235604307743e-14 -6.484648430206407799e-14 -7.951574202513355793e-16 -1.200844707959641822e-13
4.612000000000000000e+03 7.564868927001953125e+01 8.954278945922851562e+00 1.676307882650732162e-13 -3.399167611880388185e-13 -5.168579119926332288e-14 2.056444377035882703e-15
4.613000000000000000e+03 6.744488525390625000e+01 -2.813889503479003906e+01 6.060065457395369740e-15 -2.719085265105725124e-13 -7.975453522428288533e-14 -1.674887171228961469e-13
4.614000000000000000e+03 4.303237152099609375e+01 -1.751605415344238281e+01 -7.163054735947679830e-14 -1.222007114639114822e-13 -5.814937425888469513e-14 -5.841010878774146112e-15
4.615000000000000000e+03 7.087222290039062500e+01 1.315058612823486328e+01 -1.316063821506577303e-13 -1.580466850057901662e-13 -8.689591743642893773e-14 6.039165342938343506e-14
4.616000000000000000e+03 7.046370697021484375e+01 1.167231750488281250e+01 1.108822167655669488e-13 1.770002080592593483e-15 3.379566591854565871e-14 6.503904538416108161e-14
4.617000000000000000e+03 4.848415374755859375e+01 -6.907820224761962891e+00 -2.378520862526215668e-14 1.728101304632537194e-13 4.470747638199087937e-14 1.296418755767497766e-13
4.618000000000000000e+03 4.918851470947265625e+01 -6.712818622589111328e+00 -1.952178009360667349e-14 -9.986837610142726418e-14 -3.581704567266405514e-14 -1.317418532121097940e-13
4.619000000000000000e+03 4.321371459960937500e+01 -1.545027446746826172e+01 -2.317861953261314556e-14 -5.568464390764624183e-14 -2.365897869326463732e-14 -6.630359103551239364e-14
4.620000000000000000e+03 5.094536972045898438e+01 -2.419631958007812500e+00 6.025181252495648634e-15 -8.891967565906322424e-14 -2.486834861843180422e-14 9.112381801814478655e-14
4.621000000000000000e+03 6.058626174926757812e+01 1.357128173112869263e-01 -9.915981779445599137e-16 2.626429889546200158e-13 7.849541736005757886e-14 4.045560476786773385e-14
4.622000000000000000e+03 4.779952239990234375e+01 -2.668571710586547852e+00 -4.775721173231640970e-14 -2.046737718273527323e-14 -2.046737718273527323e-14 -1.360157375184661843e-13
4.623000000000000000e+03 6.750074005126953125e+01 6.495627403259277344e+00 3.962810440037711768e-14 1.698347307243792265e-14 1.698347307243792265e-14 -1.142009663918086559e-13
4.624000000000000000e+03 4.247388076782226562e+01 -1.486217784881591797e+01 5.176603571255440628e-14 2.218544460283727177e-14 2.218544460283727177e-14 -1.301451215676360795e-13
4.625000000000000000e+03 4.483016967773437500e+01 -2.785179901123046875e+01 -7.280734717375614284e-14 -2.142069480777150647e-13 -8.610428722018864667e-14 -5.951504209161101455e-14
4.626000000000000000e+03 4.452859497070312500e+01 -2.705182075500488281e+01 -6.779865839752485801e-14 -5.193204400582088209e-14 -3.591921139863007983e-14 3.527593730903548497e-14
4.627000000000000000e+03 6.694307708740234375e+01 5.820555210113525391e+00 -4.890549702945938548e-15 -1.400636605395494394e-13 -4.348626154808930833e-14 1.894019880169239833e-14
4.628000000000000000e+03 6.699745178222656250e+01 4.663284778594970703e+00 -3.958071798917592310e-14 1.317274197706885808e-13 2.764401121208015510e-14 1.379096862478678548e-14
4.629000000000000000e+03 4.464178085327148438e+01 -3.714758872985839844e+00 -3.517922308711798896e-14 -6.082776020073857315e-14 -2.880209498635696863e-14 -3.754410519453410533e-14
4.630000000000000000e+03 4.717336654663085938e+01 -7.938915252685546875e+00 3.062031219401052662e-14 -1.241298594944692524e-13 -2.805286215725854432e-14 -1.494669324289890633e-13
4.631000000000000000e+03 4.594726181030273438e+01 -3.572406768798828125e+00 -1.709246757802471151e-13 -2.333817546770061702e-13 -1.212919332029341324e-13 8.761291388562075788e-14
4.632000000000000000e+03 2.041126251220703125e+01 -3.435712051391601562e+01 -1.556320854525020114e-13 -2.094851730776413345e-14 -5.297418252214573797e-14 -3.492857460308065355e-15
4.633000000000000000e+03 1.767685699462890625e+01 -3.301880264282226562e+01 -2.248513502397121028e-14 -3.161838805641921379e-14 -1.623105709352371667e-14 7.084948811441824090e-14
4.634000000000000000e+03 2.390942764282226562e+01 -7.042273998260498047e+00 -1.195545398791075797e-13 4.026423630816046428e-14 -2.378709412060274475e-14 1.114908336550916867e-13
4.635000000000000000e+03 3.097176933288574219e+01 -7.945531845092773438e+00 -1.258389009314853091e-13 -1.454328600906593105e-13 -8.138152288563252346e-14 1.422499677728936152e-13
4.636000000000000000e+03 7.159025573730468750e+01 -1.767339706420898438e+01 -1.956386983838209748e-13 -2.210980015607613702e-13 -1.250210059176165567e-13 3.233608246075957149e-14
4.637000000000000000e+03 3.270316314697265625e+01 -7.775089740753173828e+00 -6.733521617889592914e-14 -2.347372242330475478e-13 -9.062173076833032748e-14 1.362557798794544750e-13
4.638000000000000000e+03 3.385611343383789062e+01 -8.433669090270996094e+00 -1.706373486520113003e-13 -2.561340896323205385e-13 -1.280314287747941204e-13 2.085304720783956456e-13
4.639000000000000000e+03 1.722353172302246094e+01 -3.427370071411132812e+01 -7.227871729950652302e-14 -1.911049172641926530e-13 -7.901508901385703720e-14 5.890408061488827673e-14
4.640000000000000000e+03 8.477130889892578125e+00 -1.997990989685058594e+01 4.735192340771417208e-14 -9.408368994903021365e-14 -1.401953114824093863e-14 9.415421730035039571e-14
4.641000000000000000e+03 8.557660102844238281e+00 -2.081835746765136719e+01 -1.835310468054421329e-13 -1.015316371017101205e-13 -8.551880449451931820e-14 4.420145551116937133e-14
4.642000000000000000e+03 2.366754150390625000e+01 -3.474210739135742188e+01 -4.730247701238525504e-14 -1.003366497959873316e-13 -4.429173905895131269e-14 6.828224644777128316e-14
4.643000000000000000e+03 2.490630340576171875e+01 -3.495272064208984375e+01 -8.471139236040578502e-14 -1.991672191075819984e-15 -2.601091983131260249e-14 -9.411518602214091755e-14
4.644000000000000000e+03 4.297612380981445312e+01 -2.112271499633789062e+01 -1.806569352664003092e-13 -1.231753550068673264e-13 -9.114968301622214386e-14 1.296811236953937518e-13
4.645000000000000000e+03 6.752115249633789062e+00 -4.176532745361328125e+00 1.296855282667194742e-13 -5.307899099090719608e-14 2.298196050511732563e-14 8.881637152081608977e-14
4.646000000000000000e+03 6.556269836425781250e+01 -3.426937484741210938e+01 -2.112611639988083712e-14 -9.054050369682042909e-15 -9.054050369682042909e-15 -8.986298575923423737e-14
4.647000000000000000e+03 5.897438812255859375e+01 -2.270485401153564453e+00 -1.134986608820540144e-13 8.861056284342402889e-14 -7.466429411588995646e-15 -3.010685437391212582e-14
4.648000000000000000e+03 3.358469772338867188e+01 -7.860541820526123047e+00 2.224072027890919290e-14 9.531737141384947348e-15 9.531737141384947348e-15 9.905576657314937861e-14
4.649000000000000000e+03 9.110174179077148438e+00 -1.757827949523925781e+01 2.266854815023786746e-14 -1.504132240851344116e-13 -3.832340599919416280e-14 4.188269942992893513e-14
4.650000000000000000e+03 5.462990760803222656e+00 -2.030476570129394531e+01 5.767139695488088247e-14 -2.040384327424080158e-13 -4.391011005863178218e-14 -4.576567125486388776e-14
4.651000000000000000e+03 2.099992942810058594e+01 -6.962051391601562500e+00 -7.785539248884865149e-14 1.038862531698055147e-13 7.809258373693648420e-15 -4.305392237928355736e-14
4.652000000000000000e+03 2.152853012084960938e+01 -1.074767017364501953e+01 -1.211032057919564017e-14 4.056081303618029599e-14 8.535146974765744216e-15 -1.231609080129189571e-13
4.653000000000000000e+03 4.388709640502929688e+01 -1.368921184539794922e+01 -1.233142955152713438e-13 -1.443508805326274014e-13 -8.029955010386419234e-14 -8.719946016340698880e-14
4.654000000000000000e+03 6.956594848632812500e+01 1.045957851409912109e+01 -2.739117187732474645e-14 -4.806862915519849455e-13 -1.524232400452324443e-13 -1.806447854258048935e-14
4.655000000000000000e+03 5.798538208007812500e+01 -9.372943043708801270e-01 -6.265848300282539363e-14 6.464825826361583760e-14 5.969323876547200612e-16 5.947531285825299885e-14
4.656000000000000000e+03 5.990005874633789062e+01 -4.383849799633026123e-01 -3.453548821160008775e-14 -1.749292442669581060e-13 -6.283942279288606825e-14 -4.595139847514244369e-14
4.657000000000000000e+03 5.838618850708007812e+01 -1.652215480804443359e+00 -6.418522262080159080e-14 -7.325890382606919937e-14 -4.123323861168759485e-14 -5.130697773646046567e-14
4.658000000000000000e+03 4.321494674682617188e+01 -2.203948211669921875e+01 -1.450922545900412003e-14 -9.772013791686448569e-14 -3.366880748810127666e-14 1.642034896725749760e-13
4.659000000000000000e+03 3.922404098510742188e+01 -6.693991661071777344e+00 6.302917850186176563e-15 1.857050483441285982e-13 5.760238748660218011e-14 1.831207813152418290e-14
4.660000000000000000e+03 3.917331695556640625e+01 -6.048750400543212891e+00 9.000701524158535860e-14 -9.867841000701579879e-14 -2.601417963761011067e-15 1.127553848121571559e-16
4.661000000000000000e+03 7.148071289062500000e+01 1.162535285949707031e+01 -1.317931495273955145e-13 -7.363938424971225305e-14 -6.162975810025325685e-14 -3.783156784804148076e-14
4.662000000000000000e+03 4.575529479980468750e+01 -1.064372348785400391e+01 -9.625290744563058665e-14 -1.327531427884956483e-13 -6.870181235973243927e-14 -1.444354483020812707e-14
4.663000000000000000e+03 4.417676925659179688e+01 -1.284363269805908203e+01 -6.376566348510401272e-14 -2.103319417506160915e-13 -8.222928089308967348e-14 -1.731608156559441558e-13
4.664000000000000000e+03 3.962414169311523438e+01 -2.260827445983886719e+01 3.925210986322272277e-14 -1.204305074718400870e-13 -2.435352029902474597e-14 5.976980927335437399e-14
4.665000000000000000e+03 3.829800033569335938e+01 -2.536362648010253906e+01 -5.283172513294472072e-14 -2.971478586192427551e-13 -1.049938741092167060e-13 -4.702924451239175185e-14
4.666000000000000000e+03 3.962110519409179688e+01 -2.626656532287597656e+01 -5.990074023820915472e-14 -2.567174581637535202e-14 -2.567174581637535202e-14 3.762486470385711934e-14
4.667000000000000000e+03 5.348841857910156250e+01 -4.314713001251220703e+00 -7.044491807375527492e-15 -3.019067887195477952e-15 -3.019067887195477952e-15 -2.016536894064446805e-13
4.668000000000000000e+03 8.599012374877929688e+00 -2.164553642272949219e+01 8.530350227185443113e-15 -2.708498301941947295e-13 -7.869584568416868042e-14 -6.057978283510040418e-14
4.669000000000000000e+03 2.225658226013183594e+01 -1.075276851654052734e+01 6.544850365196265216e-15 -1.344479134144163646e-13 -3.837091777127155101e-14 -1.024094512262676421e-14
4.670000000000000000e+03 2.317221069335937500e+01 -6.663213253021240234e+00 -2.882989460768585477e-14 3.339528022064212898e-14 1.369616065051708527e-15 -6.376741853737072363e-14
4.671000000000000000e+03 4.082913970947265625e+01 -7.109436511993408203e+00 8.051625501308973254e-14 -4.687534540213922352e-13 -1.164711637682488976e-13 -1.433616985161648844e-14
4.672000000000000000e+03 4.479084396362304688e+01 -1.114606857299804688e+01 -3.551442451753261675e-14 -3.354771159220365506e-13 -1.112974594213653190e-13 -5.849469942708490633e-14
4.673000000000000000e+03 3.988142395019531250e+01 -2.059552764892578125e+01 -1.663648602559519851e-13 -3.698601212624719192e-14 -6.100526442516518433e-14 2.232667853764927490e-13
4.674000000000000000e+03 5.519940185546875000e+01 -1.256257295608520508e+00 -2.646248563158148936e-13 -1.134106507707025036e-13 -1.134106507707025036e-13 -1.388959883523097072e-13
4.675000000000000000e+03 5.594626235961914062e+01 -5.258821487426757812e+00 1.237766128741463190e-13 5.304712222329970028e-14 5.304712222329970028e-14 -4.843107387570225186e-14
4.676000000000000000e+03 2.316349029541015625e+01 -3.626927566528320312e+01 -9.948307097811665001e-14 -3.119786669129355483e-14 -3.920428299488895596e-14 5.331167348261679415e-15
4.677000000000000000e+03 5.946812820434570312e+01 -8.309309959411621094e+00 -3.891465871330018755e-14 2.578279928965032664e-13 6.567399483395006121e-14 -1.395231857565654154e-13
4.678000000000000000e+03 6.095077514648437500e+01 -7.717125415802001953e+00 -6.626835446490661474e-14 -1.656535694206928699e-13 -6.957657377754805639e-14 -8.456375112956757145e-14
4.679000000000000000e+03 8.963410377502441406e+00 -1.683310127258300781e+01 2.561856739388083254e-14 -1.720244091488534743e-13 -4.392175167945884529e-14 2.342378813699821927e-14
4.680000000000000000e+03 8.391971588134765625e+00 -1.911784553527832031e+01 -3.173135514652862532e-14 -1.051010474939668982e-13 -4.104972045333547814e-14 9.059287743801505699e-14
4.681000000000000000e+03 3.759942626953125000e+01 -1.477107334136962891e+01 -1.916032707927756151e-13 1.466390621126037463e-13 -1.348926480633722350e-14 3.251053397844427817e-14
4.682000000000000000e+03 3.682909393310546875e+01 -8.198341369628906250e+00 1.779928946745411300e-14 -2.211264754203162708e-13 -6.099815612467182624e-14 -2.700015944601553280e-14
4.683000000000000000e+03 1.546028804779052734e+01 -3.265812301635742188e+01 -6.662395244869112609e-14 -8.574180455260885236e-14 -4.570972642276363573e-14 8.353678805552572362e-14
4.684000000000000000e+03 9.311006546020507812e+00 -2.349716567993164062e+01 -8.672786609969368454e-14 -3.345502585898330050e-13 -1.263834279200889976e-13 -2.532120970148363237e-14
4.685000000000000000e+03 6.915177154541015625e+01 8.574258804321289062e+00 -1.841789118136108461e-14 -5.149975565899196639e-14 -2.097529371329273640e-14 4.465948603629829247e-15
4.686000000000000000e+03 6.965243530273437500e+01 9.272872924804687500e+00 9.837244984800628395e-15 -1.902255750921982846e-13 -5.411649793107646544e-14 3.753390607081621630e-15
4.687000000000000000e+03 6.408485412597656250e+01 -8.086813926696777344e+00 6.796591839372913887e-16 9.179317733438302485e-14 2.774185198781749934e-14 -7.381013931561514196e-14
4.688000000000000000e+03 1.034279823303222656e+01 -6.306629180908203125e+00 2.292278170122445669e-14 -3.104325878387076409e-13 -8.625294489056356539e-14 -6.717815340058540599e-15
4.689000000000000000e+03 1.035696315765380859e+01 -6.908332824707031250e+00 -4.707568563482381063e-14 -2.031790941004960049e-13 -7.507643324296958687e-14 7.008532209445972327e-14
4.690000000000000000e+03 3.761169815063476562e+01 -2.746229934692382812e+01 5.530963870497423995e-14 -9.067324392405054501e-14 -1.060908004106358646e-14 -3.010604461041455071e-14
4.691000000000000000e+03 4.431145477294921875e+01 -2.591477394104003906e+01 -1.304057637699015948e-13 -2.846429418123380684e-13 -1.245146157404300458e-13 1.016424425637381390e-13
4.692000000000000000e+03 6.839461517333984375e+01 -9.897324562072753906e+00 6.858483372158483138e-14 -1.307348191292509454e-13 -1.864499765517890761e-14 8.057991123314178772e-14
4.693000000000000000e+03 1.494824409484863281e+01 -3.131085395812988281e+01 -4.348425238593842113e-14 -7.582479701626412827e-14 -3.579271211015533360e-14 -1.970081321250307868e-15
4.694000000000000000e+03 2.213266372680664062e+01 -1.145075607299804688e+01 6.155933916915032333e-14 -6.511932377877005518e-14 -1.067995361710095872e-15 1.031116076582235669e-14
4.695000000000000000e+03 7.141387176513671875e+01 -1.690847015380859375e+01 -7.881218735353995308e-14 -3.997842367483434023e-13 -1.435789285858177222e-13 -1.026637305170333830e-14
4.696000000000000000e+03 5.947410583496093750e+01 -7.680330753326416016e+00 -1.773383143891665847e-13 -7.375712182938060080e-15 -5.541421000451046686e-14 -1.219842505001747512e-13
4.697000000000000000e+03 1.104995727539062500e+01 -1.232575988769531250e+01 -7.687593949281829736e-15 8.820721253020510910e-14 2.415588548957368908e-14 9.685400268258370637e-14
4.698000000000000000e+03 4.110593795776367188e+01 -2.156634521484375000e+01 -9.931319682647890557e-14 -8.831374894617896598e-14 -5.628808373179736146e-14 1.177782236972887975e-13
4.699000000000000000e+03 3.134779167175292969e+01 -1.023256969451904297e+01 -1.198500933913271282e-13 -5.136432525512137082e-14 -5.136432525512137082e-14 1.562409869450970268e-13
4.700000000000000000e+03 9.209716796875000000e+00 -1.395932579040527344e+01 4.357024655887546671e-14 -2.100817756518422175e-13 -4.995345974432956193e-14 -8.176176952818213495e-15
4.701000000000000000e+03 3.928495025634765625e+01 -2.776850700378417969e+01 4.630966291864491158e-14 -9.453037446783066344e-14 -1.446621312594254666e-14 -1.199804890313592443e-14
4.702000000000000000e+03 3.124964332580566406e+01 -3.572816848754882812e+01 -6.987730435514122318e-14 1.580353245999015915e-14 -1.622213106032555086e-14 3.642768188873504731e-14
4.703000000000000000e+03 7.031450653076171875e+01 -1.286977577209472656e+01 1.593566180705871527e-13 -1.604590483920975696e-13 -3.307268729916385507e-16 1.021170215715575674e-14
4.704000000000000000e+03 4.104488372802734375e+01 -6.339684486389160156e+00 8.976475704240705067e-14 -7.590676270050403240e-14 4.157399911933505263e-15 -3.273082353110259857e-14
4.705000000000000000e+03 4.124471282958984375e+01 -5.536679744720458984e+00 1.676038187360326392e-13 -2.484264421780124632e-13 -2.424678398327533707e-14 -1.472607029807254664e-13
4.706000000000000000e+03 6.144396209716796875e+01 -3.282902145385742188e+01 -5.828648517612264324e-14 2.037748225366953214e-13 4.364649985291908785e-14 8.656736013245257266e-15
4.707000000000000000e+03 6.338665390014648438e+01 -3.437483215332031250e+01 -7.078793931233895442e-14 3.975522879916693758e-15 -2.004372518383656238e-14 9.504222123126338656e-15
4.708000000000000000e+03 3.836249160766601562e+01 -2.849969291687011719e+01 -7.115864497577069347e-15 -1.860534567122568150e-13 -5.795079585473039696e-14 1.526350152227049645e-14
4.709000000000000000e+03 7.010787963867187500e+01 -1.477784252166748047e+01 3.822514340104908592e-14 -3.496253850668318286e-13 -9.342007012804257049e-14 -7.498426928204474096e-14
4.710000000000000000e+03 7.564996337890625000e+01 -1.099183940887451172e+01 1.427384550617069592e-13 -7.607922538482858599e-14 1.999776856425033306e-14 1.666780591585287352e-14
4.711000000000000000e+03 4.336174011230468750e+01 -2.294884872436523438e+01 -2.032279103033121648e-13 -1.099731539015193216e-13 -9.396032129432851931e-14 1.000999752379973240e-13
4.712000000000000000e+03 3.926208496093750000e+01 -2.482180404663085938e+01 -6.334578586501826702e-14 -1.644010448609289909e-13 -6.832404921778417739e-14 1.161557964613271765e-13
4.713000000000000000e+03 2.342378234863281250e+01 -1.040629386901855469e+01 8.423905290769889698e-14 7.470481617208660219e-14 4.768316072393564975e-14 6.737588731289129163e-14
4.714000000000000000e+03 5.753820037841796875e+01 -3.750204467773437500e+01 -1.453711418819905732e-13 -6.158706086344806208e-14 -6.208746082363159058e-14 1.876995873182144003e-14
4.715000000000000000e+03 5.971638107299804688e+01 -3.413156509399414062e+01 -8.803672851484534156e-14 1.452737669743742188e-13 1.717111119904548427e-14 4.873896357576561200e-14
4.716000000000000000e+03 3.396384811401367188e+01 -3.353510665893554688e+01 -8.472993221755528714e-14 3.231359543007586432e-14 -1.572490069743064794e-14 2.216483459716468013e-14
4.717000000000000000e+03 9.910072326660156250e+00 -2.561600112915039062e+01 2.871689024812676405e-15 -1.588975939758111022e-13 -4.680777250173906445e-14 -5.410771589347933286e-14
4.718000000000000000e+03 1.008844184875488281e+01 -2.461086273193359375e+01 -1.318432667728186569e-13 -2.852589854867443320e-13 -1.251306729673634655e-13 5.249872514116000685e-15
4.719000000000000000e+03 4.344725418090820312e+01 -2.388214492797851562e+01 -7.402735922087261278e-14 -2.604807645620321743e-13 -1.003524317138605737e-13 1.029393719787288775e-13
4.720000000000000000e+03 5.905620574951171875e+01 -3.261367416381835938e+01 -1.442384453792088655e-14 1.081957264124737417e-13 2.813156337651973038e-14 9.831866494992153038e-14
4.721000000000000000e+03 6.324079132080078125e+01 -3.656332015991210938e+01 -1.401294580588921534e-13 8.570944281182605456e-15 -3.946755099929095956e-14 -2.223056604793750834e-14
4.722000000000000000e+03 3.496892166137695312e+01 -3.115678787231445312e+01 -2.890615467799305394e-14 -3.526382812602153749e-14 -1.925099551883073523e-14 -1.717814157250769497e-14
4.723000000000000000e+03 3.813975524902343750e+01 -3.050190734863281250e+01 4.069968165266291517e-16 -1.599538914948822610e-13 -4.786407002081022322e-14 -1.677339534899170009e-14
4.724000000000000000e+03 4.605748748779296875e+01 -2.839302825927734375e+01 -8.482397997975482662e-14 -2.651078683836571859e-13 -1.049795558642763194e-13 9.416301966673826240e-14
4.725000000000000000e+03 5.889779281616210938e+01 -3.566528320312500000e+01 -1.412346530959424085e-13 4.241049921189024574e-14 -2.964724413233657541e-14 8.378971209357585770e-14
4.726000000000000000e+03 5.076419067382812500e+01 -3.578719711303710938e+01 -6.648682797892602192e-14 -1.771849404393413541e-13 -7.310153188073292840e-14 7.478835394947661031e-14
4.727000000000000000e+03 4.812798309326171875e+01 -3.392936325073242188e+01 -5.730526188123252762e-14 -2.190009241662127515e-13 -8.289185716948629934e-14 9.640876150792537791e-14
4.728000000000000000e+03 5.252742385864257812e+01 -3.349699783325195312e+01 -3.718976420764331936e-14 -1.074403695351666688e-13 -4.338903910640345973e-14 9.922061273721222152e-14
4.729000000000000000e+03 5.596611785888671875e+01 -3.603264999389648438e+01 -1.128451512463247985e-13 -2.611260274849869223e-15 -3.463692548923147374e-14 8.065314231362960551e-14
4.730000000000000000e+03 3.590065383911132812e+01 -3.264389038085937500e+01 -5.649529848388186448e-14 1.010093989380804816e-14 -1.391830816994520797e-14 -5.451815417840087663e-14
4.731000000000000000e+03 5.097010135650634766e+00 -3.677501296997070312e+01 5.148943879769440901e-14 4.494237555892344194e-14 2.892954633986442869e-14 4.979733378445870204e-15
4.732000000000000000e+03 4.936853790283203125e+01 -3.323208999633789062e+01 -3.844316290540876480e-14 -2.681058500209054785e-13 -9.196470489433380968e-14 -4.764844084342769598e-15
4.733000000000000000e+03 2.754396438598632812e+01 -3.508917236328125000e+01 -3.151949526576137972e-14 -1.350835523490244092e-14 -1.350835523490244092e-14 -4.081976794881488069e-14
4.734000000000000000e+03 7.184210205078125000e+01 1.395160102844238281e+01 1.967116070660207376e-15 -1.535664092633740041e-13 -4.547978747077019435e-14 -7.253830071058797041e-15
4.735000000000000000e+03 5.062532043457031250e+01 -6.161310195922851562e+00 -1.016165436843428915e-13 -1.350518411295451027e-13 -7.100051747704547167e-14 -1.521617169287017846e-13
4.736000000000000000e+03 5.128942489624023438e+01 -6.027120113372802734e+00 -1.733062071672744620e-13 -2.115269358326024585e-13 -1.154499401894576449e-13 -3.491729000664085814e-15
4.737000000000000000e+03 5.467063903808593750e+01 -2.087678670883178711e+00 -1.143206487591238996e-13 -2.319983669150232908e-13 -1.038957060574968727e-13 -2.774971550288662936e-13
4.738000000000000000e+03 7.188032531738281250e+01 1.303736019134521484e+01 -8.276950495432131016e-14 -1.727254949311640697e-13 -7.664849928801925616e-14 -1.239686386314206579e-13
4.739000000000000000e+03 7.672847747802734375e+00 -8.670175552368164062e+00 7.449753704549810784e-14 -2.197027011274083064e-13 -4.356154922457305956e-14 7.711832474693869344e-14
4.740000000000000000e+03 7.283124542236328125e+01 1.391626930236816406e+01 9.969808859771125964e-14 -5.520346007571730329e-13 -1.357009529702121742e-13 -5.760039526511023800e-14
4.741000000000000000e+03 5.650755310058593750e+01 -4.814540863037109375e+00 -1.322772593499374483e-13 -1.093930430588014799e-14 -4.296496697916291074e-14 4.688004474093059037e-14
4.742000000000000000e+03 7.121819305419921875e+01 -1.612199592590332031e+01 -8.918888983475495302e-14 -3.584804436802813132e-13 -1.343008007321372377e-13 1.045563307699830247e-13
4.743000000000000000e+03 5.324256134033203125e+01 -2.538799524307250977e+00 -9.443660114430603436e-15 -4.979823248641573885e-14 -1.777256727203413433e-14 -1.340870502738317205e-13
4.744000000000000000e+03 4.638260269165039062e+01 -7.305579185485839844e+00 7.599932646097998235e-14 -1.046817051987038172e-13 -8.604712943690792648e-15 -1.422514721034079388e-13
4.745000000000000000e+03 4.224272537231445312e+01 -3.834513664245605469e+00 3.012695954794815389e-14 -2.158431853388487198e-13 -5.571486943133606429e-14 -1.262322613381243117e-14
4.746000000000000000e+03 9.107040405273437500e+00 -1.489668178558349609e+01 -1.051880581064406489e-14 -7.367494269283798858e-15 -5.365889769868474948e-15 -4.373171814367644850e-14
4.747000000000000000e+03 2.275416183471679688e+01 -7.021095275878906250e+00 -1.205450805364174927e-13 -2.371679783987057366e-13 -1.073139176805369688e-13 6.691032412376243799e-14
4.748000000000000000e+03 2.145172882080078125e+01 -1.008435058593750000e+01 5.632364556305488601e-14 4.701418087845778138e-14 3.100134827126697912e-14 1.635619604708517250e-14
4.749000000000000000e+03 5.255476379394531250e+01 -2.721242189407348633e+00 7.598595350480873145e-15 1.633848628222397958e-13 5.129503796003596905e-14 -1.072339442177890068e-13
4.750000000000000000e+03 5.850437545776367188e+01 -6.185570716857910156e+00 -3.529589001714100727e-14 -1.512681073337438648e-14 -1.512681073337438648e-14 -6.059383680576124753e-14
4.751000000000000000e+03 1.532116889953613281e+01 -6.317337512969970703e+00 -9.582867268806416483e-14 1.419343700730102409e-13 1.383170752141792831e-14 -9.605428838389482027e-14
4.752000000000000000e+03 7.474169158935546875e+01 1.395806312561035156e+01 5.660597180877011136e-14 -4.561252634274759465e-13 -1.198557854527326771e-13 5.265196780087841311e-14
4.753000000000000000e+03 7.390496063232421875e+01 1.463280868530273438e+01 8.134096017185440952e-14 -2.625207451596722752e-13 -5.435393820685079092e-14 -9.971608635377451901e-14
4.754000000000000000e+03 6.431093597412109375e+01 -8.814616203308105469e+00 3.622520713302337936e-14 -7.597680893711017402e-14 -1.192548020241285950e-14 -4.728429290907359972e-14
4.755000000000000000e+03 6.334761810302734375e+01 -7.215728759765625000e+00 -4.495923490270559153e-14 -1.926824280370272729e-14 -1.926824280370272729e-14 -5.168149504815484907e-14
4.756000000000000000e+03 1.106308841705322266e+01 -6.413732051849365234e+00 -8.520888022131665324e-15 -2.781574883620185901e-13 -8.600351740451969706e-14 6.841512897653653780e-14
4.757000000000000000e+03 4.956350326538085938e+01 -2.168021917343139648e+00 -1.164672199828464816e-13 -2.329183124583772413e-13 -1.048156583771144013e-13 8.614714031105613623e-14
4.758000000000000000e+03 4.848737716674804688e+01 -4.285089492797851562e+00 9.308758259119094547e-15 4.974041740556794933e-14 1.771475219118634481e-14 -9.311336966223715539e-14
4.759000000000000000e+03 6.283941650390625000e+01 1.277309894561767578e+00 -1.913872977200165026e-13 1.009806658864437212e-13 -2.712198988888501333e-14 -8.515596268496988808e-14
4.760000000000000000e+03 7.575067138671875000e+01 1.437364768981933594e+01 8.654311127323857655e-14 -2.602912731273360203e-13 -5.212444584572380191e-14 8.207722831466215951e-14
4.761000000000000000e+03 8.438018798828125000e+00 -4.904469490051269531e+00 4.466218383623529742e-14 -7.236096081055312657e-14 -8.309633769921706548e-15 2.406830397689348894e-14
4.762000000000000000e+03 6.101672363281250000e+01 -4.267763495445251465e-01 -4.959718752231903616e-14 1.159969066329494258e-13 1.991991607200229580e-14 9.131201518649753601e-15
4.763000000000000000e+03 7.034510040283203125e+01 -2.171061897277832031e+01 -6.499365797071540718e-14 -4.853639191948477816e-13 -1.651072670510317364e-13 -4.317116444467776135e-15
4.764000000000000000e+03 4.484473419189453125e+01 -3.159641265869140625e+00 -1.439697021538358102e-13 -1.989541479697001791e-13 -1.028771591028189436e-13 -5.032269855845489335e-16
4.765000000000000000e+03 1.828143501281738281e+01 -9.646453857421875000e+00 -3.435450098769436689e-14 1.225294822201905554e-13 2.645249674144110885e-14 -9.822599954549190993e-14
4.766000000000000000e+03 1.697366333007812500e+01 -6.597678661346435547e+00 -9.152855746539720339e-14 -2.222303152046509189e-13 -9.412766112338807889e-14 -6.087476036491581977e-14
4.767000000000000000e+03 3.751832199096679688e+01 -7.965718269348144531e+00 -3.497920811508514749e-14 3.075985917800477809e-14 -1.265804024673576698e-15 -1.167612014019159261e-13
4.768000000000000000e+03 3.589535140991210938e+01 -7.743596076965332031e+00 -6.116299551247109112e-14 -7.196366170070939150e-14 -3.993799648632778698e-14 -1.040979775253011996e-13
4.769000000000000000e+03 3.578132247924804688e+01 -1.361896896362304688e+01 -4.656623766869771169e-15 2.725099876657588460e-13 8.035600993199637498e-14 -2.373395127349200995e-14
4.770000000000000000e+03 1.182552433013916016e+01 -6.496712684631347656e+00 2.356274219792939273e-14 -1.271545260576878444e-13 -3.107753719080660892e-14 -2.888550274418957321e-15
4.771000000000000000e+03 1.117352104187011719e+01 -1.115171432495117188e+01 1.197253965889641392e-13 1.199373039035764310e-13 7.189881285826760227e-14 3.128777754457870430e-14
4.772000000000000000e+03 6.530438995361328125e+01 -3.052454376220703125e+01 -2.808237956140446218e-14 -5.778625462252856559e-14 -2.576059110221285559e-14 -1.670535996860234018e-13
4.773000000000000000e+03 6.683170318603515625e+01 -2.964235496520996094e+01 1.156415051608086775e-13 -1.791941025902285545e-13 -1.906577651832053188e-14 -1.293560798840825976e-13
4.774000000000000000e+03 7.474272918701171875e+01 -2.974834823608398438e+01 9.825401939538708218e-14 -3.238987311866836638e-13 -6.769340947163082767e-14 9.024488072789920573e-15
4.775000000000000000e+03 7.498863983154296875e+01 -3.028302574157714844e+01 5.336055829510168158e-14 -5.604557616611938187e-13 -1.521285674472780403e-13 1.140545618290734337e-14
4.776000000000000000e+03 4.368373870849609375e+01 -3.145397424697875977e+00 7.510118693382014654e-14 -5.931567764088166439e-14 4.735653634914491900e-15 -2.307646261578977231e-13
4.777000000000000000e+03 4.346161651611328125e+01 -3.571331739425659180e+00 -1.965825776901325428e-13 -1.757515709572068929e-13 -1.117002405284436839e-13 -1.126053528308253171e-13
4.778000000000000000e+03 7.623193359375000000e+01 1.286479282379150391e+01 -3.555972638065061850e-15 -1.387768345335535503e-13 -4.269984227854052572e-14 -7.245899979200012830e-14
4.779000000000000000e+03 1.256260108947753906e+01 -6.455125808715820312e+00 1.999873756994199198e-14 -1.973083832819758077e-13 -5.319289320539037635e-14 1.109392322473125303e-13
4.780000000000000000e+03 1.372986316680908203e+01 -6.465860366821289062e+00 -2.606105571146058453e-14 -1.116902387634025051e-14 -1.116902387634025051e-14 1.915308325351264274e-13
4.781000000000000000e+03 6.552256011962890625e+01 2.950960874557495117e+00 -9.081453579591614034e-14 -1.761733662598852224e-13 -8.009637061674040881e-14 -4.414522946413063087e-14
4.782000000000000000e+03 4.688994884490966797e+00 -5.369455337524414062e+00 5.582639317730335449e-14 2.392559756000597893e-14 2.392559756000597893e-14 1.627851634955837512e-14
4.783000000000000000e+03 4.645757675170898438e+00 -7.931132793426513672e+00 1.192380612649590610e-13 -4.039987338807018991e-14 2.365145534662712462e-14 -8.109600501977204390e-14
4.784000000000000000e+03 2.703735160827636719e+01 -1.129029369354248047e+01 5.015943444017928465e-14 -2.072578491208593165e-13 -4.712952304895129396e-14 1.060301071118333049e-13
4.785000000000000000e+03 6.477920532226562500e+01 -7.979970932006835938e+00 7.260725088656036497e-14 3.056230941066162554e-13 1.134691028203266283e-13 -8.050411194875789489e-14
4.786000000000000000e+03 6.407736206054687500e+01 -7.266973972320556641e+00 -6.115773035567095839e-14 -9.483687842199231555e-14 -4.679838398855169779e-14 -3.521521182298092967e-14
4.787000000000000000e+03 7.604328918457031250e+01 -2.867658805847167969e+01 2.516570800489489890e-14 -5.382260934681803999e-13 -1.539181108956011457e-13 3.958047404368711386e-14
4.788000000000000000e+03 7.572970581054687500e+01 1.371927452087402344e+01 1.292652508470826245e-13 -2.648572550514871615e-13 -4.067759855081592990e-14 -1.691093554252731668e-13
4.789000000000000000e+03 4.231038093566894531e+00 -2.994235229492187500e+01 -9.703225907226747937e-14 -8.733620516241172305e-14 -5.531053994803011853e-14 1.104872554666576356e-13
4.790000000000000000e+03 1.521642398834228516e+01 -7.913560390472412109e+00 1.376218068541504302e-13 1.962336136683909271e-13 1.001566248015096916e-13 3.685344808187010490e-14
4.791000000000000000e+03 2.616679191589355469e+01 -6.602157115936279297e+00 -8.697980757952500364e-14 -3.575336912382126586e-13 -1.333540482900685831e-13 4.195695033808524710e-14
4.792000000000000000e+03 2.398280143737792969e+01 -1.098683547973632812e+01 5.337938614345325017e-14 -2.058778630431926104e-13 -4.574954374754816588e-14 6.033377736216344323e-14
4.793000000000000000e+03 2.494768142700195312e+01 -8.421875953674316406e+00 -1.038055749756454371e-13 4.701379463143383342e-14 -1.703753579732937562e-14 1.009362203736353936e-13
4.794000000000000000e+03 7.429273223876953125e+01 -2.391781806945800781e+01 -1.457953766395569950e-13 -2.912384688882191375e-13 -1.311101563688382710e-13 -1.037552070084699074e-13
4.795000000000000000e+03 4.567697906494140625e+01 -4.232761859893798828e+00 8.338378680019728484e-14 1.422696019966109698e-15 2.544194408371936583e-14 5.615598724960715882e-14
4.796000000000000000e+03 4.270657062530517578e+00 -3.072215270996093750e+01 4.539798441685616304e-14 1.945627903579549844e-14 1.945627903579549844e-14 1.621425534798198037e-14
4.797000000000000000e+03 4.959447860717773438e+00 -2.993768882751464844e+01 8.842691085386624600e-15 4.954067348407822924e-14 1.751500996376251923e-14 -9.382677469173261731e-14
4.798000000000000000e+03 7.592152404785156250e+01 -2.694829177856445312e+01 1.147400588170227609e-13 -5.913389894939002911e-13 -1.429796764925578278e-13 9.183134802711809264e-14
4.799000000000000000e+03 7.468180847167968750e+01 -2.911071968078613281e+01 1.362013258253413905e-13 -3.076355901791838487e-13 -5.143028201665816868e-14 -1.775011073453652832e-14
4.800000000000000000e+03 5.242386245727539062e+01 -5.123899459838867188e+00 1.116782989869780085e-13 3.681187570481886384e-13 1.439391141000445629e-13 9.026738639330775249e-14
4.801000000000000000e+03 7.450562286376953125e+01 -1.787668037414550781e+01 1.837494661093529158e-14 -1.751288187818583753e-13 -4.702616131246374620e-14 1.631732943208064057e-13
4.802000000000000000e+03 7.561178588867187500e+01 -1.971122550964355469e+01 -7.967448722263556493e-14 -7.989715524380977540e-14 -4.787149341755995990e-14 -1.397471006102379842e-13
4.803000000000000000e+03 7.570361328125000000e+01 9.649607658386230469e+00 -1.081854264918351294e-13 -3.666218262136922146e-13 -1.424421697130209830e-13 1.355545721243994750e-13
4.804000000000000000e+03 7.594204711914062500e+01 -2.128811836242675781e+01 -1.535558789497737386e-13 -5.690700731822428970e-13 -2.167877964816267156e-13 5.626061275925201000e-14
4.805000000000000000e+03 7.560616302490234375e+01 -2.287658500671386719e+01 -1.436756529721305853e-13 -2.445790694537847143e-13 -1.164764221487854523e-13 1.256424028402494675e-13
4.806000000000000000e+03 7.574185180664062500e+01 -1.834362030029296875e+01 -4.612098463557812167e-14 -6.551708367453709658e-14 -3.349142184828728108e-14 -5.088674097440508415e-14
4.807000000000000000e+03 7.573039245605468750e+01 -1.903560066223144531e+01 -7.154143949342564590e-14 -1.221625204423856803e-13 -5.811118323735889324e-14 4.240107342925319989e-14
4.808000000000000000e+03 7.650548934936523438e+00 -2.303742980957031250e+01 -7.727947784735150760e-14 -2.161235735731806273e-13 -8.802091271565420927e-14 1.927665892306664602e-14
4.809000000000000000e+03 6.286263942718505859e+00 -2.560130310058593750e+01 3.245732580391748638e-16 9.164100278321110626e-14 2.758967235444789723e-14 -4.784081896640809267e-15
4.810000000000000000e+03 7.551344299316406250e+01 4.293251991271972656e+00 -1.508202606857397821e-13 -2.933919925583727828e-13 -1.332636800389919163e-13 1.965745816991104622e-13
4.811000000000000000e+03 7.547858428955078125e+01 3.489422798156738281e+00 -1.731732568758734270e-13 -3.944737602974007773e-13 -1.702941037967295457e-13 2.806592577699745794e-13
4.812000000000000000e+03 6.225475311279296875e+01 7.688142657279968262e-01 -5.148207638731687463e-14 -2.206374799117345742e-14 -2.206374799117345742e-14 -1.541772623198794934e-13
4.813000000000000000e+03 7.481063842773437500e+01 3.688306570053100586e+00 -2.547753674697617043e-13 -4.294460837286906418e-13 -2.052664407805465663e-13 1.639727850027972167e-13
4.814000000000000000e+03 7.555448150634765625e+01 -9.433610916137695312e+00 7.539307448744397844e-14 -1.735679471242396188e-13 -2.945246382391776552e-14 -1.013812718129135371e-13
4.815000000000000000e+03 7.570536041259765625e+01 -1.763474082946777344e+01 4.570741232875173699e-14 -3.006677480772712574e-13 -7.648809835286360381e-14 1.399167511451776535e-13
4.816000000000000000e+03 7.510350036621093750e+01 -1.097051811218261719e+01 -5.962199185966313153e-14 -5.288127249460095047e-13 -1.765304075878118550e-13 -1.913921766297926874e-13
4.817000000000000000e+03 7.559873199462890625e+01 -1.022651481628417969e+01 9.218156226948985565e-15 -2.934305359456046425e-13 -8.526371205212421311e-14 -1.700170630366051872e-13
4.818000000000000000e+03 7.616609191894531250e+01 -1.526771259307861328e+01 8.614461276474152940e-14 -1.918356288708664148e-13 -3.170730279895839221e-14 -1.232879087448984778e-13
4.819000000000000000e+03 7.564607238769531250e+01 -1.690186309814453125e+01 -3.190690103078118456e-14 -5.942533113810141709e-14 -2.739967100591749610e-14 -2.957616451553478354e-14
4.820000000000000000e+03 7.122364807128906250e+01 -1.342312908172607422e+01 5.895495002556858100e-14 -1.577373892310343639e-13 -2.963473176163973488e-14 -7.103231001168771458e-15
4.821000000000000000e+03 7.549342346191406250e+01 -3.037771224975585938e+00 -9.196261102888819705e-14 -1.309144443241774813e-13 -6.686311389541427230e-14 -4.390493638138995292e-14
4.822000000000000000e+03 7.493045806884765625e+01 -4.499224662780761719e+00 -8.577852512493822079e-14 -2.883924381854446883e-13 -1.122512862826094415e-13 -2.444827380907593772e-13
4.823000000000000000e+03 7.620432281494140625e+01 -6.280519008636474609e+00 -2.552761875582870710e-13 -3.381588357855708216e-13 -1.780305097136627990e-13 -2.101539699640025960e-13
4.824000000000000000e+03 7.551551055908203125e+01 -8.623360633850097656e+00 -6.081558325508884533e-14 -1.861921397226448671e-13 -7.410231824857282934e-14 -1.711144653705407026e-13
4.825000000000000000e+03 7.495935821533203125e+01 -2.044367218017578125e+01 -6.760680882310354800e-14 -3.034800329874270952e-13 -1.113260552536646242e-13 -6.099324333357775130e-14
4.826000000000000000e+03 7.613928985595703125e+01 -2.057125854492187500e+01 -9.995394675789068262e-14 -2.487166830995868327e-13 -1.046011896348696124e-13 -1.222661159599666703e-13
4.827000000000000000e+03 7.556910705566406250e+01 -1.613684463500976562e+01 1.353083498110280170e-13 -3.351260783636400564e-14 3.053872259239920339e-14 5.019504709341364446e-14
4.828000000000000000e+03 7.555767822265625000e+01 -6.135603904724121094e+00 6.838271810784279925e-14 -3.367007193888493788e-13 -8.049539767379654265e-14 1.841963098703474494e-14
4.829000000000000000e+03 7.554018402099609375e+01 -1.256138706207275391e+01 1.040686972903805130e-13 -9.265197387520879291e-14 3.425016897496573932e-15 -5.546991343222075141e-15
4.830000000000000000e+03 7.539761352539062500e+01 -1.344878387451171875e+01 3.761065487913398120e-14 1.611885233306683401e-14 1.611885233306683401e-14 -9.544323881574556800e-14
4.831000000000000000e+03 7.556087493896484375e+01 -4.579248905181884766e+00 9.887496908462384271e-14 -2.778816673293382777e-13 -5.370200405240346808e-14 9.956273273274002245e-14
4.832000000000000000e+03 7.558135223388671875e+01 -5.340472698211669922e+00 -1.561807053043068327e-13 -2.041874292259618362e-13 -1.081104403590806007e-13 -2.112009840019718476e-13
4.833000000000000000e+03 7.616792297363281250e+01 -7.448298335075378418e-01 -5.307663488406111352e-13 -1.359693878755924290e-13 -2.000207183043556380e-13 -1.089195601116157985e-13
4.834000000000000000e+03 7.548725128173828125e+01 -2.240947723388671875e+00 -1.837578347948717883e-13 -1.702552487013730964e-13 -1.062039250488734654e-13 -2.842722801946195865e-13
4.835000000000000000e+03 7.552482604980468750e+01 -2.190075302124023438e+01 -8.269815089884460790e-14 -3.271043646450172426e-13 -1.229407472092686193e-13 9.777935568427292834e-14
4.836000000000000000e+03 6.970906066894531250e+01 8.062339782714843750e+00 1.722008494998983341e-14 -3.837091099500797298e-14 -6.345248321725210222e-15 1.381140922386992625e-14
4.837000000000000000e+03 7.539352416992187500e+01 1.835483551025390625e+00 -3.045236317885530175e-13 -2.220120246497481187e-13 -1.579607077735120657e-13 1.345545718031346261e-13
4.838000000000000000e+03 7.542152404785156250e+01 9.945293664932250977e-01 -4.662880324912688224e-13 -1.083358324382131810e-13 -1.723871560907128120e-13 1.975985022308057726e-13
4.839000000000000000e+03 7.546163940429687500e+01 1.697463095188140869e-01 -5.151219078028401732e-13 -1.292646274308334453e-13 -1.933159578595966543e-13 6.932311441467525759e-14
4.840000000000000000e+03 7.518559265136718750e+01 9.794326782226562500e+00 -5.463064015379624772e-14 -4.351716740864236543e-13 -1.469406871569892137e-13 -1.121247327840260710e-13
4.841000000000000000e+03 7.474880218505859375e+01 7.706362724304199219e+00 -6.871902406922064666e-14 -3.497076489066691662e-13 -1.255280059585250907e-13 1.946844649467621702e-13
4.842000000000000000e+03 7.618624877929687500e+01 5.718264102935791016e+00 -8.217708333474807447e-14 -3.554753876238575527e-13 -1.312957446757134772e-13 3.376265738340433753e-13
4.843000000000000000e+03 7.556383514404296875e+01 8.236046791076660156e+00 -1.486152848462381215e-14 -1.893730262663914643e-13 -6.127036540886504623e-14 1.748763352009408134e-13
4.844000000000000000e+03 7.546771240234375000e+01 6.686704158782958984e+00 -5.487583247510384454e-14 -3.895258139478829928e-13 -1.333204922328301567e-13 1.190493016667293347e-13
4.845000000000000000e+03 7.559683990478515625e+01 1.179148483276367188e+01 -1.653395573664867557e-13 -9.373528835716557484e-14 -7.772245574997477258e-14 8.976663406741816620e-14
4.846000000000000000e+03 4.571094512939453125e+00 -2.265083885192871094e+01 -1.348875933942594949e-15 -4.632903964434630095e-14 -1.430337442996469643e-14 3.944340717216242298e-14
4.847000000000000000e+03 4.508476734161376953e+00 -2.754252052307128906e+01 -1.527553447231919104e-14 3.920428977115253399e-14 7.178627097869771240e-15 1.200925091386336255e-14
4.848000000000000000e+03 5.485100269317626953e+00 -2.920077323913574219e+01 4.496929426598718360e-14 -1.408557650942401929e-13 -2.876594023203636608e-14 -4.114101027625875762e-14
4.849000000000000000e+03 4.313324928283691406e+00 -3.315671539306640625e+01 -4.118822728087050133e-14 1.653517004308185934e-13 3.724904296142396432e-14 8.920725350905142625e-14
4.850000000000000000e+03 7.633353424072265625e+01 1.097577953338623047e+01 5.028706197653977361e-14 -1.614522046871486038e-13 -3.334954044149039676e-14 3.030903775028993830e-14
4.851000000000000000e+03 4.285017490386962891e+00 -3.238691711425781250e+01 3.661994142710282840e-14 -7.181213089457738619e-15 8.831618670700116386e-15 3.688671953603825382e-14
4.852000000000000000e+03 7.508465576171875000e+01 -2.726575660705566406e+01 9.955716942034245620e-14 -6.207214104693437040e-13 -1.563492716370740165e-13 -1.134244794305993773e-14
4.853000000000000000e+03 7.483122253417968750e+01 -2.780344390869140625e+01 -7.218299580020320905e-14 -6.714488448751609884e-13 -2.230895589788728373e-13 -1.651203825091870220e-14
4.854000000000000000e+03 5.927384376525878906e+00 -5.018984317779541016e+00 -6.602879321863236450e-14 -2.113018419090673117e-13 -8.319919460406804967e-14 1.305972203210353788e-13
4.855000000000000000e+03 3.911145448684692383e+00 -2.265671730041503906e+01 -2.742564781234389099e-14 -3.548859611127858082e-13 -1.146934787811873524e-13 1.160229274850890779e-13
4.856000000000000000e+03 4.578666210174560547e+00 -2.194880294799804688e+01 5.934835956011852431e-14 -1.575687822406857119e-13 -2.946612477129108287e-14 1.433111577542681148e-13
4.857000000000000000e+03 3.984689474105834961e+00 -2.342468643188476562e+01 -3.981472439338207964e-15 -4.745729430635260704e-14 -1.543163078603689703e-14 1.395760287540128222e-14
4.858000000000000000e+03 5.822125434875488281e+00 -5.527938842773437500e+00 -2.512091351451230248e-14 -5.651705367809914393e-14 -2.449139015778343392e-14 1.541336231824369518e-13
4.859000000000000000e+03 5.305359840393066406e+00 -2.457404327392578125e+01 -1.871311773886299296e-14 -4.805198936235627327e-14 -2.002953229977236932e-14 4.911476498940803292e-14
4.860000000000000000e+03 3.930375814437866211e+00 -1.002432918548583984e+01 2.952219835239931756e-14 -2.618533103022901987e-13 -6.969933934479130566e-14 -1.312247158808885206e-13
4.861000000000000000e+03 4.649931907653808594e+00 -9.419584274291992188e+00 -1.564157129014566439e-14 3.904741926932103757e-14 7.021754478455906681e-15 -8.105660782332935188e-14
4.862000000000000000e+03 7.529359436035156250e+01 -2.542430305480957031e+01 -5.175081622455814101e-14 -5.711902847406469252e-13 -1.868823428256491392e-13 6.084897668200139886e-14
4.863000000000000000e+03 7.408766174316406250e+01 -3.183686637878417969e+01 2.924837292934273636e-14 -3.992235144897882115e-13 -1.109925478891445050e-13 -2.631165210297166379e-14
4.864000000000000000e+03 7.535229492187500000e+01 -3.202142715454101562e+01 -4.988097087646177572e-16 -3.204704297071758745e-13 -9.629076643024106485e-14 -4.176177023011533318e-14
4.865000000000000000e+03 4.696515560150146484e+00 -2.036316680908203125e+01 -5.179904628057480087e-14 -4.507506496417672259e-14 -2.906223235698592033e-14 1.526155910631585289e-13
4.866000000000000000e+03 3.944031000137329102e+00 -2.031783294677734375e+01 1.203378861131237237e-14 2.803281288739703503e-14 1.201998028020623277e-14 -5.154733858183692397e-14
4.867000000000000000e+03 4.679318428039550781e+00 -1.620321655273437500e+01 5.303459968820749271e-14 2.272911270003244444e-14 2.272911270003244444e-14 3.467608890458072357e-14
4.868000000000000000e+03 3.942438602447509766e+00 -1.783733749389648438e+01 -5.725266452333982459e-14 -7.028780362643496926e-14 -3.826214180018515376e-14 1.930013020603506269e-14
4.869000000000000000e+03 5.297403812408447266e+00 -5.481132507324218750e+00 -9.683724498275522730e-15 -1.871539625749110702e-13 -5.905130849364823020e-14 -5.670909637603242792e-14
4.870000000000000000e+03 3.807639598846435547e+00 -6.755567073822021484e+00 7.527898253758061320e-14 1.008888475149613551e-13 5.285034969338894828e-14 1.500593540485622990e-13
4.871000000000000000e+03 4.701131343841552734e+00 -1.540132427215576172e+01 -1.532208198208942496e-13 -1.800434394670993865e-13 -9.997927643114537521e-14 -3.959660493913462476e-15
4.872000000000000000e+03 3.938459634780883789e+00 -1.620424461364746094e+01 -7.699444787246864652e-14 -3.299762196882875809e-14 -3.299762196882875809e-14 1.491378957043645523e-15
4.873000000000000000e+03 4.590572834014892578e+00 -1.163358402252197266e+01 2.356087364324774974e-14 -1.729062720908988715e-13 -4.480362139776782049e-14 5.082161091702480649e-14
4.874000000000000000e+03 3.892821550369262695e+00 -1.310277080535888672e+01 -1.297857898626200712e-13 -1.013734316759537513e-13 -6.934776646157214675e-14 -6.067387125488141186e-14
4.875000000000000000e+03 4.800174236297607422e+00 -8.820987701416015625e+00 1.096065106081026141e-13 -6.740315499752930206e-14 1.266100634435881472e-14 -7.771618092990151272e-14
4.876000000000000000e+03 7.014070987701416016e+00 -1.602714157104492188e+01 -4.531118386855333136e-14 -3.396757159400409787e-13 -1.154960729918969031e-13 1.029408288753981549e-13
4.877000000000000000e+03 6.672625064849853516e+00 -1.185366344451904297e+01 1.873742046937243444e-13 -1.027005628977117890e-13 2.540209287761694551e-14 1.051857236836380161e-13
4.878000000000000000e+03 4.658066272735595703e+00 -2.118873405456542969e+01 9.374041798869414688e-14 -5.132743188807076251e-14 1.272389515256065751e-14 -7.751170040017074658e-14
4.879000000000000000e+03 9.590711593627929688e+00 -1.249669456481933594e+01 3.811059574746009787e-15 1.388861627701215573e-13 4.280916373884495474e-14 9.183347577388159544e-14
4.880000000000000000e+03 4.679167270660400391e+00 -1.458411598205566406e+01 6.275282892062236662e-14 -1.885687955880278183e-14 1.316878396151292818e-14 1.064280228616626411e-13
4.881000000000000000e+03 4.630803585052490234e+00 -1.240826797485351562e+01 9.634433109975953230e-15 4.129042519408852169e-15 4.129042519408852169e-15 -3.529425016135512294e-14
4.882000000000000000e+03 2.553451156616210938e+01 -8.423758506774902344e+00 6.635306707699446457e-15 -2.945374521536037182e-13 -8.637064858891402297e-14 1.303639677761522786e-13
4.883000000000000000e+03 7.468518066406250000e+01 1.162981891632080078e+01 -9.060115125584383700e-14 -8.458001416215485402e-14 -5.255434894777324950e-14 -1.134900618035734887e-13
4.884000000000000000e+03 7.547889709472656250e+01 1.023320102691650391e+01 1.256447880850289356e-13 -2.206579238989495040e-13 -2.850393938892345491e-14 1.230159501824576451e-13
4.885000000000000000e+03 7.585595703125000000e+01 1.067536735534667969e+01 -1.011528371914344193e-13 -2.263550132920733038e-13 -9.825235243454688572e-14 1.584117629823203477e-13
4.886000000000000000e+03 7.469483184814453125e+01 -2.844015884399414062e+01 1.005996467498462138e-14 -5.446999730603085954e-13 -1.603920040402564973e-13 1.869419197350272177e-13
4.887000000000000000e+03 3.819870376586914062e+01 -7.747593402862548828e+00 4.931855772838562857e-14 -1.847427511534119327e-13 -4.062725430056292331e-14 7.479518611722916349e-15
4.888000000000000000e+03 3.800603103637695312e+01 -7.077183246612548828e+00 -2.824310575721186017e-14 7.939771073679074975e-14 1.534638030802754072e-14 -2.197125707553097135e-14
4.889000000000000000e+03 2.648039817810058594e+01 -1.063621044158935547e+01 -1.617257116258170174e-14 -2.356858469238637399e-13 -7.555752762821929536e-14 1.315438778954139409e-14
4.890000000000000000e+03 2.598692321777343750e+01 -1.000767707824707031e+01 1.139194668502499508e-13 -1.799321190090394373e-13 -1.980379463119730926e-14 4.702909543459303510e-14
4.891000000000000000e+03 1.489758586883544922e+01 -9.089119911193847656e+00 -1.399496295760582765e-13 -2.429822022840394391e-13 -1.148795549790401771e-13 1.049907841330251224e-14
4.892000000000000000e+03 6.700839996337890625e+01 -9.037107467651367188e+00 3.783655517803491408e-14 -2.953528331736850199e-14 2.490381261738392089e-15 -5.247056044863085411e-14
4.893000000000000000e+03 6.688310241699218750e+01 -9.823127746582031250e+00 -1.419890731548098181e-14 -9.758714696788198251e-14 -3.353581653911877347e-14 7.062701660488779343e-14
4.894000000000000000e+03 4.631179332733154297e+00 -3.408429336547851562e+01 4.498517782781409624e-14 1.927936265223428175e-14 1.927936265223428175e-14 8.992813953353703815e-14
4.895000000000000000e+03 5.423607349395751953e+00 -3.371436309814453125e+01 4.338166991976234732e-14 6.434309600964263631e-14 3.231742740712924278e-14 -1.250713518619354578e-14
4.896000000000000000e+03 3.718624496459960938e+01 -1.424997520446777344e+01 -1.021916858317921395e-13 4.770545801923917195e-14 -1.634586902139224807e-14 -1.206368040402097663e-14
4.897000000000000000e+03 1.432688999176025391e+01 -6.715795516967773438e+00 -9.061499516233376128e-14 -1.303368898268944531e-13 -6.628556617439482213e-14 7.633420940700644253e-14
4.898000000000000000e+03 1.559432220458984375e+01 -7.403836727142333984e+00 -1.358349061486227582e-13 -2.412187474504917661e-13 -1.131161001454925041e-13 -9.006296007368561063e-14
4.899000000000000000e+03 2.734238052368164062e+01 -7.123300552368164062e+00 -1.557231957044404730e-14 -1.439266999851696038e-13 -4.784970434202479028e-14 5.060453331330247440e-14
4.900000000000000000e+03 2.712864685058593750e+01 -1.066056537628173828e+01 1.267232439860002668e-13 -8.294288243422889839e-14 1.313410812671823163e-14 3.198399119337669294e-14
4.901000000000000000e+03 7.078200531005859375e+01 -2.059267234802246094e+01 -1.543028535890347830e-13 -3.635109520252338688e-13 -1.553441484605441736e-13 6.602458515895040514e-14
4.902000000000000000e+03 2.795434951782226562e+01 -7.590867996215820312e+00 -6.194885235214289687e-14 -1.180514019871736764e-13 -5.400007833467404539e-14 1.237032801497048307e-13
4.903000000000000000e+03 2.548365783691406250e+01 -1.018919277191162109e+01 7.206921555846443339e-14 -1.486414242829903892e-14 1.716152109201667109e-14 2.199818831868233238e-13
4.904000000000000000e+03 2.452663993835449219e+01 -1.031311321258544922e+01 1.213239713771310790e-13 -3.950591142740621231e-14 2.454541900135699672e-14 7.067986468453288373e-14
4.905000000000000000e+03 6.924838256835937500e+01 -2.569156074523925781e+01 1.552102359397150577e-13 -3.909908150283997186e-13 -7.073417643711082947e-14 -2.520893717839096937e-15
4.906000000000000000e+03 6.988756561279296875e+01 -2.400185203552246094e+01 -4.902988551182957400e-14 -2.955184924893772269e-13 -1.033645147556147559e-13 -4.589757461354211643e-14
4.907000000000000000e+03 4.154581069946289062e+01 -2.020067977905273438e+01 -1.275456960371252474e-14 -3.977945563552430508e-14 -1.576020672473810169e-14 2.553065994292252894e-13
4.908000000000000000e+03 3.367189025878906250e+01 -9.900756835937500000e+00 -1.014946895245508879e-14 6.427664796899643096e-14 1.623815522962170771e-14 1.821882488622916796e-13
4.909000000000000000e+03 1.337128162384033203e+01 -1.010980415344238281e+01 2.592366019115235898e-14 2.398648770926548046e-13 7.973656457327393809e-14 -7.863801027453015680e-14
4.910000000000000000e+03 4.653477096557617188e+01 -8.695330619812011719e+00 1.052705150697899605e-13 9.086688243205645610e-14 5.884121721767485158e-14 -1.755126127983910878e-13
4.911000000000000000e+03 4.436722564697265625e+01 -4.240204811096191406e+00 -2.052317598635541862e-13 -2.709602561854623781e-13 -1.428576088804631161e-13 1.527644079757275314e-14
4.912000000000000000e+03 3.205004882812500000e+01 -1.232572650909423828e+01 -1.252932626356548229e-13 1.293066809225987268e-13 1.204024723753518641e-15 1.766581672613121157e-13
4.913000000000000000e+03 3.217657089233398438e+01 -9.569323539733886719e+00 -8.284677468790163646e-14 7.887161518511931479e-14 -1.192547956713814906e-15 2.521464482520274775e-13
4.914000000000000000e+03 6.654657745361328125e+01 3.899028301239013672e+00 -8.413636540943736364e-14 -2.076244991905396020e-13 -8.752825802474037409e-14 -1.043455347625975305e-13
4.915000000000000000e+03 3.811948776245117188e+01 -1.712822151184082031e+01 -1.387271662155924526e-14 -5.945450041170601344e-15 -5.945450041170601344e-15 1.924223313239797895e-13
4.916000000000000000e+03 6.749926757812500000e+01 5.357547760009765625e+00 -6.262130842083629689e-14 -2.184198053542876772e-13 -8.431233142203176101e-14 -9.083840857250155554e-14
4.917000000000000000e+03 6.343768692016601562e+01 1.755226016044616699e+00 -1.223773144452822148e-13 -1.897002655871019017e-13 -9.362327672022066616e-14 -8.669768462171711931e-14
4.918000000000000000e+03 6.407367706298828125e+01 2.200129747390747070e+00 -6.615382205791067727e-14 1.739931203943115984e-14 -1.462635317495044468e-14 -3.157533845390796123e-14
4.919000000000000000e+03 2.010779190063476562e+01 -7.922801017761230469e+00 -4.707634970865445800e-14 2.657678493511034246e-13 6.560745192561376338e-14 4.845275368398722568e-15
4.920000000000000000e+03 3.941946411132812500e+01 -1.765227699279785156e+01 1.961253459170728825e-14 -1.288474806449696475e-13 -3.277048161369304491e-14 2.204482120937364953e-13
4.921000000000000000e+03 5.305574798583984375e+01 -5.448545455932617188e+00 -1.463554009429636482e-14 8.522952580237302955e-14 2.117819537360982052e-14 -2.451551331730805749e-13
4.922000000000000000e+03 1.196252059936523438e+01 -1.019179725646972656e+01 -2.160185076064032039e-14 -9.257936282283836527e-15 -9.257936282283836527e-15 2.515800678133846280e-14
4.923000000000000000e+03 5.713338470458984375e+01 -1.378614068031311035e+00 -1.275486199948591692e-13 -1.461655910238793266e-13 -8.211426059511611752e-14 -9.240685609280055446e-14
4.924000000000000000e+03 2.434122467041015625e+01 -6.189992904663085938e+00 -1.388817988563773032e-13 -1.376982244725858187e-14 -4.579548681460723913e-14 9.118472985144773779e-14
4.925000000000000000e+03 2.341914558410644531e+01 -7.248176097869873047e+00 -5.517655288830164428e-14 -2.524018320737564380e-13 -9.227351955437557152e-14 -9.977604273391296741e-14
4.926000000000000000e+03 2.797595596313476562e+01 -8.593478202819824219e+00 -5.314248796876516745e-14 2.297559589955165682e-14 -9.050068467797000443e-15 1.114431897458745269e-13
4.927000000000000000e+03 2.775284385681152344e+01 -1.126689720153808594e+01 4.252664436961775540e-14 -1.190271432848291622e-13 -2.295014933575024313e-14 -1.740997957236888050e-14
4.928000000000000000e+03 1.073071479797363281e+01 -2.739085769653320312e+01 8.861420847322901140e-14 3.797751840111697474e-14 3.797751840111697474e-14 7.908773055941356600e-14
4.929000000000000000e+03 1.898353004455566406e+01 -7.509492397308349609e+00 -9.026027809281439440e-14 2.358227274481400348e-13 4.366873277371861872e-14 -5.591498943545436529e-14
4.930000000000000000e+03 5.757470321655273438e+01 -2.956602334976196289e+00 4.996497854537927316e-15 2.141356253624574109e-15 2.141356253624574109e-15 -1.480437002371673416e-13
4.931000000000000000e+03 1.988774681091308594e+01 -9.632388114929199219e+00 7.412471379969823304e-14 -1.398321376359446325e-14 1.804245060375419402e-14 -8.422623221700925589e-14
4.932000000000000000e+03 9.678578376770019531e+00 -6.243813514709472656e+00 -3.482583077712812780e-14 -4.266838889589036343e-13 -1.384529155819963497e-13 1.539156714407130533e-13
4.933000000000000000e+03 3.967046737670898438e+01 -1.943057441711425781e+01 -8.091159578275941566e-14 -4.611413383310072889e-14 -3.810771752950532776e-14 1.333737943221349753e-13
4.934000000000000000e+03 4.979060745239257812e+01 -4.412785530090332031e+00 -5.884144083437292672e-14 -7.096870969581017818e-14 -3.894304786956036268e-14 -1.166091284946976780e-13
4.935000000000000000e+03 4.825113296508789062e+01 -4.895491123199462891e+00 -1.444900243289387598e-13 -1.076752483833084972e-13 -7.564958316892689272e-14 -6.089971056741014244e-14
4.936000000000000000e+03 1.730663108825683594e+01 -7.694978713989257812e+00 3.618170013272060948e-14 6.125738886411311035e-14 2.923172703786329485e-14 -5.317213073378727894e-14
4.937000000000000000e+03 5.222510910034179688e+01 -3.569658756256103516e+00 -1.680088089050374434e-13 -1.063169870066729694e-13 -8.229774148401855505e-14 -4.987915462606462569e-14
4.938000000000000000e+03 4.645910644531250000e+01 -8.042813301086425781e+00 -7.553858797151868920e-14 -2.611284127297663904e-13 -1.010001002103855239e-13 3.464474868553231446e-14
4.939000000000000000e+03 7.110417175292968750e+01 -2.125261497497558594e+01 -1.220179149776304262e-13 -4.640519197206260937e-13 -1.758209598962459652e-13 5.724098902119487131e-14
4.940000000000000000e+03 2.975942802429199219e+01 -1.124715709686279297e+01 6.413974711592940192e-14 2.748846208164637539e-14 2.748846208164637539e-14 1.666382418337442051e-13
4.941000000000000000e+03 4.539288711547851562e+01 -3.344616889953613281e+00 -5.152683699638158088e-14 -4.495840481041728232e-14 -2.894557220322648006e-14 8.278839717717687008e-14
4.942000000000000000e+03 4.024988937377929688e+01 -1.435147571563720703e+01 1.363207506946406689e-13 -2.218013777201613412e-13 -2.564419014053527512e-14 1.392324162864319592e-13
4.943000000000000000e+03 8.257981300354003906e+00 -1.705199241638183594e+01 1.429233250846428938e-14 -2.226294642344514574e-13 -6.250113816254343480e-14 6.948661210228607166e-14
4.944000000000000000e+03 7.341088104248046875e+01 -2.699099731445312500e+01 -2.019207622828457505e-14 -6.491670265576510168e-13 -2.008077271088357096e-13 -8.345971483358916032e-14
4.945000000000000000e+03 6.504908752441406250e+01 -8.691626548767089844e+00 5.779367463114651327e-14 -2.726124447710587262e-13 -6.444563443010545289e-14 3.196704714629981792e-14
4.946000000000000000e+03 2.498055076599121094e+01 -6.148816108703613281e+00 1.009719719402731031e-13 -9.397914575454829889e-14 2.097849465080041040e-15 1.272453279896335054e-13
4.947000000000000000e+03 6.476238250732421875e+01 2.600435972213745117e+00 -9.815514693351998221e-14 3.684456524735224905e-15 -2.834120741909695873e-14 -1.640033730565884640e-13
4.948000000000000000e+03 4.506278610229492188e+01 -2.892403984069824219e+01 -8.471960519186236271e-14 -2.193121986099333398e-13 -9.120953775240692174e-14 3.468481969668454727e-15
4.949000000000000000e+03 6.924589538574218750e+01 -1.145229148864746094e+01 1.192133414554263915e-13 -4.521690097000763409e-13 -9.988669911814226920e-14 9.056372934023414201e-15
4.950000000000000000e+03 1.845149230957031250e+01 -6.917778968811035156e+00 2.771672729653604228e-14 -1.024987725446215026e-13 -2.243461459086517479e-14 -1.760218828875982633e-14
4.951000000000000000e+03 1.251325702667236328e+01 -1.046868133544921875e+01 5.021994986206292089e-14 2.731530550793143108e-13 9.701190317647906403e-14 -6.339560495484397595e-14
4.952000000000000000e+03 3.429518508911132812e+01 -1.391761398315429688e+01 -1.756080632471512804e-13 -1.667624914027110439e-13 -1.027111677502114129e-13 1.352379037748707713e-13
4.953000000000000000e+03 5.873908615112304688e+01 -7.584302902221679688e+00 -1.217186616254972709e-13 1.765896050264295636e-13 1.646128064858743550e-14 -9.626170303575487530e-14
4.954000000000000000e+03 6.022588348388671875e+01 -7.676468372344970703e+00 -1.017251400844444709e-13 9.365635843900863011e-14 -2.420634874795578491e-15 4.790043483930174484e-14
4.955000000000000000e+03 4.024766540527343750e+01 -6.878540039062500000e+00 1.282768921466448386e-13 -3.652608678841526291e-14 2.752524025221615711e-14 3.825173345932929292e-14
4.956000000000000000e+03 3.902169418334960938e+01 -9.630546569824218750e+00 -8.098042906818508913e-14 -3.092115864571087780e-13 -1.170576087233463070e-13 -8.542655244216795785e-14
4.957000000000000000e+03 7.197510528564453125e+01 -1.910899353027343750e+01 -1.756379872271118803e-13 -3.040281785007814541e-13 -1.438998524288734315e-13 2.483926320108898605e-14
4.958000000000000000e+03 6.916983795166015625e+01 -1.062379837036132812e+01 7.330959705389647474e-14 -2.430872885796075966e-13 -5.093331084584512558e-14 1.309088996465047547e-14
4.959000000000000000e+03 1.154033470153808594e+01 -1.060163593292236328e+01 -8.320563036040128785e-15 1.451246214130216816e-13 4.104121963067683398e-14 4.419743041060401889e-14
4.960000000000000000e+03 7.013777160644531250e+01 -1.207012462615966797e+01 1.434048870320794866e-13 -4.418011909004121440e-13 -8.951889387100522844e-14 4.145798016951668385e-14
4.961000000000000000e+03 3.801849365234375000e+01 -1.525452518463134766e+01 -9.482867914306289392e-14 -2.122069203301310547e-13 -9.211067916433182678e-14 4.776540762311404231e-14
4.962000000000000000e+03 5.357099533081054688e+01 -3.230606794357299805e+00 -2.784652154317560774e-14 1.710695658480726467e-13 4.296691515494159563e-14 -9.323103270300614476e-14
4.963000000000000000e+03 6.782926177978515625e+01 -2.735035133361816406e+01 -5.995783703511767260e-14 -3.459528670479716794e-13 -1.217732105473004478e-13 -8.093222272909095238e-14
4.964000000000000000e+03 4.232152557373046875e+01 -1.748258781433105469e+01 7.005929446605649313e-14 -8.435195901143610619e-14 -4.287800634163304800e-15 -2.983500761982033067e-14
4.965000000000000000e+03 4.188070297241210938e+01 -1.919779777526855469e+01 -2.600986612232621814e-14 1.172838918811393988e-14 -4.284443419076862380e-15 1.320176606922629503e-13
4.966000000000000000e+03 4.281954193115234375e+01 -1.974092483520507812e+01 8.021694067458437494e-14 -1.486251036521626934e-13 -2.052245126496574784e-14 8.738413367469916038e-14
4.967000000000000000e+03 6.214889907836914062e+01 -1.943840384483337402e-01 -1.673375793400516676e-13 -6.885667031128125948e-14 -7.085827692827895152e-14 -2.007917012454736583e-14
4.968000000000000000e+03 2.293885993957519531e+01 -1.095893859863281250e+01 1.047421630223470401e-14 -4.126200046244456188e-14 -9.236335248062957359e-15 2.573970496379945905e-14
4.969000000000000000e+03 2.320535850524902344e+01 -8.911730766296386719e+00 1.215841256884189758e-13 5.210747808172440376e-14 5.210747808172440376e-14 8.930562452741375168e-14
4.970000000000000000e+03 5.189678573608398438e+01 -2.918053388595581055e+00 -1.590576150166899110e-15 -6.816754929286710472e-16 -6.816754929286710472e-16 -2.645588317916423154e-14
4.971000000000000000e+03 1.599735355377197266e+01 -7.886700153350830078e+00 -9.619450960611508616e-14 1.417775808863416809e-13 1.367491918178231555e-14 5.048257412142501122e-14
4.972000000000000000e+03 1.831099319458007812e+01 -7.962458133697509766e+00 3.717862741845281982e-14 6.168464583523533551e-14 2.965898062085373099e-14 -1.189214335730118255e-13
4.973000000000000000e+03 8.572412490844726562e+00 -2.247415351867675781e+01 -9.545645422378862960e-15 -1.870947922413476738e-13 -5.899213138382125576e-14 1.485876038095218510e-14
4.974000000000000000e+03 6.405371189117431641e+00 -2.504869651794433594e+01 2.911120780199616398e-14 -2.620294660502647810e-13 -6.987547476397515389e-14 3.918402535492242211e-14
4.975000000000000000e+03 1.008942031860351562e+01 -2.651790809631347656e+01 -1.873012446637796480e-14 -1.910309882285562977e-13 -6.292833414729345765e-14 -3.804145244797572933e-14
4.976000000000000000e+03 7.244867706298828125e+01 -1.805754280090332031e+01 -7.022757619575339949e-14 -1.673503729256869965e-13 -7.127338405880576100e-14 5.900098796031774673e-14
4.977000000000000000e+03 1.149299144744873047e+01 -2.814596366882324219e+01 3.777941772354492800e-14 -1.668126222006613424e-13 -3.870996134313492432e-14 1.054898152879658879e-13
4.978000000000000000e+03 1.372847270965576172e+01 -3.151603507995605469e+01 -8.860989199332980348e-14 -1.066020915204551889e-13 -5.856359369888278210e-14 9.214793506148385993e-14
4.979000000000000000e+03 5.832718276977539062e+01 -6.779249668121337891e+00 -1.281821057717152934e-13 1.738195633434191922e-13 1.369123642447822239e-14 -3.196989995326617040e-14
4.980000000000000000e+03 5.818050765991210938e+01 -5.460091590881347656e+00 -6.909791969421938754e-16 2.513340826692384011e-13 7.519293076640315432e-14 -6.774798549848831675e-14
4.981000000000000000e+03 5.906057739257812500e+01 -6.313869953155517578e+00 -1.938159241389111886e-13 2.600681443202385035e-13 1.987566876490362566e-14 -1.004912705783109206e-13
4.982000000000000000e+03 5.285155487060546875e+01 -3.382313489913940430e+00 -4.255984806115012398e-14 -1.823993464134063963e-14 -1.823993464134063963e-14 -9.741223127614218047e-14
4.983000000000000000e+03 6.627450561523437500e+01 -8.815414428710937500e+00 1.695652281339689576e-15 -6.789971281626408506e-14 -1.986121838282346730e-14 7.178899673072197674e-14
4.984000000000000000e+03 3.937923049926757812e+01 -2.398280525207519531e+01 1.222394039289420586e-13 6.637368809409537052e-15 3.866303232972524706e-14 8.238346121828069024e-14
4.985000000000000000e+03 4.222412872314453125e+01 -1.647353172302246094e+01 -5.011795354268634706e-14 2.427182566532796321e-14 -7.753838702020694057e-15 -2.487214840823318701e-14
4.986000000000000000e+03 6.915060424804687500e+01 7.368284225463867188e+00 -3.116771570650309076e-14 -1.963613868944183438e-13 -6.825873281315550378e-14 -2.006685934769197183e-14
4.987000000000000000e+03 3.329740142822265625e+01 -1.132512092590332031e+01 -1.928200979960104089e-13 -2.198900241577594894e-13 -1.238130420671418319e-13 1.506554619555219854e-13
4.988000000000000000e+03 4.035571670532226562e+01 -2.216218948364257812e+01 2.327534053079421961e-14 5.572609431195307828e-14 2.370043079163736827e-14 1.484126542364641588e-13
4.989000000000000000e+03 4.186961746215820312e+01 -1.544345474243164062e+01 -6.649775131581381338e-14 -2.400971674081098239e-13 -9.197847426192437559e-14 -3.153979017517759276e-14
4.990000000000000000e+03 4.330477905273437500e+01 -1.334743404388427734e+01 -4.344654925539023771e-14 -1.861994919686270344e-14 -1.861994919686270344e-14 -1.151194889198112192e-13
4.991000000000000000e+03 2.696851730346679688e+01 -7.784165859222412109e+00 -1.141231613334056649e-13 -1.861627713962976660e-13 -9.008578252941643050e-14 2.941792859659231318e-14
4.992000000000000000e+03 4.837215805053710938e+01 -6.147565364837646484e+00 -1.133341874124879634e-13 -2.315755822778625683e-13 -1.034729349728633063e-13 1.077904787454529723e-13
4.993000000000000000e+03 6.858589172363281250e+01 6.686931610107421875e+00 5.642396814532768534e-14 -6.732019997880700490e-14 -3.268868279494374987e-15 -2.225555182581561570e-14
4.994000000000000000e+03 7.101539611816406250e+01 1.112628459930419922e+01 6.459972666386995521e-14 -1.234648352928550616e-14 1.567597268626545054e-14 9.371927604633067954e-14
4.995000000000000000e+03 7.066951751708984375e+01 9.437287330627441406e+00 5.935176378553353935e-15 -2.262110990062030091e-13 -6.608277293429498656e-14 5.118621455510452556e-14
4.996000000000000000e+03 5.918135452270507812e+01 -1.024142861366271973e+00 -1.111351408036170829e-13 -3.619160703007169577e-14 -4.419802333366709690e-14 -3.800776764172932032e-14
4.997000000000000000e+03 4.446150588989257812e+01 -1.199179840087890625e+01 -9.831377926388176758e-14 4.936742136504683465e-14 -1.468390567558458537e-14 -9.741753709052378141e-14
4.998000000000000000e+03 4.292991638183593750e+01 -1.410036277770996094e+01 -1.457713344563821289e-13 -2.912281689675805252e-13 -1.310998564481996587e-13 -1.196489874408582232e-13
4.999000000000000000e+03 7.708345413208007812e+00 -2.000195884704589844e+01 -1.527456038442984859e-14 8.495565633360319113e-14 2.090432929297177111e-14 1.129984371047235148e-13
5.000000000000000000e+03 7.011718750000000000e+01 9.944510459899902344e+00 1.285212238824780251e-14 -1.317447941105026610e-13 -3.566780185548963644e-14 -2.696311361303441873e-14
5.001000000000000000e+03 7.153540039062500000e+01 1.061239910125732422e+01 -2.983095202606887708e-14 -1.814913237058179973e-13 -6.339668238075288342e-14 -2.801845229080928562e-14
5.002000000000000000e+03 8.450366020202636719e+00 -1.834595870971679688e+01 4.931590482119482810e-14 -1.618684027961114769e-13 -3.376575210298042584e-14 6.013485336856666530e-14
5.003000000000000000e+03 7.577472209930419922e+00 -1.917504692077636719e+01 -2.796010442623767314e-15 -1.198290204821488621e-15 -1.198290204821488621e-15 4.613537064315428871e-14
5.004000000000000000e+03 4.563188934326171875e+01 -3.143963241577148438e+01 -5.458627595615085648e-15 -2.539696426252791017e-13 -7.782847716991669884e-14 -6.939816111028551497e-16
5.005000000000000000e+03 4.230587387084960938e+01 -2.144764328002929688e+01 -2.816802475676723899e-14 -1.035739080764395970e-13 -3.952258103580817694e-14 2.587482908055632747e-13
5.006000000000000000e+03 1.738122558593750000e+01 -3.604523849487304688e+01 -6.792225744518820552e-14 -5.198501405821037702e-14 -3.597218145101957476e-14 8.236023218673518831e-15
5.007000000000000000e+03 1.913588333129882812e+01 -3.547293090820312500e+01 -1.060929908378374642e-13 -1.598457965382854562e-13 -7.978164027859502294e-14 3.892501284404742412e-14
5.008000000000000000e+03 2.207670974731445312e+01 -7.320172309875488281e+00 -4.423192498034800302e-14 2.679440836686388522e-14 -5.231255153451824791e-15 -1.313444389057852324e-13
5.009000000000000000e+03 7.846156120300292969e+00 -2.156053924560546875e+01 -5.546612295978178842e-14 -6.952214682848928407e-14 -3.749648161410767955e-14 2.883197830873610035e-14
5.010000000000000000e+03 6.023109054565429688e+01 -2.208554506301879883e+00 -1.294747187068068239e-13 1.275146302567517487e-13 -5.880266303077291441e-16 -5.448280579944606017e-14
5.011000000000000000e+03 4.767117691040039062e+01 -3.187686443328857422e+00 -2.487084160580216308e-13 -4.725968965127447241e-13 -2.163916019027462001e-13 -5.923860441894510109e-14
5.012000000000000000e+03 2.253587532043457031e+01 -8.560587882995605469e+00 -5.475333795840371665e-14 -1.607185657346091312e-13 -6.464157009146431765e-14 -9.606782058226015497e-14
5.013000000000000000e+03 2.222289848327636719e+01 -1.002149391174316406e+01 5.724112708756527376e-15 2.312079293211727338e-13 7.107961680179186725e-14 -1.187621778264008610e-13
5.014000000000000000e+03 4.025313568115234375e+01 -2.350052833557128906e+01 3.714866701607548796e-15 -1.356607561746672741e-13 -3.958376730778603858e-14 8.272194236026708669e-14
5.015000000000000000e+03 5.735069656372070312e+01 -4.891002655029296875e+00 2.153184009941796345e-15 -6.770362807710650355e-14 -1.966513364366588579e-14 -9.059487643577057714e-14
5.016000000000000000e+03 5.689980316162109375e+01 -5.315276145935058594e+00 1.801817294541999126e-14 4.203528394504732479e-14 1.801603672832701591e-14 -1.468618114489408932e-13
5.017000000000000000e+03 6.663924217224121094e+00 -5.094957828521728516e+00 -5.792978266137491228e-14 -1.963931133604907009e-13 -7.629686541842789493e-14 1.200324155391577219e-13
5.018000000000000000e+03 9.069270133972167969e+00 -5.555283546447753906e+00 3.187309086365858191e-14 -1.693438954602360935e-13 -4.124124137897325348e-14 -7.944706226442957431e-14
5.019000000000000000e+03 8.458305358886718750e+00 -1.770188140869140625e+01 1.155659904794950621e-13 3.777335804984027073e-15 3.580299847826678983e-14 -2.882568315987210639e-15
5.020000000000000000e+03 5.962596893310546875e+00 -1.882260894775390625e+01 4.376003276103726525e-14 1.875430048075849704e-14 1.875430048075849704e-14 1.566477796002135880e-13
5.021000000000000000e+03 4.514762115478515625e+01 -1.032196235656738281e+01 -1.080593879892836895e-13 -6.918664046621364472e-14 -5.317380785902284246e-14 -7.273189347881472977e-14
5.022000000000000000e+03 4.381842803955078125e+01 -1.170208835601806641e+01 5.821671676632320103e-14 -2.953066122798192472e-13 -7.112696933167517166e-14 -6.712877053272753303e-14
5.023000000000000000e+03 7.208309936523437500e+01 -1.658625984191894531e+01 -7.547242453394276129e-14 -1.695981679747382564e-13 -7.352117910785702093e-14 -4.400561471750059905e-14
5.024000000000000000e+03 7.421801757812500000e+01 8.816760063171386719e+00 -4.325351722297456070e-14 -1.557900672615603055e-13 -5.971307839467906997e-14 6.599537268666549883e-14
5.025000000000000000e+03 3.919166564941406250e+01 -1.835820007324218750e+01 -1.045644690625402440e-13 -1.820661948027241239e-13 -8.598919915957931037e-14 9.716556850563815018e-14
5.026000000000000000e+03 3.875114059448242188e+01 -1.743040847778320312e+01 -2.036235356760521253e-13 -2.702710288644133430e-13 -1.421683680068869249e-13 4.744076361135399211e-14
5.027000000000000000e+03 3.312332916259765625e+01 -1.296252918243408203e+01 -6.521561448421392404e-14 1.550542463521487058e-13 2.695158888275407671e-14 1.570225205286060466e-13
5.028000000000000000e+03 7.109955596923828125e+01 1.005903911590576172e+01 -1.685065375350635686e-16 -4.582316446319172065e-14 -1.379750178990895790e-14 7.371449235521118637e-14
5.029000000000000000e+03 4.405078506469726562e+01 -2.799866676330566406e+01 -1.161228502678107732e-13 -2.098952522205932425e-13 -9.780543074652120472e-14 2.336585955373549767e-14
5.030000000000000000e+03 3.048362922668457031e+01 -8.776818275451660156e+00 -2.634374448727723472e-14 -1.942939759818143597e-13 -6.619131512428794162e-14 1.830223798036934024e-13
5.031000000000000000e+03 3.116099548339843750e+01 -1.160884380340576172e+01 -1.018724425021037827e-13 -4.365961869920616245e-14 -4.365961869920616245e-14 2.221526456715194886e-13
5.032000000000000000e+03 3.995749664306640625e+01 -7.577632904052734375e+00 -1.815918868454478169e-14 -2.708504536104439087e-13 -8.670289556840862777e-14 -5.264494420367978045e-14
5.033000000000000000e+03 3.972337341308593750e+01 -6.691714763641357422e+00 4.169311990380626665e-14 -1.880107939992992083e-13 -4.389530053458198799e-14 5.265682638186386377e-14
5.034000000000000000e+03 6.272312641143798828e+00 -4.573013782501220703e+00 -4.281047155771551538e-14 1.189054958010762886e-13 2.282851032232684207e-14 1.380600938883118009e-14
5.035000000000000000e+03 4.625929355621337891e+00 -6.193107128143310547e+00 -1.776361921597933990e-14 3.813797015824946235e-14 6.112305367384331459e-15 -7.812223497228806823e-14
5.036000000000000000e+03 1.578855991363525391e+01 -3.421850967407226562e+01 -4.591175733321094243e-14 -4.255194354968634685e-14 -2.653910924842965008e-14 -6.621047966823604379e-16
5.037000000000000000e+03 4.004368972778320312e+01 -2.502381515502929688e+01 7.293761406478027620e-14 -1.288693408712723865e-13 -1.677951770313445418e-14 1.083948401414507046e-13
5.038000000000000000e+03 5.304172897338867188e+01 -3.528773880004882812e+01 -7.340400395806565004e-14 -8.864754769003294066e-14 -4.861546617205593501e-14 7.460029908265899956e-14
5.039000000000000000e+03 3.903366851806640625e+01 -2.567221260070800781e+01 1.698945312504553801e-14 -2.557867654663648072e-13 -7.163919387180237019e-14 8.391122405205717061e-14
5.040000000000000000e+03 7.811335086822509766e+00 -2.231450271606445312e+01 -1.554738630860866971e-14 -1.439160070412434655e-13 -4.783901817436223003e-14 2.223041697013879159e-14
5.041000000000000000e+03 6.446782684326171875e+01 -3.160792732238769531e+01 -1.315656466421583765e-14 -1.314536316170816788e-13 -4.338305905379584437e-14 -6.392058242302503523e-14
5.042000000000000000e+03 7.004915618896484375e+01 -2.285952568054199219e+01 -4.081181939163784633e-14 -4.292493281394388349e-13 -1.410183412100043943e-13 -5.796699112468189918e-14
5.043000000000000000e+03 5.058753967285156250e+00 -3.530282974243164062e+01 1.555235500387726344e-14 6.665295062164037707e-15 6.665295062164037707e-15 5.806919073196581405e-14
5.044000000000000000e+03 5.541684627532958984e+00 -3.233556747436523438e+01 -7.762343759844074487e-15 -4.907766833445008359e-14 -1.705200312006847907e-14 8.413601304373130585e-14
5.045000000000000000e+03 1.412653636932373047e+01 -3.300437545776367188e+01 -1.501316432284127700e-14 -6.362290116404198392e-14 -2.359081964606497828e-14 -4.919472151149704986e-14
5.046000000000000000e+03 1.438852405548095703e+01 -3.467428970336914062e+01 -2.680430340575370995e-14 -4.580076891206631695e-14 -2.178152169534600807e-14 6.414379254528548846e-14
5.047000000000000000e+03 3.890938186645507812e+01 -2.662490081787109375e+01 -3.461006099227635635e-14 -3.579649868624273923e-13 -1.177725180833560925e-13 -5.633989673718090702e-15
5.048000000000000000e+03 4.345341491699218750e+01 -2.574655914306640625e+01 -6.533264055620657818e-14 -3.025053894444712510e-13 -1.103514117107087800e-13 8.495396226770868253e-14
5.049000000000000000e+03 3.911439514160156250e+01 -2.971663475036621094e+01 2.129293615071078255e-14 -1.510027725689505607e-13 -3.891295109487852288e-14 -5.377057645168138722e-14
5.050000000000000000e+03 8.449583053588867188e+00 -2.331151580810546875e+01 -3.992257286339123343e-15 -2.304657116189434696e-13 -7.033739232329902502e-14 4.807325327746414523e-15
5.051000000000000000e+03 4.981104373931884766e+00 -2.516394424438476562e+01 6.738805748227744141e-14 -1.687035182233211084e-14 1.515531169798359917e-14 -1.022663619504879731e-14
5.052000000000000000e+03 3.999862670898437500e+01 -2.890535163879394531e+01 2.863771977261279911e-14 -1.650116133143642028e-13 -4.091216907896495780e-14 3.618094119119986962e-14
5.053000000000000000e+03 4.182122039794921875e+01 -2.299272537231445312e+01 -1.887743840368535930e-13 -1.724052080568846956e-13 -1.083538776281214866e-13 1.749405199695519553e-13
5.054000000000000000e+03 4.344126129150390625e+01 -2.485940742492675781e+01 -1.448678145759413338e-13 -2.679654729446229178e-13 -1.238499862561692755e-13 1.223692371390971978e-13
5.055000000000000000e+03 4.263447952270507812e+01 -2.383714103698730469e+01 -1.811350277668849484e-13 -2.377576217502119782e-13 -1.256677867236127843e-13 1.655013880932573733e-13
5.056000000000000000e+03 4.403664398193359375e+01 -2.661917495727539062e+01 -2.391123052596783038e-13 -3.083559612076375300e-13 -1.642404880717110438e-13 2.299206560817806944e-14
5.057000000000000000e+03 6.571134185791015625e+01 -3.639905166625976562e+01 -7.794207445253886757e-14 -1.020301668131461115e-13 -5.399167237970549371e-14 -5.639706976705467778e-14
5.058000000000000000e+03 3.706303787231445312e+01 -3.103420066833496094e+01 -6.079876456888816394e-14 -1.289962467355618148e-13 -5.693850339133499361e-14 -1.168058027687865486e-13
5.059000000000000000e+03 2.941267395019531250e+01 -3.645338058471679688e+01 -5.391773995593734936e-14 4.551881874897967251e-14 -2.519676531493892507e-15 -5.427895207409626221e-14
5.060000000000000000e+03 6.051618576049804688e+00 -3.126735305786132812e+01 -3.072489365794212057e-14 7.833408807679173580e-14 1.428275764802852676e-14 1.427656414311820332e-13
5.061000000000000000e+03 8.315521240234375000e+00 -3.564958572387695312e+01 4.338217475139891088e-14 4.146783624489093489e-14 2.545500194363423813e-14 2.329568965031905692e-14
5.062000000000000000e+03 6.797551631927490234e+00 -3.747034454345703125e+01 -1.844034941292458513e-14 -7.652942678442603563e-14 -2.849093235098541788e-14 1.378110492611600915e-14
5.063000000000000000e+03 3.557882308959960938e+01 -3.444536972045898438e+01 -3.053466699864774980e-14 -7.027496938321817210e-14 -3.024289125337295547e-14 -3.056665096273607218e-14
5.064000000000000000e+03 7.371002960205078125e+01 -3.329492950439453125e+01 2.259403127373611764e-14 -3.849187678664489631e-13 -1.086974206390006747e-13 4.051502921131530655e-14
5.065000000000000000e+03 3.760791397094726562e+01 -3.449399185180664062e+01 -4.243594408162576492e-14 -5.250004397145888180e-14 -2.848079506067267841e-14 -6.408148480168546213e-14
5.066000000000000000e+03 3.733638763427734375e+01 -3.253700637817382812e+01 -8.189094205263841575e-15 -9.501150951066184014e-14 -3.096018247003042012e-14 -5.740212856908052941e-14
5.067000000000000000e+03 3.283845138549804688e+01 -3.473328018188476562e+01 -5.987810074159494178e-14 -5.425638711638140765e-14 -3.424034805145879934e-14 -2.912021345629137170e-14
5.068000000000000000e+03 4.511216354370117188e+01 -3.028430175781250000e+01 -2.891694248960928471e-14 -3.326496250764116036e-13 -1.084699685757403720e-13 4.380606391952285295e-14
5.069000000000000000e+03 2.162544059753417969e+01 -3.547431945800781250e+01 -6.732465198397777351e-14 -9.747984483412380774e-14 -4.944135040068318998e-14 6.396352360531903924e-14
5.070000000000000000e+03 7.234954833984375000e+01 1.347334384918212891e+01 -8.781769934721253557e-14 1.453676317774571514e-13 1.726498108432610035e-14 -1.127199936580385031e-13
5.071000000000000000e+03 7.288088989257812500e+01 1.298404788970947266e+01 3.904472909268055791e-14 -3.492741306680008373e-13 -9.306882250547515723e-14 -5.430699902904574661e-14
5.072000000000000000e+03 4.250152587890625000e+01 -2.219115066528320312e+01 -2.121728628293878538e-13 -4.518028000875286276e-14 -7.720594183500267826e-14 1.321348629471086333e-13
5.073000000000000000e+03 4.032106018066406250e+01 -2.281271553039550781e+01 -1.426577904200740377e-13 -1.983919078281035087e-13 -1.023149121849586951e-13 1.141574898846919872e-13
5.074000000000000000e+03 5.041692256927490234e+00 -7.378607273101806641e+00 3.019427156220055863e-14 1.501932530168642588e-13 5.411625737371944522e-14 1.928968967792720618e-14
5.075000000000000000e+03 5.219828796386718750e+01 -5.578875541687011719e+00 -4.089451691234417818e-14 -4.040169620297268116e-14 -2.438886359578187890e-14 5.956865588904042275e-14
5.076000000000000000e+03 5.466360855102539062e+01 -3.541150331497192383e+00 -1.376828203314070520e-13 -3.613144736202590634e-14 -5.214427996921670860e-14 -1.727244378340458963e-13
5.077000000000000000e+03 1.089871692657470703e+01 -7.010369777679443359e+00 5.919613757510155949e-14 -1.347585508893606177e-13 -2.266872433309089635e-14 -5.189317196980548774e-14
5.078000000000000000e+03 7.500188446044921875e+01 1.216955566406250000e+01 3.752645641604511473e-14 -3.499248146018180128e-13 -9.371950643929233271e-14 -7.474852984842850212e-14
5.079000000000000000e+03 7.379729461669921875e+01 1.386878204345703125e+01 -3.003245438795709710e-14 -4.634106683457095421e-13 -1.480329395306054230e-13 -3.447282471416221461e-14
5.080000000000000000e+03 3.637809371948242188e+01 -9.093225479125976562e+00 6.606451768021576187e-14 -2.004413751947528577e-13 -4.031305928724020216e-14 -3.374477617907462035e-14
5.081000000000000000e+03 3.678199005126953125e+01 -1.367757797241210938e+01 -1.266401263369520969e-13 -8.523390157457854527e-15 -4.054905283074061728e-14 2.978030962021843697e-14
5.082000000000000000e+03 3.611399459838867188e+01 -8.439832687377929688e+00 -8.752238131015232375e-15 8.775093959844174063e-14 2.369961086374442610e-14 -1.012953420144804828e-13
5.083000000000000000e+03 7.001301574707031250e+01 -1.127033615112304688e+01 6.955005148190362974e-14 -2.446985214281383048e-13 -5.254454369437583372e-14 -8.243412734105365347e-15
5.084000000000000000e+03 3.861343383789062500e+01 -1.478273868560791016e+01 -8.865124752994654744e-14 -2.209971843112473744e-13 -9.289453022998453435e-14 5.419544817802414427e-14
5.085000000000000000e+03 7.053375244140625000e+01 -1.367763042449951172e+01 5.372729306807669247e-14 -5.031099235136560210e-13 -1.348147938770583032e-13 -2.688812748027989002e-14
5.086000000000000000e+03 7.102459716796875000e+01 -1.264021015167236328e+01 1.519787171545133875e-13 -3.237493281273151613e-13 -5.153118735759867897e-14 1.983153834835167661e-14
5.087000000000000000e+03 4.167142486572265625e+01 -6.610994338989257812e+00 8.353854988405601256e-14 -2.387034526204340201e-13 -4.654947149853976007e-14 -1.160801869123234686e-13
5.088000000000000000e+03 1.108632183074951172e+01 -1.002294635772705078e+01 3.208477159695748322e-15 -1.358777863445445599e-13 -3.980079070139974640e-14 -7.434749701735327010e-14
5.089000000000000000e+03 6.295423030853271484e+00 -1.091014194488525391e+01 1.018654561743548292e-13 6.653210019589086976e-14 5.051926758870006751e-14 6.903340881792355277e-14
5.090000000000000000e+03 1.031004619598388672e+01 -1.171779441833496094e+01 1.369887412056361442e-14 5.162189442185424748e-14 1.959623090153853747e-14 8.412662114241215017e-14
5.091000000000000000e+03 6.347834777832031250e+01 -6.426283359527587891e+00 -5.085064381832489488e-14 4.683329191037394201e-14 -1.205205699440227950e-15 5.453438671780205804e-14
5.092000000000000000e+03 6.026647186279296875e+01 -6.952925682067871094e+00 -9.398617951614229860e-14 5.122210842327737379e-14 -1.282922115845288799e-14 -4.605936129459947681e-14
5.093000000000000000e+03 5.862260818481445312e+00 -2.491931533813476562e+01 -5.007297609318714371e-14 9.291752209230480508e-14 1.285336413854847731e-14 -1.139442544224184006e-13
5.094000000000000000e+03 5.059051895141601562e+01 -3.333060503005981445e+00 3.647044011191244439e-14 3.587623091400732322e-13 1.185698268084747764e-13 7.473078959038120805e-14
5.095000000000000000e+03 5.081450653076171875e+01 -4.703223705291748047e+00 2.854275382669843597e-14 2.638628248188834569e-13 8.772167291604821004e-14 1.637003995357509678e-14
5.096000000000000000e+03 6.321852874755859375e+01 7.562540769577026367e-01 -5.177457041653094061e-14 2.356184603707119768e-14 -8.463817483244512330e-15 -5.817815982656418528e-14
5.097000000000000000e+03 6.379419326782226562e+01 1.188821554183959961e+00 -1.604583436606854541e-13 2.273403565552188643e-14 -4.131729138510953359e-14 -1.155621686668370507e-13
5.098000000000000000e+03 1.148433876037597656e+01 -8.064759254455566406e+00 3.029828720812338672e-14 -1.242678648784995010e-13 -2.819087431755237100e-14 2.153549081142062949e-14
5.099000000000000000e+03 6.418175506591796875e+01 -6.454513549804687500e+00 -9.506630237795382632e-14 5.075919814133932062e-14 -1.329213059335799391e-14 -1.707203714333693778e-13
5.100000000000000000e+03 7.563221740722656250e+01 1.317189407348632812e+01 4.093660428542734986e-14 -3.713388103954162744e-13 -9.912066284943621408e-14 1.377857382226302385e-13
5.101000000000000000e+03 3.540599441528320312e+01 -9.246335029602050781e+00 -3.297696452931112021e-14 -1.513858347490168454e-13 -5.530883910587203189e-14 -9.864805912244978270e-14
5.102000000000000000e+03 7.411724853515625000e+01 -2.991220092773437500e+01 7.856333584990021768e-14 -4.695904580985510446e-13 -1.173081271878262388e-13 2.664417860333886251e-14
5.103000000000000000e+03 3.282760238647460938e+01 -1.222487640380859375e+01 -8.508907418719111049e-14 -1.279686399164800537e-13 -6.391731626398042265e-14 1.910427518221277654e-13
5.104000000000000000e+03 3.280604553222656250e+01 -9.411761283874511719e+00 2.871406486385207893e-16 2.299853524582919778e-14 6.985702638638395523e-15 1.489916181965714181e-13
5.105000000000000000e+03 7.395075988769531250e+01 -2.914098930358886719e+01 1.873196557719211675e-13 -3.314786867301272588e-13 -4.324770657695639620e-14 9.981686294570704665e-14
5.106000000000000000e+03 1.502117061614990234e+01 -6.998217105865478516e+00 1.000764141695364984e-13 1.915804754420991074e-13 8.749706688349068173e-14 -8.699244531109803780e-14
5.107000000000000000e+03 2.120687675476074219e+01 -8.598233222961425781e+00 3.015238408889293897e-14 1.272998227013280581e-13 4.723566305350583583e-14 2.160900480091283021e-14
5.108000000000000000e+03 2.059267616271972656e+01 -9.468582153320312500e+00 7.108901547937460097e-14 1.448440976534182134e-13 6.477993461746420212e-14 -1.252158112135073106e-15
5.109000000000000000e+03 7.055349349975585938e+00 -7.280448436737060547e+00 5.942681513982500663e-14 2.546863578595324334e-14 2.546863578595324334e-14 1.080722307028299592e-14
5.110000000000000000e+03 1.196574592590332031e+01 -7.254912376403808594e+00 -3.904391255291940477e-14 -2.454878477147620641e-13 -8.535952841911761957e-14 7.631004525108717185e-14
5.111000000000000000e+03 5.400675201416015625e+01 -3.898776054382324219e+00 -6.200277785769689465e-14 1.106802231245693213e-13 1.460323425768808581e-14 -1.309060010997592505e-13
5.112000000000000000e+03 5.279146194458007812e+01 -3.983893871307373047e+00 1.200681128956868071e-13 9.720871297583949522e-14 6.518304776145789070e-14 -2.537146077811244099e-14
5.113000000000000000e+03 5.688895702362060547e+00 -2.983861541748046875e+01 -3.842255628786796218e-14 -6.221775481971003607e-14 -3.019209299346022057e-14 1.163666873364027632e-13
5.114000000000000000e+03 3.771946716308593750e+01 -8.614144325256347656e+00 4.830413413009493340e-14 -1.623020294549970544e-13 -3.419936520933884727e-14 -3.926042772676476000e-14
5.115000000000000000e+03 7.336586761474609375e+01 -3.015163803100585938e+01 2.551096032826164622e-14 -3.550743141352008525e-13 -9.886900597267517243e-14 2.656753567413950440e-14
5.116000000000000000e+03 7.367604064941406250e+01 -3.099924087524414062e+01 4.315736881906583056e-14 -5.762663024717895599e-13 -1.599326817898830133e-13 1.377410673990579412e-14
5.117000000000000000e+03 1.275374221801757812e+01 -7.167892932891845703e+00 -1.594094830908911881e-14 -9.833373536011907889e-14 -3.428240493135586986e-14 3.702956656039500805e-14
5.118000000000000000e+03 1.318863105773925781e+01 -6.386531352996826172e+00 -7.279032689371401493e-15 -1.403724277657461550e-13 -4.429543889886491947e-14 3.434233759457179513e-14
5.119000000000000000e+03 4.967577743530273438e+01 -2.857240438461303711e+00 -4.045718363728141587e-14 7.416310133286779793e-14 1.011177598630227242e-14 1.001551001422046339e-13
5.120000000000000000e+03 4.820195007324218750e+01 -3.410403728485107422e+00 9.419540851257537234e-15 -2.018423270319300022e-13 -5.772683356721278192e-14 1.802361767320494190e-14
5.121000000000000000e+03 7.406882476806640625e+01 -2.315711975097656250e+01 1.060654656551834885e-15 -5.028058590143824613e-13 -1.505235687612391238e-13 5.162824716895865473e-14
5.122000000000000000e+03 6.687085628509521484e+00 -2.866382598876953125e+01 3.983409942501757450e-14 -1.773697698046958204e-13 -4.126070280796936829e-14 -3.268942394877259738e-14
5.123000000000000000e+03 7.501651763916015625e+01 -2.245849800109863281e+01 -1.246620672358880744e-13 -4.537473912227807382e-13 -1.735228443138642218e-13 -7.117802170147208285e-14
5.124000000000000000e+03 1.396635055541992188e+01 -7.338419437408447266e+00 5.228448086264624040e-14 1.939736891075349856e-13 7.387745471799933572e-14 1.188421241840945108e-13
5.125000000000000000e+03 5.056554794311523438e+00 -3.067013359069824219e+01 -1.077480999930359451e-13 -4.617775617183489389e-14 -4.617775617183489389e-14 3.438997133939358797e-14
5.126000000000000000e+03 5.872705459594726562e+00 -3.053692817687988281e+01 -7.220944355694827732e-14 -1.910752236771937063e-13 -7.898540220312166849e-14 1.095710165394808699e-13
5.127000000000000000e+03 2.655980873107910156e+01 -1.010068893432617188e+01 -9.359485707077438987e-14 -4.011208208577927981e-14 -4.011208208577927981e-14 4.525851620692600621e-15
5.128000000000000000e+03 7.519535064697265625e+01 1.354166698455810547e+01 -1.760861286425816075e-13 1.990402065171412160e-13 6.886225818763429610e-15 1.164332709023205292e-13
5.129000000000000000e+03 7.428933715820312500e+01 1.346793079376220703e+01 6.798901719395900045e-14 -8.523922263555319678e-14 -5.175060870148606371e-15 -5.211742224852516925e-14
5.130000000000000000e+03 4.960297393798828125e+01 -5.804251670837402344e+00 -1.022836058472281762e-13 -5.527356526581657381e-14 -4.726715235035296170e-14 2.510977164312411941e-14
5.131000000000000000e+03 5.062434005737304688e+01 -5.424706935882568359e+00 -1.617120066327304428e-13 -1.608070366318839484e-13 -9.675571297938431736e-14 2.573872240558064406e-14
5.132000000000000000e+03 7.493703460693359375e+01 -2.381527709960937500e+01 -7.025511069576979503e-15 -4.948336120198792987e-13 -1.505577482347267293e-13 1.125386405158995684e-13
5.133000000000000000e+03 4.900671005249023438e+00 -2.583311843872070312e+01 4.195768439801316136e-16 -1.828239708061285551e-13 -5.472132011299750409e-14 -9.786561074335772825e-15
5.134000000000000000e+03 3.345366287231445312e+01 -9.248247146606445312e+00 -2.303249550719005390e-13 -1.673371185541283612e-13 -1.192986139562923764e-13 2.154731742424337293e-13
5.135000000000000000e+03 3.744529724121093750e+01 -1.323716068267822266e+01 6.705733516208789435e-14 7.448980532875557059e-14 4.246414350250575509e-14 -6.596246037446698574e-14
5.136000000000000000e+03 2.509071350097656250e+01 -9.652129173278808594e+00 8.034107504707038716e-15 -8.805871071389248517e-14 -2.400738028512927613e-14 2.046619438592772733e-13
5.137000000000000000e+03 2.590567207336425781e+01 -1.051533794403076172e+01 -1.473191550303495911e-14 -6.313677709715147940e-15 -6.313677709715147940e-15 -2.649998649066186845e-14
5.138000000000000000e+03 5.530725097656250000e+01 -3.125801563262939453e+00 -8.753798196297485346e-14 1.540658198890751396e-13 1.995835103901690694e-14 -6.380216721699888405e-14
5.139000000000000000e+03 1.142137622833251953e+01 -3.432895660400390625e+01 1.493879991227003295e-14 -1.766014499351639677e-13 -4.849879585390112768e-14 -4.380519655778486454e-14
5.140000000000000000e+03 7.390306091308593750e+01 -1.810872840881347656e+01 -1.678248875590024336e-13 -2.549287549721140911e-13 -1.268260941145876730e-13 3.459250030521388020e-14
5.141000000000000000e+03 5.456640243530273438e+00 -2.595005226135253906e+01 -2.634570198041833941e-15 -9.263100133943477643e-14 -2.857967091067156740e-14 1.148617418761594192e-14
5.142000000000000000e+03 7.464276123046875000e+01 -1.988651847839355469e+01 -1.219219139574545183e-14 -1.653535435745118187e-13 -5.326372210043978095e-14 1.022818169136435751e-13
5.143000000000000000e+03 7.522383117675781250e+01 -1.896831703186035156e+01 7.948469763234197738e-14 -1.946898724050974416e-13 -3.456155310945299708e-14 -2.890613773733410885e-14
5.144000000000000000e+03 7.430876922607421875e+01 -1.932843971252441406e+01 -1.167985386142308957e-13 -3.245622087061361682e-13 -1.324082309723736972e-13 4.305699541481619597e-14
5.145000000000000000e+03 7.533275604248046875e+01 -2.090977287292480469e+01 -1.171027792963574843e-13 4.131499423175657992e-14 -2.273633450294073460e-14 -2.377391089981167882e-14
5.146000000000000000e+03 7.374607849121093750e+01 -1.743680000305175781e+01 3.171361827661312027e-14 -2.151631872887929675e-13 -5.503487138128031197e-14 8.261541949682038588e-14
5.147000000000000000e+03 7.491376495361328125e+01 -2.138810539245605469e+01 -1.286664730922731925e-13 -1.923956192929551778e-13 -9.631863042607394232e-14 -3.309734823990669039e-14
5.148000000000000000e+03 7.391802215576171875e+01 3.287062883377075195e+00 -3.196632140847061043e-13 -5.030061111556405340e-13 -2.468007894405876979e-13 1.524004311420287805e-13
5.149000000000000000e+03 7.547701263427734375e+01 -1.532217597961425781e+01 3.145183088580291719e-14 -3.525282279634445182e-13 -9.632291980091883810e-14 -1.393720344211937801e-13
5.150000000000000000e+03 7.462165069580078125e+01 1.966908216476440430e+00 -3.113184081186826102e-13 -2.706750296989357540e-13 -1.745980340557909405e-13 1.500821900568202749e-13
5.151000000000000000e+03 7.551563262939453125e+01 5.085794448852539062e+00 -1.227731160008752043e-13 -4.186246347400585099e-13 -1.624193265775328299e-13 2.987617206580417406e-13
5.152000000000000000e+03 7.465901184082031250e+01 2.871509790420532227e+00 -1.627012326949062171e-13 -1.154800539047984298e-13 -8.345438869041682528e-14 7.593472834029058038e-14
5.153000000000000000e+03 7.086566925048828125e+01 -1.186336326599121094e+01 1.840118633638851420e-13 -1.956434688733799110e-13 -3.489479281156178392e-15 1.704897921244678122e-14
5.154000000000000000e+03 7.490398406982421875e+01 -9.413467407226562500e+00 -7.547036454981503883e-14 -3.297256131323811346e-13 -1.215587960151642832e-13 -2.462418561156171082e-13
5.155000000000000000e+03 7.537525939941406250e+01 -1.440964889526367188e+01 8.554761716725312048e-14 -7.771410739324663419e-14 2.350052466333824898e-15 -1.948314353275061583e-14
5.156000000000000000e+03 7.491379547119140625e+01 -1.627166366577148438e+01 -4.303399592919939995e-15 -1.848481084995232115e-13 -5.674545103012858249e-14 -1.060174050057562795e-14
5.157000000000000000e+03 7.548710632324218750e+01 -7.793580055236816406e+00 1.154810974493894471e-13 -2.478892742116545200e-13 -3.972245031817409067e-14 -1.065750067949337854e-13
5.158000000000000000e+03 7.497198486328125000e+01 -1.022923183441162109e+01 8.652818316457616676e-14 -8.667443356731498877e-15 2.335822101061715839e-14 -4.960263563823577582e-14
5.159000000000000000e+03 7.479595184326171875e+01 -2.953508138656616211e+00 -1.541710417099148578e-13 -1.575751925860305325e-13 -9.352386893353090147e-14 -2.596085781243762103e-13
5.160000000000000000e+03 7.406852722167968750e+01 -1.312026977539062500e+01 8.785120797060591569e-14 -9.960232644082647746e-14 -3.525334821088163366e-15 -1.532221208635012322e-13
5.161000000000000000e+03 7.414084625244140625e+01 -3.764390468597412109e+00 -7.078868470133253821e-14 -3.048436882698707384e-13 -1.126897173123718454e-13 -1.732880332283581737e-13
5.162000000000000000e+03 7.549002075195312500e+01 -1.443812727928161621e+00 -3.778821602417464787e-13 -1.619495011186133926e-13 -1.619495011186133926e-13 -1.035848720709088566e-13
5.163000000000000000e+03 7.484269714355468750e+01 -3.754045486450195312e+00 -1.099671094744077149e-13 -1.615061301927026016e-13 -8.144197393301216836e-14 -1.510819870901777828e-13
5.164000000000000000e+03 7.550649261474609375e+01 -6.957185268402099609e+00 -7.951565838063001657e-14 -7.982908767616841983e-14 -4.780342584991860433e-14 -1.594565544058360040e-13
5.165000000000000000e+03 7.144487762451171875e+01 -1.421765041351318359e+01 8.039629481896778951e-14 -4.230539258753135412e-13 -1.027972940602882301e-13 -1.105543201472894421e-13
5.166000000000000000e+03 7.482592010498046875e+01 -6.804335594177246094e+00 1.733999771026673020e-13 -2.916933188046311187e-13 -3.548800047771007160e-14 -3.204703416157493601e-14
5.167000000000000000e+03 7.498454284667968750e+01 -5.222475528717041016e+00 8.090260368099136401e-14 -3.770860034814360606e-13 -8.885501655200161997e-14 4.799287408593444840e-15
5.168000000000000000e+03 7.494620513916015625e+01 -5.983826160430908203e+00 -1.928923194132250996e-13 -2.656719245638927696e-13 -1.375692772588935076e-13 -2.103337442367278487e-13
5.169000000000000000e+03 7.548547363281250000e+01 -6.419944763183593750e-01 -3.623854146449223546e-13 -4.298137366853804764e-13 -2.376597453990908493e-13 -1.466645137586028436e-13
5.170000000000000000e+03 7.472549438476562500e+01 1.059751987457275391e+00 -3.582446297077657160e-13 -2.221598420634393611e-13 -1.741213374656033763e-13 -4.502942682897866089e-14
5.171000000000000000e+03 7.482471466064453125e+01 -5.611627101898193359e-01 -4.694437655446137558e-13 -1.554392329910711523e-13 -1.874648982054527568e-13 5.572286542235814488e-14
5.172000000000000000e+03 7.021797180175781250e+01 8.759612083435058594e+00 -1.520184768810575043e-14 -1.895188785636450768e-13 -6.141621770611865871e-14 -1.732184579420707055e-14
5.173000000000000000e+03 7.502524566650390625e+01 9.185664176940917969e+00 -9.410548749489485582e-15 -1.412859358587009728e-13 -4.520894699181973730e-14 1.187231736532456949e-13
5.174000000000000000e+03 7.549205017089843750e+01 5.881738185882568359e+00 -6.555299787150067892e-14 -2.110979441380042565e-13 -8.299528328047783843e-14 1.235995355543251240e-13
5.175000000000000000e+03 7.029297637939453125e+01 7.514354705810546875e+00 -1.066311650793367455e-14 -9.464208794917813861e-14 -3.159156082891377559e-14 4.947778636994228096e-14
5.176000000000000000e+03 7.549021911621093750e+01 7.481896400451660156e+00 -1.005731092076087366e-14 -2.788159785514776612e-13 -8.666198726518803408e-14 6.642883671522520350e-14
5.177000000000000000e+03 4.191500091552734375e+01 -5.839561939239501953e+00 1.328517509760832049e-13 -1.718182752108096678e-13 -1.168995845626406502e-14 8.225355346922619271e-14
5.178000000000000000e+03 4.261994552612304688e+01 -4.432957172393798828e+00 -3.412914956614325479e-14 -4.263853267856554385e-13 -1.381543398562209979e-13 -7.431768145760991873e-14
5.179000000000000000e+03 4.846352100372314453e+00 -2.402537155151367188e+01 8.239008840406000789e-14 -1.044090927268277041e-14 2.158475424763293959e-14 -4.126971523852815404e-15
5.180000000000000000e+03 5.319530487060546875e+00 -2.139404678344726562e+01 9.032026835427073297e-14 -3.730498440539242733e-13 -8.481887745328056671e-14 1.753963321153920174e-13
5.181000000000000000e+03 7.473125457763671875e+01 6.837345600128173828e+00 -9.644095553618461936e-14 -2.472111057527648370e-13 -1.030956190643111947e-13 2.293496610076412034e-13
5.182000000000000000e+03 7.487152099609375000e+01 4.458142280578613281e+00 -7.600955861898281429e-14 -2.613302640692288792e-13 -1.012019515498480127e-13 2.430641408632250311e-13
5.183000000000000000e+03 7.471170806884765625e+01 -2.575249862670898438e+01 -1.663452090915756854e-14 -4.188876079769948690e-13 -1.306566481526147405e-13 -1.379436929266342204e-13
5.184000000000000000e+03 7.389105987548828125e+01 -2.831444358825683594e+01 7.513297438626470592e-14 -5.168115284684415833e-13 -1.325035730009166413e-13 -7.646770179949372026e-14
5.185000000000000000e+03 3.194408416748046875e+01 -1.158778572082519531e+01 -1.344952523917725129e-13 -8.051629567067120075e-14 -6.450346306348039849e-14 8.502118280240278381e-14
5.186000000000000000e+03 3.164797210693359375e+01 -9.804427146911621094e+00 -4.199547678465816170e-14 -7.518675081401998694e-14 -3.515466590791119228e-14 1.915046761577152146e-13
5.187000000000000000e+03 7.442189788818359375e+01 9.513643264770507812e+00 -8.329255118738262964e-14 -2.644515465985430858e-13 -1.043232340791622192e-13 5.592003775182000092e-14
5.188000000000000000e+03 4.637019157409667969e+00 -2.333592224121093750e+01 1.048212504886321741e-14 -3.615152610863398008e-13 -1.053099393712869647e-13 1.868329709692195806e-13
5.189000000000000000e+03 6.262553215026855469e+00 -2.372233009338378906e+01 -1.961570249493001933e-14 1.446874406038894251e-14 -1.544087488010675684e-15 -4.949908416636804309e-14
5.190000000000000000e+03 6.257463932037353516e+00 -8.274176597595214844e+00 9.530503692007155636e-14 1.323469193395196419e-13 6.829558213449285486e-14 -2.798611087881722193e-14
5.191000000000000000e+03 5.481941223144531250e+00 -7.927122592926025391e+00 1.502041221436434260e-13 1.862224804428155162e-14 5.064791156459726162e-14 7.273496312621557935e-14
5.192000000000000000e+03 7.446751403808593750e+01 -2.463825988769531250e+01 -7.044071255517215732e-15 -8.036604693360815954e-13 -2.432113755182485626e-13 -1.687638820263071861e-15
5.193000000000000000e+03 6.217066764831542969e+00 -2.016691398620605469e+01 -4.577020457519759278e-14 -2.483705515560208354e-13 -8.824222548411281286e-14 3.810630738905473880e-13
5.194000000000000000e+03 4.259986114501953125e+01 -2.978319168090820312e+01 2.310792446876940714e-14 -1.959758717069368106e-13 -5.186038501848316828e-14 3.304847105071832825e-14
5.195000000000000000e+03 5.216551780700683594e+00 -2.325021934509277344e+01 2.605340192174919467e-14 -3.458520565747212616e-14 -2.559541078365232085e-15 -1.797448468006650896e-14
5.196000000000000000e+03 5.806919097900390625e+00 -2.414338493347167969e+01 5.876496477066417770e-15 -3.005815268995043477e-13 -8.841151010081926831e-14 1.589814942833025352e-14
5.197000000000000000e+03 1.350243473052978516e+01 -9.447707176208496094e+00 -8.581498142298804588e-14 -8.252879851950237211e-14 -5.050313669325255661e-14 1.059396033354850775e-13
5.198000000000000000e+03 4.667700290679931641e+00 -1.012120151519775391e+01 4.970799298434705471e-14 -1.388248917948489702e-13 -2.673507032077693246e-14 -4.180972584745708265e-14
5.199000000000000000e+03 6.082496166229248047e+00 -1.947378540039062500e+01 5.005477504921654330e-14 -2.530536544198547233e-13 -6.089966313356509620e-14 8.858179082827169482e-14
5.200000000000000000e+03 4.658663272857666016e+00 -1.952618980407714844e+01 7.611148039946002974e-14 -1.503845875952536382e-13 -2.228193351399079813e-14 -1.225908158759012392e-14
5.201000000000000000e+03 5.701598167419433594e+00 -2.096751022338867188e+01 8.448175156400977714e-14 3.620646398796653620e-14 3.620646398796653620e-14 1.557669466502320521e-13
5.202000000000000000e+03 2.502372550964355469e+01 -7.372690677642822266e+00 -1.103057803517742963e-13 -1.845267509755985080e-13 -8.844976210871727251e-14 1.615349157603820918e-13
5.203000000000000000e+03 5.237412452697753906e+00 -1.697776794433593750e+01 4.196892738395942291e-14 1.094885832930540814e-13 4.543725286429087240e-14 3.286848247865742020e-15
5.204000000000000000e+03 5.813512325286865234e+00 -1.582786655426025391e+01 3.113910589816015588e-15 1.190181308542703764e-13 3.663960953213807326e-14 9.538112080752572663e-14
5.205000000000000000e+03 4.616881370544433594e+00 -1.699935150146484375e+01 -9.544859206397221518e-14 4.844410547759575927e-15 -2.718125339607260771e-14 -1.251562584445682288e-14
5.206000000000000000e+03 6.969776153564453125e+00 -1.767446708679199219e+01 -9.140199549648436034e-15 7.614693381050030574e-14 2.010201968533249783e-14 7.937362789603441549e-14
5.207000000000000000e+03 5.276237964630126953e+00 -9.038645744323730469e+00 -3.242927980188006765e-14 -3.799058507017449848e-13 -1.237005425392193048e-13 1.957736239560550068e-15
5.208000000000000000e+03 4.605782032012939453e+00 -1.382701301574707031e+01 -1.251739732916271053e-13 -9.939693789177625471e-14 -6.737127267739465020e-14 -1.211071529654906068e-14
5.209000000000000000e+03 5.983622550964355469e+00 -9.759050369262695312e+00 1.172195749753884852e-13 -3.615215765639945289e-13 -7.329059641082366627e-14 -3.253076790148828890e-14
5.210000000000000000e+03 4.702441406250000000e+01 -5.544754981994628906e+00 1.755559215929842001e-15 7.523825211127894291e-16 7.523825211127894291e-16 -4.005234254607532851e-14
5.211000000000000000e+03 7.272470474243164062e+00 -1.347434520721435547e+01 7.521232443276348878e-14 4.939046066121215162e-14 3.738083789988494443e-14 9.960534187811870277e-14
5.212000000000000000e+03 5.286849975585937500e+00 -1.233602714538574219e+01 8.260288340920102224e-14 -7.897613905081049546e-14 1.088024408659989464e-15 4.878544493226266536e-16
5.213000000000000000e+03 5.345873832702636719e+00 -1.463203144073486328e+01 8.808932216696890036e-17 9.153965020887444570e-14 2.748832147417713118e-14 -1.217522532581194819e-14
5.214000000000000000e+03 5.655305385589599609e+00 -2.829851722717285156e+01 -4.611971408615724022e-14 -8.839201479050526333e-14 -4.035351696893285656e-14 -4.789611327720485340e-15
5.215000000000000000e+03 7.466394042968750000e+01 1.013832664489746094e+01 -7.296050428314687641e-14 -3.515254222690583630e-13 -1.273457793209142874e-13 1.577024101584445503e-13
5.216000000000000000e+03 1.426863956451416016e+01 -8.932547569274902344e+00 -1.282464667231794642e-13 1.280410239640206171e-13 -6.163007753755349013e-17 1.188050580223226627e-13
5.217000000000000000e+03 7.441988372802734375e+01 1.257073783874511719e+01 -4.923934320715840640e-14 -6.685352548245135362e-14 -3.482786026806974911e-14 -1.070267396300998708e-13
5.218000000000000000e+03 7.528880310058593750e+01 -2.610478782653808594e+01 5.866642349867945416e-14 -4.781177081851495370e-13 -1.258353772744247312e-13 1.424764169491443688e-13
5.219000000000000000e+03 7.410536956787109375e+01 -2.751851272583007812e+01 3.397650067652087380e-14 -4.886990877077390660e-13 -1.364167703495414163e-13 8.754113970180221749e-14
5.220000000000000000e+03 7.882746696472167969e+00 -5.011874198913574219e+00 8.282273250472677040e-14 8.124640418988651747e-14 4.922073897550491295e-14 -9.916579276486592320e-14
5.221000000000000000e+03 8.472070693969726562e+00 -5.574443340301513672e+00 8.746166090629545198e-14 1.289854589239455840e-13 6.493413527144595299e-14 6.105539691718137735e-15
5.222000000000000000e+03 7.496193695068359375e+01 1.068223094940185547e+01 -1.450929084994764806e-13 -1.079336205372753710e-13 -7.590795532289376646e-14 -1.408248924373786681e-13
5.223000000000000000e+03 7.531811523437500000e+01 1.120761013031005859e+01 4.985684716636573643e-14 -5.047686986274502186e-13 -1.364735554383253446e-13 1.032436736472276684e-13
5.224000000000000000e+03 1.895807075500488281e+01 -9.283817291259765625e+00 2.688830705126470794e-14 5.727451119711540750e-14 2.524884428866790848e-14 -1.169443502539030399e-13
5.225000000000000000e+03 1.642816162109375000e+01 -7.597101211547851562e+00 -7.760265140991512434e-14 2.240908061326360445e-13 4.394644777206899167e-14 6.926059660690431219e-14
5.226000000000000000e+03 1.966923141479492188e+01 -8.962027549743652344e+00 -8.826894429140100251e-14 7.921401300745381513e-15 -2.410426221957032850e-14 6.903091515292683611e-15
5.227000000000000000e+03 1.465184497833251953e+01 -7.626618385314941406e+00 9.229872047862228146e-14 3.955659449083812063e-14 3.955659449083812063e-14 -5.238602317236308592e-15
5.228000000000000000e+03 1.548359680175781250e+01 -8.619530677795410156e+00 9.392656872544632995e-14 8.600519114162347156e-14 5.397952931537365606e-14 -3.536841297808492046e-14
5.229000000000000000e+03 6.641580963134765625e+01 -3.087980842590332031e+01 1.327154176350908363e-14 -1.718767069316430585e-14 -1.174838509489977215e-15 -9.810002880557625038e-14
5.230000000000000000e+03 4.143469619750976562e+01 -7.377477169036865234e+00 4.507919509682753456e-14 -7.218224363494604723e-14 -8.130914900248732702e-15 -9.155933525456863564e-14
5.231000000000000000e+03 7.152428436279296875e+01 -2.017130279541015625e+01 -1.735618891446008560e-13 -2.116365080146592748e-13 -1.155595259240416173e-13 6.070462193899853198e-14
5.232000000000000000e+03 2.684859848022460938e+01 -8.943801879882812500e+00 2.146785861871416262e-14 -1.051768603308779471e-13 -2.511270068305572478e-14 -7.761955818754232017e-14
5.233000000000000000e+03 2.535269355773925781e+01 -7.836701869964599609e+00 5.868444835979702567e-14 -2.036042639824361955e-13 -4.347594468679175095e-14 -7.479159046236806899e-16
5.234000000000000000e+03 2.716195678710937500e+01 -1.009714508056640625e+01 1.120253588786541965e-13 -1.349929282939976716e-13 -6.890269977570095267e-15 9.963169137904188954e-15
5.235000000000000000e+03 2.250605010986328125e+01 -7.984150409698486328e+00 -6.333006493351722721e-14 6.436043646813882635e-14 3.091114392106560603e-16 -1.370872951831150766e-13
5.236000000000000000e+03 7.100154113769531250e+01 -1.531526947021484375e+01 -1.060999161792142154e-13 -4.114789834818582959e-13 -1.552736753193326158e-13 -4.242988144330579227e-16
5.237000000000000000e+03 2.844100570678710938e+01 -1.119110679626464844e+01 7.563083324760647153e-14 1.696660661357901612e-13 7.358907049264534761e-14 1.225474257661451905e-13
5.238000000000000000e+03 2.902606582641601562e+01 -8.798730850219726562e+00 -3.244591891709593112e-14 -1.054072939501125850e-13 -4.135596352134937592e-14 2.396084937720480840e-14
5.239000000000000000e+03 2.295247650146484375e+01 -9.797853469848632812e+00 1.206826657921059032e-13 9.747208601232695835e-14 6.544642757420893187e-14 8.371461076434050241e-14
5.240000000000000000e+03 5.956702423095703125e+01 -7.005744934082031250e+00 -1.201655013558303176e-13 3.145081038050806521e-13 5.830278209002781598e-14 -1.097485546452253713e-13
5.241000000000000000e+03 4.769166946411132812e+01 -6.276766777038574219e+00 -1.057970747955164909e-14 4.121678923185191634e-14 9.191124017470311824e-15 -1.366351388314753640e-14
5.242000000000000000e+03 4.647455596923828125e+01 -3.866948604583740234e+00 -2.346859279177618274e-14 -1.015598670157762118e-13 -3.750853658701300275e-14 -8.795687702484178416e-14
5.243000000000000000e+03 1.711146354675292969e+01 -8.681221961975097656e+00 5.875198060261571653e-14 2.303944651366510686e-15 1.831677747031554976e-14 -2.708597235390186597e-14
5.244000000000000000e+03 7.183361816406250000e+01 -2.081748962402343750e+01 -1.376173209676617715e-13 -4.707373813667148355e-13 -1.825064215423347069e-13 3.006219202066930107e-14
5.245000000000000000e+03 4.880906677246093750e+01 -3.620119333267211914e+00 -1.971051766897977120e-13 -1.302245935868792670e-13 -9.819893514876124052e-14 -4.445324113693839563e-14
5.246000000000000000e+03 6.982005310058593750e+01 -2.513353538513183594e+01 9.324932353246915412e-15 -1.232484302332928494e-13 -3.417704758524459097e-14 -1.146242524724741529e-13
5.247000000000000000e+03 6.921327972412109375e+01 -2.684996414184570312e+01 1.793206696413390810e-13 -2.891558791452003563e-13 -3.295056081827930916e-14 -1.016047055518720654e-13
5.248000000000000000e+03 6.658073425292968750e+01 -8.129699707031250000e+00 7.514924419511556652e-14 -1.354413051846267355e-14 1.848153384888598372e-14 -9.902164808603397539e-14
5.249000000000000000e+03 6.471628570556640625e+01 -7.273972511291503906e+00 -1.116417613737652470e-13 -1.850993181428881029e-13 -8.902232249974328937e-14 -1.139581593152805272e-13
5.250000000000000000e+03 5.185829544067382812e+01 -4.984561443328857422e+00 5.290720677997339319e-15 2.310222054890259669e-13 7.089387264085436624e-14 -2.630086429135543302e-15
5.251000000000000000e+03 3.058049583435058594e+01 -1.069367694854736328e+01 -1.198149516884114418e-13 -5.134926839745097837e-14 -5.134926839745097837e-14 1.609850084184974439e-13
5.252000000000000000e+03 2.991276741027832031e+01 -1.051219081878662109e+01 -3.880356187193831352e-14 -1.081319956535223281e-13 -4.408066861289090810e-14 2.188611705061793700e-13
5.253000000000000000e+03 6.033661270141601562e+01 -1.020495533943176270e+00 -1.311005747321389303e-13 -1.043501392336988048e-14 -4.246067744368559049e-14 8.587724850900660400e-15
5.254000000000000000e+03 6.266505813598632812e+01 2.976479828357696533e-01 -1.918448852469140098e-13 2.380374001208218626e-13 1.385775463157894530e-14 -8.502482843220776632e-14
5.255000000000000000e+03 4.079171752929687500e+01 -1.689483261108398438e+01 -1.996112253082032301e-14 -1.458076145715789251e-13 -4.973061892843411158e-14 7.073868942865380038e-14
5.256000000000000000e+03 5.743749618530273438e+01 -2.143124580383300781e+00 -5.091417467750075643e-14 -6.757130797821822576e-14 -3.554564615196841026e-14 -5.670118170017328374e-14
5.257000000000000000e+03 5.625507736206054688e+01 -1.687882542610168457e+00 -1.538825897219250893e-13 -1.574515799858400289e-13 -9.340024955707681986e-14 -7.037153791546874038e-14
5.258000000000000000e+03 6.635138702392578125e+01 3.039904117584228516e+00 -5.403984144934995126e-14 1.369683853098477289e-13 2.487856552984158559e-14 -1.072574104185597399e-13
5.259000000000000000e+03 2.920959854125976562e+01 -1.044972896575927734e+01 7.322159371880854195e-14 1.686335261968235910e-13 7.255653732994235550e-14 7.921358610284839896e-14
5.260000000000000000e+03 3.779879379272460938e+01 -1.379975318908691406e+01 -1.292160145159246265e-13 -1.583179252842917273e-13 -8.626018194006490614e-14 -3.220905801185752759e-14
5.261000000000000000e+03 4.991767501831054688e+01 -3.550752162933349609e+00 -1.359192435251149744e-13 -1.497529991721993636e-13 -8.570167551969973263e-14 2.182452386401221439e-14
5.262000000000000000e+03 2.042456626892089844e+01 -8.698552131652832031e+00 2.443364792176910827e-14 1.019734630395251196e-13 3.792213261076191055e-14 -1.302017575786212911e-13
5.263000000000000000e+03 6.440591430664062500e+01 1.570528507232666016e+00 -6.388008747188270164e-14 -2.737718058710199992e-14 -2.737718058710199992e-14 -1.335196466193885878e-13
5.264000000000000000e+03 6.505501556396484375e+01 1.879346489906311035e+00 -1.634994900969258258e-13 -7.007120713742667761e-14 -7.007120713742667761e-14 -1.489864953413064241e-13
5.265000000000000000e+03 4.549797058105468750e+01 -9.514400482177734375e+00 -8.393861370943958566e-14 -1.732265318601239334e-13 -7.714954299324269793e-14 -1.018499249782339744e-13
5.266000000000000000e+03 2.442457389831542969e+01 -6.884963989257812500e+00 -6.704602557817615494e-14 -1.202359067344060950e-13 -5.618457969377467498e-14 1.367085562592115777e-13
5.267000000000000000e+03 2.297207450866699219e+01 -7.428744316101074219e+00 -1.777650699167840354e-13 1.068187625483628389e-13 -2.128389322696589564e-14 -4.557767059815490129e-14
5.268000000000000000e+03 8.022488594055175781e+00 -1.637505340576171875e+01 1.169615365524028297e-14 -1.779911531748015752e-13 -4.988850248167052415e-14 -8.022733440412189564e-17
5.269000000000000000e+03 6.039905071258544922e+00 -1.735932922363281250e+01 -1.663133098307820884e-14 -2.816334134219528051e-13 -8.947942213566317804e-14 1.419561218790957313e-13
5.270000000000000000e+03 3.120023918151855469e+01 -9.287188529968261719e+00 -8.390907597650293370e-14 1.470427647915287239e-13 1.894010562806820036e-14 2.221664285916372106e-13
5.271000000000000000e+03 3.007793235778808594e+01 -9.652195930480957031e+00 -6.135515001875341268e-14 2.024596853014704045e-13 4.233135922956238195e-14 1.333918191832525468e-13
5.272000000000000000e+03 3.407621383666992188e+01 -1.335366630554199219e+01 -5.976137727212269424e-16 4.549482738778164170e-14 1.346916471449887895e-14 -1.400262860577847907e-14
5.273000000000000000e+03 3.706295776367187500e+01 -8.883323669433593750e+00 -6.033376380963628716e-14 4.276909569230803732e-14 -5.269399164649054071e-15 -9.547608336530830075e-14
5.274000000000000000e+03 2.969572639465332031e+01 -8.222713470458984375e+00 -7.578153734958195664e-14 -7.822875105947119101e-14 -4.620308584508958649e-14 1.825786158544950855e-13
5.275000000000000000e+03 2.751305389404296875e+01 -8.127172470092773438e+00 -6.369559691970713700e-14 -2.560528557845470621e-13 -9.592453648890261753e-14 6.525545213778918829e-14
5.276000000000000000e+03 4.085957717895507812e+01 -1.772849464416503906e+01 -3.263552216014112273e-14 3.176429795191323957e-14 -2.613678712732957861e-16 4.138726647094810585e-14
5.277000000000000000e+03 6.841333770751953125e+01 -9.095595359802246094e+00 1.665271517686459091e-13 -3.175142982737855224e-13 -4.529614056341009498e-14 -2.338424525088859951e-14
5.278000000000000000e+03 1.737348556518554688e+01 -9.326707839965820312e+00 -5.399133271949364474e-15 4.343703538132667741e-14 1.141137016694507289e-14 5.762672104911090165e-14
5.279000000000000000e+03 2.303524398803710938e+01 -7.942536830902099609e+00 -5.277089461480470589e-14 -2.513708371228856597e-13 -9.124251782724121518e-14 2.543855425786445412e-14
5.280000000000000000e+03 4.159851455688476562e+01 -1.759394264221191406e+01 5.010678287217795734e-14 4.434980824968327850e-14 2.833697733655837075e-14 -1.066901185724656448e-14
5.281000000000000000e+03 3.843613433837890625e+01 -1.657354927062988281e+01 -9.343030906230898047e-14 -2.687962970693985598e-13 -1.086679845500176933e-13 1.609718489146289011e-13
5.282000000000000000e+03 3.842214584350585938e+01 -1.570507049560546875e+01 -1.923816296967983258e-14 -1.569355133042640849e-13 -5.285210135752387017e-14 1.537133728678544142e-13
5.283000000000000000e+03 5.491171646118164062e+01 -2.663134336471557617e+00 -1.031723399205417002e-13 -4.421671565674710480e-14 -4.421671565674710480e-14 -3.405767421554850571e-13
5.284000000000000000e+03 5.448694229125976562e+01 -4.513879299163818359e+00 -1.452539938372535144e-13 1.207520818361992876e-13 -7.350571398030605191e-15 -1.999568045862876176e-13
5.285000000000000000e+03 7.075729370117187500e+01 -2.236248779296875000e+01 5.635547706121270262e-14 -4.104816530084431925e-13 -1.062378538006086837e-13 3.308227782970914188e-14
5.286000000000000000e+03 3.903667449951171875e+01 -8.248346328735351562e+00 5.481618102682640770e-14 -3.425149432741830813e-13 -8.630962833539382317e-14 -1.221659221267018536e-13
5.287000000000000000e+03 3.888417434692382812e+01 -7.546504497528076172e+00 -1.277634089155580202e-14 -1.198529529745570588e-13 -3.978878655047125845e-14 -7.984787825507030923e-14
5.288000000000000000e+03 1.789705848693847656e+01 -7.339479446411132812e+00 -4.505348595281247204e-14 -1.930863611089139037e-14 -1.930863611089139037e-14 -6.437213907533809176e-14
5.289000000000000000e+03 7.269456481933593750e+01 -2.758512878417968750e+01 4.882444275267072697e-14 -4.937734249255143482e-13 -1.334846946518530864e-13 1.934757082734488154e-14
5.290000000000000000e+03 6.803338623046875000e+01 6.022129535675048828e+00 -2.884613731148240323e-14 -1.038645284687743364e-13 -3.981319804001112739e-14 1.762560705568551322e-14
5.291000000000000000e+03 1.009288215637207031e+01 -2.787388610839843750e+01 9.259084520147134456e-14 -1.490408680802565722e-13 -1.693500754126192609e-14 -3.745570205989506851e-14
5.292000000000000000e+03 2.492925834655761719e+01 -6.809338092803955078e+00 -5.796516153351582989e-14 -1.620950552602695716e-13 -6.601806639338833604e-14 1.191692550845876997e-13
5.293000000000000000e+03 1.866383552551269531e+01 -8.624688148498535156e+00 -1.186994194612728953e-14 -5.087118097916402265e-15 -5.087118097916402265e-15 -1.352599943941351635e-13
5.294000000000000000e+03 3.538286972045898438e+01 -8.620710372924804688e+00 -1.677971082664642816e-14 1.568417027112897766e-14 -3.286623095920449987e-16 -2.146630854842068725e-14
5.295000000000000000e+03 7.166893005371093750e+01 -1.501914215087890625e+01 -5.084733022543523606e-14 -3.420483568692539444e-13 -1.178687003685827128e-13 -5.336479345983795308e-14
5.296000000000000000e+03 7.300440216064453125e+01 -1.444500064849853516e+01 6.866112767320992072e-14 7.517714884852991220e-14 4.315148024601651866e-14 5.866177498186492256e-15
5.297000000000000000e+03 7.752787113189697266e+00 -1.571791553497314453e+01 -7.647308215277467958e-14 -1.242760777099560787e-13 -6.022474728119286969e-14 5.256651911715939929e-14
5.298000000000000000e+03 4.948286437988281250e+01 -4.917356967926025391e+00 -1.411932094678991501e-13 -6.051137645428014689e-14 -6.051137645428014689e-14 2.929017569935563059e-14
5.299000000000000000e+03 7.264839935302734375e+01 -1.874062919616699219e+01 -7.265112041696455969e-14 -2.141399850410369288e-13 -8.603733095977408873e-14 -1.956423338492305902e-14
5.300000000000000000e+03 5.790771865844726562e+01 -6.031904220581054688e+00 -4.857020073135466520e-14 1.393125252744514819e-13 2.722269702411586612e-14 -1.680773914687107295e-14
5.301000000000000000e+03 9.162825584411621094e+00 -2.443198966979980469e+01 -4.961389440017067998e-14 -2.271423609097322771e-13 -8.302688099754221285e-14 -5.492773526597979905e-14
5.302000000000000000e+03 7.344874858856201172e+00 -2.374035072326660156e+01 -3.139421739879657419e-15 -9.284736743548141491e-14 -2.879603700671820588e-14 -5.890602540253517261e-14
5.303000000000000000e+03 4.147660446166992188e+01 -1.669410133361816406e+01 -2.013230958352631161e-14 -5.437908153285708757e-14 -2.235341631847548305e-14 2.465786601323679411e-14
5.304000000000000000e+03 4.215871047973632812e+01 -1.988026809692382812e+01 -9.666343382197864487e-14 4.323761841455459748e-15 -2.770190252589319752e-14 1.723460919334299235e-13
5.305000000000000000e+03 4.087732315063476562e+01 -1.862227249145507812e+01 -5.802803170699283308e-14 -1.993681988501417625e-15 -1.800651438393398307e-14 2.325487452072266120e-14
5.306000000000000000e+03 7.450065612792968750e+00 -5.310173988342285156e+00 7.582667404127524380e-14 3.249714746974587121e-14 3.249714746974587121e-14 -9.495939834968086107e-15
5.307000000000000000e+03 5.946393013000488281e+00 -6.133805274963378906e+00 1.001872128553009389e-13 -4.856452222247627237e-14 1.548680651222104215e-14 2.557465551182927510e-14
5.308000000000000000e+03 1.090495586395263672e+01 -8.702847480773925781e+00 5.965871243199249996e-14 1.170699144180040174e-13 5.301858737737259741e-14 -6.942251542510144424e-14
5.309000000000000000e+03 7.100202178955078125e+01 -2.406944847106933594e+01 -1.282050180129385222e-14 -3.371888814170109772e-13 -1.050028120008761334e-13 -2.859522921184673439e-14
5.310000000000000000e+03 6.198873519897460938e+01 -7.289099693298339844e-01 -9.357082166386310185e-14 9.715106730158115655e-14 1.074072399590171849e-15 -3.944078475815772367e-14
5.311000000000000000e+03 4.118700790405273438e+01 -1.580877304077148438e+01 -9.439808147399669780e-14 -1.319582193081564325e-13 -6.790688887939322349e-14 5.923695101063206070e-14
5.312000000000000000e+03 6.911637878417968750e+01 6.186882972717285156e+00 -5.924657330491286955e-14 -1.168932843315789727e-13 -5.284195729094755267e-14 -1.354437711092944295e-16
5.313000000000000000e+03 4.335676574707031250e+01 -2.647180747985839844e+01 -1.213252724197380616e-14 -1.882034431728227264e-13 -6.010079586782346439e-14 1.377309860129197205e-13
5.314000000000000000e+03 4.329598236083984375e+01 -2.788684463500976562e+01 7.450565500926459306e-14 -1.510727984767659682e-13 -2.297014270143723363e-14 1.254648782870321222e-13
5.315000000000000000e+03 5.124004364013671875e+01 -5.437500953674316406e+00 -1.226194167903982279e-13 3.592073741318785318e-13 7.097638720244409116e-14 -9.613598979385518106e-14
5.316000000000000000e+03 5.182689285278320312e+01 -4.488769054412841797e+00 -1.682511280905879536e-13 3.396509148153453728e-13 5.141993805030629916e-14 2.258401595616778279e-14
5.317000000000000000e+03 4.187157440185546875e+01 -1.408092689514160156e+01 1.492445286820943962e-14 -3.596114020714552550e-13 -1.034060803564024189e-13 -4.425068845419558028e-14
5.318000000000000000e+03 4.132332611083984375e+01 -1.456774616241455078e+01 1.307661390195086204e-13 -1.040856921594342233e-13 8.004134396835498044e-15 4.074330120246855147e-14
5.319000000000000000e+03 7.173899078369140625e+01 -3.175561904907226562e+01 7.799683343851296358e-14 -4.469577377479161395e-13 -1.106882733257000262e-13 -1.059031809187531425e-13
5.320000000000000000e+03 6.968516540527343750e+01 6.844874382019042969e+00 -1.917595314308850885e-13 -2.194354995019992538e-13 -1.233585174113815963e-13 9.102635332503602322e-15
5.321000000000000000e+03 8.666186332702636719e+00 -1.431340599060058594e+01 -8.506644824310405362e-14 -4.024646284642163785e-13 -1.462593203016906984e-13 -1.799707166063799213e-14
5.322000000000000000e+03 7.402142333984375000e+01 8.063440322875976562e+00 -6.600270460385693205e-14 1.746407617857822364e-14 -1.456158734173748637e-14 1.285689220018038093e-13
5.323000000000000000e+03 4.258278656005859375e+01 -2.468888282775878906e+01 -6.807393055285534955e-14 -1.664273916162500866e-13 -7.035039597310527304e-14 1.848788049735317074e-13
5.324000000000000000e+03 4.358405303955078125e+01 -1.256489467620849609e+01 -6.977270595055068414e-14 -1.214044869409652838e-13 -5.735315651220207478e-14 -1.807890995112262922e-13
5.325000000000000000e+03 4.038991546630859375e+01 -1.069058322906494141e+01 -3.385567989692452040e-14 -2.594731443323738257e-14 -1.794089812964198144e-14 2.509408459294096977e-14
5.326000000000000000e+03 2.203884696960449219e+01 -9.298048019409179688e+00 3.174033708390130992e-14 1.508558496220516187e-13 5.477885736703859421e-14 1.164675384672346492e-14
5.327000000000000000e+03 2.194015502929687500e+01 -7.951007366180419922e+00 -5.819890112234360133e-15 -9.399613384733843113e-14 -2.994480680670701112e-14 -7.154434989863241168e-15
5.328000000000000000e+03 4.103213882446289062e+01 -2.220379066467285156e+01 -1.260645505086338547e-13 -9.977861771407262048e-14 -6.775295249969101596e-14 1.943365038120301036e-13
5.329000000000000000e+03 4.196987152099609375e+01 -2.081578636169433594e+01 -1.739221153164091649e-13 -5.166257572024497702e-14 -6.767541171556756829e-14 1.562453915164227491e-13
5.330000000000000000e+03 2.637361145019531250e+01 -7.563726902008056641e+00 -4.410913908431401964e-14 -3.162850840607300817e-13 -1.081182669435132304e-13 1.426289641948130793e-13
5.331000000000000000e+03 5.801544570922851562e+01 -4.826388835906982422e+00 -6.805084382284498634e-14 1.086743186623972610e-14 -1.715502434931123060e-14 -2.381577194569134415e-13
5.332000000000000000e+03 6.280781555175781250e+01 -6.233709335327148438e+00 -4.171013848978250005e-14 -1.093776694108088143e-13 -4.532634237017739431e-14 -9.067395543172623862e-14
5.333000000000000000e+03 7.243115997314453125e+01 1.252002620697021484e+01 -5.823221916332384923e-15 8.328736056948185529e-14 2.323924168064813583e-14 -7.774250671390217637e-14
5.334000000000000000e+03 7.226790618896484375e+01 -1.733611297607421875e+01 -1.298993600401879278e-13 -4.216787509447872395e-13 -1.654734292297344034e-13 -8.691766924251442816e-14
5.335000000000000000e+03 4.594895935058593750e+01 -8.910001754760742188e+00 -4.449894703477223767e-14 -1.563238199910749193e-13 -6.024683112419368380e-14 -1.835755194233047727e-14
5.336000000000000000e+03 4.285477447509765625e+01 -5.513280391693115234e+00 8.701351949082572479e-14 -9.996133966145431815e-14 -3.884345288858925480e-15 7.692422884114126502e-15
5.337000000000000000e+03 5.082299041748046875e+01 -4.010901451110839844e+00 -7.296871033833987608e-14 -2.371515798408468934e-13 -9.303608637612967303e-14 3.103256312943919459e-14
5.338000000000000000e+03 5.157019042968750000e+01 -3.856676578521728516e+00 6.010389939654220415e-14 2.545135597501607672e-13 9.438523367825274457e-14 -1.570656074005669783e-14
5.339000000000000000e+03 4.308699417114257812e+01 -3.958588361740112305e+00 2.932258656804936914e-14 -2.619388809587536171e-13 -6.978488289620041196e-14 4.461563090545420107e-15
5.340000000000000000e+03 4.220124435424804688e+01 -5.071832180023193359e+00 7.715640734824724678e-14 -1.268391689151614904e-14 1.934174662879956097e-14 -6.561100268772865340e-14
5.341000000000000000e+03 4.416923522949218750e+01 -1.083646488189697266e+01 -9.665884629153631558e-14 -1.786780630137069226e-13 -8.260107414682568705e-14 -1.237765586640376947e-13
5.342000000000000000e+03 4.235811233520507812e+01 -1.352520370483398438e+01 1.243398287976982264e-13 -1.297153031688813574e-13 -1.612642840750531329e-15 -1.818187121043271515e-13
5.343000000000000000e+03 7.802635669708251953e+00 -2.079204177856445312e+01 2.754214533577745844e-14 -4.914566475132386980e-13 -1.391743572600953605e-13 -4.255058829697073997e-14
5.344000000000000000e+03 4.105386352539062500e+01 -2.292982292175292969e+01 1.923605724577295839e-14 -1.290088234807626466e-13 -3.293183122574962207e-14 1.472774132467088992e-13
5.345000000000000000e+03 3.944844055175781250e+01 -7.222441196441650391e+00 1.253578268750263347e-13 -3.237205425596356712e-13 -5.950881470538280094e-14 5.033777214502599406e-14
5.346000000000000000e+03 3.970777130126953125e+01 -8.283479690551757812e+00 1.352317102699604479e-13 -2.165492448986255924e-13 -2.439525869453364887e-14 1.004321747836468826e-13
5.347000000000000000e+03 9.516312599182128906e+00 -1.172708511352539062e+01 -8.449681350387785311e-15 8.788060340200742893e-14 2.382927805544190342e-14 1.057910523912615128e-14
5.348000000000000000e+03 3.385315704345703125e+01 -1.266891193389892578e+01 -1.231564085739031422e-13 -2.014718958071731736e-13 -9.738849402482832596e-14 9.057178292949663589e-14
5.349000000000000000e+03 3.265285873413085938e+01 -1.149640083312988281e+01 -7.327203622488343004e-14 -1.229041960435287018e-13 -5.885287239102907075e-14 2.196098392113349229e-13
5.350000000000000000e+03 7.082370758056640625e+01 8.242623329162597656e+00 6.235521132639046393e-14 -2.020310866301597286e-13 -4.190276055825170598e-14 2.504717929645381563e-14
5.351000000000000000e+03 2.267833137512207031e+01 -9.160100936889648438e+00 -3.060812169583364273e-14 7.838413078331551986e-14 1.433280374268409985e-14 -1.605114018045014634e-13
5.352000000000000000e+03 8.981983184814453125e+00 -3.053418159484863281e+01 2.922215556555932126e-14 -1.247290709301476785e-13 -2.865207189887107597e-14 -5.677610007029203210e-14
5.353000000000000000e+03 7.911481380462646484e+00 -1.800310325622558594e+01 -4.852427121682274802e-14 -1.580489618303523858e-13 -6.197197296347115025e-14 1.051883630383016605e-14
5.354000000000000000e+03 7.244517517089843750e+01 1.056445884704589844e+01 -1.305221122155364455e-13 -7.595408812533302467e-14 -6.194286213513991446e-14 3.065011758935851094e-14
5.355000000000000000e+03 4.354885482788085938e+01 -4.389711380004882812e+00 -2.145171654243174797e-13 -2.063133057407171012e-13 -1.262491359284995118e-13 -1.034285436701636030e-13
5.356000000000000000e+03 3.123409843444824219e+01 -1.086124038696289062e+01 -1.378588541066372297e-13 -1.734597437474255655e-13 -9.339558071147155416e-14 1.775319935547539640e-13
5.357000000000000000e+03 4.402309417724609375e+01 -9.779616355895996094e+00 -1.752185771692130190e-13 -3.038484177805833575e-13 -1.437201052612024910e-13 -4.650335902489123596e-14
5.358000000000000000e+03 4.308338546752929688e+01 -1.155035305023193359e+01 -8.856394384407304671e-15 -1.181729681557636136e-13 -3.810880850794139130e-14 -1.527982554122998132e-14
5.359000000000000000e+03 4.016299819946289062e+01 -2.424598503112792969e+01 -9.226273851902291878e-14 -2.911713838787965969e-13 -1.150302319759613501e-13 6.358370725550663294e-14
5.360000000000000000e+03 4.260087966918945312e+01 -2.299608039855957031e+01 -3.976101403419668445e-14 -1.542932855048625984e-13 -5.821628986171778486e-14 2.148068913498599186e-13
5.361000000000000000e+03 7.144303798675537109e+00 -2.214918327331542969e+01 -1.506509294822212276e-15 -6.456468406380909755e-16 -6.456468406380909755e-16 8.262431673089834505e-14
5.362000000000000000e+03 6.854502677917480469e+00 -3.395813751220703125e+01 6.906137445771010075e-14 1.897260560462799006e-13 7.763622779594428480e-14 -2.324131013510533084e-14
5.363000000000000000e+03 6.076847076416015625e+00 -3.482594299316406250e+01 3.271765047470689969e-14 -1.232310016833701449e-13 -2.715400434615943687e-14 1.056409412123491057e-14
5.364000000000000000e+03 5.649209022521972656e+00 -2.540868759155273438e+01 4.041014281552270104e-14 -7.418326749327602831e-14 -1.013193621747987203e-14 1.776947051957897261e-14
5.365000000000000000e+03 1.458926677703857422e+01 -3.801763916015625000e+01 -3.819804173486873733e-14 -6.784040695742912797e-14 -3.181153528531571739e-14 3.585041877078587458e-14
5.366000000000000000e+03 7.329484558105468750e+01 -3.503709793090820312e+01 -1.872008204375531781e-14 -3.740304778138830999e-13 -1.178251696513574198e-13 6.918751036905047488e-15
5.367000000000000000e+03 6.897123718261718750e+01 -2.805641365051269531e+01 9.847800201169543133e-14 -1.293612027393475916e-13 -9.264958185416574676e-15 -1.147859205689188977e-13
5.368000000000000000e+03 7.188210296630859375e+01 -2.790494155883789062e+01 9.706410751108424106e-14 -2.100313195932401733e-13 -3.389016091414134846e-14 -6.538280523547476686e-14
5.369000000000000000e+03 1.061567592620849609e+01 -3.034801292419433594e+01 1.158518810398523335e-14 -1.094122893414289921e-13 -2.934812969360676982e-14 3.496252156602423777e-14
5.370000000000000000e+03 4.215747451782226562e+01 -2.534836578369140625e+01 -5.698757031590354072e-14 -5.587702203062663853e-14 -3.385937634870633817e-14 1.457547868207245689e-13
5.371000000000000000e+03 4.275140380859375000e+01 -2.604954338073730469e+01 -4.944816393371090357e-14 -2.956977653185977051e-13 -1.035437808085716560e-13 1.667943804991092738e-13
5.372000000000000000e+03 4.302934265136718750e+01 -2.871511650085449219e+01 -3.875088997514625211e-14 -3.139886896492971591e-13 -1.058218725320803077e-13 1.019751232241017380e-13
5.373000000000000000e+03 1.543776988983154297e+01 -3.585597229003906250e+01 -5.065017483663232511e-14 -1.189279794436282067e-13 -5.087344933339676967e-14 2.607228906240707106e-14
5.374000000000000000e+03 4.217864227294921875e+01 -2.815424919128417969e+01 -4.498696676139869732e-14 -2.480348825634193233e-13 -8.790654971524772265e-14 3.588451692911054369e-14
5.375000000000000000e+03 4.148070907592773438e+01 -2.593816566467285156e+01 -6.835529456914249402e-14 -3.495517677393200628e-13 -1.253721112386488312e-13 6.464040457412889573e-14
5.376000000000000000e+03 4.025637054443359375e+01 -2.580110740661621094e+01 -8.245484237881170464e-14 -2.583736718499152207e-13 -1.022485522357390042e-13 3.809393799751939480e-14
5.377000000000000000e+03 1.262041568756103516e+01 -3.195582389831542969e+01 -1.924570664510807938e-14 -1.226255289801456150e-13 -4.256137272045518172e-14 4.447224516814299311e-14
5.378000000000000000e+03 4.817765045166015625e+01 -3.591664886474609375e+01 -3.709027849392240728e-14 -1.645864163273697001e-13 -6.050300776876127440e-14 1.585988725603688226e-14
5.379000000000000000e+03 6.587133026123046875e+01 -3.239956665039062500e+01 -7.419978802387927619e-14 -1.347395502462878092e-13 -6.268180012579741001e-14 -1.292085877310431008e-13
5.380000000000000000e+03 2.600580024719238281e+01 -3.645262527465820312e+01 -9.528722212312490392e-14 4.913569093836995041e-15 -2.711209484999518859e-14 -8.940749209778234285e-14
5.381000000000000000e+03 4.636157989501953125e+01 -3.362789535522460938e+01 -5.867970497529240159e-14 -2.767786542491601498e-13 -1.006375091225884810e-13 7.886185058930336722e-15
5.382000000000000000e+03 4.574283599853515625e+01 -3.558715820312500000e+01 -3.462145866761461022e-14 -2.321547630784043248e-13 -8.003287025075064842e-14 1.586758000926384582e-14
5.383000000000000000e+03 2.754042434692382812e+01 -3.669557189941406250e+01 -4.872413711105687273e-14 -6.663272093376110261e-14 -3.460705910751128711e-14 1.102077278178001385e-14
5.384000000000000000e+03 2.028296279907226562e+01 -3.724893188476562500e+01 -9.903892755815796312e-14 1.062453280193352556e-13 2.161919460726829945e-15 -1.572943401776435296e-14
5.385000000000000000e+03 3.950498962402343750e+01 -3.353223419189453125e+01 -3.428947935053133778e-14 -1.633860689971566860e-13 -5.930266721481183834e-14 -4.819185483073869236e-15
5.386000000000000000e+03 3.873149871826171875e+01 -3.190705871582031250e+01 -4.899292099401139633e-14 -1.811252834998597350e-13 -6.903546202578769719e-14 -6.495590740632217752e-14
5.387000000000000000e+03 3.049239730834960938e+01 -4.035678482055664062e+01 -4.373844358527764764e-14 -6.449599562101740458e-14 -3.247033040663580006e-14 -2.188646907751081588e-14
5.388000000000000000e+03 2.515360260009765625e+01 -3.784355926513671875e+01 -5.812370577245110081e-14 -1.392875344143756910e-13 -5.922337137842167976e-14 -4.683376286069261540e-14
5.389000000000000000e+03 4.474538803100585938e+01 -3.283041381835937500e+01 -3.604832293671415833e-14 -1.755775971661044377e-13 -6.348777569203239990e-14 4.860352300749964938e-14
5.390000000000000000e+03 4.620924758911132812e+01 -3.031923484802246094e+01 -8.031984501328040538e-14 -1.602378982539648389e-13 -7.216732230254721547e-14 7.224089897247751302e-14
5.391000000000000000e+03 3.293125915527343750e+01 -4.136151885986328125e+01 -9.675509633939871623e-14 -3.002873421925275621e-14 -3.803515052284815734e-14 -1.509350031569066386e-14
5.392000000000000000e+03 3.214329910278320312e+01 -3.741735839843750000e+01 -3.801090166363416123e-14 -2.200925497354479926e-14 -1.800604682174709870e-14 -1.606134557221184506e-14
5.393000000000000000e+03 1.053824520111083984e+01 -7.359778881072998047e+00 3.654073707027097329e-14 -3.732227471953813991e-13 -1.010046064256649168e-13 -4.287897958248944319e-14
5.394000000000000000e+03 1.036410808563232422e+01 -1.096010112762451172e+01 -2.865856017124704391e-14 5.634418102982811927e-14 8.305686596387501508e-15 5.346728783458751244e-14
5.395000000000000000e+03 7.490052032470703125e+01 -1.233449172973632812e+01 4.320426395115761764e-14 -1.187367397329289198e-13 -2.265974070165231724e-14 -1.008581103833713910e-13
5.396000000000000000e+03 7.344950103759765625e+01 1.250126838684082031e+01 -1.202879755437397113e-13 -7.442746370383765409e-14 -5.841463109664685183e-14 -2.054062893082700403e-13
5.397000000000000000e+03 7.333313751220703125e+01 1.344172859191894531e+01 -1.177007845571190203e-13 -6.474036801443205924e-14 -5.473234509383896607e-14 -1.162240334355579829e-13
5.398000000000000000e+03 3.819686889648437500e+01 -1.429736137390136719e+01 6.464986169698498999e-15 -8.667029157620291524e-15 -6.606128010853311913e-16 -2.122855995265356122e-14
5.399000000000000000e+03 3.738853836059570312e+01 -9.525322914123535156e+00 4.710510732424668875e-15 -3.639887870277025428e-13 -1.077834856414404407e-13 -8.058909984655360237e-14
5.400000000000000000e+03 7.444126129150390625e+01 -5.130168437957763672e+00 -1.467334554642457656e-13 -3.373914645929398937e-13 -1.452374733066502666e-13 -2.304287674299160260e-13
5.401000000000000000e+03 3.878534698486328125e+01 -1.382415771484375000e+01 -1.813567606636853902e-13 -2.149771788535759232e-13 -1.189001832104311096e-13 5.069652786763786945e-14
5.402000000000000000e+03 7.369309234619140625e+01 5.641367435455322266e+00 -2.198090139266840881e-14 -4.669298801773802410e-13 -1.466732280335641958e-13 2.024307642085193537e-13
5.403000000000000000e+03 5.020675277709960938e+01 -4.117566585540771484e+00 4.780839285112130355e-14 2.034931061547021192e-13 7.539045207343927912e-14 -1.702688825436921016e-13
5.404000000000000000e+03 3.407616424560546875e+01 -9.031124114990234375e+00 4.993360190391413211e-14 1.586529573081169042e-13 6.257596844123566870e-14 1.843067392497468870e-13
5.405000000000000000e+03 3.300397491455078125e+01 -1.004157161712646484e+01 -1.539794225284552009e-13 2.551071468870694248e-14 -3.854061235192447754e-14 1.866141925233391619e-13
5.406000000000000000e+03 4.000872039794921875e+01 -1.860777664184570312e+01 -7.778163963606532505e-14 1.241595971271814564e-14 -1.960970380759756437e-14 1.955473950083705392e-13
5.407000000000000000e+03 3.916821289062500000e+01 -1.631748771667480469e+01 -9.754324355615989761e-14 -1.790571000932078549e-13 -8.298010445006304137e-14 2.304792099359909141e-13
5.408000000000000000e+03 1.289095687866210938e+01 -8.641438484191894531e+00 -6.273867330600785275e-14 -2.688800211940369639e-14 -2.688800211940369639e-14 -1.504265123380109370e-14
5.409000000000000000e+03 1.130455303192138672e+01 -7.460777282714843750e+00 1.155416806339088637e-14 -1.323010575876235051e-13 -3.622406872074226958e-14 -1.929186147040396621e-14
5.410000000000000000e+03 7.905849456787109375e+00 -6.243809700012207031e+00 8.466592363179717418e-14 1.049118203335502875e-13 5.687332251197788069e-14 2.457941890385978434e-14
5.411000000000000000e+03 6.359101867675781250e+01 2.111820131540298462e-01 -1.871258139760079153e-13 1.714334376496859380e-13 -4.707710017984572531e-15 -7.789223503392242454e-14
5.412000000000000000e+03 6.111371994018554688e+01 -6.237107276916503906e+00 -4.366178371541934444e-14 1.414161214345621698e-13 2.932630334862192101e-14 -9.274064128412737307e-14
5.413000000000000000e+03 7.370859527587890625e+01 1.149543952941894531e+01 -1.336706488769615064e-13 -3.441194676217715354e-14 -5.042477598123616678e-14 -1.281630102609523925e-13
5.414000000000000000e+03 2.132384300231933594e+01 -9.369210243225097656e+00 4.652344979936716071e-15 1.621221874196360213e-13 5.003235916930040550e-14 -5.193940641619841647e-14
5.415000000000000000e+03 6.412707519531250000e+01 6.046335101127624512e-01 -8.668897712301934511e-14 8.598530450208783510e-15 -2.342713391713987375e-14 -6.818059571783718908e-14
5.416000000000000000e+03 1.548012733459472656e+01 -9.165961265563964844e+00 -3.541371568823586946e-14 -2.896829911364084964e-13 -9.752901340264602537e-14 2.523800226694305343e-14
5.417000000000000000e+03 1.602667045593261719e+01 -9.119967460632324219e+00 1.493631878336093566e-13 1.826184738368610838e-14 5.028751259806771290e-14 -1.380499311870106438e-13
5.418000000000000000e+03 7.315286254882812500e+01 -2.928919219970703125e+01 8.702548637230453354e-14 -5.117147482656958513e-13 -1.274067792456437531e-13 -1.218704499296452415e-13
5.419000000000000000e+03 4.050460815429687500e+01 -2.114243125915527344e+01 3.067691771180963700e-14 -3.260369743824688415e-14 -5.780338649916149426e-16 1.498610805762690124e-13
5.420000000000000000e+03 1.272611427307128906e+01 -9.912405014038085938e+00 6.510054675239532185e-14 2.109040345794552240e-13 8.280137372192880596e-14 8.151492041042970871e-14
5.421000000000000000e+03 6.214974975585937500e+01 -1.232592821121215820e+00 -1.119705524588350543e-13 2.265183076917767768e-13 3.436432995801430579e-14 1.020048439161549969e-13
5.422000000000000000e+03 6.306361007690429688e+01 -2.202302813529968262e-01 -1.325025565613799361e-13 -3.963020504208630834e-14 -5.163983119154530455e-14 1.337129768074016983e-14
5.423000000000000000e+03 4.501786041259765625e+01 -5.479963302612304688e+00 3.406189515013126334e-14 -2.377471320941931809e-13 -6.110556667864724956e-14 -5.775660846937466508e-14
5.424000000000000000e+03 4.515824890136718750e+01 -3.971172332763671875e+00 -1.580471593442406286e-13 -1.592363936021856663e-13 -9.518506317342245726e-14 1.239606697454528894e-13
5.425000000000000000e+03 9.074858665466308594e+00 -6.762337684631347656e+00 1.637429747998117580e-13 -3.873339366258776728e-13 -6.707728448206162764e-14 1.089583271155457334e-13
5.426000000000000000e+03 9.069330215454101562e+00 -6.192037582397460938e+00 1.034804837304892366e-13 9.009972807986002530e-14 5.807406286547842078e-14 -9.618502961336941603e-14
5.427000000000000000e+03 4.181550216674804688e+01 -2.459900093078613281e+01 -1.150202573159744834e-13 -1.636717698221337725e-13 -8.360760678617976116e-14 8.487176619050712523e-14
5.428000000000000000e+03 6.521841430664062500e+01 -9.478613853454589844e+00 2.789593575125252911e-14 1.195540164127461766e-14 1.195540164127461766e-14 1.655035463332069773e-14
5.429000000000000000e+03 6.716603088378906250e+01 -8.325669288635253906e+00 1.568139708525966708e-14 6.720599113839691857e-15 6.720599113839691857e-15 4.906612835757669100e-14
5.430000000000000000e+03 1.080762290954589844e+01 -7.736536026000976562e+00 1.435225161915305858e-14 -8.535092934063709391e-14 -2.129960399407156840e-14 -3.588310407815452352e-14
5.431000000000000000e+03 6.566732788085937500e+01 -8.369352340698242188e+00 7.929368153834076560e-14 2.326012612499563786e-14 3.076614077434161598e-14 -1.137524184005242467e-13
5.432000000000000000e+03 8.888139724731445312e+00 -2.769400596618652344e+01 -1.863054473199990749e-15 -1.838022464263622258e-13 -5.569958895696759671e-14 -7.177076858169706419e-14
5.433000000000000000e+03 3.639449691772460938e+01 -9.689401626586914062e+00 -3.323960361174978749e-15 -1.844283460759182924e-13 -5.632569199465545240e-14 2.090116308381493454e-14
5.434000000000000000e+03 3.692638778686523438e+01 -9.921792030334472656e+00 -1.979473984899116079e-14 -3.516155736797005327e-13 -1.114230981243656549e-13 -1.857924892493395541e-13
5.435000000000000000e+03 4.645763778686523438e+01 -5.357222080230712891e+00 -9.063299291839702065e-14 -1.303446147673734123e-13 -6.629327756234662528e-14 -3.663401572655440586e-14
5.436000000000000000e+03 4.734838485717773438e+01 -3.735829353332519531e+00 -6.340675868469342058e-14 -2.717432636062996204e-14 -2.717432636062996204e-14 7.223630466577160569e-14
5.437000000000000000e+03 7.477177429199218750e+01 -2.312031364440917969e+01 -2.169663645794350781e-13 -1.844874757519002206e-13 -1.204361588756641677e-13 5.896573783718481176e-14
5.438000000000000000e+03 7.335849761962890625e+01 -2.343328285217285156e+01 -2.144186792094743277e-13 -4.579012950062244514e-13 -2.016960003962259274e-13 -9.017517838666964936e-15
5.439000000000000000e+03 1.213832569122314453e+01 -7.962148189544677734e+00 1.340481138633123348e-14 -8.575697660676007139e-14 -2.170564956612865137e-14 1.617538161790069151e-13
5.440000000000000000e+03 4.791301345825195312e+01 -4.067797183990478516e+00 -1.580290125103786525e-13 -1.592286144515980828e-13 -9.517729079909845180e-14 -2.936421993147281251e-14
5.441000000000000000e+03 5.000637054443359375e+01 -5.253227233886718750e+00 -9.236812974645208785e-14 -8.533728872205451066e-14 -5.331162689580469516e-14 -1.076973457788364674e-13
5.442000000000000000e+03 5.137022781372070312e+01 -4.844145298004150391e+00 -6.877603277470265009e-14 1.992793002012285819e-13 3.915098090558413735e-14 -1.075406582361215779e-13
5.443000000000000000e+03 7.390380096435546875e+01 -2.473177719116210938e+01 -1.871665664251662142e-13 -1.717161433661615333e-13 -1.076648129373983243e-13 -4.583105542212834171e-14
5.444000000000000000e+03 6.469068908691406250e+01 9.314365983009338379e-01 -2.203570577960847765e-13 -1.859406319236825422e-13 -1.218893014949193332e-13 -1.820278004932909810e-13
5.445000000000000000e+03 4.770583343505859375e+01 -4.792224407196044922e+00 -2.728226038096678852e-14 1.026849774914823099e-13 2.262081445552829861e-14 1.134553622518562691e-14
5.446000000000000000e+03 6.723324775695800781e+00 -3.034181594848632812e+01 -3.574429231875848878e-14 -1.531898218031565312e-14 -1.531898218031565312e-14 7.631606765534214992e-15
5.447000000000000000e+03 6.130090713500976562e+00 -3.316381454467773438e+01 7.299893925016148755e-14 4.272299677118666927e-14 3.471658046759126814e-14 9.365755783766194220e-14
5.448000000000000000e+03 1.369535255432128906e+01 -8.025021553039550781e+00 -4.745373761500708623e-15 -9.353563252710236919e-14 -2.948430209833916016e-14 1.956810364786565337e-13
5.449000000000000000e+03 1.339848995208740234e+01 -6.929632663726806641e+00 -2.209885242463946464e-14 -8.953509591722030869e-14 -3.349018518018428980e-14 9.622505700232486525e-14
5.450000000000000000e+03 7.148131561279296875e+01 -2.189629554748535156e+01 -3.054923257720873475e-14 -3.333491794231535632e-13 -1.091695229224823316e-13 4.603716225511783611e-14
5.451000000000000000e+03 5.327402496337890625e+01 -4.864568233489990234e+00 -2.266981022932927636e-14 1.732881687536297344e-13 4.518550450797152729e-14 -2.502239138547218689e-13
5.452000000000000000e+03 7.101635932922363281e+00 -2.499197578430175781e+01 -2.264500741056777594e-14 -1.240823714393143873e-13 -4.401821517962395403e-14 3.249177728086027894e-14
5.453000000000000000e+03 6.196817398071289062e+00 -2.758553886413574219e+01 -2.409575123251631729e-14 -1.018286475105989464e-13 -3.777732046996752635e-14 8.678055832527648006e-14
5.454000000000000000e+03 7.409143829345703125e+01 -2.633256340026855469e+01 1.474967608987298728e-14 -5.198146058559005578e-13 -1.515194897718299960e-13 1.375509542421785025e-13
5.455000000000000000e+03 2.713906288146972656e+01 -9.608912467956542969e+00 1.984806633284486033e-13 3.595688471361851990e-13 1.674148558498955719e-13 1.493170414786429423e-13
5.456000000000000000e+03 2.661682128906250000e+01 -9.631762504577636719e+00 1.336039704433536479e-13 4.232664295011207001e-13 1.670611213385950200e-13 -1.626947816919799283e-13
5.457000000000000000e+03 8.211141586303710938e+00 -2.417657852172851562e+01 -1.011727661826174185e-13 -2.263635513841816271e-13 -9.826089730291878710e-14 5.233329367733061122e-14
5.458000000000000000e+03 7.279273223876953125e+01 -3.136945915222167969e+01 3.412949854371752356e-14 -2.827542345228140075e-13 -7.458742418186073420e-14 1.234866040395994971e-15
5.459000000000000000e+03 7.227167510986328125e+01 -2.952154350280761719e+01 7.358601439777165409e-14 -2.658443127093179648e-13 -5.767748881583753540e-14 4.333907771504261208e-14
5.460000000000000000e+03 6.737870693206787109e+00 -3.255892562866210938e+01 -2.633648541491926537e-14 8.021483325661160624e-14 1.616350452191429171e-14 8.267374449150242249e-15
5.461000000000000000e+03 7.779977321624755859e+00 -2.888321685791015625e+01 2.442616353864716927e-14 -3.828815926419301685e-15 6.179204029558476099e-15 -1.187373495966509429e-13
5.462000000000000000e+03 3.571628952026367188e+01 -1.301050662994384766e+01 -1.000535917138056785e-13 -1.801329539089652210e-13 -8.405596504208398545e-14 5.643863875597412982e-14
5.463000000000000000e+03 3.746455383300781250e+01 -1.117804145812988281e+01 -1.281407366825713934e-14 -2.799974336588351154e-13 -8.784345592507264433e-14 -8.046388127189510464e-14
5.464000000000000000e+03 5.893493652343750000e+00 -2.153531837463378906e+01 -8.560409732417603723e-14 -8.243841671589854925e-14 -5.041275488964873375e-14 1.138056256221389728e-13
5.465000000000000000e+03 5.226806163787841797e+00 -2.269205474853515625e+01 7.655585421238036981e-15 -3.169756666344947238e-13 -9.279603046261422628e-14 1.274369065135116941e-13
5.466000000000000000e+03 3.188899230957031250e+01 -1.090209579467773438e+01 -8.381992067660673507e-14 -8.167376958122599118e-14 -4.964810775497617568e-14 1.507165296428872314e-13
5.467000000000000000e+03 7.038283538818359375e+01 -2.569988441467285156e+01 1.657896232408126447e-14 -3.846372276673087898e-13 -1.104174802805946154e-13 1.573207506649389187e-14
5.468000000000000000e+03 7.518263244628906250e+01 -1.837441062927246094e+01 -5.119412923096366974e-15 -2.766997243310032051e-13 -8.454573982097715601e-14 1.193057967956850929e-13
5.469000000000000000e+03 5.251727581024169922e+00 -2.206155967712402344e+01 7.551046308953805741e-15 -1.797676319869462302e-13 -5.166497451755160120e-14 2.236861547768101421e-14
5.470000000000000000e+03 7.376269531250000000e+01 -1.965516471862792969e+01 -4.611913810375310729e-14 -3.857729294429873557e-13 -1.295676212804616756e-13 1.118738280725221912e-13
5.471000000000000000e+03 7.477973937988281250e+01 -1.905851173400878906e+01 8.137264598034529839e-14 -1.023788530080810277e-13 -6.301863717683318586e-15 1.209620104818467934e-13
5.472000000000000000e+03 7.316549682617187500e+01 -2.001765632629394531e+01 -1.920989951310902999e-13 -4.940867051432540347e-13 -2.058557046612924379e-13 1.997980299543906935e-14
5.473000000000000000e+03 7.501564025878906250e+01 -1.701773643493652344e+01 8.462999588230643577e-14 -1.924847407115334863e-13 -3.235642480402083077e-14 1.567605501786792366e-13
5.474000000000000000e+03 7.438254547119140625e+01 -1.719729614257812500e+01 -7.648753592298662696e-14 -1.700332176489752212e-13 -7.395622878209398565e-14 -1.901681123770565529e-14
5.475000000000000000e+03 7.444577789306640625e+01 -2.083412551879882812e+01 -7.278503293779367556e-14 -1.741653018636976635e-13 -7.408509976282104392e-14 2.081208876026849341e-13
5.476000000000000000e+03 7.359129333496093750e+01 -1.672352218627929688e+01 -2.421538786005240917e-14 -1.476308631549391737e-13 -5.155387767618972716e-14 3.024496838991785983e-16
5.477000000000000000e+03 7.479427337646484375e+01 -1.546992588043212891e+01 3.690565919273885997e-14 -2.993423922365706646e-14 2.091426625999248494e-15 1.550074528640105892e-14
5.478000000000000000e+03 7.410713195800781250e+01 -1.570238113403320312e+01 2.860686066827843044e-14 -1.249927624510233093e-13 -2.891577019601028475e-14 -2.619440241428093452e-14
5.479000000000000000e+03 6.807048034667968750e+01 4.918819904327392578e+00 -6.402218571911408307e-14 -3.887581717047089436e-14 -3.086940086687549323e-14 9.384001042856641300e-15
5.480000000000000000e+03 7.322138977050781250e+01 -1.069337654113769531e+01 -1.508109297707928287e-14 -5.097237736062520952e-13 -1.574414562480544455e-13 -7.461400068761378512e-14
5.481000000000000000e+03 7.484832763671875000e+01 -8.586136817932128906e+00 7.095180291818298235e-14 -1.068449324783012078e-13 -1.076793852922228872e-14 -5.852721871599589343e-14
5.482000000000000000e+03 7.170993041992187500e+01 -1.242193794250488281e+01 9.712217331368441786e-14 -2.328819103704360405e-13 -4.072791908414641338e-14 -1.524313186219668822e-15
5.483000000000000000e+03 7.511658477783203125e+01 -1.162196159362792969e+01 2.259832674721823365e-13 5.348074972921822504e-15 6.939940159003676889e-14 1.288151036575937991e-13
5.484000000000000000e+03 7.434325408935546875e+01 -1.189201068878173828e+01 4.465141296527801174e-14 -2.553693747350122001e-13 -6.321539022498615101e-14 -3.802617536173905077e-14
5.485000000000000000e+03 7.286594390869140625e+01 3.371404170989990234e+00 -3.619745020215503484e-13 -1.093809830036984732e-13 -1.414066482180800777e-13 1.080015186983272757e-13
5.486000000000000000e+03 7.478413391113281250e+01 -7.699776172637939453e+00 -5.977904532061123488e-14 -2.086233882045776533e-13 -8.052072734705123525e-14 -2.440378899393885748e-13
5.487000000000000000e+03 6.841986846923828125e+01 -8.329943656921386719e+00 1.267335168015845670e-13 -1.286894310732755731e-13 -5.867768861336146273e-16 2.662020757093156581e-14
5.488000000000000000e+03 7.479066467285156250e+01 -2.142850637435913086e+00 -2.514001105815427684e-13 -1.077429025988715927e-13 -1.077429025988715927e-13 -7.409825926668958673e-14
5.489000000000000000e+03 7.408814239501953125e+01 -2.888254165649414062e+00 -1.568604458563466197e-13 -9.010138148817306569e-14 -7.408854888098226343e-14 -4.865885797587787831e-15
5.490000000000000000e+03 7.432539367675781250e+01 -1.381712150573730469e+01 1.657457977561217072e-14 -1.301494583763260215e-13 -3.407246273318120799e-14 -4.336534928893465146e-14
5.491000000000000000e+03 7.432228088378906250e+01 -4.516089916229248047e+00 -1.711345095582045284e-13 -2.334716892472138428e-13 -1.213818542206146489e-13 -8.493827521752553289e-14
5.492000000000000000e+03 7.470592498779296875e+01 -1.318415832519531250e+01 1.061899659459027145e-13 -6.886738358399813187e-14 1.119677521679114315e-14 7.405467603342156396e-15
5.493000000000000000e+03 7.382997131347656250e+01 -1.237646675109863281e+01 3.756501335580413048e-15 -1.356429210489298876e-13 -3.956592540578507400e-14 -4.161703940448388539e-14
5.494000000000000000e+03 7.367054748535156250e+01 -1.414754009246826172e+01 5.613867728429706994e-14 -2.046953101811355147e-13 -4.456699088549107013e-14 -9.182793956653834133e-14
5.495000000000000000e+03 7.419178771972656250e+01 -8.590454101562500000e+00 -3.512630385670532929e-14 -2.895598257696141431e-13 -9.740584125958809403e-14 -2.148816741947071063e-13
5.496000000000000000e+03 7.338493347167968750e+01 -2.829230785369873047e+00 -1.329888483407939970e-13 -2.628744932234999832e-13 -1.187589929825191848e-13 -1.927851900741881647e-14
5.497000000000000000e+03 7.416804504394531250e+01 -6.496415138244628906e+00 -1.302181561364801343e-13 -3.303134675503027751e-13 -1.381594898165403040e-13 -4.002415328959070540e-14
5.498000000000000000e+03 7.463230133056640625e+01 -1.458528232574462891e+01 -3.441823936994230573e-15 -3.217317091994825740e-13 -9.755205947507492037e-14 -1.424790054818311780e-13
5.499000000000000000e+03 7.413140869140625000e+01 -7.746764183044433594e+00 2.437242099220977842e-14 -1.954339468035470873e-13 -5.131845672696165594e-14 1.771463868877141273e-14
5.500000000000000000e+03 7.407649993896484375e+01 1.026182293891906738e+00 -2.748450338846408769e-13 -2.092926255480714870e-13 -1.452412951193082780e-13 2.190899778221552796e-13
5.501000000000000000e+03 7.479943847656250000e+01 2.343118935823440552e-01 -3.748148980856763623e-13 -2.521368530628009808e-13 -1.880855361865649278e-13 -5.772253063984073007e-14
5.502000000000000000e+03 7.480982208251953125e+01 -1.348107099533081055e+00 -2.497348844648222821e-13 -3.815349186760130795e-13 -1.893809409422506085e-13 -1.302314647181473939e-13
5.503000000000000000e+03 7.407714843750000000e+01 -2.036194324493408203e+00 -1.682721209551527042e-13 -3.237468344623184446e-13 -1.476056825594831978e-13 -1.632290223124721606e-13
5.504000000000000000e+03 7.417901611328125000e+01 2.522657811641693115e-01 -3.996362160467448188e-13 -2.170236104541423128e-13 -1.849979452397607083e-13 1.661575472480456006e-13
5.505000000000000000e+03 7.418865966796875000e+01 -4.859453141689300537e-01 -2.158980730738307985e-13 -1.840296442795139042e-13 -1.199783138507506952e-13 -1.018975214536060880e-13
5.506000000000000000e+03 7.487187957763671875e+01 5.213861465454101562e+00 -1.478680323801703778e-13 -2.006248628599188732e-13 -1.045478672167740597e-13 1.299793199504087338e-13
5.507000000000000000e+03 7.419481658935546875e+01 3.944487333297729492e+00 -1.175473835022394775e-13 -5.078869182856271536e-13 -1.876302932468654205e-13 1.765626897074976109e-13
5.508000000000000000e+03 3.252641677856445312e+01 -1.082310009002685547e+01 -1.782937675536694355e-13 -9.928709465917631705e-14 -8.327426205198551479e-14 8.259987474817237496e-14
5.509000000000000000e+03 7.488094329833984375e+01 8.487113952636718750e+00 6.478025987811594777e-14 -1.552408239935063050e-13 -2.713816991224346498e-14 4.203198051655303302e-14
5.510000000000000000e+03 5.096518516540527344e+00 -8.318734169006347656e+00 3.493908247030781677e-14 -1.362045157514207502e-14 6.395588760329954173e-15 -3.245742162451964452e-14
5.511000000000000000e+03 7.044083118438720703e+00 -8.793026924133300781e+00 -1.517533894498847985e-14 -2.581339276445243636e-13 -8.199278251795269479e-14 2.696130011549434727e-15
5.512000000000000000e+03 1.417976665496826172e+01 -9.620160102844238281e+00 -1.791713038514202577e-14 2.210759787041327584e-13 6.094765263222473584e-14 -2.495523217596346682e-14
5.513000000000000000e+03 5.913838863372802734e+00 -2.283888816833496094e+01 -6.534815142353669892e-14 -1.195082444463424487e-13 -5.545692079384281770e-14 -3.857125122769256009e-14
5.514000000000000000e+03 7.482250213623046875e+01 5.988736629486083984e+00 -9.533947389157512720e-14 -4.983692495144631529e-13 -1.781126244757014199e-13 2.855813187926242724e-13
5.515000000000000000e+03 7.424580383300781250e+01 4.599984645843505859e+00 -7.166234836444851375e-14 6.078946075899552270e-14 -3.261866281635897313e-15 2.037982548561481644e-13
5.516000000000000000e+03 5.734688758850097656e+00 -2.335988807678222656e+01 4.371134869536087708e-14 -2.328967910452534040e-13 -5.675562897802279017e-14 1.524323371790859555e-14
5.517000000000000000e+03 7.424481964111328125e+01 5.293832302093505859e+00 -6.587331862709794317e-14 -5.772427891584386295e-13 -1.929348336909136874e-13 1.713981875265530030e-13
5.518000000000000000e+03 7.246003723144531250e+01 8.215283393859863281e+00 4.209931624772796088e-14 -2.107121850050339140e-13 -5.058385893312589143e-14 7.785134705949256495e-14
5.519000000000000000e+03 7.070339965820312500e+01 5.677942276000976562e+00 -1.733400342750560097e-13 -2.572923699182411150e-13 -1.291897226132418530e-13 1.291654093795238656e-13
5.520000000000000000e+03 5.219441890716552734e+00 -9.475997924804687500e+00 4.632080987223077817e-14 1.985177565952747636e-14 1.985177565952747636e-14 1.863615124307778370e-14
5.521000000000000000e+03 6.431573867797851562e+00 -8.903488159179687500e+00 1.150100488748941746e-14 -2.695766786880993138e-13 -7.742270773060042077e-14 8.666643927035880268e-14
5.522000000000000000e+03 6.500560760498046875e+00 -5.950000286102294922e+00 9.658647240839111914e-15 7.276584255934068213e-14 2.472734812590006437e-14 9.470323017544274302e-14
5.523000000000000000e+03 7.356388854980468750e+01 9.196658134460449219e+00 -7.801425521217209003e-14 5.806721883926460603e-14 -5.984112436531550255e-15 7.565450273628454569e-14
5.524000000000000000e+03 2.355698013305664062e+01 -9.347354888916015625e+00 1.286927785474831221e-13 -3.062897903512683262e-14 2.941914154777278134e-14 5.137053908882242836e-14
5.525000000000000000e+03 5.673081874847412109e+00 -2.681952476501464844e+01 2.634039701306968573e-14 -1.030886327365622412e-13 -2.302446970060822995e-14 2.516576899126710121e-14
5.526000000000000000e+03 8.188606262207031250e+00 -2.712297058105468750e+01 3.923061555515319765e-14 5.375384162174248401e-15 1.338180004225317590e-14 -1.888265646545362469e-14
5.527000000000000000e+03 5.364112854003906250e+00 -1.953659820556640625e+01 -4.117647723982618968e-14 -1.091489569625229972e-13 -4.509762992189157715e-14 1.709819623125358179e-13
5.528000000000000000e+03 5.379183769226074219e+00 -1.110017204284667969e+01 4.974571644368597223e-14 2.131959227756087538e-14 2.131959227756087538e-14 4.155417600727046024e-14
5.529000000000000000e+03 6.330214500427246094e+00 -1.797680473327636719e+01 2.921452888090224354e-14 1.252051237752953294e-14 1.252051237752953294e-14 9.219723237901406021e-14
5.530000000000000000e+03 5.375092029571533203e+00 -1.528057670593261719e+01 4.304961606377971650e-14 6.420078092197675779e-14 3.217511909572694229e-14 1.235229095657847109e-13
5.531000000000000000e+03 5.767571926116943359e+00 -1.677642631530761719e+01 -8.127495428240667091e-15 -1.864870020559794561e-13 -5.838434797471661608e-14 1.317862648436002315e-13
5.532000000000000000e+03 5.382899284362792969e+00 -1.766970443725585938e+01 -5.314356878280586394e-14 -6.852676114272107655e-14 -3.650109931647126105e-14 1.311049793034646527e-13
5.533000000000000000e+03 6.610058307647705078e+00 -1.863057899475097656e+01 3.988272419838765487e-15 -8.979264136703066224e-14 -2.574130924420155869e-14 1.015680391896513213e-13
5.534000000000000000e+03 5.690286636352539062e+00 -1.401194190979003906e+01 5.268114300371364023e-14 -1.232535124309763752e-13 -2.117171218343153610e-14 3.838101101587103325e-14
5.535000000000000000e+03 5.731941699981689453e+00 -1.198078441619873047e+01 9.901077218299123017e-14 -2.892611822812030109e-13 -5.707512641759532324e-14 1.274491308930064681e-13
5.536000000000000000e+03 5.369414329528808594e+00 -1.003441143035888672e+01 2.134796110503031641e-14 5.490007455805426262e-14 2.287441103773855261e-14 4.275954454879479782e-14
5.537000000000000000e+03 5.722231388092041016e+00 -1.058422946929931641e+01 1.347956034986053098e-13 -2.982300279126548492e-13 -4.903032935709393525e-14 1.987235856014575586e-14
5.538000000000000000e+03 5.343269348144531250e+00 -1.635681152343750000e+01 -4.152763338283529948e-14 -4.067303134916433471e-14 -2.466020043603942696e-14 9.966739381776865830e-15
5.539000000000000000e+03 5.173254966735839844e+00 -1.348662185668945312e+01 6.299751958666695208e-16 -4.548095976436919430e-14 -1.345529539702053703e-14 -4.055282382142179343e-14
5.540000000000000000e+03 5.819543361663818359e+00 -1.492298316955566406e+01 1.167127968571121319e-14 5.075292670939784978e-14 1.872726149501624526e-14 1.235608295367673914e-13
5.541000000000000000e+03 8.079085350036621094e+00 -1.471573925018310547e+01 1.156569872290185916e-14 -4.079422143512569099e-14 -8.768557067777033726e-15 -3.220829229407320971e-14
5.542000000000000000e+03 6.202501773834228516e+00 -1.444315052032470703e+01 -5.224441281610932297e-14 6.410742433866217782e-14 3.558903795579035356e-15 2.314867522386181153e-14
5.543000000000000000e+03 5.689826965332031250e+00 -1.293977928161621094e+01 1.731753846226369298e-13 3.132651066719074895e-14 6.135056926457466142e-14 6.184934292149946167e-14
5.544000000000000000e+03 7.381692504882812500e+01 9.898193359375000000e+00 3.440794876666611324e-14 -3.169481278993135920e-13 -8.476205170691517021e-14 6.554475793498978908e-14
5.545000000000000000e+03 2.713678359985351562e+01 -8.589511871337890625e+00 -4.407319778229612517e-14 1.526775396647889194e-13 3.258130527525326947e-14 -1.382151686802951182e-14
5.546000000000000000e+03 7.458883666992187500e+01 -2.690556716918945312e+01 -1.852308454189377507e-13 -7.198979368357172337e-13 -2.715386238343747705e-13 -7.497778418604232522e-16
5.547000000000000000e+03 6.981438446044921875e+01 -2.628134155273437500e+01 -1.069680427879539895e-15 -1.655907670098516471e-13 -4.999813226196775373e-14 -1.477832342177548552e-13
5.548000000000000000e+03 2.705879020690917969e+01 -9.211325645446777344e+00 -1.296248264975874420e-13 1.274502964103418901e-13 -6.523610061131797973e-16 1.188479653232987765e-13
5.549000000000000000e+03 2.780305480957031250e+01 -9.986498832702636719e+00 4.279782366174711417e-14 1.834192418445363543e-14 1.834192418445363543e-14 2.448259964985682879e-13
5.550000000000000000e+03 7.437712097167968750e+01 1.109102630615234375e+01 7.726034845527071648e-15 -5.457002037745350975e-13 -1.613922618595373115e-13 2.214092760044819586e-13
5.551000000000000000e+03 7.532812500000000000e+01 1.268266010284423828e+01 -1.616286992483020879e-13 -2.351849489083072259e-14 -5.554415841114643260e-14 3.888781793326759328e-14
5.552000000000000000e+03 7.405747985839843750e+01 1.205018424987792969e+01 1.747836054220072016e-14 -2.670149800050591882e-13 -7.486098194250598303e-14 7.619878577939942499e-14
5.553000000000000000e+03 7.040044403076171875e+01 -2.458762359619140625e+01 -8.233408533844463213e-16 -5.036133185823410408e-13 -1.513309876716162350e-13 -4.046399378217734044e-14
5.554000000000000000e+03 6.082101058959960938e+01 -1.604997515678405762e+00 -2.280751406963030248e-14 8.172724785338383868e-14 1.767592081275241866e-14 -6.978545210234096685e-14
5.555000000000000000e+03 6.349571609497070312e+01 -7.684230208396911621e-01 -1.115302105227436447e-13 2.034741326166836228e-13 2.758317561174245675e-14 -4.121142581922990211e-14
5.556000000000000000e+03 4.178324508666992188e+01 -8.435173988342285156e+00 -2.114225576565782055e-14 -2.835666543157117081e-13 -9.141267658194923706e-14 -4.704969866400204870e-14
5.557000000000000000e+03 7.282862854003906250e+01 -2.524105644226074219e+01 1.126542164674865232e-13 -1.690366325645537016e-13 -1.691472449030697461e-14 -3.620448870713353917e-14
5.558000000000000000e+03 5.255786514282226562e+01 -4.563049316406250000e+00 -3.655132498211165204e-14 -6.141580435404039862e-14 -2.939013913965879410e-14 -3.493831336439170987e-14
5.559000000000000000e+03 8.727890968322753906e+00 -1.260571670532226562e+01 3.745520400452208298e-14 -2.969872001860711375e-14 2.326945195774490771e-15 -4.679363382778349567e-14
5.560000000000000000e+03 3.991223144531250000e+01 -3.097987365722656250e+01 5.538240899953875140e-14 -1.363929992169096717e-13 -2.430317943690352839e-14 2.883216804411628531e-14
5.561000000000000000e+03 1.359321308135986328e+01 -8.756187438964843750e+00 4.276112426524142709e-15 -4.391832966635193791e-14 -1.189266529900328065e-14 6.393405363501816763e-14
5.562000000000000000e+03 5.543270492553710938e+01 -1.892078757286071777e+00 -8.113546320258693823e-14 3.312352562373499509e-13 7.502993452229711480e-14 6.394661682769184341e-15
5.563000000000000000e+03 2.456843185424804688e+01 -9.156156539916992188e+00 2.356104643796898962e-14 -8.140430468378187512e-14 -1.735297764315045510e-14 6.505630452749433523e-14
5.564000000000000000e+03 2.566545295715332031e+01 -9.107375144958496094e+00 1.042845145090773307e-13 -1.057584056238919639e-15 3.096808020523061922e-14 7.307865521489348426e-14
5.565000000000000000e+03 1.590032863616943359e+01 -8.589753150939941406e+00 -1.455271992321927055e-13 -1.538706906030820609e-13 -8.981936695058242992e-14 -1.825320629237139891e-13
5.566000000000000000e+03 3.897987365722656250e+01 -1.683985900878906250e+01 -3.573564919456470590e-14 -1.531527895227025732e-14 -1.531527895227025732e-14 7.214695454829753857e-15
5.567000000000000000e+03 3.416170501708984375e+01 -1.164599609375000000e+01 -1.619015793825895333e-13 -1.151373375980757618e-13 -8.311167915995773536e-14 1.139794503354427113e-13
5.568000000000000000e+03 3.469713211059570312e+01 -8.792105674743652344e+00 -1.215508813393051391e-13 -1.435951238557692244e-13 -7.954380020326959344e-14 7.920132106577215669e-14
5.569000000000000000e+03 6.266254806518554688e+01 -1.096686482429504395e+00 -6.702116346710834671e-14 6.277854484090100717e-14 -1.272785481983083455e-15 -2.186320921396603389e-13
5.570000000000000000e+03 5.923159790039062500e+01 -5.691414356231689453e+00 -1.345789392469612378e-13 1.253271032959635267e-13 -2.775551844090497385e-15 -1.451376453916186637e-13
5.571000000000000000e+03 8.474758148193359375e+00 -1.536300277709960938e+01 7.229235114182552824e-14 -3.764398731967433243e-14 1.039450796079923259e-14 -2.326249104098437187e-14
5.572000000000000000e+03 7.140454101562500000e+01 1.260779285430908203e+01 -6.813249779896030089e-14 4.228621576160551676e-14 -7.753884441799845789e-15 -6.822153790237567295e-14
5.573000000000000000e+03 7.222537231445312500e+01 -1.976729965209960938e+01 -9.033085965424320074e-14 -4.275962992971588106e-13 -1.553781381986515941e-13 -1.263274678413956950e-14
5.574000000000000000e+03 7.287041473388671875e+01 -2.104259681701660156e+01 -1.470767409771089884e-13 -4.633536935215454289e-13 -1.831291330601017564e-13 7.972669663943842550e-15
5.575000000000000000e+03 6.826179504394531250e+00 -2.426490783691406250e+01 -6.773956260286081998e-14 -3.378501363220098863e-13 -1.216769062893294229e-13 9.408536368613398815e-14
5.576000000000000000e+03 2.851614952087402344e+01 -8.136910438537597656e+00 -2.767029972663113957e-14 -6.976224339958619902e-14 -2.922976192142566487e-14 1.337738513712549704e-13
5.577000000000000000e+03 7.365666198730468750e+01 -2.410204315185546875e+01 -4.394117245087349188e-15 -3.678907764363692490e-13 -1.116854682738435689e-13 1.374117155781770516e-13
5.578000000000000000e+03 7.052492523193359375e+01 -2.347987365722656250e+01 -1.541607417892762455e-14 -3.783333509758263213e-13 -1.181248295793052572e-13 3.158568242025983075e-14
5.579000000000000000e+03 4.765512847900390625e+01 -5.537914752960205078e+00 -5.639371212845176173e-14 -6.991968310755825033e-14 -3.789401789317664582e-14 2.636345494395984229e-14
5.580000000000000000e+03 4.539828109741210938e+01 -4.909698963165283203e+00 -1.476447816003284563e-13 -1.547782355840882085e-13 -9.072689837906142141e-14 1.052753736507754112e-13
5.581000000000000000e+03 3.847138977050781250e+01 -9.007162094116210938e+00 9.279986582779939375e-14 -2.804852704263449681e-13 -5.630562409006910352e-14 -8.757567154099588080e-14
5.582000000000000000e+03 3.836235809326171875e+01 -8.395971298217773438e+00 6.168991776829904627e-14 1.179404338948197850e-13 5.388910346605657598e-14 -1.148201970276789639e-15
5.583000000000000000e+03 6.762710571289062500e+01 4.273630619049072266e+00 -2.127626552586928121e-13 -7.974625463019052729e-14 -8.775267432191771744e-14 -6.186936000410897529e-14
5.584000000000000000e+03 6.530416107177734375e+01 1.152984142303466797e+00 -1.206847799863422499e-13 1.690437713582331608e-14 -3.113411899168319619e-14 -2.830340671035325162e-13
5.585000000000000000e+03 6.572190856933593750e+01 2.102303266525268555e+00 -7.854511108900709415e-15 2.711394748045742320e-13 7.898549029454818293e-14 -9.006414591981176665e-14
5.586000000000000000e+03 7.201813507080078125e+01 1.013185977935791016e+01 4.534299503792041386e-14 -2.550729809661089753e-13 -6.291899645608292624e-14 4.394480114001952931e-14
5.587000000000000000e+03 7.199958801269531250e+01 1.109200763702392578e+01 -2.958904958072841596e-14 -5.592996497796182132e-14 -2.565570470642025008e-14 1.179066474446197055e-14
5.588000000000000000e+03 2.769905662536621094e+01 -9.436166763305664062e+00 6.594042396531121786e-14 -1.749076788081210115e-14 1.453489563950360886e-14 1.187984714941248132e-13
5.589000000000000000e+03 5.704939651489257812e+01 -4.436328411102294922e+00 -1.381682311965559684e-13 -1.049659084694301581e-13 -7.294024325504855355e-14 -1.276854192039725278e-13
5.590000000000000000e+03 6.179039001464843750e+01 -6.979678153991699219e+00 -2.642374336101361437e-14 -3.419993441547940216e-14 -1.818710350235449441e-14 4.756524357328248409e-14
5.591000000000000000e+03 5.999672698974609375e+01 -3.263141393661499023e+00 -1.119908541445148453e-13 -4.799608179970570043e-14 -4.799608179970570043e-14 -1.013046187193188119e-13
5.592000000000000000e+03 3.431489562988281250e+01 -9.659686088562011719e+00 -5.630737575420402541e-14 -1.156336311425310015e-13 -5.158230071376779247e-14 1.576312221214255099e-14
5.593000000000000000e+03 3.505689620971679688e+01 -1.278490829467773438e+01 -1.418283893106497828e-13 -6.078359251473694491e-14 -6.078359251473694491e-14 1.134912137683817546e-13
5.594000000000000000e+03 7.188320159912109375e+01 -1.581283378601074219e+01 -4.920769127998540771e-14 -3.870966047703205959e-13 -1.308912830552677597e-13 -1.514808786219623560e-13
5.595000000000000000e+03 4.318678283691406250e+01 -4.906882762908935547e+00 -1.721463005780951572e-14 -3.733852962060912883e-13 -1.171799744910384522e-13 -7.523691549328817563e-14
5.596000000000000000e+03 4.110814285278320312e+01 -1.947636985778808594e+01 -7.210567863277783651e-14 8.347494109784900362e-14 3.410777638378518703e-15 7.790716991884841236e-14
5.597000000000000000e+03 7.075158691406250000e+01 -1.108562564849853516e+01 1.163449897404258970e-13 -4.533983052282947179e-13 -1.011159946463606463e-13 -2.065540494449857184e-14
5.598000000000000000e+03 2.926027488708496094e+01 -9.615782737731933594e+00 3.876967038965277446e-14 1.661557278212748984e-14 1.661557278212748984e-14 1.236397187973428680e-13
5.599000000000000000e+03 7.273194122314453125e+01 8.824997901916503906e+00 2.305021780813886617e-14 -1.273741854178334076e-13 -3.129718977468859409e-14 2.904728053140098742e-14
5.600000000000000000e+03 4.406797790527343750e+01 -6.039341449737548828e+00 -6.513183276133510669e-14 -3.481702773311390331e-13 -1.239906343829949575e-13 -4.528084314838268232e-14
5.601000000000000000e+03 4.560160446166992188e+01 -6.748020172119140625e+00 9.307362010008840558e-14 -2.803679326462277244e-13 -5.618829647434722685e-14 -6.646828134551294176e-14
5.602000000000000000e+03 7.345298767089843750e+01 8.927618265151977539e-01 -3.058264904341745360e-13 -2.683213352026869725e-13 -1.722443531120693150e-13 -1.686715816930778322e-13
5.603000000000000000e+03 5.642647933959960938e+01 -2.445708274841308594e+00 -5.451223850029725260e-14 2.968942637310983956e-13 7.271460723042716401e-14 -4.547886251079179265e-14
5.604000000000000000e+03 4.483865737915039062e+01 -9.202363967895507812e+00 -1.165087449260526764e-13 -1.871851740449514967e-13 -9.110817840180668314e-14 8.675483562873426147e-14
5.605000000000000000e+03 4.572913742065429688e+01 -8.239948272705078125e+00 3.608446413850760481e-14 -7.603712445921825824e-14 -1.198579826561978548e-14 -8.696180982346174426e-14
5.606000000000000000e+03 7.313230514526367188e+00 -1.837872505187988281e+01 1.080403568530247799e-14 -2.241244435050374073e-13 -6.399612420939296276e-14 1.228503247480833283e-13
5.607000000000000000e+03 7.314711570739746094e+00 -1.668827438354492188e+01 -2.278532858267581784e-14 1.274877013852926400e-13 3.141071251841140444e-14 8.498172461958788948e-14
5.608000000000000000e+03 4.366032409667968750e+01 -1.042705249786376953e+01 -6.448888732052404649e-14 -2.106418880466753851e-13 -8.253923396541254509e-14 -1.041888065623011728e-13
5.609000000000000000e+03 3.387075042724609375e+01 -1.110376739501953125e+01 -6.324090963362102857e-14 -4.227773526773760671e-15 -2.024060613396456293e-14 4.223752491966555056e-14
5.610000000000000000e+03 3.239490127563476562e+01 -1.018321800231933594e+01 1.386148157654686422e-14 1.431934811609719693e-13 4.711648890595894479e-14 1.837696932561333485e-13
5.611000000000000000e+03 1.679881858825683594e+01 -8.088906288146972656e+00 -1.591631150878528023e-14 -5.257222473109210426e-14 -2.054656121077639425e-14 1.467230471233899047e-13
5.612000000000000000e+03 4.936828613281250000e+01 -3.979509830474853516e+00 -1.288849398300290217e-13 1.277673984407395880e-13 -3.352622844379321001e-16 2.486849939029641549e-14
5.613000000000000000e+03 5.426420593261718750e+01 -2.948591709136962891e+00 3.291807541068621223e-14 3.572398724494690869e-13 1.170473765653434750e-13 -1.009809233844596865e-13
5.614000000000000000e+03 4.168308258056640625e+01 -1.844045829772949219e+01 -4.237712611376842631e-14 -1.096635260898481956e-13 -4.561219566108498658e-14 1.104474923519817298e-13
5.615000000000000000e+03 7.389241027832031250e+01 1.889853835105895996e+00 -4.118400228052959688e-13 -2.680047752733755173e-13 -2.039534448446123083e-13 -1.380588826311972273e-14
5.616000000000000000e+03 2.356709671020507812e+01 -7.872861862182617188e+00 -9.899795826856516712e-14 -1.796805434474413321e-13 -8.360355458056009659e-14 -6.154144983330431251e-14
5.617000000000000000e+03 2.305838775634765625e+01 -8.462631225585937500e+00 -9.095999506988222683e-14 9.826999104864050927e-14 2.192999217143958360e-15 -3.001215947854088406e-14
5.618000000000000000e+03 6.961425781250000000e+00 -2.007156372070312500e+01 4.556200387676248575e-14 -3.464810090312436808e-13 -9.027570764498157874e-14 -9.662222736316061766e-14
5.619000000000000000e+03 7.138775825500488281e+00 -2.149468994140625000e+01 6.962807761590585412e-15 -2.715216289653210602e-13 -7.936764445529501111e-14 1.380365209613897137e-14
5.620000000000000000e+03 2.831677055358886719e+01 -9.158470153808593750e+00 -1.689762120103601578e-14 -1.902456328323892665e-13 -6.214297875112642644e-14 1.003065089755922346e-13
5.621000000000000000e+03 4.057804870605468750e+01 -7.841399669647216797e+00 8.960329223386964692e-14 -7.349537170802007691e-15 2.467612634951370232e-14 9.696343256310538394e-14
5.622000000000000000e+03 4.914184188842773438e+01 -5.458923816680908203e+00 -9.561679925476976316e-14 -2.954089067547932546e-14 -3.754730697907472659e-14 -8.988398540006256598e-14
5.623000000000000000e+03 1.800335121154785156e+01 -8.992744445800781250e+00 1.732138670234965871e-14 -3.832749886239529558e-14 -6.301833224497217431e-15 -9.197918576960006920e-14
5.624000000000000000e+03 3.962715911865234375e+01 -1.641569900512695312e+01 -2.978863426002405224e-14 -3.330231869349414842e-13 -1.088435507630609866e-13 2.489870560163504054e-13
5.625000000000000000e+03 8.012691497802734375e+00 -3.207412719726562500e+01 5.178308479171674084e-14 1.136946439772579254e-13 4.964332032475829437e-14 -7.997576667757855251e-14
5.626000000000000000e+03 6.314481353759765625e+01 -5.546043872833251953e+00 -1.587409809719955711e-13 6.922099612255427914e-14 -2.685599782652463990e-14 6.709446908649552288e-14
5.627000000000000000e+03 6.142104339599609375e+01 -2.653626680374145508e+00 -5.475572659131497377e-14 -4.634221608887378885e-14 -3.032938348168298659e-14 2.444712082782813517e-14
5.628000000000000000e+03 2.583080101013183594e+01 -7.277041912078857422e+00 -1.613460341894079608e-13 -6.914830036688912607e-14 -6.914830036688912607e-14 1.560767133753065278e-14
5.629000000000000000e+03 2.453658103942871094e+01 -7.529493331909179688e+00 -5.981941829900916385e-14 -1.628897347951199781e-13 -6.681274592823874259e-14 7.838747148125949082e-14
5.630000000000000000e+03 4.103783416748046875e+01 -2.367918014526367188e+01 -2.066335790624693192e-13 -1.800591468460732703e-13 -1.160078164173100612e-13 1.243011092276133378e-13
5.631000000000000000e+03 8.978662490844726562e+00 -2.543203163146972656e+01 -9.579526570862445523e-14 -6.393059096432979205e-14 -4.791775835713898979e-14 -2.451313179947355730e-14
5.632000000000000000e+03 7.129270172119140625e+01 -2.974975204467773438e+01 3.943412030292872683e-14 -4.634846109338730535e-13 -1.272151465116569402e-13 -3.437123835873211186e-14
5.633000000000000000e+03 6.854933929443359375e+01 -2.734591484069824219e+01 9.063419909331391078e-14 -4.186662681034819533e-13 -9.840961595966590814e-14 6.142170647961686658e-14
5.634000000000000000e+03 4.568957138061523438e+01 -7.469203948974609375e+00 -1.083226864868717942e-13 -1.836768584451142772e-13 -8.759986280196946362e-14 -3.810663586843168402e-15
5.635000000000000000e+03 5.558015823364257812e+01 -2.554311990737915039e+00 -6.942653374940321864e-14 2.905024040333187285e-13 6.632276786143823100e-14 1.116211073223793981e-13
5.636000000000000000e+03 5.681864166259765625e+01 -3.869031429290771484e+00 -1.901498842280316404e-13 -1.729947023305922205e-13 -1.089433786780925895e-13 -3.561474032354183805e-14
5.637000000000000000e+03 3.732332229614257812e+01 -1.255742168426513672e+01 -6.336663642804787888e-14 -2.559118823970696344e-13 -9.578355632516161178e-14 -7.242263836164039570e-14
5.638000000000000000e+03 3.636915588378906250e+01 -1.108903121948242188e+01 6.763701062987084733e-14 -2.455183951109718432e-13 -5.336441737720937217e-14 3.713742265370068713e-15
5.639000000000000000e+03 6.949148178100585938e+00 -2.268179893493652344e+01 3.838570019026703306e-14 1.079529125596820349e-13 4.390158213091882589e-14 2.639306890986174714e-14
5.640000000000000000e+03 6.238034725189208984e+00 -2.456706809997558594e+01 5.263554213796525771e-14 -2.519476055735936360e-13 -5.979362106356758688e-14 -3.459655589896533379e-14
5.641000000000000000e+03 4.183285522460937500e+01 -2.377451133728027344e+01 -3.297269209512516952e-14 -1.971349515919595952e-13 -6.903229073443317709e-14 1.785498018967018874e-13
5.642000000000000000e+03 9.724340438842773438e+00 -2.969367218017578125e+01 -3.342380829030565381e-14 -1.115452538278868810e-13 -4.349072032952365496e-14 6.846840057265525525e-15
5.643000000000000000e+03 4.073665618896484375e+01 -1.502285099029541016e+01 -3.697381485180673000e-14 -1.359421608485358868e-13 -5.187479135485006942e-14 -4.138342094136757132e-14
5.644000000000000000e+03 4.824497222900390625e+01 -5.480276107788085938e+00 1.658896133626536467e-15 2.358643032133230649e-14 7.573597714141504234e-15 3.703528911498665810e-14
5.645000000000000000e+03 7.391705322265625000e+01 -1.491123867034912109e+01 2.130460657065805230e-15 9.130545068115631518e-16 9.130545068115631518e-16 5.545621267429891310e-14
5.646000000000000000e+03 4.618416595458984375e+01 -4.481683731079101562e+00 -1.076955771740426004e-13 -9.190619863460106065e-14 -5.988053342021945613e-14 5.621337203771774316e-14
5.647000000000000000e+03 4.487388229370117188e+01 -4.559548377990722656e+00 1.068478259428490285e-13 -3.427223714785702924e-14 2.177267528324488416e-14 -5.664926196863838415e-14
5.648000000000000000e+03 6.012886428833007812e+01 -6.292400836944580078e+00 -9.713889713219500677e-14 1.413728346628256860e-13 1.327018142859579322e-14 -1.260509437713691616e-13
5.649000000000000000e+03 5.869606018066406250e+01 -5.582567691802978516e+00 -6.312097654455339768e-14 3.389557514874019795e-13 8.275042977234914332e-14 -3.670137178652006782e-14
5.650000000000000000e+03 6.932128906250000000e+01 -3.383716583251953125e+01 -5.304012319005653800e-15 -2.081524243333771063e-13 -6.403693086865988593e-14 -9.641032682481190386e-14
5.651000000000000000e+03 7.318931579589843750e+01 -3.233064270019531250e+01 5.327358156394582100e-14 -4.346779555221280678e-13 -1.144213169308391786e-13 3.631191281363611856e-14
5.652000000000000000e+03 7.310432434082031250e+01 -1.772806549072265625e+01 -1.037810381252293745e-13 -3.647342302313949514e-13 -1.405545872832508758e-13 1.848723607468689967e-14
5.653000000000000000e+03 7.328823089599609375e+01 -1.840233993530273438e+01 -1.488310156675743193e-15 -9.213974255881801634e-14 -2.808841721225249083e-14 8.079807981530018335e-14
5.654000000000000000e+03 3.963035202026367188e+01 -9.516423225402832031e+00 7.857114888180569134e-14 1.251752472291797758e-13 6.112391680041656672e-14 -3.466107270449179933e-14
5.655000000000000000e+03 6.857567596435546875e+01 5.547514438629150391e+00 -1.342812173303967183e-13 -2.484163319927540359e-13 -1.148092580206816482e-13 1.051522201424423195e-14
5.656000000000000000e+03 7.019728088378906250e+01 6.277808666229248047e+00 -8.912003622053854546e-14 -1.211178916491958968e-13 -6.307138107142576389e-14 8.176444954042724755e-14
5.657000000000000000e+03 7.051179504394531250e+01 -3.213018417358398438e+01 4.747183616799106887e-14 -3.227870444891256518e-13 -8.259456215752719599e-14 -5.481244391746312172e-14
5.658000000000000000e+03 5.510223388671875000e+01 -4.109282016754150391e+00 -1.974647929978839977e-14 6.016364571250973348e-14 1.212515043203616846e-14 -1.142284780219354756e-13
5.659000000000000000e+03 5.614488601684570312e+01 -4.243352413177490234e+00 6.217918432742386425e-14 -6.485367391772037249e-14 -8.023463476933604364e-16 9.461560631111518016e-14
5.660000000000000000e+03 2.406648254394531250e+01 -7.689418792724609375e+00 -2.483910734702669126e-14 -2.394000796213102689e-13 -7.927175354940224627e-14 1.973729068637658512e-13
5.661000000000000000e+03 3.353163528442382812e+01 -1.197922706604003906e+01 -9.261592415297364989e-14 2.893388314855437071e-14 -1.910461297895214156e-14 7.537811927372725651e-14
5.662000000000000000e+03 7.233824920654296875e+01 -1.473012161254882812e+01 1.011476872311151132e-13 -3.226585936367404317e-13 -6.645327192168759556e-14 -1.373031327306026284e-13
5.663000000000000000e+03 4.277114486694335938e+01 -1.296809864044189453e+01 1.153255432367579839e-14 -2.695631803710518692e-13 -7.740918230849866410e-14 -1.264403756391987987e-13
5.664000000000000000e+03 3.901939010620117188e+01 -1.529664516448974609e+01 -1.583252843065374726e-13 -2.394197578907408808e-13 -1.193235099486780748e-13 -6.825814581932305655e-15
5.665000000000000000e+03 4.078149795532226562e+01 -2.814699935913085938e+01 -4.546473061309980190e-15 -7.057491391423628690e-14 -2.253641609266388013e-14 -2.161741244994727640e-14
5.666000000000000000e+03 4.330348968505859375e+01 -2.717406654357910156e+01 -7.121126605058591963e-14 -1.220210049538220098e-13 -5.796968130132237884e-14 1.437833549054398641e-13
5.667000000000000000e+03 4.078405380249023438e+01 -2.529316329956054688e+01 1.155411470031520935e-14 -1.323010846926778172e-13 -3.622408904953300368e-14 3.680689853922079757e-14
5.668000000000000000e+03 6.321105957031250000e+00 -1.638145828247070312e+01 4.340185302082952279e-14 2.130423252090854480e-13 7.693325143609541783e-14 2.123089437545619407e-13
5.669000000000000000e+03 7.479404449462890625e+01 1.306661701202392578e+01 1.548673027925578927e-13 -5.798604326735790071e-13 -1.274979470958226280e-13 -5.291400252530921444e-14
5.670000000000000000e+03 6.256742000579833984e+00 -5.398261547088623047e+00 -3.240543413034896458e-14 -1.388804368273981182e-14 -1.388804368273981182e-14 -2.582173502254335451e-14
5.671000000000000000e+03 5.320143699645996094e+00 -6.246202468872070312e+00 -2.927434295950555321e-14 -1.254614698264523709e-14 -1.254614698264523709e-14 1.311281456545720578e-14
5.672000000000000000e+03 4.299005889892578125e+01 -1.235719299316406250e+01 -1.795859332553648158e-13 -4.200975233913800677e-13 -1.799050410597816119e-13 -5.203148228569674794e-14
5.673000000000000000e+03 3.818692779541015625e+01 -1.025521564483642578e+01 -8.068163650197524017e-14 -2.633325957464294209e-13 -1.032042628982578203e-13 -5.774115858841674664e-14
5.674000000000000000e+03 6.910884857177734375e+01 -8.994045257568359375e+00 5.713952802664096220e-14 -1.585154262625371180e-13 -3.041276879314248893e-14 9.756702824131879837e-14
5.675000000000000000e+03 6.913485717773437500e+01 -9.802915573120117188e+00 7.908066969276525415e-14 -5.151196851883865779e-13 -1.308117026158073237e-13 3.546048545945146291e-14
5.676000000000000000e+03 4.169725799560546875e+01 -2.163733482360839844e+01 -2.386833677751887262e-13 -1.022928689995393492e-13 -1.022928689995393492e-13 7.287123378676985119e-14
5.677000000000000000e+03 4.096797943115234375e+01 -2.061351013183593750e+01 -1.314676855877425221e-13 -5.205413872296990596e-14 -5.505654526033465501e-14 1.296629633090046196e-13
5.678000000000000000e+03 7.371208190917968750e+01 7.447689056396484375e+00 6.974400678023181394e-15 -4.888336914074531414e-13 -1.445577869647191038e-13 9.642753175803653320e-14
5.679000000000000000e+03 1.033431434631347656e+01 -1.015143299102783203e+01 7.155962698486909024e-14 -8.370895936051642172e-14 -3.644800559727146699e-15 2.023230487226829188e-13
5.680000000000000000e+03 6.816960334777832031e+00 -1.933982086181640625e+01 6.529956561368219226e-14 -2.007692108266581621e-13 -4.064089491914550656e-14 1.884075713368474347e-13
5.681000000000000000e+03 6.778639984130859375e+01 -8.388092041015625000e+00 8.675928763390503007e-14 -1.915721948480067494e-13 -3.144387216423051579e-14 -2.494751316471513838e-15
5.682000000000000000e+03 7.377362060546875000e+01 -7.099965572357177734e+00 1.526046812787978935e-13 -4.207018305772691757e-13 -8.042914614479410029e-14 -4.825469451102959439e-14
5.683000000000000000e+03 6.641093444824218750e+01 2.191854238510131836e+00 -5.505725337987855961e-14 -1.379733323035245429e-13 -5.790917604383410966e-14 -2.990654802254542888e-14
5.684000000000000000e+03 7.067623138427734375e+01 -1.029965305328369141e+01 1.016567472561513696e-13 -2.766894515154189049e-13 -5.250981534353840741e-14 -1.132470006171611837e-14
5.685000000000000000e+03 7.393582916259765625e+01 -1.135527801513671875e+01 6.772746697237402858e-14 1.205279501420922217e-13 5.647662648959259069e-14 -3.281938590793571919e-14
5.686000000000000000e+03 5.572242259979248047e+00 -6.996768474578857422e+00 5.921980706377963366e-14 -4.324650717830308411e-14 4.791990219752849042e-15 4.268585607051546271e-14
5.687000000000000000e+03 6.766537666320800781e+00 -6.591811180114746094e+00 4.722478376233130160e-14 2.032429942660368694e-13 7.514033340851045129e-14 9.292726635933001855e-14
5.688000000000000000e+03 4.177350234985351562e+01 -2.226668357849121094e+01 -1.946686864170207171e-14 -5.409389231578014268e-14 -2.206822879546443267e-14 1.919677931156923978e-13
5.689000000000000000e+03 7.414498901367187500e+01 -3.604315185546875000e+01 -7.927585996513053512e-14 -4.228584442236144048e-13 -1.506402831251071883e-13 3.192557969545491798e-16
5.690000000000000000e+03 7.780071258544921875e+00 -2.597552490234375000e+01 -7.523939560575773622e-14 -2.610002058228699795e-13 -1.008718797509619569e-13 -2.616450723344054125e-14
5.691000000000000000e+03 4.269580078125000000e+01 -2.743643379211425781e+01 -1.220566218422211059e-15 -2.750288061528771699e-13 -8.287480809032396478e-14 1.297665723791127657e-13
5.692000000000000000e+03 4.213438034057617188e+01 -2.671627044677734375e+01 -1.486357661029027305e-14 -1.893738936281294527e-13 -6.127123954686661267e-14 6.323923589651725408e-14
5.693000000000000000e+03 6.796347808837890625e+01 -2.980998802185058594e+01 7.580650110460343538e-14 -1.733907749367283313e-13 -2.927528147201111097e-14 -1.364473448508055076e-13
5.694000000000000000e+03 4.085128402709960938e+01 -2.998884963989257812e+01 4.517194096938714418e-15 -1.882164400463653964e-13 -5.510977281074011525e-14 -1.925135804893216007e-14
5.695000000000000000e+03 4.083976364135742188e+01 -2.659881973266601562e+01 -3.719183096803461985e-14 -2.446941033042854263e-13 -8.456577723237740374e-14 1.558426781719801646e-14
5.696000000000000000e+03 9.137857437133789062e+00 -3.261897277832031250e+01 -1.037687527593623982e-14 -6.735478602810929250e-14 -2.331949805240048079e-14 -2.923044632404704635e-14
5.697000000000000000e+03 1.775909042358398438e+01 -4.105918502807617188e+01 -5.063748628308245570e-14 -2.742064862388919610e-14 -2.341744047209149554e-14 1.955269001991787742e-14
5.698000000000000000e+03 1.224158000946044922e+01 -2.975294494628906250e+01 -5.258029187288175421e-14 -1.369117764039168295e-13 -5.684762014422639620e-14 9.822831025137201966e-14
5.699000000000000000e+03 1.021227169036865234e+01 -2.878068923950195312e+01 5.505235414131164073e-14 -1.250967238868375131e-13 -2.101330855196550940e-14 -8.425663731168389625e-15
5.700000000000000000e+03 4.383509063720703125e+01 -3.031916809082031250e+01 -1.336148937802414394e-13 -2.402673329390814239e-13 -1.121646653052914278e-13 9.113281689617641623e-15
5.701000000000000000e+03 3.431149673461914062e+01 -3.619891357421875000e+01 -5.969862462446712259e-14 -1.414738823053013350e-14 -2.215380453412553463e-14 -5.197187488313256831e-15
5.702000000000000000e+03 4.192160034179687500e+01 -3.100924682617187500e+01 -9.818458302250296366e-14 -2.937093385342592899e-13 -1.175681730788968871e-13 3.910957454699055813e-14
5.703000000000000000e+03 4.066500854492187500e+01 -3.524854660034179688e+01 -3.144706039624398097e-14 -1.292844005679541497e-13 -4.821943761163308140e-14 -1.096262905214868966e-14
5.704000000000000000e+03 7.253112030029296875e+01 1.151220989227294922e+01 -1.036597701122368709e-13 -3.621802564888337850e-13 -1.397520066250684811e-13 5.644522528417197926e-14
5.705000000000000000e+03 7.303233337402343750e+01 1.197882843017578125e+01 6.997142665624012103e-14 -3.360198404245284820e-13 -7.981452548573922390e-14 -1.815058621793246701e-14
5.706000000000000000e+03 1.092484760284423828e+01 -8.165714263916015625e+00 -2.666724839269028063e-14 -1.944326183346209436e-13 -6.632995747709452550e-14 3.975483069368172806e-14
5.707000000000000000e+03 9.573373794555664062e+00 -6.802491664886474609e+00 3.617144086966346539e-14 -1.675017546540202851e-13 -3.939909379649386700e-14 2.930390525639767554e-15
5.708000000000000000e+03 7.162265014648437500e+01 9.591945648193359375e+00 4.065235696898775175e-14 -1.198304015693693603e-13 -2.375341609061991377e-14 2.958853119656469632e-14
5.709000000000000000e+03 4.321307754516601562e+01 -1.006035518646240234e+01 5.090550783638445043e-14 -2.526890372292478482e-13 -6.053505949548537712e-14 -6.360103162037682514e-15
5.710000000000000000e+03 4.240525054931640625e+01 -1.065637588500976562e+01 -1.251825588175804749e-14 -1.883687568990724537e-13 -6.026610281780961365e-14 -4.975878107986442256e-14
5.711000000000000000e+03 7.073394775390625000e+00 -2.079356002807617188e+01 3.470566051883526570e-14 1.487385450807225673e-14 1.487385450807225673e-14 4.596301637904698367e-14
5.712000000000000000e+03 6.716792297363281250e+01 2.871465206146240234e+00 -9.534326182291524843e-14 -1.781142507789601481e-13 -8.203725513581533457e-14 -5.877674784599343227e-14
5.713000000000000000e+03 7.230640411376953125e+01 3.953566312789916992e+00 -1.005558551464731665e-13 -9.170574998169922498e-14 -5.767847815031992842e-14 1.539125408069400014e-13
5.714000000000000000e+03 6.576647758483886719e+00 -2.215815734863281250e+01 -1.299869381647363389e-14 -2.800765533123722451e-13 -8.792257557860977402e-14 7.557435986694713281e-14
5.715000000000000000e+03 6.782490539550781250e+01 -7.739241600036621094e+00 -7.896472274074740200e-15 -2.778899072658491676e-13 -8.573590920329596243e-14 2.154891289550282113e-14
5.716000000000000000e+03 6.541318511962890625e+01 -6.717584133148193359e+00 -9.812486381158974647e-14 -2.021818313897166819e-13 -9.009200991564464411e-14 -6.682314071656744736e-14
5.717000000000000000e+03 4.032109451293945312e+01 -8.527107238769531250e+00 -7.273856809843909366e-14 -3.514303106334770721e-13 -1.272506676853329965e-13 -1.295440263306829598e-13
5.718000000000000000e+03 4.118084335327148438e+01 -8.130440711975097656e+00 -1.570262373091785985e-14 -2.354844292652702453e-13 -7.535611674588937881e-14 -1.568718841892663418e-13
5.719000000000000000e+03 4.099718475341796875e+01 -2.451065826416015625e+01 -4.254295822418187323e-14 -1.783610151934178489e-13 -6.627119371934581116e-14 1.221567199607628829e-13
5.720000000000000000e+03 6.397920989990234375e+01 -3.616841733455657959e-01 -8.449152293608930275e-14 8.388558944694146646e-14 -1.817808673075185398e-16 -3.128940723596922158e-14
5.721000000000000000e+03 6.253689956665039062e+01 -5.757988691329956055e-01 -1.813834455896556896e-13 -9.109338751248172855e-15 -5.714783572578763238e-14 -2.356655723432382610e-14
5.722000000000000000e+03 2.668031501770019531e+01 -8.347901344299316406e+00 -1.142953190858692070e-13 -3.692403370905705806e-13 -1.450607076949536611e-13 1.141553079278198601e-13
5.723000000000000000e+03 2.748159790039062500e+01 -8.962125778198242188e+00 -1.750658029187144443e-14 -7.502819641068934897e-15 -7.502819641068934897e-15 7.399818740616917467e-14
5.724000000000000000e+03 4.714715194702148438e+01 -4.795287609100341797e+00 -6.716252310160972239e-14 -2.346632003297211000e-13 -9.054772041753103573e-14 3.070171544837345390e-14
5.725000000000000000e+03 7.277590942382812500e+01 -1.134058094024658203e+01 9.625588222534134375e-14 -4.162569540357846654e-13 -9.600032222075935429e-14 -1.046604751649138354e-13
5.726000000000000000e+03 6.445317077636718750e+01 2.334599941968917847e-02 -2.095402979818486444e-13 1.847027034356657493e-13 -7.451275992162616213e-15 -4.822900569580526597e-14
5.727000000000000000e+03 6.172817993164062500e+01 -6.242339611053466797e+00 3.077418758734053184e-14 5.893988639163461052e-14 2.691422117725300600e-14 -1.600524149791750922e-14
5.728000000000000000e+03 2.441370773315429688e+01 -8.128957748413085938e+00 -9.941677879153273945e-14 -3.628638188535315834e-13 -1.386841894579146639e-13 1.198385466381901576e-13
5.729000000000000000e+03 2.402462959289550781e+01 -8.754886627197265625e+00 8.162746059593370407e-14 3.498319594620082074e-14 3.498319594620082074e-14 6.891473611388143627e-14
5.730000000000000000e+03 4.627060317993164062e+01 -6.513634204864501953e+00 -1.188627782354803597e-13 -9.669213807449519860e-14 -6.466647286011359408e-14 3.397307527528217741e-14
5.731000000000000000e+03 4.256359100341796875e+01 -6.197742462158203125e+00 -2.673733528687789046e-14 -1.487117043006899730e-13 -5.263471204567694850e-14 -9.329872757615070844e-14
5.732000000000000000e+03 3.920188903808593750e+01 -1.138046073913574219e+01 3.957954569557692315e-14 -1.860571701046975779e-13 -4.394328664510983862e-14 -1.481489762681156841e-13
5.733000000000000000e+03 4.373249816894531250e+01 -5.267152309417724609e+00 -9.525276482283059898e-14 -8.657356380175826316e-14 -5.454789858737665864e-14 -2.030736147816403214e-13
5.734000000000000000e+03 2.353360557556152344e+01 -8.479692459106445312e+00 5.449047652981639511e-14 -2.969035878697817710e-13 -7.272393136911053935e-14 1.429242907022027637e-14
5.735000000000000000e+03 6.361028289794921875e+01 -5.767060279846191406e+00 -1.321428182805492457e-13 -5.663263979408146576e-14 -5.663263979408146576e-14 6.961189843958034973e-14
5.736000000000000000e+03 6.484027099609375000e+01 -6.527302742004394531e+00 6.171770044896898733e-14 -6.505145272277246260e-14 -1.000127376206937091e-15 1.813681854440779562e-14
5.737000000000000000e+03 7.119533538818359375e+01 -2.298866462707519531e+01 5.447275236539509888e-16 -4.572760356133520609e-13 -1.370193970220631718e-13 2.281566083251699434e-14
5.738000000000000000e+03 1.153912639617919922e+01 -8.660904884338378906e+00 4.919659260727753461e-15 -3.638991777181466158e-13 -1.076938492268302017e-13 2.343227066374520273e-13
5.739000000000000000e+03 7.372949218750000000e+01 -2.238658142089843750e+01 -1.939005054608922141e-13 -4.719832922932265529e-13 -1.997651311947193364e-13 -7.304486876469340473e-14
5.740000000000000000e+03 7.300064086914062500e+01 -2.275838470458984375e+01 -3.915781476740258504e-14 -2.226611907005238145e-13 -7.854570401207017216e-14 1.021115090811368364e-13
5.741000000000000000e+03 3.920980834960937500e+01 -1.430954551696777344e+01 -5.272579858069288694e-14 -1.140986719168346486e-13 -5.004734148807143956e-14 5.135906009832123809e-14
5.742000000000000000e+03 4.695785140991210938e+01 -4.237426757812500000e+00 -1.855432718274666049e-13 -6.236194015612345209e-14 -7.437156630558244830e-14 -1.564646714058079424e-14
5.743000000000000000e+03 6.136628341674804688e+01 -1.957497477531433105e+00 -7.713598368982305109e-14 3.100738253398321875e-13 6.988135656076088775e-14 3.469382916262801764e-14
5.744000000000000000e+03 1.216001224517822266e+01 -9.759592056274414062e+00 1.537947828984809195e-13 2.489158510386724199e-13 1.208131901811460018e-13 -9.229237111964966322e-14
5.745000000000000000e+03 4.494601440429687500e+01 -8.319135665893554688e+00 -5.880930779248588758e-14 -1.624568399727008283e-13 -6.637984432955601477e-14 6.053489686515950430e-14
5.746000000000000000e+03 4.015901947021484375e+01 -1.701201629638671875e+01 -4.777805890721423254e-14 -2.047631168626291159e-14 -2.047631168626291159e-14 2.877260129913357389e-14
5.747000000000000000e+03 1.290179157257080078e+01 -7.913165092468261719e+00 -8.173825928169814459e-14 -8.078163382359629385e-14 -4.875596522108290032e-14 -6.294249653817154955e-14
5.748000000000000000e+03 1.219546794891357422e+01 -8.619214057922363281e+00 -6.570325474008001376e-14 -2.569132786286315584e-13 -9.678495933298711384e-14 -4.092860151814169123e-14
5.749000000000000000e+03 7.206342315673828125e+01 -2.416796112060546875e+01 -7.381472006979389322e-15 -5.064239500841838382e-13 -1.541416191734590324e-13 -1.814716996464960097e-13
5.750000000000000000e+03 7.336285400390625000e+01 -2.500026893615722656e+01 -5.011728946885569969e-14 -4.675505859211281923e-13 -1.553003602453029153e-13 3.399144911397401769e-14
5.751000000000000000e+03 7.120689868927001953e+00 -1.450413990020751953e+01 4.302781682384917983e-14 1.099423896648750454e-13 4.589106262424362537e-14 1.398002807267983982e-13
5.752000000000000000e+03 7.461087703704833984e+00 -1.509270095825195312e+01 9.773552130573604467e-16 4.188665274445200776e-16 4.188665274445200776e-16 5.149895944802154735e-14
5.753000000000000000e+03 8.306197166442871094e+00 -1.367069149017333984e+01 1.279216533048299631e-13 1.005745169763670732e-13 6.854885176198546870e-14 -4.368374558567575394e-14
5.754000000000000000e+03 5.962685775756835938e+01 -2.725521326065063477e+00 -4.211032428791047777e-14 1.492296276784862985e-13 3.213578966192003061e-14 -1.119064828867047390e-13
5.755000000000000000e+03 5.943389511108398438e+01 -4.988000869750976562e+00 -1.668745708022917329e-13 1.998422111929194778e-14 -4.406710592133947224e-14 -8.887123215074385629e-14
5.756000000000000000e+03 6.039988517761230469e+00 -2.619487571716308594e+01 -4.868075208349850747e-14 -2.267424529384109988e-13 -8.262695947369377847e-14 -1.274421293186644641e-14
5.757000000000000000e+03 6.985733032226562500e+00 -2.574745941162109375e+01 4.264254558185645583e-14 -1.189774732728021700e-13 -2.290047762965735645e-14 4.193445314300617288e-14
5.758000000000000000e+03 4.601280975341796875e+01 -5.786674976348876953e+00 9.153067674183123364e-15 -8.757915454047499049e-14 -2.352782580577767596e-14 -3.496886076060148896e-14
5.759000000000000000e+03 6.302133083343505859e+00 -2.810700798034667969e+01 -3.565572994192536815e-14 -1.296583961073530245e-13 -4.959423984766259119e-14 7.795699578493769932e-14
5.760000000000000000e+03 7.350188446044921875e+01 -1.903946304321289062e+01 -1.261555828335411689e-13 -1.913195215317090025e-13 -9.524253266482776703e-14 9.529115574413195289e-15
5.761000000000000000e+03 7.463283538818359375e+01 -1.850279426574707031e+01 -2.246318501217606234e-14 -3.298837169141838332e-13 -1.057040739660397577e-13 1.878370777062127184e-14
5.762000000000000000e+03 7.389200592041015625e+01 -2.126750183105468750e+01 -9.859648498035736286e-14 -2.023839537797222921e-13 -9.029413230565025428e-14 -3.597216451036062967e-14
5.763000000000000000e+03 7.407901763916015625e+01 -2.025219154357910156e+01 -1.870896422810283677e-13 -3.318114825869716844e-13 -1.556703442366635937e-13 -2.611606076050585791e-15
5.764000000000000000e+03 7.293109893798828125e+01 -1.701573562622070312e+01 -3.278522337510705875e-14 -3.343074515133048763e-13 -1.101278017888972227e-13 -2.884146507774534851e-14
5.765000000000000000e+03 6.911984252929687500e+01 5.051525592803955078e+00 -4.643069376241218404e-14 2.585207913084579257e-14 -6.173584389469917444e-15 -9.096295629706582786e-14
5.766000000000000000e+03 7.342403411865234375e+01 -1.597711086273193359e+01 -3.445850646922182792e-14 -3.807755163693499201e-13 -1.245702082068242400e-13 9.257605092401460095e-15
5.767000000000000000e+03 6.651266479492187500e+01 1.460253357887268066e+00 -6.606052646096829961e-14 -2.831165443956725619e-14 -2.831165443956725619e-14 -2.202884142460392880e-13
5.768000000000000000e+03 7.428732299804687500e+01 -1.086413478851318359e+01 1.552890032275461296e-13 -2.880174126539819524e-13 -3.981852757131525145e-14 -2.716400611120061565e-14
5.769000000000000000e+03 7.155591583251953125e+01 -1.167006492614746094e+01 6.740361578345260840e-14 -4.286222256028732192e-13 -1.083655802353207520e-13 -1.274085546267011981e-13
5.770000000000000000e+03 7.435310363769531250e+01 -1.023068046569824219e+01 -1.970766147388162970e-14 -3.287027768028583097e-13 -1.045231338547142341e-13 -1.938376623924695230e-13
5.771000000000000000e+03 7.339659881591796875e+01 -1.011916637420654297e+01 6.887409208494038593e-14 -1.992372738145176125e-13 -3.910895451887316798e-14 4.104492624685401880e-14
5.772000000000000000e+03 7.190303039550781250e+01 -1.317819690704345703e+01 1.364658304978463854e-13 -2.388958171908872608e-13 -3.072899329740683139e-14 -9.606689901041354229e-14
5.773000000000000000e+03 7.319392395019531250e+01 -1.267998886108398438e+01 1.548876857934006201e-13 -7.087241221410273129e-14 2.520458342904208227e-14 -1.163798061826898378e-13
5.774000000000000000e+03 7.343019104003906250e+01 -3.744261980056762695e+00 -1.615221086222196067e-13 -2.064766001404205742e-13 -1.103996112735393387e-13 1.636235905880939479e-14
5.775000000000000000e+03 7.436142730712890625e+01 -5.783025741577148438e+00 8.910588738218760962e-14 -3.735703153068259397e-13 -8.533932160112792098e-14 -4.739961813890816722e-14
5.776000000000000000e+03 7.277822875976562500e+01 -1.368184471130371094e+01 9.241188408037545599e-14 -2.806515599345499323e-13 -5.647190004574691169e-14 -1.365038588890463145e-13
5.777000000000000000e+03 7.352079010009765625e+01 -8.579296112060546875e+00 7.148511264946618218e-16 -2.513238640637627253e-13 -7.518269860840032237e-14 1.112649130274000198e-13
5.778000000000000000e+03 7.277154541015625000e+01 -4.505324363708496094e+00 -1.095070418350406471e-13 -4.693159177796869808e-14 -4.693159177796869808e-14 4.612965147669442767e-14
5.779000000000000000e+03 6.795168304443359375e+01 2.686892032623291016e+00 -1.497454504145734333e-13 2.732527271402836189e-14 -3.672605432660305813e-14 5.598389387164760811e-14
5.780000000000000000e+03 7.349511718750000000e+01 -1.173543930053710938e+01 6.695500002953241880e-14 -3.830635353190003922e-13 -9.483256194209310763e-14 -6.004142902261630499e-14
5.781000000000000000e+03 7.322918701171875000e+01 -6.518554210662841797e+00 -2.213726028659976364e-13 -2.778777642015173299e-13 -1.497751033439909119e-13 -2.069147668959034347e-14
5.782000000000000000e+03 7.335694885253906250e+01 -4.662528038024902344e+00 -3.809776319830919522e-14 -2.450823561022524855e-13 -8.495403680660804091e-14 -9.074442179667421837e-14
5.783000000000000000e+03 7.382737731933593750e+01 -5.535268306732177734e+00 -1.129112469212649461e-13 -2.771452772137861231e-13 -1.170169646944052566e-13 -1.207614872900455993e-13
5.784000000000000000e+03 7.326515960693359375e+01 1.623445391654968262e+00 -2.148801021015570023e-13 -9.209146845708809925e-14 -9.209146845708809925e-14 1.430850067336147946e-13
5.785000000000000000e+03 5.803285598754882812e+00 -8.411570549011230469e+00 4.182383064009476126e-14 1.792449957178313819e-14 1.792449957178313819e-14 -6.253001859791301742e-14
5.786000000000000000e+03 8.085253715515136719e+00 -6.941220283508300781e+00 1.109004855721733296e-13 2.465330558784877696e-14 4.066613650097368471e-14 1.340277444149967634e-13
5.787000000000000000e+03 7.412267303466796875e+01 -1.234194517135620117e+00 -3.304310763809631402e-13 -9.586237104683772992e-14 -1.278880294849557564e-13 -7.162146039001865416e-14
5.788000000000000000e+03 7.333538818359375000e+01 -1.907953619956970215e+00 -2.295270635881141441e-13 3.888410792895861945e-14 -5.719288432605440509e-14 -1.098880237021884754e-14
5.789000000000000000e+03 7.360050964355468750e+01 2.221769839525222778e-01 -3.139445355158226869e-13 -4.548043257106282322e-13 -2.306246556574298445e-13 3.148019293700878019e-14
5.790000000000000000e+03 7.340046691894531250e+01 -1.047048211097717285e+00 -1.624517577750173025e-13 -2.526259637678635039e-13 -1.245233164628642419e-13 -3.724882950912125623e-14
5.791000000000000000e+03 5.956210613250732422e+00 -7.658543586730957031e+00 -1.462497928750999820e-14 -6.267848145071006766e-15 -6.267848145071006766e-15 -3.117701274013215396e-14
5.792000000000000000e+03 7.330368804931640625e+01 3.899762868881225586e+00 -9.643703885583651547e-14 -8.708110594375303992e-14 -5.505544411750322442e-14 8.301768560786682016e-14
5.793000000000000000e+03 7.123386383056640625e+01 8.967711448669433594e+00 7.390601666898075073e-14 3.167400762786772017e-14 3.167400762786772017e-14 1.858523778668422222e-14
5.794000000000000000e+03 7.313829040527343750e+01 6.195471763610839844e+00 -5.082450438157262718e-14 -4.335404648128649008e-13 -1.453094914359576162e-13 2.436301892649525569e-14
5.795000000000000000e+03 7.122498321533203125e+01 5.084644317626953125e+00 8.974837119004241623e-16 -1.368682050291100682e-13 -4.079121955036062175e-14 5.955939273672924972e-14
5.796000000000000000e+03 7.325998687744140625e+01 5.041931629180908203e+00 -1.101370310598905056e-13 -3.217072875455473380e-13 -1.295532962592577109e-13 -2.653374583580763585e-14
5.797000000000000000e+03 7.410289001464843750e+01 1.052217769622802734e+01 -2.399013638838907309e-14 -1.932852884906424706e-13 -6.518262763311605257e-14 1.251480930469566974e-14
5.798000000000000000e+03 7.246714782714843750e+01 9.696179389953613281e+00 -8.301252887128393598e-14 -6.989000984935003769e-14 -4.587076093856383430e-14 -2.495800366776688289e-14
5.799000000000000000e+03 7.308998870849609375e+01 7.858457088470458984e+00 -8.789320725226257291e-14 8.082429887314949296e-15 -2.394323448003370797e-14 7.019995614540933127e-15
5.800000000000000000e+03 7.168895721435546875e+01 6.585352897644042969e+00 -3.440349134048448221e-13 -4.283829421834056683e-13 -2.317253648079914408e-13 6.884018366199590178e-14
5.801000000000000000e+03 7.365259552001953125e+01 -2.566719627380371094e+01 -2.453364524339016195e-14 -2.850201086430914632e-13 -9.286613090932899217e-14 -4.744265418889226371e-14
5.802000000000000000e+03 7.092330932617187500e+01 -2.513812637329101562e+01 5.150695543904362794e-14 -2.602947154692336618e-13 -6.263633139718879916e-14 -7.386640940836713964e-14
5.803000000000000000e+03 6.368600845336914062e+00 -2.083925247192382812e+01 2.453480398446200583e-14 -5.811150849801063889e-14 -1.007301067643823211e-14 2.903603193386145032e-14
5.804000000000000000e+03 3.848947143554687500e+01 -1.255151081085205078e+01 -2.448204060811164096e-14 -1.934960980505551209e-13 -6.539344396929228087e-14 -8.488524417876383565e-14
5.805000000000000000e+03 7.304435729980468750e+01 -2.438197517395019531e+01 -8.534374650124437744e-14 -3.339570644762118734e-13 -1.257902473589950221e-13 -1.824420538146069581e-14
5.806000000000000000e+03 6.590407848358154297e+00 -9.537253379821777344e+00 1.020812056304158666e-13 6.662456231241314919e-14 5.061173309335413595e-14 6.151324702429253333e-14
5.807000000000000000e+03 6.032610893249511719e+00 -1.146143436431884766e+01 1.128193811159375337e-13 -1.804035843237447589e-13 -2.027525994590263086e-14 -5.316836313123789182e-14
5.808000000000000000e+03 6.266049861907958984e+00 -1.034065055847167969e+01 1.024161156814966389e-13 1.582699899957407119e-13 7.820583373605027866e-14 4.278236361639382868e-14
5.809000000000000000e+03 6.409386157989501953e+00 -2.702931594848632812e+01 1.165395362677512647e-13 -1.868090676994480642e-14 2.935758935756170585e-14 7.450279034383697901e-15
5.810000000000000000e+03 6.608789920806884766e+00 -1.488060379028320312e+01 -1.236016904061429389e-13 -2.359759523201665488e-13 -1.078732914626401307e-13 4.052638284094030319e-14
5.811000000000000000e+03 6.233458995819091797e+00 -1.243196582794189453e+01 5.434223221151973648e-14 -1.597142692622358084e-13 -3.161161179284117939e-14 -1.865134193195384232e-14
5.812000000000000000e+03 6.217483043670654297e+00 -1.346686077117919922e+01 2.956788392144242550e-14 1.270493177893752823e-13 4.698516152968484905e-14 2.648431299300587488e-14
5.813000000000000000e+03 1.656068611145019531e+01 -8.949551582336425781e+00 -3.637617212114661880e-14 -1.528426365506041495e-13 -5.676564090745933600e-14 1.636464401488790799e-13
5.814000000000000000e+03 6.565934753417968750e+01 -7.479086399078369141e+00 1.612411511817471443e-13 -2.239854623390519217e-14 4.165278419485801686e-14 -4.757776610837469167e-14
5.815000000000000000e+03 7.285043334960937500e+01 1.002968120574951172e+01 7.180241373260648485e-14 -6.072943661622129397e-14 3.321894236058388697e-15 3.260021443876777447e-14
5.816000000000000000e+03 6.865406036376953125e+01 3.480262279510498047e+00 -5.927270935353334824e-14 1.118502534515342095e-13 1.577326289058707948e-14 -1.133206552141226287e-13
5.817000000000000000e+03 7.211753082275390625e+01 -1.394739341735839844e+01 2.758326709130076021e-14 -3.392954794618867342e-14 -1.903884425872963415e-15 -5.730431320433160280e-14
5.818000000000000000e+03 3.514714431762695312e+01 -9.755764961242675781e+00 -1.741398908752800345e-13 -7.463138180369144337e-14 -7.463138180369144337e-14 3.573806832066206418e-14
5.819000000000000000e+03 7.349838256835937500e+01 1.089375972747802734e+01 1.321579429008554185e-13 -2.636175240773586115e-13 -3.943787435295095789e-14 9.485298560051730332e-15
5.820000000000000000e+03 3.314442443847656250e+01 -1.068314647674560547e+01 4.446343941362333740e-14 1.105576540689698350e-13 4.650633041647020405e-14 2.473554943770855941e-13
5.821000000000000000e+03 7.194845581054687500e+01 -2.513189697265625000e+01 4.639837098514495994e-14 -1.123638196918498589e-13 -1.978963562845100638e-14 -1.523745051575792209e-13
5.822000000000000000e+03 2.651778602600097656e+01 -8.788184165954589844e+00 -4.795392666398674841e-14 -6.630262880608431275e-14 -3.427696697983449725e-14 -7.464458874140503242e-14
5.823000000000000000e+03 2.614254570007324219e+01 -8.257679939270019531e+00 -7.760955642250114139e-14 -3.077669412723804676e-13 -1.156129499860908405e-13 4.379218274358324947e-14
5.824000000000000000e+03 5.800003433227539062e+01 -4.248525142669677734e+00 -1.967197834750605834e-13 1.901972096528606326e-13 -1.956769563209496098e-15 -2.784411698604494223e-13
5.825000000000000000e+03 5.941553115844726562e+01 -4.158403873443603516e+00 -1.636444479273871377e-13 -2.302616647700816976e-13 -1.181718297434825038e-13 -1.196874088553456783e-13
5.826000000000000000e+03 7.223530578613281250e+01 -2.697323799133300781e+01 -5.426725624316057484e-14 -4.235781918358189069e-13 -1.433536313743752344e-13 -1.322834393023206156e-13
5.827000000000000000e+03 7.299961853027343750e+01 -2.839876556396484375e+01 8.578369541404826104e-14 -3.063676699485706756e-13 -6.617519439323579777e-14 2.813681667485860155e-14
5.828000000000000000e+03 8.979428291320800781e+00 -1.335475540161132812e+01 -3.396022070327464615e-14 9.982299546424516778e-14 1.975883242829115649e-14 -3.589038263227027972e-15
5.829000000000000000e+03 8.637462615966796875e+00 -1.174917221069335938e+01 6.713291760603729008e-14 -8.560612342698586952e-14 -5.541961238064805478e-15 6.770836468534754959e-14
5.830000000000000000e+03 6.618088531494140625e+01 7.279148697853088379e-01 -5.656575129630268817e-14 6.725943044703919238e-14 3.208104465198956430e-15 -2.732174566883599498e-13
5.831000000000000000e+03 3.559047317504882812e+01 -1.004338836669921875e+01 6.250569181166787391e-14 -3.506571660642776589e-13 -8.644544498628836671e-14 -8.216706124091616159e-14
5.832000000000000000e+03 3.661281967163085938e+01 -1.253740310668945312e+01 -8.686944257462955732e-14 -1.287316607478938835e-13 -6.468033031913067443e-14 -8.732772466854381299e-15
5.833000000000000000e+03 1.440348243713378906e+01 -8.263950347900390625e+00 -2.616198053415888167e-15 9.038067196780533163e-14 2.632934153904212260e-14 2.947844401847594942e-14
5.834000000000000000e+03 1.499441719055175781e+01 -8.471913337707519531e+00 -8.520247495816951622e-14 9.235603411596529644e-15 -2.279006010871918037e-14 6.524530129494929276e-14
5.835000000000000000e+03 3.630875778198242188e+01 -1.320302486419677734e+01 -9.801154435577427715e-14 -6.488041983006287428e-14 -4.886759061100386103e-14 -1.792559055021920172e-14
5.836000000000000000e+03 3.806877136230468750e+01 -1.294442176818847656e+01 -1.831599921644361251e-13 -1.699990381754876156e-13 -1.059477077467244066e-13 -2.752834378093489687e-14
5.837000000000000000e+03 6.168151855468750000e+01 -1.482196092605590820e+00 -2.042322609857941118e-13 1.869775764339748347e-13 -5.176406805501793454e-15 -6.063315268704100314e-14
5.838000000000000000e+03 3.839310073852539062e+01 -1.337324810028076172e+01 3.101571733818420107e-14 -6.677170887601016624e-14 -1.072679813897414736e-14 -1.114918975284734382e-13
5.839000000000000000e+03 4.139964294433593750e+01 -1.334851455688476562e+01 1.005680524209136284e-13 -9.415225218391276574e-14 1.924739647583785171e-15 1.606843523798036355e-14
5.840000000000000000e+03 4.082810592651367188e+01 -1.379206085205078125e+01 -5.429705486224498112e-14 -3.435268020567094904e-13 -1.193471591085654149e-13 -8.033469180677987875e-14
5.841000000000000000e+03 7.259349060058593750e+01 -2.210163688659667969e+01 -1.202489307130030771e-13 -2.802900056150803287e-13 -1.201616795431723062e-13 9.427954429522614199e-15
5.842000000000000000e+03 7.288451385498046875e+01 -1.938774490356445312e+01 -8.145289049363638179e-14 -2.407876415616572174e-13 -9.667216164946715318e-14 1.903634720560112847e-14
5.843000000000000000e+03 7.349638366699218750e+01 -2.064069557189941406e+01 8.290103900663453595e-14 -4.677314308434987744e-13 -1.154491134853011247e-13 4.790164440235042398e-14
5.844000000000000000e+03 6.531073760986328125e+01 -7.825052261352539062e+00 8.638535985714193566e-14 -2.374833999157360820e-13 -4.532941201757824390e-14 2.672588848362869585e-14
5.845000000000000000e+03 6.731104278564453125e+01 -7.692992687225341797e+00 1.612967300956141825e-13 -1.825030469630728458e-13 -6.361895483754072614e-15 -6.329702387231073146e-14
5.846000000000000000e+03 7.040375518798828125e+01 -2.686572647094726562e+01 -6.162584819616873100e-14 -3.009167622112368656e-13 -1.087627844774743946e-13 -6.843889333290470445e-14
5.847000000000000000e+03 5.974132156372070312e+01 -5.882258892059326172e+00 -2.922692266698646846e-14 3.077308102349823882e-13 8.355116728683831262e-14 -8.921421273174606759e-14
5.848000000000000000e+03 5.756420135498046875e+01 -4.203184127807617188e+00 -1.589310009552508118e-13 -1.138642403020889704e-13 -8.183856831144378785e-14 6.425942270698106751e-14
5.849000000000000000e+03 7.327207183837890625e+01 -2.169136810302734375e+01 -4.860972328867355086e-14 -2.038365271928369027e-13 -7.573387988783764069e-14 8.982440171442090948e-14
5.850000000000000000e+03 6.821814727783203125e+01 3.933675765991210938e+00 -2.106626505182784825e-14 2.409338208136284701e-15 -5.597077671942642801e-15 -3.249490791463333084e-14
5.851000000000000000e+03 4.347953414916992188e+01 -5.885217189788818359e+00 -2.200127931131345277e-14 -2.381838758343246543e-13 -7.805554298615305364e-14 -1.442318893441971173e-13
5.852000000000000000e+03 3.505894470214843750e+01 -1.175294780731201172e+01 -8.299290481196194835e-14 -8.131933711477690174e-14 -4.929367528852708624e-14 7.518276637103610271e-14
5.853000000000000000e+03 3.958804321289062500e+01 -8.947060585021972656e+00 7.234269539207853483e-15 -8.840149478325093346e-14 -2.435016774261951344e-14 -1.048817472757909708e-13
5.854000000000000000e+03 7.275086212158203125e+01 -1.627390098571777344e+01 -8.575194861918516986e-14 -1.282527279907255680e-13 -6.420140433822593695e-14 -8.533624517746349336e-14
5.855000000000000000e+03 7.255320739746093750e+01 -1.551001071929931641e+01 -9.533310420381177486e-14 -4.297401193578687106e-13 -1.575219582593614942e-13 -7.029504067593631000e-14
5.856000000000000000e+03 7.018463134765625000e+00 -5.683785438537597656e+00 1.204134329816893348e-14 9.666247159255056398e-14 3.261114455191914396e-14 2.720807045918267886e-14
5.857000000000000000e+03 5.773340225219726562e+01 -4.560881614685058594e+00 -1.144996640903284124e-13 5.386834777071705660e-14 -1.818939557350976455e-14 -4.365888347460794572e-14
5.858000000000000000e+03 5.835684967041015625e+01 -4.960362434387207031e+00 -2.615851328949259091e-13 -2.060601953554185711e-14 -8.465734488210738262e-14 3.850566038438897609e-14
5.859000000000000000e+03 2.848743820190429688e+01 -9.810277938842773438e+00 -8.025070510192782586e-15 4.231163352628672381e-14 1.028596831190511929e-14 3.769459923233867138e-14
5.860000000000000000e+03 9.517855644226074219e+00 -1.093061256408691406e+01 1.253553332100296180e-13 -6.065365766062813524e-14 1.941050537532587605e-14 5.745585756299076419e-14
5.861000000000000000e+03 4.238665390014648438e+01 -1.241578102111816406e+01 -5.820891728694488343e-14 -1.621995181395885499e-13 -6.612252927270731440e-14 -1.694464067756445980e-13
5.862000000000000000e+03 6.712338256835937500e+01 2.139418125152587891e+00 -1.470704390519814164e-13 2.847170809121453428e-14 -3.557962233754867476e-14 -5.364279644939039249e-14
5.863000000000000000e+03 1.093092441558837891e+01 -9.331074714660644531e+00 6.005274538279162244e-14 -1.115159532641754603e-13 -1.543896270322833025e-14 1.995016836193325149e-13
5.864000000000000000e+03 7.136187744140625000e+01 -9.372034072875976562e+00 4.466385079707549388e-14 -3.468659279075303470e-13 -9.066062652126824495e-14 -1.787894613987980191e-14
5.865000000000000000e+03 6.993254852294921875e+01 -1.046574974060058594e+01 8.766380362509179625e-14 -3.741883376501969893e-13 -8.595735749702612671e-14 -1.541166960760190219e-14
5.866000000000000000e+03 7.334988403320312500e+01 8.488278388977050781e+00 -3.478541375301694161e-14 -2.894137295268717214e-13 -9.725974501684567231e-14 8.359343084277451319e-14
5.867000000000000000e+03 6.188106060028076172e+00 -6.791983604431152344e+00 6.342102017842634124e-15 9.421994028079375139e-14 3.016861324016233137e-14 -1.367145984628616979e-16
5.868000000000000000e+03 7.901937007904052734e+00 -5.589005470275878906e+00 3.288852751335419322e-14 -1.231577638266187491e-13 -2.708076987753983006e-14 -8.722041914665384921e-14
5.869000000000000000e+03 6.578369903564453125e+01 -4.387662887573242188e+00 -2.026563426349003300e-14 -1.459381118555647117e-13 -4.986112637681526516e-14 1.135355305321820996e-13
5.870000000000000000e+03 6.662649154663085938e+00 -1.702233695983886719e+01 -4.283793236586549980e-14 -2.013629063837840683e-13 -7.326025230252122822e-14 1.953942650040341178e-13
5.871000000000000000e+03 6.974359893798828125e+01 -2.751482391357421875e+01 5.786073253551474171e-14 -4.784629723669775458e-13 -1.261806685613070522e-13 -1.459287064017183999e-13
5.872000000000000000e+03 6.922710418701171875e+01 -2.889098739624023438e+01 2.884622879104070670e-14 -2.850185094448870471e-13 -7.685167877514303969e-14 -2.305511738551896395e-13
5.873000000000000000e+03 4.012616348266601562e+01 -1.776331138610839844e+01 -9.005405606334407342e-14 7.156354366521719412e-15 -2.486930915379399060e-14 7.639754714267033009e-14
5.874000000000000000e+03 4.357445526123046875e+01 -9.421535491943359375e+00 -6.903769819276844855e-14 -2.958758590779556052e-14 -2.958758590779556052e-14 -1.255206333837521893e-13
5.875000000000000000e+03 4.412980270385742188e+01 -9.109066963195800781e+00 -2.370655653391191137e-14 -4.219184951501780967e-13 -1.336875082207436560e-13 -1.115223297282023907e-13
5.876000000000000000e+03 4.266318130493164062e+01 -9.819417953491210938e+00 -6.040301722340379875e-14 -2.546417395520028659e-13 -9.451343380888557744e-14 -1.006256438850633428e-13
5.877000000000000000e+03 6.814117431640625000e+00 -1.015388393402099609e+01 2.555851038622825033e-13 -4.165994263970185241e-13 -4.830430353668438426e-14 3.037646496102316962e-14
5.878000000000000000e+03 7.248484802246093750e+01 -3.043657493591308594e+01 7.955243316306800927e-14 -5.149174814832180314e-13 -1.306095124631659332e-13 -5.668847959409625825e-14
5.879000000000000000e+03 7.325894165039062500e+01 -1.119446372985839844e+01 1.366761115091999490e-13 -3.292642037928256160e-14 3.112490666134885842e-14 -1.360239910075042302e-13
5.880000000000000000e+03 4.057533264160156250e+01 -1.612748718261718750e+01 -8.554175569925812073e-14 -2.196645507634639727e-13 -9.156188990593755461e-14 -3.104098941319848037e-14
5.881000000000000000e+03 4.007286071777343750e+01 -1.637158966064453125e+01 -2.607260924086113318e-14 -1.026758701932334317e-13 -3.862454315260201165e-14 2.486740197440995281e-13
5.882000000000000000e+03 6.100799179077148438e+01 -6.945679187774658203e+00 -6.466655565758418819e-16 2.971040297464200286e-13 8.893720585293959924e-14 -3.757387332043241046e-14
5.883000000000000000e+03 6.803791809082031250e+01 3.355787038803100586e+00 -8.160782298408456037e-14 -3.497477982683690201e-14 -3.497477982683690201e-14 1.431346089830060064e-14
5.884000000000000000e+03 8.649711608886718750e+00 -2.636393165588378906e+01 -8.016978804447662255e-15 -1.978773861346233565e-13 -6.176830558536974825e-14 -1.418515370270323483e-13
5.885000000000000000e+03 7.995011806488037109e+00 -2.510180282592773438e+01 1.824756132599771735e-14 -2.666853012294606584e-13 -7.453132349569818738e-14 -2.309528334906458397e-14
5.886000000000000000e+03 9.517930984497070312e+00 -2.834710693359375000e+01 1.192926813375298073e-14 5.086349161406884811e-14 1.883782809375313810e-14 4.967834344306136518e-14
5.887000000000000000e+03 4.454547882080078125e+01 -5.077332973480224609e+00 -1.567367519409931798e-13 -1.815502636464197406e-13 -1.014861006104657293e-13 -4.842855649378301208e-14
5.888000000000000000e+03 4.228147125244140625e+01 -1.157518672943115234e+01 -7.557867634684634073e-14 -2.611455973342002856e-13 -1.010172848148194191e-13 -1.960001307305461737e-13
5.889000000000000000e+03 3.903826904296875000e+01 -8.956404685974121094e+00 1.302105667212727358e-13 -3.569736669348060054e-14 2.835396034715081948e-14 3.319520426223708520e-14
5.890000000000000000e+03 6.637921905517578125e+01 -7.227029323577880859e+00 -1.105292191729305082e-14 -1.419898134616057184e-13 -4.591282120659269383e-14 -3.276904504581450162e-14
5.891000000000000000e+03 1.165435600280761719e+01 -9.791909217834472656e+00 1.247329605054414703e-13 4.652155397022461614e-13 1.769845392202845646e-13 1.444149704335484508e-13
5.892000000000000000e+03 1.156921482086181641e+01 -9.248277664184570312e+00 -2.297072037790726107e-14 -2.385993421068210996e-13 -7.847101603491307698e-14 3.161958745507252588e-14
5.893000000000000000e+03 8.456270217895507812e+00 -3.376475906372070312e+01 6.268263191215161373e-15 1.170637751232023183e-13 3.699960869911651795e-14 -3.560928204322973134e-14
5.894000000000000000e+03 4.665931320190429688e+01 -4.723702907562255859e+00 -4.587285141587765791e-14 -1.797881098554790502e-13 -6.769828838140701244e-14 -8.961975855436427052e-14
5.895000000000000000e+03 8.493851661682128906e+00 -6.211318969726562500e+00 6.841933025995491913e-14 -2.909340791282938321e-13 -6.675442262762260048e-14 3.991081181091860747e-15
5.896000000000000000e+03 6.958778858184814453e+00 -3.111553573608398438e+01 -6.237326329256234758e-14 -3.012370897430977079e-13 -1.090831052330716588e-13 -1.001543954107925183e-13
5.897000000000000000e+03 6.052565765380859375e+01 -4.735684871673583984e+00 -8.684393671852183583e-14 -1.287207238584789359e-13 -6.466940020597930494e-14 1.268426248095862879e-14
5.898000000000000000e+03 4.188282775878906250e+01 -1.287590694427490234e+01 1.010275169728222511e-14 -3.345132059805883129e-13 -9.732313696261818414e-14 1.074976628437189496e-14
5.899000000000000000e+03 4.032276535034179688e+01 -1.323675918579101562e+01 5.254929385514403584e-14 -6.898077080244938153e-14 -4.929442914785014257e-15 1.274428154153517401e-13
5.900000000000000000e+03 3.520950317382812500e+01 -1.064680385589599609e+01 7.484691441931798361e-15 1.633360466194236360e-13 5.124622175721980921e-14 1.090695527059155900e-13
5.901000000000000000e+03 3.597237777709960938e+01 -1.236185169219970703e+01 -1.084479524953753382e-13 -2.360222070953502116e-14 -3.961505331672582342e-14 -3.684797286089905310e-14
5.902000000000000000e+03 6.964588165283203125e+01 5.660814762115478516e+00 -1.840675100403879605e-13 -1.167735748592094169e-13 -9.025232953563736005e-14 4.704775048822336381e-14
5.903000000000000000e+03 5.660003662109375000e+01 -3.201646804809570312e+00 -1.472664763572939517e-13 -8.598968027429335081e-14 -6.997684766710254856e-14 4.887170380299572792e-14
5.904000000000000000e+03 8.368736267089843750e+00 -7.576800823211669922e+00 1.189944545893287242e-13 -1.777571281358705790e-13 -1.762880206396255645e-14 -2.824673783448968661e-14
5.905000000000000000e+03 3.978187179565429688e+01 -1.162501811981201172e+01 -5.359091059917338307e-14 -4.584300536294820538e-14 -2.983017614388919214e-14 -5.874143419538945324e-15
5.906000000000000000e+03 7.261350250244140625e+01 -3.394813919067382812e+01 1.241893788056069176e-14 -5.093757989189928725e-13 -1.490870550928044547e-13 2.505840417707082962e-14
5.907000000000000000e+03 4.320238876342773438e+01 -6.556823253631591797e+00 2.938012721022224827e-14 -5.603493946518094126e-14 -7.996443337674428997e-15 5.428197936984974908e-15
5.908000000000000000e+03 6.253235816955566406e+00 -1.532583904266357422e+01 -4.646031619864356144e-14 -2.486663219086748811e-13 -8.853798906050328044e-14 1.646778281230373842e-13
5.909000000000000000e+03 7.342660522460937500e+01 6.865955352783203125e+00 -9.400570870777419374e-14 -2.232919524194215688e-13 -9.518929833815872876e-14 1.723006503098756248e-13
5.910000000000000000e+03 7.078743743896484375e+01 6.863012790679931641e+00 1.638150708561502550e-14 -8.448125012050500260e-14 -2.042992307987358258e-14 2.032404226740090053e-14
5.911000000000000000e+03 6.226515197753906250e+01 -5.815255165100097656e+00 -1.936547439334440623e-13 -8.299489025719031243e-14 -8.299489025719031243e-14 5.694321289452172752e-14
5.912000000000000000e+03 7.032859039306640625e+01 -3.097743606567382812e+01 6.611654583196791002e-14 -4.291738134581252195e-13 -1.089171816430999085e-13 -1.539760886067748080e-13
5.913000000000000000e+03 6.913146209716796875e+01 -2.993434524536132812e+01 3.504433139620184712e-14 -3.281131063462977560e-13 -8.792063756722645618e-14 -1.757638359942831352e-13
5.914000000000000000e+03 7.245904922485351562e+00 -2.827377319335937500e+01 -1.146812476254290003e-14 -1.571797840537250690e-13 -5.059437230606721181e-14 -1.382751979052670305e-14
5.915000000000000000e+03 4.325483703613281250e+01 -3.190322113037109375e+01 -1.708224897254903563e-14 -2.360756989200352152e-13 -7.594738640065434865e-14 -4.140284340684811243e-15
5.916000000000000000e+03 4.158823394775390625e+01 -2.903063964843750000e+01 -5.515970370891486174e-14 -3.381776466932634451e-13 -1.180012034265875975e-13 3.276988530249817788e-14
5.917000000000000000e+03 7.146823883056640625e+01 -3.072999954223632812e+01 1.350961816102679708e-14 -4.517196621096897236e-13 -1.314630099658736784e-13 -2.012755434056042597e-14
5.918000000000000000e+03 6.748122692108154297e+00 -2.780744934082031250e+01 1.976889348563864307e-14 -2.202823562664005252e-13 -6.015404374701965873e-14 -1.389531800169083176e-14
5.919000000000000000e+03 7.573441982269287109e+00 -3.006768608093261719e+01 4.169245244184383026e-14 -1.994488152108966905e-13 -4.732690883071585808e-14 -9.811811465306602420e-14
5.920000000000000000e+03 4.217752456665039062e+01 -3.356771469116210938e+01 -6.511312349759615370e-14 -1.422829952815729548e-13 -6.221883902188252158e-14 1.001622050545662029e-14
5.921000000000000000e+03 7.078224182128906250e+00 -3.571883773803710938e+01 2.499846981978900984e-14 1.250910047203776521e-13 4.502684168442364077e-14 -5.111707972594962957e-14
5.922000000000000000e+03 1.295660972595214844e+01 -3.323006820678710938e+01 -5.387873662981513059e-15 -1.166864592146502067e-13 -3.662229956682798437e-14 5.424377987799447465e-14
5.923000000000000000e+03 1.111323928833007812e+01 -2.919483184814453125e+01 -8.203798697228176229e-15 -9.501781143578941213e-14 -3.096648439515799212e-14 -1.674483000987849607e-14
5.924000000000000000e+03 1.051513195037841797e+01 -3.591199874877929688e+01 -4.557777901837214984e-14 -4.240880853412752616e-14 -2.639597592693672390e-14 9.484209275681561302e-15
5.925000000000000000e+03 1.169227600097656250e+01 -3.103401947021484375e+01 -2.466207915511643700e-14 6.587143567285619686e-15 -5.422480464591008381e-15 2.556691236014194991e-15
5.926000000000000000e+03 7.056272125244140625e+01 -3.693238449096679688e+01 -2.742854466502350069e-14 -1.604456720477945297e-13 -5.636226687731789309e-14 -8.115467390983066576e-14
5.927000000000000000e+03 7.373761749267578125e+01 -3.965818023681640625e+01 -2.249361721190501484e-14 -4.213986473135256094e-13 -1.331676874891454809e-13 7.475679011373012606e-15
5.928000000000000000e+03 7.027351856231689453e+00 -3.188025856018066406e+01 2.263202070142047301e-14 5.545038508762180351e-14 2.342472156730609351e-14 -4.472593831210923410e-14
5.929000000000000000e+03 4.091050720214843750e+01 -3.229328155517578125e+01 -4.125962877019224984e-14 -2.235619729704790837e-13 -7.944647950576186335e-14 2.175584812671473023e-14
5.930000000000000000e+03 4.794296646118164062e+01 -3.845602035522460938e+01 -3.412961712833013916e-14 -1.518798243638555534e-13 -5.580283210884252887e-14 3.922864959168262042e-15
5.931000000000000000e+03 3.849249267578125000e+01 -3.682369995117187500e+01 -5.928737996417979272e-14 -3.684661422005165721e-14 -2.884019791645625608e-14 -7.700118178439931821e-16
5.932000000000000000e+03 7.206040191650390625e+01 -3.593402099609375000e+01 4.415500168324310373e-15 -3.869907053231230742e-13 -1.147725577771430139e-13 6.402031716443244008e-16
5.933000000000000000e+03 6.085400009155273438e+01 -3.631674957275390625e+01 -1.284267017818280232e-13 2.148668689058220484e-15 -3.788341304067702198e-14 -2.589541841862500610e-14
5.934000000000000000e+03 5.577865600585937500e+01 -3.628012418746948242e+00 -4.112788465370810498e-14 -1.091281335045476975e-13 -4.507680646391627743e-14 -6.347359974862715193e-14
5.935000000000000000e+03 1.010286998748779297e+01 -7.653638362884521484e+00 1.052031793386150327e-13 -1.379167233975936435e-13 -9.814060846001330940e-15 -1.012459837105780802e-14
5.936000000000000000e+03 4.304454803466796875e+01 -9.027976036071777344e+00 -7.301892414551900551e-15 -2.318841191110976307e-13 -7.175580659171676423e-14 3.247926491016343842e-14
5.937000000000000000e+03 1.022722148895263672e+01 -9.354599952697753906e+00 2.068957255952491581e-14 7.749338415971931959e-14 2.945488633814691282e-14 -5.937757203240343062e-14
5.938000000000000000e+03 6.497941970825195312e+00 -7.461519718170166016e+00 3.770402501497571723e-14 1.615886786356102167e-14 1.615886786356102167e-14 4.339581875811328315e-14
5.939000000000000000e+03 6.799087524414062500e+00 -8.132711410522460938e+00 1.522957615866706721e-14 -8.497493480348269901e-14 -2.092360776285127899e-14 4.419103700591814343e-14
5.940000000000000000e+03 4.594252395629882812e+01 -5.135852336883544922e+00 -1.725244669077263121e-14 -9.889580609512629850e-14 -3.484447566636308946e-14 7.252214101602025287e-14
5.941000000000000000e+03 7.448836326599121094e+00 -2.670233535766601562e+01 6.351354582241966473e-14 -6.428180470557931514e-14 -2.304791207857732156e-16 2.266953748472026048e-14
5.942000000000000000e+03 7.088611602783203125e+00 -2.731581115722656250e+01 3.874284316214733626e-14 1.660407515690145996e-14 1.660407515690145996e-14 4.769932888883283983e-14
5.943000000000000000e+03 6.442443084716796875e+01 -9.733506441116333008e-01 -1.069316076657278458e-13 2.172401256279876680e-13 3.309255403342523105e-14 -6.284319039543545538e-14
5.944000000000000000e+03 6.699774265289306641e+00 -1.396617507934570312e+01 -1.862425212423475529e-14 -1.623912728463197674e-13 -5.430465782997953572e-14 4.962786705566858692e-14
5.945000000000000000e+03 6.518584442138671875e+01 -1.745163649320602417e-01 -1.601095016116882430e-13 -1.715579989267773664e-13 -9.950024880628696722e-14 -1.339744152206376326e-13
5.946000000000000000e+03 6.559558105468750000e+01 2.348219603300094604e-02 5.246238827475574462e-14 1.139857793656245954e-13 4.993444893686138641e-14 -1.042640637455988228e-13
5.947000000000000000e+03 4.480684280395507812e+01 -6.368516445159912109e+00 -6.008226956320111833e-14 -4.146326023409668826e-13 -1.424144683475139783e-13 4.775484342819588668e-14
5.948000000000000000e+03 4.405007934570312500e+01 -4.743628978729248047e+00 6.349624602150494290e-14 -1.557911243586784789e-13 -2.768846350115206079e-14 -3.370366458794668563e-14
5.949000000000000000e+03 7.269127655029296875e+01 -2.377312278747558594e+01 7.350041663625392352e-14 -2.430055126307478774e-13 -5.085152812072182837e-14 7.567149082907467794e-14
5.950000000000000000e+03 7.307700347900390625e+01 -3.816455602645874023e-03 -2.548557339557971924e-13 -3.379786413845037307e-13 -1.778503153125957081e-13 -5.956467822232011655e-14
5.951000000000000000e+03 7.322845458984375000e+01 -1.521255683898925781e+01 2.432839730180918342e-14 -2.183282851384027445e-13 -5.819996584275829998e-14 -7.996435544971314258e-14
5.952000000000000000e+03 3.923450851440429688e+01 -1.582181549072265625e+01 -6.352378115679604888e-16 -2.290269753360552052e-13 -6.889866959293791671e-14 9.679847120256171444e-14
5.953000000000000000e+03 6.209291839599609375e+01 -2.396023035049438477e+00 -5.783694785035584096e-14 1.124655856182647795e-13 1.638859166918586047e-14 -1.069793599951622542e-13
5.954000000000000000e+03 6.346723556518554688e+01 -1.636771202087402344e+00 -2.327977220717425411e-13 1.289842934066101621e-13 -3.114403266529786052e-14 7.408259932156074923e-14
5.955000000000000000e+03 7.196216583251953125e+01 1.207448101043701172e+01 -5.562241070294557388e-14 -9.818346493901258798e-14 -4.614176404784016416e-14 -7.412949784178432533e-14
5.956000000000000000e+03 3.749189758300781250e+01 -1.016543197631835938e+01 6.723352479138036686e-14 -1.999403789233744622e-13 -3.981205623959822859e-14 -2.581128433004013095e-14
5.957000000000000000e+03 3.798100662231445312e+01 -1.244527149200439453e+01 -5.312633335639513343e-14 -2.276842858131220004e-14 -2.276842858131220004e-14 -6.287907748734472557e-14
5.958000000000000000e+03 1.043464183807373047e+01 -8.066740036010742188e+00 6.518722786905259067e-15 -5.439494815402505512e-14 -1.436286663604804947e-14 6.910560313008393130e-14
5.959000000000000000e+03 9.528355598449707031e+00 -7.273159980773925781e+00 -5.581744850938034908e-14 -3.441784075623732786e-13 -1.199987510617020470e-13 1.471666619947895049e-13
5.960000000000000000e+03 7.270353698730468750e+01 5.598317146301269531e+00 -2.710859965324163845e-13 -3.906853952764105520e-13 -1.985314175426480809e-13 2.051065887227407347e-13
5.961000000000000000e+03 7.147582244873046875e+01 -2.462348365783691406e+01 -2.309078052191698011e-14 -4.674055196704496318e-13 -1.471488946316878987e-13 1.135283070352079149e-13
5.962000000000000000e+03 1.219547843933105469e+01 -9.226006507873535156e+00 -9.319981445670214026e-14 -1.771956198307403363e-13 -8.111863096385910077e-14 7.087121281544941920e-15
5.963000000000000000e+03 3.718032073974609375e+01 -1.073314189910888672e+01 1.050022089134176884e-13 -1.218774023760763048e-14 2.784433958630348066e-14 -1.201264158675122151e-13
5.964000000000000000e+03 6.713664245605468750e+01 1.444420695304870605e+00 -1.646553715855397781e-13 -3.450722780434789527e-13 -1.529183003097164817e-13 -1.202629131093798775e-15
5.965000000000000000e+03 6.543507385253906250e+01 5.220757722854614258e-01 -9.213559548550825928e-14 -1.309885766477211777e-13 -6.693725299522154670e-14 -1.345305431724869161e-13
5.966000000000000000e+03 3.955966186523437500e+01 -1.699148750305175781e+01 1.132599009289478667e-14 4.853995572590705590e-15 4.853995572590705590e-15 3.883670186659304857e-13
5.967000000000000000e+03 1.283923530578613281e+01 -9.302985191345214844e+00 -4.690397088059168260e-15 -1.850139643268591816e-13 -5.691131024559634155e-14 -2.635317196398017509e-14
5.968000000000000000e+03 6.719088554382324219e+00 -2.641558074951171875e+01 -1.992309244555449943e-14 -2.372932037496278124e-13 -7.716489123024694585e-14 7.286558238294577050e-14
5.969000000000000000e+03 7.283010101318359375e+01 -8.551637649536132812e+00 6.235221621788897273e-14 -4.079116330737292406e-13 -1.036678270896311538e-13 -1.575793667643946017e-13
5.970000000000000000e+03 3.663686370849609375e+01 -1.050008201599121094e+01 -3.832358218204719169e-15 -1.846462300550064106e-13 -5.654357936187535960e-14 3.245897000074722538e-14
5.971000000000000000e+03 3.742052841186523438e+01 -1.184256744384765625e+01 -1.570272876300331938e-14 -2.960521435749381702e-14 -1.359238344436890927e-14 -1.109969185791523372e-13
5.972000000000000000e+03 6.476843261718750000e+01 -5.390312671661376953e+00 -1.765187388619304798e-13 6.160196186705615973e-14 -3.447503377608865383e-14 -4.061010018931512922e-14
5.973000000000000000e+03 7.246990203857421875e+01 -2.471761131286621094e+01 6.792736251276130718e-15 -4.088473537586928552e-13 -1.206163939343127267e-13 -1.288622562877015515e-14
5.974000000000000000e+03 7.987534046173095703e+00 -1.006635093688964844e+01 4.176784515041304102e-14 1.551533559832410369e-13 5.907636034009622339e-14 -1.725214578231811912e-15
5.975000000000000000e+03 7.281506347656250000e+01 6.896873712539672852e-01 -2.691889950962728095e-13 -2.526195669750458395e-13 -1.565425577793738698e-13 2.301480132773509046e-13
5.976000000000000000e+03 7.291533660888671875e+01 2.295358896255493164e+00 -3.385965553076575318e-13 -5.111203886347392977e-13 -2.549150940247407737e-13 1.701580228715554588e-13
5.977000000000000000e+03 7.139110565185546875e+01 -1.015998554229736328e+01 1.273112339291934680e-13 -5.402003714141678792e-13 -1.238667507322613326e-13 -2.750388993974766522e-14
5.978000000000000000e+03 7.295302581787109375e+01 -1.199933815002441406e+01 3.704863242500475509e-15 -1.356650523257757479e-13 -3.958805668263093436e-14 -2.898839818903965748e-14
5.979000000000000000e+03 7.246179199218750000e+01 1.912754535675048828e+00 -8.836727465218185973e-14 -4.644998917295063701e-14 -4.044517948635292792e-14 2.637851688382791826e-14
5.980000000000000000e+03 7.265579986572265625e+01 -1.920948386192321777e+00 -7.706130248892953394e-14 -5.590174861642288606e-14 -3.988891600923208380e-14 7.427349344281755639e-14
5.981000000000000000e+03 6.953387451171875000e+01 -7.122946262359619141e+00 5.323998823725771545e-14 -5.261942682792397630e-13 -1.418862721541333527e-13 -8.072047126854095533e-14
5.982000000000000000e+03 7.255813598632812500e+01 -1.293829154968261719e+01 4.228378308298100241e-14 -1.191312266933877706e-13 -2.305423274430885155e-14 -3.692777352892577525e-14
5.983000000000000000e+03 7.242759704589843750e+01 -5.092866897583007812e+00 -2.234946440155677339e-13 -1.872853136681076891e-13 -1.232339832393444801e-13 -1.584008803030140244e-13
5.984000000000000000e+03 7.333055877685546875e+01 -5.467400074005126953e+00 -1.262526324805057776e-13 -2.828630071057686157e-13 -1.227346945863877492e-13 -1.897194220842370049e-14
5.985000000000000000e+03 7.342887115478515625e+01 -1.340436840057373047e+01 4.755173509183967251e-14 -1.626244847336213994e-13 -3.452182387609498138e-14 4.760888271072502564e-14
5.986000000000000000e+03 7.277189636230468750e+01 -5.789717674255371094e+00 2.030451815796668891e-14 -3.573056564162846449e-13 -1.011003414774953868e-13 2.023769742282369166e-14
5.987000000000000000e+03 7.351754760742187500e+01 -7.753168582916259766e+00 -8.666238875880503262e-15 -2.324688564477733754e-13 -7.234052359960177481e-14 -7.311041556228373151e-14
5.988000000000000000e+03 6.905569458007812500e+01 -8.187372207641601562e+00 5.659339845170106853e-14 -5.247570498793929783e-13 -1.404491079643951923e-13 2.751197063406447124e-14
5.989000000000000000e+03 7.229586029052734375e+01 -4.447474956512451172e+00 -1.517114443783367655e-14 -3.725095047962118100e-13 -1.163041966336861299e-13 -1.681915918387913433e-13
5.990000000000000000e+03 7.274712371826171875e+01 -6.927262306213378906e+00 -2.535279047788906170e-14 -3.768730661747599076e-13 -1.206677580122342275e-13 3.029651860332951974e-14
5.991000000000000000e+03 7.196612548828125000e+01 2.338070631027221680e+00 -2.933306809255187275e-13 -2.744037364953849645e-13 -1.703203279367765388e-13 2.089107830954492484e-13
5.992000000000000000e+03 6.591574096679687500e+01 1.336888313293457031e+00 -1.357187609908952486e-13 -3.528971006475783989e-14 -5.130254267194864215e-14 2.974640797353753086e-14
5.993000000000000000e+03 7.358627319335937500e+01 -3.710187375545501709e-01 -2.159924664254728177e-13 -4.681724910635294556e-14 -7.884291093260276106e-14 1.178853157668760532e-13
5.994000000000000000e+03 3.609471511840820312e+01 -1.028684520721435547e+01 4.122678760876130610e-14 -1.195842199135793704e-13 -2.350723104669813490e-14 -1.002865189980370331e-13
5.995000000000000000e+03 3.470395278930664062e+01 -1.021370887756347656e+01 -1.124036708979522792e-13 1.877303244498043644e-13 2.259799877606105678e-14 5.931617230812286090e-14
5.996000000000000000e+03 7.215776824951171875e+01 9.172769546508789062e+00 5.229510604393659834e-14 -1.148406592261022596e-13 -1.876366527702334058e-14 -2.877367745449306048e-15
5.997000000000000000e+03 7.282506561279296875e+01 7.242337226867675781e+00 -1.285426538160435589e-14 -4.172675117757040919e-13 -1.290365383987968073e-13 1.571596958203479860e-14
5.998000000000000000e+03 7.254005432128906250e+01 6.638096332550048828e+00 -1.578442238026056543e-13 -4.107796459755508334e-13 -1.705871636439523775e-13 1.982127840766817473e-13
5.999000000000000000e+03 7.199525451660156250e+01 7.016616344451904297e+00 -3.423995502817127334e-14 -2.891799484334295345e-13 -9.702597747593064148e-14 1.464657117377504703e-13
6.000000000000000000e+03 6.988108158111572266e+00 -1.120087718963623047e+01 1.238600151262647664e-13 -2.214228285316380274e-13 -2.926884402161197829e-14 1.369448852277591056e-13
6.001000000000000000e+03 7.766708850860595703e+00 -1.157894611358642578e+01 -2.629184677859896374e-14 -5.701888342989763769e-14 -2.499321821551603318e-14 -1.490695452277188138e-13
6.002000000000000000e+03 7.359447002410888672e+00 -1.231793689727783203e+01 1.532108959828842182e-14 -4.490363566004781926e-14 -8.874763987934408682e-15 6.093456766725555140e-14
6.003000000000000000e+03 6.776517391204833984e+00 -1.292518424987792969e+01 1.192032719277494324e-13 -1.362058252643572054e-13 -5.100768880894352569e-15 5.129118904232364551e-14
6.004000000000000000e+03 5.950147628784179688e+00 -2.218961906433105469e+01 2.028685921508233125e-14 -8.280752656925766120e-14 -1.875620122269213569e-14 1.669179388891911531e-13
6.005000000000000000e+03 7.327210998535156250e+01 1.035043239593505859e+01 -2.354118961399309651e-13 -1.809549824436165744e-13 -1.249100649303169774e-13 5.260103740382590654e-14
6.006000000000000000e+03 3.965539932250976562e+01 -1.486650943756103516e+01 -1.148635358919417038e-13 -1.864800767146027050e-13 -9.040308784772146944e-14 1.309022877073184876e-13
6.007000000000000000e+03 3.978150558471679688e+01 -1.379586887359619141e+01 -1.415913149531086712e-13 -1.864970986887107274e-13 -9.842652273729310397e-14 4.323873480397907865e-14
6.008000000000000000e+03 7.235448455810546875e+01 -1.221447658538818359e+01 9.002567029521568731e-14 -2.816742065286925722e-13 -5.749456358054849670e-14 -1.364216221542632890e-13
6.009000000000000000e+03 7.098974609375000000e+01 -2.623816490173339844e+01 -1.534604488298042801e-14 -2.810825574031672325e-13 -8.892858644566833948e-14 -8.261917354684261694e-14
6.010000000000000000e+03 8.578724861145019531e+00 -6.817657470703125000e+00 1.257641722967467457e-13 9.964987548235354486e-14 6.762421026797194035e-14 -7.201437525732740097e-14
6.011000000000000000e+03 3.078880691528320312e+01 -9.950924873352050781e+00 -1.145193372775613408e-14 -1.421608192492609946e-13 -4.608382699424797002e-14 2.286711672880997748e-13
6.012000000000000000e+03 7.160545349121093750e+01 -2.722378158569335938e+01 -2.145794528391267719e-13 -5.952230353566123622e-13 -2.429407586559961807e-13 4.491472670945916706e-15
6.013000000000000000e+03 6.682965850830078125e+01 -7.502548217773437500e+00 6.211725605458420785e-14 -1.912926841398081973e-14 1.289639595336783753e-14 6.483786489479281823e-14
6.014000000000000000e+03 6.516799163818359375e+01 -5.830971240997314453e+00 -5.141265695509170119e-14 -2.136160985512919330e-13 -7.950862461903601686e-14 1.580692736804275439e-14
6.015000000000000000e+03 7.274176025390625000e+01 -2.644541168212890625e+01 8.255725205026653857e-14 -2.848749610772499663e-13 -6.069531135284231271e-14 6.434234215031957999e-15
6.016000000000000000e+03 4.411811065673828125e+01 -8.316097259521484375e+00 4.348409653187612633e-15 1.863603985824521976e-15 1.863603985824521976e-15 -4.887197146540706028e-15
6.017000000000000000e+03 4.204916000366210938e+01 -7.669734954833984375e+00 2.593684341194342491e-14 -2.176389493971364608e-13 -5.751063010149201626e-14 -7.817605883388839549e-14
6.018000000000000000e+03 9.495482444763183594e+00 -1.011849975585937500e+01 3.920944311960362916e-14 1.083059423395704712e-13 4.425461529893905122e-14 -1.278501908291360123e-13
6.019000000000000000e+03 8.319829940795898438e+00 -8.502983093261718750e+00 1.377735816057712448e-13 -2.497730754863480840e-13 -3.359985222993119858e-14 3.790922382864575502e-14
6.020000000000000000e+03 6.987977600097656250e+01 -9.653956413269042969e+00 9.856260366246719085e-14 -2.780155391925859254e-13 -5.383587591565111574e-14 5.956904891232794874e-14
6.021000000000000000e+03 1.564762401580810547e+01 -8.210077285766601562e+00 -2.087355489193212787e-13 -8.945809723418310377e-14 -8.945809723418310377e-14 1.237337191256973612e-13
6.022000000000000000e+03 6.257087326049804688e+01 -2.830095767974853516e+00 -1.676965451268344620e-13 2.249138612712194701e-14 -4.356154583644127054e-14 -3.910783304725100329e-14
6.023000000000000000e+03 6.305661392211914062e+01 -1.672553300857543945e+00 1.764846678086601228e-14 -1.754401609882147439e-13 -4.733751029508369290e-14 -8.997036920815534855e-14
6.024000000000000000e+03 3.376038742065429688e+01 -1.054683780670166016e+01 -1.499453772951797603e-13 -1.851135787895880763e-14 -5.053702139927451764e-14 5.534491593316148705e-14
6.025000000000000000e+03 3.617653274536132812e+01 -1.171918201446533203e+01 -1.021130320463759997e-14 -9.587817329350170614e-14 -3.182684286473849711e-14 -8.250456660094732109e-14
6.026000000000000000e+03 4.455448150634765625e+01 -7.232938289642333984e+00 4.939791116301620044e-14 -2.990861139480494035e-13 -7.490645744737817191e-14 -1.199831656554725678e-14
6.027000000000000000e+03 5.830004119873046875e+01 -4.545799732208251953e+00 -7.970762992779573120e-14 -1.714132579367505516e-13 -7.533626906986931604e-14 7.507098512705284721e-14
6.028000000000000000e+03 6.633169555664062500e+01 -1.049348711967468262e-01 -1.793286520798340056e-13 1.518996110535034139e-13 -8.228715018404608728e-15 -1.582429527040643547e-13
6.029000000000000000e+03 6.662178802490234375e+01 8.566664457321166992e-01 -1.186173419686839536e-13 4.066589255548487547e-14 -2.338543617921243906e-14 1.964373623616552655e-13
6.030000000000000000e+03 3.839145660400390625e+01 -9.579278945922851562e+00 8.664226833817595397e-14 -2.144978124155386134e-13 -3.835666390083515565e-14 6.156408678881968369e-15
6.031000000000000000e+03 6.057413101196289062e+01 -5.840604782104492188e+00 -1.132076339139045928e-13 1.402051082654773295e-13 8.099241797252052649e-15 1.043496682833801315e-13
6.032000000000000000e+03 4.146215057373046875e+01 -9.226121902465820312e+00 -7.584219846113252061e-14 -3.070094905296277821e-13 -1.148555127958653110e-13 -1.837625375217949442e-13
6.033000000000000000e+03 5.826513671875000000e+01 -3.797080039978027344e+00 -9.688427225198678605e-14 -2.245256254139113561e-13 -9.642297133264851605e-14 -4.698874956124941826e-14
6.034000000000000000e+03 4.502796173095703125e+01 -7.540330886840820312e+00 5.124376874980456076e-14 -4.666480689276969462e-14 1.373687964187396762e-15 -6.358775946112629751e-14
6.035000000000000000e+03 7.151121520996093750e+01 7.872724056243896484e+00 -1.821498443884631696e-14 -1.908102175611839368e-13 -6.270756347992109681e-14 3.253834715230032038e-14
6.036000000000000000e+03 7.121928405761718750e+01 6.190259933471679688e+00 -2.842688988390941474e-14 -3.052749567890311599e-13 -1.001105597617062137e-13 1.395406956216510563e-13
6.037000000000000000e+03 6.782670593261718750e+01 2.005140781402587891e+00 -9.073541614237901065e-14 -1.761394578369407382e-13 -8.006246219379592466e-14 -5.913786848459404166e-14
6.038000000000000000e+03 7.219412994384765625e+01 -2.145801544189453125e+01 -5.104377749469424241e-14 -3.764457549935290581e-13 -1.282468597464669902e-13 4.905639425494684458e-14
6.039000000000000000e+03 7.189155578613281250e+01 -2.253007698059082031e+01 -4.824665786242604559e-14 -3.638092431479389433e-13 -1.236167743688676435e-13 8.558186440337650636e-14
6.040000000000000000e+03 7.292612457275390625e+01 1.090858650207519531e+01 -5.258073063594843194e-15 2.265012857176687544e-13 6.637296642202430985e-14 2.751703589108905196e-14
6.041000000000000000e+03 7.038717651367187500e+01 -2.801893806457519531e+01 7.704984382721907776e-14 -1.042314834703156334e-13 -8.154491215302608897e-15 -1.178921733456170240e-13
6.042000000000000000e+03 3.542725372314453125e+01 -1.216283416748046875e+01 7.652002133057972388e-14 -2.302736723091419746e-13 -4.612609055018417059e-14 9.077725279370979505e-14
6.043000000000000000e+03 3.677526473999023438e+01 -1.183485317230224609e+01 -5.514666617779072355e-14 -2.066380785014851340e-13 -7.853542442022229397e-14 -3.444596487588830712e-15
6.044000000000000000e+03 5.852843093872070312e+01 -3.075224876403808594e+00 -7.038274585542680928e-14 -9.879045552527859764e-14 -5.075196109183797988e-14 -4.203144857986215732e-14
6.045000000000000000e+03 5.754724884033203125e+01 -3.678429603576660156e+00 -1.684956563380649031e-13 -2.646147867881379345e-14 -5.848714389319539797e-14 -7.363172707186907417e-14
6.046000000000000000e+03 3.889562606811523438e+01 -1.027855587005615234e+01 9.783342349136206484e-14 -1.868261404955329219e-13 -2.669781272955900481e-14 6.863663148037532635e-14
6.047000000000000000e+03 4.130433273315429688e+01 -1.254259872436523438e+01 -1.468986743228054004e-13 -1.544584772583679211e-13 -9.040714005334113401e-14 -1.555286661177740504e-13
6.048000000000000000e+03 3.472983932495117188e+01 -1.120541381835937500e+01 -7.468912912190345255e-14 -3.200962918662418610e-14 -3.200962918662418610e-14 -2.681359535718508963e-14
6.049000000000000000e+03 6.221118545532226562e+01 -3.387395858764648438e+00 9.866331926802751617e-14 1.566616573880214025e-13 7.659748757580381318e-14 -1.707216724759763604e-13
6.050000000000000000e+03 4.056027984619140625e+01 -1.251037597656250000e+01 1.898075643327282874e-14 -8.336728659838477107e-14 -1.931595955775335105e-14 3.268904108988043844e-14
6.051000000000000000e+03 7.163359832763671875e+01 1.723863720893859863e+00 -1.330301564435656947e-13 -1.126197388384014841e-14 -4.328763909822175293e-14 1.626823133669963450e-13
6.052000000000000000e+03 6.836658477783203125e+01 -7.621411323547363281e+00 4.896798773217601874e-14 -2.992703741072633150e-13 -7.509071083032850535e-14 -1.720783854763843074e-14
6.053000000000000000e+03 6.745295715332031250e+01 -7.183094978332519531e+00 8.943051784142050376e-14 -3.029905631403949362e-14 1.773943811940112414e-14 -1.162302133879411503e-13
6.054000000000000000e+03 3.815911102294921875e+01 -1.104352855682373047e+01 -1.206237597328220501e-15 -4.626790758247706359e-14 -1.424224406216135358e-14 -8.793406134537454233e-14
6.055000000000000000e+03 9.427464485168457031e+00 -9.280085563659667969e+00 5.881520991806235554e-14 -2.054443007588110243e-14 1.148123429146755484e-14 5.791502395930195335e-14
6.056000000000000000e+03 9.590860366821289062e+00 -7.819265842437744141e+00 1.905728857056268599e-13 -9.827803955570531963e-15 5.422352562615972982e-14 5.201798396864930341e-14
6.057000000000000000e+03 7.111672210693359375e+01 -2.809755325317382812e+01 4.169502064573990530e-14 -4.853911326693771677e-13 -1.331088424162338302e-13 -6.056828351580847980e-14
6.058000000000000000e+03 7.209882354736328125e+01 -2.866483497619628906e+01 5.173819204551226292e-14 -5.268378506888271584e-13 -1.425299087738293724e-13 -5.321214118208378308e-14
6.059000000000000000e+03 6.623480987548828125e+01 -6.331019401550292969e+00 -7.182676084764236246e-14 -5.365837169122450456e-14 -3.764553908403370230e-14 -9.102797454609706795e-14
6.060000000000000000e+03 6.182099151611328125e+01 -5.320697307586669922e+00 3.031534645168108832e-14 2.874979713931441472e-13 9.534400043564525418e-14 1.601785381850212575e-14
6.061000000000000000e+03 4.229682922363281250e+01 -6.922362327575683594e+00 1.334764428568809350e-14 -1.086569527929126533e-13 -2.859279314509043102e-14 -8.645214671096704273e-15
6.062000000000000000e+03 8.706861495971679688e+00 -1.089714622497558594e+01 -3.699452988956478117e-14 1.900244691417293796e-13 4.590898245327573735e-14 -3.003895282472843209e-14
6.063000000000000000e+03 6.892539978027343750e+01 -7.347850799560546875e+00 -4.480523753663118169e-14 -2.937079290714350588e-13 -1.015539513376725878e-13 -2.195848890088406002e-14
6.064000000000000000e+03 7.286227416992187500e+01 -7.716068744659423828e+00 -2.203368340374361328e-14 -2.153222804050780592e-13 -7.120678694036083889e-14 7.033016882632484035e-14
6.065000000000000000e+03 3.975383377075195312e+01 -1.592155265808105469e+01 -6.186917704499236836e-14 -3.467720088943387902e-13 -1.225923523936675585e-13 2.427442199071788709e-13
6.066000000000000000e+03 7.183097076416015625e+01 8.566291809082031250e+00 3.846521032599284698e-15 -8.985339057000774066e-14 -2.580206014124453162e-14 2.312109074890152799e-14
6.067000000000000000e+03 7.992019653320312500e+00 -3.100115394592285156e+01 -1.030733590384573517e-13 -2.386158219798428792e-13 -1.025067549831164271e-13 -1.616525788011510811e-14
6.068000000000000000e+03 7.206524658203125000e+01 -2.606049919128417969e+01 3.351021581532095950e-14 -3.402083302572744827e-13 -9.200943501021241477e-14 -1.232859842860423161e-13
6.069000000000000000e+03 7.210732269287109375e+01 -1.078333950042724609e+01 7.911974840481977855e-14 -4.693519878307128579e-13 -1.170696704725152082e-13 -1.249389182606322479e-13
6.070000000000000000e+03 7.274686431884765625e+01 -1.003306102752685547e+01 5.669108167931022346e-14 -3.874623603732085808e-13 -9.923138699630129622e-14 -1.470992652772423748e-13
6.071000000000000000e+03 5.673286914825439453e+00 -9.298721313476562500e+00 8.427911417797223637e-14 3.611961939395044729e-14 3.611961939395044729e-14 -6.981505759791339916e-14
6.072000000000000000e+03 7.425389862060546875e+01 -1.647092247009277344e+01 6.344956434171586390e-14 -2.473130207569784744e-13 -5.515903624695242535e-14 -1.890430493351955010e-14
6.073000000000000000e+03 8.356301307678222656e+00 -2.833476448059082031e+01 1.423575070758770211e-14 2.348557817406088377e-13 7.472746244496439316e-14 -4.229902967603157982e-14
6.074000000000000000e+03 7.730944633483886719e+00 -2.775803756713867188e+01 -9.473951706690311725e-15 -1.069998988500672765e-13 -3.494215550584045538e-14 -1.253539474641279100e-14
6.075000000000000000e+03 5.933079528808593750e+01 -3.348490715026855469e+00 -1.337044217746344299e-13 3.420000217811518251e-14 -2.985132486251623751e-14 -1.193107841256785262e-13
6.076000000000000000e+03 7.372172546386718750e+01 4.420467376708984375e+00 -2.941473020018348095e-14 -3.786139153930112577e-13 -1.224085936779584216e-13 1.417554902670772887e-13
6.077000000000000000e+03 7.352032470703125000e+01 -9.393471717834472656e+00 2.379477332130255224e-14 -3.100588904549061997e-13 -8.587923395423496808e-14 1.577927343638079599e-14
6.078000000000000000e+03 7.006806945800781250e+01 -4.014447021484375000e+01 -6.217078176058710159e-14 -1.753352102179181471e-13 -7.125179488304614339e-14 -6.888078025709190588e-14
6.079000000000000000e+03 6.907878112792968750e+01 -3.111793136596679688e+01 2.628234984519434853e-14 -2.174908744854292530e-13 -5.736256196604838653e-14 -1.233134146010061993e-13
6.080000000000000000e+03 6.758213043212890625e+01 -3.417401504516601562e+01 -5.334595205895922843e-14 -2.516173033817459270e-13 -9.148897730983790444e-14 -3.632874844049574503e-14
6.081000000000000000e+03 8.348377227783203125e+00 -2.962831115722656250e+01 -3.204932453866431163e-14 -2.053175202553977896e-13 -7.121005309940545147e-14 -2.086678540461767151e-14
6.082000000000000000e+03 6.792326354980468750e+01 -3.596448898315429688e+01 -3.304928420234769237e-14 -1.514168293786227748e-13 -5.533983373547796125e-14 -4.739361436937802874e-14
6.083000000000000000e+03 1.024151802062988281e+01 -3.347678756713867188e+01 -6.124975879132424361e-14 6.525200301962796878e-14 1.200672696743878155e-15 -3.058508917593190379e-14
6.084000000000000000e+03 1.093387317657470703e+01 -3.221778488159179688e+01 -4.677846177363227664e-15 -1.392576375394694033e-13 -4.318064528445637873e-14 8.099026650883450057e-15
6.085000000000000000e+03 1.018887042999267578e+01 -3.957310867309570312e+01 -4.968403211633512506e-14 -7.419269327591307417e-14 -3.716301829530081757e-14 -6.000279330879319459e-15
6.086000000000000000e+03 1.193734550476074219e+01 -3.293553161621093750e+01 -1.350898034521751459e-14 6.283686136525357124e-14 1.479836354368116447e-14 1.654326666161807374e-14
6.087000000000000000e+03 7.132038116455078125e+01 -3.463508224487304688e+01 1.925237448846886523e-14 -2.662546832316037282e-13 -7.410069194531410108e-14 -9.608845430485526973e-14
6.088000000000000000e+03 6.911635589599609375e+01 -3.242735671997070312e+01 2.369362911707091623e-14 -3.558531778708601268e-13 -9.964786293207086865e-14 -1.651901272020639411e-13
6.089000000000000000e+03 6.867326354980468750e+01 -3.794704437255859375e+01 -3.523549317986998664e-14 -2.552933992677752784e-13 -8.715867383293079973e-14 -6.188651072722498037e-14
6.090000000000000000e+03 7.180924987792968750e+01 -3.849648284912109375e+01 -7.052590797603994210e-14 -3.504820403083669378e-13 -1.263023838076957062e-13 4.077735531507996336e-14
6.091000000000000000e+03 6.616796493530273438e+00 -2.319953155517578125e+01 7.079940983251067216e-15 -8.846763789203612727e-14 -2.441630915733881274e-14 8.720341072507298286e-14
6.092000000000000000e+03 7.221179199218750000e+01 1.422790408134460449e+00 -2.330171645914536072e-13 -3.286192390254683016e-13 -1.684909265060874350e-13 1.646630287633829570e-13
6.093000000000000000e+03 7.017790985107421875e+01 5.101632118225097656e+00 -8.302142610536189515e-14 -7.025125246069505169e-14 -4.598180356981708405e-14 7.507261143031157546e-14
6.094000000000000000e+03 7.071761322021484375e+01 4.523293018341064453e+00 -1.543779887995880284e-13 -6.616199423178578676e-14 -6.616199423178578676e-14 1.130645124508729282e-13
6.095000000000000000e+03 7.176029968261718750e+01 4.513659954071044922e+00 -1.660567164460044487e-13 -1.226369808655924931e-13 -8.660810919347908254e-14 1.622144259194602256e-13
6.096000000000000000e+03 4.168204116821289062e+01 -1.047168731689453125e+01 -1.028132318322237670e-13 -1.927533924573482382e-13 -8.866999067500339060e-14 -1.285289013891119381e-13
6.097000000000000000e+03 4.144924545288085938e+01 -1.152862453460693359e+01 -1.580308861472579790e-14 -1.440255927758274379e-13 -4.794860729707799141e-14 -6.249308796141272992e-14
6.098000000000000000e+03 4.005411911010742188e+01 -9.127164840698242188e+00 2.052239874892301807e-14 -3.695563413662686369e-14 -4.929971039827627313e-15 8.749058877551008084e-14
6.099000000000000000e+03 4.088845062255859375e+01 -8.858658790588378906e+00 -3.384199862076046894e-14 -1.975075105634799266e-13 -6.940484970595350855e-14 1.128693763886162715e-13
6.100000000000000000e+03 3.560243988037109375e+01 -1.158309268951416016e+01 -3.535737444471630242e-14 3.059778789387714026e-14 -1.427876367592398592e-15 3.625011667793623382e-14
6.101000000000000000e+03 4.050253677368164062e+01 -9.532241821289062500e+00 -3.699076736921307756e-15 -1.845891197055707367e-13 -5.648645545991252959e-14 -1.223060281524412929e-13
6.102000000000000000e+03 3.690858078002929688e+01 -1.123074913024902344e+01 -7.093216530633383865e-14 -3.039950086905669757e-14 -3.039950086905669757e-14 -8.207198348665276089e-14
6.103000000000000000e+03 1.024343872070312500e+01 -8.630281448364257812e+00 7.396825664994499672e-14 -5.980121725503856345e-14 4.250111479658751079e-15 1.890403117247099751e-13
6.104000000000000000e+03 6.391333770751953125e+01 -1.368117094039916992e+00 1.604514522006265931e-14 -2.161593793499269611e-13 -6.003427328827790066e-14 -9.717927011059293574e-14
6.105000000000000000e+03 6.547624206542968750e+01 -1.333586454391479492e+00 -1.005713321324853970e-13 -4.310199658123792243e-14 -4.310199658123792243e-14 -1.585315131122713717e-13
6.106000000000000000e+03 7.252277374267578125e+01 -2.040566062927246094e+01 -6.734034581042450118e-14 -4.406186786959365165e-13 -1.523877053190292319e-13 3.224801136303585836e-14
6.107000000000000000e+03 6.245677947998046875e+01 -4.223966121673583984e+00 -2.116134958235482699e-14 -1.005710475294151196e-13 -3.651972048878369959e-14 -9.839504699297313417e-14
6.108000000000000000e+03 6.483480834960937500e+01 -1.663454771041870117e+00 -6.495707292365759944e-14 2.009159982482855433e-13 4.078767895264109877e-14 -9.117374552818774402e-14
6.109000000000000000e+03 4.538496780395507812e+01 -6.051125526428222656e+00 -1.242482950292861377e-13 -2.820040208295626627e-13 -1.218756947576546401e-13 1.181773727270893359e-13
6.110000000000000000e+03 4.456290054321289062e+01 -5.864588260650634766e+00 -7.094317673464814455e-14 -7.615516697074761754e-14 -4.412950175636601302e-14 1.861531423257532791e-14
6.111000000000000000e+03 4.348472595214843750e+01 -7.513163089752197266e+00 -4.723765188686598893e-14 7.125718878885425878e-14 7.205861748222838759e-15 -6.944678800123796347e-14
6.112000000000000000e+03 6.357394027709960938e+01 -5.196671962738037109e+00 -3.960019974696277201e-14 -1.697151466128858643e-14 -1.697151466128858643e-14 5.075956067144074546e-14
6.113000000000000000e+03 6.590583801269531250e+01 -4.934740364551544189e-01 -1.366512561743957188e-13 -1.729421998403896099e-13 -9.287803680443559862e-14 -1.117891654353782294e-13
6.114000000000000000e+03 7.694120407104492188e+00 -1.408416080474853516e+01 -3.006017227060657319e-15 -1.728543523593639719e-13 -5.275811119356474399e-14 -2.387001186987536272e-14
6.115000000000000000e+03 4.334642028808593750e+01 -8.236772537231445312e+00 -1.391572471945608236e-14 -3.262205230340070594e-13 -1.020408733095994058e-13 -1.408583536269270020e-13
6.116000000000000000e+03 7.926871776580810547e+00 -1.295230007171630859e+01 1.022648627021713330e-13 -9.342505068177242578e-14 2.651943479064730082e-15 -3.256261295217326157e-14
6.117000000000000000e+03 4.206053161621093750e+01 -9.552490234375000000e+00 -1.132650627477284344e-13 -1.972327601804449437e-13 -9.314934484557294003e-14 -1.140416699876162232e-13
6.118000000000000000e+03 6.423023986816406250e+01 -2.102672815322875977e+00 -9.171731706362692971e-14 1.894473212202610335e-13 2.931900192461658894e-14 -1.776449538685997975e-13
6.119000000000000000e+03 3.812101364135742188e+01 -1.179725837707519531e+01 -1.007495292298628622e-14 -3.703254337298483856e-13 -1.141201120147955494e-13 -1.411535818784948049e-13
6.120000000000000000e+03 6.573262023925781250e+01 -1.971724033355712891e+00 -9.896028224307129584e-14 9.484129654584519398e-14 -1.235695285651356931e-15 -1.604064239291505545e-13
6.121000000000000000e+03 6.671148681640625000e+01 -6.614628314971923828e+00 5.741080896272399148e-14 -2.956520119869188168e-13 -7.147235548624758517e-14 1.152914332199720532e-14
6.122000000000000000e+03 8.997563362121582031e+00 -2.901526641845703125e+01 9.913505902140774817e-15 -2.245060962222794609e-13 -6.437777692663501639e-14 -7.723600134023483887e-14
6.123000000000000000e+03 3.577412414550781250e+01 -1.092844295501708984e+01 5.030289132825806198e-14 4.443385424684163920e-14 2.842102333371673145e-14 -9.357967824035959281e-14
6.124000000000000000e+03 7.324232578277587891e+00 -6.370941162109375000e+00 8.830975095066792568e-14 1.979753573534345779e-13 8.588553587936254008e-14 4.481258978261334902e-14
6.125000000000000000e+03 7.906974315643310547e+00 -7.801197052001953125e+00 7.290515576224149141e-14 -1.174455227081344644e-13 -1.336210906732835518e-14 9.992930148725737149e-14
6.126000000000000000e+03 4.502236557006835938e+01 -6.935111999511718750e+00 -8.354546844916918569e-14 -3.103108861448461431e-13 -1.181569084110836720e-13 5.584131450970218624e-14
6.127000000000000000e+03 7.219744873046875000e+01 -1.149625587463378906e+01 7.705196479771900253e-14 -3.787362676081762469e-13 -9.050528745500538430e-14 -6.383331770066710820e-14
6.128000000000000000e+03 7.271081542968750000e+01 -1.069383430480957031e+01 1.245750600115461126e-13 -3.126182852083297936e-13 -5.641296688140874649e-14 -2.529613074998132705e-14
6.129000000000000000e+03 7.230168151855468750e+01 -1.269691824913024902e+00 -3.093029847002493060e-13 -2.126225763380076850e-13 -1.565776723772352441e-13 -1.251514557677572970e-14
6.130000000000000000e+03 7.267962646484375000e+01 -2.791808128356933594e+00 -1.924728958027990822e-13 -1.511148113109497815e-13 -1.030763134893773747e-13 -6.351663579861124842e-14
6.131000000000000000e+03 7.274560546875000000e+01 -3.671122074127197266e+00 -8.607073116295022031e-14 -2.885176635363667641e-13 -1.123765251860586734e-13 -4.022158650520031575e-14
6.132000000000000000e+03 7.182965087890625000e+01 -4.536196231842041016e+00 -1.132562332762862556e-13 -1.857912288643140397e-13 -8.971423999743280420e-14 -1.091583082062606846e-13
6.133000000000000000e+03 6.770068359375000000e+01 -6.849920749664306641e+00 9.707089055092585350e-14 6.447728635727845159e-14 4.846445375008764933e-14 -5.919062169654903949e-14
6.134000000000000000e+03 7.094837951660156250e+01 2.136304855346679688e+00 -2.881041217227264806e-13 -2.378505649814482981e-13 -1.577863951692307087e-13 7.654379923947504660e-14
6.135000000000000000e+03 7.272299194335937500e+01 1.400156617164611816e+00 -2.515725800421309000e-13 -4.738244302124328122e-13 -2.176190949448528200e-13 2.181865053755595307e-14
6.136000000000000000e+03 7.182337188720703125e+01 -6.318559169769287109e+00 -5.697862564798053531e-14 -2.074232035046905120e-13 -7.932054942342767201e-14 -1.344432106874932087e-13
6.137000000000000000e+03 7.235564422607421875e+01 -6.383141040802001953e+00 -2.760521845834862376e-13 -3.928137654561625336e-13 -2.006597877224000626e-13 -9.920129360975124544e-14
6.138000000000000000e+03 7.135755157470703125e+01 -8.515034675598144531e+00 7.779380980545147484e-14 -4.012937985381492823e-13 -9.704999933031477344e-14 -7.501296675829771665e-14
6.139000000000000000e+03 7.184902954101562500e+01 -5.152455329895019531e+00 -1.433560979343176389e-13 -4.503213936728894806e-13 -1.781032461269094203e-13 -1.451056207699488731e-13
6.140000000000000000e+03 6.824609756469726562e+00 -1.539538860321044922e+01 3.813710618464326296e-14 -7.515742314525425405e-14 -1.110609525758988678e-14 1.642045738747474615e-13
6.141000000000000000e+03 7.212648010253906250e+01 7.015209197998046875e-01 -2.572030045541739973e-13 -2.017317519628636369e-13 -1.376804215341004278e-13 -1.625993922295919381e-14
6.142000000000000000e+03 7.267472839355468750e+01 -6.096004843711853027e-01 -2.959074500187564016e-13 1.476882174498636568e-13 -4.446577044829418124e-14 8.608483934371968793e-14
6.143000000000000000e+03 7.220373535156250000e+01 7.595709323883056641e+00 -1.133506859202345826e-14 -1.421107291088921643e-13 -4.603374024201092873e-14 1.177116943414796557e-13
6.144000000000000000e+03 7.216645812988281250e+01 6.101939201354980469e+00 -4.245754680991253860e-14 -2.927017894553685107e-13 -1.005477981690788836e-13 1.559001544396490524e-13
6.145000000000000000e+03 6.265923690795898438e+01 -1.588386893272399902e+00 -7.375056918250064153e-14 1.414356133567443857e-14 -1.788210218464127144e-14 -5.664472187204110110e-14
6.146000000000000000e+03 6.187800598144531250e+01 -1.896898508071899414e+00 -5.128388084205473541e-14 -6.772975734946340420e-14 -3.570409213508179969e-14 -5.806219762795328254e-14
6.147000000000000000e+03 4.267424392700195312e+01 -7.965068817138671875e+00 -3.168272190282907241e-14 -1.050802104834644424e-13 -4.102888005470123334e-14 -5.183323253032598443e-14
6.148000000000000000e+03 4.290787506103515625e+01 -7.238186836242675781e+00 -7.745506438918553505e-14 -2.619497771905870964e-13 -1.018214511186790738e-13 -1.306217639477150194e-13
6.149000000000000000e+03 7.296057891845703125e+01 9.440571784973144531e+00 -1.731162142890735334e-13 -3.486983651043024102e-13 -1.565443738180127831e-13 5.749251714894793031e-14
6.150000000000000000e+03 6.715901947021484375e+01 7.971619367599487305e-01 -1.927736196041286709e-14 2.204930167485144588e-13 6.036469745287001420e-14 -2.635010265539250440e-13
6.151000000000000000e+03 3.934474945068359375e+01 -1.331394100189208984e+01 -7.341658747953005992e-14 -7.721519821105027326e-14 -4.518953638480045776e-14 7.528924180063775728e-14
6.152000000000000000e+03 6.166881179809570312e+01 -4.431566715240478516e+00 -5.108189058918889691e-14 6.960965549633602034e-14 5.558330149770494832e-15 -2.401009248462638440e-14
6.153000000000000000e+03 6.141167068481445312e+01 -5.746575355529785156e+00 -1.515739980360517047e-13 1.480675662374891788e-13 -1.051930746590707625e-15 -7.249162072486478592e-14
6.154000000000000000e+03 6.710416412353515625e+01 1.739857345819473267e-01 -2.323810496243292056e-14 -5.571013621122680726e-14 -2.368447269091109725e-14 -1.111646717602901568e-13
6.155000000000000000e+03 6.657669067382812500e+01 3.722392916679382324e-01 -2.187177712163410059e-13 2.951468821947578203e-13 2.292873126064597089e-14 -1.351974782804301126e-14
6.156000000000000000e+03 7.165906524658203125e+01 -2.661071777343750000e+01 1.242031786663835846e-13 -6.114743721129592413e-14 1.891672243652629815e-14 5.533877579132684063e-15
6.157000000000000000e+03 6.863464355468750000e+01 4.470869541168212891e+00 -5.544476078885203496e-14 -2.067658381749853946e-13 -7.866317731745897657e-14 -2.396087309412733152e-14
6.158000000000000000e+03 8.822041511535644531e+00 -8.154257774353027344e+00 1.678656671132150446e-13 -1.110613676220430224e-13 1.704128815328571217e-14 -1.625757769510224882e-14
6.159000000000000000e+03 6.005312728881835938e+01 -5.292739391326904297e+00 9.198364878619915211e-16 2.405866846889870292e-13 7.245195925414255056e-14 -2.283334112063162280e-13
6.160000000000000000e+03 7.227526664733886719e+00 -9.427661895751953125e+00 2.030216950501054218e-13 -1.874963942785634607e-13 4.657590654979061953e-15 5.588697551478982381e-15
6.161000000000000000e+03 7.348465919494628906e+00 -1.003392028808593750e+01 4.981843930440543744e-14 -2.440019012035256341e-14 7.625475094029041112e-15 6.642090171057532522e-14
6.162000000000000000e+03 8.710282325744628906e+00 -1.008768939971923828e+01 1.501093832025589270e-14 -1.079441101932941682e-13 -2.787995223953784046e-14 1.393850719523179182e-13
6.163000000000000000e+03 7.230433654785156250e+01 -2.315543556213378906e+01 -2.617733808852554939e-14 -3.886641984814087625e-13 -1.244524638508923142e-13 -6.388539328626430258e-14
6.164000000000000000e+03 7.163614654541015625e+01 -2.359072494506835938e+01 -2.923150680929700873e-14 -5.157882042479411400e-13 -1.635059139947978024e-13 9.812825194337876367e-14
6.165000000000000000e+03 6.965892791748046875e+01 4.515185832977294922e+00 -1.951885240892778373e-13 -1.422706353768066201e-13 -1.012377505503307684e-13 5.172496139087615075e-14
6.166000000000000000e+03 7.277429199218750000e+01 4.492671966552734375e+00 -1.690441135595438515e-13 -2.554512591040891678e-13 -1.273486117990899058e-13 2.150451854348450764e-13
6.167000000000000000e+03 4.015041732788085938e+01 -1.546845626831054688e+01 -5.308884346639142129e-16 -3.290624608735803758e-13 -9.887800485070680212e-14 9.081242837794337164e-14
6.168000000000000000e+03 6.777165985107421875e+01 1.354590296745300293e+00 -2.036688824319163316e-13 9.571712861330614053e-14 -3.238552546795669951e-14 -1.789852039366449099e-13
6.169000000000000000e+03 7.090195465087890625e+01 -2.745444297790527344e+01 7.596566875978788547e-14 -3.792018240210415225e-13 -9.097085064413423794e-14 -5.595189974316391868e-14
6.170000000000000000e+03 7.118317413330078125e+01 -2.885534858703613281e+01 2.521837143135748777e-14 -2.179468763666495001e-13 -5.781855029474147756e-14 -8.196146940395859781e-14
6.171000000000000000e+03 7.141445922851562500e+01 7.163868904113769531e+00 1.142460692021840529e-13 -4.253929565371794563e-14 2.151203138691347438e-14 5.432140536541264775e-14
6.172000000000000000e+03 7.171373748779296875e+01 5.603600502014160156e+00 -2.204159164215235833e-13 -2.774677460449376243e-13 -1.493650987399383623e-13 1.062769054076088959e-13
6.173000000000000000e+03 7.137630462646484375e+01 2.806806087493896484e+00 -5.378000562245022209e-14 2.842124356228301757e-14 -7.607628956863340258e-15 1.366375681219680893e-13
6.174000000000000000e+03 7.240229034423828125e+01 2.870556592941284180e+00 -1.236448281000807059e-13 -7.239693091169122768e-15 -3.926535745851778003e-14 5.063350861636214950e-14
6.175000000000000000e+03 7.279884338378906250e+01 -9.322731971740722656e+00 7.223942174701750152e-14 -1.062930939012968201e-13 -1.021610079925084832e-14 -1.829651305408543788e-14
6.176000000000000000e+03 6.111819076538085938e+01 -4.389568805694580078e+00 -6.538931722477325792e-14 -7.377494340259083128e-14 -4.174927818820922676e-14 -1.383505397918594060e-13
6.177000000000000000e+03 7.162628173828125000e+01 -8.700956106185913086e-01 -1.500986428247877424e-13 7.292486113672641546e-14 -2.315213450641839810e-14 1.237827521689480181e-13
6.178000000000000000e+03 6.809300231933593750e+01 -6.611927509307861328e+00 5.146008063574257496e-14 -1.609494736922942315e-13 -3.284681961103139147e-14 -2.215264511542733294e-13
6.179000000000000000e+03 6.781781768798828125e+01 -7.222189903259277344e+00 6.913164431101431751e-14 -6.187404917850497510e-14 2.177277226851734478e-15 -8.685644570108688733e-14
6.180000000000000000e+03 7.207937622070312500e+01 -1.006586265563964844e+01 1.075565282454213345e-13 -2.284100371948566410e-13 -3.625605268483059196e-14 -1.726968719938104524e-14
6.181000000000000000e+03 6.915999603271484375e+01 3.962435722351074219e+00 -2.967422382577251938e-14 3.303342435744330285e-14 1.007759990094645591e-15 -1.895703646143109822e-13
6.182000000000000000e+03 7.021497344970703125e+01 -2.887695312500000000e+01 9.906517202699569036e-14 -4.150529746282938248e-13 -9.479634281326851375e-14 -1.185757086052605103e-13
6.183000000000000000e+03 6.969992065429687500e+01 -8.007022857666015625e+00 5.141102048743760589e-14 -2.982233600692940634e-13 -7.404369679235925372e-14 -6.287913614437632293e-16
6.184000000000000000e+03 3.995133590698242188e+01 -1.006213951110839844e+01 1.668203098716906224e-14 -8.435245367867730271e-14 -2.030112833211177720e-14 7.444340825203676903e-14
6.185000000000000000e+03 7.062715911865234375e+01 -9.489006042480468750e+00 5.186752720029441655e-14 -5.267824479578131491e-13 -1.424744789377610510e-13 -1.314545125313468232e-13
6.186000000000000000e+03 9.078009605407714844e+00 -7.700850963592529297e+00 7.095697320729302260e-14 -1.068427166401111905e-13 -1.076572269103227147e-14 -7.459312979579343916e-14
6.187000000000000000e+03 6.642449188232421875e+01 -5.729215621948242188e+00 -5.903170476311697668e-14 -7.105024847544466615e-14 -3.902458664919485065e-14 -4.420446756032980762e-14
6.188000000000000000e+03 6.709346771240234375e+01 -6.950987339019775391e+00 -2.700763027661031573e-14 -1.316709328375020860e-13 -4.760357012007984667e-14 -1.276811637104455222e-13
6.189000000000000000e+03 7.024214935302734375e+01 -2.989355087280273438e+01 5.742376517868519326e-14 -3.642728751019480571e-13 -9.205473433223157476e-14 -1.250398981404721166e-13
6.190000000000000000e+03 6.560691070556640625e+01 -5.269520759582519531e+00 -2.006959594173796102e-13 -4.026160372976039792e-14 -7.228726894414200244e-14 3.451012126889571596e-14
6.191000000000000000e+03 7.128692150115966797e+00 -2.930919837951660156e+01 -6.608189879629342012e-14 -2.832081425385886420e-14 -2.832081425385886420e-14 -4.450056317363559888e-14
6.192000000000000000e+03 7.583971500396728516e+00 -7.102877616882324219e+00 3.000419059257311560e-14 9.292309895722952739e-14 3.687818822019350851e-14 2.888843813686828299e-14
6.193000000000000000e+03 7.369467735290527344e+00 -7.979570865631103516e+00 6.928163012905053098e-14 -9.612298614404893304e-14 -8.052406804499520621e-15 3.761344669972813137e-14
6.194000000000000000e+03 7.250235080718994141e+00 -1.059019660949707031e+01 8.119367808298583178e-14 3.479729254306923591e-14 3.479729254306923591e-14 3.977290214161139856e-15
6.195000000000000000e+03 6.756781768798828125e+01 -3.255015182495117188e+01 -1.341342147624007344e-14 -6.293729236774361913e-14 -2.290521423789840250e-14 -2.456797210061058973e-14
6.196000000000000000e+03 4.375505065917968750e+01 -3.471198654174804688e+01 -4.097234229953790330e-14 -2.120011116527389938e-13 -7.589203787974896365e-14 1.052239638330747587e-14
6.197000000000000000e+03 7.293321228027343750e+01 -4.149625778198242188e+01 -5.349921758856721055e-14 -3.088716619709802602e-13 -1.087112645454905990e-13 2.985189745678858142e-14
6.198000000000000000e+03 8.842146873474121094e+00 -3.733360290527343750e+01 -1.492912340788059983e-14 -2.927367210941132780e-14 -1.326083865518757829e-14 -2.298227390730780972e-14
6.199000000000000000e+03 7.082291412353515625e+01 -3.335490798950195312e+01 4.469288031024379326e-15 -4.098431392440121668e-13 -1.216121523145777261e-13 -5.425814894491169660e-14
6.200000000000000000e+03 6.612374877929687500e+01 -3.868752288818359375e+01 -1.075681495374576635e-13 -3.466289890752607961e-14 -4.266931521112148074e-14 6.744057267797426078e-15
6.201000000000000000e+03 7.020343017578125000e+01 3.938727140426635742e+00 2.646506162818067914e-14 1.485950170418762206e-13 5.251802478686319609e-14 7.394243230944910761e-14
6.202000000000000000e+03 6.139141082763671875e+01 -4.900773525238037109e+00 -2.527636032336605387e-13 -5.471285994792032814e-14 -9.224293827684790226e-14 -2.093159867167567606e-14
6.203000000000000000e+03 6.990227508544921875e+01 8.055054545402526855e-01 -2.688751185673382560e-13 -4.660576869634606989e-14 -9.464426312978668765e-14 1.848829317180507303e-14
6.204000000000000000e+03 6.627886199951171875e+01 -1.841671824455261230e+00 -1.361162972699642149e-13 -3.557167310274528260e-13 -1.475499139102359747e-13 -5.225947983817508247e-14
6.205000000000000000e+03 6.613461303710937500e+01 -1.142627239227294922e+00 -2.720843129521820919e-14 1.713430422935549591e-13 4.324038143602854101e-14 -9.649784904518579620e-14
6.206000000000000000e+03 7.175912475585937500e+01 -6.972035884857177734e+00 -1.423467734743694146e-13 -3.355114580258500290e-13 -1.433574667395604019e-13 -1.717869282154976807e-13
6.207000000000000000e+03 7.211435699462890625e+01 -8.541234016418457031e+00 2.336300844083503969e-14 -1.729910838058415501e-13 -4.488841956018334300e-14 1.073436044912723375e-13
6.208000000000000000e+03 6.419351959228515625e+01 -5.719577789306640625e+00 2.515611789786608571e-14 -5.784522844444819900e-14 -9.806734011007581242e-15 -2.137905331283176946e-13
6.209000000000000000e+03 6.300417709350585938e+01 -3.266629457473754883e+00 -1.706869509014025121e-13 -1.646534471266836164e-13 -1.006021166979204073e-13 4.579601875129811484e-14
6.210000000000000000e+03 6.356499099731445312e+01 -3.106192111968994141e+00 -3.938147551119097756e-14 1.203750776357717656e-13 2.429807860449516299e-14 -8.547425056149374201e-14
6.211000000000000000e+03 4.239812850952148438e+01 -8.732833862304687500e+00 -2.157819482448940229e-14 -2.036893331953948394e-13 -6.758025942240480921e-14 -1.549379114590410111e-13
6.212000000000000000e+03 3.886956787109375000e+01 -1.088666725158691406e+01 -1.720268646973675646e-15 -9.223915712177135906e-14 -2.818782669300815003e-14 1.198133389376798696e-13
6.213000000000000000e+03 6.295513153076171875e+01 -2.251490592956542969e+00 -7.964060590474539292e-14 1.946230584462180224e-13 3.449473576244178885e-14 -5.596669232655476778e-14
6.214000000000000000e+03 6.597338104248046875e+01 -5.587277889251708984e+00 -6.625513397466586962e-14 -2.342743241155048617e-13 -9.015883742705121939e-14 2.496761410358643019e-14
6.215000000000000000e+03 6.526876068115234375e+01 -4.866029262542724609e+00 -4.503028847324425533e-16 -9.169488763118363583e-14 -2.764355550835453229e-14 -1.007594141043573199e-13
6.216000000000000000e+03 4.374269866943359375e+01 -6.971793651580810547e+00 -1.296344623443954069e-13 -2.843123685699472381e-13 -1.241840560505663715e-13 -7.879955639823049696e-14
6.217000000000000000e+03 7.091242218017578125e+01 -5.150412321090698242e-01 -2.958347271580369364e-13 -2.182882103156022491e-13 -1.542368798868390400e-13 8.572184845637154105e-14
6.218000000000000000e+03 7.218633270263671875e+01 -3.786851406097412109e+00 -1.758548547666632933e-13 -7.536636245641936682e-14 -7.536636245641936682e-14 -1.028062251756840795e-13
6.219000000000000000e+03 7.169800567626953125e+01 -3.944318771362304688e+00 -1.099704637248788419e-13 -4.588887321348156245e-13 -1.706577587579083399e-13 -6.597271963752412982e-14
6.220000000000000000e+03 7.041370391845703125e+01 -5.057178020477294922e+00 -3.606326629196961869e-15 -1.387984101567860118e-13 -4.272142128990477628e-14 5.342087720534155482e-14
6.221000000000000000e+03 7.102748870849609375e+01 -6.238413333892822266e+00 -1.009551464778088437e-15 -3.206893030207463857e-13 -9.650966007260231017e-14 -5.603008427232727962e-14
6.222000000000000000e+03 7.151729583740234375e+01 -5.737426280975341797e+00 6.129653533880341509e-14 -1.335903094959803306e-13 -2.168813292477943244e-14 -8.932972092069724201e-15
6.223000000000000000e+03 7.038437652587890625e+01 -7.770848751068115234e+00 -6.266508033069332056e-16 -5.264044950804847023e-13 -1.581093383388326723e-13 7.655200021247036274e-15
6.224000000000000000e+03 7.141619873046875000e+01 1.006933331489562988e+00 -2.467590747620013181e-13 -5.632633573969536567e-13 -2.430067323581919236e-13 1.852417145457169179e-13
6.225000000000000000e+03 6.819937896728515625e+01 -1.077183485031127930e+00 -1.010937820543518495e-13 -8.907685786901931024e-14 -5.705119265463770573e-14 4.338266603050831838e-14
6.226000000000000000e+03 7.193827056884765625e+01 -1.151256710290908813e-01 -1.910112421964899054e-13 -1.733638596177963787e-13 -1.093125291890331696e-13 1.308392820085699237e-13
6.227000000000000000e+03 3.943160247802734375e+01 -1.229670047760009766e+01 -2.613199980299081571e-14 -3.314560811148309361e-13 -1.072764178378961264e-13 -4.286316378329831089e-14
6.228000000000000000e+03 4.405751800537109375e+01 -7.542013645172119141e+00 -1.790455914565535107e-15 -2.295220762581207108e-13 -6.939376373873984427e-14 -5.527013986457787742e-14
6.229000000000000000e+03 7.183675384521484375e+01 3.404524803161621094e+00 -1.802580301820885800e-13 -3.517591220473376135e-13 -1.596051443135751424e-13 1.295044665039143950e-13
6.230000000000000000e+03 7.127029418945312500e+01 3.950841426849365234e+00 -1.809668781743278138e-14 8.374617460008698666e-14 1.969484586538967213e-14 1.041149385130370197e-13
6.231000000000000000e+03 9.501289367675781250e+00 -8.488260269165039062e+00 -4.537756075843196735e-14 -8.807395053067948454e-14 -4.003545270910707776e-14 -1.139482591941930190e-14
6.232000000000000000e+03 7.891528129577636719e+00 -9.357931137084960938e+00 1.000345707419421359e-13 -2.878989178268587593e-15 2.914667476556359604e-14 9.295090196669020255e-14
6.233000000000000000e+03 7.009142303466796875e+01 -2.724215984344482422e+00 -1.149462355302304038e-15 -1.834964200985583771e-13 -5.539376601729553706e-14 -3.992403060709345808e-14
6.234000000000000000e+03 7.145121002197265625e+01 -1.091874885559082031e+01 1.100205674177748283e-13 -3.646068635811822167e-13 -7.637589020427493214e-14 -5.378764924776624490e-14
6.235000000000000000e+03 6.998616790771484375e+01 1.478525042533874512e+00 -1.563068793321298333e-13 7.026418157160194133e-14 -2.581280898934518869e-14 1.529267841917161808e-13
6.236000000000000000e+03 3.989866256713867188e+01 -1.275949192047119141e+01 2.976331633935150279e-16 -3.315668323667503303e-13 -9.938075617435190856e-14 9.883818074965869394e-14
6.237000000000000000e+03 8.747692108154296875e+00 -7.349608898162841797e+00 8.847812077179134649e-14 -5.110921993782546746e-13 -1.267842168056754204e-13 5.459239831029361056e-14
6.238000000000000000e+03 7.057440948486328125e+01 -8.615720748901367188e+00 8.173168630602745122e-14 -2.623532901341318890e-13 -5.418648318131040476e-14 -2.095391460170403786e-14
6.239000000000000000e+03 4.102622222900390625e+01 -1.006054782867431641e+01 -7.006716170807059108e-14 -1.672816345079514155e-13 -7.120463886480660198e-14 7.244440372025304220e-14
6.240000000000000000e+03 6.956441497802734375e+01 -6.121809005737304688e+00 1.671402816497136179e-13 -1.342477154832669162e-13 9.867768664087884362e-15 1.990558130991943765e-15
6.241000000000000000e+03 8.618219375610351562e+00 -9.274551391601562500e+00 4.020834229803704751e-14 4.010761991621314415e-14 2.409478900308823640e-14 -1.080959865888686533e-13
6.242000000000000000e+03 4.056869506835937500e+01 -1.156019592285156250e+01 -8.250068380191710737e-14 -4.242405038379359894e-13 -1.520223562919559290e-13 2.137411917650742371e-14
6.243000000000000000e+03 6.968568420410156250e+01 3.377804279327392578e+00 -2.357772451670042679e-13 1.277073471929110471e-13 -3.242097210273339747e-14 2.835140908391368952e-14
6.244000000000000000e+03 7.146900177001953125e+01 -2.563543128967285156e+01 -2.655239411317438653e-14 -3.373551167151073171e-13 -1.091722469804407014e-13 7.218294159009458477e-14
6.245000000000000000e+03 7.224007415771484375e+01 5.051423549652099609e+00 -3.308175266928184421e-14 -3.801854935470833086e-13 -1.239801718320304724e-13 1.238688107163890550e-13
6.246000000000000000e+03 6.092723464965820312e+01 -3.693892717361450195e+00 -1.582456903145498806e-13 -2.206863198314732571e-14 -5.409429550346303572e-14 -3.975142900936555479e-14
6.247000000000000000e+03 6.267621994018554688e+01 -3.676566600799560547e+00 -1.159929899526013219e-13 4.179061678416702563e-14 -2.226071025646439439e-14 1.420657076136797037e-13
6.248000000000000000e+03 7.176309967041015625e+01 -3.349841356277465820e+00 -2.116681294486461723e-14 -1.005733853403495415e-13 -3.652206168784991047e-14 3.195610009248950334e-14
6.249000000000000000e+03 7.193752288818359375e+01 -2.652202606201171875e+00 -1.353984741166158745e-13 -2.639071957927924261e-13 -1.197916955518116278e-13 3.289009960650429720e-14
6.250000000000000000e+03 6.217800903320312500e+01 -4.794908046722412109e+00 -1.660723967199240203e-13 6.607896467416413122e-14 -2.999803096898068233e-14 -7.909598743658340092e-15
6.251000000000000000e+03 7.208407592773437500e+01 -9.322232246398925781e+00 1.016545178654341963e-13 -5.511961330070813680e-13 -1.348624716675933533e-13 -7.175800887737962541e-14
6.252000000000000000e+03 6.161954498291015625e+01 -3.396878004074096680e+00 -1.353645047072991880e-14 1.314515038703181760e-13 3.537451839156872946e-14 -6.883712079085863023e-14
6.253000000000000000e+03 6.611473083496093750e+01 -2.424539327621459961e+00 5.012031507054329205e-14 -6.716232658996595939e-14 -5.112604048749863281e-15 3.283618765347745549e-14
6.254000000000000000e+03 6.744100189208984375e+01 -6.543775081634521484e+00 -4.369132483648778542e-14 -2.017286484341448971e-13 -7.362599435288205707e-14 -6.920534972995259770e-14
6.255000000000000000e+03 6.775463867187500000e+01 7.092633247375488281e-01 -1.868351393735645516e-14 -8.007220137862345460e-15 -8.007220137862345460e-15 5.076494441285349379e-14
6.256000000000000000e+03 9.864814758300781250e+00 -3.144181251525878906e+01 -4.355319747971313216e-14 -1.158864264315731529e-13 -4.783188615694634882e-14 -9.603093737960491372e-15
6.257000000000000000e+03 6.519153594970703125e+01 -2.342741250991821289e+00 -7.180267800688602819e-15 -4.882820696708832509e-14 -1.680254175270672057e-14 -1.371893863701817429e-13
6.258000000000000000e+03 6.459906768798828125e+01 -2.816514015197753906e+00 -7.946013367687160267e-14 -1.713071958592271571e-13 -7.523020021608234353e-14 -6.793750403823878292e-14
6.259000000000000000e+03 7.100065612792968750e+01 -5.246616840362548828e+00 -2.874532006196840739e-14 -2.296364324822636194e-13 -7.751452610208278693e-14 -2.451706033828292275e-14
6.260000000000000000e+03 6.720925140380859375e+01 -2.455971717834472656e+00 -1.385265329095081155e-13 -5.936851216799959863e-14 -5.936851216799959863e-14 7.397277641775154566e-15
6.261000000000000000e+03 6.973659515380859375e+01 1.930757015943527222e-01 -8.711134840810180746e-14 -1.745862840147466288e-13 -7.850928837160181528e-14 -1.017273288175801760e-13
6.262000000000000000e+03 6.687303161621093750e+01 -1.756867051124572754e+00 -2.902220157989868210e-14 1.248147635593555016e-13 2.873776791621068805e-14 -1.037396690360854745e-13
6.263000000000000000e+03 7.137229156494140625e+01 -1.615405797958374023e+00 -2.119497611273446491e-13 -2.738394092646062594e-13 -1.457367484070798413e-13 1.789109767454111211e-13
6.264000000000000000e+03 7.224018096923828125e+01 -7.042249202728271484e+00 3.724804007441441522e-14 -2.127912917485735855e-13 -5.266297584106092999e-14 -1.166822443787046693e-13
6.265000000000000000e+03 7.097126770019531250e+01 -7.301688671112060547e+00 -7.199183740466685855e-15 -2.775910469370035383e-13 -8.543706920324106724e-14 -9.926745704732717335e-14
6.266000000000000000e+03 6.407851409912109375e+01 -3.407361984252929688e+00 -1.427307436737551560e-13 7.608252542519108874e-14 -1.999446682982193579e-14 -1.221319323885944330e-13
6.267000000000000000e+03 6.412362670898437500e+01 -4.544860363006591797e+00 -2.301084127930008716e-13 -9.861789119700037354e-14 -9.861789119700037354e-14 -1.590236053733082300e-13
6.268000000000000000e+03 6.357645797729492188e+01 -2.340966701507568359e+00 9.837930234454957124e-15 4.216255572756996695e-15 4.216255572756996695e-15 -4.178049304638144223e-14
6.269000000000000000e+03 4.423677444458007812e+01 -6.631252288818359375e+00 -1.183652785161082299e-13 -1.879808293617571402e-13 -9.190383371861232664e-14 2.646770267691021805e-14
6.270000000000000000e+03 6.711763000488281250e+01 -4.653757095336914062e+00 -7.845280143841532050e-14 8.075474560971865334e-14 6.905820443690500153e-16 3.765770247715627406e-14
6.271000000000000000e+03 7.112472534179687500e+01 -4.056026458740234375e+00 -7.565323557499545326e-14 -1.239247148909078389e-13 -5.987338446214462984e-14 2.936220738119013629e-14
6.272000000000000000e+03 7.013407135009765625e+01 -7.025162696838378906e+00 1.188596340491801517e-13 -2.235658489932457194e-13 -3.141186448321967029e-14 -7.388177119789854363e-14
6.273000000000000000e+03 7.137172698974609375e+01 -4.746915340423583984e+00 -7.444579349681623714e-14 -4.436638773377965528e-13 -1.554329039608892682e-13 7.923569705090352522e-14
6.274000000000000000e+03 7.060997009277343750e+01 -6.731265544891357422e+00 -1.150537811859609141e-14 -3.709384687432260019e-13 -1.147331470281731658e-13 3.776093207650405015e-14
6.275000000000000000e+03 6.840443420410156250e+01 1.230195403099060059e+00 -1.337819422299671435e-13 -2.860898638216285983e-13 -1.259615377497205757e-13 -1.276395032419677666e-13
6.276000000000000000e+03 7.120722198486328125e+01 2.413570135831832886e-01 -1.987403161962317255e-13 1.435803244961147973e-13 -1.654799988172733077e-14 2.249650728832104651e-14
6.277000000000000000e+03 7.077510070800781250e+01 3.347867488861083984e+00 -1.751942639354950315e-13 -2.933231050628384851e-14 -6.135797572066545302e-14 8.962814756867387711e-14
6.278000000000000000e+03 6.912011718750000000e+01 2.884295701980590820e+00 -1.135929119321608949e-13 -1.382187143602123247e-13 -7.554348721008560807e-14 -1.200659444913418361e-13
6.279000000000000000e+03 6.860361480712890625e+01 -1.596733570098876953e+00 -1.860331414740498679e-13 -3.397753744484831306e-14 -6.600319927109812856e-14 -1.844663202570095972e-13
6.280000000000000000e+03 6.690963745117187500e+01 -4.444226920604705811e-01 -1.954861579144158423e-14 1.288748703023520625e-13 3.279787465920724898e-14 5.626395345719598096e-14
6.281000000000000000e+03 6.675505828857421875e+01 -1.092367529869079590e+00 -1.258206727824603965e-13 -3.284288260189255348e-13 -1.362748482851630638e-13 -2.875718868762533464e-14
6.282000000000000000e+03 7.942050457000732422e+00 -1.079631996154785156e+01 1.106816393636571305e-13 -1.355688022779133473e-13 -7.466149043683454473e-15 5.741391249144273123e-14
6.283000000000000000e+03 3.972459030151367188e+01 -1.101306724548339844e+01 -6.956668043272412616e-14 -2.585690450813971086e-13 -9.844071900948908604e-14 8.457922811557980203e-14
6.284000000000000000e+03 7.137577819824218750e+01 -6.709411144256591797e+00 -7.779076048684135936e-14 -2.620936508188759229e-13 -1.019653179707043222e-13 1.095081531422674448e-13
6.285000000000000000e+03 7.064966583251953125e+01 -1.299627184867858887e+00 -1.061616140590922186e-13 4.600406359567092707e-14 -1.804726344496049295e-14 -3.387956283790530265e-14
6.286000000000000000e+03 6.601349639892578125e+01 -3.421106100082397461e+00 -2.507906161658846750e-14 8.075372917018194818e-14 1.670240043548463366e-14 1.420406218859138203e-13
6.287000000000000000e+03 6.749462890625000000e+01 -4.158003807067871094e+00 -1.361781781089588250e-13 -2.413658736852980491e-13 -1.132632196040352091e-13 -1.538883630984935746e-13
6.288000000000000000e+03 6.721273803710937500e+01 -6.139496803283691406e+00 -5.119189306398291839e-15 -9.369583695061425854e-14 -2.964450652185104951e-14 -1.967155923560375691e-14
6.289000000000000000e+03 6.865248870849609375e+01 2.395715236663818359e+00 -2.060546693124706841e-13 2.319474907280794085e-13 7.767850321034174693e-15 -1.095798595634502048e-13
6.290000000000000000e+03 6.849918365478515625e+01 1.812907934188842773e+00 -1.646557103987186799e-13 6.668611111449243567e-14 -2.939088114052058887e-14 -1.135494015437263360e-13
6.291000000000000000e+03 6.631455230712890625e+01 -5.250610828399658203e+00 -1.310806254121651970e-13 -2.620566795247941672e-13 -1.179411928363405249e-13 -8.666461645545631143e-14
6.292000000000000000e+03 6.450093841552734375e+01 -3.939765453338623047e+00 -8.377866678394366162e-14 -7.021835370102369467e-14 -4.619910479023749128e-14 -7.285693587062019860e-14
6.293000000000000000e+03 6.359395599365234375e+01 -3.778475046157836914e+00 -1.744711824016101365e-13 1.672853309597332333e-14 -4.732279563872399120e-14 -1.157837389333116196e-13
6.294000000000000000e+03 3.880392456054687500e+01 -1.195926761627197266e+01 -8.610831909701757714e-14 6.603607092571517345e-14 -6.021673689061068577e-15 1.533113202091106880e-14
6.295000000000000000e+03 7.107301330566406250e+01 -3.231309413909912109e+00 -1.384523057182743266e-13 -3.567178562084716287e-13 -1.485510526437819334e-13 -4.041302611567515468e-14
6.296000000000000000e+03 6.019266891479492188e+01 -4.005875110626220703e+00 -1.108615694904446780e-13 1.812426483850312908e-13 2.111432231312326824e-14 -1.507416153706531148e-13
6.297000000000000000e+03 1.214636325836181641e+01 -3.708609390258789062e+01 -3.019721923685700360e-14 -1.158813035763081589e-13 -4.382355684394954876e-14 -2.533827572130491201e-14
6.298000000000000000e+03 1.288849735260009766e+01 -3.491279983520507812e+01 -6.017020513565327078e-14 3.140145614236380944e-14 -8.630625375613196204e-15 -7.764388497378746368e-15
6.299000000000000000e+03 6.659899139404296875e+01 -4.544425487518310547e+00 -9.212591220485524812e-14 -3.139882288633738527e-13 -1.218342375770842256e-13 -2.095184445318094835e-14
6.300000000000000000e+03 6.758586120605468750e+01 -6.847398877143859863e-01 -1.332489348894461134e-13 -2.172350027727226740e-13 -1.051451812986506362e-13 -1.426411614692535412e-13
6.301000000000000000e+03 6.756481933593750000e+01 -5.139853954315185547e+00 -3.545811037906736185e-14 -2.439510724504267980e-13 -8.382275993104593148e-14 -1.379733051984702308e-13
6.302000000000000000e+03 6.503723144531250000e+01 -3.391284704208374023e+00 -9.227717873670771009e-14 1.606130322056448234e-13 2.050075705712067070e-14 -1.051866452554846287e-13
6.303000000000000000e+03 7.030040740966796875e+01 -1.014568284153938293e-01 -1.269570657370239219e-13 -1.001611174642619284e-13 -6.813545224988032389e-14 1.066231928052371880e-13
6.304000000000000000e+03 6.774896240234375000e+01 9.457234293222427368e-03 1.189297277196313396e-14 9.659888313513428915e-14 3.254755609450286913e-14 -2.723669170247040167e-14
6.305000000000000000e+03 6.357200622558593750e+01 -4.505419254302978516e+00 -1.326932948285744485e-13 -3.399308219349632398e-14 -5.000591480068712624e-14 3.647354787579592042e-15
6.306000000000000000e+03 6.492157745361328125e+01 -4.401036262512207031e+00 -1.393878231153306002e-13 1.690171033729218064e-13 8.888783230244414607e-15 -5.307236041699608942e-14
6.307000000000000000e+03 7.054272460937500000e+01 5.720552206039428711e-01 -2.881181892459144800e-13 -2.149811226389783392e-13 -1.509297922102151301e-13 1.303541421939641287e-13
6.308000000000000000e+03 7.069351959228515625e+01 1.356340885162353516e+00 -2.501435473686863808e-13 -1.987062722480156807e-13 -1.346549553717796277e-13 1.964146076685602260e-14
6.309000000000000000e+03 7.027114105224609375e+01 2.715223073959350586e+00 3.825529015067481373e-15 -4.411143623766697330e-14 -1.208577187031831604e-14 1.207228761401779593e-13
6.310000000000000000e+03 7.117231750488281250e+01 -2.411546707153320312e+00 -9.371373983898742543e-14 -1.316649290679719475e-13 -6.761359863920873847e-14 6.669418842067745268e-14
6.311000000000000000e+03 6.884634399414062500e+01 -5.946555614471435547e+00 -5.008878172798290895e-14 -2.044704195455077089e-13 -7.636775868798129085e-14 -1.673775321901077584e-13
6.312000000000000000e+03 7.045114135742187500e+01 -4.158020019531250000e+00 5.751710312727493363e-15 -2.262897307687625204e-13 -6.616140469685449776e-14 -1.438050525014167302e-13
6.313000000000000000e+03 7.018920898437500000e+01 -6.296651363372802734e+00 2.690972682043487468e-14 -4.231012784051968456e-13 -1.188574656448351807e-13 -1.083775809981174509e-13
6.314000000000000000e+03 7.059244537353515625e+01 -5.745427608489990234e+00 1.323515678563341735e-13 -2.177835955194731832e-13 -2.562960592724945058e-14 -2.181661935254843726e-14
6.315000000000000000e+03 7.203889465332031250e+01 -1.882054805755615234e+00 -1.555421779873486510e-13 -2.090998239086174632e-14 -5.293564591117745632e-14 -8.960681589093022481e-14
6.316000000000000000e+03 6.968179321289062500e+01 2.219539165496826172e+00 -1.186268287376932018e-13 -1.423419623272290102e-13 -7.829063867472937921e-14 -3.709920960931825662e-14
6.317000000000000000e+03 6.822039031982421875e+01 -7.075345516204833984e+00 1.688292246889572246e-13 -2.021503082115516658e-13 -9.996326242624458541e-15 -6.779751320898017020e-14
6.318000000000000000e+03 6.606349945068359375e+01 -4.837632179260253906e+00 -3.808649088384713499e-14 -1.078246785477313119e-13 -4.377335150709989187e-14 -1.812254434518066615e-14
6.319000000000000000e+03 6.676253509521484375e+01 -5.028893947601318359e+00 -1.990122544298818241e-14 -1.000309928747729338e-13 -3.597966583414151376e-14 -8.179524088212583588e-14
6.320000000000000000e+03 6.762017059326171875e+01 -3.145300388336181641e+00 -2.998611829761049785e-14 7.865070221621181523e-14 1.459937517558039521e-14 -1.252920971183194010e-13
6.321000000000000000e+03 6.813481140136718750e+01 -5.595001697540283203e+00 5.139288381797099681e-14 -2.982311121148273347e-13 -7.405146916668325918e-14 -4.692063455976301645e-14
6.322000000000000000e+03 6.909547424316406250e+01 1.784735023975372314e-01 -2.112895226618824451e-13 -2.278054860634787238e-13 -1.317285039728610663e-13 -2.264961493098766043e-13
6.323000000000000000e+03 6.559392547607421875e+01 -2.902082920074462891e+00 3.869193298800644538e-16 8.594885328623569354e-14 2.590073100927018507e-14 -1.031760329841917290e-13
6.324000000000000000e+03 6.659599304199218750e+01 -2.911190748214721680e+00 -1.529257135420708513e-13 -1.570414940666245429e-13 -9.299016363786133388e-14 -1.347516119954567104e-13
6.325000000000000000e+03 6.908746337890625000e+01 1.873625278472900391e+00 -6.826697952592997165e-14 1.994974687833869775e-13 3.936914609961074396e-14 -8.913963995106979898e-14
6.326000000000000000e+03 6.702177429199218750e+01 -5.570164203643798828e+00 -8.297256246870068908e-14 -4.473182078652132576e-13 -1.590872344883059730e-13 -2.902913030940722228e-14
6.327000000000000000e+03 6.779367065429687500e+01 -6.169184684753417969e+00 3.024994873188947830e-14 -1.700395331266299492e-13 -4.193687565723532018e-14 -1.352038869317090386e-13
6.328000000000000000e+03 6.897338104248046875e+01 -2.019701719284057617e+00 -7.866740570593167003e-14 8.066277138417399240e-14 5.986090893738099487e-16 -4.927421724766276045e-14
6.329000000000000000e+03 6.939836883544921875e+01 1.219526886940002441e+00 -7.253387750453740845e-14 -3.513425986777229948e-13 -1.271629421770517632e-13 -2.525341318438539817e-13
6.330000000000000000e+03 6.922004699707031250e+01 -4.488300085067749023e-01 -1.652512219944834992e-13 -7.082195615550068712e-14 -7.082195615550068712e-14 -1.414547732420112780e-13
6.331000000000000000e+03 6.862377166748046875e+01 -2.442648649215698242e+00 -1.623357752476156657e-13 -1.610743737825645616e-13 -9.702304335380135258e-14 -2.093554550639670220e-13
6.332000000000000000e+03 6.888843536376953125e+01 8.438868522644042969e-01 -1.396097321949840708e-13 3.166915582314584754e-14 -3.238217121748557248e-14 6.692278143731770698e-16
6.333000000000000000e+03 6.309764862060546875e+01 -3.818612098693847656e+00 -9.831801104048625006e-15 3.160430088206683807e-13 9.186336587252430519e-14 -5.634013898860382175e-14
6.334000000000000000e+03 6.970359039306640625e+01 -4.124378204345703125e+00 -3.177061681769975665e-14 -5.936692652232233858e-14 -2.734126469607252308e-14 -3.920952782289835459e-15
6.335000000000000000e+03 7.040827178955078125e+01 -3.307993412017822266e+00 -1.032775075312727942e-13 -2.730165269207440737e-13 -1.128882144013632072e-13 3.420998361436562718e-14
6.336000000000000000e+03 7.043922424316406250e+01 -2.098014354705810547e+00 -1.684360929812139807e-13 -3.009416446510954080e-13 -1.408133185791873854e-13 -1.991168460582087851e-14
6.337000000000000000e+03 6.779825592041015625e+01 -2.214375019073486328e+00 -9.670572448296915757e-14 5.005658769972366751e-14 -1.399474188200659427e-14 -1.470354735319187589e-13
6.338000000000000000e+03 6.867714691162109375e+01 -6.353687644004821777e-01 -4.516018499911220174e-14 -2.309524912893351489e-13 -8.283380491941327861e-14 -2.109022456458706229e-13
6.339000000000000000e+03 6.834757232666015625e+01 6.723859310150146484e-01 -1.446274740593556096e-13 -1.077341476663287723e-13 -7.570848245194716775e-14 -2.304145101713478416e-13
6.340000000000000000e+03 6.703178405761718750e+01 -3.565147399902343750e+00 7.884754420282424209e-15 -1.796246121678682361e-13 -5.152195808660539611e-14 -1.982173478902015534e-14
6.341000000000000000e+03 6.543818664550781250e+01 -3.899763107299804688e+00 6.572996423000578362e-15 -1.801867980993562823e-13 -5.208414062996165328e-14 -1.803630487150209571e-13
6.342000000000000000e+03 6.639670562744140625e+01 -3.986730337142944336e+00 -6.376316982010729606e-14 8.705030104952729553e-14 6.986138860606231488e-15 -1.055469798475101861e-13
6.343000000000000000e+03 6.950237274169921875e+01 -2.358438968658447266e+00 -2.177732413887259466e-13 -3.563993447152496996e-13 -1.722517798969508407e-13 -1.338800489740499255e-13
6.344000000000000000e+03 6.901602935791015625e+01 -5.025763988494873047e+00 2.156776954297459636e-14 -2.652623671932363703e-13 -7.310837590694674315e-14 -2.555203295587400725e-14
6.345000000000000000e+03 6.977039337158203125e+01 -3.310970544815063477e+00 -1.301263106599434560e-13 -2.845231645773327323e-13 -1.243948385054247097e-13 -1.241172149866326402e-13
6.346000000000000000e+03 6.970641326904296875e+01 -5.090821266174316406e+00 -1.497435157913219045e-14 -2.580477877819203902e-13 -8.190664265534872146e-14 -1.180157046306445912e-13
6.347000000000000000e+03 6.781034851074218750e+01 -1.627340555191040039e+00 -1.485565143122258291e-13 -3.839237142175960793e-13 -1.597440712694520037e-13 -6.891630820703154026e-14
6.348000000000000000e+03 6.804061889648437500e+01 -3.752830028533935547e+00 -6.256865685283496958e-14 -1.755057281145958048e-13 -7.142231277972380110e-14 -1.061454425060632395e-14
6.349000000000000000e+03 6.976152038574218750e+01 -1.759531021118164062e+00 -6.690184024176273891e-14 -7.442316755272918027e-14 -4.239750233834757576e-14 -3.765051709666471583e-15
6.350000000000000000e+03 6.822935485839843750e+01 -1.962103366851806641e+00 -1.173267212550843652e-13 -4.531929929122097481e-15 -3.655759302592133386e-14 7.556769879984992500e-14
6.351000000000000000e+03 6.912239074707031250e+01 -1.524119138717651367e+00 -2.123133212208333509e-13 -4.112480755241731956e-13 -1.870684190235019639e-13 -1.356408204072206969e-13
6.352000000000000000e+03 6.836970520019531250e+01 -4.328284263610839844e+00 -3.872259568657616946e-14 -6.234634797363039493e-14 -3.032068275924879042e-14 -5.047269432912823706e-14
6.353000000000000000e+03 6.840801239013671875e+01 -4.927206516265869141e+00 -1.027148608138614416e-13 -4.100282396599097545e-13 -1.538229314973840745e-13 -2.030749158242473040e-13
6.354000000000000000e+03 6.897714996337890625e+01 -4.162314414978027344e+00 -9.260476745850888987e-16 -1.834006714942007510e-13 -5.529801741293791095e-14 -1.187158281835271056e-13
6.355000000000000000e+03 6.843383789062500000e+01 1.590184867382049561e-02 -1.286349770191624886e-13 -1.466311745417989143e-13 -8.257984411303570527e-14 -5.735120494829160087e-14
6.356000000000000000e+03 6.864420318603515625e+01 -3.421933889389038086e+00 -9.921306397958629120e-14 -2.536328013390785896e-14 -3.737290289523506615e-14 -1.061722189115918424e-13
6.357000000000000000e+03 6.816825103759765625e+01 -2.811129570007324219e+00 -1.539584025588361382e-13 7.127067355337454724e-14 -2.480631531350668828e-14 1.604135559465664357e-14
6.358000000000000000e+03 6.914772796630859375e+01 -2.949911594390869141e+00 -7.673113582235338570e-14 1.286617720594159311e-14 -1.915948716140706415e-14 -4.680682043670635062e-14
6.359000000000000000e+03 4.026542663574218750e+01 -3.936628341674804688e+01 -1.252350918009691866e-14 -9.686911375036272309e-14 -3.281778670973130307e-14 1.039503820342421378e-14
6.360000000000000000e+03 5.392633438110351562e+01 -3.736738967895507812e+01 -5.244263207829398532e-14 -1.254150456446792572e-13 -5.335730230045243605e-14 6.046993282623688848e-14
6.361000000000000000e+03 2.714153861999511719e+01 -3.865356826782226562e+01 -1.090988397170998547e-13 -1.005698100142791811e-15 -3.303136098518379138e-14 -5.886956910448534752e-14
6.362000000000000000e+03 5.540997314453125000e+01 -3.969189453125000000e+01 -1.121400403634488507e-13 -7.093549245175065354e-14 -5.492265984455985128e-14 3.153970547188286733e-14
6.363000000000000000e+03 5.118952178955078125e+01 -3.824932479858398438e+01 -6.009006904257943593e-14 -1.286925210494671568e-13 -5.663477770524033561e-14 3.791667433044980384e-14
6.364000000000000000e+03 4.336640548706054688e+01 -4.090349578857421875e+01 -2.615640112813531759e-14 -1.370249942157786283e-13 -4.895441826436100485e-14 1.070895708400613003e-14
6.365000000000000000e+03 6.266205215454101562e+01 -4.131812286376953125e+01 -1.824930858556131352e-13 -1.125245391113936788e-13 -8.850528681247568641e-14 1.286432135675415894e-14
6.366000000000000000e+03 2.252711486816406250e+01 -4.104552078247070312e+01 -8.071858069100268374e-14 2.259500874975724910e-14 -1.743707107415386204e-14 -1.903713664030796948e-14
6.367000000000000000e+03 4.156270217895507812e+01 5.974820852279663086e-01 8.712214977224519430e-14 -8.412885392126111250e-15 2.361277812818959876e-14 7.810869599765915550e-14
6.368000000000000000e+03 6.807254028320312500e+01 1.721993064880371094e+01 -1.099459268744627793e-13 -1.386215767824536260e-13 -7.457025312995399502e-14 -1.441652109105892587e-13
6.369000000000000000e+03 6.845639705657958984e+00 -4.127958297729492188e+01 -3.681684609415335208e-14 -5.009186153977912559e-14 -2.607261262899292220e-14 -3.646098722422108640e-14
6.370000000000000000e+03 6.890775299072265625e+01 1.613789176940917969e+01 -1.397841743953063577e-15 -2.751047545150597795e-13 -8.295078355756088651e-14 1.199684611635082332e-13
6.371000000000000000e+03 2.885030364990234375e+01 -5.369866371154785156e+00 -2.180752187988174717e-13 -8.202307241614650857e-14 -9.002948533161012068e-14 4.422676485563332982e-14
6.372000000000000000e+03 2.715281677246093750e+01 -4.111409378051757812e+01 -8.248212361597687114e-14 6.759015276722873944e-14 -4.467591847547502590e-15 1.952147346767976743e-14
6.373000000000000000e+03 3.113268613815307617e+00 -4.085312271118164062e+01 -5.048403440622607763e-14 1.239459605948073449e-15 -1.477337268360537359e-14 1.972811562549192654e-14
6.374000000000000000e+03 1.597440361976623535e+00 -4.033027267456054688e+01 5.584251052022370931e-15 -6.623317210440946012e-14 -1.819467597690294786e-14 3.403175771786795534e-14
6.375000000000000000e+03 3.408366012573242188e+01 -1.480355739593505859e+01 -2.257121356138980239e-13 -1.882356710823998580e-13 -1.241843406536366490e-13 2.716210774095922931e-13
6.376000000000000000e+03 7.309321594238281250e+01 -3.715870285034179688e+01 1.002541949502203881e-15 -4.342043489081320873e-13 -1.299605497002975785e-13 -3.968071869892876580e-14
6.377000000000000000e+03 7.787815093994140625e+01 -3.838444137573242188e+01 2.996381083791160860e-14 -4.446678485495181299e-13 -1.244112099582292408e-13 -4.189774612320396052e-14
6.378000000000000000e+03 3.695049667358398438e+01 -1.886283302307128906e+01 -1.305358409255455432e-13 -3.819194309764850637e-13 -1.537365883468727601e-13 1.013895456307423171e-13
6.379000000000000000e+03 7.007801055908203125e+01 1.428958702087402344e+01 1.765322880009547596e-14 3.044114439687550799e-14 1.442831178968470573e-14 4.915127888569827130e-14
6.380000000000000000e+03 3.823560476303100586e+00 -3.998307037353515625e+01 -6.779237510712212561e-15 6.572103565570877604e-14 1.768253952820226377e-14 8.500470292938100414e-15
6.381000000000000000e+03 3.376199340820312500e+01 -1.423206138610839844e+01 -2.885540046379357626e-14 -1.236660056178279579e-14 -1.236660056178279579e-14 6.258102353386488237e-14
6.382000000000000000e+03 5.775415039062500000e+01 -7.929307937622070312e+00 -1.362697118773709137e-14 -1.316552390110553583e-13 -4.358466305963773491e-14 4.705695604229412354e-14
6.383000000000000000e+03 7.835659790039062500e+01 -3.905724716186523438e+01 5.233013255037145817e-14 -5.265842015905741746e-13 -1.422762190179949204e-13 -9.496737740004399658e-15
6.384000000000000000e+03 2.646742343902587891e+00 -3.493127059936523438e+01 -2.898278744279704500e-14 -1.039230889386157097e-13 -3.987176189798428971e-14 6.878743045004090395e-14
6.385000000000000000e+03 2.661028099060058594e+01 -4.642640113830566406e+00 -1.973286036524926623e-13 -6.169392931633724264e-14 -7.770676192352804490e-14 7.136064200490011000e-14
6.386000000000000000e+03 3.260414505004882812e+01 -8.814752578735351562e+00 -1.633922082919583851e-13 -2.301535427084305807e-13 -1.180637212343585429e-13 3.030784445027384644e-13
6.387000000000000000e+03 7.117833137512207031e+00 -4.744741439819335938e+00 3.190990630367804282e-14 -1.235771738845176104e-13 -2.750017993543869138e-14 7.721639760970358535e-14
6.388000000000000000e+03 1.018675136566162109e+01 -2.177028274536132812e+01 -5.526760893013148157e-14 -3.896937026542923732e-13 -1.334883944917666931e-13 -8.035053005234411329e-16
6.389000000000000000e+03 2.114902114868164062e+01 -6.299083709716796875e+00 -1.289376862657204414e-13 -1.467608993317368049e-13 -8.270957567923717391e-14 -8.383482168021483272e-14
6.390000000000000000e+03 5.376463317871093750e+01 -3.164682579040527344e+01 -7.876616974758152145e-14 -5.663240262485623455e-14 -4.061957340579722131e-14 4.207596185530626531e-14
6.391000000000000000e+03 1.942976379394531250e+01 -3.334230041503906250e+01 -1.033224070537408501e-13 -6.715650577955242784e-14 -5.114367317236162558e-14 5.597616893116864889e-14
6.392000000000000000e+03 2.537560462951660156e+00 -3.613926315307617188e+01 3.515775249597098695e-14 -1.221852344778992516e-13 -2.610824561101801611e-14 6.608029705699016224e-15
6.393000000000000000e+03 2.497143030166625977e+00 -3.552967453002929688e+01 -3.033338486532581590e-14 -1.502528705838238055e-13 -5.417587494067899190e-14 1.062945914555475657e-13
6.394000000000000000e+03 7.782180786132812500e+01 1.554398727416992188e+01 -1.124390497700931968e-14 -3.250754700145908060e-13 -1.008958067376559964e-13 1.058529823581670637e-13
6.395000000000000000e+03 3.643074798583984375e+01 -2.739035224914550781e+01 9.393421912702593080e-14 -9.699532165950361384e-14 -9.183309926773654090e-16 -2.181927225973923773e-15
6.396000000000000000e+03 3.251263427734375000e+01 -8.260861396789550781e+00 -1.961428794990810465e-14 3.734482544709948060e-14 5.319161079750823334e-15 2.152516717385949407e-13
6.397000000000000000e+03 5.046381378173828125e+01 -3.096841812133789062e+01 -1.144179559041044736e-13 -2.606343960098733703e-13 -1.125157096399515000e-13 1.062444742101244233e-13
6.398000000000000000e+03 2.254589271545410156e+01 -7.453954219818115234e+00 -2.795639357489575205e-14 -3.779888999456276766e-13 -1.217835917831019965e-13 -1.680164389778263101e-14
6.399000000000000000e+03 2.561598968505859375e+01 -6.275515079498291016e+00 -1.953300531303686638e-13 -1.523393092445549102e-13 -1.043008046467189254e-13 3.665626219988109280e-14
6.400000000000000000e+03 4.321641921997070312e+01 -3.107208967208862305e+00 1.974414419935940912e-13 8.461775795028450564e-14 8.461775795028450564e-14 1.766096356615662333e-13
6.401000000000000000e+03 5.734966278076171875e+01 -5.747342109680175781e+00 4.474333975697762644e-14 4.194965230221170405e-13 1.392719625606733680e-13 -3.877899791646793881e-14
6.402000000000000000e+03 1.632301521301269531e+01 -8.380413055419921875e+00 1.974908274025508059e-13 2.676427330629282952e-13 1.395400722054018772e-13 5.168370072194949927e-14
6.403000000000000000e+03 3.877335357666015625e+01 -2.295155334472656250e+01 5.232906190072612873e-14 -6.907515737782782272e-14 -5.023828643130508198e-15 1.198887858563577047e-13
6.404000000000000000e+03 3.862910842895507812e+01 -2.367181015014648438e+01 -5.183731522913175016e-14 -1.594688329954394024e-13 -6.339184412855816686e-14 1.403938272061255876e-13
6.405000000000000000e+03 3.324799728393554688e+01 -8.663672447204589844e+00 1.205094441662606097e-14 9.666658478454243086e-14 3.261526113204279986e-14 1.968691187717933055e-13
6.406000000000000000e+03 3.305003738403320312e+01 -8.152594566345214844e+00 -8.034447673138656043e-14 -1.716861922811466212e-13 -7.560920341426538571e-14 1.557762030262796471e-13
6.407000000000000000e+03 4.388388442993164062e+01 -3.917822122573852539e+00 1.234387754771998358e-13 1.858912227978033044e-14 4.260836949650063932e-14 -4.876875203045465124e-14
6.408000000000000000e+03 2.086448860168457031e+01 -1.187205314636230469e+01 7.766581973898956104e-14 1.705381983633375009e-13 7.446120272019268738e-14 -4.837233383487606064e-14
6.409000000000000000e+03 7.483057403564453125e+01 -3.133431816101074219e+01 -5.138495220145290754e-14 -6.167844555406143403e-13 -2.004508213061806376e-13 -3.281545228692867022e-14
6.410000000000000000e+03 7.261641693115234375e+01 1.479856109619140625e+01 2.263653030483165490e-14 -2.190533724463067378e-13 -5.892505315066229321e-14 -1.017257347015734434e-14
6.411000000000000000e+03 3.451816558837890625e+01 -1.225632381439208984e+01 6.530309604700634818e-14 2.109908385158898447e-13 8.288817765836342666e-14 -5.279139958839183799e-14
6.412000000000000000e+03 2.850023078918457031e+01 -1.050880527496337891e+01 2.004697609628812438e-14 1.000934564724352549e-13 3.604212943180383488e-14 8.314027499225704054e-14
6.413000000000000000e+03 2.780835914611816406e+01 -1.060343837738037109e+01 1.124731953622629121e-13 1.854556411868754640e-13 8.937865231999422844e-14 8.734096887570708123e-14
6.414000000000000000e+03 3.041557312011718750e+01 -1.146660518646240234e+01 -2.507580901007101098e-14 -1.074677456400219278e-14 -1.074677456400219278e-14 1.297273107079416343e-13
6.415000000000000000e+03 5.959988403320312500e+01 -6.403205394744873047e+00 -1.681903450062929850e-13 6.517127061535926691e-14 -3.090572502778554664e-14 -1.048370307124395218e-13
6.416000000000000000e+03 9.785189628601074219e+00 -1.384445285797119141e+01 -3.967175709034681530e-14 -1.700218064211098112e-14 -1.700218064211098112e-14 1.493456779685237157e-13
6.417000000000000000e+03 5.022954559326171875e+01 -4.644429683685302734e+00 -5.274085543836327938e-14 9.177414958625590424e-14 1.170998739733484020e-14 -4.130119775911170188e-14
6.418000000000000000e+03 5.182941436767578125e+01 -5.869709968566894531e+00 -1.605921443731655324e-14 8.461937747727965586e-14 2.056804874258234134e-14 -5.569158280155014906e-14
6.419000000000000000e+03 2.071189880371093750e+01 -7.522730350494384766e+00 8.652765461601708008e-14 1.385931977905888179e-13 6.753625436672905380e-14 -6.417344801580180877e-15
6.420000000000000000e+03 1.369026374816894531e+01 -2.890175247192382812e+01 -1.602778104464394615e-13 -1.601923888677747598e-13 -9.614105843901155080e-14 1.296729515215186423e-13
6.421000000000000000e+03 4.188326835632324219e+00 -7.570220947265625000e+00 -8.223543374041852871e-14 1.020090858571548464e-13 5.932095296207716417e-15 7.878092167339090235e-14
6.422000000000000000e+03 4.144044113159179688e+01 -2.113360214233398438e+01 -1.112464680379406101e-13 -2.421185810435461105e-13 -1.060095140468196584e-13 2.128302688166744394e-13
6.423000000000000000e+03 2.614033508300781250e+01 -8.810146331787109375e+00 -4.584803335052310691e-14 -2.941548372069335837e-13 -1.020008662494346907e-13 1.668211060826610415e-13
6.424000000000000000e+03 6.420078277587890625e+00 -2.962225151062011719e+01 -4.313588467539167248e-14 -2.243660715117029580e-13 -8.025059159951289378e-14 8.266437122490810641e-14
6.425000000000000000e+03 9.446240425109863281e+00 -2.702025794982910156e+01 -5.313527802431813885e-14 -1.028364202061878008e-13 -4.679150946915178189e-14 5.132090295811332636e-14
6.426000000000000000e+03 2.953823089599609375e+01 -1.186099815368652344e+01 -2.381449529763324247e-13 -2.164394965337157473e-13 -1.363753267214981579e-13 8.215358325265945116e-14
6.427000000000000000e+03 4.868843841552734375e+01 -5.151547431945800781e+00 5.950978371107445986e-14 2.550419422907897887e-14 2.550419422907897887e-14 -3.216774990908582987e-14
6.428000000000000000e+03 1.615283775329589844e+01 -7.104161262512207031e+00 -9.976960528351383473e-14 -1.342603057809949041e-13 -7.020897535223169506e-14 -4.432494275048368126e-14
6.429000000000000000e+03 1.305360984802246094e+01 -2.837162590026855469e+01 -1.727546464170767737e-13 -2.828675675311566329e-14 -6.031241857936547879e-14 2.398990260729563090e-14
6.430000000000000000e+03 7.586157226562500000e+01 -3.010882377624511719e+01 4.425692600481916095e-14 -4.842931611293010974e-13 -1.320108844286849159e-13 3.690122412822703646e-14
6.431000000000000000e+03 3.429479217529296875e+01 -1.071894264221191406e+01 -2.815044374091402873e-14 3.368647320724921235e-14 1.660808945779673491e-15 4.307435959023490912e-14
6.432000000000000000e+03 4.456192016601562500e+01 -1.002750682830810547e+01 9.834101984346546588e-14 -2.323595417637325244e-13 -4.020555725370647537e-14 -3.262514092433957402e-14
6.433000000000000000e+03 2.609488105773925781e+01 -9.502444267272949219e+00 3.353729037644699595e-14 1.058750187673228316e-13 4.182369172669141155e-14 1.486291965153638261e-13
6.434000000000000000e+03 6.097421264648437500e+01 -5.306216239929199219e+00 1.056954986044817552e-14 2.454371341581440547e-13 7.680200876311604752e-14 -6.930155234396995212e-14
6.435000000000000000e+03 6.069604396820068359e+00 -2.895440673828125000e+01 -3.442109810613928900e-14 7.675000094015463348e-14 1.269867051139142444e-14 1.324119714698687722e-13
6.436000000000000000e+03 3.877677536010742188e+01 -1.609664726257324219e+01 -1.490090738515484348e-13 1.191427598939975852e-13 -8.959893340232307629e-15 -1.571559519347211220e-14
6.437000000000000000e+03 9.909872055053710938e+00 -7.111485481262207031e+00 6.818781243854779572e-14 -2.910332836270762558e-13 -6.685364067893218021e-14 7.887355319650263263e-14
6.438000000000000000e+03 9.120718955993652344e+00 -7.261544704437255859e+00 2.212478789585803352e-13 -1.796851784117287076e-13 1.246881287456091947e-14 -1.301449589373102067e-13
6.439000000000000000e+03 2.634859466552734375e+01 -9.116653442382812500e+00 2.241128696468461245e-13 -1.555818462343344644e-13 2.055930566850078245e-14 2.809234066886417275e-14
6.440000000000000000e+03 7.422714233398437500e+01 1.427283382415771484e+01 -1.052313889238903899e-13 -2.566973055558724459e-13 -1.085786124096869976e-13 -8.024885009977333894e-14
6.441000000000000000e+03 5.882717895507812500e+01 -4.956662178039550781e+00 -1.043160173584516126e-13 4.679503312621235978e-14 -1.725629560848495475e-14 -1.452461333715029945e-13
6.442000000000000000e+03 7.539361572265625000e+01 -2.857740402221679688e+01 3.700036425250546879e-14 -3.959012479827495046e-13 -1.076702610533150639e-13 -2.583899077774481912e-13
6.443000000000000000e+03 7.596727848052978516e+00 -1.734867286682128906e+01 -2.694400116161257269e-14 -1.488002700656548827e-13 -5.272328458690543618e-14 8.454004775957160711e-14
6.444000000000000000e+03 4.421875762939453125e+01 -5.530778884887695312e+00 5.228433856111110167e-14 -1.834717002890257076e-13 -3.935620682430848727e-14 -8.730039303291828486e-16
6.445000000000000000e+03 2.669074249267578125e+01 -9.253757476806640625e+00 1.179974764816196786e-13 2.793250927866225419e-13 1.191967667147145193e-13 -1.346132000356117797e-13
6.446000000000000000e+03 3.590168380737304688e+01 -9.460387229919433594e+00 -5.427072907824431747e-14 -5.757209758840836633e-14 -3.355284867762216294e-14 -4.840315905789253914e-14
6.447000000000000000e+03 3.892262649536132812e+01 -1.288633441925048828e+01 -3.762021957517437676e-14 -1.076248465348150773e-13 -4.357351949418365733e-14 7.599498965229004033e-14
6.448000000000000000e+03 6.607289123535156250e+01 -7.816785812377929688e+00 3.326795761614265157e-14 -1.229951470532730795e-13 -2.691815649232594948e-14 1.150201217907029227e-13
6.449000000000000000e+03 6.268820571899414062e+01 -5.160741329193115234e+00 4.838874594526205997e-14 2.073803300850322884e-14 2.073803300850322884e-14 -4.601822937468080799e-14
6.450000000000000000e+03 7.637800598144531250e+01 1.357220840454101562e+01 3.916377533825241355e-15 -5.473329580361896429e-13 -1.630249619110832326e-13 1.819565819630858394e-13
6.451000000000000000e+03 4.310253524780273438e+01 -1.073828792572021484e+01 -5.025528130035879226e-14 -2.274172603705659768e-13 -8.330176012958517839e-14 -6.995397777752668245e-14
6.452000000000000000e+03 7.599761962890625000e+01 -2.936888885498046875e+01 3.267168707885709233e-14 -4.892582649781984649e-13 -1.369759747250551274e-13 -1.144289741086823575e-13
6.453000000000000000e+03 7.535132598876953125e+01 -2.920372772216796875e+01 3.149766553264474189e-14 -3.067576303649593994e-13 -8.257799419307890187e-14 2.081852824354669951e-15
6.454000000000000000e+03 5.873567199707031250e+01 -4.293828964233398438e+00 -7.613489239012213861e-14 -5.550471378085869434e-14 -3.949188117366789208e-14 -1.082012355147626836e-13
6.455000000000000000e+03 5.443545818328857422e+00 -2.755224418640136719e+01 1.156853069285770919e-13 -1.904700457414348208e-14 2.899149155336303019e-14 -6.874756569141132756e-14
6.456000000000000000e+03 6.524102783203125000e+01 -7.301934242248535156e+00 4.178526353594037845e-14 6.365891700495923677e-14 3.163325517870942127e-14 6.362434450818410525e-14
6.457000000000000000e+03 7.551206970214843750e+01 -2.036084175109863281e+01 -1.302036684849502968e-13 -1.473034747564300195e-13 -8.325213755140323246e-14 8.773032620463735998e-14
6.458000000000000000e+03 7.218607330322265625e+01 -7.756479263305664062e+00 -8.109296925368908449e-14 -4.922636191902196590e-13 -1.720069805989307699e-13 -1.404901721216780808e-13
6.459000000000000000e+03 7.151300048828125000e+01 -7.673195362091064453e+00 8.190897538408545980e-15 -1.794934101524703340e-13 -5.139075268307570499e-14 8.527156065941347146e-15
6.460000000000000000e+03 7.568289947509765625e+01 -2.751653861999511719e+01 -1.972301479308356115e-14 -6.489660154748722043e-13 -2.006067024735297410e-13 -7.740199946910594764e-14
6.461000000000000000e+03 7.601856994628906250e+01 -2.800091361999511719e+01 4.448176581847013145e-14 -4.384458833321669413e-13 -1.181892311883508961e-13 -1.554728703634725151e-13
6.462000000000000000e+03 5.215144157409667969e+00 -1.171803092956542969e+01 -9.939973140643629940e-15 -2.330147251365655148e-13 -7.288641261718464825e-14 -1.545790269874211531e-13
6.463000000000000000e+03 5.089723110198974609e+00 -2.643062973022460938e+01 -5.635613097064798294e-14 -4.702810271197885306e-14 -3.101527010478805080e-14 4.210433068277570634e-15
6.464000000000000000e+03 6.297927093505859375e+01 -4.468779563903808594e+00 -1.639315175576069872e-13 1.584983771833747834e-13 -1.629943594577318820e-15 1.253400815347813571e-14
6.465000000000000000e+03 7.242155456542968750e+01 -2.557275772094726562e+01 8.214856204134812767e-14 -3.079255871552694090e-13 -6.773311159993453123e-14 -1.434617839292124525e-14
6.466000000000000000e+03 7.298687744140625000e+01 -2.581688308715820312e+01 1.959747773403689580e-14 -4.491105566866576693e-13 -1.288539316478959362e-13 8.127295528465115076e-15
6.467000000000000000e+03 5.491768360137939453e+00 -8.661556243896484375e+00 1.387438341299285227e-13 3.658616852942990494e-14 5.259900113662070720e-14 6.298638639736647837e-14
6.468000000000000000e+03 6.592243957519531250e+01 -6.945553302764892578e+00 5.181634946962131172e-14 -2.408609607335715497e-13 -5.671337897461374566e-14 1.249343375064534967e-13
6.469000000000000000e+03 6.568830871582031250e+01 -6.113839626312255859e+00 -2.539781705529920580e-14 8.061711969644877462e-14 1.656579096175146010e-14 1.030636063011026657e-14
6.470000000000000000e+03 7.536865234375000000e+01 -2.345657157897949219e+01 3.936296275909578757e-14 -6.236434437444093870e-13 -1.752841442955940798e-13 -9.305706399410137303e-15
6.471000000000000000e+03 7.425246429443359375e+01 -2.523801231384277344e+01 6.221851376123077593e-14 -4.937519577224991352e-13 -1.294600413198968014e-13 1.609189398486116085e-13
6.472000000000000000e+03 5.356752872467041016e+00 -1.879845809936523438e+01 9.725479156817012916e-14 -7.269674499963546532e-14 7.367414648186756954e-15 4.141050566688897483e-14
6.473000000000000000e+03 5.695141315460205078e+00 -1.827848243713378906e+01 1.299812715143192077e-14 -1.431199587011502961e-13 -3.903655014254187039e-14 1.384464916841243731e-13
6.474000000000000000e+03 6.449047088623046875e+01 -4.875578403472900391e+00 -1.134565260751257965e-13 -2.873275941039357337e-15 -3.489893988487154097e-14 -1.515229727713091057e-13
6.475000000000000000e+03 5.900064468383789062e+00 -8.886953353881835938e+00 3.329884043739954336e-14 -3.148001675415575129e-14 5.456467132203995148e-16 -1.638178118547675699e-13
6.476000000000000000e+03 6.406789398193359375e+01 -5.124894142150878906e+00 -9.818641261366903294e-14 3.671056887026135501e-15 -2.835460748032252176e-14 -1.627949213151361207e-13
6.477000000000000000e+03 6.066345977783203125e+01 -2.912817239761352539e+00 -2.045710470596415198e-13 4.957954213196183457e-14 -4.649745351118297898e-14 -1.762568091695851380e-13
6.478000000000000000e+03 6.194026947021484375e+01 -3.916001319885253906e+00 -1.817933959835996149e-13 1.359044035078790791e-14 -5.046088668984351211e-14 -1.072371019566163708e-13
6.479000000000000000e+03 3.940487670898437500e+01 -1.051275444030761719e+01 7.512132598917406479e-14 -2.022787590639368860e-13 -3.814722992242884636e-14 -1.847789906110272606e-13
6.480000000000000000e+03 6.857280731201171875e+01 -6.701016902923583984e+00 1.343748788455723098e-13 -2.626674106085552518e-13 -3.848776088414759822e-14 -8.252503091695298498e-14
6.481000000000000000e+03 6.251362609863281250e+01 -2.006456613540649414e+00 -1.410910098606152352e-13 2.140381242469319156e-13 2.188413296064228852e-14 8.301318447478511081e-15
6.482000000000000000e+03 6.228633117675781250e+01 -1.668922424316406250e+00 -1.486858054212947255e-13 3.480360531021853276e-13 5.980507294901446502e-14 6.697737525186708840e-14
6.483000000000000000e+03 6.138758850097656250e+01 -1.005658268928527832e+00 -1.655127722160684711e-13 1.120697501813538999e-13 -1.603290898210662369e-14 7.285188077799098494e-14
6.484000000000000000e+03 7.468988037109375000e+01 -1.127748203277587891e+01 -6.806940400878522257e-14 6.232929211820448234e-14 -1.722033122481924760e-15 -1.200584092862430619e-13
6.485000000000000000e+03 7.360308074951171875e+01 -1.091903495788574219e+01 -7.579952155311805995e-14 -3.984930874861847272e-13 -1.422877928761862032e-13 9.186475500655780224e-14
6.486000000000000000e+03 7.362902069091796875e+01 -6.047103881835937500e+00 1.432651062669917930e-13 -2.588573073340066921e-13 -3.467766438586261657e-14 -1.247031313931709628e-13
6.487000000000000000e+03 7.404415893554687500e+01 6.788353443145751953e+00 -5.561661699758635446e-14 -4.127187686660954702e-13 -1.405006075675882538e-13 1.489717230867063091e-13
6.488000000000000000e+03 7.418575286865234375e+01 5.992880821228027344e+00 1.281398218869883587e-14 -2.690139777605793370e-13 -7.686000002681686594e-14 1.724758709334764384e-13
6.489000000000000000e+03 6.493227386474609375e+01 3.367668390274047852e-01 7.528944678261099283e-15 2.319814262560782048e-13 7.185311373669733825e-14 -2.393428879567116585e-13
6.490000000000000000e+03 7.389264678955078125e+01 -1.046239089965820312e+01 -5.071646702321623568e-14 -2.047394236570285186e-13 -7.663676957576567861e-14 -7.231436722219056201e-14
6.491000000000000000e+03 6.793804168701171875e+01 -4.641893863677978516e+00 -5.529690695274406056e-15 -2.311246083842172228e-13 -7.099628908857277820e-14 -2.834516814515831984e-14
6.492000000000000000e+03 7.423337554931640625e+01 -9.432934761047363281e+00 4.993612606209694993e-14 -1.387271238639450899e-13 -2.663729900174126308e-14 -4.327154208409213221e-14
6.493000000000000000e+03 6.483190917968750000e+01 -5.158140063285827637e-01 -2.608990904177585501e-14 -5.693233699147898230e-14 -2.490667516522916680e-14 -1.892548482295905443e-13
6.494000000000000000e+03 6.589022827148437500e+01 3.530254662036895752e-01 -1.032150642624012071e-13 2.760216100822221463e-13 5.184196374594628176e-14 1.119608319087323639e-14
6.495000000000000000e+03 6.315626144409179688e+01 -1.195585846900939941e+00 -6.285385623430728153e-14 8.744000396790005403e-14 7.375844320077831751e-15 7.747240484768172508e-14
6.496000000000000000e+03 7.393898773193359375e+01 -4.895052909851074219e+00 -5.084882100342240363e-14 -1.132942481149590286e-13 -4.924292107432760857e-14 -8.180291161249617082e-14
6.497000000000000000e+03 6.533655548095703125e+01 -6.959201693534851074e-01 -8.996366748347667253e-14 1.901988901662279852e-13 3.007056409431996258e-14 -1.306568378879949255e-13
6.498000000000000000e+03 6.730615234375000000e+01 -1.328678131103515625e+00 -1.787143702339580309e-13 6.066096924902883436e-14 -3.541601961785240116e-14 6.502807037826350764e-15
6.499000000000000000e+03 6.921303558349609375e+01 -9.841917753219604492e-01 -1.059975268365501155e-13 1.375762839154331951e-13 9.473626446038566074e-15 -1.908894727399926272e-13
6.500000000000000000e+03 6.983511352539062500e+01 -4.259400069713592529e-01 -1.342964910285016078e-13 -1.948084841227673558e-13 -9.873148847962254226e-14 -3.193235606491207079e-14
6.501000000000000000e+03 6.991058349609375000e+01 -1.085623741149902344e+00 -1.336935255428009506e-13 -1.945500780874825919e-13 -9.847308244433777835e-14 1.068944195312115930e-13
6.502000000000000000e+03 4.559793090820312500e+01 7.826830744743347168e-01 -5.530563986243025240e-15 4.338070769033426644e-14 1.135504332298560917e-14 1.797787619998731518e-14
6.503000000000000000e+03 4.566867446899414062e+01 1.519477009773254395e+00 -3.987768096421970276e-14 1.201624113796387339e-13 2.408541912462570933e-14 2.324578077500093903e-14
6.504000000000000000e+03 4.641819000244140625e+01 1.431636214256286621e+00 1.405948992752766025e-14 9.752739387565087514e-14 3.347606344688766611e-14 3.254024450610217001e-14
6.505000000000000000e+03 4.491914367675781250e+01 1.608290433883666992e+00 -1.115031664548037094e-13 -7.066254455482742780e-14 -5.464971533576841456e-14 5.160775913603046772e-14
6.506000000000000000e+03 4.416964721679687500e+01 1.698033809661865234e+00 -3.088736812975265145e-14 -1.323744360518441451e-14 -1.323744360518441451e-14 -1.282325804650421772e-14
6.507000000000000000e+03 4.408101654052734375e+01 9.633592367172241211e-01 -1.332253670447217098e-13 -1.134563532804045566e-14 -4.337129884835616567e-14 4.582610027938690406e-15
6.508000000000000000e+03 4.635638427734375000e+01 6.937649250030517578e-01 -8.536028058437478139e-14 1.235453389982280048e-13 1.145551837118891428e-14 5.621328733442301773e-14
6.509000000000000000e+03 4.483945465087890625e+01 8.725561499595642090e-01 -3.498101737746048268e-14 -1.499186313828372585e-14 -1.499186313828372585e-14 -3.484448244262666750e-14
6.510000000000000000e+03 4.271473693847656250e+01 1.061951160430908203e+00 -1.533678918455919082e-13 1.172746931033322171e-13 -1.082795674276588668e-14 7.120659551091475942e-15
6.511000000000000000e+03 4.264341354370117188e+01 1.619309663772583008e+00 9.556052238575418745e-14 4.095451056193230577e-14 4.095451056193230577e-14 -3.365909032613037533e-14
6.512000000000000000e+03 4.216484069824218750e+01 1.138419866561889648e+00 -1.134923928382443326e-13 -2.576412322960290602e-14 -4.177695583679370828e-14 1.591855445202960961e-13
6.513000000000000000e+03 4.337281036376953125e+01 1.785883188247680664e+00 3.598355879756709452e-14 3.829699890003056273e-14 2.228416798690565498e-14 2.201160125480869367e-14
6.514000000000000000e+03 4.216044998168945312e+01 1.951311111450195312e+00 2.191598478759083923e-14 6.658124843562235329e-14 2.654917030577713666e-14 1.851190336817683940e-14
6.515000000000000000e+03 4.178366470336914062e+01 1.255512118339538574e+00 -2.024753520228628201e-13 -3.384053833595940253e-13 -1.622642179042316224e-13 -5.294244589167801385e-14
6.516000000000000000e+03 4.336007308959960938e+01 1.040874958038330078e+00 -3.201839428356237360e-14 -1.052240705592261127e-13 -4.117274013046290371e-14 -1.761358799697715360e-13
