# el_label, x, y, sXX, sYY, sZZ, sXY
1.000000000000000000e+00 1.560520267486572266e+01 -1.052627921104431152e+00 -3.173128366470336914e+00 -1.383219718933105469e+00 -1.366904377937316895e+00 -2.293275594711303711e+00
2.000000000000000000e+00 1.540671443939208984e+01 -1.037806749343872070e+00 2.047965526580810547e+00 6.250832676887512207e-01 8.019146323204040527e-01 4.383023977279663086e-01
3.000000000000000000e+00 1.520822525024414062e+01 -1.022985696792602539e+00 8.738633394241333008e-01 -2.944250702857971191e-01 1.738314777612686157e-01 -2.257749587297439575e-01
4.000000000000000000e+00 1.500973701477050781e+01 -1.008164525032043457e+00 7.413527965545654297e-01 8.993031084537506104e-02 2.493849247694015503e-01 8.243327587842941284e-02
5.000000000000000000e+00 1.560657119750976562e+01 -1.111016392707824707e+00 1.116496467590332031e+01 -2.332809686660766602e+00 2.649646520614624023e+00 -9.665912985801696777e-01
6.000000000000000000e+00 1.540899467468261719e+01 -1.135120868682861328e+00 5.326946735382080078e+00 6.100151315331459045e-02 1.616384506225585938e+00 9.983869642019271851e-02
7.000000000000000000e+00 1.521141910552978516e+01 -1.159225463867187500e+00 5.507673263549804688e+00 1.769793778657913208e-01 1.705395817756652832e+00 8.957809805870056152e-01
8.000000000000000000e+00 1.501384258270263672e+01 -1.183329939842224121e+00 4.299097061157226562e+00 -1.094023287296295166e-01 1.256908416748046875e+00 3.683819174766540527e-01
9.000000000000000000e+00 1.561928081512451172e+01 -1.168021202087402344e+00 1.776111412048339844e+01 -8.837824314832687378e-02 5.301820755004882812e+00 4.646757125854492188e+00
1.000000000000000000e+01 1.543017768859863281e+01 -1.230129003524780273e+00 1.132614517211914062e+01 8.162512676790356636e-04 3.398088455200195312e+00 2.493254661560058594e+00
1.100000000000000000e+01 1.524107456207275391e+01 -1.292236804962158203e+00 8.395565032958984375e+00 6.771367192268371582e-01 2.721810340881347656e+00 2.174398422241210938e+00
1.200000000000000000e+01 1.505197143554687500e+01 -1.354344487190246582e+00 7.545025348663330078e+00 5.806125402450561523e-01 2.437691450119018555e+00 2.187963962554931641e+00
1.300000000000000000e+01 1.564284515380859375e+01 -1.221461057662963867e+00 2.087826538085937500e+01 4.134088039398193359e+00 7.503705978393554688e+00 9.825558662414550781e+00
1.400000000000000000e+01 1.546945095062255859e+01 -1.319195389747619629e+00 1.400685787200927734e+01 2.436410903930664062e+00 4.932980537414550781e+00 6.203461647033691406e+00
1.500000000000000000e+01 1.529605770111083984e+01 -1.416929721832275391e+00 1.126532649993896484e+01 2.079336643218994141e+00 4.003398895263671875e+00 4.810772418975830078e+00
1.600000000000000000e+01 1.512266445159912109e+01 -1.514664053916931152e+00 9.280429840087890625e+00 1.875495553016662598e+00 3.346777439117431641e+00 4.104896545410156250e+00
1.700000000000000000e+01 1.567636203765869141e+01 -1.269290924072265625e+00 2.048780059814453125e+01 1.039845180511474609e+01 9.265875816345214844e+00 1.408090019226074219e+01
1.800000000000000000e+01 1.552531337738037109e+01 -1.398911714553833008e+00 1.495746994018554688e+01 6.436468124389648438e+00 6.418181419372558594e+00 9.493341445922851562e+00
1.900000000000000000e+01 1.537426376342773438e+01 -1.528532624244689941e+00 1.193664932250976562e+01 5.083253860473632812e+00 5.105970859527587891e+00 7.475736141204833984e+00
2.000000000000000000e+01 1.522321510314941406e+01 -1.658153414726257324e+00 1.023301124572753906e+01 4.345659255981445312e+00 4.373600959777832031e+00 6.454170227050781250e+00
2.100000000000000000e+01 1.571854877471923828e+01 -1.309680342674255371e+00 1.842975997924804688e+01 1.766005325317382812e+01 1.082694339752197266e+01 1.637382507324218750e+01
2.200000000000000000e+01 1.559562587738037109e+01 -1.466227531433105469e+00 1.388418102264404297e+01 1.169131183624267578e+01 7.672647476196289062e+00 1.162217044830322266e+01
2.300000000000000000e+01 1.547270202636718750e+01 -1.622774839401245117e+00 1.151751708984375000e+01 9.132314682006835938e+00 6.194949626922607422e+00 9.485767364501953125e+00
2.400000000000000000e+01 1.534977722167968750e+01 -1.779322028160095215e+00 9.807905197143554688e+00 7.794128417968750000e+00 5.280610084533691406e+00 8.149299621582031250e+00
2.500000000000000000e+01 1.576779270172119141e+01 -1.341084003448486328e+00 1.529985618591308594e+01 2.508490753173828125e+01 1.211542892456054688e+01 1.637018966674804688e+01
2.600000000000000000e+01 1.567769718170166016e+01 -1.518566966056823730e+00 1.214152431488037109e+01 1.732590103149414062e+01 8.840228080749511719e+00 1.227632236480712891e+01
2.700000000000000000e+01 1.558760261535644531e+01 -1.696049928665161133e+00 9.968596458435058594e+00 1.378731727600097656e+01 7.126774311065673828e+00 1.015101528167724609e+01
2.800000000000000000e+01 1.549750709533691406e+01 -1.873532772064208984e+00 8.718499183654785156e+00 1.167827987670898438e+01 6.119033813476562500e+00 8.854655265808105469e+00
2.900000000000000000e+01 1.582220745086669922e+01 -1.362300038337707520e+00 1.267658710479736328e+01 3.162975311279296875e+01 1.329190254211425781e+01 1.424380779266357422e+01
3.000000000000000000e+01 1.576838874816894531e+01 -1.553926944732666016e+00 1.006925296783447266e+01 2.259704780578613281e+01 9.799890518188476562e+00 1.133208656311035156e+01
3.100000000000000000e+01 1.571457004547119141e+01 -1.745553970336914062e+00 8.310252189636230469e+00 1.845810699462890625e+01 8.030508041381835938e+00 9.544700622558593750e+00
3.200000000000000000e+01 1.566075134277343750e+01 -1.937180876731872559e+00 7.023080825805664062e+00 1.562998104095458984e+01 6.795918464660644531e+00 8.126181602478027344e+00
3.300000000000000000e+01 1.587971115112304688e+01 -1.372516512870788574e+00 1.105607604980468750e+01 3.656224822998046875e+01 1.428549766540527344e+01 1.046535778045654297e+01
3.400000000000000000e+01 1.586422920227050781e+01 -1.570954442024230957e+00 8.707531929016113281e+00 2.681650352478027344e+01 1.065721130371093750e+01 9.091750144958496094e+00
3.500000000000000000e+01 1.584874629974365234e+01 -1.769392371177673340e+00 6.895767688751220703e+00 2.231398582458496094e+01 8.762926101684570312e+00 7.832028388977050781e+00
3.600000000000000000e+01 1.583326339721679688e+01 -1.967830300331115723e+00 5.533624649047851562e+00 1.970050048828125000e+01 7.570237636566162109e+00 6.638509750366210938e+00
3.700000000000000000e+01 1.593810367584228516e+01 -1.371342539787292480e+00 1.082030487060546875e+01 3.929331970214843750e+01 1.503408718109130859e+01 6.153576850891113281e+00
3.800000000000000000e+01 1.596154975891113281e+01 -1.568997859954833984e+00 8.536086082458496094e+00 2.975237274169921875e+01 1.148653793334960938e+01 5.804251670837402344e+00
3.900000000000000000e+01 1.598499584197998047e+01 -1.766653180122375488e+00 6.360841274261474609e+00 2.472280883789062500e+01 9.325095176696777344e+00 5.442096233367919922e+00
4.000000000000000000e+01 1.600844192504882812e+01 -1.964308500289916992e+00 4.970682621002197266e+00 2.231426620483398438e+01 8.185484886169433594e+00 5.003897666931152344e+00
4.100000000000000000e+01 1.599515056610107422e+01 -1.358823060989379883e+00 1.254455566406250000e+01 4.000300216674804688e+01 1.576426696777343750e+01 1.987543344497680664e+00
4.200000000000000000e+01 1.605662727355957031e+01 -1.548132061958312988e+00 9.081434249877929688e+00 3.116815567016601562e+01 1.207487678527832031e+01 2.374488115310668945e+00
4.300000000000000000e+01 1.611810493469238281e+01 -1.737441062927246094e+00 7.517798900604248047e+00 2.596338653564453125e+01 1.004435539245605469e+01 2.377744197845458984e+00
4.400000000000000000e+01 1.617958068847656250e+01 -1.926750063896179199e+00 5.605595111846923828e+00 2.191464805603027344e+01 8.256072998046875000e+00 2.843193054199218750e+00
4.500000000000000000e+01 1.604866981506347656e+01 -1.335437178611755371e+00 1.577585220336914062e+01 3.917872238159179688e+01 1.648637199401855469e+01 -1.330905556678771973e+00
4.600000000000000000e+01 1.614582443237304688e+01 -1.509155511856079102e+00 1.060995006561279297e+01 3.089504623413085938e+01 1.245149898529052734e+01 -6.323605179786682129e-01
4.700000000000000000e+01 1.624298095703125000e+01 -1.682873964309692383e+00 9.371436119079589844e+00 2.615153694152832031e+01 1.065689182281494141e+01 -4.186802506446838379e-01
4.800000000000000000e+01 1.634013557434082031e+01 -1.856592416763305664e+00 7.840641498565673828e+00 2.205156326293945312e+01 8.967660903930664062e+00 -7.842723131179809570e-01
4.900000000000000000e+01 1.609661102294921875e+01 -1.302079796791076660e+00 1.846806907653808594e+01 3.673068618774414062e+01 1.655962562561035156e+01 -3.622470617294311523e+00
5.000000000000000000e+01 1.622572708129882812e+01 -1.453559875488281250e+00 1.406639099121093750e+01 3.002116394042968750e+01 1.322626686096191406e+01 -2.389027595520019531e+00
5.100000000000000000e+01 1.635484313964843750e+01 -1.605039954185485840e+00 1.070714855194091797e+01 2.471739959716796875e+01 1.062736415863037109e+01 -2.756398916244506836e+00
5.200000000000000000e+01 1.648396110534667969e+01 -1.756520032882690430e+00 1.022949314117431641e+01 2.390356636047363281e+01 1.023991775512695312e+01 -2.616031169891357422e+00
5.300000000000000000e+01 1.613714027404785156e+01 -1.260027289390563965e+00 2.252909851074218750e+01 3.500225830078125000e+01 1.725940704345703125e+01 -3.922753810882568359e+00
5.400000000000000000e+01 1.629327583312988281e+01 -1.383472323417663574e+00 1.651657676696777344e+01 2.737928581237792969e+01 1.316875934600830078e+01 -3.626921176910400391e+00
5.500000000000000000e+01 1.644941329956054688e+01 -1.506917476654052734e+00 1.373239898681640625e+01 2.411186218261718750e+01 1.135327816009521484e+01 -3.265261650085449219e+00
5.600000000000000000e+01 1.660555076599121094e+01 -1.630362510681152344e+00 1.097711563110351562e+01 2.101531219482421875e+01 9.597727775573730469e+00 -2.290797948837280273e+00
5.700000000000000000e+01 1.616870689392089844e+01 -1.210888981819152832e+00 2.528032493591308594e+01 3.238779830932617188e+01 1.730043792724609375e+01 -3.317516088485717773e+00
5.800000000000000000e+01 1.634588813781738281e+01 -1.301575183868408203e+00 1.953929328918457031e+01 2.565172958374023438e+01 1.355730628967285156e+01 -3.266492366790771484e+00
5.900000000000000000e+01 1.652307128906250000e+01 -1.392261385917663574e+00 1.576114368438720703e+01 2.210963821411132812e+01 1.136123466491699219e+01 -2.649058580398559570e+00
6.000000000000000000e+01 1.670025253295898438e+01 -1.482947587966918945e+00 1.416892242431640625e+01 1.781876373291015625e+01 9.596305847167968750e+00 -2.150844573974609375e+00
6.100000000000000000e+01 1.619010543823242188e+01 -1.156545162200927734e+00 2.745768547058105469e+01 3.049227714538574219e+01 1.738498878479003906e+01 -1.639485597610473633e+00
6.200000000000000000e+01 1.638155174255371094e+01 -1.211002230644226074e+00 2.125337219238281250e+01 2.439811897277832031e+01 1.369544696807861328e+01 -1.829503178596496582e+00
6.300000000000000000e+01 1.657299804687500000e+01 -1.265459299087524414e+00 1.805058860778808594e+01 1.982762527465820312e+01 1.136346435546875000e+01 -1.331920027732849121e+00
6.400000000000000000e+01 1.676444435119628906e+01 -1.319916367530822754e+00 1.580948543548583984e+01 1.749067878723144531e+01 9.990049362182617188e+00 -1.973956584930419922e+00
6.500000000000000000e+01 1.620051383972167969e+01 -1.099075555801391602e+00 2.835142707824707031e+01 3.003450584411621094e+01 1.751577949523925781e+01 4.408868551254272461e-01
6.600000000000000000e+01 1.639889907836914062e+01 -1.115219593048095703e+00 2.217165565490722656e+01 2.317435455322265625e+01 1.360380363464355469e+01 5.706273317337036133e-01
6.700000000000000000e+01 1.659728431701660156e+01 -1.131363511085510254e+00 1.872265052795410156e+01 1.957309341430664062e+01 1.148872375488281250e+01 -8.624150604009628296e-02
6.800000000000000000e+01 1.679566955566406250e+01 -1.147507548332214355e+00 1.638314056396484375e+01 1.690365600585937500e+01 9.986039161682128906e+00 -6.434803828597068787e-03
6.900000000000000000e+01 1.619953346252441406e+01 -1.040679216384887695e+00 2.780966758728027344e+01 2.996105575561523438e+01 1.733121681213378906e+01 3.216358184814453125e+00
7.000000000000000000e+01 1.639726638793945312e+01 -1.017892479896545410e+00 2.181137657165527344e+01 2.358168983459472656e+01 1.361791992187500000e+01 2.556493043899536133e+00
7.100000000000000000e+01 1.659499931335449219e+01 -9.951055645942687988e-01 1.794079017639160156e+01 1.989904594421386719e+01 1.135195064544677734e+01 2.182582139968872070e+00
7.200000000000000000e+01 1.679273033142089844e+01 -9.723187088966369629e-01 1.582519817352294922e+01 1.734131050109863281e+01 9.949953079223632812e+00 1.256590962409973145e+00
7.300000000000000000e+01 1.618720436096191406e+01 -9.835909605026245117e-01 2.621678352355957031e+01 3.120188713073730469e+01 1.722560119628906250e+01 5.263923645019531250e+00
7.400000000000000000e+01 1.637671661376953125e+01 -9.227452278137207031e-01 1.975822257995605469e+01 2.477093696594238281e+01 1.335874748229980469e+01 4.678440570831298828e+00
7.500000000000000000e+01 1.656623077392578125e+01 -8.618994951248168945e-01 1.644463157653808594e+01 2.116577339172363281e+01 1.128312206268310547e+01 3.703868627548217773e+00
7.600000000000000000e+01 1.675574302673339844e+01 -8.010538220405578613e-01 1.354146194458007812e+01 1.880792236328125000e+01 9.704815864562988281e+00 3.065146446228027344e+00
7.700000000000000000e+01 1.616399765014648438e+01 -9.299952983856201172e-01 2.296215438842773438e+01 3.329253387451171875e+01 1.687640762329101562e+01 6.975440025329589844e+00
7.800000000000000000e+01 1.633803749084472656e+01 -8.334190845489501953e-01 1.708087348937988281e+01 2.671671676635742188e+01 1.313927745819091797e+01 5.587470531463623047e+00
7.900000000000000000e+01 1.651207923889160156e+01 -7.368428111076354980e-01 1.355924034118652344e+01 2.295550918579101562e+01 1.095442485809326172e+01 4.815525531768798828e+00
8.000000000000000000e+01 1.668612098693847656e+01 -6.402665972709655762e-01 1.155471420288085938e+01 2.056146430969238281e+01 9.634853363037109375e+00 4.145342826843261719e+00
8.100000000000000000e+01 1.613080024719238281e+01 -8.819431066513061523e-01 1.917225456237792969e+01 3.585304260253906250e+01 1.650758934020996094e+01 7.285981178283691406e+00
8.200000000000000000e+01 1.628270912170410156e+01 -7.533320784568786621e-01 1.332030582427978516e+01 2.907204627990722656e+01 1.271770572662353516e+01 5.517942905426025391e+00
8.300000000000000000e+01 1.643461990356445312e+01 -6.247210502624511719e-01 1.074500846862792969e+01 2.466686439514160156e+01 1.062356185913085938e+01 4.633608341217041016e+00
8.400000000000000000e+01 1.658652877807617188e+01 -4.961100220680236816e-01 8.833914756774902344e+00 2.221211433410644531e+01 9.313808441162109375e+00 4.169345855712890625e+00
8.500000000000000000e+01 1.608888244628906250e+01 -8.412732481956481934e-01 1.460395812988281250e+01 3.865304565429687500e+01 1.597710132598876953e+01 6.135429859161376953e+00
8.600000000000000000e+01 1.621284675598144531e+01 -6.855489611625671387e-01 9.875273704528808594e+00 3.089323425292968750e+01 1.223055267333984375e+01 4.137081623077392578e+00
8.700000000000000000e+01 1.633681297302246094e+01 -5.298247337341308594e-01 7.515506744384765625e+00 2.633083724975585938e+01 1.015390300750732422e+01 3.179403305053710938e+00
8.800000000000000000e+01 1.646077728271484375e+01 -3.741004467010498047e-01 6.331569671630859375e+00 2.298329162597656250e+01 8.794458389282226562e+00 2.844431877136230469e+00
8.900000000000000000e+01 1.603984832763671875e+01 -8.095420598983764648e-01 1.051424503326416016e+01 4.062099456787109375e+01 1.534057235717773438e+01 3.440177440643310547e+00
9.000000000000000000e+01 1.613112640380859375e+01 -6.326636672019958496e-01 6.703753948211669922e+00 3.195903778076171875e+01 1.159883785247802734e+01 1.466700196266174316e+00
9.100000000000000000e+01 1.622240257263183594e+01 -4.557852447032928467e-01 4.982137680053710938e+00 2.702882385253906250e+01 9.603288650512695312e+00 8.975857496261596680e-01
9.200000000000000000e+01 1.631367874145507812e+01 -2.789068818092346191e-01 3.724432706832885742e+00 2.360025787353515625e+01 8.197407722473144531e+00 2.896433472633361816e-01
9.300000000000000000e+01 1.598557758331298828e+01 -7.879637479782104492e-01 7.229804515838623047e+00 4.114885711669921875e+01 1.451359748840332031e+01 -6.460348367691040039e-01
9.400000000000000000e+01 1.604067230224609375e+01 -5.966998338699340820e-01 4.689543247222900391e+00 3.166009902954101562e+01 1.090489292144775391e+01 -1.882269501686096191e+00
9.500000000000000000e+01 1.609576797485351562e+01 -4.054359197616577148e-01 3.138249635696411133e+00 2.648744773864746094e+01 8.887709617614746094e+00 -2.155460119247436523e+00
9.600000000000000000e+01 1.615086174011230469e+01 -2.141720354557037354e-01 2.102154493331909180e+00 2.341867828369140625e+01 7.656250000000000000e+00 -2.200114965438842773e+00
9.700000000000000000e+01 1.592814350128173828e+01 -7.773641347885131836e-01 5.708588600158691406e+00 3.969114303588867188e+01 1.361991977691650391e+01 -5.442750453948974609e+00
9.800000000000000000e+01 1.594494819641113281e+01 -5.790337920188903809e-01 3.745436668395996094e+00 2.956517410278320312e+01 9.993183135986328125e+00 -5.460838794708251953e+00
9.900000000000000000e+01 1.596175384521484375e+01 -3.807034790515899658e-01 2.535885095596313477e+00 2.473750495910644531e+01 8.182016372680664062e+00 -5.119590282440185547e+00
1.000000000000000000e+02 1.597855854034423828e+01 -1.823731511831283569e-01 1.579093456268310547e+00 2.152079391479492188e+01 6.929966449737548828e+00 -4.769440174102783203e+00
1.010000000000000000e+02 1.586974430084228516e+01 -7.781487703323364258e-01 5.797886848449707031e+00 3.578464889526367188e+01 1.247476100921630859e+01 -1.004869842529296875e+01
1.020000000000000000e+02 1.584761619567871094e+01 -5.803415179252624512e-01 4.216211795806884766e+00 2.591726303100585938e+01 9.040041923522949219e+00 -8.577742576599121094e+00
1.030000000000000000e+02 1.582548904418945312e+01 -3.825342953205108643e-01 2.918735504150390625e+00 2.126812362670898438e+01 7.256058216094970703e+00 -7.491969585418701172e+00
1.040000000000000000e+02 1.580336093902587891e+01 -1.847270876169204712e-01 2.047886133193969727e+00 1.882293891906738281e+01 6.261247634887695312e+00 -6.763937473297119141e+00
1.050000000000000000e+02 1.581261539459228516e+01 -7.902876138687133789e-01 7.548077106475830078e+00 2.972296333312988281e+01 1.118131256103515625e+01 -1.356787586212158203e+01
1.060000000000000000e+02 1.575240135192871094e+01 -6.005730032920837402e-01 5.567632675170898438e+00 2.075460052490234375e+01 7.896669864654541016e+00 -1.047931194305419922e+01
1.070000000000000000e+02 1.569218730926513672e+01 -4.108583629131317139e-01 4.084508895874023438e+00 1.687048912048339844e+01 6.286499023437500000e+00 -8.938503265380859375e+00
1.080000000000000000e+02 1.563197326660156250e+01 -2.211437374353408813e-01 3.206607103347778320e+00 1.458047199249267578e+01 5.336123943328857422e+00 -7.590665340423583984e+00
1.090000000000000000e+02 1.575894165039062500e+01 -8.133162260055541992e-01 1.017234134674072266e+01 2.215374565124511719e+01 9.697826385498046875e+00 -1.495169067382812500e+01
1.100000000000000000e+02 1.566294670104980469e+01 -6.389540433883666992e-01 7.232056617736816406e+00 1.472164154052734375e+01 6.586109638214111328e+00 -1.098075866699218750e+01
1.110000000000000000e+02 1.556695079803466797e+01 -4.645917713642120361e-01 5.501141071319580078e+00 1.189323997497558594e+01 5.218314170837402344e+00 -8.728271484375000000e+00
1.120000000000000000e+02 1.547095489501953125e+01 -2.902295887470245361e-01 4.272603034973144531e+00 1.002341556549072266e+01 4.288805484771728516e+00 -7.771740436553955078e+00
1.130000000000000000e+02 1.571077919006347656e+01 -8.463533520698547363e-01 1.264456748962402344e+01 1.363280487060546875e+01 7.883211612701416016e+00 -1.407421016693115234e+01
1.140000000000000000e+02 1.558267498016357422e+01 -6.940158605575561523e-01 8.327977180480957031e+00 8.874506950378417969e+00 5.160745143890380859e+00 -9.354690551757812500e+00
1.150000000000000000e+02 1.545457172393798828e+01 -5.416783690452575684e-01 6.347541332244873047e+00 7.040925025939941406e+00 4.016540050506591797e+00 -7.521587848663330078e+00
1.160000000000000000e+02 1.532646751403808594e+01 -3.893408775329589844e-01 4.774397373199462891e+00 6.270989894866943359e+00 3.313616275787353516e+00 -6.405517101287841797e+00
1.170000000000000000e+02 1.566996955871582031e+01 -8.881347179412841797e-01 1.319259071350097656e+01 6.008543014526367188e+00 5.760340213775634766e+00 -1.046673679351806641e+01
1.180000000000000000e+02 1.551465988159179688e+01 -7.636514902114868164e-01 8.265846252441406250e+00 3.602071285247802734e+00 3.560375213623046875e+00 -6.407109737396240234e+00
1.190000000000000000e+02 1.535935020446777344e+01 -6.391682028770446777e-01 5.568950653076171875e+00 3.640311479568481445e+00 2.762778759002685547e+00 -4.901913642883300781e+00
1.200000000000000000e+02 1.520403957366943359e+01 -5.146849751472473145e-01 4.396113872528076172e+00 3.350903987884521484e+00 2.324105262756347656e+00 -4.608752727508544922e+00
1.210000000000000000e+02 1.563807582855224609e+01 -9.370614886283874512e-01 1.124337196350097656e+01 -8.984666466712951660e-01 3.103471517562866211e+00 -4.629475593566894531e+00
1.220000000000000000e+02 1.546150207519531250e+01 -8.451960682868957520e-01 4.804974079132080078e+00 1.194174408912658691e+00 1.799744606018066406e+00 -2.417771339416503906e+00
1.230000000000000000e+02 1.528492927551269531e+01 -7.533306479454040527e-01 3.920295953750610352e+00 1.687484502792358398e+00 1.682334065437316895e+00 -2.916382074356079102e+00
1.240000000000000000e+02 1.510835647583007812e+01 -6.614652276039123535e-01 2.813823461532592773e+00 9.707500338554382324e-01 1.135372042655944824e+00 -2.140052556991577148e+00
1.250000000000000000e+02 1.561631679534912109e+01 -9.912613630294799805e-01 9.686750173568725586e-02 -2.992281913757324219e+00 -8.686242699623107910e-01 1.709627151489257812e+00
1.260000000000000000e+02 1.542523765563964844e+01 -9.355292320251464844e-01 1.992469549179077148e+00 1.269638657569885254e+00 9.786324501037597656e-01 -1.072329521179199219e+00
1.270000000000000000e+02 1.523415851593017578e+01 -8.797970414161682129e-01 6.072134375572204590e-01 -2.941139638423919678e-01 9.392983466386795044e-02 -3.806309401988983154e-01
1.280000000000000000e+02 1.504307937622070312e+01 -8.240649104118347168e-01 -1.334607750177383423e-01 3.418972194194793701e-01 6.253093481063842773e-02 -2.993400990962982178e-01
1.290000000000000000e+02 1.261615371704101562e+01 -1.650833606719970703e+00 1.493088722229003906e+00 -1.223307847976684570e-01 4.112273752689361572e-01 6.166387200355529785e-01
1.300000000000000000e+02 1.023183345794677734e+01 -1.320746064186096191e+00 -9.877316653728485107e-02 4.965611547231674194e-02 -1.473511476069688797e-02 1.959160566329956055e-01
1.310000000000000000e+02 1.096675872802734375e+01 -1.026375889778137207e+00 -2.221924513578414917e-01 -2.397299557924270630e-02 -7.384963333606719971e-02 1.249739006161689758e-01
1.320000000000000000e+02 1.244685173034667969e+01 -1.841538429260253906e+00 1.657359600067138672e+00 2.745072357356548309e-02 5.054430961608886719e-01 8.428521156311035156e-01
1.330000000000000000e+02 1.229731273651123047e+01 -7.880893349647521973e-01 -4.790569245815277100e-01 -2.064579725265502930e-01 -2.056544721126556396e-01 1.748890131711959839e-01
1.340000000000000000e+02 1.267848873138427734e+01 -1.475305199623107910e+00 1.136192083358764648e+00 -6.248284503817558289e-02 3.221127688884735107e-01 5.185985565185546875e-01
1.350000000000000000e+02 1.269613647460937500e+01 -1.094563245773315430e+00 2.032581120729446411e-01 6.269488483667373657e-02 7.978589832782745361e-02 2.534991204738616943e-01
1.360000000000000000e+02 1.250743007659912109e+01 -1.236562848091125488e+00 4.665160775184631348e-01 -5.094452947378158569e-02 1.246714666485786438e-01 4.060018062591552734e-01
1.370000000000000000e+02 1.268622970581054688e+01 -8.808590769767761230e-01 -1.280847936868667603e-01 3.684468194842338562e-02 -2.737203612923622131e-02 1.049740985035896301e-01
1.380000000000000000e+02 1.108481121063232422e+01 -5.277201533317565918e-01 -9.672186970710754395e-01 -7.274602353572845459e-02 -3.119894266128540039e-01 1.850934624671936035e-01
1.390000000000000000e+02 1.034191608428955078e+01 -3.429164588451385498e-01 -9.797979593276977539e-01 2.949575521051883698e-02 -2.850906550884246826e-01 1.681333035230636597e-01
1.400000000000000000e+02 1.270726585388183594e+01 -1.284643411636352539e+00 9.117603302001953125e-01 -1.801167428493499756e-02 2.681246101856231689e-01 3.486849367618560791e-01
1.410000000000000000e+02 1.264250373840332031e+01 -6.268790364265441895e-01 -8.563690185546875000e-01 -2.864039503037929535e-02 -2.655028402805328369e-01 1.807643175125122070e-01
1.420000000000000000e+02 1.178715324401855469e+01 -6.613302826881408691e-01 -8.558144569396972656e-01 4.667102918028831482e-02 -2.427430301904678345e-01 2.406924366950988770e-01
1.430000000000000000e+02 1.224248313903808594e+01 -1.177228093147277832e+00 1.704531759023666382e-01 -1.878690421581268311e-01 -5.224758293479681015e-03 2.170344144105911255e-01
1.440000000000000000e+02 1.221971797943115234e+01 -1.569613575935363770e+00 1.026398062705993652e+00 7.972569018602371216e-02 3.318371176719665527e-01 5.727162361145019531e-01
1.450000000000000000e+02 1.248426055908203125e+01 -1.480820655822753906e+00 1.121528744697570801e+00 -1.290865242481231689e-01 2.977326512336730957e-01 5.726868510246276855e-01
1.460000000000000000e+02 1.146266174316406250e+01 -1.479947447776794434e+00 4.619345366954803467e-01 1.878617703914642334e-02 1.442162096500396729e-01 4.504814445972442627e-01
1.470000000000000000e+02 1.028226852416992188e+01 -8.376696705818176270e-01 -6.042662262916564941e-01 7.296902686357498169e-02 -1.593891680240631104e-01 9.141346067190170288e-02
1.480000000000000000e+02 1.189192008972167969e+01 -1.298729896545410156e+00 5.089575052261352539e-01 -4.332111030817031860e-02 1.396909207105636597e-01 3.112892806529998779e-01
1.490000000000000000e+02 1.089437961578369141e+01 -1.456634283065795898e+00 2.727642655372619629e-01 1.108394786715507507e-01 1.150811165571212769e-01 3.757300972938537598e-01
1.500000000000000000e+02 1.403063964843750000e+01 -8.964079022407531738e-01 -1.423230171203613281e-01 -1.647308672545477748e-04 -4.274632409214973450e-02 8.921439945697784424e-02
1.510000000000000000e+02 1.581501770019531250e+01 -2.121797561645507812e+00 5.171633720397949219e+00 1.880509757995605469e+01 7.193019390106201172e+00 6.249686241149902344e+00
1.520000000000000000e+02 1.633680534362792969e+01 -2.160577058792114258e+00 5.396300792694091797e+00 1.858955574035644531e+01 7.195756912231445312e+00 9.756820201873779297e-01
1.530000000000000000e+02 1.663849830627441406e+01 -2.048907995223999023e+00 6.691553115844726562e+00 1.846970176696777344e+01 7.548376560211181641e+00 -1.721213698387145996e+00
1.540000000000000000e+02 1.713177871704101562e+01 -1.562210798263549805e+00 1.136639499664306641e+01 1.451011466979980469e+01 7.762952804565429688e+00 -2.601061344146728516e+00
1.550000000000000000e+02 1.694193649291992188e+01 -8.749347925186157227e-01 1.372488784790039062e+01 1.613667869567871094e+01 8.958470344543457031e+00 1.129787206649780273e+00
1.560000000000000000e+02 1.646484947204589844e+01 -1.203366667032241821e-01 3.564528703689575195e+00 2.105134963989257812e+01 7.384763717651367188e+00 8.238931298255920410e-01
1.570000000000000000e+02 1.385011386871337891e+01 -4.094440340995788574e-01 -1.796743273735046387e+00 1.861256659030914307e-01 -4.831852912902832031e-01 -6.348084658384323120e-02
1.580000000000000000e+02 1.328523445129394531e+01 -4.577112495899200439e-01 -3.076106548309326172e+00 8.151860907673835754e-03 -9.203863739967346191e-01 4.894134402275085449e-01
1.590000000000000000e+02 1.467768764495849609e+01 5.003371238708496094e-01 1.546214699745178223e+00 4.734871864318847656e+00 1.884326100349426270e+00 -4.341262817382812500e+00
1.600000000000000000e+02 1.589618587493896484e+01 3.471767306327819824e-01 5.104302167892456055e-01 1.614414024353027344e+01 4.996371269226074219e+00 -4.827325820922851562e+00
1.610000000000000000e+02 1.424557495117187500e+01 -9.243275523185729980e-01 -3.937354683876037598e-02 -2.151263132691383362e-02 -1.826585270464420319e-02 9.583698958158493042e-02
1.620000000000000000e+02 1.280140209197998047e+01 -1.928013205528259277e+00 2.374213933944702148e+00 1.726105660200119019e-01 7.640473842620849609e-01 1.170140385627746582e+00
1.630000000000000000e+02 1.300138950347900391e+01 -1.960131168365478516e+00 2.564956426620483398e+00 1.306801438331604004e-01 8.086909651756286621e-01 1.204191327095031738e+00
1.640000000000000000e+02 1.288049507141113281e+01 -1.507218360900878906e+00 1.476031303405761719e+00 -1.102239638566970825e-02 4.395026862621307373e-01 4.989939928054809570e-01
1.650000000000000000e+02 1.574827575683593750e+01 -2.233751058578491211e+00 5.350451469421386719e+00 1.599803543090820312e+01 6.404546260833740234e+00 5.934783935546875000e+00
1.660000000000000000e+02 1.493753337860107422e+01 -1.642302274703979492e+00 8.266214370727539062e+00 1.826799035072326660e+00 3.027904033660888672e+00 3.982377767562866211e+00
1.670000000000000000e+02 1.456235980987548828e+01 -1.066594600677490234e+00 1.293518662452697754e+00 6.106084585189819336e-02 4.063738584518432617e-01 2.113125473260879517e-01
1.680000000000000000e+02 1.358842372894287109e+01 -2.071507453918457031e+00 3.848190784454345703e+00 5.255964994430541992e-01 1.312136173248291016e+00 1.944256424903869629e+00
1.690000000000000000e+02 1.329655361175537109e+01 8.165043592453002930e-01 -1.209422722458839417e-01 1.654466986656188965e+00 4.600574076175689697e-01 -1.690165996551513672e+00
1.700000000000000000e+02 1.343371200561523438e+01 5.961506366729736328e-01 -1.759396642446517944e-01 1.390295505523681641e+00 3.643067479133605957e-01 -1.555319428443908691e+00
1.710000000000000000e+02 1.322456264495849609e+01 4.134340882301330566e-01 -6.510865092277526855e-01 6.734494566917419434e-01 6.708874832838773727e-03 -8.149534463882446289e-01
1.720000000000000000e+02 1.380259037017822266e+01 5.377769470214843750e-03 -4.571190476417541504e-01 6.616855859756469727e-01 6.136996671557426453e-02 -8.897597193717956543e-01
1.730000000000000000e+02 1.349983787536621094e+01 -4.852649867534637451e-01 -2.882411479949951172e+00 -1.350831538438796997e-01 -9.052484035491943359e-01 4.028602540493011475e-01
1.740000000000000000e+02 1.425435447692871094e+01 5.895944237709045410e-01 1.015542387962341309e+00 3.079486608505249023e+00 1.228508710861206055e+00 -3.209595680236816406e+00
1.750000000000000000e+02 1.446036815643310547e+01 5.330307483673095703e-01 1.335747003555297852e+00 3.837932348251342773e+00 1.552103757858276367e+00 -3.741670608520507812e+00
1.760000000000000000e+02 1.529894733428955078e+01 1.255466938018798828e-01 2.550676822662353516e+00 9.016430854797363281e+00 3.470132350921630859e+00 -6.226594448089599609e+00
1.770000000000000000e+02 1.579933834075927734e+01 -1.348290219902992249e-02 1.713210821151733398e+00 1.662706565856933594e+01 5.502082824707031250e+00 -6.395618915557861328e+00
1.780000000000000000e+02 1.570248413085937500e+01 3.673493266105651855e-01 8.631478548049926758e-01 1.435898494720458984e+01 4.566639900207519531e+00 -5.316727638244628906e+00
1.790000000000000000e+02 1.307753181457519531e+01 -4.301123619079589844e-01 -3.286960840225219727e+00 -1.374160945415496826e-01 -1.027313113212585449e+00 5.090265870094299316e-01
1.800000000000000000e+02 1.325532627105712891e+01 6.138725280761718750e-01 -5.210604071617126465e-01 1.246484160423278809e+00 2.176271080970764160e-01 -1.229709506034851074e+00
1.810000000000000000e+02 1.414271545410156250e+01 3.025815486907958984e-01 7.808098793029785156e-01 2.036523580551147461e+00 8.452000617980957031e-01 -2.434022903442382812e+00
1.820000000000000000e+02 1.502751541137695312e+01 -3.640306293964385986e-01 3.328243732452392578e+00 2.809374809265136719e+00 1.841285586357116699e+00 -3.911710500717163086e+00
1.830000000000000000e+02 1.491561412811279297e+01 -5.590866208076477051e-01 1.870180368423461914e+00 1.138873100280761719e+00 9.027160406112670898e-01 -1.993041038513183594e+00
1.840000000000000000e+02 1.484912109375000000e+01 -7.693680524826049805e-01 -7.013151645660400391e-01 8.334885351359844208e-03 -2.078940868377685547e-01 -1.261877715587615967e-01
1.850000000000000000e+02 1.697202110290527344e+01 -1.224662899971008301e+00 1.432674121856689453e+01 1.619695472717285156e+01 9.157109260559082031e+00 -5.638897418975830078e-01
1.860000000000000000e+02 1.689683341979980469e+01 -4.375208914279937744e-01 8.786573410034179688e+00 1.831280517578125000e+01 8.129814147949218750e+00 3.668640613555908203e+00
1.870000000000000000e+02 1.667386817932128906e+01 -3.726489543914794922e-01 7.466685771942138672e+00 2.108443260192871094e+01 8.565335273742675781e+00 3.704138040542602539e+00
1.880000000000000000e+02 1.534945964813232422e+01 -9.520144760608673096e-02 3.273125410079956055e+00 8.854022026062011719e+00 3.638144254684448242e+00 -6.803483009338378906e+00
1.890000000000000000e+02 1.480891513824462891e+01 -9.778406023979187012e-01 3.970408141613006592e-01 -1.177662387490272522e-01 8.378237485885620117e-02 7.361704111099243164e-02
1.900000000000000000e+02 1.444076251983642578e+01 -9.202544689178466797e-01 6.055361405014991760e-02 -1.563245356082916260e-01 -2.873127721250057220e-02 9.538491256535053253e-03
1.910000000000000000e+02 1.479683303833007812e+01 -2.079681873321533203e+00 7.238176345825195312e+00 3.862984657287597656e+00 3.330348253250122070e+00 5.350543498992919922e+00
1.920000000000000000e+02 1.600069808959960938e+01 -2.124644756317138672e+00 4.532805442810058594e+00 2.028675270080566406e+01 7.445867538452148438e+00 4.627351284027099609e+00
1.930000000000000000e+02 1.684929656982421875e+01 -1.754956841468811035e+00 1.002259063720703125e+01 1.660916328430175781e+01 7.989526271820068359e+00 -2.597580432891845703e+00
1.940000000000000000e+02 1.308575916290283203e+01 -1.529392838478088379e+00 1.696201920509338379e+00 3.318534046411514282e-02 5.188161730766296387e-01 6.582848429679870605e-01
1.950000000000000000e+02 1.341245365142822266e+01 -7.838055491447448730e-01 -4.494162499904632568e-01 -7.318020612001419067e-02 -1.567789316177368164e-01 1.683869808912277222e-01
1.960000000000000000e+02 1.302470970153808594e+01 -6.819294691085815430e-01 -7.214596867561340332e-01 -5.617925152182579041e-02 -2.332916855812072754e-01 1.581518054008483887e-01
1.970000000000000000e+02 1.724188995361328125e+01 -1.008413076400756836e+00 1.255838584899902344e+01 1.346368694305419922e+01 7.806622028350830078e+00 7.705461978912353516e-01
1.980000000000000000e+02 1.562736892700195312e+01 9.927478432655334473e-02 1.906560420989990234e+00 1.398104286193847656e+01 4.766281127929687500e+00 -6.348617553710937500e+00
1.990000000000000000e+02 1.594653987884521484e+01 1.444521993398666382e-01 1.020439982414245605e+00 1.758062171936035156e+01 5.580318450927734375e+00 -4.639257907867431641e+00
2.000000000000000000e+02 1.551034736633300781e+01 3.723992705345153809e-01 1.241355895996093750e+00 1.166800308227539062e+01 3.872807741165161133e+00 -6.216865539550781250e+00
2.010000000000000000e+02 1.713742637634277344e+01 -6.926601529121398926e-01 9.880938529968261719e+00 1.461911678314208984e+01 7.350016593933105469e+00 1.675809621810913086e+00
2.020000000000000000e+02 1.701830673217773438e+01 -3.159540891647338867e-01 7.604958534240722656e+00 1.650216865539550781e+01 7.232138156890869141e+00 3.271460771560668945e+00
2.030000000000000000e+02 1.667604064941406250e+01 -2.205154001712799072e-01 5.687613487243652344e+00 2.062034225463867188e+01 7.892386913299560547e+00 2.530187606811523438e+00
2.040000000000000000e+02 1.689296150207519531e+01 -7.280832529067993164e-01 1.200579261779785156e+01 1.771820259094238281e+01 8.917198181152343750e+00 2.686710596084594727e+00
2.050000000000000000e+02 1.470209217071533203e+01 -4.997423589229583740e-01 9.235042929649353027e-01 8.007583618164062500e-01 5.172787904739379883e-01 -1.449917554855346680e+00
2.060000000000000000e+02 1.652432250976562500e+01 -2.546691596508026123e-01 5.703238487243652344e+00 2.181283569335937500e+01 8.254822731018066406e+00 2.488075971603393555e+00
2.070000000000000000e+02 1.659408187866210938e+01 5.394601821899414062e-02 2.438496112823486328e+00 1.954394531250000000e+01 6.594732284545898438e+00 2.714945375919342041e-01
2.080000000000000000e+02 1.637389755249023438e+01 -1.467369049787521362e-01 2.918243646621704102e+00 2.147075462341308594e+01 7.316699504852294922e+00 3.545057401061058044e-02
2.090000000000000000e+02 1.600855827331542969e+01 -2.410575866699218750e+00 3.921341657638549805e+00 1.718592834472656250e+01 6.332180976867675781e+00 4.292035579681396484e+00
2.100000000000000000e+02 1.561460781097412109e+01 -2.411987781524658203e+00 5.257143974304199219e+00 1.216416931152343750e+01 5.226394176483154297e+00 6.018276691436767578e+00
2.110000000000000000e+02 1.508360004425048828e+01 -2.141552448272705078e+00 7.421754837036132812e+00 6.265059947967529297e+00 4.106044292449951172e+00 6.491189002990722656e+00
2.120000000000000000e+02 1.522965049743652344e+01 -1.968332648277282715e+00 8.360912322998046875e+00 7.198439598083496094e+00 4.667805671691894531e+00 7.355144023895263672e+00
2.130000000000000000e+02 1.434739112854003906e+01 -1.940764427185058594e+00 5.761916637420654297e+00 1.173444271087646484e+00 2.080608129501342773e+00 2.977885723114013672e+00
2.140000000000000000e+02 1.537538146972656250e+01 -2.353940963745117188e+00 6.070095539093017578e+00 1.047891139984130859e+01 4.964702129364013672e+00 7.192408561706542969e+00
2.150000000000000000e+02 1.687148094177246094e+01 -1.525941610336303711e+00 1.288701057434082031e+01 1.674936676025390625e+01 8.890913009643554688e+00 -2.655181169509887695e+00
2.160000000000000000e+02 1.530350303649902344e+01 3.999440670013427734e-01 1.620293498039245605e+00 9.418940544128417969e+00 3.311770200729370117e+00 -5.848871707916259766e+00
2.170000000000000000e+02 1.405598640441894531e+01 6.429902911186218262e-01 7.312970161437988281e-01 2.598965406417846680e+00 9.990787506103515625e-01 -2.783136367797851562e+00
2.180000000000000000e+02 1.488849258422851562e+01 4.855512082576751709e-01 1.755439281463623047e+00 5.871001243591308594e+00 2.287932157516479492e+00 -5.008120536804199219e+00
2.190000000000000000e+02 1.358410167694091797e+01 5.362527370452880859e-01 -2.550925873219966888e-02 1.324984431266784668e+00 3.898425698280334473e-01 -1.672463297843933105e+00
2.200000000000000000e+02 1.367479610443115234e+01 7.411568164825439453e-01 2.390288859605789185e-01 1.998163938522338867e+00 6.711578369140625000e-01 -2.124671459197998047e+00
2.210000000000000000e+02 1.444997310638427734e+01 -6.866437196731567383e-01 -1.629572629928588867e+00 2.895448170602321625e-02 -4.801854491233825684e-01 5.254805088043212891e-02
2.220000000000000000e+02 1.428896427154541016e+01 -4.083029031753540039e-01 -4.670482873916625977e-01 3.866741657257080078e-01 -2.411223761737346649e-02 -6.138672828674316406e-01
2.230000000000000000e+02 1.312303161621093750e+01 -2.142158150672912598e-01 -2.472823381423950195e+00 4.406313598155975342e-02 -7.286280393600463867e-01 1.712465733289718628e-01
2.240000000000000000e+02 1.465083694458007812e+01 -7.246984243392944336e-01 -1.160823345184326172e+00 9.314929693937301636e-02 -3.203021883964538574e-01 -4.267719388008117676e-02
2.250000000000000000e+02 1.368913459777832031e+01 -5.429373383522033691e-01 -2.681241035461425781e+00 -6.451158970594406128e-02 -8.237258195877075195e-01 4.600391983985900879e-01
2.260000000000000000e+02 1.407609462738037109e+01 -3.746163249015808105e-01 -9.355682730674743652e-01 3.779210448265075684e-01 -1.672941595315933228e-01 -4.550310969352722168e-01
2.270000000000000000e+02 1.342894172668457031e+01 -1.171167016029357910e+00 8.629533052444458008e-01 -2.276224456727504730e-02 2.520573139190673828e-01 2.046474963426589966e-01
2.280000000000000000e+02 1.321799468994140625e+01 -7.234731912612915039e-01 -5.962727665901184082e-01 1.351792179048061371e-02 -1.748264580965042114e-01 1.881287693977355957e-01
2.290000000000000000e+02 1.361794853210449219e+01 -8.285090923309326172e-01 -3.397823572158813477e-01 -2.988300099968910217e-02 -1.108996048569679260e-01 1.446095108985900879e-01
2.300000000000000000e+02 1.313668155670166016e+01 -1.104337334632873535e+00 5.869541764259338379e-01 -5.835182964801788330e-02 1.585807055234909058e-01 2.361126244068145752e-01
2.310000000000000000e+02 1.396753406524658203e+01 -2.141726970672607422e+00 4.809190750122070312e+00 9.332675933837890625e-01 1.722737431526184082e+00 2.691749095916748047e+00
2.320000000000000000e+02 1.515679550170898438e+01 -2.338376522064208984e+00 6.730073451995849609e+00 7.760968685150146484e+00 4.347312450408935547e+00 6.956402778625488281e+00
2.330000000000000000e+02 1.364489555358886719e+01 -1.862466454505920410e+00 3.584069728851318359e+00 1.899247467517852783e-01 1.132198333740234375e+00 1.514406681060791016e+00
2.340000000000000000e+02 1.377650833129882812e+01 -2.111014842987060547e+00 4.255017757415771484e+00 6.375572085380554199e-01 1.467772483825683594e+00 2.281127929687500000e+00
2.350000000000000000e+02 1.415554428100585938e+01 -1.946875333786010742e+00 5.172075271606445312e+00 8.215112686157226562e-01 1.798075914382934570e+00 2.507545948028564453e+00
2.360000000000000000e+02 1.304617023468017578e+01 -1.743553876876831055e+00 2.261975526809692383e+00 9.911962598562240601e-02 7.083285450935363770e-01 9.431284070014953613e-01
2.370000000000000000e+02 1.320117187500000000e+01 -1.992888689041137695e+00 3.013013124465942383e+00 2.671565413475036621e-01 9.840508699417114258e-01 1.404621481895446777e+00
2.380000000000000000e+02 1.316308593750000000e+01 -4.961077356711030006e-04 -1.640921473503112793e+00 1.349621862173080444e-01 -4.517877697944641113e-01 -1.063687875866889954e-01
2.390000000000000000e+02 1.315853118896484375e+01 -9.250419139862060547e-01 -1.313468068838119507e-01 -4.051014035940170288e-02 -5.155708268284797668e-02 1.293402314186096191e-01
2.400000000000000000e+02 1.374967002868652344e+01 4.571185708045959473e-01 1.758832782506942749e-01 1.579962849617004395e+00 5.267538428306579590e-01 -1.863015770912170410e+00
2.410000000000000000e+02 1.500198841094970703e+01 -2.366395434364676476e-03 2.900287151336669922e+00 5.135374546051025391e+00 2.410698652267456055e+00 -5.003933429718017578e+00
2.420000000000000000e+02 1.550596809387207031e+01 -7.626424077898263931e-03 2.502977609634399414e+00 1.218805313110351562e+01 4.407309532165527344e+00 -7.179809570312500000e+00
2.430000000000000000e+02 1.386078357696533203e+01 -5.928018093109130859e-01 -2.514933347702026367e+00 -6.955759227275848389e-02 -7.753472924232482910e-01 4.145040214061737061e-01
2.440000000000000000e+02 1.330827903747558594e+01 -1.013211488723754883e+00 3.427087664604187012e-01 7.483029272407293320e-03 1.050575375556945801e-01 1.790917217731475830e-01
2.450000000000000000e+02 1.339839649200439453e+01 -2.028853654861450195e+00 3.405810356140136719e+00 3.124587833881378174e-01 1.115480780601501465e+00 1.652959585189819336e+00
2.460000000000000000e+02 1.453345012664794922e+01 -1.869281768798828125e+00 6.317801952362060547e+00 1.452101469039916992e+00 2.330971002578735352e+00 3.224215030670166016e+00
2.470000000000000000e+02 1.397282218933105469e+01 -1.930894017219543457e+00 4.524623870849609375e+00 5.595012307167053223e-01 1.525237560272216797e+00 2.134216070175170898e+00
2.480000000000000000e+02 1.470839023590087891e+01 -1.308466434478759766e+00 4.389739990234375000e+00 1.769259423017501831e-01 1.369999885559082031e+00 9.394577741622924805e-01
2.490000000000000000e+02 1.294721126556396484e+01 -1.092029094696044922e+00 5.152833461761474609e-01 -4.958457499742507935e-02 1.397096216678619385e-01 1.268140375614166260e-01
2.500000000000000000e+02 1.381347751617431641e+01 -2.031795233488082886e-01 -1.135680675506591797e+00 3.366634249687194824e-01 -2.397051751613616943e-01 -4.670451581478118896e-01
2.510000000000000000e+02 1.406478691101074219e+01 -1.169234737753868103e-01 -4.994471743702888489e-02 8.452203869819641113e-01 2.385827004909515381e-01 -1.203424334526062012e+00
2.520000000000000000e+02 1.517875671386718750e+01 -2.011803537607192993e-01 3.649212598800659180e+00 5.874051570892333984e+00 2.856979370117187500e+00 -5.846001625061035156e+00
2.530000000000000000e+02 1.325209331512451172e+01 -1.770070791244506836e+00 2.549064874649047852e+00 8.668637275695800781e-02 7.907254099845886230e-01 1.045750737190246582e+00
2.540000000000000000e+02 1.435005569458007812e+01 2.197944968938827515e-01 1.160081028938293457e+00 2.356697797775268555e+00 1.055033683776855469e+00 -2.843116760253906250e+00
2.550000000000000000e+02 1.382635211944580078e+01 -8.575822114944458008e-01 -2.315065264701843262e-01 -6.196279078722000122e-02 -8.804079890251159668e-02 1.066833958029747009e-01
2.560000000000000000e+02 1.452700519561767578e+01 -2.943786978721618652e-01 8.311591148376464844e-01 9.697232842445373535e-01 5.402647256851196289e-01 -1.572420120239257812e+00
2.570000000000000000e+02 1.453260517120361328e+01 1.139071285724639893e-01 1.600371360778808594e+00 2.785706520080566406e+00 1.315823316574096680e+00 -3.284886360168457031e+00
2.580000000000000000e+02 1.368301486968994141e+01 -1.292069554328918457e+00 1.788492679595947266e+00 -4.235547408461570740e-02 5.238411426544189453e-01 3.850823640823364258e-01
2.590000000000000000e+02 1.401564216613769531e+01 -1.197822332382202148e+00 1.772453665733337402e+00 -7.061836123466491699e-02 5.105506181716918945e-01 3.214723467826843262e-01
2.600000000000000000e+02 1.384395408630371094e+01 1.878815442323684692e-01 1.292468756437301636e-01 1.215397715568542480e+00 4.033933579921722412e-01 -1.593002080917358398e+00
2.610000000000000000e+02 1.469917488098144531e+01 2.036393284797668457e-01 1.849905848503112793e+00 3.827785491943359375e+00 1.703307390213012695e+00 -3.998559951782226562e+00
2.620000000000000000e+02 1.398153495788574219e+01 -1.483597993850708008e+00 3.217377901077270508e+00 7.414872292429208755e-03 9.674378037452697754e-01 8.273554444313049316e-01
2.630000000000000000e+02 1.284174442291259766e+01 -1.717177271842956543e+00 1.740909576416015625e+00 1.241005137562751770e-01 5.595030188560485840e-01 8.378447890281677246e-01
2.640000000000000000e+02 1.312686824798583984e+01 -1.308304429054260254e+00 1.226711153984069824e+00 -1.076857466250658035e-02 3.647827804088592529e-01 3.553822040557861328e-01
2.650000000000000000e+02 1.346422195434570312e+01 -1.797603726387023926e+00 3.063785791397094727e+00 1.802100241184234619e-01 9.731987714767456055e-01 1.227199673652648926e+00
2.660000000000000000e+02 1.291683864593505859e+01 -1.297655224800109863e+00 9.333173632621765137e-01 -4.636865481734275818e-02 2.660846114158630371e-01 3.880210816860198975e-01
2.670000000000000000e+02 1.298194408416748047e+01 -8.889175653457641602e-01 -2.106337249279022217e-01 -7.966646552085876465e-02 -8.709005266427993774e-02 2.174082696437835693e-01
2.680000000000000000e+02 1.380047988891601562e+01 -1.916982054710388184e+00 4.196763515472412109e+00 4.794289767742156982e-01 1.402857661247253418e+00 1.940050601959228516e+00
2.690000000000000000e+02 1.416190528869628906e+01 -2.168632268905639648e+00 5.250692844390869141e+00 1.264516353607177734e+00 1.954562783241271973e+00 3.135035037994384766e+00
2.700000000000000000e+02 1.436598491668701172e+01 -2.187851905822753906e+00 5.967191219329833984e+00 1.995450735092163086e+00 2.388792514801025391e+00 3.811786413192749023e+00
2.710000000000000000e+02 1.457081890106201172e+01 -2.228155136108398438e+00 6.490686893463134766e+00 2.703816413879394531e+00 2.758351087570190430e+00 4.563740253448486328e+00
2.720000000000000000e+02 1.477653789520263672e+01 -2.271123647689819336e+00 6.627730369567871094e+00 4.141268253326416016e+00 3.230699539184570312e+00 5.264038562774658203e+00
2.730000000000000000e+02 1.497135829925537109e+01 -2.315039873123168945e+00 6.607476234436035156e+00 5.641678810119628906e+00 3.674746274948120117e+00 6.070647239685058594e+00
2.740000000000000000e+02 1.493462657928466797e+01 -1.990416169166564941e+00 7.808176994323730469e+00 3.894443750381469727e+00 3.510786294937133789e+00 5.577274322509765625e+00
2.750000000000000000e+02 1.563597297668457031e+01 -2.117469787597656250e+00 6.329725265502929688e+00 1.413879966735839844e+01 6.140557765960693359e+00 6.857159614562988281e+00
2.760000000000000000e+02 1.543146800994873047e+01 -2.086397409439086914e+00 7.413669109344482422e+00 1.052742290496826172e+01 5.382327556610107422e+00 7.958125591278076172e+00
2.770000000000000000e+02 1.616384696960449219e+01 -2.122174739837646484e+00 4.547255039215087891e+00 2.074479293823242188e+01 7.587614059448242188e+00 3.300161600112915039e+00
2.780000000000000000e+02 1.348803234100341797e+01 7.838487029075622559e-01 1.111375074833631516e-02 1.557993650436401367e+00 4.707322418689727783e-01 -1.797325372695922852e+00
2.790000000000000000e+02 1.356865501403808594e+01 -2.369490414857864380e-01 -1.743981361389160156e+00 1.585868149995803833e-01 -4.756183624267578125e-01 -7.016930729150772095e-02
2.800000000000000000e+02 1.334389305114746094e+01 -2.263586223125457764e-01 -2.153765201568603516e+00 1.437158510088920593e-02 -6.418180465698242188e-01 1.086747199296951294e-01
2.810000000000000000e+02 1.338758659362792969e+01 -1.216642485815100372e-04 -1.318933606147766113e+00 2.916448116302490234e-01 -3.081866502761840820e-01 -3.677267730236053467e-01
2.820000000000000000e+02 1.405270671844482422e+01 -6.113089323043823242e-01 -2.330511331558227539e+00 3.581992164254188538e-02 -6.884074211120605469e-01 3.269438743591308594e-01
2.830000000000000000e+02 1.425014877319335938e+01 -6.452704668045043945e-01 -2.048923969268798828e+00 5.680618807673454285e-02 -5.976353287696838379e-01 1.723876744508743286e-01
2.840000000000000000e+02 1.449161338806152344e+01 -4.735642373561859131e-01 -5.938732251524925232e-02 5.202808976173400879e-01 1.382680833339691162e-01 -8.688952922821044922e-01
2.850000000000000000e+02 1.342828750610351562e+01 2.271983176469802856e-01 -6.563875079154968262e-01 6.740471124649047852e-01 5.297879688441753387e-03 -8.844869136810302734e-01
2.860000000000000000e+02 1.319795417785644531e+01 2.103489786386489868e-01 -1.216683387756347656e+00 4.138039946556091309e-01 -2.408638000488281250e-01 -4.862455129623413086e-01
2.870000000000000000e+02 1.386136913299560547e+01 6.921802163124084473e-01 4.285153150558471680e-01 2.232529163360595703e+00 7.983133792877197266e-01 -2.416736602783203125e+00
2.880000000000000000e+02 1.509062767028808594e+01 4.524917304515838623e-01 1.666802525520324707e+00 7.512311935424804688e+00 2.753734350204467773e+00 -5.490019798278808594e+00
2.890000000000000000e+02 1.489710044860839844e+01 2.114344239234924316e-01 2.156147241592407227e+00 5.020753383636474609e+00 2.153070211410522461e+00 -4.783531188964843750e+00
2.900000000000000000e+02 1.508789730072021484e+01 1.843388229608535767e-01 2.538584232330322266e+00 6.793023586273193359e+00 2.799482345581054688e+00 -5.678451061248779297e+00
2.910000000000000000e+02 1.598142910003662109e+01 -1.704520359635353088e-02 1.068872213363647461e+00 1.994848823547363281e+01 6.305208206176757812e+00 -4.323987483978271484e+00
2.920000000000000000e+02 1.614046478271484375e+01 1.212408468127250671e-01 7.971938848495483398e-01 2.014359092712402344e+01 6.282235622406005859e+00 -2.616483449935913086e+00
2.930000000000000000e+02 1.607952880859375000e+01 3.265966773033142090e-01 9.151777625083923340e-01 1.655836868286132812e+01 5.242063999176025391e+00 -3.703708887100219727e+00
2.940000000000000000e+02 1.479171180725097656e+01 -1.152726292610168457e+00 3.351992130279541016e+00 1.679461076855659485e-02 1.010635972023010254e+00 3.381482362747192383e-01
2.950000000000000000e+02 1.461614227294921875e+01 -9.304221868515014648e-01 1.633379161357879639e-01 1.733455806970596313e-01 1.010050550103187561e-01 3.068236634135246277e-02
2.960000000000000000e+02 1.449950504302978516e+01 -1.220211863517761230e+00 2.701642513275146484e+00 -7.874145358800888062e-02 7.868703603744506836e-01 3.115114867687225342e-01
2.970000000000000000e+02 1.361513996124267578e+01 -1.090712189674377441e+00 7.132775187492370605e-01 -9.890491515398025513e-02 1.843117922544479370e-01 2.207174748182296753e-01
2.980000000000000000e+02 1.463161849975585938e+01 -1.578931689262390137e+00 6.001711845397949219e+00 6.426468491554260254e-01 1.993307590484619141e+00 2.230488061904907227e+00
2.990000000000000000e+02 1.484528255462646484e+01 -1.459590792655944824e+00 6.537676334381103516e+00 4.146581292152404785e-01 2.085700273513793945e+00 1.938294649124145508e+00
3.000000000000000000e+02 1.472999668121337891e+01 -1.765440344810485840e+00 7.203989505767822266e+00 1.547984361648559570e+00 2.625592231750488281e+00 3.588828802108764648e+00
3.010000000000000000e+02 1.506727409362792969e+01 -1.813573241233825684e+00 8.807670593261718750e+00 3.857551813125610352e+00 3.799566507339477539e+00 5.686267852783203125e+00
3.020000000000000000e+02 1.700164985656738281e+01 -1.408669352531433105e+00 1.363922023773193359e+01 1.615197372436523438e+01 8.937357902526855469e+00 -2.100178718566894531e+00
3.030000000000000000e+02 1.690656852722167969e+01 -1.366661906242370605e+00 1.540972423553466797e+01 1.633285140991210938e+01 9.522772789001464844e+00 -1.940957665443420410e+00
3.040000000000000000e+02 1.698754119873046875e+01 -6.803112030029296875e-01 1.046502971649169922e+01 1.666446876525878906e+01 8.138850212097167969e+00 2.547971725463867188e+00
3.050000000000000000e+02 1.681191253662109375e+01 -5.422145724296569824e-01 9.835942268371582031e+00 1.935235214233398438e+01 8.756487846374511719e+00 3.802227020263671875e+00
3.060000000000000000e+02 1.618608856201171875e+01 -5.515484511852264404e-02 1.185557126998901367e+00 2.147331237792968750e+01 6.797660827636718750e+00 -2.528005838394165039e+00
3.070000000000000000e+02 1.628464889526367188e+01 1.455617100000381470e-01 9.084448218345642090e-01 1.972489166259765625e+01 6.190000534057617188e+00 -1.576010942459106445e+00
3.080000000000000000e+02 1.576643276214599609e+01 1.516825556755065918e-01 1.174181580543518066e+00 1.551176261901855469e+01 5.005783557891845703e+00 -5.706068038940429688e+00
3.090000000000000000e+02 1.598791122436523438e+01 -2.244250535964965820e+00 4.377999782562255859e+00 1.934178161621093750e+01 7.115934848785400391e+00 4.465047359466552734e+00
3.100000000000000000e+02 1.433279132843017578e+01 -1.456123232841491699e+00 4.130397796630859375e+00 8.541768044233322144e-02 1.264744639396667480e+00 1.099881768226623535e+00
3.110000000000000000e+02 1.332076263427734375e+01 -1.342506766319274902e+00 1.466332674026489258e+00 -5.067337676882743835e-02 4.246977865695953369e-01 4.374494850635528564e-01
3.120000000000000000e+02 1.342709445953369141e+01 4.240097999572753906e-01 -4.338423609733581543e-01 1.055755257606506348e+00 1.865738630294799805e-01 -1.229957699775695801e+00
3.130000000000000000e+02 1.328992843627929688e+01 -1.552641272544860840e+00 2.122054815292358398e+00 3.253405168652534485e-02 6.463766694068908691e-01 7.297679781913757324e-01
3.140000000000000000e+02 1.394954299926757812e+01 3.947886526584625244e-01 4.095193147659301758e-01 1.760525941848754883e+00 6.510135531425476074e-01 -2.129074335098266602e+00
3.150000000000000000e+02 1.398997974395751953e+01 9.103062748908996582e-02 2.993696331977844238e-01 1.130969762802124023e+00 4.291017949581146240e-01 -1.619791150093078613e+00
3.160000000000000000e+02 1.705198097229003906e+01 -9.965049624443054199e-01 1.446426391601562500e+01 1.479410934448242188e+01 8.777511596679687500e+00 7.692831754684448242e-01
3.170000000000000000e+02 1.379984855651855469e+01 -1.127185821533203125e+00 1.124886274337768555e+00 -1.716811396181583405e-02 3.323154449462890625e-01 2.799766957759857178e-01
3.180000000000000000e+02 1.428011512756347656e+01 -4.832666739821434021e-02 7.925854325294494629e-01 1.264229536056518555e+00 6.170445084571838379e-01 -1.909162163734436035e+00
3.190000000000000000e+02 1.468706512451171875e+01 -9.942381642758846283e-03 2.227296352386474609e+00 3.065013885498046875e+00 1.587692975997924805e+00 -3.603983402252197266e+00
3.200000000000000000e+02 1.396729469299316406e+01 -1.720862030982971191e+00 4.144164085388183594e+00 3.038761317729949951e-01 1.334412097930908203e+00 1.593853235244750977e+00
3.210000000000000000e+02 1.418087959289550781e+01 -1.569479346275329590e+00 4.126281261444091797e+00 1.463098526000976562e-01 1.281777381896972656e+00 1.232151031494140625e+00
3.220000000000000000e+02 1.453390884399414062e+01 -1.403136730194091797e+00 4.616394996643066406e+00 1.840825527906417847e-01 1.440143227577209473e+00 1.132660984992980957e+00
3.230000000000000000e+02 1.426520347595214844e+01 -1.207358002662658691e+00 2.217818498611450195e+00 -5.358660966157913208e-02 6.492695808410644531e-01 2.699927389621734619e-01
3.240000000000000000e+02 1.478520774841308594e+01 -1.935217022895812988e+00 7.613149642944335938e+00 2.544638633728027344e+00 3.047336578369140625e+00 4.616283416748046875e+00
3.250000000000000000e+02 1.464354324340820312e+01 -2.029619693756103516e+00 6.960343837738037109e+00 2.261458396911621094e+00 2.766540765762329102e+00 4.263090610504150391e+00
3.260000000000000000e+02 1.360086154937744141e+01 -2.779556438326835632e-03 -8.841275572776794434e-01 4.505296647548675537e-01 -1.300793737173080444e-01 -6.345244646072387695e-01
3.270000000000000000e+02 1.350479793548583984e+01 -1.562248110771179199e+00 2.465497016906738281e+00 2.912438474595546722e-02 7.483863830566406250e-01 8.397213220596313477e-01
3.280000000000000000e+02 1.485028266906738281e+01 -1.645435690879821777e-01 2.624568700790405273e+00 2.953648805618286133e+00 1.673465251922607422e+00 -3.807039976119995117e+00
3.290000000000000000e+02 1.458908939361572266e+01 -1.560036689043045044e-01 1.872404456138610840e+00 2.049248456954956055e+00 1.176495790481567383e+00 -2.835120439529418945e+00
3.300000000000000000e+02 1.469346714019775391e+01 -2.923820316791534424e-01 1.787707328796386719e+00 1.617440104484558105e+00 1.021544218063354492e+00 -2.508147954940795898e+00
3.310000000000000000e+02 1.365144443511962891e+01 2.257211208343505859e-01 -2.702710032463073730e-01 9.193870425224304199e-01 1.947348117828369141e-01 -1.242892026901245117e+00
3.320000000000000000e+02 1.436458778381347656e+01 -2.208539694547653198e-01 5.177683234214782715e-01 9.933682680130004883e-01 4.533409774303436279e-01 -1.485260725021362305e+00
3.330000000000000000e+02 1.444622421264648438e+01 -7.004890590906143188e-02 1.478205561637878418e+00 1.802687406539916992e+00 9.842678904533386230e-01 -2.452033519744873047e+00
3.340000000000000000e+02 1.428932094573974609e+01 -1.731867551803588867e+00 5.178972244262695312e+00 5.172193646430969238e-01 1.708857417106628418e+00 2.062576770782470703e+00
3.350000000000000000e+02 1.413913726806640625e+01 -1.745885848999023438e+00 4.532280445098876953e+00 3.992944955825805664e-01 1.479472398757934570e+00 1.833893418312072754e+00
3.360000000000000000e+02 1.444463729858398438e+01 -1.662582039833068848e+00 5.606789588928222656e+00 6.637740731239318848e-01 1.881169080734252930e+00 2.157128810882568359e+00
3.370000000000000000e+02 1.349582004547119141e+01 -1.353152513504028320e+00 1.874454498291015625e+00 -3.037191182374954224e-02 5.532248020172119141e-01 4.538568258285522461e-01
3.380000000000000000e+02 1.373925685882568359e+01 -1.513296008110046387e+00 2.773159027099609375e+00 1.026097126305103302e-02 8.350260257720947266e-01 7.844288945198059082e-01
3.390000000000000000e+02 1.377848625183105469e+01 -1.735478281974792480e+00 3.651595115661621094e+00 1.774732470512390137e-01 1.148720502853393555e+00 1.371357798576354980e+00
3.400000000000000000e+02 1.112508964538574219e+01 7.195712625980377197e-02 -3.645358562469482422e+00 -1.002201586961746216e-01 -1.123673558235168457e+00 6.502357721328735352e-01
3.410000000000000000e+02 1.044136810302734375e+01 6.981932520866394043e-01 -2.727770805358886719e+00 -1.623688042163848877e-01 -8.670419454574584961e-01 3.095641434192657471e-01
3.420000000000000000e+02 1.039367008209228516e+01 2.013850063085556030e-01 -3.916653633117675781e+00 -1.678156852722167969e-01 -1.225340843200683594e+00 5.961977839469909668e-01
3.430000000000000000e+02 1.237189197540283203e+01 3.716306984424591064e-01 -2.010103225708007812e+00 1.914959102869033813e-01 -5.455821752548217773e-01 -8.643477410078048706e-02
3.440000000000000000e+02 1.275944232940673828e+01 -1.876314282417297363e-01 -2.806797742843627930e+00 1.671225428581237793e-01 -7.919026017189025879e-01 4.228820204734802246e-01
3.450000000000000000e+02 1.292590522766113281e+01 -1.813779771327972412e-01 -2.519249916076660156e+00 -1.065834425389766693e-02 -7.589724659919738770e-01 1.900020539760589600e-01
3.460000000000000000e+02 1.295757865905761719e+01 2.133333534002304077e-01 -1.457967758178710938e+00 2.037188559770584106e-01 -3.762746751308441162e-01 -2.033079713582992554e-01
3.470000000000000000e+02 1.235029983520507812e+01 -4.407001659274101257e-02 -3.045220851898193359e+00 -1.878592371940612793e-01 -9.699240326881408691e-01 4.475146234035491943e-01
3.480000000000000000e+02 1.293475341796875000e+01 6.235259175300598145e-01 -8.142441511154174805e-01 5.278185606002807617e-01 -8.592768013477325439e-02 -8.746670484542846680e-01
3.490000000000000000e+02 1.251338386535644531e+01 7.400207519531250000e-01 -1.114821076393127441e+00 7.046922445297241211e-01 -1.230386421084403992e-01 -5.782101750373840332e-01
3.500000000000000000e+02 1.049395656585693359e+01 1.187741875648498535e+00 -1.728148460388183594e+00 -2.268942259252071381e-02 -5.252513885498046875e-01 1.905355304479598999e-01
3.510000000000000000e+02 1.124791336059570312e+01 1.056818246841430664e+00 -1.673530936241149902e+00 1.882384717464447021e-01 -4.455877244472503662e-01 -7.956808060407638550e-02
3.520000000000000000e+02 1.183819961547851562e+01 4.639826714992523193e-01 -2.224574804306030273e+00 7.679694145917892456e-02 -6.443333625793457031e-01 1.564033031463623047e-01
3.530000000000000000e+02 1.294417762756347656e+01 4.085442423820495605e-01 -1.199441313743591309e+00 4.295820593833923340e-01 -2.309577763080596924e-01 -6.299040317535400391e-01
3.540000000000000000e+02 1.289684772491455078e+01 8.728020787239074707e-01 -5.660953521728515625e-01 9.482304453849792480e-01 1.146405413746833801e-01 -1.144101142883300781e+00
3.550000000000000000e+02 1.293094921112060547e+01 1.386402919888496399e-02 -1.943648695945739746e+00 8.024062216281890869e-02 -5.590224266052246094e-01 3.583483397960662842e-03
3.560000000000000000e+02 1.197090530395507812e+01 9.239807128906250000e-01 -1.420176029205322266e+00 3.869847059249877930e-01 -3.099574148654937744e-01 -3.434857428073883057e-01
3.570000000000000000e+02 1.182260799407958984e+01 -4.533008113503456116e-02 -3.479664802551269531e+00 -8.481141924858093262e-02 -1.069342851638793945e+00 5.820859074592590332e-01
3.580000000000000000e+02 1.117221641540527344e+01 5.759746432304382324e-01 -2.611930847167968750e+00 1.748572662472724915e-02 -7.783335447311401367e-01 2.763440608978271484e-01
3.590000000000000000e+02 1.290000820159912109e+01 -3.409861922264099121e-01 -3.425638675689697266e+00 -2.865903675556182861e-01 -1.113668680191040039e+00 6.245591044425964355e-01
3.600000000000000000e+02 1.263193798065185547e+01 -3.370226919651031494e-01 -3.456897974014282227e+00 -3.655940992757678032e-03 -1.038166165351867676e+00 6.440788507461547852e-01
3.610000000000000000e+02 1.267755031585693359e+01 1.929933950304985046e-02 -2.335299968719482422e+00 3.818625509738922119e-01 -5.860312581062316895e-01 1.839971989393234253e-01
3.620000000000000000e+02 1.271306419372558594e+01 2.750283777713775635e-01 -1.815012454986572266e+00 4.336729347705841064e-01 -4.144018590450286865e-01 -2.349198907613754272e-01
3.630000000000000000e+02 9.587091445922851562e+00 3.278450965881347656e-01 -3.604646444320678711e+00 -9.945727139711380005e-02 -1.111231088638305664e+00 3.676587939262390137e-01
3.640000000000000000e+02 9.113141059875488281e+00 1.214879631996154785e+00 -2.006474018096923828e+00 -1.240331679582595825e-01 -6.391521692276000977e-01 5.158143639564514160e-01
3.650000000000000000e+02 9.664331436157226562e+00 8.448796272277832031e-01 -2.486471414566040039e+00 -1.415359377861022949e-01 -7.884021997451782227e-01 4.255287349224090576e-01
3.660000000000000000e+02 9.758964538574218750e+00 1.277034521102905273e+00 -1.773623466491699219e+00 -3.352078795433044434e-02 -5.421432852745056152e-01 3.895426690578460693e-01
3.670000000000000000e+02 7.583609580993652344e+00 1.131813883781433105e+00 -1.772828817367553711e+00 -2.066943049430847168e-02 -5.380494594573974609e-01 4.906571209430694580e-01
3.680000000000000000e+02 7.138875007629394531e+00 3.952952921390533447e-01 -2.147335290908813477e+00 -4.705628380179405212e-03 -6.456122994422912598e-01 1.917824894189834595e-01
3.690000000000000000e+02 4.822215557098388672e+00 3.983584344387054443e-01 -1.078727483749389648e+00 -7.462166249752044678e-03 -3.258568942546844482e-01 1.614824682474136353e-01
3.700000000000000000e+02 2.911747217178344727e+00 1.140733122825622559e+00 -3.882552087306976318e-01 -6.676796823740005493e-02 -1.365069448947906494e-01 3.072075247764587402e-01
3.710000000000000000e+02 3.278346061706542969e+00 4.007331430912017822e-01 -4.906525015830993652e-01 -1.356753520667552948e-02 -1.512660086154937744e-01 1.206367239356040955e-01
3.720000000000000000e+02 2.135906457901000977e+00 1.141717076301574707e+00 -2.239442020654678345e-01 -8.729094266891479492e-02 -9.337054193019866943e-02 2.256405800580978394e-01
3.730000000000000000e+02 2.507672786712646484e+00 4.017170965671539307e-01 -2.664365768432617188e-01 -2.060891874134540558e-02 -8.611364662647247314e-02 9.080802649259567261e-02
3.740000000000000000e+02 1.373960018157958984e+00 1.135671734809875488e+00 -1.019476950168609619e-01 -8.625305444002151489e-02 -5.646022409200668335e-02 1.254366785287857056e-01
3.750000000000000000e+02 1.750893831253051758e+00 3.956717252731323242e-01 -1.060485243797302246e-01 -1.791548542678356171e-02 -3.718920424580574036e-02 5.075685679912567139e-02
3.760000000000000000e+02 6.801747679710388184e-01 1.111436605453491211e+00 -3.387883305549621582e-02 -4.019402340054512024e-02 -2.222185581922531128e-02 3.975655138492584229e-02
3.770000000000000000e+02 3.728401660919189453e-01 5.562397241592407227e-01 -2.518687688279896975e-04 -8.472676854580640793e-04 -3.297409566584974527e-04 3.768489114008843899e-04
3.780000000000000000e+02 4.050241470336914062e+00 3.993998169898986816e-01 -7.671827077865600586e-01 -1.204021833837032318e-02 -2.337668687105178833e-01 1.453666985034942627e-01
3.790000000000000000e+02 4.465951919555664062e+00 1.138358473777770996e+00 -7.920952439308166504e-01 -4.020791873335838318e-02 -2.496909499168395996e-01 4.148375093936920166e-01
3.800000000000000000e+02 5.594200611114501953e+00 3.970147669315338135e-01 -1.418694257736206055e+00 -6.990681868046522141e-03 -4.277054965496063232e-01 1.752200871706008911e-01
3.810000000000000000e+02 6.366199970245361328e+00 3.966601788997650146e-01 -1.776144146919250488e+00 -4.111699759960174561e-03 -5.340767502784729004e-01 1.835107058286666870e-01
3.820000000000000000e+02 6.020271301269531250e+00 1.136660218238830566e+00 -1.274290323257446289e+00 -1.930886507034301758e-02 -3.880797624588012695e-01 4.721318185329437256e-01
3.830000000000000000e+02 6.798113822937011719e+00 1.135295271873474121e+00 -1.524895429611206055e+00 -1.416756771504878998e-02 -4.617189168930053711e-01 4.824556112289428711e-01
3.840000000000000000e+02 7.919202804565429688e+00 3.918138742446899414e-01 -2.540740013122558594e+00 -8.200472220778465271e-03 -7.646821737289428711e-01 2.046040445566177368e-01
3.850000000000000000e+02 8.400993347167968750e+00 1.129125237464904785e+00 -1.985747694969177246e+00 -2.707223780453205109e-02 -6.038459539413452148e-01 4.884837865829467773e-01
3.860000000000000000e+02 8.731418609619140625e+00 3.891252875328063965e-01 -2.981348276138305664e+00 -1.657061465084552765e-02 -8.993756771087646484e-01 2.323168665170669556e-01
3.870000000000000000e+02 5.243104934692382812e+00 1.137014746665954590e+00 -1.028373956680297852e+00 -2.914199046790599823e-02 -3.172547817230224609e-01 4.488335847854614258e-01
3.880000000000000000e+02 3.688810586929321289e+00 1.139399766921997070e+00 -5.772777199745178223e-01 -4.971273615956306458e-02 -1.880971342325210571e-01 3.656230866909027100e-01
3.890000000000000000e+02 1.062276244163513184e+00 3.714365959167480469e-01 -2.139625884592533112e-02 -1.276194397360086441e-02 -1.024746056646108627e-02 1.734357886016368866e-02
3.900000000000000000e+02 6.976069808006286621e-01 -1.128206014633178711e+00 -1.272098813205957413e-02 -3.968660905957221985e-02 -1.572228036820888519e-02 -4.166969656944274902e-02
3.910000000000000000e+02 6.851286888122558594e+00 -3.867576718330383301e-01 -9.475838541984558105e-01 1.758607290685176849e-02 -2.789993286132812500e-01 -3.813840076327323914e-02
3.920000000000000000e+02 9.443249702453613281e+00 -1.209566831588745117e+00 -3.584134280681610107e-01 1.252954006195068359e-01 -6.993540376424789429e-02 1.085969582200050354e-01
3.930000000000000000e+02 8.939884185791015625e+00 -3.293372690677642822e-01 -1.048860192298889160e+00 -9.678033180534839630e-03 -3.175614774227142334e-01 -1.433037966489791870e-02
3.940000000000000000e+02 8.332489013671875000e+00 -6.902732849121093750e-01 -8.522707223892211914e-01 2.460834383964538574e-02 -2.482987046241760254e-01 -2.542095026001334190e-03
3.950000000000000000e+02 8.625310897827148438e+00 -1.225823044776916504e+00 -4.895651638507843018e-01 4.502051323652267456e-02 -1.333633959293365479e-01 4.707862809300422668e-02
3.960000000000000000e+02 7.654789447784423828e+00 -4.094791412353515625e-01 -1.035067439079284668e+00 -9.297090582549571991e-03 -3.133093416690826416e-01 -4.509671404957771301e-02
3.970000000000000000e+02 7.190613746643066406e+00 -1.149479150772094727e+00 -5.333755016326904297e-01 4.538657143712043762e-02 -1.463966816663742065e-01 -6.690371781587600708e-02
3.980000000000000000e+02 6.022775650024414062e+00 -3.836780786514282227e-01 -8.547755479812622070e-01 -1.685536117292940617e-03 -2.569383084774017334e-01 -6.864283978939056396e-02
3.990000000000000000e+02 4.318494319915771484e+00 -3.889222741127014160e-01 -5.482387542724609375e-01 -1.211016532033681870e-02 -1.681046783924102783e-01 -7.844985276460647583e-02
4.000000000000000000e+02 2.238075494766235352e+00 -7.208665609359741211e-01 -1.501064747571945190e-01 -1.249639876186847687e-02 -4.878086224198341370e-02 -1.083399057388305664e-01
4.010000000000000000e+02 1.676286339759826660e+00 -5.692918896675109863e-01 -8.048264682292938232e-02 -1.759183406829833984e-02 -2.942234463989734650e-02 -5.227888748049736023e-02
4.020000000000000000e+02 3.953579366207122803e-01 -5.602348446846008301e-01 -2.772271400317549706e-03 -9.294446557760238647e-03 -3.620015457272529602e-03 -5.222759675234556198e-03
4.030000000000000000e+02 9.531182289123535156e+00 -6.993372440338134766e-01 -7.447690963745117188e-01 8.728036284446716309e-02 -1.972466260194778442e-01 1.207583621144294739e-01
4.040000000000000000e+02 6.392709255218505859e+00 -1.126757621765136719e+00 -5.879027247428894043e-01 2.896134555339813232e-02 -1.676824241876602173e-01 -1.296916007995605469e-01
4.050000000000000000e+02 5.185183048248291016e+00 -3.854650259017944336e-01 -7.045002579689025879e-01 7.535126060247421265e-03 -2.090895473957061768e-01 -7.049791514873504639e-02
4.060000000000000000e+02 3.876711368560791016e+00 -1.128922224044799805e+00 -3.339337110519409180e-01 -1.347321923822164536e-02 -1.042220816016197205e-01 -1.943966448307037354e-01
4.070000000000000000e+02 4.737802028656005859e+00 -1.125465035438537598e+00 -4.545429050922393799e-01 2.846525516360998154e-03 -1.355089098215103149e-01 -1.843594461679458618e-01
4.080000000000000000e+02 2.128987550735473633e+00 -1.226276397705078125e+00 -1.352912783622741699e-01 -4.617613554000854492e-02 -5.444022640585899353e-02 -1.480558961629867554e-01
4.090000000000000000e+02 2.178047657012939453e+00 -2.545901238918304443e-01 -1.441301256418228149e-01 5.105844698846340179e-03 -4.170728474855422974e-02 -3.009289503097534180e-02
4.100000000000000000e+02 1.116997122764587402e+00 -3.882060348987579346e-01 -3.964701667428016663e-02 -5.571339745074510574e-03 -1.356550678610801697e-02 -2.242834120988845825e-02
4.110000000000000000e+02 9.605146408081054688e+00 -2.497704476118087769e-01 -1.028890132904052734e+00 3.527484834194183350e-02 -2.980845868587493896e-01 2.056148089468479156e-02
4.120000000000000000e+02 1.378579258918762207e+00 -1.189985632896423340e+00 -6.347420066595077515e-02 -5.871701985597610474e-02 -3.665736690163612366e-02 -9.662546962499618530e-02
4.130000000000000000e+02 7.914287090301513672e+00 -1.227373123168945312e+00 -5.428590774536132812e-01 5.794426426291465759e-02 -1.454744488000869751e-01 2.179424045607447624e-03
4.140000000000000000e+02 5.569796562194824219e+00 -1.123678088188171387e+00 -5.181461572647094727e-01 2.378033660352230072e-02 -1.483097523450851440e-01 -1.547711342573165894e-01
4.150000000000000000e+02 3.574565172195434570e+00 -3.025156259536743164e-01 -3.858016431331634521e-01 -1.345701608806848526e-02 -1.197776049375534058e-01 -5.153103545308113098e-02
4.160000000000000000e+02 2.978447914123535156e+00 -1.179668545722961426e+00 -2.286086082458496094e-01 -1.946754008531570435e-02 -7.442284375429153442e-02 -1.898310035467147827e-01
4.170000000000000000e+02 2.901429653167724609e+00 -2.323929220438003540e-01 -2.330183535814285278e-01 1.614415668882429600e-04 -6.985707581043243408e-02 -1.919254474341869354e-02
4.180000000000000000e+02 2.983334064483642578e+00 -6.520615220069885254e-01 -2.869548201560974121e-01 4.746158665511757135e-04 -8.594405651092529297e-02 -1.211487874388694763e-01
4.190000000000000000e+02 8.650328636169433594e+00 -1.852631092071533203e+00 -1.189302280545234680e-01 1.407750248908996582e-01 6.553442217409610748e-03 1.630989909172058105e-01
4.200000000000000000e+02 4.572353363037109375e+00 -1.958526253700256348e+00 -2.506683170795440674e-01 2.491386048495769501e-02 -6.772633641958236694e-02 -2.501473128795623779e-01
4.210000000000000000e+02 5.983506441116333008e-01 -1.076773738861083984e+01 1.452971436083316803e-02 -1.740133404731750488e+00 -5.176811218261718750e-01 -1.089421585202217102e-01
4.220000000000000000e+02 1.109219074249267578e+01 -1.398089981079101562e+01 6.544252038002014160e-01 7.741644382476806641e+00 2.518821001052856445e+00 1.148038148880004883e+00
4.230000000000000000e+02 1.561408138275146484e+01 -1.232218933105468750e+01 -4.759773254394531250e+00 1.680797636508941650e-01 -1.377508044242858887e+00 6.850354671478271484e-01
4.240000000000000000e+02 1.608090400695800781e+01 -2.773496389389038086e+00 3.474758863449096680e+00 1.477113151550292969e+01 5.473767280578613281e+00 3.275224924087524414e+00
4.250000000000000000e+02 1.671885681152343750e+01 -3.065401792526245117e+00 3.012925624847412109e+00 1.377933502197265625e+01 5.037678241729736328e+00 4.742331802845001221e-01
4.260000000000000000e+02 1.646348190307617188e+01 -4.065000534057617188e+00 1.711469769477844238e+00 1.017646121978759766e+01 3.566379308700561523e+00 1.903086185455322266e+00
4.270000000000000000e+02 1.089725494384765625e+01 -1.975606918334960938e+00 6.264078617095947266e-01 1.557399779558181763e-01 2.346443533897399902e-01 5.201894044876098633e-01
4.280000000000000000e+02 1.019847869873046875e+01 -1.889943480491638184e+00 3.390514850616455078e-01 1.678381711244583130e-01 1.520669013261795044e-01 4.003948867321014404e-01
4.290000000000000000e+02 1.310585784912109375e+01 -1.280434989929199219e+01 2.837012112140655518e-01 5.879111766815185547e+00 1.848843932151794434e+00 2.595443964004516602e+00
4.300000000000000000e+02 1.444133377075195312e+01 -1.279079246520996094e+01 2.813328802585601807e-01 3.552583456039428711e+00 1.150174856185913086e+00 2.208743333816528320e+00
4.310000000000000000e+02 1.787820100784301758e+00 -1.089871120452880859e+01 8.480452001094818115e-03 -8.843146562576293945e-01 -2.627502679824829102e-01 -2.976253628730773926e-01
4.320000000000000000e+02 6.349586844444274902e-01 -1.786060523986816406e+01 2.696685492992401123e-02 -2.165031433105468750e+00 -6.414194107055664062e-01 1.182085722684860229e-01
4.330000000000000000e+02 1.140367412567138672e+01 -2.202010345458984375e+01 1.042185306549072266e+00 7.462771415710449219e+00 2.551486968994140625e+00 -8.640433549880981445e-01
4.340000000000000000e+02 1.160633087158203125e+01 -1.808159828186035156e+01 6.155130267143249512e-01 1.310714435577392578e+01 4.116797447204589844e+00 5.200790762901306152e-01
4.350000000000000000e+02 1.159957408905029297e+01 -1.943434906005859375e+01 4.083318412303924561e-01 1.133743190765380859e+01 3.523729085922241211e+00 -5.824171900749206543e-01
4.360000000000000000e+02 8.980251312255859375e+00 -1.894004249572753906e+01 1.559610009193420410e+00 6.226217269897460938e+00 2.335748195648193359e+00 1.255490422248840332e+00
4.370000000000000000e+02 1.919130921363830566e+00 -1.805764579772949219e+01 1.802086234092712402e-01 -7.883172631263732910e-01 -1.824325919151306152e-01 3.327727019786834717e-01
4.380000000000000000e+02 6.335476636886596680e-01 -2.352655410766601562e+01 -6.879911758005619049e-03 -7.705882191658020020e-02 -2.518161945044994354e-02 3.132755458354949951e-01
4.390000000000000000e+02 1.183752822875976562e+01 -2.377750205993652344e+01 -2.906889021396636963e-01 5.434854030609130859e+00 1.543249487876892090e+00 -2.284846752882003784e-01
4.400000000000000000e+02 1.722298049926757812e+01 -2.753447532653808594e+01 -6.564617753028869629e-01 1.072881221771240234e-01 -1.647520959377288818e-01 1.722130328416824341e-01
4.410000000000000000e+02 1.436876201629638672e+01 -2.457578086853027344e+01 6.334236264228820801e-01 1.721019983291625977e+00 7.063331007957458496e-01 -9.883212447166442871e-01
4.420000000000000000e+02 6.276760697364807129e-01 -2.493646049499511719e+01 -5.841769278049468994e-03 6.127375960350036621e-01 1.820687502622604370e-01 2.986729145050048828e-01
4.430000000000000000e+02 6.571496129035949707e-01 -3.052367019653320312e+01 -8.599126711487770081e-03 2.809690237045288086e+00 8.403273224830627441e-01 1.860872954130172729e-01
4.440000000000000000e+02 9.625817298889160156e+00 -3.887245941162109375e+01 -3.191052973270416260e-01 2.410756587982177734e+00 6.274954080581665039e-01 7.463195919990539551e-02
4.450000000000000000e+02 1.664924812316894531e+01 -3.871241760253906250e+01 -1.971231400966644287e-01 9.974107742309570312e-01 2.400862872600555420e-01 -1.801248341798782349e-01
4.460000000000000000e+02 2.279716873168945312e+01 -3.569130706787109375e+01 -3.814026117324829102e-01 1.318246126174926758e-01 -7.487340271472930908e-02 -2.942477352917194366e-02
4.470000000000000000e+02 2.514675712585449219e+01 -3.077831649780273438e+01 -2.510738611221313477e+00 -1.718418300151824951e-01 -8.047741055488586426e-01 2.381426990032196045e-01
4.480000000000000000e+02 2.336457061767578125e+01 -3.226494979858398438e+01 -1.419347405433654785e+00 -1.590072959661483765e-01 -4.735064208507537842e-01 7.059745490550994873e-02
4.490000000000000000e+02 2.090781593322753906e+01 -2.976460838317871094e+01 -1.990847468376159668e+00 -1.867285072803497314e-01 -6.532727479934692383e-01 5.479854345321655273e-01
4.500000000000000000e+02 1.954692268371582031e+01 -2.920252799987792969e+01 -1.664623260498046875e+00 -2.065599858760833740e-01 -5.613549947738647461e-01 5.104869604110717773e-01
4.510000000000000000e+02 1.808611679077148438e+01 -3.238011169433593750e+01 -9.086446166038513184e-01 6.624937653541564941e-01 -7.384526729583740234e-02 -2.509251236915588379e-01
4.520000000000000000e+02 1.209148597717285156e+01 -3.262225341796875000e+01 -8.735325336456298828e-01 2.439445018768310547e+00 4.697737097740173340e-01 -3.482786938548088074e-02
4.530000000000000000e+02 1.216809082031250000e+01 -2.997052192687988281e+01 -1.043653249740600586e+00 2.810749530792236328e+00 5.301289558410644531e-01 -4.126963391900062561e-02
4.540000000000000000e+02 7.061787247657775879e-01 -3.193891906738281250e+01 -2.234768122434616089e-02 3.162716388702392578e+00 9.421106576919555664e-01 1.537697315216064453e-01
4.550000000000000000e+02 6.622374057769775391e-01 -3.731768417358398438e+01 -5.105553194880485535e-02 3.779112100601196289e+00 1.118417024612426758e+00 1.059634261764585972e-03
4.560000000000000000e+02 7.203524589538574219e+00 -3.796849441528320312e+01 -2.877068519592285156e-01 2.762321472167968750e+00 7.423844337463378906e-01 1.921535283327102661e-01
4.570000000000000000e+02 2.724286079406738281e+00 -3.735862731933593750e+01 -9.488698840141296387e-02 3.457238674163818359e+00 1.008705496788024902e+00 1.131449341773986816e-01
4.580000000000000000e+02 2.725168800354003906e+01 -4.102754592895507812e+01 -1.724314093589782715e-01 1.153822779655456543e+00 2.944174408912658691e-01 1.433313935995101929e-01
4.590000000000000000e+02 3.051324081420898438e+01 -3.534706878662109375e+01 -6.621993780136108398e-01 1.943418979644775391e+00 3.843658864498138428e-01 1.110193133354187012e+00
4.600000000000000000e+02 3.215807342529296875e+01 -2.928976821899414062e+01 7.612481117248535156e-01 1.821421265602111816e+00 7.748007774353027344e-01 1.344835042953491211e+00
4.610000000000000000e+02 2.946666336059570312e+01 -3.041773223876953125e+01 -1.442825317382812500e+00 2.415941357612609863e-01 -3.603693544864654541e-01 1.871409118175506592e-01
4.620000000000000000e+02 3.537323760986328125e+01 -3.929610443115234375e+01 -1.410899400711059570e+00 4.378048896789550781e+00 8.901448249816894531e-01 4.221766591072082520e-01
4.630000000000000000e+02 4.399541091918945312e+01 -2.789706039428710938e+01 3.129626512527465820e-01 7.830315113067626953e+00 2.442983150482177734e+00 -1.075651049613952637e+00
4.640000000000000000e+02 4.488162994384765625e+01 -2.393751716613769531e+01 2.149980783462524414e+00 9.682085990905761719e+00 3.549619913101196289e+00 -1.479304313659667969e+00
4.650000000000000000e+02 4.628905487060546875e+01 -1.864281845092773438e+01 1.645809859037399292e-01 1.236187648773193359e+01 3.757937192916870117e+00 4.368622601032257080e-01
4.660000000000000000e+02 4.113513565063476562e+01 -1.271847963333129883e+00 3.726011276245117188e+00 1.265858936309814453e+01 4.915380001068115234e+00 5.769423007965087891e+00
4.670000000000000000e+02 4.237443542480468750e+01 2.760286331176757812e+00 9.199333786964416504e-01 1.854350662231445312e+01 5.839031696319580078e+00 2.046159744262695312e+00
4.680000000000000000e+02 4.175261306762695312e+01 -1.416413486003875732e-02 2.290031909942626953e+00 1.630781936645507812e+01 5.579355239868164062e+00 5.015512466430664062e+00
4.690000000000000000e+02 4.293682861328125000e+01 -4.107429504394531250e+01 -1.699051737785339355e+00 5.511623382568359375e+00 1.143771529197692871e+00 -1.254046857357025146e-01
4.700000000000000000e+02 4.369806289672851562e+01 -3.821563339233398438e+01 -1.579689264297485352e+00 5.568165779113769531e+00 1.196542978286743164e+00 -3.948141634464263916e-01
4.710000000000000000e+02 4.657284927368164062e+01 -2.777473831176757812e+01 5.296041965484619141e-01 7.173913955688476562e+00 2.311055421829223633e+00 -1.884043335914611816e+00
4.720000000000000000e+02 4.916578674316406250e+01 -2.658598327636718750e+01 2.516756296157836914e+00 4.267384052276611328e+00 2.035242080688476562e+00 -3.129722118377685547e+00
4.730000000000000000e+02 4.738592147827148438e+01 -2.470973587036132812e+01 3.214072227478027344e+00 9.284889221191406250e+00 3.749688625335693359e+00 -4.371329307556152344e+00
4.740000000000000000e+02 4.624665069580078125e+01 -2.413984680175781250e+01 2.720864534378051758e+00 1.050859165191650391e+01 3.968836784362792969e+00 -3.059046506881713867e+00
4.750000000000000000e+02 4.679374694824218750e+01 -1.451992416381835938e+01 1.064068198204040527e+00 1.244997596740722656e+01 4.054213047027587891e+00 2.822272539138793945e+00
4.760000000000000000e+02 4.717724227905273438e+01 -1.314940261840820312e+01 1.623462438583374023e+00 1.131409835815429688e+01 3.881268501281738281e+00 3.532993555068969727e+00
4.770000000000000000e+02 4.468113708496093750e+01 -1.251148319244384766e+01 8.961156010627746582e-01 9.340348243713378906e+00 3.070939064025878906e+00 1.405810475349426270e+00
4.780000000000000000e+02 4.777858352661132812e+01 -1.184896373748779297e+01 2.061599969863891602e+00 9.138123512268066406e+00 3.359917163848876953e+00 3.747577428817749023e+00
4.790000000000000000e+02 4.963396835327148438e+01 -9.695666313171386719e+00 8.447670936584472656e-01 2.764852523803710938e+00 1.082885861396789551e+00 1.681056141853332520e+00
4.800000000000000000e+02 5.205728530883789062e+01 -8.082128524780273438e+00 -1.710080862045288086e+00 1.152187064290046692e-01 -4.784586429595947266e-01 -1.306716725230216980e-02
4.810000000000000000e+02 5.362096405029296875e+01 -7.893502712249755859e+00 -1.921070933341979980e+00 -3.124167621135711670e-01 -6.700463294982910156e-01 2.129868268966674805e-01
4.820000000000000000e+02 5.637038803100585938e+01 -9.173464775085449219e+00 -1.108377337455749512e+00 -3.471342325210571289e-01 -4.366534650325775146e-01 5.881081223487854004e-01
4.830000000000000000e+02 5.869976806640625000e+01 -1.044584178924560547e+01 -1.028055667877197266e+00 -1.358218044042587280e-01 -3.491632640361785889e-01 4.228035807609558105e-01
4.840000000000000000e+02 6.120023727416992188e+01 -1.121755790710449219e+01 -1.177764296531677246e+00 -2.026727423071861267e-02 -3.594094812870025635e-01 2.350359261035919189e-01
4.850000000000000000e+02 6.250006866455078125e+01 -1.146188354492187500e+01 -1.093110442161560059e+00 1.415784060955047607e-01 -2.854596078395843506e-01 6.362982839345932007e-02
4.860000000000000000e+02 7.136591339111328125e+01 -2.264934778213500977e+00 -5.563305616378784180e-01 6.672632694244384766e+00 1.834890604019165039e+00 -2.835527411662042141e-04
4.870000000000000000e+02 7.939165496826171875e+01 2.878071784973144531e+00 -1.762749277986586094e-03 8.108332633972167969e+00 2.431970834732055664e+00 -9.508773684501647949e-02
4.880000000000000000e+02 7.817227935791015625e+01 4.415006160736083984e+00 -3.176613897085189819e-02 7.727455615997314453e+00 2.308706760406494141e+00 -3.248043060302734375e-01
4.890000000000000000e+02 7.936251068115234375e+01 8.417455673217773438e+00 3.567189350724220276e-02 6.856777667999267578e+00 2.067734956741333008e+00 -1.605887264013290405e-01
4.900000000000000000e+02 7.809947204589843750e+01 1.130993270874023438e+01 4.994256421923637390e-02 6.758949279785156250e+00 2.042667627334594727e+00 -3.020943105220794678e-01
4.910000000000000000e+02 7.935797882080078125e+01 1.676201820373535156e+01 8.394078165292739868e-02 6.190129756927490234e+00 1.882221221923828125e+00 1.343436837196350098e-01
4.920000000000000000e+02 6.656768798828125000e+01 2.307545089721679688e+01 -2.094463825225830078e+00 4.573071002960205078e+00 7.435821294784545898e-01 -1.880268335342407227e+00
4.930000000000000000e+02 6.849908447265625000e+01 1.837088584899902344e+01 1.378871202468872070e+00 1.426062107086181641e+01 4.691847801208496094e+00 -8.986083269119262695e-01
4.940000000000000000e+02 6.996721649169921875e+01 1.823417663574218750e+01 1.536351919174194336e+00 1.073972225189208984e+01 3.682822227478027344e+00 -1.365262418985366821e-01
4.950000000000000000e+02 6.938497161865234375e+01 1.287906932830810547e+01 1.413281440734863281e+00 1.104761600494384766e+01 3.738269329071044922e+00 1.154413819313049316e+00
4.960000000000000000e+02 6.831359863281250000e+01 1.137244701385498047e+01 1.696559667587280273e+00 1.063493728637695312e+01 3.699449062347412109e+00 2.355700969696044922e+00
4.970000000000000000e+02 6.798174285888671875e+01 1.274134731292724609e+01 1.457172870635986328e+00 1.264094448089599609e+01 4.229435443878173828e+00 3.101639032363891602e+00
4.980000000000000000e+02 6.808877563476562500e+01 9.348598480224609375e+00 4.299130737781524658e-01 8.311527252197265625e+00 2.622431993484497070e+00 1.289258599281311035e+00
4.990000000000000000e+02 6.628713989257812500e+01 9.681032180786132812e+00 2.101658344268798828e+00 5.813319683074951172e+00 2.374493360519409180e+00 3.274102687835693359e+00
5.000000000000000000e+02 6.430643463134765625e+01 7.703181743621826172e+00 1.330668926239013672e+00 2.225371360778808594e+00 1.066812157630920410e+00 1.717615723609924316e+00
5.010000000000000000e+02 6.187431716918945312e+01 3.886177062988281250e+00 5.822468400001525879e-01 1.282179117202758789e+00 5.593277812004089355e-01 7.880314588546752930e-01
5.020000000000000000e+02 5.671808242797851562e+01 1.251493692398071289e+00 1.244139313697814941e+00 2.897301912307739258e-01 4.601608514785766602e-01 5.527935028076171875e-01
5.030000000000000000e+02 5.512952041625976562e+01 -8.394321441650390625e+00 -1.507534861564636230e+00 -3.501104414463043213e-01 -5.572935938835144043e-01 5.108342766761779785e-01
5.040000000000000000e+02 4.761509704589843750e+01 -4.107098388671875000e+01 -1.025728821754455566e+00 4.493898868560791016e+00 1.040451049804687500e+00 -2.589753568172454834e-01
5.050000000000000000e+02 4.965937423706054688e+01 -3.395983123779296875e+01 -5.923827290534973145e-01 3.966169118881225586e+00 1.012135982513427734e+00 -1.733026027679443359e+00
5.060000000000000000e+02 5.390797805786132812e+01 -2.960073089599609375e+01 -1.033809900283813477e+00 4.580007195472717285e-01 -1.727427393198013306e-01 -4.588629305362701416e-01
5.070000000000000000e+02 4.982982254028320312e+01 -2.999257659912109375e+01 6.389918923377990723e-02 3.897188425064086914e+00 1.188326239585876465e+00 -2.071430921554565430e+00
5.080000000000000000e+02 5.807332229614257812e+01 -3.772049713134765625e+01 6.412722468376159668e-01 1.549875974655151367e+00 6.573444604873657227e-01 -2.356669902801513672e-01
5.090000000000000000e+02 5.378233337402343750e+01 -3.462157058715820312e+01 -2.037611603736877441e-02 2.004787206649780273e+00 5.953233242034912109e-01 -1.237384915351867676e+00
5.100000000000000000e+02 5.663039779663085938e+01 -2.998652839660644531e+01 -2.404479026794433594e+00 5.076864361763000488e-02 -7.061131000518798828e-01 -1.911946684122085571e-01
5.110000000000000000e+02 5.489995193481445312e+01 -3.124066543579101562e+01 -7.570754289627075195e-01 5.036324858665466309e-01 -7.603289186954498291e-02 -9.089463353157043457e-01
5.120000000000000000e+02 6.237594604492187500e+01 -4.103955078125000000e+01 7.251945734024047852e-01 2.407963275909423828e+00 9.399473667144775391e-01 1.237335205078125000e-01
5.130000000000000000e+02 6.221281051635742188e+01 -3.806399154663085938e+01 5.592112541198730469e-01 2.305538892745971680e+00 8.594250082969665527e-01 3.025955259799957275e-01
5.140000000000000000e+02 6.779673767089843750e+01 -2.763329696655273438e+01 -9.228953719139099121e-01 6.080013751983642578e+00 1.547135472297668457e+00 8.748070597648620605e-01
5.150000000000000000e+02 6.723147583007812500e+01 -2.251174354553222656e+01 1.982680797576904297e+00 7.707380771636962891e+00 2.907018423080444336e+00 3.378186464309692383e+00
5.160000000000000000e+02 6.832276153564453125e+01 -2.506333923339843750e+01 -6.280795335769653320e-01 7.892925739288330078e+00 2.179453849792480469e+00 9.418551921844482422e-01
5.170000000000000000e+02 6.529440307617187500e+01 -2.460655021667480469e+01 9.038967490196228027e-01 2.674218654632568359e+00 1.073434591293334961e+00 1.622839093208312988e+00
5.180000000000000000e+02 6.236216354370117188e+01 -2.744828605651855469e+01 -6.795593500137329102e-01 3.725958168506622314e-01 -9.208906441926956177e-02 -5.776859819889068604e-02
5.190000000000000000e+02 5.956752777099609375e+01 -3.086948013305664062e+01 -1.503984689712524414e+00 -1.636486314237117767e-02 -4.561048746109008789e-01 -1.355904936790466309e-01
5.200000000000000000e+02 6.449179840087890625e+01 -3.025189971923828125e+01 -7.735987901687622070e-01 3.061943531036376953e+00 6.865034699440002441e-01 1.085027694702148438e+00
5.210000000000000000e+02 6.716288757324218750e+01 -4.088205337524414062e+01 2.882952690124511719e-01 4.319564819335937500e+00 1.382358074188232422e+00 1.287661939859390259e-01
5.220000000000000000e+02 6.894073486328125000e+01 -3.639047241210937500e+01 -1.315795183181762695e-01 5.281538486480712891e+00 1.544987678527832031e+00 3.077301383018493652e-01
5.230000000000000000e+02 7.929106903076171875e+01 -3.353741073608398438e+01 -3.748476877808570862e-02 8.927470207214355469e+00 2.666995763778686523e+00 -6.848353892564773560e-02
5.240000000000000000e+02 7.791435241699218750e+01 -3.088634681701660156e+01 -1.017403975129127502e-01 8.207294464111328125e+00 2.431666135787963867e+00 -3.575539886951446533e-01
5.250000000000000000e+02 7.928536224365234375e+01 -2.648546218872070312e+01 -1.825847476720809937e-02 7.310739040374755859e+00 2.187744140625000000e+00 -2.758287787437438965e-01
5.260000000000000000e+02 7.788642883300781250e+01 -2.358066558837890625e+01 3.798648715019226074e-02 6.748355865478515625e+00 2.035902738571166992e+00 -7.207449078559875488e-01
5.270000000000000000e+02 7.932778167724609375e+01 -2.224062347412109375e+01 2.118404582142829895e-02 5.715514659881591797e+00 1.721009612083435059e+00 -2.450147867202758789e-01
5.280000000000000000e+02 6.748923492431640625e+01 -1.440406227111816406e+01 2.440392494201660156e+00 1.041224193572998047e+01 3.855790376663208008e+00 -4.069900512695312500e+00
5.290000000000000000e+02 6.958876800537109375e+01 -1.687030220031738281e+01 1.795713663101196289e+00 1.237142848968505859e+01 4.250142574310302734e+00 -8.751135468482971191e-01
5.300000000000000000e+02 6.837116241455078125e+01 -1.847288703918457031e+01 2.146981954574584961e-01 1.569681739807128906e+01 4.773454666137695312e+00 -8.705123513936996460e-02
5.310000000000000000e+02 6.832382202148437500e+01 -1.989364051818847656e+01 1.431833267211914062e+00 1.701925277709960938e+01 5.535325527191162109e+00 1.696180820465087891e+00
5.320000000000000000e+02 6.800599670410156250e+01 -2.128023147583007812e+01 2.498791456222534180e+00 1.356261444091796875e+01 4.818421840667724609e+00 3.615135669708251953e+00
5.330000000000000000e+02 6.953094482421875000e+01 -2.255337142944335938e+01 7.270348668098449707e-01 1.046671390533447266e+01 3.358124732971191406e+00 8.850999921560287476e-02
5.340000000000000000e+02 7.802605438232421875e+01 -4.159025955200195312e+01 1.393625736236572266e-01 8.634214401245117188e+00 2.632072925567626953e+00 3.919670358300209045e-02
5.350000000000000000e+02 7.804805755615234375e+01 -1.657349395751953125e+01 2.058119028806686401e-01 5.901798725128173828e+00 1.832283258438110352e+00 2.321849912405014038e-01
5.360000000000000000e+02 7.934951019287109375e+01 -1.246253108978271484e+01 2.549592591822147369e-02 6.144288539886474609e+00 1.850935339927673340e+00 2.405455708503723145e-01
5.370000000000000000e+02 7.318425750732421875e+01 -5.344177246093750000e+00 -5.486549139022827148e-01 7.364904403686523438e+00 2.044874906539916992e+00 2.821853458881378174e-01
5.380000000000000000e+02 6.823856353759765625e+01 -1.279937648773193359e+01 8.276782184839248657e-02 9.039918899536132812e+00 2.736806154251098633e+00 -1.318433046340942383e+00
5.390000000000000000e+02 6.680104064941406250e+01 -1.327675819396972656e+01 1.845014095306396484e+00 6.245698928833007812e+00 2.427213907241821289e+00 -3.186795234680175781e+00
5.400000000000000000e+02 6.638585662841796875e+01 -1.055217933654785156e+01 -4.327688217163085938e-01 4.939314365386962891e+00 1.351963639259338379e+00 -1.583485603332519531e+00
5.410000000000000000e+02 7.801313781738281250e+01 -9.515471458435058594e+00 -7.354763895273208618e-02 7.262522697448730469e+00 2.156692504882812500e+00 5.616219639778137207e-01
5.420000000000000000e+02 7.932880401611328125e+01 -5.484590530395507812e+00 -2.343518286943435669e-02 8.136967658996582031e+00 2.434059619903564453e+00 1.149768009781837463e-01
5.430000000000000000e+02 7.805117034912109375e+01 -2.476839065551757812e+00 -8.247504383325576782e-02 8.084376335144042969e+00 2.400570392608642578e+00 5.951412022113800049e-02
5.440000000000000000e+02 7.808030700683593750e+01 1.965831375122070312e+01 5.332808941602706909e-02 7.423292636871337891e+00 2.242986202239990234e+00 6.740248799324035645e-01
5.450000000000000000e+02 7.934283447265625000e+01 2.374651527404785156e+01 -7.035561837255954742e-03 8.549521446228027344e+00 2.562745809555053711e+00 2.342053502798080444e-01
5.460000000000000000e+02 7.390647888183593750e+01 3.260302352905273438e+01 -1.651985347270965576e-01 7.463339805603027344e+00 2.189442396163940430e+00 -2.935575842857360840e-01
5.470000000000000000e+02 6.237066268920898438e+01 4.096219253540039062e+01 6.403568387031555176e-01 3.555417776107788086e+00 1.258732438087463379e+00 -3.545980434864759445e-03
5.480000000000000000e+02 5.746522903442382812e+01 4.073933792114257812e+01 4.207406342029571533e-01 2.984047889709472656e+00 1.021436572074890137e+00 1.405290365219116211e-01
5.490000000000000000e+02 5.806727981567382812e+01 3.746406936645507812e+01 4.302931725978851318e-01 2.878938913345336914e+00 9.927696585655212402e-01 3.265843391418457031e-01
5.500000000000000000e+02 5.240664672851562500e+01 4.070380783081054688e+01 2.323196083307266235e-02 2.968598127365112305e+00 8.975490331649780273e-01 1.741610020399093628e-01
5.510000000000000000e+02 5.158092117309570312e+01 3.726841735839843750e+01 -1.699713617563247681e-01 3.072465658187866211e+00 8.707482814788818359e-01 4.617833197116851807e-01
5.520000000000000000e+02 5.223079681396484375e+01 2.767166328430175781e+01 -1.033248424530029297e+00 3.822556972503662109e+00 8.367925286293029785e-01 1.494955182075500488e+00
5.530000000000000000e+02 5.385258865356445312e+01 2.135251808166503906e+01 1.008041143417358398e+00 2.641760110855102539e+00 1.094940304756164551e+00 1.889104962348937988e+00
5.540000000000000000e+02 4.986198806762695312e+01 1.493479919433593750e+01 1.198322176933288574e+00 1.072720527648925781e+01 3.577658176422119141e+00 3.368297338485717773e+00
5.550000000000000000e+02 5.210507965087890625e+01 2.001791572570800781e+01 2.043316841125488281e+00 5.888285636901855469e+00 2.379480600357055664e+00 3.191923618316650391e+00
5.560000000000000000e+02 5.225725936889648438e+01 2.136784744262695312e+01 8.248594999313354492e-01 4.966755390167236328e+00 1.737484574317932129e+00 2.190176010131835938e+00
5.570000000000000000e+02 5.518315887451171875e+01 2.169401741027832031e+01 -6.116408705711364746e-01 6.048200726509094238e-01 -2.046226989477872849e-03 7.019155621528625488e-01
5.580000000000000000e+02 5.785329437255859375e+01 2.235102653503417969e+01 -2.858147144317626953e+00 9.611497819423675537e-02 -8.286097049713134766e-01 -7.277631014585494995e-02
5.590000000000000000e+02 6.021883773803710938e+01 2.523097038269042969e+01 -1.292608141899108887e+00 1.412214785814285278e-01 -3.454160094261169434e-01 6.469067931175231934e-01
5.600000000000000000e+02 6.420298004150390625e+01 2.370684242248535156e+01 -1.959095716476440430e+00 8.914570212364196777e-01 -3.202916085720062256e-01 -6.805893182754516602e-01
5.610000000000000000e+02 6.773240661621093750e+01 2.141921234130859375e+01 -6.965090036392211914e-01 6.796785831451416016e+00 1.830083131790161133e+00 -1.738864541053771973e+00
5.620000000000000000e+02 6.763486480712890625e+01 2.304515647888183594e+01 -2.181024312973022461e+00 5.859638690948486328e+00 1.103584289550781250e+00 -1.287834405899047852e+00
5.630000000000000000e+02 7.658480072021484375e+01 2.254961585998535156e+01 -1.626978069543838501e-01 8.257202148437500000e+00 2.428351163864135742e+00 8.903704285621643066e-01
5.640000000000000000e+02 7.948298645019531250e+01 2.926431465148925781e+01 7.884566672146320343e-03 9.599695205688476562e+00 2.882273912429809570e+00 3.761780261993408203e-02
5.650000000000000000e+02 7.152045440673828125e+01 3.807716369628906250e+01 2.184664458036422729e-01 6.339592456817626953e+00 1.967417716979980469e+00 -2.657241225242614746e-01
5.660000000000000000e+02 7.943818664550781250e+01 3.197181701660156250e+01 1.335395500063896179e-02 9.577308654785156250e+00 2.877198934555053711e+00 -1.166343037039041519e-02
5.670000000000000000e+02 7.915221405029296875e+01 3.742120361328125000e+01 -1.009838562458753586e-02 9.127814292907714844e+00 2.735314846038818359e+00 -7.845193147659301758e-02
5.680000000000000000e+02 7.429351806640625000e+01 3.851335906982421875e+01 1.212243586778640747e-01 7.336899757385253906e+00 2.237437248229980469e+00 -4.323787614703178406e-02
5.690000000000000000e+02 7.633531188964843750e+01 3.918180847167968750e+01 4.866233561187982559e-03 8.518360137939453125e+00 2.556967973709106445e+00 -8.846787363290786743e-02
5.700000000000000000e+02 4.257198715209960938e+01 4.089229965209960938e+01 -4.424286782741546631e-01 2.903765678405761719e+00 7.384011149406433105e-01 -9.877433069050312042e-03
5.710000000000000000e+02 4.364261627197265625e+01 2.756235885620117188e+01 -1.023623704910278320e+00 4.154462337493896484e+00 9.392515420913696289e-01 -3.305943310260772705e-01
5.720000000000000000e+02 4.395775222778320312e+01 2.373124694824218750e+01 -9.323965907096862793e-01 4.926157474517822266e+00 1.198128342628479004e+00 -5.230456590652465820e-01
5.730000000000000000e+02 4.017426300048828125e+01 1.222194576263427734e+01 1.213091015815734863e+00 3.828592538833618164e+00 1.512505054473876953e+00 -1.939207792282104492e+00
5.740000000000000000e+02 4.425911331176757812e+01 1.278441047668457031e+01 4.362558722496032715e-01 8.717009544372558594e+00 2.745979547500610352e+00 3.259209990501403809e-01
5.750000000000000000e+02 4.214724731445312500e+01 8.425246238708496094e+00 1.240006804466247559e+00 1.342096042633056641e+01 4.398290157318115234e+00 -2.395564794540405273e+00
5.760000000000000000e+02 4.245407104492187500e+01 7.014928817749023438e+00 6.310860514640808105e-01 1.576690006256103516e+01 4.919395923614501953e+00 -9.781283140182495117e-01
5.770000000000000000e+02 4.321812057495117188e+01 1.211733818054199219e+00 1.841437458992004395e+00 1.467611789703369141e+01 4.955266952514648438e+00 2.175790071487426758e+00
5.780000000000000000e+02 4.678943252563476562e+01 5.366680145263671875e+00 9.398678541183471680e-01 1.217281436920166016e+01 3.933804750442504883e+00 7.508357763290405273e-01
5.790000000000000000e+02 4.256909942626953125e+01 5.582822799682617188e+00 4.022433161735534668e-01 1.621812248229980469e+01 4.986110210418701172e+00 7.034368813037872314e-02
5.800000000000000000e+02 4.807810974121093750e+01 5.162377834320068359e+00 1.753854900598526001e-01 1.174843883514404297e+01 3.577147245407104492e+00 6.371002793312072754e-01
5.810000000000000000e+02 4.859689712524414062e+01 9.405737876892089844e+00 6.310554742813110352e-01 1.256264686584472656e+01 3.958110809326171875e+00 2.355906486511230469e+00
5.820000000000000000e+02 4.676074600219726562e+01 1.257021713256835938e+01 7.803725600242614746e-01 1.034908485412597656e+01 3.338837385177612305e+00 1.782718777656555176e+00
5.830000000000000000e+02 4.947708129882812500e+01 1.355705261230468750e+01 1.168627977371215820e+00 1.175800514221191406e+01 3.877989768981933594e+00 3.251574754714965820e+00
5.840000000000000000e+02 5.086339569091796875e+01 1.759812736511230469e+01 1.955812096595764160e+00 9.467135429382324219e+00 3.426884412765502930e+00 3.679844856262207031e+00
5.850000000000000000e+02 3.934202194213867188e+01 1.530474090576171875e+01 3.517631888389587402e-01 2.887310028076171875e+00 9.717219471931457520e-01 -1.229711771011352539e+00
5.860000000000000000e+02 3.767620849609375000e+01 4.074488449096679688e+01 -3.048409223556518555e-01 2.478274822235107422e+00 6.520301699638366699e-01 -7.718011736869812012e-02
5.870000000000000000e+02 4.278975677490234375e+01 3.766513824462890625e+01 -5.042580962181091309e-01 2.989414453506469727e+00 7.455468773841857910e-01 -4.561904445290565491e-02
5.880000000000000000e+02 3.306852722167968750e+01 3.127500534057617188e+01 -2.147899568080902100e-01 1.768143534660339355e+00 4.660060703754425049e-01 -4.085432291030883789e-01
5.890000000000000000e+02 3.313074111938476562e+01 2.210692977905273438e+01 -9.342101812362670898e-01 7.488378286361694336e-01 -5.561170354485511780e-02 -4.704058468341827393e-01
5.900000000000000000e+02 3.405600738525390625e+01 1.799678039550781250e+01 -6.419906616210937500e-01 4.855985194444656372e-02 -1.780292540788650513e-01 1.841149181127548218e-01
5.910000000000000000e+02 3.609833908081054688e+01 1.808299255371093750e+01 -3.283231854438781738e-01 1.054111480712890625e+00 2.177364975214004517e-01 -4.870361089706420898e-01
5.920000000000000000e+02 3.729062652587890625e+01 1.529092597961425781e+01 3.734340071678161621e-01 9.322963953018188477e-01 3.917191326618194580e-01 -6.189466714859008789e-01
5.930000000000000000e+02 3.623693084716796875e+01 1.620602607727050781e+01 7.021034508943557739e-02 5.214668512344360352e-01 1.775031536817550659e-01 -3.116425871849060059e-01
5.940000000000000000e+02 3.255375289916992188e+01 4.040593338012695312e+01 -1.466693431138992310e-01 2.104841232299804688e+00 5.874515771865844727e-01 -4.349143803119659424e-02
5.950000000000000000e+02 2.938014221191406250e+01 2.900650405883789062e+01 -1.550815552473068237e-01 1.120756745338439941e+00 2.897025346755981445e-01 -8.357129991054534912e-02
5.960000000000000000e+02 2.508401107788085938e+01 2.164984893798828125e+01 -2.510810136795043945e+00 -5.812892690300941467e-02 -7.706816792488098145e-01 5.470890998840332031e-01
5.970000000000000000e+02 2.906614875793457031e+01 2.054023170471191406e+01 -2.397351264953613281e+00 -2.007826864719390869e-01 -7.794401645660400391e-01 5.909118056297302246e-01
5.980000000000000000e+02 2.845203971862792969e+01 2.221175956726074219e+01 -1.742167830467224121e+00 -5.617789924144744873e-02 -5.395036935806274414e-01 2.036662399768829346e-01
5.990000000000000000e+02 3.166680145263671875e+01 1.952475357055664062e+01 -1.643647909164428711e+00 -2.381545454263687134e-01 -5.645407438278198242e-01 5.657724738121032715e-01
6.000000000000000000e+02 2.185406112670898438e+01 3.760797119140625000e+01 -3.481334745883941650e-01 2.351029396057128906e+00 6.008688211441040039e-01 2.208913117647171021e-01
6.010000000000000000e+02 2.231220626831054688e+01 4.084791946411132812e+01 -2.977928817272186279e-01 2.291336297988891602e+00 5.980629920959472656e-01 8.172700554132461548e-02
6.020000000000000000e+02 2.827570915222167969e+01 3.076583862304687500e+01 -9.385403990745544434e-02 1.366652965545654297e+00 3.818396925926208496e-01 1.194527372717857361e-01
6.030000000000000000e+02 1.597813701629638672e+01 2.176762962341308594e+01 -3.587558269500732422e-01 6.260753631591796875e+00 1.770599365234375000e+00 -5.061239004135131836e-01
6.040000000000000000e+02 2.271317291259765625e+01 2.275296592712402344e+01 -1.161042809486389160e+00 5.895533561706542969e-01 -1.714468449354171753e-01 1.125329613685607910e+00
6.050000000000000000e+02 2.641201782226562500e+01 2.132777404785156250e+01 -2.696480751037597656e+00 -1.858926117420196533e-01 -8.647119998931884766e-01 5.404683351516723633e-01
6.060000000000000000e+02 1.741215705871582031e+01 4.080862808227539062e+01 -4.713726043701171875e-01 2.647917509078979492e+00 6.529634594917297363e-01 2.656404674053192139e-02
6.070000000000000000e+02 1.769985389709472656e+01 3.748501205444335938e+01 -5.306130051612854004e-01 2.712322473526000977e+00 6.545128226280212402e-01 1.193323880434036255e-01
6.080000000000000000e+02 1.593998718261718750e+01 3.132067680358886719e+01 -8.935540318489074707e-01 3.410055398941040039e+00 7.549504637718200684e-01 8.713927865028381348e-02
6.090000000000000000e+02 2.028217315673828125e+01 2.114186668395996094e+01 1.173585891723632812e+00 4.225067138671875000e+00 1.619595885276794434e+00 2.111772537231445312e+00
6.100000000000000000e+02 1.845380401611328125e+01 1.675780487060546875e+01 5.854698419570922852e-01 1.324239158630371094e+01 4.148358345031738281e+00 1.137062191963195801e+00
6.110000000000000000e+02 1.866518402099609375e+01 1.125721454620361328e+01 4.355255365371704102e-01 1.384409046173095703e+01 4.283885002136230469e+00 -1.680309176445007324e+00
6.120000000000000000e+02 1.952213478088378906e+01 7.129531860351562500e+00 8.490316271781921387e-01 1.076355075836181641e+01 3.483774662017822266e+00 -2.828556060791015625e+00
6.130000000000000000e+02 1.915389251708984375e+01 8.524670600891113281e+00 8.486772775650024414e-01 1.235963249206542969e+01 3.962492942810058594e+00 -2.952226161956787109e+00
6.140000000000000000e+02 1.257579135894775391e+01 4.091313552856445312e+01 -4.668994843959808350e-01 2.772368431091308594e+00 6.916406750679016113e-01 -3.119259886443614960e-02
6.150000000000000000e+02 1.102707386016845703e+01 3.567845153808593750e+01 -5.468726158142089844e-01 2.921150207519531250e+00 7.122833132743835449e-01 -2.851229906082153320e-01
6.160000000000000000e+02 7.687904357910156250e+00 3.046448326110839844e+01 -4.299809336662292480e-01 2.749137878417968750e+00 6.957471370697021484e-01 -7.739779353141784668e-01
6.170000000000000000e+02 7.921644210815429688e+00 2.380881309509277344e+01 -1.550627350807189941e-01 2.717658519744873047e+00 7.687787413597106934e-01 -1.329397916793823242e+00
6.180000000000000000e+02 1.408552265167236328e+01 1.674635314941406250e+01 1.305935382843017578e+00 6.560931205749511719e+00 2.360059976577758789e+00 -8.354938626289367676e-01
6.190000000000000000e+02 1.400888824462890625e+01 1.303165245056152344e+01 1.361211180686950684e+00 6.831637859344482422e+00 2.457854747772216797e+00 -8.549994826316833496e-01
6.200000000000000000e+02 6.579902172088623047e+00 1.882618427276611328e+00 -1.024693489074707031e+00 -1.681431569159030914e-02 -3.124523460865020752e-01 6.673806309700012207e-01
6.210000000000000000e+02 1.049028778076171875e+01 1.753771066665649414e+00 -1.072172522544860840e+00 2.549777925014495850e-01 -2.451584041118621826e-01 1.305696275085210800e-02
6.220000000000000000e+02 1.209447193145751953e+01 1.498801708221435547e+00 -5.861206054687500000e-01 9.125684499740600586e-01 9.793436527252197266e-02 -8.611575365066528320e-01
6.230000000000000000e+02 1.376872730255126953e+01 1.028220176696777344e+00 5.284579396247863770e-01 2.668586969375610352e+00 9.591134786605834961e-01 -2.630585670471191406e+00
6.240000000000000000e+02 1.737460517883300781e+01 5.438779592514038086e-01 2.575871467590332031e+00 1.475982379913330078e+01 5.200708389282226562e+00 1.318046689033508301e+00
6.250000000000000000e+02 2.013564491271972656e+01 5.790463447570800781e+00 8.282244801521301270e-01 8.326675415039062500e+00 2.746469974517822266e+00 -2.372869253158569336e+00
6.260000000000000000e+02 2.503244972229003906e+01 -9.574117660522460938e-01 1.987567663192749023e+00 9.981638193130493164e-01 8.957194685935974121e-01 -1.501297950744628906e+00
6.270000000000000000e+02 2.253058242797851562e+01 -1.303812694549560547e+01 -2.682069063186645508e+00 4.946532845497131348e-01 -6.562247276306152344e-01 -8.787475526332855225e-02
6.280000000000000000e+02 2.611649131774902344e+01 -1.459340858459472656e+01 -1.684271812438964844e+00 1.044407784938812256e-01 -4.739493131637573242e-01 -2.290977835655212402e-01
6.290000000000000000e+02 3.317258453369140625e+01 -1.561331081390380859e+01 5.128661632537841797e+00 3.140817165374755859e+00 2.480843544006347656e+00 -3.200059890747070312e+00
6.300000000000000000e+02 3.425971603393554688e+01 -1.656453323364257812e+01 4.980921745300292969e+00 5.455437660217285156e+00 3.130907773971557617e+00 -4.711378574371337891e+00
6.310000000000000000e+02 3.514401626586914062e+01 -1.767236709594726562e+01 4.118804931640625000e+00 9.901320457458496094e+00 4.206037521362304688e+00 -5.230510711669921875e+00
6.320000000000000000e+02 3.571906661987304688e+01 -1.891551971435546875e+01 2.215906143188476562e+00 1.393991374969482422e+01 4.846745967864990234e+00 -3.264195203781127930e+00
6.330000000000000000e+02 4.623769760131835938e+01 -2.002155685424804688e+01 6.144098043441772461e-01 1.328490257263183594e+01 4.169793605804443359e+00 -5.279667377471923828e-01
6.340000000000000000e+02 2.047788381576538086e+00 4.160532760620117188e+01 -2.975192852318286896e-02 2.688224315643310547e+00 7.975416779518127441e-01 -8.406233973801136017e-03
6.350000000000000000e+02 4.701368331909179688e+00 3.729063796997070312e+01 -1.427748203277587891e-01 2.569391727447509766e+00 7.279850840568542480e-01 -2.399912774562835693e-01
6.360000000000000000e+02 2.152910470962524414e+00 3.563755035400390625e+01 -4.279131069779396057e-02 2.424445867538452148e+00 7.144963741302490234e-01 -1.760903596878051758e-01
6.370000000000000000e+02 2.013659238815307617e+00 2.877088356018066406e+01 -4.180304706096649170e-02 1.562515020370483398e+00 4.562135934829711914e-01 -4.240439534187316895e-01
6.380000000000000000e+02 2.023039102554321289e+00 2.306281280517578125e+01 -2.027362817898392677e-03 3.644122481346130371e-01 1.087154597043991089e-01 -5.628182291984558105e-01
6.390000000000000000e+02 1.848863363265991211e+00 1.741177749633789062e+01 5.583465099334716797e-02 -9.454226493835449219e-01 -2.668763995170593262e-01 -3.883178532123565674e-01
6.400000000000000000e+02 5.124614834785461426e-01 6.385143280029296875e+00 1.513900700956583023e-02 -1.444647192955017090e+00 -4.288524687290191650e-01 1.533188670873641968e-01
6.410000000000000000e+02 1.644746184349060059e+00 9.035551071166992188e+00 7.854078710079193115e-02 -1.462279081344604492e+00 -4.151214659214019775e-01 2.553204596042633057e-01
6.420000000000000000e+02 1.755595088005065918e+00 3.768397092819213867e+00 -5.101859942078590393e-02 -5.187177658081054688e-01 -1.709209084510803223e-01 4.613922834396362305e-01
6.430000000000000000e+02 1.753905487060546875e+01 -1.361817270517349243e-01 6.430795669555664062e+00 1.378159236907958984e+01 6.063716411590576172e+00 2.305901765823364258e+00
6.440000000000000000e+02 1.840909576416015625e+01 7.670595496892929077e-02 5.484105587005615234e+00 9.947447776794433594e+00 4.629466056823730469e+00 1.052403211593627930e+00
6.450000000000000000e+02 1.711690139770507812e+01 -2.556799411773681641e+00 5.343860626220703125e+00 1.426890754699707031e+01 5.883830547332763672e+00 -1.882901072502136230e+00
6.460000000000000000e+02 1.833864784240722656e+01 -2.656646251678466797e+00 5.827925682067871094e+00 8.830963134765625000e+00 4.397666454315185547e+00 -2.820118665695190430e+00
6.470000000000000000e+02 6.111648941040039062e+01 4.915570259094238281e+00 4.414440989494323730e-01 5.723695158958435059e-01 3.041440844535827637e-01 4.978829622268676758e-01
6.480000000000000000e+02 5.790929031372070312e+01 2.104000329971313477e+00 7.811062932014465332e-01 3.413438200950622559e-01 3.367350399494171143e-01 4.275226593017578125e-01
6.490000000000000000e+02 5.590495300292968750e+01 -3.144341707229614258e+00 1.373447418212890625e+00 -6.019958853721618652e-02 3.939743638038635254e-01 2.616405487060546875e-02
6.500000000000000000e+02 5.252397155761718750e+01 -6.951279938220977783e-02 1.971182107925415039e+00 1.789194643497467041e-01 6.450304388999938965e-01 2.015673816204071045e-01
6.510000000000000000e+02 5.002221298217773438e+01 -7.964262962341308594e+00 -6.806980371475219727e-01 3.021456956863403320e+00 7.022276520729064941e-01 1.270762443542480469e+00
6.520000000000000000e+02 4.974292373657226562e+01 -9.393286705017089844e-01 1.472107529640197754e+00 3.680690765380859375e+00 1.545839548110961914e+00 -1.075876355171203613e+00
6.530000000000000000e+02 4.865501403808593750e+01 6.944339275360107422e-01 1.296939611434936523e+00 5.860541820526123047e+00 2.147244453430175781e+00 -1.607303857803344727e+00
6.540000000000000000e+02 4.804129791259765625e+01 3.671924829483032227e+00 1.004225611686706543e+00 1.162733459472656250e+01 3.789468050003051758e+00 -6.512570977210998535e-01
6.550000000000000000e+02 4.039910888671875000e+01 -2.336081981658935547e+00 2.488133430480957031e+00 6.912448883056640625e+00 2.820174694061279297e+00 4.171717643737792969e+00
6.560000000000000000e+02 4.139958190917968750e+01 -2.592730522155761719e+00 1.962822377681732178e-01 1.064622020721435547e+01 3.252750635147094727e+00 2.762610673904418945e+00
6.570000000000000000e+02 4.011323547363281250e+01 -3.538649082183837891e+00 1.872257441282272339e-01 5.820708751678466797e+00 1.802380323410034180e+00 2.885115385055541992e+00
6.580000000000000000e+02 3.487067413330078125e+01 -4.734527587890625000e+00 -3.014216661453247070e+00 -2.686376571655273438e-01 -9.848563075065612793e-01 -9.743975400924682617e-01
6.590000000000000000e+02 3.643843841552734375e+01 -5.592440128326416016e+00 -1.175065994262695312e+00 8.196082711219787598e-01 -1.066373139619827271e-01 5.053125321865081787e-02
6.600000000000000000e+02 3.212142944335937500e+01 -5.310957908630371094e+00 -5.490190386772155762e-01 -2.325161546468734741e-01 -2.344605624675750732e-01 -9.704784750938415527e-01
6.610000000000000000e+02 2.903141593933105469e+01 -1.357865047454833984e+01 8.222761154174804688e-01 5.811054706573486328e-01 4.210144877433776855e-01 -1.656032681465148926e+00
6.620000000000000000e+02 2.596342086791992188e+01 -2.020741701126098633e+00 2.769416809082031250e+00 1.793230891227722168e+00 1.368794322013854980e+00 -2.314044713973999023e+00
6.630000000000000000e+02 2.418680000305175781e+01 1.574112623929977417e-01 9.297731518745422363e-01 7.628763467073440552e-02 3.018182218074798584e-01 -5.711627602577209473e-01
6.640000000000000000e+02 1.887952423095703125e+01 1.602858662605285645e+00 1.040513038635253906e+00 9.451975822448730469e+00 3.147746801376342773e+00 4.619174003601074219e-01
6.650000000000000000e+02 1.844643592834472656e+01 1.400603675842285156e+01 2.402584850788116455e-01 1.322168254852294922e+01 4.038582324981689453e+00 -3.614768385887145996e-01
6.660000000000000000e+02 1.920270347595214844e+01 2.013189315795898438e+01 1.611972212791442871e+00 7.707664966583251953e+00 2.795891046524047852e+00 2.706563234329223633e+00
6.670000000000000000e+02 2.156970977783203125e+01 2.175501632690429688e+01 -6.065594553947448730e-01 1.106865525245666504e+00 1.500918120145797729e-01 1.288895606994628906e+00
6.680000000000000000e+02 1.684492301940917969e+01 -1.212786579132080078e+01 -7.911240100860595703e+00 -9.020618796348571777e-01 -2.643990516662597656e+00 1.626998186111450195e+00
6.690000000000000000e+02 2.050351524353027344e+01 -1.233562564849853516e+01 -4.037539005279541016e+00 7.638323903083801270e-01 -9.821119904518127441e-01 1.858619451522827148e-01
6.700000000000000000e+02 1.977019119262695312e+01 -1.333828544616699219e+01 -3.887249946594238281e+00 -2.842965126037597656e-01 -1.251463890075683594e+00 1.529982447624206543e+00
6.710000000000000000e+02 2.091554641723632812e+01 -1.384974670410156250e+01 -3.406286954879760742e+00 -7.075198739767074585e-02 -1.043111681938171387e+00 8.512094020843505859e-01
6.720000000000000000e+02 3.595790100097656250e+01 -2.024086570739746094e+01 4.247354567050933838e-01 1.239550781250000000e+01 3.846073150634765625e+00 -8.446177840232849121e-01
6.730000000000000000e+02 3.683091354370117188e+01 -2.389246940612792969e+01 1.733257055282592773e+00 1.107770156860351562e+01 3.843287467956542969e+00 1.467564821243286133e+00
6.740000000000000000e+02 3.581950378417968750e+01 -2.494245910644531250e+01 1.605822801589965820e+00 1.122354602813720703e+01 3.848810434341430664e+00 2.692317008972167969e+00
6.750000000000000000e+02 3.334534072875976562e+01 -2.844026374816894531e+01 1.607549190521240234e+00 3.241312026977539062e+00 1.454658389091491699e+00 2.268365144729614258e+00
6.760000000000000000e+02 3.285679244995117188e+01 -3.063220024108886719e+01 -2.801404595375061035e-01 3.111868858337402344e+00 8.495184779167175293e-01 1.686535954475402832e+00
6.770000000000000000e+02 2.887422370910644531e+01 -3.444201660156250000e+01 -5.824257731437683105e-01 1.047118902206420898e+00 1.394079476594924927e-01 8.598677515983581543e-01
6.780000000000000000e+02 2.659139633178710938e+01 -3.082183837890625000e+01 -2.293260574340820312e+00 -1.509312912821769714e-02 -6.925061345100402832e-01 1.137111857533454895e-01
6.790000000000000000e+02 1.196703338623046875e+01 -2.542330551147460938e+01 -7.284582257270812988e-01 4.264899253845214844e+00 1.060932278633117676e+00 -9.237033873796463013e-02
6.800000000000000000e+02 1.167566871643066406e+01 -2.073172760009765625e+01 7.379024624824523926e-01 9.613189697265625000e+00 3.105327606201171875e+00 -1.323484778404235840e+00
6.810000000000000000e+02 6.787194061279296875e+01 -1.160384654998779297e+01 -3.002718687057495117e-01 7.654792785644531250e+00 2.206356287002563477e+00 -1.597714543342590332e+00
6.820000000000000000e+02 2.835264015197753906e+01 -5.862064838409423828e+00 3.011909723281860352e+00 2.452900648117065430e+00 1.639443039894104004e+00 -2.591945409774780273e+00
6.830000000000000000e+02 2.882241249084472656e+01 -1.053860187530517578e+01 1.034753799438476562e+00 1.393802285194396973e+00 7.285668253898620605e-01 -2.946539878845214844e+00
6.840000000000000000e+02 3.665144729614257812e+01 -6.790030956268310547e+00 -1.126524657011032104e-01 1.986650586128234863e+00 5.621994137763977051e-01 4.086283147335052490e-01
6.850000000000000000e+02 3.792278289794921875e+01 -6.611404418945312500e+00 -6.333799362182617188e-01 3.438040494918823242e+00 8.413981795310974121e-01 1.323724031448364258e+00
6.860000000000000000e+02 5.249665451049804688e+01 -1.226116657257080078e+00 1.954004526138305664e+00 4.223786592483520508e-01 7.129149436950683594e-01 1.722794026136398315e-01
6.870000000000000000e+02 6.513631439208984375e+01 -2.928264617919921875e+00 1.003685370087623596e-01 3.570015430450439453e+00 1.101115226745605469e+00 -1.870740205049514771e-01
6.880000000000000000e+02 6.307418441772460938e+01 3.808040544390678406e-02 5.946211218833923340e-01 2.302533388137817383e+00 8.691463470458984375e-01 4.072152078151702881e-01
6.890000000000000000e+02 2.145150947570800781e+01 -1.276273250579833984e+01 -3.057754993438720703e+00 6.128906607627868652e-01 -7.334592938423156738e-01 2.454991638660430908e-01
6.900000000000000000e+02 3.047076988220214844e+01 -1.369996833801269531e+01 1.954491257667541504e+00 8.968456983566284180e-01 8.554010987281799316e-01 -2.174527168273925781e+00
6.910000000000000000e+02 2.885048675537109375e+01 -1.483487892150878906e+01 4.103561639785766602e-01 2.112114876508712769e-01 1.864702999591827393e-01 -6.535395383834838867e-01
6.920000000000000000e+02 4.185775756835937500e+01 -3.262157058715820312e+01 -1.157296895980834961e+00 6.827086448669433594e+00 1.700936913490295410e+00 -4.052789807319641113e-01
6.930000000000000000e+02 7.042623901367187500e+01 -3.154300308227539062e+01 -7.559472322463989258e-01 6.553778648376464844e+00 1.739349484443664551e+00 1.921459287405014038e-01
6.940000000000000000e+02 6.760876464843750000e+01 5.527018547058105469e+00 -2.003585547208786011e-01 6.024004459381103516e+00 1.747093796730041504e+00 9.242971539497375488e-01
6.950000000000000000e+02 7.460660552978515625e+01 2.336570024490356445e+00 -3.234333097934722900e-01 7.504266738891601562e+00 2.154250144958496094e+00 -3.191283941268920898e-01
6.960000000000000000e+02 6.372021865844726562e+01 3.826422452926635742e+00 4.538132548332214355e-01 2.584764242172241211e+00 9.115732312202453613e-01 1.071843504905700684e+00
6.970000000000000000e+02 5.784834671020507812e+01 -7.124603748321533203e+00 -1.512730270624160767e-01 7.825177907943725586e-02 -2.190637215971946716e-02 -8.501650393009185791e-02
6.980000000000000000e+02 6.389439392089843750e+01 2.222066497802734375e+01 -3.764547109603881836e+00 1.563497819006443024e-02 -1.124673604965209961e+00 4.705621302127838135e-01
6.990000000000000000e+02 6.267111206054687500e+01 3.064763259887695312e+01 2.303517758846282959e-01 2.502250909805297852e+00 8.197807669639587402e-01 -1.709935814142227173e-01
7.000000000000000000e+02 5.554895782470703125e+01 3.171982002258300781e+01 -1.309850066900253296e-01 2.650791883468627930e+00 7.559420466423034668e-01 1.133179903030395508e+00
7.010000000000000000e+02 5.777236938476562500e+01 3.052282142639160156e+01 5.554974824190139771e-02 2.139315128326416016e+00 6.584594249725341797e-01 1.014903187751770020e+00
7.020000000000000000e+02 5.224483871459960938e+01 3.104039764404296875e+01 -6.513735055923461914e-01 3.374648332595825195e+00 8.169824481010437012e-01 1.134525537490844727e+00
7.030000000000000000e+02 5.060110855102539062e+01 2.169876670837402344e+01 -3.057738244533538818e-01 6.461668491363525391e+00 1.846768379211425781e+00 1.584018111228942871e+00
7.040000000000000000e+02 4.574844741821289062e+01 2.343251609802246094e+01 -9.313892722129821777e-01 5.407871246337890625e+00 1.342944622039794922e+00 -1.510743051767349243e-01
7.050000000000000000e+02 3.541964340209960938e+01 2.270707702636718750e+01 -6.943427324295043945e-01 1.614846229553222656e+00 2.761510610580444336e-01 -8.777704238891601562e-01
7.060000000000000000e+02 2.774192428588867188e+01 2.095187568664550781e+01 -2.555180788040161133e+00 -1.400296986103057861e-01 -8.085631728172302246e-01 6.107786893844604492e-01
7.070000000000000000e+02 7.738191127777099609e+00 2.683874320983886719e+01 -3.783181011676788330e-01 2.789208412170410156e+00 7.232670783996582031e-01 -1.114651560783386230e+00
7.080000000000000000e+02 1.191427993774414062e+01 1.794920730590820312e+01 9.343985915184020996e-01 4.647886276245117188e+00 1.674685359001159668e+00 -1.220585465431213379e+00
7.090000000000000000e+02 7.476083374023437500e+01 3.491168975830078125e+01 -2.435740828514099121e-02 7.635038852691650391e+00 2.283204317092895508e+00 -2.580543756484985352e-01
7.100000000000000000e+02 4.698036575317382812e+01 3.467408752441406250e+01 -6.430653929710388184e-01 3.418875455856323242e+00 8.327429890632629395e-01 3.127041757106781006e-01
7.110000000000000000e+02 3.071282577514648438e+01 3.193981170654296875e+01 -1.165053248405456543e-01 1.585881471633911133e+00 4.408128261566162109e-01 -1.701962202787399292e-01
7.120000000000000000e+02 2.326255607604980469e+01 3.155956077575683594e+01 -3.454719483852386475e-01 2.039562225341796875e+00 5.082270503044128418e-01 6.485075354576110840e-01
7.130000000000000000e+02 7.012535572052001953e+00 3.355855560302734375e+01 -3.480690717697143555e-01 2.658350944519042969e+00 6.930845975875854492e-01 -5.331008434295654297e-01
7.140000000000000000e+02 1.992857336997985840e+00 3.155937385559082031e+01 -4.249111190438270569e-02 2.005469322204589844e+00 5.888934731483459473e-01 -3.126842379570007324e-01
7.150000000000000000e+02 9.593256950378417969e+00 6.992147445678710938e+00 8.530603051185607910e-01 2.022880554199218750e+00 8.627822399139404297e-01 -2.339460402727127075e-01
7.160000000000000000e+02 1.805176258087158203e+00 1.600939750671386719e+01 7.218284159898757935e-02 -1.197867751121520996e+00 -3.377054631710052490e-01 -2.989949285984039307e-01
7.170000000000000000e+02 4.638498687744140625e+01 -1.727296066284179688e+01 3.889752626419067383e-01 1.251103305816650391e+01 3.870002508163452148e+00 9.891376495361328125e-01
7.180000000000000000e+02 4.646078109741210938e+01 -2.272435760498046875e+01 1.926985859870910645e+00 1.264570522308349609e+01 4.371807575225830078e+00 -3.303615093231201172e+00
7.190000000000000000e+02 7.908225536346435547e+00 -2.603372573852539062e+00 5.847932770848274231e-02 2.487162649631500244e-01 9.215868264436721802e-02 1.670814603567123413e-01
7.200000000000000000e+02 7.024607181549072266e+00 -1.881813526153564453e+00 -3.112362623214721680e-01 1.197788044810295105e-01 -5.743723735213279724e-02 -5.416018888354301453e-02
7.210000000000000000e+02 7.839642524719238281e+00 -1.865306496620178223e+00 -2.371879369020462036e-01 1.074230819940567017e-01 -3.892945498228073120e-02 2.769166231155395508e-02
7.220000000000000000e+02 6.208425045013427734e+00 -1.901737332344055176e+00 -2.915302515029907227e-01 8.252161741256713867e-02 -6.270259618759155273e-02 -1.346777528524398804e-01
7.230000000000000000e+02 2.924819231033325195e+00 -2.061899662017822266e+00 -1.557038873434066772e-01 -5.880250781774520874e-02 -6.435192376375198364e-02 -2.670804262161254883e-01
7.240000000000000000e+02 4.884337425231933594e+00 -3.719225406646728516e+00 -1.064043212682008743e-02 1.748460084199905396e-01 4.926167055964469910e-02 -2.204875797033309937e-01
7.250000000000000000e+02 3.749861955642700195e+00 -2.003154754638671875e+00 -2.126195579767227173e-01 5.842975340783596039e-03 -6.203297525644302368e-02 -2.831730246543884277e-01
7.260000000000000000e+02 2.099790573120117188e+00 -2.124558210372924805e+00 -9.522914141416549683e-02 -9.976038336753845215e-02 -5.849685892462730408e-02 -2.210872173309326172e-01
7.270000000000000000e+02 1.270164966583251953e+00 -2.174914598464965820e+00 -4.192896559834480286e-02 -1.492520719766616821e-01 -5.735431239008903503e-02 -1.512700319290161133e-01
7.280000000000000000e+02 4.264108538627624512e-01 -2.200877666473388672e+00 -1.799704879522323608e-02 -1.508705615997314453e-01 -5.066028237342834473e-02 -5.354013666510581970e-02
7.290000000000000000e+02 2.104120731353759766e+00 -4.157937622070312500e+01 4.111070185899734497e-02 3.729691267013549805e+00 1.131240606307983398e+00 -1.175054255872964859e-02
7.300000000000000000e+02 1.012859225273132324e+00 -3.853110122680664062e+01 1.508422102779150009e-02 3.777237415313720703e+00 1.137696504592895508e+00 6.736201466992497444e-04
7.310000000000000000e+02 7.466793656349182129e-01 -3.479019927978515625e+01 -3.893283009529113770e-02 3.592958450317382812e+00 1.066207647323608398e+00 7.355654239654541016e-02
7.320000000000000000e+02 7.662332653999328613e-01 -3.336956787109375000e+01 -1.374433934688568115e-02 3.421634674072265625e+00 1.022367119789123535e+00 1.185605153441429138e-01
7.330000000000000000e+02 6.332122683525085449e-01 -2.912432098388671875e+01 -1.114103011786937714e-02 2.376789093017578125e+00 7.096944451332092285e-01 2.082038074731826782e-01
7.340000000000000000e+02 6.261382102966308594e-01 -2.772999382019042969e+01 -2.078102156519889832e-02 1.864692091941833496e+00 5.531733036041259766e-01 2.460253685712814331e-01
7.350000000000000000e+02 6.257740259170532227e-01 -2.633569335937500000e+01 -1.047063525766134262e-02 1.267713785171508789e+00 3.771729469299316406e-01 2.802017629146575928e-01
7.360000000000000000e+02 6.401707530021667480e-01 -2.210980796813964844e+01 1.736702583730220795e-02 -7.514929771423339844e-01 -2.202377915382385254e-01 2.979400157928466797e-01
7.370000000000000000e+02 6.419876813888549805e-01 -2.069356155395507812e+01 1.775737665593624115e-02 -1.356683373451232910e+00 -4.016778171062469482e-01 2.588781118392944336e-01
7.380000000000000000e+02 1.923846840858459473e+00 -2.090458106994628906e+01 1.178453564643859863e-01 -1.152241453528404236e-01 7.863641367293894291e-04 7.139440178871154785e-01
7.390000000000000000e+02 6.328392028808593750e-01 -1.644709205627441406e+01 4.381337389349937439e-02 -2.317029953002929688e+00 -6.819649934768676758e-01 3.652269765734672546e-02
7.400000000000000000e+02 6.323071122169494629e-01 -1.502946472167968750e+01 7.555423304438591003e-03 -2.321008682250976562e+00 -6.940359473228454590e-01 -1.543797086924314499e-02
7.410000000000000000e+02 6.249547004699707031e-01 -1.360920619964599609e+01 3.687430173158645630e-02 -2.206284284591674805e+00 -6.508229374885559082e-01 -6.881084293127059937e-02
7.420000000000000000e+02 1.876625657081604004e+00 -1.377077865600585938e+01 8.312603831291198730e-02 -1.021188855171203613e+00 -2.814188599586486816e-01 -1.662842780351638794e-01
7.430000000000000000e+02 5.900111198425292969e-01 -9.351739883422851562e+00 -7.579328957945108414e-03 -1.458833098411560059e+00 -4.399237334728240967e-01 -1.140986979007720947e-01
7.440000000000000000e+02 5.902603268623352051e-01 -7.928241729736328125e+00 2.411049790680408478e-03 -1.181633591651916504e+00 -3.537667691707611084e-01 -1.073636189103126526e-01
7.450000000000000000e+02 3.897265195846557617e+00 -2.985821008682250977e+00 -1.023476123809814453e-01 2.602660469710826874e-02 -2.289630286395549774e-02 -3.001418709754943848e-01
7.460000000000000000e+02 4.126411914825439453e+00 -3.888240098953247070e+00 -3.038839809596538544e-02 1.067622303962707520e-01 2.291215024888515472e-02 -2.878456413745880127e-01
7.470000000000000000e+02 7.429109954833984375e+01 -3.738455963134765625e+01 -1.429406851530075073e-01 7.165866374969482422e+00 2.106877803802490234e+00 -9.754506498575210571e-02
7.480000000000000000e+02 4.769446945190429688e+01 -3.809263610839843750e+01 -1.020499706268310547e+00 4.622931957244873047e+00 1.080729603767395020e+00 -8.221892118453979492e-01
7.490000000000000000e+02 1.290796279907226562e+01 -3.920825195312500000e+01 -2.774156332015991211e-01 1.769453525543212891e+00 4.476113617420196533e-01 -4.276709631085395813e-02
7.500000000000000000e+02 7.504384613037109375e+01 4.047611618041992188e+01 1.572324633598327637e-01 7.770085334777832031e+00 2.378195285797119141e+00 3.662754222750663757e-02
7.510000000000000000e+02 7.862392425537109375e+01 4.011705780029296875e+01 -2.346849068999290466e-02 8.787303924560546875e+00 2.629150867462158203e+00 -1.507200151681900024e-01
7.520000000000000000e+02 7.896031951904296875e+01 3.875263977050781250e+01 -3.453780338168144226e-02 8.959367752075195312e+00 2.677448987960815430e+00 -1.195631995797157288e-01
7.530000000000000000e+02 7.709025573730468750e+01 3.801310729980468750e+01 -4.272723570466041565e-02 8.494080543518066406e+00 2.535406112670898438e+00 -1.817980557680130005e-01
7.540000000000000000e+02 7.930468750000000000e+01 3.469211959838867188e+01 -8.749519474804401398e-03 9.397673606872558594e+00 2.816677331924438477e+00 -5.513207986950874329e-02
7.550000000000000000e+02 7.792203521728515625e+01 3.435624694824218750e+01 -4.465835914015769958e-02 8.897802352905273438e+00 2.655943155288696289e+00 -9.933483600616455078e-02
7.560000000000000000e+02 7.937307739257812500e+01 3.332891845703125000e+01 -2.092754468321800232e-02 9.506199836730957031e+00 2.845581769943237305e+00 -2.722324617207050323e-02
7.570000000000000000e+02 7.948143768310546875e+01 3.061648750305175781e+01 -2.992750331759452820e-02 9.619110107421875000e+00 2.876754760742187500e+00 4.033035133033990860e-03
7.580000000000000000e+02 7.832872009277343750e+01 2.804534912109375000e+01 -6.078894436359405518e-02 9.079434394836425781e+00 2.705593824386596680e+00 1.617502421140670776e-01
7.590000000000000000e+02 7.939653015136718750e+01 2.653436279296875000e+01 3.428581112530082464e-04 9.267782211303710938e+00 2.780437707901000977e+00 1.266375482082366943e-01
7.600000000000000000e+02 7.678404235839843750e+01 2.551682662963867188e+01 -2.791260480880737305e-01 8.557971000671386719e+00 2.483653545379638672e+00 5.411989688873291016e-01
7.610000000000000000e+02 7.936148834228515625e+01 2.514364051818847656e+01 -4.455537721514701843e-02 8.959735870361328125e+00 2.674554109573364258e+00 1.800058335065841675e-01
7.620000000000000000e+02 7.934733581542968750e+01 2.096211051940917969e+01 -1.127152703702449799e-02 7.534428596496582031e+00 2.256947040557861328e+00 2.822890579700469971e-01
7.630000000000000000e+02 7.935532379150390625e+01 1.956421089172363281e+01 4.487493261694908142e-02 7.006382465362548828e+00 2.115377187728881836e+00 2.401757240295410156e-01
7.640000000000000000e+02 7.935717010498046875e+01 1.816126251220703125e+01 -1.586627960205078125e-02 6.542520046234130859e+00 1.957996129989624023e+00 2.157797068357467651e-01
7.650000000000000000e+02 7.936589050292968750e+01 1.397560596466064453e+01 9.118436276912689209e-02 5.915779590606689453e+00 1.802089214324951172e+00 -1.452532480470836163e-03
7.660000000000000000e+02 7.937014770507812500e+01 1.258928585052490234e+01 -2.992657944560050964e-02 6.001010894775390625e+00 1.791325211524963379e+00 -6.008509173989295959e-02
7.670000000000000000e+02 7.936792755126953125e+01 1.120301914215087891e+01 7.322789728641510010e-02 6.208345413208007812e+00 1.884471893310546875e+00 -1.173633038997650146e-01
7.680000000000000000e+02 7.936917114257812500e+01 7.028910636901855469e+00 -2.757155336439609528e-02 7.215703487396240234e+00 2.156439542770385742e+00 -1.638183891773223877e-01
7.690000000000000000e+02 7.938002777099609375e+01 5.645647525787353516e+00 7.590413093566894531e-03 7.558327674865722656e+00 2.269775390625000000e+00 -1.450823098421096802e-01
7.700000000000000000e+02 7.938858032226562500e+01 4.263117313385009766e+00 -2.439304813742637634e-02 7.861157417297363281e+00 2.351029157638549805e+00 -1.221426203846931458e-01
7.710000000000000000e+02 7.937648773193359375e+01 1.027743667364120483e-01 -5.302921868860721588e-03 8.402838706970214844e+00 2.519260883331298828e+00 -3.426719829440116882e-02
7.720000000000000000e+02 7.936500549316406250e+01 -1.290240049362182617e+00 -2.042281813919544220e-02 8.449333190917968750e+00 2.528673171997070312e+00 -3.612541127949953079e-03
7.730000000000000000e+02 7.801120758056640625e+01 -3.884388446807861328e+00 -8.286301046609878540e-02 8.014430046081542969e+00 2.379470109939575195e+00 1.693665832281112671e-01
7.740000000000000000e+02 7.934033966064453125e+01 -4.084180831909179688e+00 -1.877016201615333557e-02 8.320574760437011719e+00 2.490541458129882812e+00 6.929738819599151611e-02
7.750000000000000000e+02 7.933274841308593750e+01 -8.276381492614746094e+00 -2.642709761857986450e-02 7.539193630218505859e+00 2.253829956054687500e+00 1.896301358938217163e-01
7.760000000000000000e+02 7.805135345458984375e+01 -1.090428543090820312e+01 -2.899933420121669769e-02 6.975050926208496094e+00 2.083815574645996094e+00 6.009462475776672363e-01
7.770000000000000000e+02 7.934963989257812500e+01 -1.106125640869140625e+01 -2.737909369170665741e-02 6.653589725494384766e+00 1.987863183021545410e+00 2.453873604536056519e-01
7.780000000000000000e+02 7.934459686279296875e+01 -1.527185249328613281e+01 5.735086277127265930e-02 5.264066219329833984e+00 1.596425175666809082e+00 1.639339774847030640e-01
7.790000000000000000e+02 7.806655883789062500e+01 -1.794453048706054688e+01 1.731132417917251587e-01 5.844985961914062500e+00 1.805429697036743164e+00 8.910741657018661499e-03
7.800000000000000000e+02 7.936363220214843750e+01 -1.805682563781738281e+01 7.242241501808166504e-02 4.898862838745117188e+00 1.491385579109191895e+00 -5.988492630422115326e-04
7.810000000000000000e+02 7.930119323730468750e+01 -2.365329742431640625e+01 1.476340834051370621e-02 6.236048221588134766e+00 1.875243425369262695e+00 -2.802311182022094727e-01
7.820000000000000000e+02 7.784005737304687500e+01 -2.505827522277832031e+01 -1.302874553948640823e-02 7.102000236511230469e+00 2.126691341400146484e+00 -7.331313490867614746e-01
7.830000000000000000e+02 7.928436279296875000e+01 -2.506815147399902344e+01 6.318040541373193264e-04 6.779014110565185547e+00 2.033893823623657227e+00 -2.942708432674407959e-01
7.840000000000000000e+02 7.929482269287109375e+01 -2.931427955627441406e+01 -3.500889241695404053e-02 8.212441444396972656e+00 2.453229904174804688e+00 -1.965566128492355347e-01
7.850000000000000000e+02 7.791437530517578125e+01 -3.230804061889648438e+01 -6.601645052433013916e-02 8.333905220031738281e+00 2.480366706848144531e+00 -2.359927296638488770e-01
7.860000000000000000e+02 7.929148101806640625e+01 -3.213059997558593750e+01 -1.208171527832746506e-02 8.763086318969726562e+00 2.625301361083984375e+00 -1.143703609704971313e-01
7.870000000000000000e+02 7.930065917968750000e+01 -3.631287765502929688e+01 1.793131604790687561e-02 9.009490013122558594e+00 2.708226442337036133e+00 -1.290099788457155228e-02
7.880000000000000000e+02 7.940410614013671875e+01 -3.761241149902343750e+01 -6.228563562035560608e-02 8.990456581115722656e+00 2.678451299667358398e+00 2.502856776118278503e-02
7.890000000000000000e+02 7.930403900146484375e+01 -3.878396224975585938e+01 3.558979183435440063e-02 8.877609252929687500e+00 2.673959493637084961e+00 4.404629021883010864e-02
7.900000000000000000e+02 7.884064483642578125e+01 -4.000935745239257812e+01 -8.202581852674484253e-02 8.695177078247070312e+00 2.583945274353027344e+00 1.316731572151184082e-01
7.910000000000000000e+02 8.100210189819335938e+00 4.106462478637695312e+01 -2.689203023910522461e-01 2.687256097793579102e+00 7.255007028579711914e-01 -7.488629221916198730e-02
7.920000000000000000e+02 2.612205314636230469e+01 3.687566375732421875e+01 -1.526955366134643555e-01 1.976987123489379883e+00 5.472874641418457031e-01 1.574737131595611572e-01
7.930000000000000000e+02 4.743542098999023438e+01 4.090663146972656250e+01 -3.544693887233734131e-01 3.063074111938476562e+00 8.125814199447631836e-01 6.519440561532974243e-02
7.940000000000000000e+02 6.713936614990234375e+01 4.085548019409179688e+01 5.203800201416015625e-01 4.887614727020263672e+00 1.622398376464843750e+00 -6.386638432741165161e-02
7.950000000000000000e+02 3.885302245616912842e-01 2.161301851272583008e+00 -1.396989729255437851e-02 -1.650122702121734619e-01 -5.369465053081512451e-02 6.524685770273208618e-02
7.960000000000000000e+02 2.652562856674194336e+00 2.871668100357055664e+00 -1.911426037549972534e-01 -2.818431556224822998e-01 -1.418957263231277466e-01 5.370474457740783691e-01
7.970000000000000000e+02 5.616136550903320312e+00 4.217711925506591797e+00 -5.267630144953727722e-02 -4.770147055387496948e-02 -3.011333197355270386e-02 8.055512905120849609e-01
7.980000000000000000e+02 1.539035201072692871e+00 4.902060985565185547e+00 -1.908814592752605677e-04 -7.867348790168762207e-01 -2.360777258872985840e-01 4.358044564723968506e-01
7.990000000000000000e+02 5.493219494819641113e-01 9.194825172424316406e+00 1.900250278413295746e-02 -2.117718935012817383e+00 -6.296148896217346191e-01 8.559244126081466675e-02
8.000000000000000000e+02 5.831516981124877930e-01 1.201285076141357422e+01 1.868471875786781311e-02 -2.362613201141357422e+00 -7.031785845756530762e-01 4.589225165545940399e-03
8.010000000000000000e+02 1.747524023056030273e+00 1.183903598785400391e+01 8.045969903469085693e-02 -1.555445551872253418e+00 -4.424957633018493652e-01 2.690558880567550659e-02
8.020000000000000000e+02 6.064317822456359863e-01 1.623090553283691406e+01 1.455985289067029953e-02 -1.983720779418945312e+00 -5.907482504844665527e-01 -1.137060448527336121e-01
8.030000000000000000e+02 6.196012496948242188e-01 1.764280319213867188e+01 1.407992839813232422e-02 -1.681520104408264160e+00 -5.002320408821105957e-01 -1.472313404083251953e-01
8.040000000000000000e+02 6.612392663955688477e-01 2.188438796997070312e+01 5.416145431809127331e-04 -5.121968388557434082e-01 -1.534965783357620239e-01 -1.971215456724166870e-01
8.050000000000000000e+02 6.714658141136169434e-01 2.329823112487792969e+01 2.169729908928275108e-03 -9.050825238227844238e-02 -2.650155685842037201e-02 -2.004992961883544922e-01
8.060000000000000000e+02 6.808650493621826172e-01 2.471507835388183594e+01 -2.402418991550803185e-03 3.274976909160614014e-01 9.752858430147171021e-02 -1.994447112083435059e-01
8.070000000000000000e+02 6.701604127883911133e-01 2.896279716491699219e+01 -1.270778384059667587e-02 1.420869708061218262e+00 4.224486052989959717e-01 -1.496216356754302979e-01
8.080000000000000000e+02 6.600162386894226074e-01 3.037157630920410156e+01 -7.129793521016836166e-03 1.714227199554443359e+00 5.121291875839233398e-01 -1.292196661233901978e-01
8.090000000000000000e+02 1.978327393531799316e+00 3.016460418701171875e+01 -4.571449011564254761e-02 1.795012474060058594e+00 5.247893929481506348e-01 -3.651276528835296631e-01
8.100000000000000000e+02 6.618245840072631836e-01 3.178221321105957031e+01 -1.211039163172245026e-02 1.964930057525634766e+00 5.858458876609802246e-01 -1.076886802911758423e-01
8.110000000000000000e+02 7.180889844894409180e-01 3.596078109741210938e+01 -1.069437930709682405e-04 2.461139440536499023e+00 7.383098006248474121e-01 -5.984238907694816589e-02
8.120000000000000000e+02 2.583971023559570312e+00 3.789484024047851562e+01 -5.110097303986549377e-02 2.567641258239746094e+00 7.549620866775512695e-01 -1.350465565919876099e-01
8.130000000000000000e+02 9.717229604721069336e-01 3.865381622314453125e+01 2.032551448792219162e-03 2.633015871047973633e+00 7.905145287513732910e-01 -4.261710494756698608e-02
8.140000000000000000e+02 1.353922605514526367e+00 4.001118469238281250e+01 -1.258369069546461105e-02 2.676242351531982422e+00 7.990975975990295410e-01 -3.134403750300407410e-02
8.150000000000000000e+02 9.706907272338867188e+00 1.821928381919860840e+00 -1.232071995735168457e+00 5.882095173001289368e-02 -3.519753217697143555e-01 2.960230708122253418e-01
8.160000000000000000e+02 8.922433853149414062e+00 1.844685196876525879e+00 -1.281533002853393555e+00 -1.240417081862688065e-02 -3.881811499595642090e-01 4.774505198001861572e-01
8.170000000000000000e+02 8.140770912170410156e+00 1.861722946166992188e+00 -1.212325334548950195e+00 8.991907350718975067e-03 -3.610000312328338623e-01 5.999816060066223145e-01
8.180000000000000000e+02 7.359964847564697266e+00 1.874052882194519043e+00 -1.143999218940734863e+00 -7.845131680369377136e-03 -3.455533087253570557e-01 6.487014889717102051e-01
8.190000000000000000e+02 5.800622940063476562e+00 1.890235304832458496e+00 -8.782215118408203125e-01 -4.047706723213195801e-02 -2.756095826625823975e-01 6.587607860565185547e-01
8.200000000000000000e+02 5.021001338958740234e+00 1.900747418403625488e+00 -7.207885980606079102e-01 -6.299585103988647461e-02 -2.351353317499160767e-01 6.347741484642028809e-01
8.210000000000000000e+02 4.243441581726074219e+00 1.915720343589782715e+00 -5.671491026878356934e-01 -9.630981832742691040e-02 -1.990376859903335571e-01 5.880341529846191406e-01
8.220000000000000000e+02 3.470362663269042969e+00 1.933257341384887695e+00 -4.210106432437896729e-01 -1.235733479261398315e-01 -1.633751988410949707e-01 5.188227295875549316e-01
8.230000000000000000e+02 1.932258844375610352e+00 1.979620933532714844e+00 -1.802360713481903076e-01 -1.986194700002670288e-01 -1.136566624045372009e-01 3.431963622570037842e-01
8.240000000000000000e+02 1.161633372306823730e+00 2.057584524154663086e+00 -7.189048826694488525e-02 -2.422638088464736938e-01 -9.424629062414169312e-02 2.072865664958953857e-01
8.250000000000000000e+02 1.129043674468994141e+01 1.660410881042480469e+00 -8.681447505950927734e-01 5.251312255859375000e-01 -1.029040515422821045e-01 -3.884637951850891113e-01
8.260000000000000000e+02 1.355689620971679688e+01 1.099494338035583496e+00 3.370597362518310547e-01 2.364392757415771484e+00 8.104357719421386719e-01 -2.304626226425170898e+00
8.270000000000000000e+02 1.470575618743896484e+01 8.084337115287780762e-01 1.170868396759033203e+00 5.773678302764892578e+00 2.083364009857177734e+00 -4.506885528564453125e+00
8.280000000000000000e+02 1.568617534637451172e+01 6.465341448783874512e-01 1.248985305428504944e-01 1.304766178131103516e+01 3.951768159866333008e+00 -5.193423748016357422e+00
8.290000000000000000e+02 1.549424743652343750e+01 6.859487891197204590e-01 5.299952626228332520e-01 1.103671360015869141e+01 3.470012903213500977e+00 -5.227829456329345703e+00
8.300000000000000000e+02 1.416764354705810547e+01 9.105197787284851074e-01 9.146898984909057617e-01 3.470966339111328125e+00 1.315696954727172852e+00 -3.382647752761840820e+00
8.310000000000000000e+02 1.661057090759277344e+01 5.410836338996887207e-01 8.828446269035339355e-01 1.693820762634277344e+01 5.346315860748291016e+00 -5.977454185485839844e-01
8.320000000000000000e+02 1.493619441986083984e+01 -2.639760255813598633e+00 5.631697654724121094e+00 6.325066089630126953e+00 3.587029218673706055e+00 5.986414909362792969e+00
8.330000000000000000e+02 1.515054416656494141e+01 -2.706856012344360352e+00 5.106434345245361328e+00 8.157156944274902344e+00 3.979077577590942383e+00 6.216236591339111328e+00
8.340000000000000000e+02 1.372100448608398438e+01 -2.806617736816406250e+00 4.291519165039062500e+00 1.897593379020690918e+00 1.856733679771423340e+00 3.487238883972167969e+00
8.350000000000000000e+02 1.395519161224365234e+01 -2.803090572357177734e+00 4.748459339141845703e+00 2.211664676666259766e+00 2.088037252426147461e+00 3.936016082763671875e+00
8.360000000000000000e+02 1.334049892425537109e+01 -2.641016483306884766e+00 3.857888698577880859e+00 1.008004546165466309e+00 1.459767937660217285e+00 2.670469522476196289e+00
8.370000000000000000e+02 1.352296638488769531e+01 -2.366851329803466797e+00 4.036262035369873047e+00 8.425557017326354980e-01 1.463645339012145996e+00 2.483985662460327148e+00
8.380000000000000000e+02 1.312006855010986328e+01 -2.283713817596435547e+00 3.218030452728271484e+00 4.538055658340454102e-01 1.101550817489624023e+00 1.862280368804931641e+00
8.390000000000000000e+02 1.292601203918457031e+01 -2.231316089630126953e+00 2.818367958068847656e+00 3.551209867000579834e-01 9.520466923713684082e-01 1.582390546798706055e+00
8.400000000000000000e+02 1.268794155120849609e+01 -2.219076871871948242e+00 2.507512331008911133e+00 1.887236237525939941e-01 8.088707923889160156e-01 1.368243932723999023e+00
8.410000000000000000e+02 1.018759536743164062e+01 -2.535592079162597656e+00 7.055825591087341309e-01 3.079618215560913086e-01 3.040633201599121094e-01 6.534029841423034668e-01
8.420000000000000000e+02 6.290561294555664062e+01 2.414313316345214844e+01 -2.141053438186645508e+00 3.543849587440490723e-01 -5.360005497932434082e-01 -3.821065425872802734e-01
8.430000000000000000e+02 6.817171478271484375e+01 1.983633232116699219e+01 1.377786517143249512e+00 1.075975799560546875e+01 3.641263484954833984e+00 -2.026285409927368164e+00
8.440000000000000000e+02 6.832428741455078125e+01 1.542127799987792969e+01 8.478562235832214355e-01 1.504217720031738281e+01 4.767010211944580078e+00 9.703177213668823242e-01
8.450000000000000000e+02 6.817908477783203125e+01 1.404865264892578125e+01 7.877458333969116211e-01 1.457607078552246094e+01 4.609145164489746094e+00 2.325796842575073242e+00
8.460000000000000000e+02 6.715746307373046875e+01 1.069014644622802734e+01 2.149405479431152344e+00 9.094220161437988281e+00 3.373087882995605469e+00 3.549590826034545898e+00
8.470000000000000000e+02 6.533114624023437500e+01 8.669307708740234375e+00 1.858116388320922852e+00 3.848011732101440430e+00 1.711838483810424805e+00 2.480884075164794922e+00
8.480000000000000000e+02 6.326300048828125000e+01 6.753684997558593750e+00 9.158872961997985840e-01 1.470267415046691895e+00 7.158464193344116211e-01 1.139607906341552734e+00
8.490000000000000000e+02 6.220182800292968750e+01 5.821323871612548828e+00 6.512640714645385742e-01 9.399529099464416504e-01 4.773651063442230225e-01 7.602098584175109863e-01
8.500000000000000000e+02 5.899219894409179688e+01 3.049562454223632812e+00 4.613583087921142578e-01 3.210975527763366699e-01 2.347367703914642334e-01 3.657282292842864990e-01
8.510000000000000000e+02 5.539578247070312500e+01 5.737076401710510254e-01 1.749955177307128906e+00 2.927613258361816406e-01 6.128149628639221191e-01 5.609529614448547363e-01
8.520000000000000000e+02 4.818584823608398438e+01 6.593752861022949219e+00 3.942202925682067871e-01 1.209195804595947266e+01 3.745853424072265625e+00 1.131703972816467285e+00
8.530000000000000000e+02 4.835821533203125000e+01 8.008112907409667969e+00 5.050293803215026855e-01 1.264189243316650391e+01 3.944076538085937500e+00 1.830663204193115234e+00
8.540000000000000000e+02 4.915501785278320312e+01 1.216962432861328125e+01 8.801441192626953125e-01 1.225236797332763672e+01 3.939753770828247070e+00 2.907685995101928711e+00
8.550000000000000000e+02 5.031697082519531250e+01 1.628606414794921875e+01 1.352920293807983398e+00 1.019656085968017578e+01 3.464844465255737305e+00 3.458468914031982422e+00
8.560000000000000000e+02 5.910869216918945312e+01 2.259635353088378906e+01 -3.983422756195068359e+00 -8.982325345277786255e-02 -1.221973776817321777e+00 1.006295252591371536e-02
8.570000000000000000e+02 5.987422180175781250e+01 2.353368949890136719e+01 -3.233234882354736328e+00 -1.428170651197433472e-01 -1.012815594673156738e+00 3.546220064163208008e-01
8.580000000000000000e+02 3.516416931152343750e+01 1.711784553527832031e+01 -2.585494220256805420e-01 2.553896307945251465e-01 -9.479423169977962971e-04 -5.633211880922317505e-02
8.590000000000000000e+02 3.831119155883789062e+01 1.434883213043212891e+01 6.633290648460388184e-01 1.556555509567260742e+00 6.659653782844543457e-01 -9.984109401702880859e-01
8.600000000000000000e+02 3.927540206909179688e+01 1.332542037963867188e+01 9.374036788940429688e-01 2.392348766326904297e+00 9.989256858825683594e-01 -1.457945823669433594e+00
8.610000000000000000e+02 4.098371505737304688e+01 1.104271984100341797e+01 1.307396173477172852e+00 5.912688732147216797e+00 2.166025400161743164e+00 -2.531671762466430664e+00
8.620000000000000000e+02 4.165847015380859375e+01 9.778007507324218750e+00 1.424494624137878418e+00 9.185089111328125000e+00 3.182874917984008789e+00 -2.983309507369995117e+00
8.630000000000000000e+02 4.251360321044921875e+01 4.163466453552246094e+00 2.153974175453186035e-01 1.706010246276855469e+01 5.182649612426757812e+00 7.605176568031311035e-01
8.640000000000000000e+02 4.215488052368164062e+01 1.355836153030395508e+00 1.427920460700988770e+00 1.805545997619628906e+01 5.845014095306396484e+00 3.825609683990478516e+00
8.650000000000000000e+02 3.881360626220703125e+01 -3.691540002822875977e+00 -4.370622932910919189e-01 2.387499570846557617e+00 5.851312279701232910e-01 1.482473134994506836e+00
8.660000000000000000e+02 3.352242660522460938e+01 -5.076638221740722656e+00 -2.378093242645263672e+00 -2.287781238555908203e-01 -7.820613980293273926e-01 -1.092703580856323242e+00
8.670000000000000000e+02 3.061209487915039062e+01 -5.393171310424804688e+00 2.955890178680419922e+00 9.369567036628723145e-01 1.167854070663452148e+00 -1.930003523826599121e+00
8.680000000000000000e+02 2.798037338256835938e+01 -4.034693241119384766e+00 4.309574127197265625e+00 3.023569345474243164e+00 2.199943065643310547e+00 -3.513033866882324219e+00
8.690000000000000000e+02 2.507978248596191406e+01 -2.688071727752685547e+00 3.587250947952270508e+00 1.074224472045898438e+00 1.398442625999450684e+00 -2.424911260604858398e+00
8.700000000000000000e+02 2.340642929077148438e+01 1.294554710388183594e+00 2.339746505022048950e-01 -3.431078791618347168e-01 -3.273996710777282715e-02 1.024149358272552490e-01
8.710000000000000000e+02 2.261438369750976562e+01 2.401180505752563477e+00 -1.778763830661773682e-01 1.241222769021987915e-01 -1.612623222172260284e-02 3.091355264186859131e-01
8.720000000000000000e+02 2.095153045654296875e+01 4.598096370697021484e+00 2.659273445606231689e-01 4.155503273010253906e+00 1.326429128646850586e+00 -1.310614109039306641e+00
8.730000000000000000e+02 1.807222175598144531e+01 1.444226980209350586e+00 4.835664033889770508e-01 1.196675491333007812e+01 3.735096454620361328e+00 5.308141112327575684e-01
8.740000000000000000e+02 1.886474990844726562e+01 9.887739181518554688e+00 8.677095174789428711e-01 1.372859859466552734e+01 4.378892421722412109e+00 -2.506306886672973633e+00
8.750000000000000000e+02 1.852862358093261719e+01 1.262919139862060547e+01 3.042723238468170166e-01 1.354573822021484375e+01 4.155003070831298828e+00 -9.944034218788146973e-01
8.760000000000000000e+02 1.842087745666503906e+01 1.538981342315673828e+01 2.204667329788208008e-01 1.286243534088134766e+01 3.924870491027832031e+00 2.220311909914016724e-01
8.770000000000000000e+02 1.865307235717773438e+01 1.801935386657714844e+01 1.438641071319580078e+00 1.229009914398193359e+01 4.118622303009033203e+00 2.570735931396484375e+00
8.780000000000000000e+02 2.215009689331054688e+01 -1.417762279510498047e+01 -3.100359678268432617e+00 1.072171404957771301e-01 -8.979427218437194824e-01 4.590601921081542969e-01
8.790000000000000000e+02 2.476984596252441406e+01 -1.447922611236572266e+01 -2.479531764984130859e+00 7.290013134479522705e-02 -7.219894528388977051e-01 -6.359717994928359985e-02
8.800000000000000000e+02 2.747615242004394531e+01 -1.470519924163818359e+01 -7.258313298225402832e-01 1.374941468238830566e-01 -1.765011548995971680e-01 -4.206499159336090088e-01
8.810000000000000000e+02 3.176586341857910156e+01 -1.513190746307373047e+01 3.540650129318237305e+00 1.167820811271667480e+00 1.412541270256042480e+00 -1.856208920478820801e+00
8.820000000000000000e+02 3.025505828857421875e+01 -1.499095630645751953e+01 1.680854201316833496e+00 3.428538143634796143e-01 6.071124076843261719e-01 -9.528765082359313965e-01
8.830000000000000000e+02 3.624206924438476562e+01 -2.279391670227050781e+01 7.009066343307495117e-01 1.215340614318847656e+01 3.856293678283691406e+00 8.586375713348388672e-01
8.840000000000000000e+02 2.371721267700195312e+01 -3.055024528503417969e+01 -2.451427221298217773e+00 -8.530610054731369019e-02 -7.610200047492980957e-01 3.759528994560241699e-01
8.850000000000000000e+02 1.829928207397460938e+01 -2.846892547607421875e+01 -1.228039741516113281e+00 -9.943370521068572998e-02 -3.982420265674591064e-01 4.260638356208801270e-01
8.860000000000000000e+02 1.625127601623535156e+01 -2.653113555908203125e+01 -1.740409135818481445e-01 5.031773447990417480e-01 9.874093532562255859e-02 -1.190017759799957275e-01
8.870000000000000000e+02 1.343623733520507812e+01 -2.362609481811523438e+01 1.047616600990295410e+00 2.981868982315063477e+00 1.208845734596252441e+00 -1.816468954086303711e+00
8.880000000000000000e+02 1.257490921020507812e+01 -2.267704200744628906e+01 1.337782025337219238e+00 6.354486465454101562e+00 2.307680606842041016e+00 -2.117850780487060547e+00
8.890000000000000000e+02 1.212272357940673828e+01 -1.539565467834472656e+01 2.624398469924926758e+00 1.169459724426269531e+01 4.295698642730712891e+00 4.261337757110595703e+00
8.900000000000000000e+02 5.752056503295898438e+01 -9.883327484130859375e+00 -9.552403092384338379e-01 -1.919994503259658813e-01 -3.441719114780426025e-01 5.186532735824584961e-01
8.910000000000000000e+02 6.035289382934570312e+01 -9.740608215332031250e+00 -5.672542452812194824e-01 1.197035685181617737e-01 -1.342652142047882080e-01 1.513104289770126343e-01
8.920000000000000000e+02 6.272243118286132812e+01 -1.031878089904785156e+01 -2.180844247341156006e-01 4.776690900325775146e-01 7.787539809942245483e-02 -3.884522616863250732e-01
8.930000000000000000e+02 6.381560134887695312e+01 -1.167163562774658203e+01 -4.991517066955566406e-01 2.910404503345489502e-01 -6.243337690830230713e-02 -3.617517054080963135e-01
8.940000000000000000e+02 6.803543090820312500e+01 -1.568266677856445312e+01 1.934187769889831543e+00 1.487440490722656250e+01 5.042577743530273438e+00 -3.410435676574707031e+00
8.950000000000000000e+02 6.433175659179687500e+01 -2.558519363403320312e+01 4.084672927856445312e-01 1.611931681632995605e+00 6.061196923255920410e-01 9.003719687461853027e-01
8.960000000000000000e+02 6.137560272216796875e+01 -2.838979721069335938e+01 -1.198370933532714844e+00 5.845873802900314331e-02 -3.419736623764038086e-01 -4.079638719558715820e-01
8.970000000000000000e+02 5.796308135986328125e+01 -3.011788940429687500e+01 -2.474946260452270508e+00 -3.283237814903259277e-01 -8.409810066223144531e-01 -3.879875838756561279e-01
8.980000000000000000e+02 5.110115051269531250e+01 -2.871994018554687500e+01 1.197063803672790527e+00 2.473660945892333984e+00 1.101217389106750488e+00 -1.907277345657348633e+00
8.990000000000000000e+02 5.008440017700195312e+01 -2.760624313354492188e+01 1.945981621742248535e+00 3.221018314361572266e+00 1.550099968910217285e+00 -2.601362228393554688e+00
9.000000000000000000e+02 4.825745773315429688e+01 -2.562502288818359375e+01 2.989950895309448242e+00 5.632216453552246094e+00 2.586650371551513672e+00 -4.062161922454833984e+00
9.010000000000000000e+02 4.862163162231445312e+01 -1.068957901000976562e+01 1.855103731155395508e+00 5.833681583404541016e+00 2.306635618209838867e+00 3.071878194808959961e+00
9.020000000000000000e+02 1.614869689941406250e+01 6.443173885345458984e-01 -3.931176364421844482e-01 1.598981571197509766e+01 4.679009437561035156e+00 -3.532786846160888672e+00
9.030000000000000000e+02 1.483399772644042969e+01 1.590558528900146484e+00 1.122755780816078186e-01 7.191939353942871094e+00 2.191264629364013672e+00 -4.162950515747070312e+00
9.040000000000000000e+02 1.410897254943847656e+01 1.269240140914916992e+00 6.294596791267395020e-01 4.158463001251220703e+00 1.436376810073852539e+00 -3.511721611022949219e+00
9.050000000000000000e+02 1.491389942169189453e+01 7.831670045852661133e-01 1.074564814567565918e+00 6.833319664001464844e+00 2.372365474700927734e+00 -4.936883449554443359e+00
9.060000000000000000e+02 1.529889011383056641e+01 7.151357531547546387e-01 7.153365612030029297e-01 9.685076713562011719e+00 3.120124101638793945e+00 -5.361218452453613281e+00
9.070000000000000000e+02 1.397230911254882812e+01 9.693160057067871094e-01 7.597637176513671875e-01 3.092600345611572266e+00 1.155709147453308105e+00 -2.995949029922485352e+00
9.080000000000000000e+02 1.434077548980712891e+01 8.418307304382324219e-01 1.112434506416320801e+00 3.972489356994628906e+00 1.525477170944213867e+00 -3.718494415283203125e+00
9.090000000000000000e+02 1.223974132537841797e+01 -2.158327817916870117e+00 1.977648138999938965e+00 1.905486881732940674e-01 6.504590511322021484e-01 1.117033720016479492e+00
9.100000000000000000e+02 1.564475440979003906e+01 -2.793456315994262695e+00 3.878048896789550781e+00 1.213883304595947266e+01 4.805064678192138672e+00 5.705453395843505859e+00
9.110000000000000000e+02 1.538769340515136719e+01 -2.760317087173461914e+00 4.518961906433105469e+00 9.756103515625000000e+00 4.282519340515136719e+00 5.782445907592773438e+00
9.120000000000000000e+02 1.417938899993896484e+01 -2.716284513473510742e+00 4.938384056091308594e+00 2.494631052017211914e+00 2.229904413223266602e+00 4.149144649505615234e+00
9.130000000000000000e+02 1.373091316223144531e+01 -2.421035289764404297e+00 4.474258422851562500e+00 1.121399760246276855e+00 1.678697466850280762e+00 2.841172218322753906e+00
9.140000000000000000e+02 1.451850986480712891e+01 -2.594783306121826172e+00 5.473503112792968750e+00 3.796741724014282227e+00 2.781073570251464844e+00 4.912502765655517578e+00
9.150000000000000000e+02 1.331878566741943359e+01 -2.327196598052978516e+00 3.556264638900756836e+00 6.370895504951477051e-01 1.258006215095520020e+00 2.098100423812866211e+00
9.160000000000000000e+02 1.432096481323242188e+01 -2.480210542678833008e+00 5.389548301696777344e+00 2.544386625289916992e+00 2.380180597305297852e+00 4.202806949615478516e+00
9.170000000000000000e+02 1.291740798950195312e+01 -2.528153419494628906e+00 3.161376237869262695e+00 5.655387639999389648e-01 1.118074536323547363e+00 1.994570374488830566e+00
9.180000000000000000e+02 9.450531959533691406e+00 -1.847928166389465332e+00 5.378017202019691467e-02 1.706581562757492065e-01 6.733150035142898560e-02 2.579692602157592773e-01
9.190000000000000000e+02 1.021613788604736328e+01 -3.174484491348266602e+00 1.025342822074890137e+00 5.017312169075012207e-01 4.581221938133239746e-01 1.001343250274658203e+00
9.200000000000000000e+02 1.087215995788574219e+01 -2.550281047821044922e+00 1.150417208671569824e+00 2.685599923133850098e-01 4.256931841373443604e-01 8.598461151123046875e-01
9.210000000000000000e+02 1.158412933349609375e+01 -2.065095901489257812e+00 1.255295753479003906e+00 7.487577199935913086e-02 3.990514874458312988e-01 6.965464353561401367e-01
9.220000000000000000e+02 1.778034210205078125e+01 -8.106536269187927246e-01 9.788123130798339844e+00 1.125747585296630859e+01 6.313679695129394531e+00 6.312240958213806152e-01
9.230000000000000000e+02 1.760544395446777344e+01 -2.014668464660644531e+00 8.656246185302734375e+00 1.195614910125732422e+01 6.183718681335449219e+00 -2.809162855148315430e+00
9.240000000000000000e+02 2.177913475036621094e+01 3.484354972839355469e+00 -2.594644725322723389e-01 1.482389092445373535e+00 3.668773770332336426e-01 -2.163750827312469482e-01
9.250000000000000000e+02 1.970060729980468750e+01 -1.687653899192810059e+00 6.565398216247558594e+00 5.451340198516845703e+00 3.605021476745605469e+00 -2.183994054794311523e+00
9.260000000000000000e+02 1.822770500183105469e+01 -1.503724575042724609e+00 8.861370086669921875e+00 9.366697311401367188e+00 5.468420028686523438e+00 -1.666453480720520020e+00
9.270000000000000000e+02 8.769336700439453125e+00 3.259585857391357422e+00 -2.123872637748718262e-01 3.417223095893859863e-01 3.880051523447036743e-02 3.793629407882690430e-01
9.280000000000000000e+02 9.623185157775878906e+00 2.486246585845947266e+00 -6.095514893531799316e-01 2.797091305255889893e-01 -9.895271062850952148e-02 1.901145577430725098e-01
9.290000000000000000e+02 8.057900428771972656e+00 2.587283372879028320e+00 -6.946124434471130371e-01 8.648281544446945190e-02 -1.824388802051544189e-01 6.114757061004638672e-01
9.300000000000000000e+02 7.275283813476562500e+00 2.621126890182495117e+00 -6.656621098518371582e-01 4.221509024500846863e-02 -1.870341151952743530e-01 7.073448300361633301e-01
9.310000000000000000e+02 6.494857311248779297e+00 2.645920753479003906e+00 -6.196755766868591309e-01 -1.307522039860486984e-02 -1.898252367973327637e-01 7.535462379455566406e-01
9.320000000000000000e+02 5.719176292419433594e+00 2.669047832489013672e+00 -5.516029596328735352e-01 -4.991350695490837097e-02 -1.804549396038055420e-01 7.680191993713378906e-01
9.330000000000000000e+02 1.585516333580017090e+00 7.652124404907226562e+00 6.254816055297851562e-02 -1.303010344505310059e+00 -3.721386492252349854e-01 3.510150909423828125e-01
9.340000000000000000e+02 4.152598857879638672e+00 3.621333599090576172e+00 -1.856043338775634766e-01 -2.397225648164749146e-01 -1.275980770587921143e-01 7.685458660125732422e-01
9.350000000000000000e+02 1.248636007308959961e+00 3.150409698486328125e+00 -4.551567509770393372e-02 -4.487970769405364990e-01 -1.482938230037689209e-01 3.353525698184967041e-01
9.360000000000000000e+02 2.701485872268676758e+00 1.950999021530151367e+00 -2.975729703903198242e-01 -1.524750739336013794e-01 -1.350144147872924805e-01 4.352455139160156250e-01
9.370000000000000000e+02 1.934718728065490723e+00 2.896483659744262695e+00 -1.276827901601791382e-01 -3.167979419231414795e-01 -1.333442181348800659e-01 4.431200027465820312e-01
9.380000000000000000e+02 1.283377170562744141e+01 1.293243765830993652e+00 -2.209812849760055542e-01 1.517586350440979004e+00 3.889815211296081543e-01 -1.475534796714782715e+00
9.390000000000000000e+02 1.115772342681884766e+01 2.393418312072753906e+00 -2.811006009578704834e-01 9.189388155937194824e-01 1.913514584302902222e-01 -5.833643674850463867e-01
9.400000000000000000e+02 1.365842819213867188e+01 2.115394353866577148e+00 2.034397423267364502e-01 4.043702125549316406e+00 1.274142622947692871e+00 -2.878340959548950195e+00
9.410000000000000000e+02 1.232034111022949219e+01 2.122848749160766602e+00 -7.627545297145843506e-02 1.737386703491210938e+00 4.983333647251129150e-01 -1.399528026580810547e+00
9.420000000000000000e+02 8.840959548950195312e+00 2.542291879653930664e+00 -6.569690704345703125e-01 1.515816003084182739e-01 -1.516162455081939697e-01 4.663902223110198975e-01
9.430000000000000000e+02 8.696675300598144531e+00 -2.563791513442993164e+00 2.126724123954772949e-01 2.707769274711608887e-01 1.450348049402236938e-01 3.149522840976715088e-01
9.440000000000000000e+02 5.391343116760253906e+00 -1.926539778709411621e+00 -3.007591664791107178e-01 6.645008176565170288e-02 -7.029271870851516724e-02 -2.086017876863479614e-01
9.450000000000000000e+02 6.308355808258056641e+00 -2.706983566284179688e+00 -1.110209897160530090e-01 1.925650388002395630e-01 2.446321211755275726e-02 -1.002770215272903442e-01
9.460000000000000000e+02 7.109335899353027344e+00 -2.651463508605957031e+00 -3.451986983418464661e-02 2.104856222867965698e-01 5.278972536325454712e-02 1.372386794537305832e-02
9.470000000000000000e+02 1.760044574737548828e+00 -9.485494613647460938e+00 -6.088234949856996536e-03 -7.789186835289001465e-01 -2.355020791292190552e-01 -2.747537195682525635e-01
9.480000000000000000e+02 5.905964970588684082e-01 -6.487307071685791016e+00 1.337477937340736389e-03 -9.097715616226196289e-01 -2.725302278995513916e-01 -1.113742515444755554e-01
9.490000000000000000e+02 3.377638578414916992e+00 -4.190565109252929688e+00 -1.377089135348796844e-02 -4.743885248899459839e-03 -5.554432980716228485e-03 -3.196510672569274902e-01
9.500000000000000000e+02 4.742707014083862305e-01 -3.609802961349487305e+00 -1.666101859882473946e-03 -3.793083727359771729e-01 -1.142923384904861450e-01 -8.649596571922302246e-02
9.510000000000000000e+02 1.874244880676269531e+01 -1.269638156890869141e+01 -5.710569858551025391e+00 -8.333696722984313965e-01 -1.963181853294372559e+00 1.745833754539489746e+00
9.520000000000000000e+02 1.553999042510986328e+01 -1.127556324005126953e+01 -3.140469312667846680e+00 1.686339855194091797e+00 -4.362388551235198975e-01 3.824216127395629883e+00
9.530000000000000000e+02 3.698365402221679688e+01 -1.976857757568359375e+01 2.033516168594360352e+00 1.109875392913818359e+01 3.939681053161621094e+00 -1.818625450134277344e+00
9.540000000000000000e+02 5.398069381713867188e+01 1.274794340133666992e-01 1.989733219146728516e+00 1.568076312541961670e-01 6.439622640609741211e-01 4.687628448009490967e-01
9.550000000000000000e+02 5.281156539916992188e+01 -3.320028686523437500e+01 -1.983785927295684814e-01 2.310565948486328125e+00 6.336562037467956543e-01 -1.800570845603942871e+00
9.560000000000000000e+02 6.506345367431640625e+01 -1.198460483551025391e+01 8.686864376068115234e-01 2.227577447891235352e+00 9.288792014122009277e-01 -1.584347844123840332e+00
9.570000000000000000e+02 6.036427307128906250e+01 -2.929165458679199219e+01 -2.102096796035766602e+00 -1.844404339790344238e-01 -6.859611272811889648e-01 -4.190949499607086182e-01
9.580000000000000000e+02 6.182836914062500000e+01 -8.978475570678710938e+00 -4.285508394241333008e-02 6.687394976615905762e-01 1.877653300762176514e-01 -3.515343368053436279e-01
9.590000000000000000e+02 4.659560394287109375e+01 -2.604363822937011719e+01 1.175895810127258301e+00 8.128871917724609375e+00 2.791430234909057617e+00 -2.148590087890625000e+00
9.600000000000000000e+02 7.122180938720703125e+01 -1.306070804595947266e+01 3.016479611396789551e-01 8.955165863037109375e+00 2.777044057846069336e+00 5.703388452529907227e-01
9.610000000000000000e+02 4.629519653320312500e+01 -2.139580345153808594e+01 8.387731909751892090e-01 1.345290660858154297e+01 4.287504196166992188e+00 -1.842010140419006348e+00
9.620000000000000000e+02 4.566915893554687500e+01 -2.555396842956542969e+01 1.671098351478576660e+00 8.418048858642578125e+00 3.026744365692138672e+00 -1.731656908988952637e+00
9.630000000000000000e+02 6.831040191650390625e+01 -1.706285095214843750e+01 1.126780986785888672e+00 1.632049751281738281e+01 5.234183788299560547e+00 -1.416902065277099609e+00
9.640000000000000000e+02 6.874305725097656250e+01 -1.401234722137451172e+01 8.974860310554504395e-01 1.034346866607666016e+01 3.372286319732666016e+00 -1.003906726837158203e+00
9.650000000000000000e+02 6.334516525268554688e+01 -2.651775550842285156e+01 -1.465578377246856689e-01 8.143970370292663574e-01 2.003517597913742065e-01 3.758274018764495850e-01
9.660000000000000000e+02 4.601765441894531250e+01 -1.267470455169677734e+01 1.263280272483825684e+00 9.902717590332031250e+00 3.349799394607543945e+00 2.059418678283691406e+00
9.670000000000000000e+02 5.708236312866210938e+01 -8.097393989562988281e+00 -7.788546681404113770e-01 -4.185631126165390015e-02 -2.462133020162582397e-01 2.097945958375930786e-01
9.680000000000000000e+02 4.500879287719726562e+01 -2.125348472595214844e+01 1.922840952873229980e+00 1.134870338439941406e+01 3.981463432312011719e+00 -1.436658859252929688e+00
9.690000000000000000e+02 9.681842803955078125e+00 -2.296850585937500000e+01 2.780568599700927734e-01 5.632118701934814453e+00 1.773052692413330078e+00 8.544774055480957031e-01
9.700000000000000000e+02 1.175690937042236328e+01 -1.671233749389648438e+01 1.481484651565551758e+00 1.406299686431884766e+01 4.663344383239746094e+00 2.637682199478149414e+00
9.710000000000000000e+02 7.150287628173828125e+01 -1.906354713439941406e+01 1.943008661270141602e+00 9.933934211730957031e+00 3.563082933425903320e+00 -2.987758815288543701e-01
9.720000000000000000e+02 5.721221542358398438e+01 1.714705079793930054e-01 1.425634622573852539e+00 1.987507045269012451e-01 4.873155951499938965e-01 3.036970496177673340e-01
9.730000000000000000e+02 3.528679656982421875e+01 -2.622711372375488281e+01 1.866487622261047363e+00 8.394185066223144531e+00 3.078201770782470703e+00 3.352779865264892578e+00
9.740000000000000000e+02 3.882912445068359375e+01 -2.403926277160644531e+01 2.067483663558959961e+00 9.332901000976562500e+00 3.420115470886230469e+00 4.266863465309143066e-01
9.750000000000000000e+02 6.079560852050781250e+01 -8.645194053649902344e+00 -1.377109587192535400e-01 4.860817492008209229e-01 1.045112311840057373e-01 -1.263812035322189331e-01
9.760000000000000000e+02 4.654002761840820312e+01 -1.589928817749023438e+01 6.729472279548645020e-01 1.284278297424316406e+01 4.054718971252441406e+00 1.896393060684204102e+00
9.770000000000000000e+02 4.885530090332031250e+01 -8.903364181518554688e+00 -3.855122327804565430e-01 5.155950546264648438e+00 1.431131601333618164e+00 1.749656438827514648e+00
9.780000000000000000e+02 5.075685882568359375e+01 -8.808216094970703125e+00 -4.212559163570404053e-01 1.049527764320373535e+00 1.884815543889999390e-01 4.550731480121612549e-01
9.790000000000000000e+02 6.962470245361328125e+01 -1.988943481445312500e+01 2.241039991378784180e+00 1.207843685150146484e+01 4.295843124389648438e+00 7.571657896041870117e-01
9.800000000000000000e+02 4.775849533081054688e+01 -9.948577880859375000e+00 -2.689044550061225891e-02 7.295301437377929688e+00 2.180523157119750977e+00 1.963328361511230469e+00
9.810000000000000000e+02 4.333657836914062500e+01 -1.269026184082031250e+01 8.730214238166809082e-01 8.891289710998535156e+00 2.929293394088745117e+00 1.059481143951416016e+00
9.820000000000000000e+02 5.528422546386718750e+01 -2.979301071166992188e+01 -1.990038037300109863e+00 1.810378581285476685e-02 -5.915802717208862305e-01 -2.434055358171463013e-01
9.830000000000000000e+02 5.242885208129882812e+01 -2.940802383422851562e+01 2.078259885311126709e-01 1.353178858757019043e+00 4.683014452457427979e-01 -1.253684401512145996e+00
9.840000000000000000e+02 5.608874130249023438e+01 -3.177428817749023438e+01 -7.302387356758117676e-01 1.893454790115356445e-01 -1.622679829597473145e-01 -8.534451127052307129e-01
9.850000000000000000e+02 5.891358184814453125e+01 -3.297460937500000000e+01 -7.233358174562454224e-02 4.023991525173187256e-01 9.901966899633407593e-02 4.007831960916519165e-02
9.860000000000000000e+02 6.213112258911132812e+01 -3.063803672790527344e+01 -8.892254233360290527e-01 1.585949897766113281e+00 2.090173363685607910e-01 8.227225542068481445e-01
9.870000000000000000e+02 5.368733215332031250e+01 -3.111607360839843750e+01 -4.574139714241027832e-01 9.755120873451232910e-01 1.554294377565383911e-01 -1.422958016395568848e+00
9.880000000000000000e+02 1.265276050567626953e+01 -1.415754699707031250e+01 2.036945819854736328e+00 7.700047969818115234e+00 2.921098232269287109e+00 3.761084794998168945e+00
9.890000000000000000e+02 6.642441558837890625e+01 -1.199497604370117188e+01 7.685182690620422363e-01 4.942663192749023438e+00 1.713354349136352539e+00 -2.102641582489013672e+00
9.900000000000000000e+02 4.512716293334960938e+01 -1.843829345703125000e+01 9.146706461906433105e-01 1.187770080566406250e+01 3.837711334228515625e+00 2.009902596473693848e-01
9.910000000000000000e+02 4.503520965576171875e+01 -1.984463119506835938e+01 1.248651146888732910e+00 1.158224678039550781e+01 3.849269390106201172e+00 -6.288533210754394531e-01
9.920000000000000000e+02 5.993101119995117188e+01 -1.088143253326416016e+01 -1.126566767692565918e+00 -2.671060338616371155e-02 -3.459832072257995605e-01 3.567374348640441895e-01
9.930000000000000000e+02 5.924561309814453125e+01 -9.299593925476074219e+00 -6.038694977760314941e-01 8.300916850566864014e-02 -1.562581062316894531e-01 2.541747987270355225e-01
9.940000000000000000e+02 3.520820236206054688e+01 -1.595615482330322266e+01 3.579626560211181641e+00 6.893371582031250000e+00 3.141899347305297852e+00 -3.111911535263061523e+00
9.950000000000000000e+02 6.624468231201171875e+01 -2.359028053283691406e+01 1.482327818870544434e+00 4.304292201995849609e+00 1.735985994338989258e+00 2.371708393096923828e+00
9.960000000000000000e+02 6.733281707763671875e+01 -2.431899070739746094e+01 2.115911096334457397e-01 6.661011695861816406e+00 2.061780929565429688e+00 2.056537389755249023e+00
9.970000000000000000e+02 5.817058181762695312e+01 -8.762259483337402344e+00 -6.748024225234985352e-01 -7.116082706488668919e-04 -2.026542127132415771e-01 2.846817970275878906e-01
9.980000000000000000e+02 6.151526641845703125e+01 -1.008009815216064453e+01 -4.727328419685363770e-01 3.203212618827819824e-01 -4.572347179055213928e-02 -4.203134775161743164e-02
9.990000000000000000e+02 6.292675781250000000e+01 -2.944518470764160156e+01 -1.211095094680786133e+00 1.799827337265014648e+00 1.766196489334106445e-01 5.682329535484313965e-01
1.000000000000000000e+03 6.375557327270507812e+01 -2.836746215820312500e+01 -7.408517003059387207e-01 2.061290740966796875e+00 3.961316943168640137e-01 6.791730523109436035e-01
1.001000000000000000e+03 6.638128662109375000e+01 -2.532817840576171875e+01 8.965259790420532227e-02 4.736985683441162109e+00 1.447991490364074707e+00 1.591319084167480469e+00
1.002000000000000000e+03 5.740192794799804688e+01 -3.235586166381835938e+01 -1.924783736467361450e-01 1.524516493082046509e-01 -1.200801786035299301e-02 -4.560359120368957520e-01
1.003000000000000000e+03 4.571447753906250000e+01 -1.422340679168701172e+01 1.407826066017150879e+00 1.085178184509277344e+01 3.677882432937622070e+00 2.114190340042114258e+00
1.004000000000000000e+03 4.547562408447265625e+01 -1.566528987884521484e+01 1.257193565368652344e+00 1.132402706146240234e+01 3.774366140365600586e+00 1.666935205459594727e+00
1.005000000000000000e+03 4.527742385864257812e+01 -1.705802536010742188e+01 9.444707036018371582e-01 1.155245780944824219e+01 3.749078512191772461e+00 1.177301645278930664e+00
1.006000000000000000e+03 4.742331314086914062e+01 -2.676547431945800781e+01 1.295906066894531250e+00 7.373012065887451172e+00 2.600675582885742188e+00 -2.874586105346679688e+00
1.007000000000000000e+03 1.186928272247314453e+01 -1.212755680084228516e+01 -9.178062677383422852e-01 6.787853717803955078e+00 1.761014223098754883e+00 2.224762678146362305e+00
1.008000000000000000e+03 4.820600509643554688e+01 -2.766816329956054688e+01 1.226772785186767578e+00 5.495020866394042969e+00 2.016538143157958984e+00 -2.817094564437866211e+00
1.009000000000000000e+03 6.968090820312500000e+01 -1.838713073730468750e+01 1.483453035354614258e+00 1.342091274261474609e+01 4.471309661865234375e+00 1.439981348812580109e-02
1.010000000000000000e+03 1.864363288879394531e+01 -3.067750167846679688e+01 -1.179032564163208008e+00 3.771177530288696289e-01 -2.405744642019271851e-01 -3.998893499374389648e-02
1.011000000000000000e+03 2.230184173583984375e+01 -3.020846939086914062e+01 -2.254934787750244141e+00 -2.260189801454544067e-01 -7.442861199378967285e-01 4.439300596714019775e-01
1.012000000000000000e+03 2.494653320312500000e+01 -3.265182876586914062e+01 -1.263064622879028320e+00 -4.537110682576894760e-03 -3.802805244922637939e-01 2.430153489112854004e-01
1.013000000000000000e+03 2.344327545166015625e+01 -1.435831451416015625e+01 -2.953305006027221680e+00 8.182971924543380737e-02 -8.614425659179687500e-01 1.267208456993103027e-01
1.014000000000000000e+03 1.444074058532714844e+01 -1.148922729492187500e+01 -3.529896497726440430e+00 4.398616790771484375e+00 2.606161236763000488e-01 3.375787258148193359e+00
1.015000000000000000e+03 1.340169334411621094e+01 -1.146229743957519531e+01 -2.391113042831420898e+00 5.178841590881347656e+00 8.363185524940490723e-01 2.712694883346557617e+00
1.016000000000000000e+03 3.085725402832031250e+01 -2.995532417297363281e+01 -4.476531744003295898e-01 6.432617902755737305e-01 5.868258327245712280e-02 6.108573675155639648e-01
1.017000000000000000e+03 3.363841247558593750e+01 -3.210850906372070312e+01 -8.205889463424682617e-01 4.113026618957519531e+00 9.877312183380126953e-01 1.623036265373229980e+00
1.018000000000000000e+03 2.026356697082519531e+01 -3.127054786682128906e+01 -1.347349047660827637e+00 -6.634232588112354279e-03 -4.061949551105499268e-01 5.683374404907226562e-02
1.019000000000000000e+03 2.986485099792480469e+01 -3.200216293334960938e+01 -8.044884204864501953e-01 9.524505138397216797e-01 4.438863694667816162e-02 1.003714084625244141e+00
1.020000000000000000e+03 9.924019813537597656e+00 -2.172230148315429688e+01 5.359195470809936523e-01 6.529324054718017578e+00 2.119573116302490234e+00 7.868322730064392090e-01
1.021000000000000000e+03 3.656918334960937500e+01 -1.849488830566406250e+01 3.181667089462280273e+00 1.035088157653808594e+01 4.059764862060546875e+00 -2.092870712280273438e+00
1.022000000000000000e+03 2.915935897827148438e+01 -4.967719554901123047e+00 5.061959743499755859e+00 2.687406301498413086e+00 2.324809789657592773e+00 -3.249155521392822266e+00
1.023000000000000000e+03 1.029003429412841797e+01 -1.923850631713867188e+01 1.166904330253601074e+00 8.608748435974121094e+00 2.932695865631103516e+00 6.348002552986145020e-01
1.024000000000000000e+03 3.420095062255859375e+01 -2.973400115966796875e+01 2.725160494446754456e-02 4.984302997589111328e+00 1.503466367721557617e+00 1.905697584152221680e+00
1.025000000000000000e+03 3.447017669677734375e+01 -2.744475173950195312e+01 2.105932712554931641e+00 6.095072746276855469e+00 2.460301637649536133e+00 2.912101268768310547e+00
1.026000000000000000e+03 3.609637069702148438e+01 -2.154496192932128906e+01 2.024732232093811035e-01 1.144747161865234375e+01 3.494983434677124023e+00 -1.872649788856506348e-01
1.027000000000000000e+03 3.551474380493164062e+01 -2.877831268310546875e+01 2.546899020671844482e-01 6.507005691528320312e+00 2.028508663177490234e+00 1.564910292625427246e+00
1.028000000000000000e+03 1.270829963684082031e+01 -2.452570152282714844e+01 -1.573260724544525146e-01 4.491873741149902344e+00 1.300364375114440918e+00 -1.035296678543090820e+00
1.029000000000000000e+03 2.662007904052734375e+01 -3.279820251464843750e+01 -1.114983916282653809e+00 -5.926124751567840576e-02 -3.522735536098480225e-01 4.332164824008941650e-01
1.030000000000000000e+03 1.530927181243896484e+01 -2.737574005126953125e+01 -5.687301754951477051e-01 1.314233422279357910e+00 2.236509770154953003e-01 -3.548215031623840332e-01
1.031000000000000000e+03 1.620352935791015625e+01 -2.849893569946289062e+01 -8.574650287628173828e-01 1.049828886985778809e+00 5.770917236804962158e-02 -1.534987688064575195e-01
1.032000000000000000e+03 1.723477172851562500e+01 -2.973485374450683594e+01 -1.073592305183410645e+00 6.753509640693664551e-01 -1.194724217057228088e-01 -1.604765951633453369e-01
1.033000000000000000e+03 1.921694946289062500e+01 -1.093991851806640625e+01 -2.663205862045288086e+00 8.024561405181884766e-01 -5.582249164581298828e-01 -4.314500987529754639e-01
1.034000000000000000e+03 1.808976554870605469e+01 -1.172977066040039062e+01 -5.416173934936523438e+00 -5.431777238845825195e-01 -1.787805438041687012e+00 1.108958363533020020e+00
1.035000000000000000e+03 2.496725654602050781e+01 -1.331039237976074219e+01 -1.524901390075683594e+00 3.425895571708679199e-01 -3.546935617923736572e-01 -7.375584244728088379e-01
1.036000000000000000e+03 2.371076774597167969e+01 -1.320554065704345703e+01 -2.071197271347045898e+00 4.050339162349700928e-01 -4.998490214347839355e-01 -3.696973621845245361e-01
1.037000000000000000e+03 9.259861946105957031e+00 -1.768207550048828125e+01 1.923115015029907227e+00 6.702978610992431641e+00 2.587827920913696289e+00 1.060363650321960449e+00
1.038000000000000000e+03 1.012222003936767578e+01 -2.048959732055664062e+01 1.036236286163330078e+00 7.284008979797363281e+00 2.496073484420776367e+00 6.367511749267578125e-01
1.039000000000000000e+03 2.803459930419921875e+01 -3.069454574584960938e+01 -1.983007431030273438e+00 -2.102462574839591980e-02 -6.012096405029296875e-01 8.079802244901657104e-02
1.040000000000000000e+03 2.828737831115722656e+01 -3.251027679443359375e+01 -9.920085072517395020e-01 3.890666365623474121e-01 -1.808825582265853882e-01 5.830342769622802734e-01
1.041000000000000000e+03 1.530959320068359375e+01 -2.554139518737792969e+01 1.626912057399749756e-01 8.745898008346557617e-01 3.111843168735504150e-01 -5.546064972877502441e-01
1.042000000000000000e+03 3.732842636108398438e+01 -2.096196556091308594e+01 1.178578853607177734e+00 1.136376190185546875e+01 3.762702226638793945e+00 -4.264400303363800049e-01
1.043000000000000000e+03 1.445274925231933594e+01 -2.634224510192871094e+01 -2.814249396324157715e-01 1.962115764617919922e+00 5.042072534561157227e-01 -5.697281360626220703e-01
1.044000000000000000e+03 3.769048690795898438e+01 -2.205428695678710938e+01 1.578826665878295898e+00 1.027100944519042969e+01 3.554950714111328125e+00 3.503319919109344482e-01
1.045000000000000000e+03 1.358449268341064453e+01 -2.539202690124511719e+01 -1.405980736017227173e-01 2.729953050613403320e+00 7.768064737319946289e-01 -9.284680485725402832e-01
1.046000000000000000e+03 2.545959663391113281e+01 2.502506256103515625e+01 -6.394891738891601562e-01 4.353755414485931396e-01 -6.123409047722816467e-02 7.368842959403991699e-01
1.047000000000000000e+03 2.381268119812011719e+01 2.197294807434082031e+01 -2.099217891693115234e+00 -4.185833781957626343e-02 -6.423228979110717773e-01 6.142873764038085938e-01
1.048000000000000000e+03 2.085401725769042969e+01 2.322007560729980469e+01 -6.065137982368469238e-01 3.257130622863769531e+00 7.951850891113281250e-01 2.368115663528442383e+00
1.049000000000000000e+03 1.823419570922851562e+01 1.907569503784179688e+01 1.428343176841735840e+00 9.937193870544433594e+00 3.409661054611206055e+00 1.810681939125061035e+00
1.050000000000000000e+03 1.742676544189453125e+01 1.801512336730957031e+01 1.301278591156005859e+00 9.538746833801269531e+00 3.252007722854614258e+00 3.480336964130401611e-01
1.051000000000000000e+03 4.200926208496093750e+01 -1.592861413955688477e+00 1.520003437995910645e+00 1.168910980224609375e+01 3.962733983993530273e+00 2.601901769638061523e+00
1.052000000000000000e+03 3.229206848144531250e+01 -6.407743930816650391e+00 9.699383974075317383e-01 5.270619317889213562e-02 3.067933619022369385e-01 -2.309723615646362305e+00
1.053000000000000000e+03 2.585411071777343750e+01 2.313469314575195312e+01 -1.341023683547973633e+00 -3.756245970726013184e-02 -4.135758578777313232e-01 4.424551427364349365e-01
1.054000000000000000e+03 2.467329788208007812e+01 2.360720252990722656e+01 -7.888039946556091309e-01 2.418643385171890259e-01 -1.640818864107131958e-01 7.882848978042602539e-01
1.055000000000000000e+03 4.886977767944335938e+01 1.078725337982177734e+01 6.339302062988281250e-01 1.228180027008056641e+01 3.874719142913818359e+00 2.637335300445556641e+00
1.056000000000000000e+03 4.749338912963867188e+01 9.657578468322753906e+00 7.750305533409118652e-01 1.185406589508056641e+01 3.788728713989257812e+00 2.092322349548339844e+00
1.057000000000000000e+03 3.774944686889648438e+01 -5.345685958862304688e+00 -7.774990200996398926e-01 2.098278522491455078e+00 3.962338566780090332e-01 1.254640340805053711e+00
1.058000000000000000e+03 3.038605690002441406e+01 2.009775543212890625e+01 -2.184198856353759766e+00 -2.431880980730056763e-01 -7.282161116600036621e-01 6.409959197044372559e-01
1.059000000000000000e+03 3.167019462585449219e+01 2.252301025390625000e+01 -1.070710182189941406e+00 4.654096961021423340e-01 -1.815901696681976318e-01 -2.851945161819458008e-01
1.060000000000000000e+03 1.765603065490722656e+01 2.131980323791503906e+01 -2.050052136182785034e-01 6.785966873168945312e+00 1.974288582801818848e+00 1.264156103134155273e-01
1.061000000000000000e+03 3.752501678466796875e+01 -4.054082870483398438e+00 -2.277349710464477539e+00 3.750385642051696777e-01 -5.706933140754699707e-01 -2.111716382205486298e-02
1.062000000000000000e+03 4.041198730468750000e+01 -4.976295471191406250e+00 -1.629887580871582031e+00 7.004547595977783203e+00 1.612398028373718262e+00 2.325441360473632812e+00
1.063000000000000000e+03 2.360676765441894531e+01 2.420169448852539062e+01 -7.099915146827697754e-01 6.746423244476318359e-01 -1.060475781559944153e-02 1.109925270080566406e+00
1.064000000000000000e+03 2.189223670959472656e+01 2.390615844726562500e+01 -4.396352469921112061e-01 1.881062030792236328e+00 4.324280321598052979e-01 1.825460076332092285e+00
1.065000000000000000e+03 1.767167854309082031e+01 1.113341712951660156e+01 9.434658885002136230e-01 1.182111072540283203e+01 3.829372882843017578e+00 -1.574648857116699219e+00
1.066000000000000000e+03 1.799867820739746094e+01 8.392008781433105469e+00 7.410553097724914551e-01 1.098318195343017578e+01 3.517271041870117188e+00 -1.789889216423034668e+00
1.067000000000000000e+03 4.123862457275390625e+01 1.295909309387207031e+01 5.542507171630859375e-01 5.564436435699462891e+00 1.835606098175048828e+00 -1.510060787200927734e+00
1.068000000000000000e+03 4.534627532958984375e+01 3.164839029312133789e+00 1.615089774131774902e+00 1.232543945312500000e+01 4.182158946990966797e+00 1.055492877960205078e+00
1.069000000000000000e+03 4.361930847167968750e+01 7.261339664459228516e+00 1.288834691047668457e+00 1.338002586364746094e+01 4.400658130645751953e+00 9.826840460300445557e-02
1.070000000000000000e+03 3.241840362548828125e+01 2.070342254638671875e+01 -1.244884014129638672e+00 2.941245734691619873e-01 -2.852278351783752441e-01 -6.921210139989852905e-02
1.071000000000000000e+03 3.289202499389648438e+01 1.881199645996093750e+01 -1.070583939552307129e+00 -1.121455952525138855e-01 -3.548188805580139160e-01 4.089237749576568604e-01
1.072000000000000000e+03 1.826403617858886719e+01 6.979818820953369141e+00 2.206587791442871094e-01 1.018880558013916016e+01 3.122839450836181641e+00 -1.625186562538146973e+00
1.073000000000000000e+03 3.619695281982421875e+01 -4.376206874847412109e+00 -2.908010721206665039e+00 9.977031499147415161e-02 -8.424721360206604004e-01 -6.776279211044311523e-01
1.074000000000000000e+03 3.905265426635742188e+01 -5.138394355773925781e+00 -1.155128598213195801e+00 4.471200466156005859e+00 9.948216080665588379e-01 2.328479528427124023e+00
1.075000000000000000e+03 1.738204765319824219e+01 1.384932899475097656e+01 6.879758238792419434e-01 1.145672225952148438e+01 3.643409490585327148e+00 -6.040506362915039062e-01
1.076000000000000000e+03 1.751449394226074219e+01 1.248543548583984375e+01 6.935626864433288574e-01 1.176527214050292969e+01 3.737650394439697266e+00 -1.066113352775573730e+00
1.077000000000000000e+03 3.510922241210937500e+01 -5.879791259765625000e+00 -9.798191785812377930e-01 3.279261887073516846e-01 -1.955678910017013550e-01 -6.923304200172424316e-01
1.078000000000000000e+03 3.534582519531250000e+01 -7.026882171630859375e+00 1.065390110015869141e-01 1.073521494865417480e+00 3.540181517601013184e-01 -6.679348349571228027e-01
1.079000000000000000e+03 3.825793457031250000e+01 1.622832870483398438e+01 2.334004342555999756e-01 2.098604917526245117e+00 6.996015906333923340e-01 -9.599163532257080078e-01
1.080000000000000000e+03 1.895140457153320312e+01 -2.189167499542236328e+00 6.641403198242187500e+00 7.073560714721679688e+00 4.114489078521728516e+00 -2.787480354309082031e+00
1.081000000000000000e+03 2.359786033630371094e+01 -7.373637676239013672e+00 1.939664483070373535e+00 1.484923720359802246e+00 1.027376413345336914e+00 -2.657396554946899414e+00
1.082000000000000000e+03 2.231842231750488281e+01 -2.429354906082153320e+00 4.454377174377441406e+00 1.668888926506042480e+00 1.836979866027832031e+00 -2.808381557464599609e+00
1.083000000000000000e+03 3.707398223876953125e+01 1.900409126281738281e+01 -2.920210659503936768e-01 1.821649909019470215e+00 4.588886499404907227e-01 -8.135546445846557617e-01
1.084000000000000000e+03 2.695709800720214844e+01 -3.034428834915161133e+00 3.305701494216918945e+00 2.418065547943115234e+00 1.717130184173583984e+00 -2.865430355072021484e+00
1.085000000000000000e+03 2.719870567321777344e+01 -4.811378955841064453e+00 4.095648288726806641e+00 1.950311541557312012e+00 1.813788056373596191e+00 -2.653263092041015625e+00
1.086000000000000000e+03 1.727920913696289062e+01 1.523461723327636719e+01 7.110936045646667480e-01 1.118843650817871094e+01 3.569859266281127930e+00 -2.326749078929424286e-02
1.087000000000000000e+03 3.373299026489257812e+01 -6.170072555541992188e+00 -3.666024506092071533e-01 -1.011529341340065002e-01 -1.403266191482543945e-01 -1.350221157073974609e+00
1.088000000000000000e+03 2.714525794982910156e+01 2.268113708496093750e+01 -1.588183403015136719e+00 -2.072644978761672974e-02 -4.826729595661163330e-01 3.114787042140960693e-01
1.089000000000000000e+03 4.279812622070312500e+01 -3.018524348735809326e-01 2.100574731826782227e+00 1.342540836334228516e+01 4.657794952392578125e+00 2.668591260910034180e+00
1.090000000000000000e+03 1.720291137695312500e+01 1.665541839599609375e+01 1.237333774566650391e+00 1.015372848510742188e+01 3.417318820953369141e+00 5.253750681877136230e-01
1.091000000000000000e+03 2.092709350585937500e+01 2.887136459350585938e+00 -1.941777467727661133e-01 4.690777301788330078e+00 1.348979830741882324e+00 -5.839553475379943848e-01
1.092000000000000000e+03 2.613918304443359375e+01 -3.770396709442138672e+00 3.852052688598632812e+00 1.602337360382080078e+00 1.636317014694213867e+00 -2.831814050674438477e+00
1.093000000000000000e+03 2.974794006347656250e+01 2.171396636962890625e+01 -1.652191638946533203e+00 -2.612174488604068756e-02 -5.034940242767333984e-01 2.204659432172775269e-01
1.094000000000000000e+03 4.210169982910156250e+01 1.166230869293212891e+01 5.362770557403564453e-01 7.749133586883544922e+00 2.485623121261596680e+00 -1.382556200027465820e+00
1.095000000000000000e+03 4.596582412719726562e+01 1.060156106948852539e+00 1.515751123428344727e+00 1.030271434783935547e+01 3.545539617538452148e+00 3.933477103710174561e-01
1.096000000000000000e+03 4.536563491821289062e+01 5.588380813598632812e+00 1.330183386802673340e+00 1.269111824035644531e+01 4.206390380859375000e+00 1.063359618186950684e+00
1.097000000000000000e+03 4.389422988891601562e+01 5.651501655578613281e+00 9.741951823234558105e-01 1.435235118865966797e+01 4.597963809967041016e+00 6.507358551025390625e-01
1.098000000000000000e+03 1.933210754394531250e+01 2.745014905929565430e+00 -5.212599635124206543e-01 8.863704681396484375e+00 2.502733469009399414e+00 -1.233692914247512817e-01
1.099000000000000000e+03 1.824572181701660156e+01 5.751077651977539062e+00 -5.359573364257812500e-01 9.834712982177734375e+00 2.789626598358154297e+00 -1.207701921463012695e+00
1.100000000000000000e+03 3.717316436767578125e+01 1.712025260925292969e+01 -1.196529809385538101e-02 1.429754853248596191e+00 4.253368675708770752e-01 -7.236896157264709473e-01
1.101000000000000000e+03 3.497897720336914062e+01 1.906509590148925781e+01 -6.092110872268676758e-01 7.847238779067993164e-01 5.265382304787635803e-02 -3.016391992568969727e-01
1.102000000000000000e+03 5.110751342773437500e+01 5.721487104892730713e-02 1.852589726448059082e+00 5.959723591804504395e-01 7.345686554908752441e-01 -5.564608573913574219e-01
1.103000000000000000e+03 4.988956451416015625e+01 5.275232791900634766e-01 1.662566542625427246e+00 2.807406425476074219e+00 1.340991854667663574e+00 -1.679984450340270996e+00
1.104000000000000000e+03 7.928125000000000000e+01 -3.493662643432617188e+01 -1.432446390390396118e-02 8.999811172485351562e+00 2.695646047592163086e+00 -1.369594875723123550e-02
1.105000000000000000e+03 7.929244232177734375e+01 -2.790083885192871094e+01 -1.319406740367412567e-02 7.797427654266357422e+00 2.335270166397094727e+00 -2.441265732049942017e-01
1.106000000000000000e+03 7.812066650390625000e+01 3.304301452636718750e+01 -1.478866394609212875e-02 9.001260757446289062e+00 2.695941686630249023e+00 -7.898533344268798828e-02
1.107000000000000000e+03 7.924131774902343750e+01 3.606018829345703125e+01 -3.070419887080788612e-03 9.266812324523925781e+00 2.779122352600097656e+00 -6.604243069887161255e-02
1.108000000000000000e+03 7.934751892089843750e+01 -2.083639335632324219e+01 5.387650057673454285e-02 5.283515930175781250e+00 1.601217746734619141e+00 -1.688733249902725220e-01
1.109000000000000000e+03 7.790752410888671875e+01 -2.799453735351562500e+01 -1.064486205577850342e-01 7.758259296417236328e+00 2.295543193817138672e+00 -5.918586850166320801e-01
1.110000000000000000e+03 7.786921691894531250e+01 -2.653483772277832031e+01 -5.446305871009826660e-02 7.441093444824218750e+00 2.215989112854003906e+00 -7.004748582839965820e-01
1.111000000000000000e+03 7.929252624511718750e+01 -3.072565269470214844e+01 -1.645189523696899414e-02 8.528040885925292969e+00 2.553476810455322266e+00 -1.435537338256835938e-01
1.112000000000000000e+03 7.792112731933593750e+01 -3.372783279418945312e+01 -9.077291190624237061e-02 8.422275543212890625e+00 2.499450683593750000e+00 -1.764801591634750366e-01
1.113000000000000000e+03 7.212925720214843750e+01 -3.513368988037109375e+01 -3.219776749610900879e-01 6.573488235473632812e+00 1.875453233718872070e+00 1.176662668585777283e-01
1.114000000000000000e+03 7.829833221435546875e+01 -3.792319869995117188e+01 -3.949229046702384949e-02 8.614524841308593750e+00 2.572509765625000000e+00 5.944103002548217773e-02
1.115000000000000000e+03 7.708190917968750000e+01 -3.874209594726562500e+01 -8.608400821685791016e-02 8.471636772155761719e+00 2.515665769577026367e+00 6.601511687040328979e-02
1.116000000000000000e+03 7.808771514892578125e+01 1.404763507843017578e+01 9.813095629215240479e-02 6.627140522003173828e+00 2.017581462860107422e+00 1.452949922531843185e-02
1.117000000000000000e+03 7.936068725585937500e+01 1.536585903167724609e+01 -2.534636668860912323e-02 5.982384204864501953e+00 1.787111282348632812e+00 7.849162817001342773e-02
1.118000000000000000e+03 7.803248596191406250e+01 2.106527709960937500e+01 5.944820120930671692e-03 7.799144744873046875e+00 2.341526985168457031e+00 6.735239624977111816e-01
1.119000000000000000e+03 7.933934783935546875e+01 2.235195350646972656e+01 -1.222483720630407333e-02 8.070103645324707031e+00 2.417363643646240234e+00 2.546920180320739746e-01
1.120000000000000000e+03 7.832604980468750000e+01 3.176940917968750000e+01 -4.027912020683288574e-02 9.133412361145019531e+00 2.727939844131469727e+00 -3.632268309593200684e-02
1.121000000000000000e+03 7.944451904296875000e+01 2.790845298767089844e+01 -3.995423391461372375e-02 9.481534004211425781e+00 2.832473754882812500e+00 8.100669831037521362e-02
1.122000000000000000e+03 7.807252502441406250e+01 2.529917907714843750e+01 -1.031550914049148560e-01 8.700838088989257812e+00 2.579304933547973633e+00 4.403157830238342285e-01
1.123000000000000000e+03 7.801182556152343750e+01 2.387804031372070312e+01 -1.009995043277740479e-01 8.449831962585449219e+00 2.504649639129638672e+00 5.592705011367797852e-01
1.124000000000000000e+03 7.808067321777343750e+01 1.824489402770996094e+01 1.459566354751586914e-01 7.091329574584960938e+00 2.171185970306396484e+00 5.024219751358032227e-01
1.125000000000000000e+03 7.807796478271484375e+01 1.543467235565185547e+01 1.970598548650741577e-01 6.685172080993652344e+00 2.064669609069824219e+00 1.833025366067886353e-01
1.126000000000000000e+03 7.807701110839843750e+01 1.683898925781250000e+01 9.850472211837768555e-02 6.866307258605957031e+00 2.089443683624267578e+00 3.894835412502288818e-01
1.127000000000000000e+03 7.810416412353515625e+01 1.267700672149658203e+01 1.782752722501754761e-01 6.633541107177734375e+00 2.043545007705688477e+00 -1.581652164459228516e-01
1.128000000000000000e+03 7.681838226318359375e+01 1.140892410278320312e+01 2.441341876983642578e-01 7.188041687011718750e+00 2.229652643203735352e+00 -3.573665916919708252e-01
1.129000000000000000e+03 7.808418273925781250e+01 8.522093772888183594e+00 -1.169708929955959320e-02 7.127400398254394531e+00 2.134711027145385742e+00 -4.407989978790283203e-01
1.130000000000000000e+03 7.936325836181640625e+01 9.811565399169921875e+00 -3.307327628135681152e-02 6.513735771179199219e+00 1.944198727607727051e+00 -1.515015810728073120e-01
1.131000000000000000e+03 7.813088226318359375e+01 3.102581501007080078e-01 -7.295930385589599609e-02 8.076901435852050781e+00 2.401182651519775391e+00 -1.078571081161499023e-01
1.132000000000000000e+03 7.938677215576171875e+01 1.491588592529296875e+00 -2.298246696591377258e-02 8.290698051452636719e+00 2.480314731597900391e+00 -6.372535973787307739e-02
1.133000000000000000e+03 7.681791687011718750e+01 7.211996555328369141e+00 -5.589653179049491882e-02 7.481707572937011719e+00 2.227743387222290039e+00 -5.829724669456481934e-01
1.134000000000000000e+03 7.935985565185546875e+01 -1.944300270080566406e+01 1.482351031154394150e-02 5.004313468933105469e+00 1.505741119384765625e+00 -9.086858481168746948e-02
1.135000000000000000e+03 7.934313201904296875e+01 -1.386892032623291016e+01 -6.032920908182859421e-03 5.661960124969482422e+00 1.696778178215026855e+00 2.239467501640319824e-01
1.136000000000000000e+03 7.932626342773437500e+01 -6.882175922393798828e+00 -1.050240080803632736e-02 7.877578735351562500e+00 2.360122919082641602e+00 1.482263505458831787e-01
1.137000000000000000e+03 7.846812438964843750e+01 2.929718971252441406e+01 -7.103227078914642334e-02 9.176732063293457031e+00 2.731709957122802734e+00 6.678359210491180420e-02
1.138000000000000000e+03 7.448947906494140625e+01 3.665884399414062500e+01 2.670012041926383972e-02 7.518171310424804688e+00 2.263461351394653320e+00 -1.538409888744354248e-01
1.139000000000000000e+03 7.808850097656250000e+01 9.923113822937011719e+00 8.677069842815399170e-02 6.911939620971679688e+00 2.099613189697265625e+00 -3.718810677528381348e-01
1.140000000000000000e+03 7.689028930664062500e+01 5.208994746208190918e-01 -1.344239711761474609e-01 7.824394702911376953e+00 2.306991338729858398e+00 -1.552721112966537476e-01
1.141000000000000000e+03 7.818344879150390625e+01 3.051936864852905273e+00 -7.335509359836578369e-02 7.887247562408447266e+00 2.344167709350585938e+00 -2.574842870235443115e-01
1.142000000000000000e+03 7.809095001220703125e+01 -1.078978896141052246e+00 -5.898505449295043945e-02 8.098787307739257812e+00 2.411940574645996094e+00 -2.161654829978942871e-02
1.143000000000000000e+03 7.935291290283203125e+01 -2.685838460922241211e+00 -1.420227438211441040e-02 8.422185897827148438e+00 2.522394895553588867e+00 3.368588164448738098e-02
1.144000000000000000e+03 7.797801971435546875e+01 -8.119709014892578125e+00 -7.126827538013458252e-02 7.523173332214355469e+00 2.235571622848510742e+00 4.715618491172790527e-01
1.145000000000000000e+03 7.797233581542968750e+01 -5.301647186279296875e+00 -9.059397876262664795e-02 7.901439189910888672e+00 2.343253612518310547e+00 2.666534185409545898e-01
1.146000000000000000e+03 7.934192657470703125e+01 -9.668738365173339844e+00 1.312195090577006340e-03 7.130022525787353516e+00 2.139400482177734375e+00 2.125981003046035767e-01
1.147000000000000000e+03 7.801876831054687500e+01 -1.516663837432861328e+01 1.228023767471313477e-01 6.097658157348632812e+00 1.866138219833374023e+00 4.480258524417877197e-01
1.148000000000000000e+03 7.806360626220703125e+01 -1.231237220764160156e+01 -3.056485904380679131e-03 6.665022373199462891e+00 1.998589754104614258e+00 6.316535472869873047e-01
1.149000000000000000e+03 7.935609436035156250e+01 -1.666876602172851562e+01 1.034011039882898331e-02 4.996014118194580078e+00 1.501906275749206543e+00 9.522556513547897339e-02
1.150000000000000000e+03 7.806450653076171875e+01 -1.930718421936035156e+01 1.955637782812118530e-01 5.882229804992675781e+00 1.823338150978088379e+00 -1.978895068168640137e-01
1.151000000000000000e+03 4.889640426635742188e+01 2.104467010498046875e+01 -1.792680770158767700e-01 6.740283966064453125e+00 1.968304753303527832e+00 9.509374499320983887e-01
1.152000000000000000e+03 5.147291564941406250e+01 1.886103439331054688e+01 2.196855306625366211e+00 7.904242515563964844e+00 3.030329227447509766e+00 3.777217388153076172e+00
1.153000000000000000e+03 4.837027359008789062e+01 2.224982261657714844e+00 1.420692563056945801e+00 8.495280265808105469e+00 2.974792003631591797e+00 -1.797699213027954102e+00
1.154000000000000000e+03 5.652988433837890625e+01 2.203223419189453125e+01 -1.911996483802795410e+00 2.899479866027832031e-01 -4.866145551204681396e-01 1.855355650186538696e-01
1.155000000000000000e+03 5.185665893554687500e+01 2.296173477172851562e+01 -9.507170319557189941e-01 4.919501781463623047e+00 1.190635442733764648e+00 1.657195806503295898e+00
1.156000000000000000e+03 6.118770217895507812e+01 2.286803817749023438e+01 -4.459768295288085938e+00 -2.838617563247680664e-01 -1.423088908195495605e+00 3.549801409244537354e-01
1.157000000000000000e+03 6.253920364379882812e+01 2.256340789794921875e+01 -4.280784130096435547e+00 -8.094342052936553955e-02 -1.308518171310424805e+00 5.896319150924682617e-01
1.158000000000000000e+03 4.860782623291015625e+01 -8.508684635162353516e-01 9.137084484100341797e-01 5.430293560028076172e+00 1.903200626373291016e+00 -8.609877228736877441e-01
1.159000000000000000e+03 4.365715789794921875e+01 4.085279464721679688e+00 1.075944781303405762e+00 1.514042568206787109e+01 4.864911079406738281e+00 1.418488025665283203e+00
1.160000000000000000e+03 6.522451019287109375e+01 2.185962486267089844e+01 -2.694872856140136719e+00 3.884232938289642334e-01 -6.919348239898681641e-01 3.798994049429893494e-02
1.161000000000000000e+03 6.643904113769531250e+01 2.141604232788085938e+01 -7.003723978996276855e-01 3.001671075820922852e+00 6.903896331787109375e-01 -1.434955239295959473e+00
1.162000000000000000e+03 6.911093902587890625e+01 2.207383537292480469e+01 -1.520785689353942871e+00 9.298344612121582031e+00 2.333267688751220703e+00 -4.656498134136199951e-01
1.163000000000000000e+03 6.840232849121093750e+01 1.684205245971679688e+01 -1.915647536516189575e-01 1.390644645690917969e+01 4.114464282989501953e+00 2.615201175212860107e-01
1.164000000000000000e+03 7.075332641601562500e+01 1.518058586120605469e+01 1.348116517066955566e+00 1.087818336486816406e+01 3.667890071868896484e+00 5.120483636856079102e-01
1.165000000000000000e+03 4.947617721557617188e+01 1.809915733337402344e+01 1.268176913261413574e+00 8.104084014892578125e+00 2.811678171157836914e+00 2.146691560745239258e+00
1.166000000000000000e+03 5.852107238769531250e+01 1.091389894485473633e+00 1.104265451431274414e+00 3.310674130916595459e-01 4.305998682975769043e-01 4.087117016315460205e-01
1.167000000000000000e+03 6.710614776611328125e+01 8.533296585083007812e+00 6.239715814590454102e-01 7.097938537597656250e+00 2.316572904586791992e+00 2.093269348144531250e+00
1.168000000000000000e+03 6.939395904541015625e+01 1.406284236907958984e+01 1.617813229560852051e+00 1.196770000457763672e+01 4.075654029846191406e+00 1.121226787567138672e+00
1.169000000000000000e+03 4.545320129394531250e+01 4.170901775360107422e+00 1.462028741836547852e+00 1.277535915374755859e+01 4.271216392517089844e+00 1.101157426834106445e+00
1.170000000000000000e+03 6.462319946289062500e+01 2.520694160461425781e+01 -1.170703172683715820e+00 2.087176799774169922e+00 2.749420702457427979e-01 -1.365195155143737793e+00
1.171000000000000000e+03 6.004523086547851562e+01 3.997210264205932617e+00 3.920481801033020020e-01 4.067918360233306885e-01 2.396519929170608521e-01 3.571299314498901367e-01
1.172000000000000000e+03 5.410035705566406250e+01 -1.048703670501708984e+00 1.793888211250305176e+00 2.234650552272796631e-01 6.052059531211853027e-01 3.366031646728515625e-01
1.173000000000000000e+03 5.571371459960937500e+01 -5.564823150634765625e-01 1.621505618095397949e+00 1.455937623977661133e-01 5.301297903060913086e-01 3.038186728954315186e-01
1.174000000000000000e+03 5.019845962524414062e+01 -6.158987045288085938e+00 -1.223910152912139893e-01 3.131250143051147461e+00 9.026577472686767578e-01 9.454699158668518066e-01
1.175000000000000000e+03 5.368967437744140625e+01 -6.383746147155761719e+00 -2.316123247146606445e-02 -1.622615754604339600e-01 -5.562684312462806702e-02 6.495209038257598877e-02
1.176000000000000000e+03 5.853589630126953125e+01 2.412397003173828125e+01 -1.597945690155029297e+00 3.631888031959533691e-01 -3.704270720481872559e-01 9.777181744575500488e-01
1.177000000000000000e+03 5.592833709716796875e+01 2.342644500732421875e+01 -1.050748109817504883e+00 1.082566738128662109e+00 9.545588865876197815e-03 1.373368263244628906e+00
1.178000000000000000e+03 4.696120452880859375e+01 6.831972599029541016e+00 8.317381143569946289e-01 1.215482807159423828e+01 3.895969629287719727e+00 1.541580319404602051e+00
1.179000000000000000e+03 4.774266433715820312e+01 1.102468490600585938e+01 8.054137825965881348e-01 1.163249588012695312e+01 3.731372833251953125e+00 2.335781574249267578e+00
1.180000000000000000e+03 5.464867019653320312e+01 2.308241844177246094e+01 -5.484144091606140137e-01 2.336688518524169922e+00 5.364822149276733398e-01 2.121407032012939453e+00
1.181000000000000000e+03 6.401126098632812500e+01 5.758305549621582031e+00 6.430482864379882812e-01 2.539553642272949219e+00 9.547805786132812500e-01 1.370879173278808594e+00
1.182000000000000000e+03 6.912627410888671875e+01 1.003409767150878906e+01 8.063220977783203125e-01 8.655892372131347656e+00 2.838664293289184570e+00 8.749824166297912598e-01
1.183000000000000000e+03 5.040098953247070312e+01 2.053637123107910156e+01 2.784285843372344971e-01 6.715036392211914062e+00 2.098039388656616211e+00 1.480220079421997070e+00
1.184000000000000000e+03 4.866066360473632812e+01 1.982131767272949219e+01 2.618207335472106934e-01 7.072464942932128906e+00 2.200285673141479492e+00 1.013453722000122070e+00
1.185000000000000000e+03 6.505707550048828125e+01 6.697145462036132812e+00 6.701140999794006348e-01 3.721463918685913086e+00 1.317473411560058594e+00 1.752983212471008301e+00
1.186000000000000000e+03 4.818978881835937500e+01 1.382419204711914062e+01 9.866446256637573242e-01 1.044690513610839844e+01 3.430064916610717773e+00 2.274767875671386719e+00
1.187000000000000000e+03 6.887297821044921875e+01 8.178680419921875000e+00 2.168097645044326782e-01 7.722939014434814453e+00 2.381924629211425781e+00 8.828299641609191895e-01
1.188000000000000000e+03 4.838751220703125000e+01 1.532426548004150391e+01 9.175491333007812500e-01 9.737638473510742188e+00 3.196556091308593750e+00 2.197448492050170898e+00
1.189000000000000000e+03 6.079496002197265625e+01 2.957022905349731445e+00 6.477037668228149414e-01 8.780411481857299805e-01 4.577234685420989990e-01 6.175737380981445312e-01
1.190000000000000000e+03 6.609112548828125000e+01 7.628062725067138672e+00 7.011415362358093262e-01 5.028717517852783203e+00 1.718957662582397461e+00 2.009200572967529297e+00
1.191000000000000000e+03 4.882060241699218750e+01 1.678841018676757812e+01 1.186530232429504395e+00 8.863648414611816406e+00 3.015053749084472656e+00 2.255878686904907227e+00
1.192000000000000000e+03 4.797609329223632812e+01 1.240276336669921875e+01 9.587932825088500977e-01 1.109831142425537109e+01 3.617131471633911133e+00 2.463417530059814453e+00
1.193000000000000000e+03 5.917320251464843750e+01 4.619870707392692566e-02 1.209100484848022461e+00 4.903518557548522949e-01 5.098357200622558594e-01 2.969930768013000488e-01
1.194000000000000000e+03 6.951550292968750000e+01 1.535231876373291016e+01 1.052764892578125000e+00 1.214143943786621094e+01 3.958261251449584961e+00 1.149016857147216797e+00
1.195000000000000000e+03 1.459896922111511230e+00 -3.992168045043945312e+01 -3.687850013375282288e-02 3.744393110275268555e+00 1.112254381179809570e+00 -3.270315751433372498e-02
1.196000000000000000e+03 7.833438515663146973e-01 3.732345962524414062e+01 -1.107387151569128036e-02 2.559184312820434570e+00 7.644330859184265137e-01 -4.632753133773803711e-02
1.197000000000000000e+03 6.928713917732238770e-01 3.457949829101562500e+01 -1.312252599745988846e-02 2.333022356033325195e+00 6.959699392318725586e-01 -7.037535309791564941e-02
1.198000000000000000e+03 6.759479045867919922e-01 3.318839263916015625e+01 -5.031640641391277313e-03 2.171343326568603516e+00 6.498934626579284668e-01 -9.056453406810760498e-02
1.199000000000000000e+03 6.816469430923461914e-01 2.755208969116210938e+01 -6.801326759159564972e-03 1.089779376983642578e+00 3.248934149742126465e-01 -1.708655059337615967e-01
1.200000000000000000e+03 6.858946681022644043e-01 2.613536643981933594e+01 -8.893566206097602844e-03 7.237454652786254883e-01 2.144555747509002686e-01 -1.868463903665542603e-01
1.201000000000000000e+03 6.043685674667358398e-01 -3.612591934204101562e+01 2.336491085588932037e-02 3.717573165893554688e+00 1.122281432151794434e+00 5.212474241852760315e-02
1.202000000000000000e+03 2.360762357711791992e+00 -3.344830322265625000e+01 -1.284453570842742920e-01 3.208132982254028320e+00 9.239063262939453125e-01 3.241893947124481201e-01
1.203000000000000000e+03 3.485802650451660156e+00 2.574564552307128906e+01 -8.099831640720367432e-02 1.392511010169982910e+00 3.934538066387176514e-01 -7.923715114593505859e-01
1.204000000000000000e+03 3.449954271316528320e+00 2.426321983337402344e+01 -3.833467885851860046e-02 1.131891727447509766e+00 3.280670940876007080e-01 -8.410796523094177246e-01
1.205000000000000000e+03 2.116276741027832031e+00 3.430219268798828125e+01 -4.067362844944000244e-02 2.315517663955688477e+00 6.824532151222229004e-01 -2.191545218229293823e-01
1.206000000000000000e+03 2.056295394897460938e+00 3.294551467895507812e+01 -4.928585141897201538e-02 2.177956819534301758e+00 6.386012434959411621e-01 -2.608589828014373779e-01
1.207000000000000000e+03 3.511946201324462891e+00 3.890517425537109375e+01 -6.911629438400268555e-02 2.602472305297851562e+00 7.600068449974060059e-01 -1.373933106660842896e-01
1.208000000000000000e+03 1.901162743568420410e+00 -2.922748947143554688e+01 -7.225131243467330933e-02 2.491487503051757812e+00 7.257708311080932617e-01 5.834203958511352539e-01
1.209000000000000000e+03 1.890936851501464844e+00 -2.653055191040039062e+01 -6.387677788734436035e-02 1.727761864662170410e+00 4.991655349731445312e-01 7.511795163154602051e-01
1.210000000000000000e+03 1.917318344116210938e+00 -1.664345932006835938e+01 1.394607275724411011e-01 -9.605666995048522949e-01 -2.463317960500717163e-01 1.430444568395614624e-01
1.211000000000000000e+03 1.699572086334228516e+00 -3.645946884155273438e+01 -5.063038319349288940e-02 3.579380512237548828e+00 1.058624982833862305e+00 1.040488183498382568e-01
1.212000000000000000e+03 6.495566964149475098e-01 2.047172737121582031e+01 8.910793811082839966e-03 -9.285067319869995117e-01 -2.758787870407104492e-01 -1.883224397897720337e-01
1.213000000000000000e+03 6.354948282241821289e-01 1.905776214599609375e+01 7.105552125722169876e-03 -1.323290824890136719e+00 -3.948555886745452881e-01 -1.700066328048706055e-01
1.214000000000000000e+03 5.972444415092468262e-01 1.482461929321289062e+01 1.857423968613147736e-02 -2.205420255661010742e+00 -6.560537815093994141e-01 -7.532862573862075806e-02
1.215000000000000000e+03 5.910515189170837402e-01 1.342005920410156250e+01 1.466041337698698044e-02 -2.332736730575561523e+00 -6.954228878021240234e-01 -3.467480838298797607e-02
1.216000000000000000e+03 5.282837152481079102e-01 7.790874958038330078e+00 8.858461864292621613e-03 -1.832815885543823242e+00 -5.471872091293334961e-01 1.229603737592697144e-01
1.217000000000000000e+03 5.359816074371337891e+00 -4.018419647216796875e+01 -1.030958369374275208e-01 3.083062648773193359e+00 8.939899802207946777e-01 1.350186020135879517e-01
1.218000000000000000e+03 3.872652530670166016e+00 -3.860938644409179688e+01 -1.012465283274650574e-01 3.408844232559204102e+00 9.922792911529541016e-01 1.460214257240295410e-01
1.219000000000000000e+03 3.901864528656005859e+00 -3.574211883544921875e+01 -1.867834329605102539e-01 3.269638776779174805e+00 9.248566031455993652e-01 2.821359336376190186e-01
1.220000000000000000e+03 2.084539413452148438e+00 -3.195885276794433594e+01 -7.050403952598571777e-02 3.023874998092651367e+00 8.860113024711608887e-01 4.197473227977752686e-01
1.221000000000000000e+03 1.891117572784423828e+00 -2.788151741027832031e+01 -7.835104316473007202e-02 2.118835926055908203e+00 6.121454834938049316e-01 6.679349541664123535e-01
1.222000000000000000e+03 3.196913957595825195e+00 -2.673576545715332031e+01 -1.590435653924942017e-01 2.180446386337280273e+00 6.064208745956420898e-01 1.073210716247558594e+00
1.223000000000000000e+03 1.911656260490417480e+00 -2.232969474792480469e+01 3.599389642477035522e-02 3.278136849403381348e-01 1.091422736644744873e-01 8.163925409317016602e-01
1.224000000000000000e+03 1.886040925979614258e+00 -2.516039085388183594e+01 -4.003721103072166443e-02 1.273002266883850098e+00 3.698895275592803955e-01 8.267712593078613281e-01
1.225000000000000000e+03 1.923219680786132812e+00 -1.947695541381835938e+01 1.420020908117294312e-01 -5.031486749649047852e-01 -1.083439663052558899e-01 5.469075441360473633e-01
1.226000000000000000e+03 6.397843360900878906e-01 -1.927598762512207031e+01 4.031302034854888916e-02 -1.839049100875854492e+00 -5.396208167076110840e-01 1.912939399480819702e-01
1.227000000000000000e+03 1.828394532203674316e+00 -1.232922744750976562e+01 5.755538120865821838e-02 -9.856563210487365723e-01 -2.784302830696105957e-01 -2.488486319780349731e-01
1.228000000000000000e+03 6.118615865707397461e-01 -1.218718528747558594e+01 -6.088440306484699249e-03 -1.997175574302673340e+00 -6.009792089462280273e-01 -9.787668287754058838e-02
1.229000000000000000e+03 3.080904722213745117e+00 -3.168669223785400391e+00 -7.872821390628814697e-02 -5.432037636637687683e-02 -3.991457819938659668e-02 -3.225454390048980713e-01
1.230000000000000000e+03 1.392568588256835938e+00 -3.544302225112915039e+00 -2.308884449303150177e-02 -2.808851301670074463e-01 -9.119218587875366211e-02 -2.163427919149398804e-01
1.231000000000000000e+03 5.476996302604675293e-01 -5.039676189422607422e+00 -8.316504769027233124e-03 -6.476134657859802246e-01 -1.967789828777313232e-01 -1.009109020233154297e-01
1.232000000000000000e+03 5.128302574157714844e-01 4.938311100006103516e+00 -4.480897914618253708e-03 -9.844026565551757812e-01 -2.966650724411010742e-01 1.692960113286972046e-01
1.233000000000000000e+03 4.267937660217285156e+00 4.496777534484863281e+00 -1.729701831936836243e-02 -2.601503133773803711e-01 -8.323419839143753052e-02 7.865159511566162109e-01
1.234000000000000000e+03 1.702638745307922363e+00 1.043621826171875000e+01 8.382470905780792236e-02 -1.546386718750000000e+00 -4.387685954570770264e-01 1.427953094244003296e-01
1.235000000000000000e+03 5.686935782432556152e-01 1.060377502441406250e+01 1.403655670583248138e-02 -2.292730569839477539e+00 -6.836081743240356445e-01 4.535660892724990845e-02
1.236000000000000000e+03 1.770914912223815918e+00 1.323455047607421875e+01 7.982467114925384521e-02 -1.504052162170410156e+00 -4.272682368755340576e-01 -8.441003412008285522e-02
1.237000000000000000e+03 1.952795863151550293e+00 2.023818206787109375e+01 2.366326935589313507e-02 -3.146228492259979248e-01 -8.728788048028945923e-02 -5.118573307991027832e-01
1.238000000000000000e+03 1.903153657913208008e+00 1.882463073730468750e+01 4.275916889309883118e-02 -6.401135921478271484e-01 -1.792063266038894653e-01 -4.644135534763336182e-01
1.239000000000000000e+03 2.050558567047119141e+00 2.449009132385253906e+01 -1.862591877579689026e-02 6.985710859298706055e-01 2.039835602045059204e-01 -5.489910840988159180e-01
1.240000000000000000e+03 1.411270332336425781e+01 1.541203022003173828e+00 5.182551741600036621e-01 4.630989074707031250e+00 1.544773340225219727e+00 -3.555088996887207031e+00
1.241000000000000000e+03 1.521043777465820312e+01 9.587752223014831543e-01 4.698389470577239990e-01 9.167304992675781250e+00 2.891143083572387695e+00 -5.020679950714111328e+00
1.242000000000000000e+03 1.510482788085937500e+01 1.416797041893005371e+00 -1.742094568908214569e-02 8.610010147094726562e+00 2.577776908874511719e+00 -4.389136314392089844e+00
1.243000000000000000e+03 1.570552158355712891e+01 1.457148075103759766e+00 -6.136251091957092285e-01 1.155935192108154297e+01 3.283717870712280273e+00 -3.989570856094360352e+00
1.244000000000000000e+03 1.649345207214355469e+01 7.519782066345214844e+00 2.331784069538116455e-01 9.220724105834960938e+00 2.836170673370361328e+00 -1.223451137542724609e+00
1.245000000000000000e+03 1.473273181915283203e+01 -2.632283926010131836e+00 5.567965030670166016e+00 4.849038124084472656e+00 3.125101089477539062e+00 5.456771850585937500e+00
1.246000000000000000e+03 1.399309635162353516e+01 -3.237833499908447266e+00 4.022488117218017578e+00 3.255238771438598633e+00 2.183318138122558594e+00 4.402087211608886719e+00
1.247000000000000000e+03 1.348299884796142578e+01 -2.918215751647949219e+00 3.862222909927368164e+00 1.491410374641418457e+00 1.606089949607849121e+00 3.158215999603271484e+00
1.248000000000000000e+03 1.321072673797607422e+01 -3.169824123382568359e+00 3.497371912002563477e+00 1.528860807418823242e+00 1.507869839668273926e+00 3.122750043869018555e+00
1.249000000000000000e+03 1.211924934387207031e+01 -2.602600812911987305e+00 2.199532985687255859e+00 4.171437025070190430e-01 7.850030064582824707e-01 1.484990239143371582e+00
1.250000000000000000e+03 1.260282993316650391e+01 -3.041944742202758789e+00 2.867861747741699219e+00 9.177927970886230469e-01 1.135696411132812500e+00 2.362883567810058594e+00
1.251000000000000000e+03 1.152604484558105469e+01 -2.573647022247314453e+00 1.634205579757690430e+00 3.138172924518585205e-01 5.844068527221679688e-01 1.173362255096435547e+00
1.252000000000000000e+03 1.582542228698730469e+01 -3.354679822921752930e+00 2.323014020919799805e+00 1.145008277893066406e+01 4.131928920745849609e+00 3.745798110961914062e+00
1.253000000000000000e+03 9.463500976562500000e+00 -2.538766860961914062e+00 4.442457556724548340e-01 2.983613014221191406e-01 2.227821201086044312e-01 4.976509511470794678e-01
1.254000000000000000e+03 9.507000923156738281e+00 -3.221899271011352539e+00 6.862631440162658691e-01 4.998852610588073730e-01 3.558445274829864502e-01 7.562166452407836914e-01
1.255000000000000000e+03 1.179157161712646484e+01 2.595157861709594727e+00 -1.648853346705436707e-02 1.553946733474731445e+00 4.612374603748321533e-01 -1.074803471565246582e+00
1.256000000000000000e+03 1.331302928924560547e+01 1.174010872840881348e+00 1.283874511718750000e-01 1.890046834945678711e+00 6.055302619934082031e-01 -2.038605690002441406e+00
1.257000000000000000e+03 1.088393592834472656e+01 -3.139950275421142578e+00 1.392911553382873535e+00 5.413782596588134766e-01 5.802869200706481934e-01 1.284228801727294922e+00
1.258000000000000000e+03 1.209241104125976562e+01 -3.092453241348266602e+00 2.345096111297607422e+00 7.406844496726989746e-01 9.257341623306274414e-01 1.977567672729492188e+00
1.259000000000000000e+03 7.989050865173339844e+00 3.321612358093261719e+00 -2.574843168258666992e-01 2.138751745223999023e-01 -1.308274082839488983e-02 5.832449197769165039e-01
1.260000000000000000e+03 6.426979541778564453e+00 3.407252073287963867e+00 -2.921508550643920898e-01 2.634828165173530579e-02 -7.974077016115188599e-02 7.790721058845520020e-01
1.261000000000000000e+03 4.905045032501220703e+00 3.500566244125366211e+00 -2.362177371978759766e-01 -1.293817758560180664e-01 -1.096798554062843323e-01 8.046986460685729980e-01
1.262000000000000000e+03 3.408674955368041992e+00 2.822248458862304688e+00 -2.752408087253570557e-01 -2.343751341104507446e-01 -1.528847813606262207e-01 6.386547684669494629e-01
1.263000000000000000e+03 4.171980381011962891e+00 2.758972644805908203e+00 -3.678063154220581055e-01 -1.626160889863967896e-01 -1.591267138719558716e-01 7.095665335655212402e-01
1.264000000000000000e+03 4.943294048309326172e+00 2.703933954238891602e+00 -4.657353758811950684e-01 -1.083981245756149292e-01 -1.722400486469268799e-01 7.508650422096252441e-01
1.265000000000000000e+03 5.662401676177978516e+00 3.442219018936157227e+00 -2.747631967067718506e-01 -6.101162359118461609e-02 -1.007324457168579102e-01 8.053025007247924805e-01
1.266000000000000000e+03 4.528844654560089111e-01 3.509718894958496094e+00 -2.255461364984512329e-02 -5.528942942619323730e-01 -1.726346611976623535e-01 1.351790130138397217e-01
1.267000000000000000e+03 1.039471817016601562e+01 2.421557664871215820e+00 -5.224900245666503906e-01 4.977128803730010986e-01 -7.433147635310888290e-03 -1.185716167092323303e-01
1.268000000000000000e+03 9.537717819213867188e+00 3.185738086700439453e+00 -1.454029083251953125e-01 5.455283522605895996e-01 1.200376376509666443e-01 1.385139077901840210e-01
1.269000000000000000e+03 1.094268798828125000e+01 3.081564903259277344e+00 3.679639473557472229e-02 1.271399855613708496e+00 3.924588859081268311e-01 -6.254568696022033691e-01
1.270000000000000000e+03 1.147966766357421875e+01 3.148637533187866211e+00 1.142120137810707092e-01 1.663682103157043457e+00 5.333682298660278320e-01 -9.412117004394531250e-01
1.271000000000000000e+03 5.507323265075683594e+00 -2.773434877395629883e+00 -1.100770011544227600e-01 1.335625648498535156e-01 7.045668549835681915e-03 -1.867485940456390381e-01
1.272000000000000000e+03 7.208027839660644531e+00 -3.434456348419189453e+00 1.348483264446258545e-01 3.900139033794403076e-01 1.574586778879165649e-01 1.473017781972885132e-01
1.273000000000000000e+03 4.705389499664306641e+00 -2.859584569931030273e+00 -1.268179416656494141e-01 9.710584580898284912e-02 -8.913626894354820251e-03 -2.644489407539367676e-01
1.274000000000000000e+03 6.425885200500488281e+00 -3.517560958862304688e+00 6.286489963531494141e-02 3.215657770633697510e-01 1.153292059898376465e-01 -1.193212252110242844e-02
1.275000000000000000e+03 5.649709224700927734e+00 -3.608537673950195312e+00 -4.677364602684974670e-03 2.633411586284637451e-01 7.759913802146911621e-02 -1.408180892467498779e-01
1.276000000000000000e+03 1.772952437400817871e+00 -6.548816680908203125e+00 -2.478081732988357544e-03 -4.955949783325195312e-01 -1.494219154119491577e-01 -2.726771831512451172e-01
1.277000000000000000e+03 2.253836393356323242e+00 -3.382215023040771484e+00 -4.397976770997047424e-02 -1.894722580909729004e-01 -7.003560662269592285e-02 -2.934345901012420654e-01
1.278000000000000000e+03 4.056894302368164062e+00 -7.102543354034423828e+00 -6.889703683555126190e-03 3.941142857074737549e-01 1.161673739552497864e-01 -2.489062100648880005e-01
1.279000000000000000e+03 1.636545181274414062e+00 -5.001016616821289062e+00 1.239554956555366516e-03 -3.938606679439544678e-01 -1.177863329648971558e-01 -2.657262384891510010e-01
1.280000000000000000e+03 8.758178710937500000e+00 -3.283684492111206055e+00 4.551130235195159912e-01 4.694698154926300049e-01 2.773748636245727539e-01 5.442396402359008789e-01
1.281000000000000000e+03 1.027340221405029297e+01 3.113934040069580078e+00 -4.187368974089622498e-02 8.239979743957519531e-01 2.346372753381729126e-01 -2.441847622394561768e-01
1.282000000000000000e+03 1.783648490905761719e+01 -3.132881641387939453e+00 4.553485393524169922e+00 1.016588497161865234e+01 4.415811061859130859e+00 -2.351211071014404297e+00
1.283000000000000000e+03 1.631586837768554688e+01 -3.353834390640258789e+00 2.518351554870605469e+00 1.155107402801513672e+01 4.220827579498291016e+00 1.989426493644714355e+00
1.284000000000000000e+03 1.896408653259277344e+01 -1.083944201469421387e+00 6.981082439422607422e+00 7.235210418701171875e+00 4.264887809753417969e+00 -9.353975653648376465e-01
1.285000000000000000e+03 2.016710281372070312e+01 6.467576622962951660e-01 3.032555341720581055e+00 5.832593917846679688e+00 2.659544706344604492e+00 -5.142258405685424805e-01
1.286000000000000000e+03 1.740168380737304688e+01 -3.636796712875366211e+00 2.884277582168579102e+00 1.074079608917236328e+01 4.087522029876708984e+00 -1.203328251838684082e+00
1.287000000000000000e+03 5.884297180175781250e+01 -7.688912868499755859e+00 -2.347512096166610718e-01 2.254550009965896606e-01 -2.788860816508531570e-03 -1.296074315905570984e-02
1.288000000000000000e+03 2.052600288391113281e+01 -1.104547595977783203e+01 -2.246596574783325195e+00 8.995233178138732910e-01 -4.041219949722290039e-01 -6.525933742523193359e-01
1.289000000000000000e+03 2.106440353393554688e+01 -1.150409412384033203e+01 -2.233440876007080078e+00 9.586161375045776367e-01 -3.824474215507507324e-01 -7.371699810028076172e-01
1.290000000000000000e+03 1.975182342529296875e+01 -1.173531246185302734e+01 -3.539932012557983398e+00 1.021315336227416992e+00 -7.555850148200988770e-01 -3.180950880050659180e-01
1.291000000000000000e+03 5.982314682006835938e+01 -8.186302185058593750e+00 -1.972638964653015137e-01 2.859129309654235840e-01 2.659471146762371063e-02 -2.406920678913593292e-02
1.292000000000000000e+03 2.416215515136718750e+01 -1.515009284019470215e+00 3.266055822372436523e+00 6.613731980323791504e-01 1.178228735923767090e+00 -2.103824138641357422e+00
1.293000000000000000e+03 2.176709747314453125e+01 1.838199973106384277e+00 7.549293637275695801e-01 2.474757432937622070e+00 9.689060449600219727e-01 -5.155913233757019043e-01
1.294000000000000000e+03 2.392971420288085938e+01 -1.204645824432373047e+01 -1.380941987037658691e+00 7.428588271141052246e-01 -1.914249658584594727e-01 -1.068446159362792969e+00
1.295000000000000000e+03 2.520041465759277344e+01 -1.095883846282958984e+01 -1.774209290742874146e-01 1.008377790451049805e+00 2.492870539426803589e-01 -1.889222979545593262e+00
1.296000000000000000e+03 3.205350494384765625e+01 -1.373076438903808594e+01 2.528276681900024414e+00 2.253382205963134766e+00 1.434497714042663574e+00 -2.852965593338012695e+00
1.297000000000000000e+03 3.327289962768554688e+01 -1.202037620544433594e+01 1.765397787094116211e+00 2.942283630371093750e+00 1.412304520606994629e+00 -2.581711769104003906e+00
1.298000000000000000e+03 6.459977722167968750e+01 -2.734792900085449219e+01 -5.002637505531311035e-01 2.661760330200195312e+00 6.484490036964416504e-01 8.929469585418701172e-01
1.299000000000000000e+03 3.135956954956054688e+01 2.371636581420898438e+01 -7.753379344940185547e-01 5.369508862495422363e-01 -7.151612639427185059e-02 -3.755246996879577637e-01
1.300000000000000000e+03 6.292394638061523438e+01 -9.168120384216308594e+00 1.268758922815322876e-01 1.214690685272216797e+00 4.024699628353118896e-01 -8.277269601821899414e-01
1.301000000000000000e+03 2.016797828674316406e+01 -1.030872726440429688e+01 -2.010316133499145508e+00 1.365918159484863281e+00 -1.933193653821945190e-01 -8.024433851242065430e-01
1.302000000000000000e+03 2.632074928283691406e+01 -5.549182415008544922e+00 3.310957193374633789e+00 1.655484914779663086e+00 1.489932656288146973e+00 -2.525712490081787109e+00
1.303000000000000000e+03 3.920001983642578125e+01 -6.471034526824951172e+00 -9.688855409622192383e-01 5.112278461456298828e+00 1.243017792701721191e+00 1.795239329338073730e+00
1.304000000000000000e+03 6.153756332397460938e+01 1.951030969619750977e+00 7.614897489547729492e-01 1.341002821922302246e+00 6.307477951049804688e-01 6.449915766716003418e-01
1.305000000000000000e+03 6.263833999633789062e+01 2.887134313583374023e+00 5.561226606369018555e-01 1.930561423301696777e+00 7.460052371025085449e-01 8.473682403564453125e-01
1.306000000000000000e+03 6.478177642822265625e+01 4.759099960327148438e+00 3.052432239055633545e-01 3.516675472259521484e+00 1.146575570106506348e+00 1.311647057533264160e+00
1.307000000000000000e+03 6.294965744018554688e+01 4.819212913513183594e+00 5.508626103401184082e-01 1.843556404113769531e+00 7.183256745338439941e-01 1.029089808464050293e+00
1.308000000000000000e+03 1.776554489135742188e+01 -1.056604480743408203e+01 -2.682019233703613281e+00 4.836654663085937500e-01 -6.595061421394348145e-01 5.852519273757934570e-01
1.309000000000000000e+03 1.667047119140625000e+01 -1.098068904876708984e+01 -2.535662174224853516e+00 -2.661029994487762451e-01 -8.405295610427856445e-01 2.000202178955078125e+00
1.310000000000000000e+03 6.684748077392578125e+01 6.563999176025390625e+00 7.808941602706909180e-02 5.867007255554199219e+00 1.783529043197631836e+00 1.512904167175292969e+00
1.311000000000000000e+03 1.355738639831542969e+01 -2.706748390197753906e+01 -7.172734141349792480e-01 2.587114810943603516e+00 5.609524250030517578e-01 -4.787266552448272705e-01
1.312000000000000000e+03 3.886588668823242188e+01 -2.137384223937988281e+01 2.013717651367187500e+00 9.951786041259765625e+00 3.589651346206665039e+00 -4.057227373123168945e-01
1.313000000000000000e+03 4.391339111328125000e+01 -1.819036674499511719e+01 1.589694380760192871e+00 1.060169982910156250e+01 3.657418489456176758e+00 3.067392110824584961e-01
1.314000000000000000e+03 4.379938507080078125e+01 -1.963828659057617188e+01 1.860813856124877930e+00 1.064240264892578125e+01 3.750965118408203125e+00 -4.485543370246887207e-01
1.315000000000000000e+03 1.277990531921386719e+01 -2.618782806396484375e+01 -6.701818108558654785e-01 3.578203678131103516e+00 8.724065423011779785e-01 -4.545479714870452881e-01
1.316000000000000000e+03 6.516957092285156250e+01 -1.058803558349609375e+01 -1.387209147214889526e-01 3.304071664810180664e+00 9.496052265167236328e-01 -1.802526712417602539e+00
1.317000000000000000e+03 2.052228927612304688e+01 -3.515364456176757812e+01 -4.368788301944732666e-01 2.850400209426879883e-01 -4.555164277553558350e-02 -1.891222894191741943e-01
1.318000000000000000e+03 2.180433845520019531e+01 -3.181742286682128906e+01 -1.437952041625976562e+00 -1.229545474052429199e-01 -4.682719707489013672e-01 1.047108098864555359e-01
1.319000000000000000e+03 6.744448852539062500e+01 -2.602568244934082031e+01 -5.776857733726501465e-01 6.157995223999023438e+00 1.674092769622802734e+00 1.301542639732360840e+00
1.320000000000000000e+03 7.232591247558593750e+01 -2.367299842834472656e+01 1.532732099294662476e-01 8.578435897827148438e+00 2.619512796401977539e+00 -1.011198759078979492e+00
1.321000000000000000e+03 2.251053237915039062e+01 7.475095391273498535e-01 1.711001157760620117e+00 1.305239319801330566e+00 9.048721790313720703e-01 -9.054028987884521484e-01
1.322000000000000000e+03 3.805266571044921875e+01 1.802120018005371094e+01 -1.998787671327590942e-01 2.129399299621582031e+00 5.788561701774597168e-01 -9.553145766258239746e-01
1.323000000000000000e+03 2.622473716735839844e+01 2.649042701721191406e+01 -3.338986933231353760e-01 7.265433073043823242e-01 1.177933812141418457e-01 5.173873901367187500e-01
1.324000000000000000e+03 7.535349273681640625e+01 -1.640480041503906250e+01 7.706297039985656738e-01 7.300709247589111328e+00 2.421401739120483398e+00 4.191299676895141602e-01
1.325000000000000000e+03 4.768994140625000000e+01 -2.965055847167968750e+01 -1.440909206867218018e-01 5.778921127319335938e+00 1.690449118614196777e+00 -1.995530843734741211e+00
1.326000000000000000e+03 4.898967361450195312e+01 -2.871322441101074219e+01 9.166437983512878418e-01 4.693639278411865234e+00 1.683084845542907715e+00 -2.352106094360351562e+00
1.327000000000000000e+03 1.646134948730468750e+01 1.232575607299804688e+01 1.075364947319030762e+00 1.004266071319580078e+01 3.335407733917236328e+00 -1.074437618255615234e+00
1.328000000000000000e+03 1.784074783325195312e+01 9.778635978698730469e+00 9.892632961273193359e-01 1.143649673461914062e+01 3.727728128433227539e+00 -1.764194607734680176e+00
1.329000000000000000e+03 7.523911285400390625e+01 -3.287241744995117188e+01 -2.907780408859252930e-01 7.611492156982421875e+00 2.196214199066162109e+00 -2.851611673831939697e-01
1.330000000000000000e+03 7.790099334716796875e+01 -3.656813049316406250e+01 -5.176244303584098816e-02 8.581845283508300781e+00 2.559024810791015625e+00 6.430519372224807739e-02
1.331000000000000000e+03 7.511879730224609375e+01 -2.308200645446777344e+01 2.750756740570068359e-01 7.650519371032714844e+00 2.377678394317626953e+00 -1.122905135154724121e+00
1.332000000000000000e+03 7.792189025878906250e+01 -2.944338607788085938e+01 -1.023258566856384277e-01 8.000904083251953125e+00 2.369573354721069336e+00 -4.666435420513153076e-01
1.333000000000000000e+03 7.567424774169921875e+01 1.569232177734375000e+01 5.660203099250793457e-01 7.616610527038574219e+00 2.454789161682128906e+00 3.427153229713439941e-01
1.334000000000000000e+03 7.678656005859375000e+01 1.549004077911376953e+01 3.033425509929656982e-01 7.273676395416259766e+00 2.273105621337890625e+00 3.010852634906768799e-01
1.335000000000000000e+03 7.775447082519531250e+01 3.568629455566406250e+01 -2.553754113614559174e-02 8.815875053405761719e+00 2.637101173400878906e+00 -1.457722336053848267e-01
1.336000000000000000e+03 7.688794708251953125e+01 3.262607955932617188e+01 -7.420053333044052124e-02 8.561146736145019531e+00 2.546083927154541016e+00 -1.157306879758834839e-01
1.337000000000000000e+03 7.798267364501953125e+01 -2.211902999877929688e+01 1.263399869203567505e-01 6.381155490875244141e+00 1.952248692512512207e+00 -6.002908349037170410e-01
1.338000000000000000e+03 7.642851257324218750e+01 -2.348331069946289062e+01 1.212217733263969421e-01 7.230535507202148438e+00 2.205527067184448242e+00 -9.760920405387878418e-01
1.339000000000000000e+03 7.658924865722656250e+01 -3.108927726745605469e+01 -2.088049203157424927e-01 7.938787937164306641e+00 2.318994998931884766e+00 -4.377952516078948975e-01
1.340000000000000000e+03 7.786774444580078125e+01 -3.514154052734375000e+01 -1.013693809509277344e-01 8.544537544250488281e+00 2.532950639724731445e+00 -8.579377830028533936e-02
1.341000000000000000e+03 7.662377166748046875e+01 -2.961538314819335938e+01 -2.329118102788925171e-01 7.873516559600830078e+00 2.292181491851806641e+00 -6.004144549369812012e-01
1.342000000000000000e+03 7.647985076904296875e+01 -2.667377662658691406e+01 -1.777972280979156494e-01 7.648778915405273438e+00 2.241294622421264648e+00 -9.064598083496093750e-01
1.343000000000000000e+03 7.658635711669921875e+01 -2.815408515930175781e+01 -2.141728997230529785e-01 7.751657962799072266e+00 2.261245489120483398e+00 -7.505679726600646973e-01
1.344000000000000000e+03 7.666165924072265625e+01 -3.390233612060546875e+01 -1.245753392577171326e-01 8.067784309387207031e+00 2.382962703704833984e+00 -1.910960823297500610e-01
1.345000000000000000e+03 7.421210479736328125e+01 -3.115649414062500000e+01 -4.471020698547363281e-01 7.538729190826416016e+00 2.127488136291503906e+00 -3.775563538074493408e-01
1.346000000000000000e+03 7.657744598388671875e+01 -3.254211425781250000e+01 -1.861050277948379517e-01 8.021014213562011719e+00 2.350472688674926758e+00 -3.088743388652801514e-01
1.347000000000000000e+03 7.524732971191406250e+01 -4.001350021362304688e+01 1.933327130973339081e-02 7.729997158050537109e+00 2.324799299240112305e+00 -1.179862394928932190e-01
1.348000000000000000e+03 7.799340820312500000e+01 2.246168708801269531e+01 -5.746003612875938416e-02 8.125211715698242188e+00 2.420325517654418945e+00 6.859757304191589355e-01
1.349000000000000000e+03 7.686930847167968750e+01 1.970348167419433594e+01 1.728004813194274902e-01 7.737702369689941406e+00 2.373150825500488281e+00 8.793276548385620117e-01
1.350000000000000000e+03 7.520085906982421875e+01 2.277857589721679688e+01 -3.013582825660705566e-01 8.315242767333984375e+00 2.404165267944335938e+00 1.067007184028625488e+00
1.351000000000000000e+03 7.670106506347656250e+01 2.109202766418457031e+01 -3.954118117690086365e-02 8.032760620117187500e+00 2.397965908050537109e+00 1.014867782592773438e+00
1.352000000000000000e+03 7.683386993408203125e+01 1.273937129974365234e+01 2.682020664215087891e-01 7.177658081054687500e+00 2.233757972717285156e+00 -2.105849534273147583e-01
1.353000000000000000e+03 7.678221893310546875e+01 1.408946132659912109e+01 4.035702347755432129e-01 7.177145004272460938e+00 2.274214506149291992e+00 5.431267246603965759e-02
1.354000000000000000e+03 7.666152191162109375e+01 2.405121803283691406e+01 -2.345110327005386353e-01 8.399657249450683594e+00 2.449543952941894531e+00 7.697062492370605469e-01
1.355000000000000000e+03 7.817640686035156250e+01 2.670512771606445312e+01 -1.048491150140762329e-01 8.922933578491210938e+00 2.645425319671630859e+00 2.842682301998138428e-01
1.356000000000000000e+03 7.804160308837890625e+01 -2.069460678100585938e+01 1.610258221626281738e-01 6.074973583221435547e+00 1.870799899101257324e+00 -4.359639286994934082e-01
1.357000000000000000e+03 7.667403411865234375e+01 -2.196098709106445312e+01 2.730711996555328369e-01 6.929282665252685547e+00 2.160706043243408203e+00 -8.215425014495849609e-01
1.358000000000000000e+03 7.847261810302734375e+01 3.052523994445800781e+01 -2.012608386576175690e-02 9.199001312255859375e+00 2.753662586212158203e+00 8.399431593716144562e-03
1.359000000000000000e+03 7.683522033691406250e+01 2.994474220275878906e+01 -1.335448622703552246e-01 8.618421554565429688e+00 2.545463085174560547e+00 4.358260706067085266e-02
1.360000000000000000e+03 7.814019775390625000e+01 5.773066997528076172e+00 -5.673345923423767090e-02 7.536604404449462891e+00 2.243961334228515625e+00 -3.907231688499450684e-01
1.361000000000000000e+03 7.700478363037109375e+01 3.202677965164184570e+00 -1.060597971081733704e-01 7.739706039428710938e+00 2.290093898773193359e+00 -3.496431708335876465e-01
1.362000000000000000e+03 7.534685516357421875e+01 -1.518536758422851562e+01 4.982395470142364502e-01 7.359194755554199219e+00 2.357230424880981445e+00 7.032895088195800781e-01
1.363000000000000000e+03 7.526396179199218750e+01 -9.401207923889160156e+00 -2.681476771831512451e-01 7.618979930877685547e+00 2.205249547958374023e+00 8.561979532241821289e-01
1.364000000000000000e+03 7.670890808105468750e+01 -1.359418296813964844e+01 1.458420306444168091e-01 6.953763961791992188e+00 2.129881858825683594e+00 8.013625144958496094e-01
1.365000000000000000e+03 7.539109039306640625e+01 -1.996014952659606934e+00 -2.937738001346588135e-01 7.590117454528808594e+00 2.188903093338012695e+00 3.677004203200340271e-02
1.366000000000000000e+03 7.654893493652343750e+01 -6.557183265686035156e+00 -2.187019437551498413e-01 7.663000583648681641e+00 2.233289718627929688e+00 4.865557849407196045e-01
1.367000000000000000e+03 7.622404479980468750e+01 3.679347991943359375e+01 -3.858977928757667542e-02 8.273588180541992188e+00 2.470499515533447266e+00 -1.490841656923294067e-01
1.368000000000000000e+03 7.760442352294921875e+01 3.695552825927734375e+01 -7.095666136592626572e-03 8.695073127746582031e+00 2.606393337249755859e+00 -1.692837923765182495e-01
1.369000000000000000e+03 7.721027374267578125e+01 2.835934257507324219e+01 -1.750302910804748535e-01 8.745310783386230469e+00 2.571084022521972656e+00 1.761010140180587769e-01
1.370000000000000000e+03 7.810253143310546875e+01 7.137564182281494141e+00 7.208676077425479889e-03 7.338016510009765625e+00 2.203567504882812500e+00 -4.139515459537506104e-01
1.371000000000000000e+03 7.690487670898437500e+01 5.855543136596679688e+00 -5.965800955891609192e-02 7.588005065917968750e+00 2.258504152297973633e+00 -5.175207853317260742e-01
1.372000000000000000e+03 7.673661041259765625e+01 -2.249267339706420898e+00 -1.652168035507202148e-01 7.813303947448730469e+00 2.294426202774047852e+00 7.245189696550369263e-02
1.373000000000000000e+03 7.665901184082031250e+01 -9.412283897399902344e+00 -1.395382136106491089e-01 7.423055648803710938e+00 2.185055255889892578e+00 7.499068379402160645e-01
1.374000000000000000e+03 7.670847320556640625e+01 -1.649737167358398438e+01 4.488959908485412598e-01 6.660093784332275391e+00 2.132697105407714844e+00 3.503617942333221436e-01
1.375000000000000000e+03 7.629192352294921875e+01 3.533222579956054688e+01 -5.269241705536842346e-02 8.225749015808105469e+00 2.451917171478271484e+00 -1.358731687068939209e-01
1.376000000000000000e+03 7.724802398681640625e+01 3.143468284606933594e+01 -6.992246210575103760e-02 8.727769851684570312e+00 2.597354412078857422e+00 -5.256367847323417664e-02
1.377000000000000000e+03 7.681202697753906250e+01 1.832082557678222656e+01 2.508520185947418213e-01 7.525183677673339844e+00 2.332810640335083008e+00 7.876381278038024902e-01
1.378000000000000000e+03 7.239884948730468750e+01 1.198489761352539062e+01 9.027209281921386719e-01 8.934485435485839844e+00 2.951161861419677734e+00 -7.811628282070159912e-02
1.379000000000000000e+03 7.816664123535156250e+01 1.684892296791076660e+00 -4.759794473648071289e-02 8.001631736755371094e+00 2.386210203170776367e+00 -1.801928728818893433e-01
1.380000000000000000e+03 7.681031036376953125e+01 -8.577581048011779785e-01 -1.669674962759017944e-01 7.836627960205078125e+00 2.300898075103759766e+00 -5.531477183103561401e-02
1.381000000000000000e+03 7.803060913085937500e+01 -1.373992919921875000e+01 9.349733591079711914e-02 6.355668544769287109e+00 1.934749722480773926e+00 5.701020956039428711e-01
1.382000000000000000e+03 7.664851379394531250e+01 -1.506885051727294922e+01 3.353612720966339111e-01 6.819026947021484375e+00 2.146316528320312500e+00 6.431589126586914062e-01
1.383000000000000000e+03 7.795865631103515625e+01 -6.714817047119140625e+00 -9.419220685958862305e-02 7.736078262329101562e+00 2.292565822601318359e+00 3.877957761287689209e-01
1.384000000000000000e+03 7.658944702148437500e+01 -7.995837211608886719e+00 -2.045042365789413452e-01 7.566621780395507812e+00 2.208635091781616211e+00 6.537142992019653320e-01
1.385000000000000000e+03 7.698429107666015625e+01 4.525377750396728516e+00 -1.380492895841598511e-01 7.668184280395507812e+00 2.259040594100952148e+00 -4.498844444751739502e-01
1.386000000000000000e+03 7.666392517089843750e+01 -3.663488864898681641e+00 -2.049503177404403687e-01 7.787465095520019531e+00 2.274754524230957031e+00 1.893284022808074951e-01
1.387000000000000000e+03 7.658174896240234375e+01 -5.106901645660400391e+00 -2.128318250179290771e-01 7.727750301361083984e+00 2.254475593566894531e+00 3.553579747676849365e-01
1.388000000000000000e+03 7.683246612548828125e+01 -1.217700386047363281e+01 1.323415990918874741e-02 7.077926635742187500e+00 2.127348184585571289e+00 8.283754587173461914e-01
1.389000000000000000e+03 7.676113128662109375e+01 -1.079814243316650391e+01 -9.544663131237030029e-02 7.255215644836425781e+00 2.147930622100830078e+00 8.240998983383178711e-01
1.390000000000000000e+03 7.675124359130859375e+01 -2.054588890075683594e+01 3.886250853538513184e-01 6.726751804351806641e+00 2.134613037109375000e+00 -5.586515665054321289e-01
1.391000000000000000e+03 7.670033264160156250e+01 -1.783519554138183594e+01 4.573399424552917480e-01 6.568964004516601562e+00 2.107891321182250977e+00 4.877138510346412659e-02
1.392000000000000000e+03 7.361824798583984375e+01 -1.464597797393798828e+01 7.277432084083557129e-01 8.221784591674804688e+00 2.684858560562133789e+00 8.155416250228881836e-01
1.393000000000000000e+03 5.127048492431640625e+01 -7.057654857635498047e+00 -4.644117355346679688e-01 1.290740847587585449e+00 2.478987276554107666e-01 8.558539152145385742e-01
1.394000000000000000e+03 5.492247009277343750e+01 -4.756333351135253906e+00 9.604218006134033203e-01 -1.717704087495803833e-01 2.365954220294952393e-01 -8.715825155377388000e-03
1.395000000000000000e+03 4.735789489746093750e+01 1.764159393310546875e+01 5.115659832954406738e-01 7.859596252441406250e+00 2.511348724365234375e+00 1.026499748229980469e+00
1.396000000000000000e+03 4.683171844482421875e+01 1.538745403289794922e+01 7.160322070121765137e-01 8.766824722290039062e+00 2.844856977462768555e+00 1.304196119308471680e+00
1.397000000000000000e+03 4.801607513427734375e+01 -7.993144512176513672e+00 -1.054223895072937012e+00 6.496280193328857422e+00 1.632616877555847168e+00 1.447193503379821777e+00
1.398000000000000000e+03 1.497100639343261719e+01 -2.927701759338378906e+01 -9.534795880317687988e-01 1.682946324348449707e+00 2.188400328159332275e-01 -3.236445784568786621e-01
1.399000000000000000e+03 2.011943817138671875e+01 4.003970623016357422e+00 -7.869486808776855469e-01 7.288767814636230469e+00 1.950545668601989746e+00 -7.874764204025268555e-01
1.400000000000000000e+03 1.928634452819824219e+01 5.094803810119628906e+00 -6.966323256492614746e-01 9.151563644409179688e+00 2.536479234695434570e+00 -1.089874029159545898e+00
1.401000000000000000e+03 3.778694152832031250e+01 -2.483275604248046875e+01 1.880836367607116699e+00 9.089778900146484375e+00 3.291184663772583008e+00 8.994772434234619141e-01
1.402000000000000000e+03 3.817663955688476562e+01 -2.305867004394531250e+01 1.751414537429809570e+00 9.778159141540527344e+00 3.458872079849243164e+00 3.466300964355468750e-01
1.403000000000000000e+03 6.547198486328125000e+01 -2.633968734741210938e+01 -1.764655411243438721e-01 3.439876556396484375e+00 9.790232777595520020e-01 1.251772284507751465e+00
1.404000000000000000e+03 2.094993019104003906e+01 1.264744400978088379e+00 1.626914262771606445e+00 4.193712711334228516e+00 1.746188163757324219e+00 -7.369555234909057617e-01
1.405000000000000000e+03 4.313673400878906250e+01 8.736235618591308594e+00 1.208038568496704102e+00 1.208625507354736328e+01 3.988287925720214844e+00 -4.496515393257141113e-01
1.406000000000000000e+03 4.722847747802734375e+01 8.263218879699707031e+00 9.254424571990966797e-01 1.201786422729492188e+01 3.882992029190063477e+00 1.805659770965576172e+00
1.407000000000000000e+03 5.632403182983398438e+01 2.535986900329589844e+01 -8.678303360939025879e-01 1.534847021102905273e+00 2.001049965620040894e-01 1.746267676353454590e+00
1.408000000000000000e+03 2.434573936462402344e+01 2.548306274414062500e+01 -4.572258889675140381e-01 7.541329264640808105e-01 8.907211571931838989e-02 9.289994835853576660e-01
1.409000000000000000e+03 1.969229125976562500e+01 -3.274156570434570312e+01 -9.537180662155151367e-01 2.152583450078964233e-01 -2.215379178524017334e-01 -1.739785522222518921e-01
1.410000000000000000e+03 3.401889085769653320e+00 3.682226181030273438e+01 -8.383483439683914185e-02 2.516382694244384766e+00 7.297644019126892090e-01 -2.194544821977615356e-01
1.411000000000000000e+03 2.054346084594726562e+00 2.736295700073242188e+01 -4.220770299434661865e-02 1.305213212966918945e+00 3.789016604423522949e-01 -4.802267551422119141e-01
1.412000000000000000e+03 3.274451255798339844e+00 3.001135444641113281e+01 -1.047413498163223267e-01 1.955166220664978027e+00 5.551274418830871582e-01 -5.596087574958801270e-01
1.413000000000000000e+03 2.067040443420410156e+00 2.593111610412597656e+01 -2.914186939597129822e-02 1.015651583671569824e+00 2.959528863430023193e-01 -5.261101722717285156e-01
1.414000000000000000e+03 3.468054294586181641e+00 2.722394561767578125e+01 -9.556517750024795532e-02 1.602720737457275391e+00 4.521466493606567383e-01 -7.226825952529907227e-01
1.415000000000000000e+03 5.529332637786865234e+00 3.050635337829589844e+01 -2.571063339710235596e-01 2.355838537216186523e+00 6.296196579933166504e-01 -7.209632396697998047e-01
1.416000000000000000e+03 3.313250780105590820e+00 3.134566688537597656e+01 -1.131123602390289307e-01 2.115957021713256836e+00 6.008534431457519531e-01 -4.753183126449584961e-01
1.417000000000000000e+03 3.377993583679199219e+00 2.865070915222167969e+01 -1.038100197911262512e-01 1.780530333518981934e+00 5.030161142349243164e-01 -6.447585821151733398e-01
1.418000000000000000e+03 6.396165847778320312e+00 3.792730712890625000e+01 -2.429192811250686646e-01 2.642544031143188477e+00 7.198874354362487793e-01 -2.347591817378997803e-01
1.419000000000000000e+03 2.199430942535400391e+00 3.687522888183593750e+01 -3.127915039658546448e-02 2.509567260742187500e+00 7.434864044189453125e-01 -1.497035473585128784e-01
1.420000000000000000e+03 3.624910593032836914e+00 3.548461532592773438e+01 -9.935490041971206665e-02 2.450641155242919922e+00 7.053858637809753418e-01 -2.853160500526428223e-01
1.421000000000000000e+03 4.962098121643066406e+00 3.234830093383789062e+01 -2.055931836366653442e-01 2.370306730270385742e+00 6.494140625000000000e-01 -5.309749245643615723e-01
1.422000000000000000e+03 1.954280614852905273e+00 -3.057623100280761719e+01 -8.445443212985992432e-02 2.793312311172485352e+00 8.126573562622070312e-01 4.787671864032745361e-01
1.423000000000000000e+03 3.173490762710571289e+00 -2.932965278625488281e+01 -2.173247784376144409e-01 2.675953865051269531e+00 7.375887036323547363e-01 8.289380669593811035e-01
1.424000000000000000e+03 1.991843223571777344e+00 2.164893913269042969e+01 1.683478802442550659e-02 1.743553392589092255e-02 1.028109621256589890e-02 -5.458867549896240234e-01
1.425000000000000000e+03 3.402451753616333008e+00 2.281563186645507812e+01 6.072034593671560287e-04 8.516062498092651367e-01 2.556640207767486572e-01 -8.404660820960998535e-01
1.426000000000000000e+03 2.964792490005493164e+00 -1.097871494293212891e+01 1.697689667344093323e-02 -5.656453222036361694e-02 -1.187629066407680511e-02 -3.339798450469970703e-01
1.427000000000000000e+03 3.237416982650756836e+00 -1.825095939636230469e+01 3.849742710590362549e-01 4.433421492576599121e-01 2.484949231147766113e-01 5.715374946594238281e-01
1.428000000000000000e+03 1.909868597984313965e+00 -1.521132183074951172e+01 1.286452114582061768e-01 -1.027350783348083496e+00 -2.696116566658020020e-01 -3.471804410219192505e-02
1.429000000000000000e+03 3.349504709243774414e+00 2.139804267883300781e+01 3.740211948752403259e-02 5.855027437210083008e-01 1.868714541196823120e-01 -8.265755176544189453e-01
1.430000000000000000e+03 2.911526679992675781e+00 1.168333721160888672e+01 1.970950067043304443e-01 -8.613705635070800781e-01 -1.992826610803604126e-01 2.992052584886550903e-02
1.431000000000000000e+03 4.469136714935302734e+00 1.825250434875488281e+01 2.307562083005905151e-01 6.200300455093383789e-01 2.552358806133270264e-01 -8.566026091575622559e-01
1.432000000000000000e+03 3.274127006530761719e+00 1.998167037963867188e+01 7.725832611322402954e-02 2.838186025619506836e-01 1.083230823278427124e-01 -7.698266506195068359e-01
1.433000000000000000e+03 3.207264661788940430e+00 -1.967365074157714844e+01 3.746110200881958008e-01 6.755297183990478516e-01 3.150422275066375732e-01 8.451175093650817871e-01
1.434000000000000000e+03 3.021299839019775391e+00 -1.241107273101806641e+01 1.182521730661392212e-01 1.487515959888696671e-02 3.993820026516914368e-02 -3.122625648975372314e-01
1.435000000000000000e+03 1.749970674514770508e+00 -8.057230949401855469e+00 2.369129098951816559e-03 -6.452403664588928223e-01 -1.928613632917404175e-01 -2.855370342731475830e-01
1.436000000000000000e+03 4.379876613616943359e+00 -4.648388385772705078e+00 2.784783206880092621e-02 1.893801391124725342e-01 6.516839563846588135e-02 -2.436968237161636353e-01
1.437000000000000000e+03 1.539484262466430664e+00 6.282817840576171875e+00 3.930182009935379028e-02 -1.081612229347229004e+00 -3.126931190490722656e-01 4.105581641197204590e-01
1.438000000000000000e+03 1.781726479530334473e+00 1.462166881561279297e+01 7.853900641202926636e-02 -1.387458205223083496e+00 -3.926757574081420898e-01 -1.940697580575942993e-01
1.439000000000000000e+03 2.971857786178588867e+00 1.579826927185058594e+01 1.652814745903015137e-01 -5.055073499679565430e-01 -1.020677611231803894e-01 -4.335888028144836426e-01
1.440000000000000000e+03 2.732055425643920898e+00 8.880578994750976562e+00 1.828625500202178955e-01 -9.179296493530273438e-01 -2.205201238393783569e-01 3.629081547260284424e-01
1.441000000000000000e+03 2.946194410324096680e+00 -6.788608074188232422e+00 9.785893373191356659e-03 -8.316646516323089600e-02 -2.201417088508605957e-02 -3.327179253101348877e-01
1.442000000000000000e+03 2.592331409454345703e+00 -4.671770572662353516e+00 -7.946922443807125092e-03 -1.615391224622726440e-01 -5.084581300616264343e-02 -3.232528865337371826e-01
1.443000000000000000e+03 3.193091630935668945e+00 -2.804825019836425781e+01 -1.655672043561935425e-01 2.455258131027221680e+00 6.869072914123535156e-01 9.755607247352600098e-01
1.444000000000000000e+03 3.196253061294555664e+00 -2.111237525939941406e+01 2.066969126462936401e-01 9.569926857948303223e-01 3.491068780422210693e-01 1.069282293319702148e+00
1.445000000000000000e+03 2.928107023239135742e+00 -9.585758209228515625e+00 -6.016287952661514282e-03 -7.230028510093688965e-02 -2.349497191607952118e-02 -3.612562119960784912e-01
1.446000000000000000e+03 2.896368503570556641e+00 -8.203005790710449219e+00 -1.918655261397361755e-02 -9.243930131196975708e-02 -3.348775580525398254e-02 -3.189462125301361084e-01
1.447000000000000000e+03 3.215109586715698242e+00 -1.535100460052490234e+01 3.011133372783660889e-01 1.747003495693206787e-01 1.427441090345382690e-01 6.800074595957994461e-03
1.448000000000000000e+03 1.891478300094604492e+00 -2.375647354125976562e+01 7.159718777984380722e-03 7.960737943649291992e-01 2.409700453281402588e-01 8.365357518196105957e-01
1.449000000000000000e+03 3.157139301300048828e+00 -2.254452705383300781e+01 1.104395985603332520e-01 1.245668172836303711e+00 4.068323373794555664e-01 1.169420242309570312e+00
1.450000000000000000e+03 5.463557720184326172e+00 -3.684479904174804688e+01 -2.424711436033248901e-01 3.051111936569213867e+00 8.425922393798828125e-01 2.969631254673004150e-01
1.451000000000000000e+03 3.790228605270385742e+00 -3.302109527587890625e+01 -2.184985280036926270e-01 3.134652614593505859e+00 8.748462200164794922e-01 4.989437460899353027e-01
1.452000000000000000e+03 4.988400936126708984e+00 -3.409909439086914062e+01 -3.039711117744445801e-01 3.072531223297119141e+00 8.305680155754089355e-01 4.613681733608245850e-01
1.453000000000000000e+03 3.149959802627563477e+00 -2.537903594970703125e+01 -1.063122823834419250e-01 1.921907424926757812e+00 5.446785688400268555e-01 1.148291468620300293e+00
1.454000000000000000e+03 4.256836414337158203e+00 -2.413709068298339844e+01 -4.256897047162055969e-02 2.240460872650146484e+00 6.593675613403320312e-01 1.402435779571533203e+00
1.455000000000000000e+03 3.128863811492919922e+00 -1.387193393707275391e+01 2.069421708583831787e-01 7.013434171676635742e-02 8.312295377254486084e-02 -1.829672306776046753e-01
1.456000000000000000e+03 2.830377578735351562e+00 1.027668476104736328e+01 2.050149589776992798e-01 -9.118482470512390137e-01 -2.120499759912490845e-01 1.986832767724990845e-01
1.457000000000000000e+03 4.129271984100341797e+00 1.297580814361572266e+01 3.463795781135559082e-01 -1.255300194025039673e-01 6.625486165285110474e-02 -2.003826200962066650e-01
1.458000000000000000e+03 2.945471525192260742e+00 1.307894897460937500e+01 1.961870342493057251e-01 -7.819357514381408691e-01 -1.757246106863021851e-01 -1.335446685552597046e-01
1.459000000000000000e+03 3.170557975769042969e+00 1.856984329223632812e+01 1.031653955578804016e-01 7.168556330725550652e-04 3.116467595100402832e-02 -6.775295138359069824e-01
1.460000000000000000e+03 2.427486801147460938e+01 -3.477467536926269531e+00 4.041899681091308594e+00 9.802768826484680176e-01 1.506652951240539551e+00 -2.762362003326416016e+00
1.461000000000000000e+03 3.914109039306640625e+01 1.732943534851074219e+01 1.557697262614965439e-02 2.980278253555297852e+00 8.987565636634826660e-01 -1.041022658348083496e+00
1.462000000000000000e+03 4.500289154052734375e+01 -2.260593223571777344e+01 2.374991655349731445e+00 1.032079887390136719e+01 3.808737277984619141e+00 -1.627790927886962891e+00
1.463000000000000000e+03 7.512890625000000000e+01 1.762111282348632812e+01 5.964654088020324707e-01 7.920819282531738281e+00 2.555185317993164062e+00 8.899090886116027832e-01
1.464000000000000000e+03 6.969589233398437500e+01 1.672372817993164062e+01 1.039660453796386719e+00 1.283783912658691406e+01 4.163249969482421875e+00 1.881020963191986084e-01
1.465000000000000000e+03 6.929141998291015625e+01 -1.537368011474609375e+01 1.892815470695495605e+00 1.149701595306396484e+01 4.016949653625488281e+00 -6.916638612747192383e-01
1.466000000000000000e+03 3.598988723754882812e+01 2.015440368652343750e+01 -5.775474905967712402e-01 1.492783546447753906e+00 2.745708227157592773e-01 -7.361769676208496094e-01
1.467000000000000000e+03 6.969080352783203125e+01 2.072334098815917969e+01 -4.169412255287170410e-01 9.794279098510742188e+00 2.813201427459716797e+00 8.467804789543151855e-01
1.468000000000000000e+03 2.332555389404296875e+01 -3.633500933647155762e-01 2.621542215347290039e+00 6.492953300476074219e-01 9.812512993812561035e-01 -1.486538410186767578e+00
1.469000000000000000e+03 2.191983032226562500e+01 -4.188138484954833984e+00 4.138429164886474609e+00 2.281229972839355469e+00 1.925897717475891113e+00 -3.204781055450439453e+00
1.470000000000000000e+03 3.588906860351562500e+01 -9.202410697937011719e+00 9.159578680992126465e-01 2.891282558441162109e+00 1.142172098159790039e+00 -7.904554009437561035e-01
1.471000000000000000e+03 3.475355148315429688e+01 -9.601840019226074219e+00 1.215250134468078613e+00 2.645433425903320312e+00 1.158205032348632812e+00 -1.568428397178649902e+00
1.472000000000000000e+03 3.709907913208007812e+01 -3.134467124938964844e+01 -9.516991972923278809e-01 6.436358451843261719e+00 1.645397782325744629e+00 7.743028998374938965e-01
1.473000000000000000e+03 3.659981155395507812e+01 -2.674469375610351562e+01 1.274680495262145996e+00 8.467859268188476562e+00 2.922761917114257812e+00 1.290379166603088379e+00
1.474000000000000000e+03 4.686513519287109375e+01 1.393611240386962891e+01 7.408614158630371094e-01 9.723782539367675781e+00 3.139393329620361328e+00 1.644570231437683105e+00
1.475000000000000000e+03 4.507417678833007812e+01 8.939712524414062500e+00 1.004139065742492676e+00 1.154816532135009766e+01 3.765691280364990234e+00 1.208275079727172852e+00
1.476000000000000000e+03 6.519515228271484375e+01 -2.913116645812988281e+01 -9.166169762611389160e-01 3.573571443557739258e+00 7.970862984657287598e-01 9.603359699249267578e-01
1.477000000000000000e+03 6.590003204345703125e+01 -2.807153511047363281e+01 -7.237786650657653809e-01 4.107309341430664062e+00 1.015059232711791992e+00 1.071740746498107910e+00
1.478000000000000000e+03 1.584149456024169922e+01 1.631573295593261719e+01 1.281391739845275879e+00 8.482660293579101562e+00 2.929215431213378906e+00 -3.608407974243164062e-01
1.479000000000000000e+03 1.608065223693847656e+01 1.496664905548095703e+01 1.189331650733947754e+00 9.310508728027343750e+00 3.149952173233032227e+00 -3.612426221370697021e-01
1.480000000000000000e+03 5.719613647460937500e+01 2.391984939575195312e+01 -1.579377651214599609e+00 7.349896430969238281e-01 -2.533164024353027344e-01 1.212543845176696777e+00
1.481000000000000000e+03 5.526583862304687500e+01 2.472141647338867188e+01 -1.025283217430114746e+00 2.232647418975830078e+00 3.622092604637145996e-01 2.094749212265014648e+00
1.482000000000000000e+03 5.517116165161132812e+01 -3.334170532226562500e+01 1.447134613990783691e-01 9.974676966667175293e-01 3.426543474197387695e-01 -1.135848522186279297e+00
1.483000000000000000e+03 5.655727767944335938e+01 -3.439088058471679688e+01 3.125841021537780762e-01 9.228603243827819824e-01 3.706333339214324951e-01 -6.549833416938781738e-01
1.484000000000000000e+03 1.663366317749023438e+01 1.103407573699951172e+01 1.083198785781860352e+00 1.005500411987304688e+01 3.341460704803466797e+00 -1.261492967605590820e+00
1.485000000000000000e+03 6.581518554687500000e+01 2.806774330139160156e+01 -4.806861579418182373e-01 3.557998895645141602e+00 9.231938123703002930e-01 -1.041824698448181152e+00
1.486000000000000000e+03 6.379091644287109375e+01 -3.152676391601562500e+01 -5.465741157531738281e-01 2.603140592575073242e+00 6.169699430465698242e-01 8.813221454620361328e-01
1.487000000000000000e+03 4.411398696899414062e+01 -1.680360221862792969e+01 1.512247562408447266e+00 1.064002513885498047e+01 3.645681858062744141e+00 8.394790291786193848e-01
1.488000000000000000e+03 4.273389053344726562e+01 1.022596359252929688e+01 7.221116423606872559e-01 1.003593158721923828e+01 3.227412939071655273e+00 -8.473408222198486328e-01
1.489000000000000000e+03 5.969370269775390625e+01 2.024147033691406250e+00 8.581396341323852539e-01 5.670433640480041504e-01 4.275549054145812988e-01 4.868652820587158203e-01
1.490000000000000000e+03 6.039705657958984375e+01 1.011326789855957031e+00 9.489269852638244629e-01 8.849382400512695312e-01 5.501595735549926758e-01 4.706933796405792236e-01
1.491000000000000000e+03 2.667850303649902344e+01 -3.515758514404296875e+01 -4.568864405155181885e-01 4.517869651317596436e-01 -1.529841683804988861e-03 5.425103902816772461e-01
1.492000000000000000e+03 3.635620880126953125e+01 -1.548131084442138672e+01 2.529741048812866211e+00 7.288256645202636719e+00 2.945399284362792969e+00 -1.557850480079650879e+00
1.493000000000000000e+03 3.597732925415039062e+01 -1.719549942016601562e+01 3.221185207366943359e+00 9.264665603637695312e+00 3.745755195617675781e+00 -2.716778993606567383e+00
1.494000000000000000e+03 1.084611320495605469e+01 -2.325219726562500000e+01 5.756225809454917908e-02 5.571430206298828125e+00 1.688697814941406250e+00 3.514797091484069824e-01
1.495000000000000000e+03 5.865050506591796875e+01 2.583875083923339844e+01 -1.024822950363159180e+00 7.576444149017333984e-01 -8.015356957912445068e-02 1.150338292121887207e+00
1.496000000000000000e+03 1.627593421936035156e+01 1.363769912719726562e+01 9.768008589744567871e-01 9.847133636474609375e+00 3.247180461883544922e+00 -7.204754352569580078e-01
1.497000000000000000e+03 7.076696777343750000e+01 1.214362621307373047e+01 1.123303055763244629e+00 9.788991928100585938e+00 3.273688554763793945e+00 3.167250752449035645e-01
1.498000000000000000e+03 7.052679443359375000e+01 1.300972270965576172e+01 1.405445814132690430e+00 1.026178646087646484e+01 3.500169515609741211e+00 4.414882659912109375e-01
1.499000000000000000e+03 4.033817672729492188e+01 1.419063472747802734e+01 4.661120176315307617e-01 4.024166584014892578e+00 1.347083568572998047e+00 -1.406378149986267090e+00
1.500000000000000000e+03 4.632943725585937500e+01 1.678493499755859375e+01 4.769994020462036133e-01 7.910686969757080078e+00 2.516305923461914062e+00 7.449271678924560547e-01
1.501000000000000000e+03 4.461334609985351562e+01 7.876513004302978516e+00 1.260600686073303223e+00 1.230709171295166016e+01 4.070307731628417969e+00 7.951744198799133301e-01
1.502000000000000000e+03 6.575743865966796875e+01 2.479238891601562500e+01 -1.590973615646362305e+00 3.353038549423217773e+00 5.286194682121276855e-01 -1.439127922058105469e+00
1.503000000000000000e+03 4.457174301147460938e+01 -1.402550220489501953e+01 1.483274579048156738e+00 9.859238624572753906e+00 3.402754068374633789e+00 1.507440090179443359e+00
1.504000000000000000e+03 4.058372116088867188e+01 -2.430203247070312500e+01 2.035318613052368164e+00 8.842120170593261719e+00 3.263231515884399414e+00 -1.094734445214271545e-01
1.505000000000000000e+03 4.332088851928710938e+01 2.689210176467895508e+00 1.513944625854492188e+00 1.554571151733398438e+01 5.117897033691406250e+00 2.024111509323120117e+00
1.506000000000000000e+03 4.670885467529296875e+01 3.893830060958862305e+00 1.555886864662170410e+00 1.115429782867431641e+01 3.813055276870727539e+00 2.937145233154296875e-01
1.507000000000000000e+03 3.141049575805664062e+01 -3.139795875549316406e+01 -5.658843517303466797e-01 1.943765044212341309e+00 4.133642017841339111e-01 1.456059098243713379e+00
1.508000000000000000e+03 3.770779418945312500e+01 -2.646798324584960938e+01 1.232321023941040039e+00 8.207144737243652344e+00 2.831839799880981445e+00 7.206916809082031250e-01
1.509000000000000000e+03 3.695972061157226562e+01 -2.568226051330566406e+01 1.675953626632690430e+00 8.954672813415527344e+00 3.189188003540039062e+00 1.260393261909484863e+00
1.510000000000000000e+03 1.046562957763671875e+01 -1.791896820068359375e+01 1.639145731925964355e+00 9.454665184020996094e+00 3.328143358230590820e+00 1.271790266036987305e+00
1.511000000000000000e+03 1.676556205749511719e+01 9.766916275024414062e+00 1.024836421012878418e+00 9.987699508666992188e+00 3.303760766983032227e+00 -1.392639875411987305e+00
1.512000000000000000e+03 5.002358627319335938e+01 1.934526634216308594e+01 1.070842385292053223e+00 7.269941806793212891e+00 2.502235174179077148e+00 1.777810692787170410e+00
1.513000000000000000e+03 3.107168197631835938e+01 2.124403953552246094e+01 -1.445533037185668945e+00 6.756961345672607422e-02 -4.133890569210052490e-01 5.080399289727210999e-02
1.514000000000000000e+03 2.793144989013671875e+01 2.397468566894531250e+01 -9.682074785232543945e-01 1.352803260087966919e-01 -2.498781532049179077e-01 1.104173436760902405e-01
1.515000000000000000e+03 6.338459396362304688e+01 2.570282745361328125e+01 -8.163051605224609375e-01 1.225320458412170410e+00 1.227045953273773193e-01 -6.862862110137939453e-01
1.516000000000000000e+03 6.159448623657226562e+01 2.463450050354003906e+01 -1.565796136856079102e+00 8.574406802654266357e-02 -4.440156519412994385e-01 5.704614147543907166e-02
1.517000000000000000e+03 6.989104461669921875e+01 8.884599685668945312e+00 1.632455736398696899e-01 8.515364646911621094e+00 2.603583097457885742e+00 4.274044036865234375e-01
1.518000000000000000e+03 3.074437522888183594e+01 -6.581750392913818359e+00 1.755347013473510742e+00 1.434963226318359375e+00 9.570930600166320801e-01 -3.172397375106811523e+00
1.519000000000000000e+03 7.078616333007812500e+01 -2.130360221862792969e+01 1.421484112739562988e+00 9.979305267333984375e+00 3.420236825942993164e+00 -3.897593319416046143e-01
1.520000000000000000e+03 6.835794830322265625e+01 -2.329734802246093750e+01 2.267518639564514160e-01 9.503016471862792969e+00 2.918930530548095703e+00 1.425236701965332031e+00
1.521000000000000000e+03 4.670821762084960938e+01 -1.118701171875000000e+01 6.858122348785400391e-01 8.905013084411621094e+00 2.877247571945190430e+00 1.917909741401672363e+00
1.522000000000000000e+03 4.439749526977539062e+01 -1.104486370086669922e+01 1.070258021354675293e-01 8.996858596801757812e+00 2.731165170669555664e+00 1.183430075645446777e+00
1.523000000000000000e+03 4.235961151123046875e+01 1.368992042541503906e+01 2.176625281572341919e-01 6.772842884063720703e+00 2.097151756286621094e+00 -9.351888895034790039e-01
1.524000000000000000e+03 4.702893066406250000e+01 1.691355824470520020e+00 1.272797703742980957e+00 9.807139396667480469e+00 3.323981046676635742e+00 6.124673783779144287e-02
1.525000000000000000e+03 4.581945800781250000e+01 -2.880096435546875000e+01 2.092774510383605957e-01 7.088604927062988281e+00 2.189364671707153320e+00 -1.660156250000000000e+00
1.526000000000000000e+03 4.591933441162109375e+01 -2.714495086669921875e+01 9.550153613090515137e-01 7.629952430725097656e+00 2.575490236282348633e+00 -2.054332256317138672e+00
1.527000000000000000e+03 2.123302841186523438e+01 -3.344837570190429688e+01 -9.025704264640808105e-01 5.108294636011123657e-02 -2.554462552070617676e-01 -9.672445803880691528e-02
1.528000000000000000e+03 2.289424705505371094e+01 -3.393882751464843750e+01 -7.776155471801757812e-01 -9.107989072799682617e-02 -2.606086432933807373e-01 2.541258372366428375e-02
1.529000000000000000e+03 6.786598968505859375e+01 7.406508922576904297e+00 -1.767986081540584564e-02 6.910084247589111328e+00 2.067721366882324219e+00 1.073656082153320312e+00
1.530000000000000000e+03 5.154084777832031250e+01 2.635357475280761719e+01 -1.244335055351257324e+00 4.310447216033935547e+00 9.198336005210876465e-01 1.500367999076843262e+00
1.531000000000000000e+03 5.332555389404296875e+01 2.292934799194335938e+01 -9.065072536468505859e-01 4.013679027557373047e+00 9.321514964103698730e-01 2.151442289352416992e+00
1.532000000000000000e+03 3.991998672485351562e+01 -2.076715660095214844e+01 2.515353918075561523e+00 9.343978881835937500e+00 3.557799816131591797e+00 -3.990446031093597412e-01
1.533000000000000000e+03 3.969101333618164062e+01 -1.707977485656738281e+01 2.560632705688476562e+00 8.587521553039550781e+00 3.344446420669555664e+00 -1.691110432147979736e-01
1.534000000000000000e+03 6.136637115478515625e+01 -3.219075775146484375e+01 -3.518905043601989746e-01 1.392369747161865234e+00 3.121437728404998779e-01 5.894843935966491699e-01
1.535000000000000000e+03 6.499811553955078125e+01 -3.349895095825195312e+01 -2.775086760520935059e-01 3.359338521957397461e+00 9.245489239692687988e-01 8.515774011611938477e-01
1.536000000000000000e+03 5.916867828369140625e+01 -1.869869828224182129e+00 1.184180617332458496e+00 5.319109559059143066e-01 5.148274898529052734e-01 4.210332781076431274e-02
1.537000000000000000e+03 5.786370468139648438e+01 -7.985045313835144043e-01 1.389716625213623047e+00 2.366813570261001587e-01 4.879193902015686035e-01 1.759404689073562622e-01
1.538000000000000000e+03 1.739066314697265625e+01 -3.531565856933593750e+01 -5.068685412406921387e-01 9.374721646308898926e-01 1.291811019182205200e-01 -2.836461961269378662e-01
1.539000000000000000e+03 4.375772857666015625e+01 -2.108967018127441406e+01 2.237907409667968750e+00 1.009429550170898438e+01 3.699660778045654297e+00 -8.407835364341735840e-01
1.540000000000000000e+03 5.413271331787109375e+01 -3.232186889648437500e+01 -2.970988154411315918e-01 1.281204104423522949e+00 2.952315807342529297e-01 -1.528367280960083008e+00
1.541000000000000000e+03 1.067270851135253906e+01 -1.657113265991210938e+01 2.300878286361694336e+00 9.391147613525390625e+00 3.507607698440551758e+00 1.584384322166442871e+00
1.542000000000000000e+03 1.571915340423583984e+01 -3.066047668457031250e+01 -9.846926331520080566e-01 1.386123538017272949e+00 1.204292625188827515e-01 -2.946510612964630127e-01
1.543000000000000000e+03 1.276038551330566406e+01 -1.017770099639892578e+01 -2.001317739486694336e+00 5.112196922302246094e+00 9.332638382911682129e-01 3.289857625961303711e+00
1.544000000000000000e+03 4.610995483398437500e+01 8.578803062438964844e+00 9.802753329277038574e-01 1.169000053405761719e+01 3.801082849502563477e+00 1.644287943840026855e+00
1.545000000000000000e+03 3.039252853393554688e+01 -3.359990692138671875e+01 -6.901019215583801270e-01 1.699246168136596680e+00 3.027432560920715332e-01 1.299373745918273926e+00
1.546000000000000000e+03 3.205744552612304688e+01 -3.299219512939453125e+01 -7.543383240699768066e-01 2.615334510803222656e+00 5.582988858222961426e-01 1.485820770263671875e+00
1.547000000000000000e+03 4.302595901489257812e+01 -1.147682094573974609e+01 3.381738364696502686e-01 8.626585006713867188e+00 2.689427614212036133e+00 1.087000608444213867e+00
1.548000000000000000e+03 1.881180000305175781e+01 -9.997290611267089844e+00 -2.026862859725952148e+00 9.690976142883300781e-01 -3.173295557498931885e-01 -1.777350902557373047e-01
1.549000000000000000e+03 3.458094024658203125e+01 -3.365941238403320312e+01 -1.147515058517456055e+00 4.525019645690917969e+00 1.013251423835754395e+00 1.221322536468505859e+00
1.550000000000000000e+03 4.045435333251953125e+01 1.647808074951171875e+01 2.624549902975559235e-02 4.108361244201660156e+00 1.240381956100463867e+00 -1.182758331298828125e+00
1.551000000000000000e+03 1.108315277099609375e+01 -1.130117034912109375e+01 -1.176170468330383301e+00 5.863082408905029297e+00 1.406073570251464844e+00 1.693022608757019043e+00
1.552000000000000000e+03 1.091236305236816406e+01 -1.525269699096679688e+01 2.035159587860107422e+00 8.531558990478515625e+00 3.170015573501586914e+00 1.396548509597778320e+00
1.553000000000000000e+03 4.278164291381835938e+01 -2.121041059494018555e+00 3.696562647819519043e-01 1.160610294342041016e+01 3.592727899551391602e+00 1.712266325950622559e+00
1.554000000000000000e+03 4.490129089355468750e+01 -3.393658697605133057e-01 1.324198722839355469e+00 1.105075073242187500e+01 3.712484836578369141e+00 6.627033352851867676e-01
1.555000000000000000e+03 6.764891052246093750e+01 -1.033562946319580078e+01 -4.973886013031005859e-01 6.406623840332031250e+00 1.772770524024963379e+00 -1.326591968536376953e+00
1.556000000000000000e+03 6.953715515136718750e+01 -1.238278675079345703e+01 -1.291960477828979492e-01 9.026421546936035156e+00 2.669167757034301758e+00 -3.028262853622436523e-01
1.557000000000000000e+03 1.701228904724121094e+01 1.985440063476562500e+01 1.088048696517944336e+00 7.529831409454345703e+00 2.585364103317260742e+00 6.756480783224105835e-02
1.558000000000000000e+03 1.452375793457031250e+01 1.572299766540527344e+01 1.311207413673400879e+00 7.159345626831054688e+00 2.541165828704833984e+00 -7.272263169288635254e-01
1.559000000000000000e+03 2.301910591125488281e+01 -1.079751586914062500e+01 -1.028190374374389648e+00 1.142218351364135742e+00 3.420839458703994751e-02 -1.491600751876831055e+00
1.560000000000000000e+03 1.244154262542724609e+01 -1.112996196746826172e+01 -1.558548450469970703e+00 5.857754230499267578e+00 1.289761781692504883e+00 2.802581310272216797e+00
1.561000000000000000e+03 4.412789916992187500e+01 1.165001392364501953e+01 4.726927876472473145e-01 9.565309524536132812e+00 3.011400699615478516e+00 3.479299545288085938e-01
1.562000000000000000e+03 1.495950603485107422e+01 2.501110839843750000e+01 -1.012874841690063477e+00 4.915971279144287109e+00 1.170928955078125000e+00 -4.102016389369964600e-01
1.563000000000000000e+03 6.317813110351562500e+01 -3.313759231567382812e+01 -3.597471117973327637e-01 2.386780500411987305e+00 6.081100106239318848e-01 8.099938035011291504e-01
1.564000000000000000e+03 4.054670333862304688e+01 -6.395558834075927734e+00 -1.368040561676025391e+00 7.064241409301757812e+00 1.708860278129577637e+00 2.057955503463745117e+00
1.565000000000000000e+03 5.328860855102539062e+01 -2.941125154495239258e+00 1.598172545433044434e+00 3.909663558006286621e-01 5.967416763305664062e-01 1.613015234470367432e-01
1.566000000000000000e+03 5.595331192016601562e+01 -7.245085239410400391e+00 -5.675047039985656738e-01 -1.648854613304138184e-01 -2.197170406579971313e-01 -2.692534029483795166e-02
1.567000000000000000e+03 3.633235931396484375e+01 -3.016121292114257812e+01 -5.254808068275451660e-01 6.518752098083496094e+00 1.797981381416320801e+00 1.089480400085449219e+00
1.568000000000000000e+03 3.696311569213867188e+01 -2.810264205932617188e+01 4.097504615783691406e-01 7.631772518157958984e+00 2.412456750869750977e+00 1.059150338172912598e+00
1.569000000000000000e+03 2.764289093017578125e+01 -1.345866966247558594e+01 -2.130696177482604980e-02 4.331526458263397217e-01 1.235537007451057434e-01 -1.361086964607238770e+00
1.570000000000000000e+03 2.511448860168457031e+01 -1.213379573822021484e+01 -7.854120731353759766e-01 7.044543623924255371e-01 -2.428731694817543030e-02 -1.340910792350769043e+00
1.571000000000000000e+03 7.099841308593750000e+01 -1.812280082702636719e+01 2.108205556869506836e+00 1.046806144714355469e+01 3.772880077362060547e+00 5.363193806260824203e-03
1.572000000000000000e+03 7.086081695556640625e+01 -1.686484909057617188e+01 1.860380291938781738e+00 1.068555068969726562e+01 3.763779401779174805e+00 9.964569658041000366e-02
1.573000000000000000e+03 7.099504852294921875e+01 1.642703056335449219e+01 1.616503596305847168e+00 1.002985191345214844e+01 3.493906736373901367e+00 4.346727132797241211e-01
1.574000000000000000e+03 7.305141448974609375e+01 1.087280464172363281e+01 6.193663477897644043e-01 8.302183151245117188e+00 2.676464796066284180e+00 -3.780049681663513184e-01
1.575000000000000000e+03 6.966571044921875000e+01 1.174959850311279297e+01 1.131857872009277344e+00 1.010099029541015625e+01 3.369854450225830078e+00 8.766632676124572754e-01
1.576000000000000000e+03 8.508658409118652344e+00 -2.153582572937011719e+01 7.067728638648986816e-01 5.146459102630615234e+00 1.755969524383544922e+00 1.289447307586669922e+00
1.577000000000000000e+03 7.183633804321289062e+00 -2.396074867248535156e+01 -8.532114326953887939e-02 3.870993614196777344e+00 1.135701775550842285e+00 1.575132846832275391e+00
1.578000000000000000e+03 4.363846588134765625e+01 -2.381397247314453125e+01 2.205774784088134766e+00 9.224372863769531250e+00 3.429044246673583984e+00 -1.040203332901000977e+00
1.579000000000000000e+03 4.461596679687500000e+01 -2.526230239868164062e+01 1.890233278274536133e+00 9.018937110900878906e+00 3.272751092910766602e+00 -1.410303473472595215e+00
1.580000000000000000e+03 2.930041694641113281e+01 -6.975944519042968750e+00 1.827095985412597656e+00 2.353531360626220703e+00 1.254188179969787598e+00 -3.121629476547241211e+00
1.581000000000000000e+03 4.139446258544921875e+01 -2.344414138793945312e+01 2.122590065002441406e+00 8.991524696350097656e+00 3.334234476089477539e+00 -3.566791713237762451e-01
1.582000000000000000e+03 9.667000770568847656e+00 -1.521140289306640625e+01 1.550950050354003906e+00 6.633869171142578125e+00 2.455445766448974609e+00 5.525875091552734375e-01
1.583000000000000000e+03 4.428005218505859375e+01 -2.119530916213989258e+00 6.994856148958206177e-02 1.049710369110107422e+01 3.170115470886230469e+00 6.312239170074462891e-01
1.584000000000000000e+03 1.570267200469970703e+01 2.340345382690429688e+01 -8.532984256744384766e-01 5.569134235382080078e+00 1.414750695228576660e+00 -3.858029246330261230e-01
1.585000000000000000e+03 7.395442199707031250e+01 2.305919456481933594e+01 -5.600199103355407715e-01 8.546891212463378906e+00 2.396061420440673828e+00 9.402685165405273438e-01
1.586000000000000000e+03 6.716889953613281250e+01 2.563197326660156250e+01 -1.398940324783325195e+00 4.827416419982910156e+00 1.028542757034301758e+00 -1.344824671745300293e+00
1.587000000000000000e+03 6.405661773681640625e+01 -9.269885063171386719e+00 -7.244566082954406738e-02 2.227657079696655273e+00 6.465634703636169434e-01 -1.205419421195983887e+00
1.588000000000000000e+03 6.395945739746093750e+01 -1.048327445983886719e+01 2.009225487709045410e-01 1.440074086189270020e+00 4.922989904880523682e-01 -1.233476400375366211e+00
1.589000000000000000e+03 6.544338226318359375e+01 2.333762931823730469e+01 -1.541993618011474609e+00 2.237249612808227539e+00 2.085767835378646851e-01 -1.613308072090148926e+00
1.590000000000000000e+03 3.053444290161132812e+01 -1.252749443054199219e+01 1.651901841163635254e+00 1.489217281341552734e+00 9.423357248306274414e-01 -2.858070850372314453e+00
1.591000000000000000e+03 3.004924964904785156e+01 -8.996927261352539062e+00 1.276436567306518555e+00 1.620327472686767578e+00 8.690292239189147949e-01 -3.354578733444213867e+00
1.592000000000000000e+03 5.169480133056640625e+01 -3.492887496948242188e+01 -3.403006196022033691e-01 2.971797466278076172e+00 7.894490957260131836e-01 -1.585764646530151367e+00
1.593000000000000000e+03 5.212759017944335938e+01 -3.147184181213378906e+01 -3.166323900222778320e-01 2.384644746780395508e+00 6.204037070274353027e-01 -1.957960486412048340e+00
1.594000000000000000e+03 5.224364089965820312e+01 -2.468895912170410156e+00 1.747594356536865234e+00 7.855341434478759766e-01 7.599385380744934082e-01 5.002113431692123413e-02
1.595000000000000000e+03 4.779255294799804688e+01 -5.172930240631103516e+00 -7.289665341377258301e-01 6.567317485809326172e+00 1.751505255699157715e+00 6.237478256225585938e-01
1.596000000000000000e+03 2.777338600158691406e+01 -1.217928791046142578e+01 4.358981847763061523e-01 8.296710252761840820e-01 3.796707391738891602e-01 -2.139143943786621094e+00
1.597000000000000000e+03 2.628449440002441406e+01 -1.338433647155761719e+01 -8.329825997352600098e-01 3.857403695583343506e-01 -1.341726779937744141e-01 -1.060889244079589844e+00
1.598000000000000000e+03 2.727153778076171875e+01 -6.622852802276611328e+00 2.456220388412475586e+00 1.936281681060791016e+00 1.317750692367553711e+00 -2.670899629592895508e+00
1.599000000000000000e+03 5.196374893188476562e+01 -3.553049325942993164e+00 1.327371954917907715e+00 1.206940054893493652e+00 7.602936029434204102e-01 4.305960983037948608e-02
1.600000000000000000e+03 1.829087638854980469e+01 2.284928131103515625e+01 -1.127343058586120605e+00 5.990200996398925781e+00 1.458857417106628418e+00 7.794581055641174316e-01
1.601000000000000000e+03 5.424089813232421875e+01 2.434292984008789062e+01 -1.204694747924804688e+00 3.098971843719482422e+00 5.682831406593322754e-01 2.027185440063476562e+00
1.602000000000000000e+03 4.736816024780273438e+01 2.143616104125976562e+01 -5.426499247550964355e-01 6.398650169372558594e+00 1.756800055503845215e+00 2.453584820032119751e-01
1.603000000000000000e+03 5.102198410034179688e+01 -5.236032009124755859e+00 3.832644820213317871e-01 2.092071771621704102e+00 7.426008582115173340e-01 7.082578539848327637e-01
1.604000000000000000e+03 5.088993835449218750e+01 -2.427437305450439453e+00 1.447475433349609375e+00 2.259849786758422852e+00 1.112197518348693848e+00 -1.899120956659317017e-01
1.605000000000000000e+03 3.753614044189453125e+01 -1.800712966918945312e+01 2.955842733383178711e+00 9.271967887878417969e+00 3.668343067169189453e+00 -1.325319409370422363e+00
1.606000000000000000e+03 7.095639038085937500e+01 -2.006344985961914062e+01 1.742562294006347656e+00 1.040080833435058594e+01 3.643011093139648438e+00 -4.000827670097351074e-01
1.607000000000000000e+03 5.695644378662109375e+01 -6.397374629974365234e+00 1.309173703193664551e-01 -4.135648906230926514e-02 2.686826325953006744e-02 -1.322947293519973755e-01
1.608000000000000000e+03 5.036710262298583984e+00 4.024092864990234375e+01 -1.286756396293640137e-01 2.631066560745239258e+00 7.507172822952270508e-01 -1.000645682215690613e-01
1.609000000000000000e+03 3.374627685546875000e+01 1.997161674499511719e+01 -9.566664099693298340e-01 5.411156415939331055e-01 -1.246652230620384216e-01 -1.885543912649154663e-01
1.610000000000000000e+03 1.731807136535644531e+01 1.259970188140869141e+00 -2.870953455567359924e-02 1.346400833129882812e+01 4.030589580535888672e+00 -2.676566839218139648e-01
1.611000000000000000e+03 1.657426834106445312e+01 1.679811000823974609e+00 -1.090284824371337891e+00 1.313061904907226562e+01 3.612100124359130859e+00 -1.892579555511474609e+00
1.612000000000000000e+03 1.610463905334472656e+01 1.587820649147033691e+00 -9.789442420005798340e-01 1.252084922790527344e+01 3.462571620941162109e+00 -3.041227340698242188e+00
1.613000000000000000e+03 1.302019023895263672e+01 -2.864267110824584961e+00 3.352663040161132812e+00 9.905804395675659180e-01 1.302973031997680664e+00 2.586027145385742188e+00
1.614000000000000000e+03 1.544366359710693359e+01 -3.293424606323242188e+00 3.142690658569335938e+00 9.467965126037597656e+00 3.783196687698364258e+00 5.154938220977783203e+00
1.615000000000000000e+03 1.483975982666015625e+01 -2.993409395217895508e+00 4.517061233520507812e+00 6.137580394744873047e+00 3.196392536163330078e+00 5.649690628051757812e+00
1.616000000000000000e+03 1.822278976440429688e+01 7.373849153518676758e-01 3.092195272445678711e+00 1.105218887329101562e+01 4.243315219879150391e+00 1.245239853858947754e+00
1.617000000000000000e+03 8.839212417602539062e+00 -4.012679576873779297e+00 5.748619437217712402e-01 7.384902834892272949e-01 3.940056860446929932e-01 7.879937291145324707e-01
1.618000000000000000e+03 1.026909542083740234e+01 -3.815942764282226562e+00 1.130272388458251953e+00 8.173068165779113770e-01 5.842737555503845215e-01 1.362840771675109863e+00
1.619000000000000000e+03 1.930989456176757812e+01 2.512382864952087402e-01 4.280310630798339844e+00 7.548815727233886719e+00 3.548737764358520508e+00 1.959550976753234863e-01
1.620000000000000000e+03 1.875685501098632812e+01 2.268336057662963867e+00 -3.446419239044189453e-01 9.947317123413085938e+00 2.880802631378173828e+00 3.608345612883567810e-02
1.621000000000000000e+03 1.319947814941406250e+01 2.359716415405273438e+00 1.895526051521301270e-01 3.297552108764648438e+00 1.046131372451782227e+00 -2.360587120056152344e+00
1.622000000000000000e+03 1.151349639892578125e+01 -3.115182161331176758e+00 1.858339548110961914e+00 6.074000597000122070e-01 7.397218942642211914e-01 1.598667979240417480e+00
1.623000000000000000e+03 7.988538742065429688e+00 -3.356180429458618164e+00 2.718290388584136963e-01 4.296208024024963379e-01 2.104349583387374878e-01 3.287357389926910400e-01
1.624000000000000000e+03 9.667078971862792969e+00 -4.610464572906494141e+00 8.268086314201354980e-01 1.142793893814086914e+00 5.908807516098022461e-01 1.375615239143371582e+00
1.625000000000000000e+03 1.018631076812744141e+01 3.825552225112915039e+00 2.365646660327911377e-01 1.200974822044372559e+00 4.312618672847747803e-01 -2.779540419578552246e-01
1.626000000000000000e+03 7.091105461120605469e+00 4.894701957702636719e+00 2.535957694053649902e-01 3.159766197204589844e-01 1.708717197179794312e-01 5.916758775711059570e-01
1.627000000000000000e+03 3.696604728698730469e+00 7.375948905944824219e+00 2.366650253534317017e-01 -4.859967827796936035e-01 -7.479953020811080933e-02 5.619921684265136719e-01
1.628000000000000000e+03 7.206500053405761719e+00 3.369994640350341797e+00 -2.901414632797241211e-01 1.093394681811332703e-01 -5.424060299992561340e-02 7.019002437591552734e-01
1.629000000000000000e+03 7.927705287933349609e+00 4.072194099426269531e+00 6.901101022958755493e-02 3.580623865127563477e-01 1.281220167875289917e-01 5.111752748489379883e-01
1.630000000000000000e+03 8.704673767089843750e+00 4.000577449798583984e+00 1.271570622920989990e-01 5.629336833953857422e-01 2.070272266864776611e-01 3.217206895351409912e-01
1.631000000000000000e+03 6.268759250640869141e+00 5.666267871856689453e+00 3.484319448471069336e-01 2.063292860984802246e-01 1.664283722639083862e-01 6.256458163261413574e-01
1.632000000000000000e+03 2.534418821334838867e+00 4.934243202209472656e+00 1.773353479802608490e-02 -6.041457056999206543e-01 -1.759236454963684082e-01 6.311854124069213867e-01
1.633000000000000000e+03 3.386029720306396484e+00 3.763595819473266602e+00 -1.374464780092239380e-01 -3.343392610549926758e-01 -1.415357142686843872e-01 7.049987316131591797e-01
1.634000000000000000e+03 3.619032144546508789e+00 6.047574043273925781e+00 1.458806246519088745e-01 -4.602304100990295410e-01 -9.430493414402008057e-02 6.876075863838195801e-01
1.635000000000000000e+03 2.579340934753417969e+00 3.837814569473266602e+00 -8.861875534057617188e-02 -4.525948166847229004e-01 -1.623640656471252441e-01 6.105699539184570312e-01
1.636000000000000000e+03 1.183662700653076172e+01 3.405598402023315430e+00 2.330763638019561768e-01 2.230878591537475586e+00 7.391864657402038574e-01 -1.246429443359375000e+00
1.637000000000000000e+03 1.092167282104492188e+01 -3.740911006927490234e+00 1.500912785530090332e+00 8.731389641761779785e-01 7.122155427932739258e-01 1.685753226280212402e+00
1.638000000000000000e+03 5.055102348327636719e+00 -4.539373397827148438e+00 2.669982053339481354e-02 3.075145184993743896e-01 1.002643033862113953e-01 -1.801251471042633057e-01
1.639000000000000000e+03 5.784506320953369141e+00 -4.442949295043945312e+00 8.179902285337448120e-02 4.186569154262542725e-01 1.501367837190628052e-01 -5.607223510742187500e-02
1.640000000000000000e+03 6.542580127716064453e+00 -4.341734886169433594e+00 1.325540244579315186e-01 5.339409112930297852e-01 1.999484896659851074e-01 1.019823923707008362e-01
1.641000000000000000e+03 7.312619209289550781e+00 -4.235757827758789062e+00 2.460082322359085083e-01 6.169258356094360352e-01 2.588802278041839600e-01 3.044589161872863770e-01
1.642000000000000000e+03 4.214563846588134766e+00 -6.086879730224609375e+00 1.800635643303394318e-02 3.141417205333709717e-01 9.964442253112792969e-02 -2.449340224266052246e-01
1.643000000000000000e+03 3.290801525115966797e+00 -5.646061897277832031e+00 -5.392999853938817978e-03 -1.762708462774753571e-02 -6.906025577336549759e-03 -3.077255785465240479e-01
1.644000000000000000e+03 1.636315917968750000e+01 -4.808220386505126953e+00 1.109233975410461426e+00 8.335186004638671875e+00 2.833325862884521484e+00 1.981319546699523926e+00
1.645000000000000000e+03 9.573899269104003906e+00 -3.906270027160644531e+00 8.355489969253540039e-01 7.697892189025878906e-01 4.816014468669891357e-01 1.067301511764526367e+00
1.646000000000000000e+03 1.256694316864013672e+01 3.461585998535156250e+00 2.359457165002822876e-01 3.273560762405395508e+00 1.052851915359497070e+00 -1.794054985046386719e+00
1.647000000000000000e+03 7.871762752532958984e+00 4.845569610595703125e+00 3.105223178863525391e-01 5.293100476264953613e-01 2.519496977329254150e-01 4.526614248752593994e-01
1.648000000000000000e+03 1.140281677246093750e+01 3.653466939926147461e+00 2.825498580932617188e-01 1.967079162597656250e+00 6.748886704444885254e-01 -9.355936646461486816e-01
1.649000000000000000e+03 1.084341907501220703e+01 3.747966289520263672e+00 2.576782703399658203e-01 1.582364916801452637e+00 5.520129203796386719e-01 -6.382491588592529297e-01
1.650000000000000000e+03 1.937516784667968750e+01 -5.057806968688964844e-01 5.612603664398193359e+00 6.861125946044921875e+00 3.742118835449218750e+00 -5.029730796813964844e-01
1.651000000000000000e+03 1.857786178588867188e+01 -5.437834262847900391e-01 6.777602195739746094e+00 8.828828811645507812e+00 4.681929111480712891e+00 3.495412766933441162e-01
1.652000000000000000e+03 1.713809013366699219e+01 -4.289550304412841797e+00 1.738994002342224121e+00 9.743728637695312500e+00 3.444816827774047852e+00 1.851530522108078003e-01
1.653000000000000000e+03 1.799670410156250000e+01 -4.095464229583740234e+00 2.802090883255004883e+00 8.476542472839355469e+00 3.383589982986450195e+00 -1.653806686401367188e+00
1.654000000000000000e+03 1.895625877380371094e+01 -3.328560352325439453e+00 4.705816268920898438e+00 6.826879501342773438e+00 3.459808826446533203e+00 -2.826657295227050781e+00
1.655000000000000000e+03 2.124364852905273438e+01 -1.074322414398193359e+01 -1.973985671997070312e+00 1.333226084709167480e+00 -1.922278702259063721e-01 -1.008223533630371094e+00
1.656000000000000000e+03 2.186957359313964844e+01 -1.174546146392822266e+01 -2.516215801239013672e+00 1.014316439628601074e+00 -4.505698084831237793e-01 -7.075762748718261719e-01
1.657000000000000000e+03 6.194609451293945312e+01 -9.013088345527648926e-01 7.853220105171203613e-01 1.683019876480102539e+00 7.405025959014892578e-01 2.146316021680831909e-01
1.658000000000000000e+03 4.150984191894531250e+01 1.508120822906494141e+01 1.912229955196380615e-01 5.250457286834716797e+00 1.632504105567932129e+00 -1.098512053489685059e+00
1.659000000000000000e+03 1.805144309997558594e+01 -8.164190292358398438e+00 -3.550793826580047607e-01 3.092661857604980469e+00 8.212746977806091309e-01 3.734726309776306152e-01
1.660000000000000000e+03 2.108474540710449219e+01 -9.910211563110351562e+00 -8.966547846794128418e-01 1.437673091888427734e+00 1.623055040836334229e-01 -1.442811965942382812e+00
1.661000000000000000e+03 6.210115432739257812e+01 -7.948772430419921875e+00 1.715607792139053345e-01 1.177973031997680664e+00 4.048601388931274414e-01 -6.004485487937927246e-01
1.662000000000000000e+03 4.541932296752929688e+01 1.513202667236328125e+01 3.810054957866668701e-01 8.238723754882812500e+00 2.585918903350830078e+00 5.619093775749206543e-01
1.663000000000000000e+03 6.341397476196289062e+01 1.912914633750915527e+00 5.030417442321777344e-01 2.480559825897216797e+00 8.950805068016052246e-01 7.578868865966796875e-01
1.664000000000000000e+03 1.360189151763916016e+01 -1.036110591888427734e+01 -2.262004137039184570e+00 4.764476299285888672e+00 7.507416605949401855e-01 3.788828611373901367e+00
1.665000000000000000e+03 1.729124450683593750e+01 5.973402976989746094e+00 -5.745697617530822754e-01 9.948333740234375000e+00 2.812129259109497070e+00 -1.240530848503112793e+00
1.666000000000000000e+03 3.806104278564453125e+01 -7.856587886810302734e+00 -1.222241669893264771e-01 4.193119049072265625e+00 1.221268415451049805e+00 9.470759034156799316e-01
1.667000000000000000e+03 3.684220504760742188e+01 -7.963877201080322266e+00 1.949177086353302002e-01 3.078353166580200195e+00 9.819812774658203125e-01 2.659329771995544434e-01
1.668000000000000000e+03 4.637126541137695312e+01 9.924389839172363281e+00 9.083411097526550293e-01 1.134708595275878906e+01 3.676628112792968750e+00 1.769623637199401855e+00
1.669000000000000000e+03 6.229479217529296875e+01 9.776934981346130371e-01 6.898015737533569336e-01 1.840384960174560547e+00 7.590559720993041992e-01 5.608041882514953613e-01
1.670000000000000000e+03 6.114999008178710938e+01 3.252939879894256592e-02 9.388945102691650391e-01 1.234567046165466309e+00 6.520384550094604492e-01 3.633053302764892578e-01
1.671000000000000000e+03 2.639267349243164062e+01 -1.217640113830566406e+01 -2.290319949388504028e-01 7.202757596969604492e-01 1.473731398582458496e-01 -1.716019630432128906e+00
1.672000000000000000e+03 2.514780426025390625e+01 -7.961190700531005859e+00 1.670786619186401367e+00 1.426183938980102539e+00 9.290911555290222168e-01 -2.589269399642944336e+00
1.673000000000000000e+03 6.960787963867187500e+01 7.108645915985107422e+00 -2.604596912860870361e-01 7.669788837432861328e+00 2.222798824310302734e+00 3.895463943481445312e-01
1.674000000000000000e+03 6.307351684570312500e+01 -8.017522811889648438e+00 6.310095638036727905e-02 1.724383831024169922e+00 5.362454652786254883e-01 -8.284932374954223633e-01
1.675000000000000000e+03 1.122010803222656250e+01 -9.542005538940429688e+00 -1.213152050971984863e+00 4.884295463562011719e+00 1.101343035697937012e+00 2.430008411407470703e+00
1.676000000000000000e+03 3.429668807983398438e+01 -8.463999748229980469e+00 1.069048762321472168e+00 1.548893094062805176e+00 7.853825688362121582e-01 -1.790484905242919922e+00
1.677000000000000000e+03 3.398118209838867188e+01 -7.310811996459960938e+00 7.608767151832580566e-01 6.175649762153625488e-01 4.135324954986572266e-01 -1.670953392982482910e+00
1.678000000000000000e+03 2.168504333496093750e+01 -5.357173085212707520e-01 3.832126379013061523e+00 2.410568475723266602e+00 1.872808456420898438e+00 -1.753401517868041992e+00
1.679000000000000000e+03 3.560050582885742188e+01 -8.147551536560058594e+00 7.665291428565979004e-01 2.069194078445434570e+00 8.507169485092163086e-01 -6.869435310363769531e-01
1.680000000000000000e+03 3.434555053710937500e+01 -1.474992084503173828e+01 2.977890491485595703e+00 4.804354190826416016e+00 2.334673404693603516e+00 -2.661752223968505859e+00
1.681000000000000000e+03 2.446218872070312500e+01 -6.858280181884765625e+00 2.345670461654663086e+00 1.431029319763183594e+00 1.133009910583496094e+00 -2.684819459915161133e+00
1.682000000000000000e+03 2.533933830261230469e+01 -4.496622085571289062e+00 3.887090682983398438e+00 1.169177889823913574e+00 1.516880512237548828e+00 -2.672372579574584961e+00
1.683000000000000000e+03 5.473090362548828125e+01 -3.498665332794189453e+00 1.334546327590942383e+00 4.944745823740959167e-02 4.151981472969055176e-01 1.039761900901794434e-01
1.684000000000000000e+03 5.218025207519531250e+01 -6.001153469085693359e+00 1.699330806732177734e-01 6.496421098709106445e-01 2.458725571632385254e-01 5.197354555130004883e-01
1.685000000000000000e+03 2.158719062805175781e+01 3.470348715782165527e-01 2.736954927444458008e+00 2.828738212585449219e+00 1.669708013534545898e+00 -1.156867980957031250e+00
1.686000000000000000e+03 6.603939819335937500e+01 -3.095737838745117188e+01 -7.705576419830322266e-01 4.118901252746582031e+00 1.004503011703491211e+00 8.891178369522094727e-01
1.687000000000000000e+03 1.028018569946289062e+01 -1.175280952453613281e+01 -7.161367535591125488e-01 5.614871025085449219e+00 1.469620227813720703e+00 1.266411542892456055e+00
1.688000000000000000e+03 1.084169769287109375e+01 -1.278929042816162109e+01 -4.524841904640197754e-01 6.853401660919189453e+00 1.920275330543518066e+00 1.307341933250427246e+00
1.689000000000000000e+03 7.556260681152343750e+01 1.279574108123779297e+01 5.345591902732849121e-01 7.585190296173095703e+00 2.435924768447875977e+00 -1.986244171857833862e-01
1.690000000000000000e+03 7.550064086914062500e+01 -6.132314205169677734e-01 -2.567273080348968506e-01 7.595267772674560547e+00 2.201562166213989258e+00 -6.558089703321456909e-02
1.691000000000000000e+03 7.519205474853515625e+01 -7.931984901428222656e+00 -3.584922254085540771e-01 7.625275135040283203e+00 2.180034875869750977e+00 6.697784662246704102e-01
1.692000000000000000e+03 7.531772613525390625e+01 -3.414287090301513672e+00 -3.214314579963684082e-01 7.571998119354248047e+00 2.175169944763183594e+00 1.895399093627929688e-01
1.693000000000000000e+03 7.515168762207031250e+01 -4.894896984100341797e+00 -3.702594935894012451e-01 7.575443267822265625e+00 2.161555290222167969e+00 3.292036950588226318e-01
1.694000000000000000e+03 7.696323394775390625e+01 1.873853325843811035e+00 -1.546066254377365112e-01 7.800123214721679688e+00 2.293654918670654297e+00 -2.677244544029235840e-01
1.695000000000000000e+03 7.578231811523437500e+01 2.073646545410156250e+00 -2.014897912740707397e-01 7.633234977722167969e+00 2.229523420333862305e+00 -2.931499481201171875e-01
1.696000000000000000e+03 7.548192596435546875e+01 7.226896762847900391e+00 -3.512667864561080933e-02 7.670406341552734375e+00 2.290583848953247070e+00 -6.047161817550659180e-01
1.697000000000000000e+03 7.434925079345703125e+01 -1.126104831695556641e+01 -1.575561314821243286e-01 7.842184066772460938e+00 2.305388450622558594e+00 9.729903936386108398e-01
1.698000000000000000e+03 7.679782104492187500e+01 8.608071327209472656e+00 5.828907340764999390e-02 7.389109134674072266e+00 2.234219551086425781e+00 -5.584775209426879883e-01
1.699000000000000000e+03 7.548474884033203125e+01 8.684946060180664062e+00 3.540658950805664062e-02 7.662558078765869141e+00 2.309389352798461914e+00 -6.336277127265930176e-01
1.700000000000000000e+03 7.587577056884765625e+01 3.333398580551147461e+00 -2.330423444509506226e-01 7.649960041046142578e+00 2.225075244903564453e+00 -4.052992761135101318e-01
1.701000000000000000e+03 7.565277862548828125e+01 7.480145096778869629e-01 -2.649539113044738770e-01 7.625342845916748047e+00 2.208116531372070312e+00 -2.029285877943038940e-01
1.702000000000000000e+03 7.570108795166015625e+01 5.845884323120117188e+00 -1.731133610010147095e-01 7.629535675048828125e+00 2.236926794052124023e+00 -5.749822258949279785e-01
1.703000000000000000e+03 7.031682586669921875e+01 6.101139068603515625e+00 -2.848402857780456543e-01 7.381037712097167969e+00 2.128859281539916992e+00 1.970048695802688599e-01
1.704000000000000000e+03 7.324270629882812500e+01 -1.638714218139648438e+01 1.258224010467529297e+00 8.427063941955566406e+00 2.905586481094360352e+00 4.042924046516418457e-01
1.705000000000000000e+03 7.472173309326171875e+01 -1.401984500885009766e+01 4.144853353500366211e-01 7.615309238433837891e+00 2.408938407897949219e+00 9.097431898117065430e-01
1.706000000000000000e+03 7.574264526367187500e+01 -1.208356380462646484e+01 8.616082486696541309e-04 7.378523826599121094e+00 2.213815689086914062e+00 9.607867598533630371e-01
1.707000000000000000e+03 7.681675720214843750e+01 1.002516651153564453e+01 1.185280829668045044e-01 7.295156478881835938e+00 2.224105358123779297e+00 -5.245752334594726562e-01
1.708000000000000000e+03 7.558200073242187500e+01 1.011136627197265625e+01 2.652593255043029785e-01 7.622583389282226562e+00 2.366352796554565430e+00 -5.407560467720031738e-01
1.709000000000000000e+03 7.535826873779296875e+01 -1.911567306518554688e+01 8.316250443458557129e-01 7.306425571441650391e+00 2.441415309906005859e+00 -2.846454977989196777e-01
1.710000000000000000e+03 7.672934722900390625e+01 -1.917398643493652344e+01 4.587003886699676514e-01 6.623809337615966797e+00 2.124752998352050781e+00 -2.831702232360839844e-01
1.711000000000000000e+03 7.423936462402343750e+01 -1.934140396118164062e+01 1.133137226104736328e+00 7.840119838714599609e+00 2.691977024078369141e+00 -4.220766425132751465e-01
1.712000000000000000e+03 7.572904968261718750e+01 3.204659652709960938e+01 -1.331088542938232422e-01 8.140353202819824219e+00 2.402173280715942383e+00 -1.497237831354141235e-01
1.713000000000000000e+03 7.680078887939453125e+01 1.691115570068359375e+01 3.579100370407104492e-01 7.339139938354492188e+00 2.309115171432495117e+00 5.177388787269592285e-01
1.714000000000000000e+03 7.476990509033203125e+01 1.678264427185058594e+01 8.196840286254882812e-01 8.022973060607910156e+00 2.652796983718872070e+00 6.267139911651611328e-01
1.715000000000000000e+03 7.580863952636718750e+01 1.972257041931152344e+01 2.071417272090911865e-01 7.964379787445068359e+00 2.451456546783447266e+00 1.072842121124267578e+00
1.716000000000000000e+03 7.559525299072265625e+01 1.858396911621093750e+01 4.070762097835540771e-01 7.948515415191650391e+00 2.506677627563476562e+00 9.001991748809814453e-01
1.717000000000000000e+03 7.183342742919921875e+01 1.898968124389648438e+01 8.444882631301879883e-01 9.411761283874511719e+00 3.076874732971191406e+00 9.235521554946899414e-01
1.718000000000000000e+03 7.542996215820312500e+01 -2.979983901977539062e+01 -3.566690981388092041e-01 7.752810001373291016e+00 2.218842267990112305e+00 -5.973004698753356934e-01
1.719000000000000000e+03 7.292897796630859375e+01 -2.480563926696777344e+01 -2.211487144231796265e-01 8.321367263793945312e+00 2.430065631866455078e+00 -1.058999776840209961e+00
1.720000000000000000e+03 7.474761199951171875e+01 2.154196739196777344e+01 -1.981257200241088867e-01 8.439194679260253906e+00 2.472320556640625000e+00 1.113453269004821777e+00
1.721000000000000000e+03 7.480947113037109375e+01 -2.548194122314453125e+01 -1.794116944074630737e-01 7.846700191497802734e+00 2.300186395645141602e+00 -1.096797347068786621e+00
1.722000000000000000e+03 7.633600616455078125e+01 -2.510067749023437500e+01 -3.813213109970092773e-02 7.457884788513183594e+00 2.225925683975219727e+00 -1.030188560485839844e+00
1.723000000000000000e+03 7.545793151855468750e+01 -2.174530410766601562e+01 4.510692954063415527e-01 7.356436252593994141e+00 2.342251777648925781e+00 -8.622406721115112305e-01
1.724000000000000000e+03 7.510189056396484375e+01 -2.699859046936035156e+01 -3.228366374969482422e-01 7.762246131896972656e+00 2.231822729110717773e+00 -9.477443099021911621e-01
1.725000000000000000e+03 7.550340270996093750e+01 2.580473136901855469e+01 -4.254709482192993164e-01 8.371195793151855469e+00 2.383717536926269531e+00 5.505385398864746094e-01
1.726000000000000000e+03 7.693987274169921875e+01 2.699815368652343750e+01 -2.182611376047134399e-01 8.630860328674316406e+00 2.523779869079589844e+00 3.366698622703552246e-01
1.727000000000000000e+03 7.581925964355468750e+01 2.718429946899414062e+01 -3.881607651710510254e-01 8.432456970214843750e+00 2.413288831710815430e+00 3.042192459106445312e-01
1.728000000000000000e+03 7.755339813232421875e+01 3.038340187072753906e+01 -8.742139488458633423e-02 8.865948677062988281e+00 2.633558273315429688e+00 1.519340928643941879e-02
1.729000000000000000e+03 7.623181152343750000e+01 2.910122299194335938e+01 -2.173581719398498535e-01 8.458692550659179688e+00 2.472400188446044922e+00 1.034888252615928650e-01
1.730000000000000000e+03 7.552556610107421875e+01 2.833164787292480469e+01 -3.054623305797576904e-01 8.311894416809082031e+00 2.401929855346679688e+00 1.742912828922271729e-01
1.731000000000000000e+03 7.253054809570312500e+01 -3.143315315246582031e+01 -6.368298530578613281e-01 7.229970455169677734e+00 1.977942109107971191e+00 -1.721249967813491821e-01
1.732000000000000000e+03 7.403096771240234375e+01 -3.511646270751953125e+01 -2.363886088132858276e-01 7.190502643585205078e+00 2.086234331130981445e+00 -8.576955646276473999e-02
1.733000000000000000e+03 7.631871795654296875e+01 -3.689109802246093750e+01 -1.384890973567962646e-01 8.123773574829101562e+00 2.395585536956787109e+00 -1.054254919290542603e-01
1.734000000000000000e+03 7.644105529785156250e+01 -3.522637557983398438e+01 -1.930688321590423584e-01 7.945050239562988281e+00 2.325594425201416016e+00 -1.503260731697082520e-01
1.735000000000000000e+03 7.391403198242187500e+01 -3.334172821044921875e+01 -3.580408990383148193e-01 7.254796504974365234e+00 2.069026708602905273e+00 -1.460747569799423218e-01
1.736000000000000000e+03 7.550238800048828125e+01 -3.443881607055664062e+01 -1.907581239938735962e-01 7.691166877746582031e+00 2.250122547149658203e+00 -1.766317933797836304e-01
1.737000000000000000e+03 7.655282592773437500e+01 3.393301773071289062e+01 -3.654997050762176514e-02 8.356692314147949219e+00 2.496042728424072266e+00 -1.552594304084777832e-01
1.738000000000000000e+03 7.627721405029296875e+01 3.089740562438964844e+01 -1.620748937129974365e-01 8.411323547363281250e+00 2.474774599075317383e+00 -5.304661020636558533e-02
1.739000000000000000e+03 7.754380798339843750e+01 2.942929267883300781e+01 -8.799953013658523560e-02 8.863222122192382812e+00 2.632566690444946289e+00 7.562391459941864014e-02
1.740000000000000000e+03 3.911937713623046875e+01 1.868166542053222656e+01 -2.423608303070068359e-01 3.061835765838623047e+00 8.458424806594848633e-01 -1.098856806755065918e+00
1.741000000000000000e+03 6.530982208251953125e+01 -3.213900375366210938e+01 -6.137191057205200195e-01 3.638304710388183594e+00 9.073756933212280273e-01 9.301068782806396484e-01
1.742000000000000000e+03 3.247452020645141602e+00 -1.682308006286621094e+01 3.939399421215057373e-01 2.809634208679199219e-01 2.024710029363632202e-01 2.840790152549743652e-01
1.743000000000000000e+03 4.382986068725585938e+00 -1.386759567260742188e+01 3.537691831588745117e-01 1.133325695991516113e+00 4.461284577846527100e-01 -1.854025274515151978e-01
1.744000000000000000e+03 4.766777038574218750e+00 2.113495635986328125e+01 7.185870409011840820e-02 1.173553586006164551e+00 3.736236989498138428e-01 -1.045340418815612793e+00
1.745000000000000000e+03 6.922473907470703125e+00 -1.702225303649902344e+01 1.333505034446716309e+00 3.657031774520874023e+00 1.497161030769348145e+00 6.355710625648498535e-01
1.746000000000000000e+03 4.551258563995361328e+00 -1.541409969329833984e+01 5.666295289993286133e-01 1.309615254402160645e+00 5.628734230995178223e-01 8.671034127473831177e-02
1.747000000000000000e+03 4.458674907684326172e+00 -1.987033081054687500e+01 5.606490373611450195e-01 1.733272910118103027e+00 6.881765723228454590e-01 1.099345684051513672e+00
1.748000000000000000e+03 6.500087261199951172e+00 -1.793872451782226562e+01 1.218557715415954590e+00 3.170448780059814453e+00 1.316701889038085938e+00 8.440501689910888672e-01
1.749000000000000000e+03 8.058067321777343750e+00 -1.737699890136718750e+01 1.699691772460937500e+00 4.832127571105957031e+00 1.959545850753784180e+00 8.226574659347534180e-01
1.750000000000000000e+03 4.838799953460693359e+00 2.256996154785156250e+01 1.498753111809492111e-02 1.402041196823120117e+00 4.251086115837097168e-01 -1.078947305679321289e+00
1.751000000000000000e+03 4.583166599273681641e+00 -2.693236732482910156e+01 -2.775567173957824707e-01 2.725220441818237305e+00 7.342990636825561523e-01 1.275490760803222656e+00
1.752000000000000000e+03 3.116770029067993164e+00 -2.397607612609863281e+01 -1.749885641038417816e-02 1.587300658226013184e+00 4.709405303001403809e-01 1.218117237091064453e+00
1.753000000000000000e+03 4.473021030426025391e+00 -2.131280708312988281e+01 3.576166033744812012e-01 1.952308893203735352e+00 6.929776668548583984e-01 1.320129394531250000e+00
1.754000000000000000e+03 6.191838741302490234e+00 2.368700408935546875e+01 -8.887717127799987793e-02 2.032760381698608398e+00 5.831649303436279297e-01 -1.200773119926452637e+00
1.755000000000000000e+03 4.958887577056884766e+00 2.558335304260253906e+01 -1.375414282083511353e-01 1.808931231498718262e+00 5.014169812202453613e-01 -9.999010562896728516e-01
1.756000000000000000e+03 4.494925022125244141e+00 2.999364471435546875e+01 -1.804856956005096436e-01 2.153966426849365234e+00 5.920441746711730957e-01 -6.819201707839965820e-01
1.757000000000000000e+03 4.091486930847167969e+00 1.559955406188964844e+01 2.722177207469940186e-01 1.312730312347412109e-01 1.210472285747528076e-01 -5.523552894592285156e-01
1.758000000000000000e+03 4.633654117584228516e+00 1.968376159667968750e+01 1.517003178596496582e-01 9.082471132278442383e-01 3.179842233657836914e-01 -9.784317016601562500e-01
1.759000000000000000e+03 3.052875041961669922e+00 1.717608070373535156e+01 1.437559574842453003e-01 -2.672291100025177002e-01 -3.704194724559783936e-02 -5.698914527893066406e-01
1.760000000000000000e+03 4.226258754730224609e+00 1.690752792358398438e+01 2.459697723388671875e-01 3.272367417812347412e-01 1.719619482755661011e-01 -6.765754818916320801e-01
1.761000000000000000e+03 2.945414304733276367e+00 1.444355869293212891e+01 1.900875866413116455e-01 -6.739156246185302734e-01 -1.451484113931655884e-01 -2.933601140975952148e-01
1.762000000000000000e+03 5.224943161010742188e+00 1.431115055084228516e+01 4.943965077400207520e-01 6.201896071434020996e-01 3.343758285045623779e-01 -4.750098586082458496e-01
1.763000000000000000e+03 4.088596820831298828e+00 1.431222057342529297e+01 3.438315093517303467e-01 -3.076628781855106354e-02 9.391956776380538940e-02 -3.855227530002593994e-01
1.764000000000000000e+03 7.244543075561523438e+00 -2.168090820312500000e+01 5.747529864311218262e-01 4.172574043273925781e+00 1.424198031425476074e+00 1.533973813056945801e+00
1.765000000000000000e+03 4.391891479492187500e+00 -2.275604438781738281e+01 1.304254531860351562e-01 2.113430023193359375e+00 6.731566190719604492e-01 1.435384750366210938e+00
1.766000000000000000e+03 4.892200946807861328e+00 2.404193305969238281e+01 -7.697531580924987793e-02 1.633238554000854492e+00 4.668789803981781006e-01 -1.048087239265441895e+00
1.767000000000000000e+03 4.974193096160888672e+00 2.718374443054199219e+01 -1.830982863903045654e-01 1.991874575614929199e+00 5.426328778266906738e-01 -9.091994762420654297e-01
1.768000000000000000e+03 4.124951839447021484e+00 -9.644189834594726562e+00 -3.681084513664245605e-02 6.739415526390075684e-01 1.911392062902450562e-01 -2.773376703262329102e-01
1.769000000000000000e+03 4.037747859954833984e+00 -8.321722030639648438e+00 -2.147443965077400208e-02 4.978764057159423828e-01 1.429205834865570068e-01 -2.873306274414062500e-01
1.770000000000000000e+03 4.146977424621582031e+00 -1.241749572753906250e+01 1.421456634998321533e-01 8.913971781730651855e-01 3.100628554821014404e-01 -2.897034585475921631e-01
1.771000000000000000e+03 5.270447254180908203e+00 1.142292881011962891e+01 5.562176108360290527e-01 3.930499553680419922e-01 2.847802639007568359e-01 -5.234367400407791138e-02
1.772000000000000000e+03 3.233555793762207031e+00 -3.058990287780761719e+01 -1.890818774700164795e-01 2.874709367752075195e+00 8.056882619857788086e-01 6.914066672325134277e-01
1.773000000000000000e+03 4.555510997772216797e+00 -2.827938461303710938e+01 -3.543187081813812256e-01 2.816886425018310547e+00 7.387703061103820801e-01 1.107852458953857422e+00
1.774000000000000000e+03 4.083795070648193359e+00 1.154904747009277344e+01 3.604011237621307373e-01 -2.282075583934783936e-01 3.965807333588600159e-02 6.620674394071102142e-03
1.775000000000000000e+03 4.134835243225097656e+00 -1.102340221405029297e+01 3.278720006346702576e-02 8.139981031417846680e-01 2.540355920791625977e-01 -3.176801502704620361e-01
1.776000000000000000e+03 4.415196895599365234e+00 -5.318231105804443359e+00 4.508868325501680374e-03 2.685180604457855225e-01 8.190808445215225220e-02 -2.324703335762023926e-01
1.777000000000000000e+03 4.831271171569824219e+00 2.871174430847167969e+01 -1.946959793567657471e-01 2.091633558273315430e+00 5.690812468528747559e-01 -8.012863993644714355e-01
1.778000000000000000e+03 5.246329307556152344e+00 3.386536407470703125e+01 -2.030132859945297241e-01 2.464148998260498047e+00 6.783407330513000488e-01 -4.631407558917999268e-01
1.779000000000000000e+03 3.489076614379882812e+00 3.269624710083007812e+01 -1.123377010226249695e-01 2.253191709518432617e+00 6.422562003135681152e-01 -4.142599999904632568e-01
1.780000000000000000e+03 4.546404838562011719e+00 3.110518074035644531e+01 -1.904752403497695923e-01 2.259427309036254883e+00 6.206856369972229004e-01 -5.978606343269348145e-01
1.781000000000000000e+03 2.644642591476440430e+00 7.516378879547119141e+00 1.437304317951202393e-01 -8.621453046798706055e-01 -2.155244648456573486e-01 4.951915144920349121e-01
1.782000000000000000e+03 3.799713611602783203e+00 8.725268363952636719e+00 3.093746602535247803e-01 -4.409750103950500488e-01 -3.948010504245758057e-02 4.053557217121124268e-01
1.783000000000000000e+03 6.774995803833007812e+00 -3.087269020080566406e+01 -6.125938296318054199e-01 3.107857227325439453e+00 7.485790252685546875e-01 7.729913592338562012e-01
1.784000000000000000e+03 4.408234596252441406e+00 -2.946683692932128906e+01 -3.231876790523529053e-01 2.880473375320434570e+00 7.671856880187988281e-01 9.665998220443725586e-01
1.785000000000000000e+03 4.533909797668457031e+00 -3.059999847412109375e+01 -3.776122927665710449e-01 2.951776742935180664e+00 7.722493410110473633e-01 8.032765388488769531e-01
1.786000000000000000e+03 3.343709945678710938e+00 -3.182383346557617188e+01 -1.915378272533416748e-01 2.997725248336791992e+00 8.418562412261962891e-01 5.551316738128662109e-01
1.787000000000000000e+03 3.483937978744506836e+00 4.815398216247558594e+00 9.792209602892398834e-03 -4.127179980278015137e-01 -1.208777353167533875e-01 7.294580340385437012e-01
1.788000000000000000e+03 3.819128274917602539e+00 -4.966812133789062500e+00 1.005695853382349014e-02 1.137722954154014587e-01 3.714877739548683167e-02 -2.972725331783294678e-01
1.789000000000000000e+03 4.315782546997070312e+01 1.240832996368408203e+01 3.447827994823455811e-01 8.374635696411132812e+00 2.615825414657592773e+00 -3.805129528045654297e-01
1.790000000000000000e+03 4.424327850341796875e+01 1.487357234954833984e+01 2.745529711246490479e-01 7.601377010345458984e+00 2.362779140472412109e+00 1.418527066707611084e-01
1.791000000000000000e+03 2.664396095275878906e+01 2.448446083068847656e+01 -6.846890449523925781e-01 2.690639495849609375e-01 -1.246875301003456116e-01 4.256926774978637695e-01
1.792000000000000000e+03 2.476079368591308594e+01 2.678782081604003906e+01 -3.755075037479400635e-01 1.006773352622985840e+00 1.893797367811203003e-01 8.547204136848449707e-01
1.793000000000000000e+03 4.015600967407226562e+01 -1.823090171813964844e+01 2.693190574645996094e+00 8.919994354248046875e+00 3.483955383300781250e+00 -2.507342994213104248e-01
1.794000000000000000e+03 6.845522308349609375e+01 -2.666583633422851562e+01 -9.878666996955871582e-01 7.055569648742675781e+00 1.820310831069946289e+00 6.717540025711059570e-01
1.795000000000000000e+03 2.621574592590332031e+01 -7.306311607360839844e+00 2.133514404296875000e+00 1.648738503456115723e+00 1.134675860404968262e+00 -2.629200696945190430e+00
1.796000000000000000e+03 3.256786727905273438e+01 -7.587558269500732422e+00 1.179789066314697266e+00 7.950044274330139160e-01 5.924380421638488770e-01 -2.764709234237670898e+00
1.797000000000000000e+03 2.015773200988769531e+01 2.147854328155517578e+00 4.312376677989959717e-01 6.739713668823242188e+00 2.151285409927368164e+00 -2.547595500946044922e-01
1.798000000000000000e+03 1.932129669189453125e+01 3.621255397796630859e+00 -1.031406521797180176e+00 8.874265670776367188e+00 2.352857828140258789e+00 -4.383459389209747314e-01
1.799000000000000000e+03 3.809352493286132812e+01 1.982232284545898438e+01 -4.084516167640686035e-01 2.554211616516113281e+00 6.437279582023620605e-01 -1.017129540443420410e+00
1.800000000000000000e+03 3.579589080810546875e+01 -1.427050685882568359e+01 2.184247016906738281e+00 6.201981544494628906e+00 2.515868425369262695e+00 -1.827527880668640137e+00
1.801000000000000000e+03 4.168972778320312500e+01 1.774461364746093750e+01 -1.237139403820037842e-01 4.875547409057617188e+00 1.425550103187561035e+00 -9.479959011077880859e-01
1.802000000000000000e+03 4.567907714843750000e+01 7.169939517974853516e+00 1.172316074371337891e+00 1.242252922058105469e+01 4.078453540802001953e+00 1.204443693161010742e+00
1.803000000000000000e+03 4.521346664428710938e+01 1.018002891540527344e+01 8.809902667999267578e-01 1.090990257263183594e+01 3.537267923355102539e+00 1.323795437812805176e+00
1.804000000000000000e+03 4.658353042602539062e+01 1.124241733551025391e+01 8.443348407745361328e-01 1.085819911956787109e+01 3.510760307312011719e+00 1.899919509887695312e+00
1.805000000000000000e+03 2.868550109863281250e+01 2.526436996459960938e+01 -5.301936864852905273e-01 4.168703258037567139e-01 -3.399701789021492004e-02 2.248155698180198669e-02
1.806000000000000000e+03 2.923665237426757812e+01 2.344956398010253906e+01 -1.062245726585388184e+00 1.297073364257812500e-01 -2.797615230083465576e-01 7.501189596951007843e-03
1.807000000000000000e+03 7.504499816894531250e+01 1.493315792083740234e+01 6.736618876457214355e-01 7.801158428192138672e+00 2.542446136474609375e+00 2.920915484428405762e-01
1.808000000000000000e+03 7.365423583984375000e+01 -1.765264129638671875e+01 1.282354354858398438e+00 8.151419639587402344e+00 2.830132246017456055e+00 1.420393735170364380e-01
1.809000000000000000e+03 9.604537963867187500e+00 -1.303124809265136719e+01 1.895976662635803223e-01 5.889998435974121094e+00 1.823878765106201172e+00 4.522430300712585449e-01
1.810000000000000000e+03 1.486077785491943359e+01 1.457522487640380859e+01 1.310766935348510742e+00 7.738392353057861328e+00 2.714747905731201172e+00 -7.241875529289245605e-01
1.811000000000000000e+03 2.323946952819824219e+01 -2.727524280548095703e+00 4.188917636871337891e+00 1.109085559844970703e+00 1.589401006698608398e+00 -2.727463960647583008e+00
1.812000000000000000e+03 2.368392562866210938e+01 -4.351918220520019531e+00 4.017054080963134766e+00 1.201396226882934570e+00 1.565535068511962891e+00 -2.957508802413940430e+00
1.813000000000000000e+03 4.735033798217773438e+01 3.597751259803771973e-01 8.478913307189941406e-01 8.658934593200683594e+00 2.852047681808471680e+00 -6.513450741767883301e-01
1.814000000000000000e+03 5.910049057006835938e+01 2.770402717590332031e+01 -2.212308645248413086e-01 1.178719639778137207e+00 2.872466146945953369e-01 9.160957336425781250e-01
1.815000000000000000e+03 5.707532501220703125e+01 2.648577880859375000e+01 -6.798035502433776855e-01 1.416117072105407715e+00 2.208940684795379639e-01 1.533738851547241211e+00
1.816000000000000000e+03 1.366244888305664062e+01 1.413517475128173828e+01 1.354682803153991699e+00 6.441045761108398438e+00 2.338718652725219727e+00 -8.554294109344482422e-01
1.817000000000000000e+03 1.514001464843750000e+01 1.336178779602050781e+01 1.283038258552551270e+00 8.230412483215332031e+00 2.854035139083862305e+00 -7.995570898056030273e-01
1.818000000000000000e+03 6.451177215576171875e+01 2.844488143920898438e+00 2.663125395774841309e-01 3.294598817825317383e+00 1.068273425102233887e+00 9.532381892204284668e-01
1.819000000000000000e+03 2.917808723449707031e+01 -1.234040164947509766e+01 1.110228657722473145e+00 9.525071382522583008e-01 6.188207268714904785e-01 -2.457264423370361328e+00
1.820000000000000000e+03 5.636262893676757812e+01 -5.462811946868896484e+00 4.900817871093750000e-01 -7.293193042278289795e-02 1.251449584960937500e-01 -1.423863470554351807e-01
1.821000000000000000e+03 5.519330978393554688e+01 -6.077762603759765625e+00 9.435213357210159302e-02 -3.224010169506072998e-01 -6.841466575860977173e-02 -1.499543339014053345e-01
1.822000000000000000e+03 4.809049224853515625e+01 1.877788734436035156e+01 5.599451661109924316e-01 7.446067810058593750e+00 2.401803970336914062e+00 1.025977253913879395e+00
1.823000000000000000e+03 4.169995117187500000e+01 1.996241569519042969e+01 -4.197614490985870361e-01 4.597029209136962891e+00 1.253180384635925293e+00 -9.759222269058227539e-01
1.824000000000000000e+03 2.585453224182128906e+01 -8.939969062805175781e+00 1.119089722633361816e+00 1.412500977516174316e+00 7.594771981239318848e-01 -2.558136701583862305e+00
1.825000000000000000e+03 1.721805572509765625e+01 6.820086956024169922e+00 -1.811320632696151733e-01 9.830166816711425781e+00 2.894710540771484375e+00 -1.246735930442810059e+00
1.826000000000000000e+03 1.679347991943359375e+01 8.521475791931152344e+00 6.688899993896484375e-01 9.584343910217285156e+00 3.075970172882080078e+00 -1.333491563796997070e+00
1.827000000000000000e+03 3.844216918945312500e+01 -2.033789443969726562e+01 2.413718461990356445e+00 9.777651786804199219e+00 3.657411098480224609e+00 -7.890799641609191895e-01
1.828000000000000000e+03 7.092992401123046875e+01 2.179868698120117188e+01 -6.659110188484191895e-01 8.842310905456542969e+00 2.452919960021972656e+00 5.870332121849060059e-01
1.829000000000000000e+03 1.538012790679931641e+01 1.214189529418945312e+01 1.211443781852722168e+00 8.501625061035156250e+00 2.913920640945434570e+00 -9.626562595367431641e-01
1.830000000000000000e+03 4.430181121826171875e+01 1.387876701354980469e+01 2.941549718379974365e-01 8.228387832641601562e+00 2.556762933731079102e+00 2.514431774616241455e-01
1.831000000000000000e+03 4.963438415527343750e+01 -2.331175327301025391e+00 1.042159795761108398e+00 3.827394247055053711e+00 1.460866212844848633e+00 -3.518214225769042969e-01
1.832000000000000000e+03 5.100787734985351562e+01 -1.109648346900939941e+00 1.960550785064697266e+00 1.563124060630798340e+00 1.057102441787719727e+00 -5.592738986015319824e-01
1.833000000000000000e+03 4.832589340209960938e+01 -3.078465461730957031e+01 -3.678997457027435303e-01 5.129825592041015625e+00 1.428577780723571777e+00 -1.937865376472473145e+00
1.834000000000000000e+03 4.747962951660156250e+01 -9.980346560478210449e-01 6.416108012199401855e-01 7.354154586791992188e+00 2.398729562759399414e+00 -7.100553512573242188e-01
1.835000000000000000e+03 4.637136077880859375e+01 -1.293277621269226074e+00 5.590127706527709961e-01 9.027284622192382812e+00 2.875889301300048828e+00 -2.263297438621520996e-01
1.836000000000000000e+03 3.819486999511718750e+01 2.240115165710449219e+01 -6.202476024627685547e-01 2.870323419570922852e+00 6.750227808952331543e-01 -1.014729261398315430e+00
1.837000000000000000e+03 3.465920639038085938e+01 2.125276947021484375e+01 -7.739281654357910156e-01 1.185577511787414551e+00 1.234948188066482544e-01 -6.197685599327087402e-01
1.838000000000000000e+03 2.741835212707519531e+01 2.571529579162597656e+01 -5.192948579788208008e-01 4.782708883285522461e-01 -1.230719964951276779e-02 2.663782536983489990e-01
1.839000000000000000e+03 4.553034591674804688e+01 1.789177775382995605e+00 1.567878246307373047e+00 1.154132556915283203e+01 3.932761192321777344e+00 8.738507628440856934e-01
1.840000000000000000e+03 1.935116577148437500e+01 -3.712821197509765625e+01 -2.474237680435180664e-01 5.493441224098205566e-01 9.057611227035522461e-02 -1.956130415201187134e-01
1.841000000000000000e+03 3.071725654602050781e+01 -3.773387908935546875e+01 -6.693550944328308105e-01 2.297055006027221680e+00 4.883099794387817383e-01 8.332241773605346680e-01
1.842000000000000000e+03 7.345794677734375000e+01 -2.322968101501464844e+01 3.655351400375366211e-01 8.289807319641113281e+00 2.596602916717529297e+00 -1.173711538314819336e+00
1.843000000000000000e+03 6.927787017822265625e+01 -2.418367004394531250e+01 -2.712441980838775635e-01 8.700062751770019531e+00 2.528645515441894531e+00 2.021873891353607178e-01
1.844000000000000000e+03 6.517880249023437500e+01 2.665734100341796875e+01 -7.757068872451782227e-01 2.974165678024291992e+00 6.595376729965209961e-01 -1.128353118896484375e+00
1.845000000000000000e+03 3.948028182983398438e+01 -1.977115058898925781e+01 2.634122371673583984e+00 9.373658180236816406e+00 3.602334022521972656e+00 -5.185778737068176270e-01
1.846000000000000000e+03 1.980958366394042969e+01 -9.417900085449218750e+00 -9.892687201499938965e-01 1.833019733428955078e+00 2.531253099441528320e-01 -1.112740874290466309e+00
1.847000000000000000e+03 5.851519775390625000e+01 -6.211222171783447266e+00 3.164195418357849121e-01 2.226803898811340332e-01 1.617299765348434448e-01 -1.770032048225402832e-01
1.848000000000000000e+03 5.586249923706054688e+01 -1.832196712493896484e+00 1.546147823333740234e+00 6.101249903440475464e-02 4.821481108665466309e-01 1.648336648941040039e-01
1.849000000000000000e+03 4.262712860107421875e+01 -1.791749191284179688e+01 2.081035614013671875e+00 9.800108909606933594e+00 3.564343452453613281e+00 1.920037716627120972e-01
1.850000000000000000e+03 7.024967193603515625e+01 1.063427734375000000e+01 9.609680175781250000e-01 9.363158226013183594e+00 3.097237825393676758e+00 4.672793745994567871e-01
1.851000000000000000e+03 7.179652404785156250e+01 4.089593505859375000e+01 2.823664844036102295e-01 6.491989135742187500e+00 2.032306671142578125e+00 -9.794853627681732178e-02
1.852000000000000000e+03 3.926877975463867188e+01 -7.746507644653320312e+00 -6.269601583480834961e-01 5.624824523925781250e+00 1.499359369277954102e+00 1.492193698883056641e+00
1.853000000000000000e+03 1.567902278900146484e+01 9.805698394775390625e+00 1.011434793472290039e+00 8.516083717346191406e+00 2.858255386352539062e+00 -1.128076672554016113e+00
1.854000000000000000e+03 4.223003768920898438e+01 -1.488054656982421875e+01 1.717315196990966797e+00 8.894144058227539062e+00 3.183437585830688477e+00 7.381310462951660156e-01
1.855000000000000000e+03 4.915916824340820312e+01 -7.076332569122314453e+00 -7.889217138290405273e-01 4.714217662811279297e+00 1.177588820457458496e+00 1.331756472587585449e+00
1.856000000000000000e+03 4.717335128784179688e+01 -6.903486251831054688e+00 -1.298954367637634277e+00 7.376695632934570312e+00 1.823322296142578125e+00 1.106268525123596191e+00
1.857000000000000000e+03 1.355987739562988281e+01 -2.977119827270507812e+01 -1.017078518867492676e+00 2.385099172592163086e+00 4.104062020778656006e-01 -2.046214938163757324e-01
1.858000000000000000e+03 1.614295768737792969e+01 -3.237887954711914062e+01 -8.800387382507324219e-01 1.241701006889343262e+00 1.084986925125122070e-01 -3.234088420867919922e-01
1.859000000000000000e+03 5.428028106689453125e+01 2.542021751403808594e+01 -1.007208108901977539e+00 2.887119770050048828e+00 5.639735460281372070e-01 1.921421289443969727e+00
1.860000000000000000e+03 4.255352020263671875e+01 -2.099009323120117188e+01 2.382111549377441406e+00 9.699739456176757812e+00 3.624555349349975586e+00 -5.753021240234375000e-01
1.861000000000000000e+03 1.418107032775878906e+01 -3.378261184692382812e+01 -8.166785240173339844e-01 1.823920488357543945e+00 3.021725714206695557e-01 -2.509157359600067139e-01
1.862000000000000000e+03 8.655619621276855469e+00 -2.020654678344726562e+01 1.018593907356262207e+00 5.695704460144042969e+00 2.014289617538452148e+00 1.299406051635742188e+00
1.863000000000000000e+03 2.988594245910644531e+01 -8.033914566040039062e+00 1.434907197952270508e+00 1.791342854499816895e+00 9.678750038146972656e-01 -3.387455701828002930e+00
1.864000000000000000e+03 4.628096389770507812e+01 2.667657613754272461e+00 1.549546837806701660e+00 1.083489704132080078e+01 3.715333223342895508e+00 5.759982466697692871e-01
1.865000000000000000e+03 4.369865036010742188e+01 -1.034521222114562988e+00 1.104788303375244141e+00 1.174472618103027344e+01 3.854854345321655273e+00 1.216272950172424316e+00
1.866000000000000000e+03 4.615967941284179688e+01 -3.404013067483901978e-02 9.934224486351013184e-01 9.631603240966796875e+00 3.187507629394531250e+00 1.465327292680740356e-01
1.867000000000000000e+03 1.159263610839843750e+01 -2.789337348937988281e+01 -1.003820061683654785e+00 3.401205301284790039e+00 7.192155718803405762e-01 1.081282868981361389e-01
1.868000000000000000e+03 1.124106407165527344e+01 -2.473191642761230469e+01 -4.211650490760803223e-01 4.771599769592285156e+00 1.305130481719970703e+00 6.911009550094604492e-03
1.869000000000000000e+03 4.571492385864257812e+01 -1.017979049682617188e+01 -3.322964906692504883e-01 8.850605010986328125e+00 2.555492639541625977e+00 1.295181155204772949e+00
1.870000000000000000e+03 4.131488037109375000e+01 -1.070734024047851562e+01 7.789716124534606934e-02 7.731308937072753906e+00 2.342761754989624023e+00 9.913533329963684082e-01
1.871000000000000000e+03 6.557869720458984375e+01 3.760546445846557617e+00 1.053290069103240967e-01 4.115050792694091797e+00 1.266113996505737305e+00 1.057732462882995605e+00
1.872000000000000000e+03 6.582189178466796875e+01 5.676023960113525391e+00 2.276135236024856567e-01 4.485462665557861328e+00 1.413922905921936035e+00 1.439164042472839355e+00
1.873000000000000000e+03 5.860553359985351562e+01 -3.505862808227539062e+01 4.225844442844390869e-01 1.030514478683471680e+00 4.359296858310699463e-01 -2.244273275136947632e-01
1.874000000000000000e+03 6.254196929931640625e+01 -3.530467987060546875e+01 2.415032833814620972e-01 2.276904344558715820e+00 7.555223107337951660e-01 5.605500936508178711e-01
1.875000000000000000e+03 7.177999114990234375e+01 1.380330276489257812e+01 1.247426033020019531e+00 9.570584297180175781e+00 3.245403289794921875e+00 1.154271289706230164e-01
1.876000000000000000e+03 7.233611297607421875e+01 1.600794219970703125e+01 1.235883951187133789e+00 9.309617042541503906e+00 3.163650274276733398e+00 6.618621349334716797e-01
1.877000000000000000e+03 3.932234191894531250e+01 -2.235565757751464844e+01 2.087919473648071289e+00 9.576301574707031250e+00 3.499266147613525391e+00 1.193850859999656677e-02
1.878000000000000000e+03 4.373408126831054688e+01 -2.248257827758789062e+01 2.319743871688842773e+00 9.786324501037597656e+00 3.631820678710937500e+00 -9.789254665374755859e-01
1.879000000000000000e+03 3.691426467895507812e+01 2.231924438476562500e+01 -6.149024367332458496e-01 2.046719551086425781e+00 4.295451045036315918e-01 -9.390527009963989258e-01
1.880000000000000000e+03 3.546416854858398438e+01 2.654982185363769531e+01 -5.170267820358276367e-01 1.949262738227844238e+00 4.296707808971405029e-01 -8.275862932205200195e-01
1.881000000000000000e+03 3.973559951782226562e+01 -3.248302459716796875e+01 -1.214453816413879395e+00 6.734889984130859375e+00 1.656130909919738770e+00 9.789498150348663330e-02
1.882000000000000000e+03 3.503937530517578125e+01 -3.109800720214843750e+01 -7.630218863487243652e-01 5.367747783660888672e+00 1.381417870521545410e+00 1.382453322410583496e+00
1.883000000000000000e+03 3.041272544860839844e+01 2.284177398681640625e+01 -1.173180460929870605e+00 2.038705497980117798e-01 -2.907929718494415283e-01 -1.362867802381515503e-01
1.884000000000000000e+03 1.459307003021240234e+01 1.831442832946777344e+01 1.237751841545104980e+00 6.497007846832275391e+00 2.320427894592285156e+00 -7.491558790206909180e-01
1.885000000000000000e+03 1.415775585174560547e+01 1.924167633056640625e+01 7.431730031967163086e-01 5.931073665618896484e+00 2.002274036407470703e+00 -1.076743483543395996e+00
1.886000000000000000e+03 6.067922592163085938e+01 2.697062683105468750e+01 -4.161593616008758545e-01 8.599050045013427734e-01 1.331236958503723145e-01 3.910335302352905273e-01
1.887000000000000000e+03 9.490430831909179688e+00 -1.642252159118652344e+01 2.044911623001098633e+00 6.714815616607666016e+00 2.627918243408203125e+00 8.422594666481018066e-01
1.888000000000000000e+03 4.623878955841064453e+00 -1.698605728149414062e+01 6.982064843177795410e-01 1.536021113395690918e+00 6.702682971954345703e-01 4.531860351562500000e-01
1.889000000000000000e+03 4.661051940917968750e+01 -2.639517545700073242e+00 -1.023207083344459534e-01 8.080434799194335938e+00 2.393434286117553711e+00 -1.955114156007766724e-01
1.890000000000000000e+03 7.139569854736328125e+01 -1.587646198272705078e+01 1.482574224472045898e+00 9.897238731384277344e+00 3.413944005966186523e+00 3.419980406761169434e-01
1.891000000000000000e+03 4.396260452270507812e+01 1.036963558197021484e+01 7.052803039550781250e-01 1.051394462585449219e+01 3.365767478942871094e+00 3.202056288719177246e-01
1.892000000000000000e+03 7.199664306640625000e+01 1.484945487976074219e+01 1.430458068847656250e+00 9.171792030334472656e+00 3.180675268173217773e+00 3.075399994850158691e-01
1.893000000000000000e+03 3.275177001953125000e+01 -3.476837921142578125e+01 -9.449322819709777832e-01 3.307899236679077148e+00 7.088900804519653320e-01 1.301939964294433594e+00
1.894000000000000000e+03 4.687555694580078125e+01 -9.013600349426269531e+00 -8.611027598381042480e-01 7.935087203979492188e+00 2.122195482254028320e+00 1.405830383300781250e+00
1.895000000000000000e+03 4.229822921752929688e+01 -9.216330528259277344e+00 -8.076104521751403809e-01 8.178821563720703125e+00 2.211363315582275391e+00 1.277713298797607422e+00
1.896000000000000000e+03 7.358590698242187500e+01 9.816257476806640625e+00 3.331505656242370605e-01 8.172951698303222656e+00 2.551830768585205078e+00 -4.716510474681854248e-01
1.897000000000000000e+03 3.953799819946289062e+01 -2.500694084167480469e+01 1.687576532363891602e+00 8.659667968750000000e+00 3.104173421859741211e+00 1.091726794838905334e-01
1.898000000000000000e+03 5.438823318481445312e+01 -2.277918815612792969e+00 1.653308033943176270e+00 1.528112590312957764e-01 5.418357849121093750e-01 2.074724137783050537e-01
1.899000000000000000e+03 4.735151672363281250e+01 1.992733001708984375e+01 -9.079895168542861938e-02 7.021976470947265625e+00 2.079353332519531250e+00 5.002315640449523926e-01
1.900000000000000000e+03 1.390400791168212891e+01 -3.105834197998046875e+01 -9.639310240745544434e-01 2.093755245208740234e+00 3.389472961425781250e-01 -2.544833719730377197e-01
1.901000000000000000e+03 6.633489990234375000e+01 -9.225979804992675781e+00 -3.806906342506408691e-01 4.691151142120361328e+00 1.293138146400451660e+00 -1.434282064437866211e+00
1.902000000000000000e+03 6.519493865966796875e+01 -8.073107719421386719e+00 -1.916598677635192871e-01 3.539335966110229492e+00 1.004302859306335449e+00 -1.203311204910278320e+00
1.903000000000000000e+03 4.304856109619140625e+01 -7.287991046905517578e+00 -1.690766096115112305e+00 8.904246330261230469e+00 2.164043903350830078e+00 1.306172013282775879e+00
1.904000000000000000e+03 5.807969284057617188e+01 -3.692494869232177734e+00 1.018805503845214844e+00 1.790507733821868896e-01 3.593569099903106689e-01 -1.356605738401412964e-01
1.905000000000000000e+03 5.814965057373046875e+01 -1.748396992683410645e+00 1.279313087463378906e+00 2.819852530956268311e-01 4.683895111083984375e-01 5.717969313263893127e-02
1.906000000000000000e+03 7.094475555419921875e+01 9.557750701904296875e+00 3.891428112983703613e-01 8.525694847106933594e+00 2.674451351165771484e+00 -1.999722607433795929e-02
1.907000000000000000e+03 5.531205654144287109e+00 -2.320477294921875000e+01 1.172880828380584717e-01 2.889709234237670898e+00 9.020991921424865723e-01 1.532570838928222656e+00
1.908000000000000000e+03 3.940077972412109375e+01 -2.672613716125488281e+01 9.918395280838012695e-01 8.245755195617675781e+00 2.771278381347656250e+00 1.754549741744995117e-01
1.909000000000000000e+03 3.600378417968750000e+01 -3.241867828369140625e+01 -1.123682022094726562e+00 5.720384120941162109e+00 1.379010677337646484e+00 1.059778928756713867e+00
1.910000000000000000e+03 6.273954391479492188e+01 2.788171195983886719e+01 -1.522777676582336426e-01 1.759474039077758789e+00 4.821588993072509766e-01 -3.628146350383758545e-01
1.911000000000000000e+03 3.986896514892578125e+01 -2.333539581298828125e+01 2.048679351806640625e+00 9.129382133483886719e+00 3.353418588638305664e+00 -2.350811101496219635e-02
1.912000000000000000e+03 4.835799407958984375e+01 -6.146711826324462891e+00 -7.741239666938781738e-01 5.815791606903076172e+00 1.512500286102294922e+00 9.601246118545532227e-01
1.913000000000000000e+03 4.119817733764648438e+01 -2.542115402221679688e+01 1.577577948570251465e+00 8.502875328063964844e+00 3.024136066436767578e+00 -2.506052553653717041e-01
1.914000000000000000e+03 6.851215362548828125e+01 -7.563408851623535156e+00 -7.655403614044189453e-01 6.204872131347656250e+00 1.631799578666687012e+00 -6.604475378990173340e-01
1.915000000000000000e+03 7.060864257812500000e+01 -1.483774185180664062e+01 1.241681456565856934e+00 9.870417594909667969e+00 3.333629846572875977e+00 2.044173628091812134e-01
1.916000000000000000e+03 7.073828125000000000e+01 -1.195080089569091797e+01 -2.132591307163238525e-01 8.801836967468261719e+00 2.576573371887207031e+00 4.193456172943115234e-01
1.917000000000000000e+03 6.041645050048828125e+01 -3.416373443603515625e+01 6.747752428054809570e-02 1.140004992485046387e+00 3.622447550296783447e-01 2.504508793354034424e-01
1.918000000000000000e+03 2.630540275573730469e+01 -9.867797851562500000e+00 7.799814343452453613e-01 1.274894356727600098e+00 6.164627671241760254e-01 -2.459232568740844727e+00
1.919000000000000000e+03 6.674988555908203125e+01 2.445829391479492188e+01 -1.538925647735595703e+00 4.269505023956298828e+00 8.191737532615661621e-01 -1.454172611236572266e+00
1.920000000000000000e+03 4.187745285034179688e+01 -6.670797824859619141e+00 -1.723390817642211914e+00 8.433193206787109375e+00 2.012940645217895508e+00 1.787950277328491211e+00
1.921000000000000000e+03 4.207329177856445312e+01 -3.003489255905151367e+00 -3.056262433528900146e-01 1.047294616699218750e+01 3.050195932388305664e+00 1.930747985839843750e+00
1.922000000000000000e+03 8.297781944274902344e+00 -1.622266387939453125e+01 1.646498084068298340e+00 5.067499160766601562e+00 2.014199256896972656e+00 5.139394402503967285e-01
1.923000000000000000e+03 7.182077789306640625e+01 -1.416910839080810547e+01 6.931719183921813965e-01 9.054793357849121094e+00 2.924389600753784180e+00 7.136168479919433594e-01
1.924000000000000000e+03 1.110161113739013672e+01 -2.631579971313476562e+01 -7.937596440315246582e-01 4.099756240844726562e+00 9.917990565299987793e-01 2.323331385850906372e-01
1.925000000000000000e+03 1.046514892578125000e+01 -2.539877891540527344e+01 -8.000738620758056641e-01 4.449777126312255859e+00 1.094910979270935059e+00 6.114881634712219238e-01
1.926000000000000000e+03 7.216254425048828125e+01 -2.033693313598632812e+01 1.467163920402526855e+00 8.972175598144531250e+00 3.131801843643188477e+00 -5.772053599357604980e-01
1.927000000000000000e+03 4.336053085327148438e+01 -4.499993324279785156e+00 -1.427786231040954590e+00 9.991613388061523438e+00 2.569148302078247070e+00 1.129271745681762695e+00
1.928000000000000000e+03 4.681505966186523438e+01 -3.095246696472167969e+01 -5.254416465759277344e-01 6.119194507598876953e+00 1.678125977516174316e+00 -1.779047608375549316e+00
1.929000000000000000e+03 4.868579483032226562e+01 -3.236014556884765625e+01 -5.667358040809631348e-01 4.871422767639160156e+00 1.291406035423278809e+00 -1.840905666351318359e+00
1.930000000000000000e+03 1.200510978698730469e+01 -2.695707511901855469e+01 -9.493261575698852539e-01 3.575155735015869141e+00 7.877488732337951660e-01 -6.636145408265292645e-04
1.931000000000000000e+03 1.531603240966796875e+01 1.746034812927246094e+01 1.235937118530273438e+00 7.622241497039794922e+00 2.657453536987304688e+00 -4.615855515003204346e-01
1.932000000000000000e+03 1.529757404327392578e+01 1.912465667724609375e+01 1.023401737213134766e+00 6.671670913696289062e+00 2.308521747589111328e+00 -6.899074912071228027e-01
1.933000000000000000e+03 4.044269561767578125e+01 -7.714182853698730469e+00 -1.035394787788391113e+00 6.945750236511230469e+00 1.773106694221496582e+00 1.540601134300231934e+00
1.934000000000000000e+03 6.664154815673828125e+01 -2.703375816345214844e+01 -6.707531809806823730e-01 5.040744781494140625e+00 1.310997486114501953e+00 1.126838803291320801e+00
1.935000000000000000e+03 6.667260742187500000e+01 -2.979463386535644531e+01 -8.459858894348144531e-01 4.661437988281250000e+00 1.144635558128356934e+00 9.741529822349548340e-01
1.936000000000000000e+03 3.754583358764648438e+01 -1.512638664245605469e+01 2.291377067565917969e+00 7.460102558135986328e+00 2.925443887710571289e+00 -8.020099997520446777e-01
1.937000000000000000e+03 3.697451400756835938e+01 -1.673102188110351562e+01 3.083172798156738281e+00 8.375325202941894531e+00 3.437549352645874023e+00 -1.445372581481933594e+00
1.938000000000000000e+03 1.917733192443847656e+01 2.395389747619628906e+01 -1.089106202125549316e+00 4.381469249725341797e+00 9.877089858055114746e-01 1.296712040901184082e+00
1.939000000000000000e+03 1.568227386474609375e+01 2.029663276672363281e+01 4.159226417541503906e-01 6.757687568664550781e+00 2.152083158493041992e+00 -7.682098150253295898e-01
1.940000000000000000e+03 7.131777954101562500e+01 1.773615646362304688e+01 1.189850091934204102e+00 9.790004730224609375e+00 3.293956279754638672e+00 9.456881284713745117e-01
1.941000000000000000e+03 1.433636569976806641e+01 -3.033114671707153320e+00 4.543807506561279297e+00 3.876444101333618164e+00 2.526075363159179688e+00 4.842065811157226562e+00
1.942000000000000000e+03 1.586788463592529297e+01 1.047978878021240234e+00 -4.141075313091278076e-01 1.285673236846923828e+01 3.732787370681762695e+00 -4.188834190368652344e+00
1.943000000000000000e+03 1.438815402984619141e+01 1.655325412750244141e+00 2.888222634792327881e-01 5.451096534729003906e+00 1.721975684165954590e+00 -3.763369798660278320e+00
1.944000000000000000e+03 1.432353496551513672e+01 1.175469756126403809e+00 7.954495549201965332e-01 4.583014011383056641e+00 1.613539099693298340e+00 -3.819771051406860352e+00
1.945000000000000000e+03 1.293782043457031250e+01 5.131281852722167969e+00 2.918294966220855713e-01 4.652753829956054688e+00 1.483374953269958496e+00 -1.608337998390197754e+00
1.946000000000000000e+03 1.269459533691406250e+01 2.645825147628784180e+00 1.850315928459167480e-01 2.815700292587280273e+00 9.002195596694946289e-01 -1.886401772499084473e+00
1.947000000000000000e+03 1.540622901916503906e+01 -3.851818084716796875e+00 2.207003593444824219e+00 8.678512573242187500e+00 3.265654802322387695e+00 4.366340637207031250e+00
1.948000000000000000e+03 1.689854621887207031e+01 2.294227838516235352e+00 -1.470679044723510742e+00 1.208568954467773438e+01 3.184503078460693359e+00 -1.599777460098266602e+00
1.949000000000000000e+03 1.737926292419433594e+01 4.106112480163574219e+00 -1.547306299209594727e+00 1.044127655029296875e+01 2.668190956115722656e+00 -1.200880885124206543e+00
1.950000000000000000e+03 1.959844398498535156e+01 1.384309768676757812e+00 1.624738693237304688e+00 7.894262313842773438e+00 2.855700254440307617e+00 2.256139665842056274e-01
1.951000000000000000e+03 1.667956924438476562e+01 1.135918021202087402e+00 -2.082431614398956299e-01 1.438275814056396484e+01 4.252354621887207031e+00 -1.212858557701110840e+00
1.952000000000000000e+03 1.860912704467773438e+01 2.904836893081665039e+00 -1.162750959396362305e+00 1.042567253112792969e+01 2.778876543045043945e+00 -3.620510399341583252e-01
1.953000000000000000e+03 1.210949707031250000e+01 -3.613040685653686523e+00 2.332867622375488281e+00 1.151673913002014160e+00 1.045362472534179688e+00 2.420687198638916016e+00
1.954000000000000000e+03 1.639521980285644531e+01 -6.585277557373046875e+00 1.676888167858123779e-01 5.591398715972900391e+00 1.727726221084594727e+00 2.114865303039550781e+00
1.955000000000000000e+03 1.588245773315429688e+01 -3.978219032287597656e+00 1.844092488288879395e+00 9.449899673461914062e+00 3.388197660446166992e+00 3.185593843460083008e+00
1.956000000000000000e+03 1.034699726104736328e+01 -4.473709106445312500e+00 1.119657039642333984e+00 1.198289275169372559e+00 6.953839063644409180e-01 1.717067122459411621e+00
1.957000000000000000e+03 8.945803642272949219e+00 -4.763420581817626953e+00 5.957157611846923828e-01 1.083689332008361816e+00 5.038214921951293945e-01 1.060598492622375488e+00
1.958000000000000000e+03 1.153516197204589844e+01 -3.675554275512695312e+00 1.892482161521911621e+00 9.871644377708435059e-01 8.638939857482910156e-01 2.045378923416137695e+00
1.959000000000000000e+03 1.507046508789062500e+01 -6.247341632843017578e+00 4.216004908084869385e-01 5.437895298004150391e+00 1.757848739624023438e+00 3.492333173751831055e+00
1.960000000000000000e+03 1.579600048065185547e+01 -4.618905067443847656e+00 1.366615414619445801e+00 8.213353157043457031e+00 2.873990535736083984e+00 3.231581926345825195e+00
1.961000000000000000e+03 1.382211208343505859e+01 3.336445808410644531e+00 -5.116516351699829102e-02 5.346695899963378906e+00 1.588659167289733887e+00 -2.633229255676269531e+00
1.962000000000000000e+03 1.303346347808837891e+01 3.134773731231689453e+00 1.884503662586212158e-01 3.742863416671752930e+00 1.179394125938415527e+00 -2.149393796920776367e+00
1.963000000000000000e+03 6.368125438690185547e+00 4.172277450561523438e+00 -3.162176534533500671e-02 7.626443356275558472e-02 1.339279953390359879e-02 7.541761994361877441e-01
1.964000000000000000e+03 6.310707092285156250e+00 4.933670997619628906e+00 1.866080164909362793e-01 1.564285606145858765e-01 1.029109731316566467e-01 6.968487501144409180e-01
1.965000000000000000e+03 4.918421268463134766e+00 4.255461692810058594e+00 -5.727411806583404541e-02 -1.513438820838928223e-01 -6.258539855480194092e-02 8.037234544754028320e-01
1.966000000000000000e+03 4.673833847045898438e+00 5.982233524322509766e+00 2.226047366857528687e-01 -1.936209350824356079e-01 8.695141412317752838e-03 7.072701454162597656e-01
1.967000000000000000e+03 2.573965072631835938e+00 6.188719272613525391e+00 7.690014690160751343e-02 -7.502962946891784668e-01 -2.020188421010971069e-01 5.791754722595214844e-01
1.968000000000000000e+03 9.413546562194824219e+00 4.660628795623779297e+00 4.209029376506805420e-01 1.113542318344116211e+00 4.603335857391357422e-01 -1.382906734943389893e-02
1.969000000000000000e+03 9.464810371398925781e+00 3.913665294647216797e+00 1.941986232995986938e-01 8.169966936111450195e-01 3.033585846424102783e-01 3.347132727503776550e-02
1.970000000000000000e+03 7.147076129913330078e+00 4.127007961273193359e+00 1.304241549223661423e-02 2.145770341157913208e-01 6.828583776950836182e-02 6.610831618309020996e-01
1.971000000000000000e+03 8.081725120544433594e+00 -4.125445842742919922e+00 3.842530250549316406e-01 6.877936124801635742e-01 3.216139972209930420e-01 5.377634167671203613e-01
1.972000000000000000e+03 8.192564010620117188e+00 -4.915817737579345703e+00 4.004313349723815918e-01 1.020601034164428711e+00 4.263097047805786133e-01 7.557685971260070801e-01
1.973000000000000000e+03 1.842823028564453125e+01 -3.716200828552246094e+00 3.689176559448242188e+00 8.010936737060546875e+00 3.510033845901489258e+00 -2.356622219085693359e+00
1.974000000000000000e+03 1.778444671630859375e+01 -4.597782611846923828e+00 2.043945789337158203e+00 8.216457366943359375e+00 3.078120946884155273e+00 -1.087881326675415039e+00
1.975000000000000000e+03 2.197604942321777344e+01 -5.086423397064208984e+00 3.341699838638305664e+00 2.312316179275512695e+00 1.696204781532287598e+00 -3.096206426620483398e+00
1.976000000000000000e+03 2.134290313720703125e+01 -1.406840801239013672e+00 4.871845245361328125e+00 2.729467391967773438e+00 2.280393838882446289e+00 -2.346364736557006836e+00
1.977000000000000000e+03 5.125360488891601562e+00 -5.355174064636230469e+00 5.142262950539588928e-02 4.561044871807098389e-01 1.522581279277801514e-01 -1.285594254732131958e-01
1.978000000000000000e+03 5.873419761657714844e+00 -5.293589591979980469e+00 7.709466665983200073e-02 6.379530429840087891e-01 2.145143151283264160e-01 2.127312123775482178e-02
1.979000000000000000e+03 6.643240928649902344e+00 -5.185718059539794922e+00 1.609568446874618530e-01 7.899676561355590820e-01 2.852773368358612061e-01 2.260431349277496338e-01
1.980000000000000000e+03 7.420260906219482422e+00 -5.057131290435791016e+00 2.502737045288085938e-01 9.232365489006042480e-01 3.520530760288238525e-01 4.703765213489532471e-01
1.981000000000000000e+03 1.781400489807128906e+01 4.813352584838867188e+00 -1.362476348876953125e+00 1.007790565490722656e+01 2.614628791809082031e+00 -1.057399868965148926e+00
1.982000000000000000e+03 1.152954673767089844e+01 4.198710441589355469e+00 3.947715163230895996e-01 2.412003040313720703e+00 8.420323729515075684e-01 -1.039114594459533691e+00
1.983000000000000000e+03 9.391354560852050781e+00 5.423966407775878906e+00 5.864050984382629395e-01 1.388712286949157715e+00 5.925351977348327637e-01 -7.296772301197052002e-02
1.984000000000000000e+03 1.450243759155273438e+01 -1.037197875976562500e+01 -2.134985685348510742e+00 3.521350145339965820e+00 4.159092903137207031e-01 3.883085012435913086e+00
1.985000000000000000e+03 8.472552299499511719e+00 -6.578055381774902344e+00 1.647478640079498291e-01 1.899163126945495605e+00 6.191732883453369141e-01 1.141127347946166992e+00
1.986000000000000000e+03 1.900280570983886719e+01 9.449749588966369629e-01 2.583809137344360352e+00 8.882426261901855469e+00 3.439870595932006836e+00 5.639317035675048828e-01
1.987000000000000000e+03 1.014649105072021484e+01 4.547877311706542969e+00 4.457920193672180176e-01 1.495489716529846191e+00 5.823845267295837402e-01 -3.197391927242279053e-01
1.988000000000000000e+03 2.206573677062988281e+01 -1.074438858032226562e+01 -1.175260543823242188e+00 1.157099843025207520e+00 -5.448202602565288544e-03 -1.297538280487060547e+00
1.989000000000000000e+03 9.736715316772460938e+00 -1.408629703521728516e+01 7.899171113967895508e-01 6.304083347320556641e+00 2.128200292587280273e+00 5.267607569694519043e-01
1.990000000000000000e+03 5.951743698120117188e+01 -6.574136257171630859e+00 2.484473437070846558e-01 4.506538212299346924e-01 2.097303420305252075e-01 -2.281438410282135010e-01
1.991000000000000000e+03 6.049817276000976562e+01 -7.044019222259521484e+00 2.002395242452621460e-01 6.568197011947631836e-01 2.571177482604980469e-01 -3.051346540451049805e-01
1.992000000000000000e+03 2.539521217346191406e+01 -6.235721111297607422e+00 2.827744245529174805e+00 1.428983092308044434e+00 1.277018189430236816e+00 -2.676852703094482422e+00
1.993000000000000000e+03 2.453613853454589844e+01 -5.219006538391113281e+00 3.549561977386474609e+00 1.237099170684814453e+00 1.435998320579528809e+00 -2.775920391082763672e+00
1.994000000000000000e+03 4.529346466064453125e+01 -1.619607686996459961e+00 3.544892370700836182e-01 9.864760398864746094e+00 3.065774917602539062e+00 2.552829384803771973e-01
1.995000000000000000e+03 4.457937240600585938e+01 3.666672945022583008e+00 1.523088455200195312e+00 1.344490909576416016e+01 4.490399360656738281e+00 1.366366624832153320e+00
1.996000000000000000e+03 4.048331451416015625e+01 1.924494743347167969e+01 -3.557454049587249756e-01 3.920617818832397461e+00 1.069461703300476074e+00 -1.087400913238525391e+00
1.997000000000000000e+03 4.322545623779296875e+01 -8.863283157348632812e+00 -1.130430221557617188e+00 8.756689071655273438e+00 2.287877559661865234e+00 1.184060215950012207e+00
1.998000000000000000e+03 4.597981262207031250e+01 -7.879725933074951172e+00 -1.380909562110900879e+00 8.408529281616210938e+00 2.108286142349243164e+00 1.103104233741760254e+00
1.999000000000000000e+03 4.142704772949218750e+01 -1.926770019531250000e+01 2.505832195281982422e+00 9.414689064025878906e+00 3.576156377792358398e+00 -2.299895286560058594e-01
2.000000000000000000e+03 3.801326751708984375e+01 -1.921867752075195312e+01 2.745201349258422852e+00 9.750488281250000000e+00 3.748706817626953125e+00 -9.774141907691955566e-01
2.001000000000000000e+03 4.259884262084960938e+01 -2.240546226501464844e+01 2.386310815811157227e+00 9.339846611022949219e+00 3.517847299575805664e+00 -7.038434147834777832e-01
2.002000000000000000e+03 4.035917282104492188e+01 -2.174133110046386719e+01 2.332113265991210938e+00 9.321748733520507812e+00 3.496158361434936523e+00 -3.560411930084228516e-01
2.003000000000000000e+03 5.772527313232421875e+01 -5.711449146270751953e+00 4.096218943595886230e-01 8.310902863740921021e-02 1.478192806243896484e-01 -1.714208275079727173e-01
2.004000000000000000e+03 5.815282440185546875e+01 -4.998706817626953125e+00 6.953302025794982910e-01 2.169113159179687500e-01 2.736724615097045898e-01 -1.744008958339691162e-01
2.005000000000000000e+03 4.857017517089843750e+01 -2.108760595321655273e+00 7.745774388313293457e-01 5.484591007232666016e+00 1.877750515937805176e+00 -5.338873267173767090e-01
2.006000000000000000e+03 7.062303161621093750e+01 7.816945552825927734e+00 -2.005120180547237396e-02 7.936082839965820312e+00 2.374809503555297852e+00 7.601539790630340576e-02
2.007000000000000000e+03 6.860718536376953125e+01 6.348246097564697266e+00 -1.792062669992446899e-01 6.900985717773437500e+00 2.016533851623535156e+00 8.164335489273071289e-01
2.008000000000000000e+03 2.080340766906738281e+01 -1.256543844938278198e-01 3.905309438705444336e+00 4.239250183105468750e+00 2.443367958068847656e+00 -1.166898965835571289e+00
2.009000000000000000e+03 1.550122737884521484e+01 7.887309551239013672e+00 4.755409359931945801e-01 8.176317214965820312e+00 2.595557451248168945e+00 -1.212526559829711914e+00
2.010000000000000000e+03 1.870291328430175781e+01 4.340825080871582031e+00 -1.388452410697937012e+00 9.674397468566894531e+00 2.485783576965332031e+00 -7.585854530334472656e-01
2.011000000000000000e+03 4.332207489013671875e+01 1.439940929412841797e+01 1.702992767095565796e-01 7.272171974182128906e+00 2.232741355895996094e+00 -3.559806644916534424e-01
2.012000000000000000e+03 1.746682929992675781e+01 -9.542394638061523438e+00 -1.346275687217712402e+00 1.516660332679748535e+00 5.111536011099815369e-02 1.300789356231689453e+00
2.013000000000000000e+03 2.029816246032714844e+01 -9.424238801002502441e-01 5.175704956054687500e+00 4.651956081390380859e+00 2.948298454284667969e+00 -1.544504761695861816e+00
2.014000000000000000e+03 6.420210266113281250e+01 9.541028738021850586e-01 3.420501649379730225e-01 3.040280342102050781e+00 1.014699101448059082e+00 5.978938341140747070e-01
2.015000000000000000e+03 1.547731018066406250e+01 -1.021885871887207031e+01 -2.081951618194580078e+00 2.492250680923461914e+00 1.230896860361099243e-01 3.271285533905029297e+00
2.016000000000000000e+03 1.452961635589599609e+01 -9.388301849365234375e+00 -1.585705399513244629e+00 3.823192834854125977e+00 6.712462306022644043e-01 3.732904434204101562e+00
2.017000000000000000e+03 2.264250755310058594e+01 -9.540498852729797363e-01 3.686899662017822266e+00 1.355134725570678711e+00 1.512610316276550293e+00 -1.976876139640808105e+00
2.018000000000000000e+03 5.999232482910156250e+01 -9.289306402206420898e-01 1.107501745223999023e+00 7.729319930076599121e-01 5.641301274299621582e-01 1.847704052925109863e-01
2.019000000000000000e+03 6.483551788330078125e+01 -3.922895431518554688e+00 7.852832227945327759e-02 3.435148715972900391e+00 1.054103136062622070e+00 -3.608192801475524902e-01
2.020000000000000000e+03 3.648102569580078125e+01 -1.009798717498779297e+01 1.000211238861083984e+00 4.046612262725830078e+00 1.514047026634216309e+00 -5.749469995498657227e-01
2.021000000000000000e+03 6.465135192871093750e+01 -1.837643504142761230e+00 2.462486326694488525e-01 3.303020954132080078e+00 1.064780831336975098e+00 9.707016870379447937e-03
2.022000000000000000e+03 4.556535720825195312e+01 1.390738582611083984e+01 5.592343211174011230e-01 8.911862373352050781e+00 2.841328859329223633e+00 9.218385815620422363e-01
2.023000000000000000e+03 7.521013641357421875e+01 3.338067626953125000e+01 -8.327616751194000244e-02 7.921459674835205078e+00 2.351455211639404297e+00 -2.099782079458236694e-01
2.024000000000000000e+03 7.471598052978515625e+01 2.925857734680175781e+01 -3.578144311904907227e-01 8.064557075500488281e+00 2.312022686004638672e+00 -4.013026598840951920e-03
2.025000000000000000e+03 3.160679054260253906e+01 -1.133633899688720703e+01 1.499630451202392578e+00 2.089463710784912109e+00 1.076728224754333496e+00 -3.022023439407348633e+00
2.026000000000000000e+03 3.189844894409179688e+01 -1.243717861175537109e+01 1.814383387565612793e+00 2.316566467285156250e+00 1.239284992218017578e+00 -2.890041828155517578e+00
2.027000000000000000e+03 7.531051635742187500e+01 -3.129004859924316406e+01 -3.424562811851501465e-01 7.682697772979736328e+00 2.202072381973266602e+00 -4.274772107601165771e-01
2.028000000000000000e+03 7.532643890380859375e+01 -2.840904998779296875e+01 -3.631088435649871826e-01 7.794593334197998047e+00 2.229445457458496094e+00 -7.807381749153137207e-01
2.029000000000000000e+03 7.410836029052734375e+01 -2.882415962219238281e+01 -5.197815299034118652e-01 7.696984767913818359e+00 2.153161048889160156e+00 -6.684504151344299316e-01
2.030000000000000000e+03 7.530122375488281250e+01 2.429642295837402344e+01 -4.770547449588775635e-01 8.418992996215820312e+00 2.382581472396850586e+00 7.437515258789062500e-01
2.031000000000000000e+03 2.081208610534667969e+01 -8.954430580139160156e+00 -3.755600154399871826e-01 1.765310168266296387e+00 4.169250726699829102e-01 -1.585930824279785156e+00
2.032000000000000000e+03 7.409092712402343750e+01 2.052460098266601562e+01 1.219074428081512451e-01 8.404573440551757812e+00 2.557944297790527344e+00 1.309484362602233887e+00
2.033000000000000000e+03 7.493313598632812500e+01 2.000119018554687500e+01 1.943616569042205811e-01 8.313158035278320312e+00 2.552255868911743164e+00 1.142380833625793457e+00
2.034000000000000000e+03 7.076867675781250000e+01 -2.246272850036621094e+01 9.633764624595642090e-01 9.567819595336914062e+00 3.159358739852905273e+00 -7.518119215965270996e-01
2.035000000000000000e+03 7.420661163330078125e+01 -2.415995788574218750e+01 4.854259267449378967e-02 7.928939342498779297e+00 2.393244504928588867e+00 -1.156845092773437500e+00
2.036000000000000000e+03 7.552091979980468750e+01 -2.044815444946289062e+01 6.283517479896545410e-01 7.279629707336425781e+00 2.372394561767578125e+00 -6.742540597915649414e-01
2.037000000000000000e+03 7.411466217041015625e+01 -2.251889801025390625e+01 4.986510872840881348e-01 7.937066555023193359e+00 2.530715465545654297e+00 -1.033386588096618652e+00
2.038000000000000000e+03 7.548106384277343750e+01 1.151829719543457031e+01 3.893965780735015869e-01 7.657200336456298828e+00 2.413979053497314453e+00 -4.012136161327362061e-01
2.039000000000000000e+03 7.554835510253906250e+01 1.393903160095214844e+01 5.638455152511596680e-01 7.669133663177490234e+00 2.469893693923950195e+00 3.188888356089591980e-02
2.040000000000000000e+03 7.570350646972656250e+01 1.681928443908691406e+01 4.749595522880554199e-01 7.751177787780761719e+00 2.467841148376464844e+00 6.454086303710937500e-01
2.041000000000000000e+03 7.362342834472656250e+01 1.578335189819335938e+01 1.130319952964782715e+00 8.363747596740722656e+00 2.848220348358154297e+00 5.096768736839294434e-01
2.042000000000000000e+03 7.555986022949218750e+01 -1.318681907653808594e+01 1.916369348764419556e-01 7.384295463562011719e+00 2.272779703140258789e+00 9.045994877815246582e-01
2.043000000000000000e+03 7.432362365722656250e+01 -1.576732254028320312e+01 8.823586106300354004e-01 7.838182449340820312e+00 2.616162300109863281e+00 6.388649940490722656e-01
2.044000000000000000e+03 7.432839202880859375e+01 9.020563125610351562e+00 1.505314856767654419e-01 7.828217983245849609e+00 2.393624782562255859e+00 -6.049381494522094727e-01
2.045000000000000000e+03 7.410832977294921875e+01 -3.133024275302886963e-01 -3.881761133670806885e-01 7.353733062744140625e+00 2.089667081832885742e+00 -1.062141731381416321e-01
2.046000000000000000e+03 7.443609619140625000e+01 1.021702051162719727e+00 -3.274174034595489502e-01 7.418749332427978516e+00 2.127399444580078125e+00 -1.853344291448593140e-01
2.047000000000000000e+03 7.585883331298828125e+01 4.569650650024414062e+00 -1.559180468320846558e-01 7.639276504516601562e+00 2.245007514953613281e+00 -4.763619303703308105e-01
2.048000000000000000e+03 7.380724334716796875e+01 -7.955434322357177734e+00 -4.949680268764495850e-01 7.656461715698242188e+00 2.148447990417480469e+00 6.373950839042663574e-01
2.049000000000000000e+03 7.508496856689453125e+01 -6.430309295654296875e+00 -3.828884065151214600e-01 7.591220378875732422e+00 2.162499427795410156e+00 5.109806656837463379e-01
2.050000000000000000e+03 7.448979949951171875e+01 1.013868427276611328e+01 3.064026534557342529e-01 7.853888034820556641e+00 2.448087215423583984e+00 -5.409940481185913086e-01
2.051000000000000000e+03 7.401845550537109375e+01 -3.186115741729736328e+00 -4.425073266029357910e-01 7.364065170288085938e+00 2.076467275619506836e+00 1.259270906448364258e-01
2.052000000000000000e+03 7.390139007568359375e+01 -4.510401248931884766e+00 -4.831624031066894531e-01 7.398612022399902344e+00 2.074634790420532227e+00 2.613385915756225586e-01
2.053000000000000000e+03 7.547354125976562500e+01 -1.082136154174804688e+01 -1.265913695096969604e-01 7.527221202850341797e+00 2.220188856124877930e+00 9.293417930603027344e-01
2.054000000000000000e+03 7.337155151367187500e+01 -1.195033454895019531e+01 -1.288720779120922089e-02 8.088638305664062500e+00 2.422725439071655273e+00 9.322181940078735352e-01
2.055000000000000000e+03 7.237397003173828125e+01 -1.943703079223632812e+01 1.621470808982849121e+00 9.068764686584472656e+00 3.207070589065551758e+00 -4.578992426395416260e-01
2.056000000000000000e+03 7.519548797607421875e+01 -1.771137619018554688e+01 8.628889322280883789e-01 7.403774738311767578e+00 2.479999065399169922e+00 7.968911528587341309e-02
2.057000000000000000e+03 7.433950805664062500e+01 -2.152326583862304688e+01 6.648827791213989258e-01 7.891536235809326172e+00 2.566925764083862305e+00 -9.864174723625183105e-01
2.058000000000000000e+03 7.252185058593750000e+01 2.009324645996093750e+01 3.231065869331359863e-01 8.782759666442871094e+00 2.731759786605834961e+00 1.286522507667541504e+00
2.059000000000000000e+03 7.374545288085937500e+01 1.698509597778320312e+01 9.330552816390991211e-01 8.523281097412109375e+00 2.836900949478149414e+00 8.512855172157287598e-01
2.060000000000000000e+03 7.240700531005859375e+01 2.474803543090820312e+01 -1.054089069366455078e+00 8.206663131713867188e+00 2.145772218704223633e+00 5.057524442672729492e-01
2.061000000000000000e+03 7.204248046875000000e+01 -2.137540054321289062e+01 1.230608463287353516e+00 9.130849838256835938e+00 3.108437299728393555e+00 -8.834583163261413574e-01
2.062000000000000000e+03 7.484986877441406250e+01 4.522138595581054688e+00 -2.615962326526641846e-01 7.606809139251708984e+00 2.203563928604125977e+00 -4.853219985961914062e-01
2.063000000000000000e+03 7.544207000732421875e+01 3.015485191345214844e+01 -2.601779103279113770e-01 8.174501419067382812e+00 2.374296903610229492e+00 -2.463520504534244537e-02
2.064000000000000000e+03 7.336650085449218750e+01 -2.612055778503417969e+01 -4.308551251888275146e-01 8.009048461914062500e+00 2.273458003997802734e+00 -9.461469650268554688e-01
2.065000000000000000e+03 7.257623291015625000e+01 -1.025049495697021484e+01 -4.653305113315582275e-01 8.048501968383789062e+00 2.274951457977294922e+00 6.676504015922546387e-01
2.066000000000000000e+03 7.457029724121093750e+01 1.338421249389648438e+01 7.394963502883911133e-01 8.035198211669921875e+00 2.632408380508422852e+00 -4.873378667980432510e-03
2.067000000000000000e+03 7.353430938720703125e+01 1.269895648956298828e+01 8.660103678703308105e-01 8.307983398437500000e+00 2.752198219299316406e+00 -1.832874715328216553e-01
2.068000000000000000e+03 7.347770690917968750e+01 2.754145050048828125e+01 -7.456738948822021484e-01 7.904762268066406250e+00 2.147726535797119141e+00 5.332715436816215515e-02
2.069000000000000000e+03 7.140192413330078125e+01 2.383931541442871094e+01 -1.209118366241455078e+00 8.387543678283691406e+00 2.153527736663818359e+00 2.759749293327331543e-01
2.070000000000000000e+03 6.782431030273437500e+01 2.895140457153320312e+01 -5.768997669219970703e-01 4.957726955413818359e+00 1.314248204231262207e+00 -9.046292304992675781e-01
2.071000000000000000e+03 6.898593139648437500e+01 -3.296648025512695312e+01 -6.019878983497619629e-01 5.710722446441650391e+00 1.532620429992675781e+00 3.732154965400695801e-01
2.072000000000000000e+03 7.147458648681640625e+01 -3.266823959350585938e+01 -5.733507275581359863e-01 6.687778949737548828e+00 1.834328532218933105e+00 6.324081867933273315e-02
2.073000000000000000e+03 7.372068786621093750e+01 -2.753839111328125000e+01 -5.305857062339782715e-01 7.871007442474365234e+00 2.202126502990722656e+00 -8.193612098693847656e-01
2.074000000000000000e+03 5.978037357330322266e+00 -3.248043823242187500e+01 -4.464186429977416992e-01 3.018355131149291992e+00 7.715809345245361328e-01 6.222880482673645020e-01
2.075000000000000000e+03 5.995071411132812500e+00 -2.866710662841796875e+01 -5.445600748062133789e-01 3.165553092956542969e+00 7.862979173660278320e-01 1.083276629447937012e+00
2.076000000000000000e+03 7.282987213134765625e+01 3.051795578002929688e+01 -4.320029020309448242e-01 7.368753910064697266e+00 2.081025362014770508e+00 -3.089588582515716553e-01
2.077000000000000000e+03 6.473899841308593750e+00 3.172373199462890625e+01 -3.274810016155242920e-01 2.563652038574218750e+00 6.708512902259826660e-01 -6.636208295822143555e-01
2.078000000000000000e+03 4.409811973571777344e+00 -2.551897430419921875e+01 -2.033726274967193604e-01 2.477391481399536133e+00 6.822056770324707031e-01 1.373324871063232422e+00
2.079000000000000000e+03 6.280660629272460938e+00 2.931996345520019531e+01 -2.998512089252471924e-01 2.436740159988403320e+00 6.410666704177856445e-01 -8.533813953399658203e-01
2.080000000000000000e+03 9.297283172607421875e+00 -1.200931739807128906e+01 -4.535513818264007568e-01 5.270622730255126953e+00 1.445121288299560547e+00 6.710639595985412598e-01
2.081000000000000000e+03 5.232133388519287109e+00 -9.509663581848144531e+00 -5.717258900403976440e-02 1.397394895553588867e+00 4.020666778087615967e-01 -1.696035563945770264e-01
2.082000000000000000e+03 6.887191295623779297e+00 2.458769989013671875e+01 -1.835253387689590454e-01 2.349020004272460938e+00 6.496483683586120605e-01 -1.210427641868591309e+00
2.083000000000000000e+03 6.269465923309326172e+00 -2.230795860290527344e+01 3.235327005386352539e-01 3.161140918731689453e+00 1.045402050018310547e+00 1.592862844467163086e+00
2.084000000000000000e+03 7.277569293975830078e+00 -1.967515373229980469e+01 1.170648813247680664e+00 4.221478462219238281e+00 1.617638230323791504e+00 1.308952689170837402e+00
2.085000000000000000e+03 4.600580692291259766e+00 -1.846760749816894531e+01 7.174515128135681152e-01 1.642727255821228027e+00 7.080536484718322754e-01 7.916216850280761719e-01
2.086000000000000000e+03 6.275554180145263672e+00 -1.445249080657958984e+01 6.943578720092773438e-01 2.711375236511230469e+00 1.021719932556152344e+00 -1.022974774241447449e-02
2.087000000000000000e+03 5.964540481567382812e+00 -1.893967056274414062e+01 9.512639045715332031e-01 2.790862083435058594e+00 1.122637867927551270e+00 1.053819060325622559e+00
2.088000000000000000e+03 5.725797653198242188e+00 1.770766639709472656e+01 3.948809206485748291e-01 1.213141560554504395e+00 4.824067652225494385e-01 -9.532621502876281738e-01
2.089000000000000000e+03 5.381685256958007812e+00 1.653228759765625000e+01 3.588824272155761719e-01 8.507888317108154297e-01 3.629013895988464355e-01 -7.641982436180114746e-01
2.090000000000000000e+03 9.467522621154785156e+00 -2.420743560791015625e+01 -4.069659411907196045e-01 4.846921443939208984e+00 1.331986665725708008e+00 1.009149432182312012e+00
2.091000000000000000e+03 7.120072841644287109e+00 -2.614074897766113281e+01 -5.524728894233703613e-01 3.585701942443847656e+00 9.099687337875366211e-01 1.316565752029418945e+00
2.092000000000000000e+03 6.390924453735351562e+00 2.698323249816894531e+01 -2.504759132862091064e-01 2.301724433898925781e+00 6.153745651245117188e-01 -1.032994151115417480e+00
2.093000000000000000e+03 8.612968444824218750e+00 -9.961972236633300781e+00 -5.566838979721069336e-01 3.780421018600463867e+00 9.671211838722229004e-01 9.215642213821411133e-01
2.094000000000000000e+03 6.621427059173583984e+00 -2.067052650451660156e+01 7.471469640731811523e-01 3.656896352767944336e+00 1.321213006973266602e+00 1.478493452072143555e+00
2.095000000000000000e+03 6.043267250061035156e+00 2.072068405151367188e+01 1.130188629031181335e-01 1.652750253677368164e+00 5.297307372093200684e-01 -1.182296514511108398e+00
2.096000000000000000e+03 6.359887599945068359e+00 1.859327888488769531e+01 3.470960855484008789e-01 1.611822009086608887e+00 5.876753926277160645e-01 -1.086407542228698730e+00
2.097000000000000000e+03 8.998969078063964844e+00 -3.023059654235839844e+01 -8.795880079269409180e-01 3.238383293151855469e+00 7.076386213302612305e-01 5.909009575843811035e-01
2.098000000000000000e+03 5.508600234985351562e+00 -2.999292755126953125e+01 -4.782159030437469482e-01 3.057641744613647461e+00 7.738277316093444824e-01 9.035344719886779785e-01
2.099000000000000000e+03 4.572728157043457031e+00 -3.187712478637695312e+01 -3.323729932308197021e-01 3.024659395217895508e+00 8.076859116554260254e-01 6.900715231895446777e-01
2.100000000000000000e+03 6.057930469512939453e+00 -2.721660995483398438e+01 -5.224211215972900391e-01 3.200692653656005859e+00 8.034814596176147461e-01 1.285796523094177246e+00
2.101000000000000000e+03 4.091881942749023438e+01 -2.019719505310058594e+01 2.543225765228271484e+00 9.343504905700683594e+00 3.566019296646118164e+00 -3.904281258583068848e-01
2.102000000000000000e+03 3.949701309204101562e+00 1.011723327636718750e+01 3.506528735160827637e-01 -3.478685915470123291e-01 8.352795266546308994e-04 2.144397050142288208e-01
2.103000000000000000e+03 5.057439804077148438e+00 9.926801681518554688e+00 4.977409839630126953e-01 1.719876527786254883e-01 2.009185999631881714e-01 1.847696602344512939e-01
2.104000000000000000e+03 4.824075222015380859e+00 8.565840721130371094e+00 4.337028264999389648e-01 -4.516695812344551086e-02 1.165607646107673645e-01 3.893962502479553223e-01
2.105000000000000000e+03 7.177693176269531250e+01 3.312216949462890625e+01 -8.594968169927597046e-02 6.629686832427978516e+00 1.963121175765991211e+00 -4.130148291587829590e-01
2.106000000000000000e+03 7.069419097900390625e+01 3.167000198364257812e+01 -2.812101542949676514e-01 6.364201068878173828e+00 1.824897289276123047e+00 -5.424914956092834473e-01
2.107000000000000000e+03 5.249890804290771484e+00 -1.126072597503662109e+01 2.335551381111145020e-02 1.629172086715698242e+00 4.957582950592041016e-01 -2.483297735452651978e-01
2.108000000000000000e+03 3.816920471191406250e+01 -9.136984825134277344e+00 2.077641934156417847e-01 4.954878330230712891e+00 1.548792719841003418e+00 6.027286052703857422e-01
2.109000000000000000e+03 3.716843795776367188e+01 2.088488960266113281e+01 -5.613355040550231934e-01 2.065599441528320312e+00 4.512791335582733154e-01 -9.211571216583251953e-01
2.110000000000000000e+03 5.089466094970703125e+00 -6.215914249420166016e+00 1.615620218217372894e-02 6.209509372711181641e-01 1.911321431398391724e-01 -1.013862788677215576e-01
2.111000000000000000e+03 5.063630580902099609e+00 -7.191126346588134766e+00 8.531455881893634796e-03 7.973231673240661621e-01 2.417563945055007935e-01 -9.976279735565185547e-02
2.112000000000000000e+03 5.980090618133544922e+00 -7.098017215728759766e+00 -1.915477961301803589e-02 1.167435050010681152e+00 3.444840908050537109e-01 1.098641231656074524e-01
2.113000000000000000e+03 5.199133872985839844e+00 3.555356979370117188e+01 -1.974296718835830688e-01 2.538146495819091797e+00 7.022150754928588867e-01 -3.605455458164215088e-01
2.114000000000000000e+03 6.532305908203125000e+01 1.863020896911621094e+00 1.415190547704696655e-01 3.811868667602539062e+00 1.186016321182250977e+00 7.132472991943359375e-01
2.115000000000000000e+03 2.288200378417968750e+01 -6.624880790710449219e+00 2.327069282531738281e+00 1.721647143363952637e+00 1.214614868164062500e+00 -2.780350446701049805e+00
2.116000000000000000e+03 3.114650344848632812e+01 -7.809657573699951172e+00 1.355771541595458984e+00 1.350962996482849121e+00 8.120203614234924316e-01 -3.258568525314331055e+00
2.117000000000000000e+03 2.963372993469238281e+01 -9.877111434936523438e+00 1.259364604949951172e+00 1.714262843132019043e+00 8.920882344245910645e-01 -3.318030118942260742e+00
2.118000000000000000e+03 7.262252044677734375e+01 2.174700164794921875e+01 -3.774766325950622559e-01 8.637539863586425781e+00 2.478018999099731445e+00 9.861792325973510742e-01
2.119000000000000000e+03 7.031993103027343750e+01 2.292393684387207031e+01 -1.295972466468811035e+00 8.451107978820800781e+00 2.146540641784667969e+00 4.418527185916900635e-01
2.120000000000000000e+03 8.485741615295410156e+00 -1.513088798522949219e+01 1.296220421791076660e+00 5.110896110534667969e+00 1.922134876251220703e+00 3.387902677059173584e-01
2.121000000000000000e+03 3.311631011962890625e+01 2.632888984680175781e+01 -4.372954368591308594e-01 1.264496803283691406e+00 2.481604069471359253e-01 -6.374943256378173828e-01
2.122000000000000000e+03 6.517007446289062500e+01 -6.946588993072509766e+00 -1.356610953807830811e-01 3.554337501525878906e+00 1.025602936744689941e+00 -9.235458970069885254e-01
2.123000000000000000e+03 6.519476318359375000e+01 -9.295133590698242188e+00 -1.767388731241226196e-01 3.406034469604492188e+00 9.687886834144592285e-01 -1.360969424247741699e+00
2.124000000000000000e+03 3.405194091796875000e+01 2.364545249938964844e+01 -6.650412082672119141e-01 1.230135083198547363e+00 1.695281863212585449e-01 -6.802850961685180664e-01
2.125000000000000000e+03 3.011874008178710938e+01 2.470667457580566406e+01 -6.547983288764953613e-01 4.826569259166717529e-01 -5.164242163300514221e-02 -2.546789050102233887e-01
2.126000000000000000e+03 4.175702667236328125e+01 -1.183204841613769531e+01 5.861825942993164062e-01 8.143324851989746094e+00 2.618852376937866211e+00 8.689658045768737793e-01
2.127000000000000000e+03 3.848481369018554688e+01 2.093666458129882812e+01 -5.547798871994018555e-01 2.898925542831420898e+00 7.032437324523925781e-01 -1.058588027954101562e+00
2.128000000000000000e+03 4.287130737304687500e+01 -1.648552513122558594e+01 1.881565093994140625e+00 9.574458122253417969e+00 3.436806917190551758e+00 6.804081201553344727e-01
2.129000000000000000e+03 4.134164047241210938e+01 -1.790487670898437500e+01 2.398070335388183594e+00 9.102910041809082031e+00 3.450294017791748047e+00 9.646537899971008301e-02
2.130000000000000000e+03 5.369950866699218750e+01 -3.846069574356079102e+00 1.322042226791381836e+00 2.260164618492126465e-01 4.644176065921783447e-01 1.177086010575294495e-01
2.131000000000000000e+03 4.552040863037109375e+01 1.267840671539306641e+01 5.613836050033569336e-01 9.615310668945312500e+00 3.053008079528808594e+00 1.128481745719909668e+00
2.132000000000000000e+03 3.039469718933105469e+01 2.732428550720214844e+01 -3.029503822326660156e-01 8.883266448974609375e-01 1.756128668785095215e-01 -2.433049231767654419e-01
2.133000000000000000e+03 6.889737701416015625e+01 -2.812510108947753906e+01 -1.090217232704162598e+00 6.801045894622802734e+00 1.713248491287231445e+00 4.455773234367370605e-01
2.134000000000000000e+03 6.641447448730468750e+01 2.758691787719726562e+00 -9.394560009241104126e-02 4.693962574005126953e+00 1.380005121231079102e+00 8.148729801177978516e-01
2.135000000000000000e+03 6.916503143310546875e+01 -1.122227954864501953e+01 -5.400727987289428711e-01 8.226204872131347656e+00 2.305839538574218750e+00 -4.595555067062377930e-01
2.136000000000000000e+03 7.283705139160156250e+01 -1.108573913574218750e+01 -2.649599909782409668e-01 8.168570518493652344e+00 2.371083259582519531e+00 8.495093584060668945e-01
2.137000000000000000e+03 7.001657104492187500e+01 -1.357260513305664062e+01 5.534093976020812988e-01 9.758357048034667969e+00 3.093529939651489258e+00 1.205051764845848083e-01
2.138000000000000000e+03 7.201611328125000000e+01 -1.677756500244140625e+01 1.671046853065490723e+00 9.173653602600097656e+00 3.253410339355468750e+00 3.401133418083190918e-01
2.139000000000000000e+03 7.251810455322265625e+01 -1.524408435821533203e+01 1.149987220764160156e+00 8.712745666503906250e+00 2.958820104598999023e+00 7.097783088684082031e-01
2.140000000000000000e+03 7.201385498046875000e+01 -2.251652336120605469e+01 6.951277256011962891e-01 8.991292953491210938e+00 2.905926227569580078e+00 -9.302261471748352051e-01
2.141000000000000000e+03 6.939583587646484375e+01 -2.134205436706542969e+01 1.772069931030273438e+00 1.107133293151855469e+01 3.853020906448364258e+00 1.736985296010971069e-01
2.142000000000000000e+03 2.749477386474609375e+01 2.786933517456054688e+01 -2.091875970363616943e-01 9.026068449020385742e-01 2.080257683992385864e-01 2.818687558174133301e-01
2.143000000000000000e+03 4.254524612426757812e+01 -5.498848438262939453e+00 -1.860669136047363281e+00 9.238340377807617188e+00 2.213301420211791992e+00 1.552376747131347656e+00
2.144000000000000000e+03 3.905889511108398438e+01 -1.868514823913574219e+01 2.798084974288940430e+00 9.052750587463378906e+00 3.555250644683837891e+00 -6.145424246788024902e-01
2.145000000000000000e+03 1.251320075988769531e+01 1.365946865081787109e+01 1.353146910667419434e+00 5.335177421569824219e+00 2.006497144699096680e+00 -8.742228746414184570e-01
2.146000000000000000e+03 6.889071655273437500e+01 -1.003036403656005859e+01 -8.117308020591735840e-01 7.492308139801025391e+00 2.004173278808593750e+00 -7.178092598915100098e-01
2.147000000000000000e+03 6.737504577636718750e+01 -7.789115905761718750e+00 -5.599063634872436523e-01 5.414530277252197266e+00 1.456387281417846680e+00 -9.532178044319152832e-01
2.148000000000000000e+03 5.012654495239257812e+01 -4.326730728149414062e+00 5.120906233787536621e-01 3.298666715621948242e+00 1.143227219581604004e+00 3.646131455898284912e-01
2.149000000000000000e+03 5.164133834838867188e+01 -4.404416561126708984e+00 8.686899542808532715e-01 1.480509519577026367e+00 7.047598361968994141e-01 3.886232376098632812e-01
2.150000000000000000e+03 6.920867156982421875e+01 -2.577810287475585938e+01 -7.394075989723205566e-01 7.749242782592773438e+00 2.102950572967529297e+00 2.566888928413391113e-01
2.151000000000000000e+03 2.860611152648925781e+01 2.656983566284179688e+01 -3.507141768932342529e-01 6.177493333816528320e-01 8.011053502559661865e-02 2.888915827497839928e-03
2.152000000000000000e+03 5.724611282348632812e+01 2.838949775695800781e+01 -3.240246176719665527e-01 1.806560158729553223e+00 4.447606503963470459e-01 1.382283687591552734e+00
2.153000000000000000e+03 4.537968444824218750e+01 1.143946361541748047e+01 6.806024909019470215e-01 1.034536552429199219e+01 3.307790517807006836e+00 1.227923154830932617e+00
2.154000000000000000e+03 1.556831645965576172e+01 1.094492816925048828e+01 1.187591195106506348e+00 8.626328468322753906e+00 2.944175720214843750e+00 -1.107025742530822754e+00
2.155000000000000000e+03 4.255313491821289062e+01 -1.946828460693359375e+01 2.287622690200805664e+00 9.694408416748046875e+00 3.594609260559082031e+00 -2.429630458354949951e-01
2.156000000000000000e+03 4.325199508666992188e+01 -1.520037555694580078e+01 1.681052446365356445e+00 9.518576622009277344e+00 3.359888792037963867e+00 9.910345673561096191e-01
2.157000000000000000e+03 5.298971557617187500e+01 2.439230346679687500e+01 -1.105642795562744141e+00 3.829830169677734375e+00 8.172562122344970703e-01 1.856290698051452637e+00
2.158000000000000000e+03 5.026134490966796875e+01 2.301840400695800781e+01 -8.177460432052612305e-01 5.848618030548095703e+00 1.509261608123779297e+00 1.248022913932800293e+00
2.159000000000000000e+03 2.639701461791992188e+01 -1.098496341705322266e+01 3.050632774829864502e-01 1.065116763114929199e+00 4.110540151596069336e-01 -2.186683416366577148e+00
2.160000000000000000e+03 2.767956733703613281e+01 -1.088193130493164062e+01 7.320068478584289551e-01 1.165063858032226562e+00 5.691211819648742676e-01 -2.583159923553466797e+00
2.161000000000000000e+03 2.812612724304199219e+01 -7.714610099792480469e+00 1.756043553352355957e+00 2.050597190856933594e+00 1.141992211341857910e+00 -2.851582527160644531e+00
2.162000000000000000e+03 4.566796112060546875e+01 1.986290168762207031e+01 -2.569739818572998047e-01 6.373644828796386719e+00 1.835001230239868164e+00 -8.575468510389328003e-02
2.163000000000000000e+03 4.380020523071289062e+01 1.588709831237792969e+01 1.788391321897506714e-01 7.049551486968994141e+00 2.168517112731933594e+00 -1.518431603908538818e-01
2.164000000000000000e+03 3.135051536560058594e+01 2.583252716064453125e+01 -4.695907831192016602e-01 7.911842465400695801e-01 9.647804498672485352e-02 -3.790523707866668701e-01
2.165000000000000000e+03 1.566595745086669922e+01 8.768257141113281250e+00 7.176470756530761719e-01 8.422972679138183594e+00 2.742185831069946289e+00 -1.144282937049865723e+00
2.166000000000000000e+03 1.979604911804199219e+01 2.627378273010253906e+01 -1.025713324546813965e+00 3.535240411758422852e+00 7.528581619262695312e-01 1.236758351325988770e+00
2.167000000000000000e+03 1.715455436706542969e+01 2.414295578002929688e+01 -1.127250552177429199e+00 5.467616081237792969e+00 1.302109599113464355e+00 2.120983302593231201e-01
2.168000000000000000e+03 7.257923889160156250e+01 2.685272026062011719e+01 -9.126650094985961914e-01 7.772415637969970703e+00 2.057925224304199219e+00 5.717443302273750305e-02
2.169000000000000000e+03 6.761076354980468750e+01 2.425895500183105469e+01 -1.660689592361450195e+00 5.572667121887207031e+00 1.173593282699584961e+00 -1.523849725723266602e+00
2.170000000000000000e+03 2.304066467285156250e+01 -9.676206588745117188e+00 -1.098219864070415497e-02 1.377338051795959473e+00 4.099067449569702148e-01 -1.960337042808532715e+00
2.171000000000000000e+03 2.407716560363769531e+01 -1.086591815948486328e+01 -5.178568959236145020e-01 1.037853002548217773e+00 1.559988558292388916e-01 -1.656672000885009766e+00
2.172000000000000000e+03 6.461505889892578125e+01 2.850779342651367188e+01 -2.299896925687789917e-01 2.870095491409301758e+00 7.920317053794860840e-01 -8.215594291687011719e-01
2.173000000000000000e+03 6.486283874511718750e+01 2.984223175048828125e+01 -6.622422486543655396e-02 3.219429969787597656e+00 9.459617137908935547e-01 -6.752567291259765625e-01
2.174000000000000000e+03 5.413470458984375000e+01 2.767615509033203125e+01 -7.862365841865539551e-01 3.074816703796386719e+00 6.865740418434143066e-01 1.675074934959411621e+00
2.175000000000000000e+03 5.572140884399414062e+01 2.669728088378906250e+01 -6.935334205627441406e-01 2.233616828918457031e+00 4.620250463485717773e-01 1.839547276496887207e+00
2.176000000000000000e+03 6.412212371826171875e+01 -8.081275939941406250e+00 3.540574759244918823e-02 2.517917633056640625e+00 7.659969925880432129e-01 -1.018855690956115723e+00
2.177000000000000000e+03 6.386801910400390625e+01 -8.815901279449462891e-01 4.118853509426116943e-01 2.809453725814819336e+00 9.664016962051391602e-01 2.365571409463882446e-01
2.178000000000000000e+03 4.578365707397460938e+01 1.817601013183593750e+01 9.320587664842605591e-02 6.926094532012939453e+00 2.105790138244628906e+00 1.730110496282577515e-01
2.179000000000000000e+03 1.328548336029052734e+01 1.518076992034912109e+01 1.323640823364257812e+00 6.044211864471435547e+00 2.210355758666992188e+00 -9.026226997375488281e-01
2.180000000000000000e+03 4.418236541748046875e+01 1.770045280456542969e+01 -5.436250194907188416e-02 6.394915580749511719e+00 1.902166008949279785e+00 -3.034148812294006348e-01
2.181000000000000000e+03 4.493584060668945312e+01 1.638265800476074219e+01 3.099048137664794922e-01 7.452174663543701172e+00 2.328623771667480469e+00 2.537878751754760742e-01
2.182000000000000000e+03 4.080452346801757812e+01 -1.497286796569824219e+01 1.871522307395935059e+00 8.223942756652832031e+00 3.028639316558837891e+00 3.865104913711547852e-01
2.183000000000000000e+03 7.226985931396484375e+01 -1.778411674499511719e+01 1.667758226394653320e+00 9.112880706787109375e+00 3.234191656112670898e+00 3.379930183291435242e-02
2.184000000000000000e+03 1.886347198486328125e+01 2.777354431152343750e+01 -1.038474202156066895e+00 3.581924438476562500e+00 7.630350589752197266e-01 8.575758934020996094e-01
2.185000000000000000e+03 2.262644577026367188e+01 2.496177482604980469e+01 -5.800738334655761719e-01 1.359047412872314453e+00 2.336920797824859619e-01 1.471670627593994141e+00
2.186000000000000000e+03 6.087802124023437500e+01 -5.100206851959228516e+00 5.711112022399902344e-01 1.008712410926818848e+00 4.739470779895782471e-01 -3.268910348415374756e-01
2.187000000000000000e+03 3.141574287414550781e+01 -9.089239120483398438e+00 1.359404206275939941e+00 1.561481356620788574e+00 8.762656450271606445e-01 -3.244112491607666016e+00
2.188000000000000000e+03 3.376653289794921875e+01 -1.339883804321289062e+01 2.275143384933471680e+00 3.921632766723632812e+00 1.859032869338989258e+00 -2.516685009002685547e+00
2.189000000000000000e+03 4.558324813842773438e+01 -2.859444856643676758e+00 -3.386647105216979980e-01 9.213754653930664062e+00 2.662526845932006836e+00 1.913159340620040894e-01
2.190000000000000000e+03 4.762273406982421875e+01 -2.275507211685180664e+00 3.608199059963226318e-01 6.890848636627197266e+00 2.175500631332397461e+00 -3.887016177177429199e-01
2.191000000000000000e+03 4.669219207763671875e+01 -4.059303760528564453e+00 -6.259963512420654297e-01 7.774647712707519531e+00 2.144595384597778320e+00 1.974709331989288330e-01
2.192000000000000000e+03 7.349645996093750000e+01 1.951499938964843750e+01 4.744394719600677490e-01 8.697278976440429688e+00 2.751515388488769531e+00 1.140538811683654785e+00
2.193000000000000000e+03 4.234096527099609375e+01 -1.393723869323730469e+01 1.365136981010437012e+00 8.737590789794921875e+00 3.030818462371826172e+00 8.175972104072570801e-01
2.194000000000000000e+03 4.496656036376953125e+01 -3.044131278991699219e+01 -5.564669370651245117e-01 6.890452384948730469e+00 1.900195598602294922e+00 -1.250775694847106934e+00
2.195000000000000000e+03 5.710076522827148438e+01 -1.756817460060119629e+00 1.434716939926147461e+00 8.363030850887298584e-02 4.555041790008544922e-01 1.084531992673873901e-01
2.196000000000000000e+03 5.702177047729492188e+01 -2.923467636108398438e+00 1.277650475502014160e+00 3.896967694163322449e-02 3.949860632419586182e-01 -3.176929801702499390e-02
2.197000000000000000e+03 6.660624694824218750e+01 4.657935142517089844e+00 -8.766141533851623535e-02 5.141104698181152344e+00 1.516032934188842773e+00 1.138940930366516113e+00
2.198000000000000000e+03 7.099040222167968750e+01 1.278425753116607666e-01 -4.829138517379760742e-01 6.601869106292724609e+00 1.835686564445495605e+00 1.202699728310108185e-02
2.199000000000000000e+03 4.141242599487304688e+01 -2.120891952514648438e+01 2.481610536575317383e+00 9.300285339355468750e+00 3.534568786621093750e+00 -4.256502687931060791e-01
2.200000000000000000e+03 2.437537574768066406e+01 2.824207115173339844e+01 -2.880078852176666260e-01 1.410933136940002441e+00 3.368775844573974609e-01 8.377895355224609375e-01
2.201000000000000000e+03 2.626922035217285156e+01 2.932787895202636719e+01 -1.717660576105117798e-01 1.230818629264831543e+00 3.177157938480377197e-01 4.416829049587249756e-01
2.202000000000000000e+03 1.263943290710449219e+01 -2.766328811645507812e+01 -9.789231419563293457e-01 3.175240516662597656e+00 6.588952541351318359e-01 -1.914489269256591797e-01
2.203000000000000000e+03 7.712092399597167969e+00 -1.852124786376953125e+01 1.389154434204101562e+00 4.626143932342529297e+00 1.804589629173278809e+00 1.132442712783813477e+00
2.204000000000000000e+03 1.035903644561767578e+01 -2.748812866210937500e+01 -1.021037340164184570e+00 3.816094398498535156e+00 8.385171294212341309e-01 5.055390000343322754e-01
2.205000000000000000e+03 3.713772964477539062e+01 -1.399712467193603516e+01 1.858920574188232422e+00 6.632735252380371094e+00 2.547496557235717773e+00 -8.276234865188598633e-01
2.206000000000000000e+03 6.141902160644531250e+01 2.877298736572265625e+01 5.204445868730545044e-02 1.593899011611938477e+00 4.937830269336700439e-01 1.762402951717376709e-01
2.207000000000000000e+03 7.330378723144531250e+01 -2.043629646301269531e+01 1.171152353286743164e+00 8.473530769348144531e+00 2.893404960632324219e+00 -7.269172668457031250e-01
2.208000000000000000e+03 1.544224452972412109e+01 -3.662348556518554688e+01 -4.222179353237152100e-01 1.321933150291442871e+00 2.699145674705505371e-01 -2.245710045099258423e-01
2.209000000000000000e+03 7.166278076171875000e+01 8.497102737426757812e+00 6.604701280593872070e-02 8.315015792846679688e+00 2.514318704605102539e+00 -1.740829497575759888e-01
2.210000000000000000e+03 6.626980590820312500e+01 2.615806007385253906e+01 -1.015730977058410645e+00 3.755114316940307617e+00 8.218149542808532715e-01 -1.406291842460632324e+00
2.211000000000000000e+03 7.153713989257812500e+01 1.279617500305175781e+01 1.253162860870361328e+00 9.160820960998535156e+00 3.124195098876953125e+00 2.321158498525619507e-01
2.212000000000000000e+03 4.243002319335937500e+01 -2.374518585205078125e+01 2.156282186508178711e+00 8.944421768188476562e+00 3.330211400985717773e+00 -5.494201183319091797e-01
2.213000000000000000e+03 5.732558822631835938e+01 -4.990262985229492188e+00 6.913982629776000977e-01 1.639049686491489410e-02 2.123366296291351318e-01 -1.560747474431991577e-01
2.214000000000000000e+03 3.921586990356445312e+01 -2.898286819458007812e+01 -2.225482463836669922e-02 7.629857540130615234e+00 2.282280921936035156e+00 1.737915873527526855e-01
2.215000000000000000e+03 4.490176773071289062e+01 -8.993161201477050781e+00 -1.091886162757873535e+00 8.847099304199218750e+00 2.326564073562622070e+00 1.097645163536071777e+00
2.216000000000000000e+03 6.743093872070312500e+01 3.656460285186767578e+00 -2.365349233150482178e-01 5.447420597076416016e+00 1.563265681266784668e+00 7.298825383186340332e-01
2.217000000000000000e+03 3.842345428466796875e+01 -2.757122039794921875e+01 7.273186445236206055e-01 8.083424568176269531e+00 2.643223047256469727e+00 3.469609618186950684e-01
2.218000000000000000e+03 3.584741592407226562e+01 -3.524263381958007812e+01 -1.401142239570617676e+00 5.059379577636718750e+00 1.097471237182617188e+00 8.298835754394531250e-01
2.219000000000000000e+03 3.728902053833007812e+01 -3.357875823974609375e+01 -1.393881559371948242e+00 5.979145050048828125e+00 1.375578999519348145e+00 6.598151326179504395e-01
2.220000000000000000e+03 4.856393051147460938e+01 -4.540715694427490234e+00 -1.847123205661773682e-01 5.349543094635009766e+00 1.549449205398559570e+00 4.558789432048797607e-01
2.221000000000000000e+03 4.931208801269531250e+01 -5.296287059783935547e+00 -1.971655786037445068e-01 4.515547752380371094e+00 1.295514702796936035e+00 7.227157950401306152e-01
2.222000000000000000e+03 8.004323959350585938e+00 -2.635093307495117188e+01 -6.676678657531738281e-01 3.891103029251098633e+00 9.670305848121643066e-01 1.158967018127441406e+00
2.223000000000000000e+03 4.017118453979492188e+01 -2.596687126159667969e+01 1.449958086013793945e+00 8.512433052062988281e+00 2.988717317581176758e+00 -5.979669280350208282e-03
2.224000000000000000e+03 1.214057731628417969e+01 -3.117329406738281250e+01 -9.607591032981872559e-01 2.664513111114501953e+00 5.111262202262878418e-01 -7.170329336076974869e-03
2.225000000000000000e+03 6.645946502685546875e+01 -3.299627685546875000e+01 -4.669635593891143799e-01 4.276371955871582031e+00 1.142822623252868652e+00 7.346130013465881348e-01
2.226000000000000000e+03 5.448918914794921875e+01 2.653701210021972656e+01 -8.951492905616760254e-01 2.935296058654785156e+00 6.120440363883972168e-01 1.835334420204162598e+00
2.227000000000000000e+03 1.395875835418701172e+01 -3.764067888259887695e+00 3.308598041534423828e+00 3.794103145599365234e+00 2.130810260772705078e+00 4.404637336730957031e+00
2.228000000000000000e+03 1.367448711395263672e+01 -3.156146049499511719e+00 3.881752490997314453e+00 2.394341945648193359e+00 1.882828354835510254e+00 3.814744472503662109e+00
2.229000000000000000e+03 1.656666183471679688e+01 4.428295135498046875e+00 -1.365130901336669922e+00 9.798830032348632812e+00 2.530109882354736328e+00 -1.624766588211059570e+00
2.230000000000000000e+03 1.738367271423339844e+01 2.245167493820190430e+00 -1.062391757965087891e+00 1.202198410034179688e+01 3.287877559661865234e+00 -7.731649279594421387e-01
2.231000000000000000e+03 1.691529464721679688e+01 5.205940246582031250e+00 -9.854282736778259277e-01 9.755330085754394531e+00 2.630970478057861328e+00 -1.297497868537902832e+00
2.232000000000000000e+03 1.548408985137939453e+01 1.925440549850463867e+00 -7.350261807441711426e-01 1.000364589691162109e+01 2.780585765838623047e+00 -3.831552982330322266e+00
2.233000000000000000e+03 1.663490104675292969e+01 6.310031890869140625e+00 -3.960214257240295410e-01 9.292605400085449219e+00 2.668975114822387695e+00 -1.292241096496582031e+00
2.234000000000000000e+03 1.485227489471435547e+01 2.115974664688110352e+00 -2.618841230869293213e-01 7.666520118713378906e+00 2.221390724182128906e+00 -3.848956823348999023e+00
2.235000000000000000e+03 1.158838462829589844e+01 -4.247741222381591797e+00 1.792952537536621094e+00 1.420046687126159668e+00 9.638997912406921387e-01 2.442374467849731445e+00
2.236000000000000000e+03 1.263883399963378906e+01 -3.542496681213378906e+00 2.802869796752929688e+00 1.428270578384399414e+00 1.269342184066772461e+00 2.862018585205078125e+00
2.237000000000000000e+03 1.799762153625488281e+01 2.174254894256591797e+00 -7.251555323600769043e-01 1.154728126525878906e+01 3.246637582778930664e+00 -2.360599935054779053e-01
2.238000000000000000e+03 1.700097274780273438e+01 -5.059796810150146484e+00 1.071900486946105957e+00 7.896281719207763672e+00 2.690454721450805664e+00 1.013653278350830078e+00
2.239000000000000000e+03 9.084440231323242188e+00 -5.549223899841308594e+00 4.865644276142120361e-01 1.529595971107482910e+00 6.048481464385986328e-01 1.318953037261962891e+00
2.240000000000000000e+03 1.047053146362304688e+01 -5.154778003692626953e+00 9.603822231292724609e-01 1.672692298889160156e+00 7.899223566055297852e-01 2.049890518188476562e+00
2.241000000000000000e+03 1.398407649993896484e+01 2.585369110107421875e+00 2.477611601352691650e-02 5.262666702270507812e+00 1.586232900619506836e+00 -3.057291746139526367e+00
2.242000000000000000e+03 1.527831745147705078e+01 -4.427783489227294922e+00 1.770902633666992188e+00 7.356472492218017578e+00 2.738212585449218750e+00 4.013298034667968750e+00
2.243000000000000000e+03 1.561659908294677734e+01 -5.232703685760498047e+00 9.225934743881225586e-01 6.975967884063720703e+00 2.369568347930908203e+00 3.202862977981567383e+00
2.244000000000000000e+03 1.098609733581542969e+01 -4.354762077331542969e+00 1.433629274368286133e+00 1.290929079055786133e+00 8.173674941062927246e-01 2.071482419967651367e+00
2.245000000000000000e+03 1.209250926971435547e+01 3.824312925338745117e+00 3.245398700237274170e-01 2.865507125854492188e+00 9.570140838623046875e-01 -1.450550198554992676e+00
2.246000000000000000e+03 1.285573101043701172e+01 3.913091897964477539e+00 2.218118458986282349e-01 3.964014291763305664e+00 1.255747795104980469e+00 -1.887428998947143555e+00
2.247000000000000000e+03 1.000645160675048828e+01 -6.117812156677246094e+00 4.496396183967590332e-01 2.188266277313232422e+00 7.913717627525329590e-01 1.998200178146362305e+00
2.248000000000000000e+03 4.773423194885253906e+00 4.991207599639892578e+00 6.915719807147979736e-02 -1.932417303323745728e-01 -3.722535818815231323e-02 7.727881669998168945e-01
2.249000000000000000e+03 5.783603191375732422e+00 7.272559642791748047e+00 4.826950132846832275e-01 2.226278632879257202e-01 2.115968614816665649e-01 5.077123641967773438e-01
2.250000000000000000e+03 5.545346736907958984e+00 4.999916076660156250e+00 1.231020390987396240e-01 -3.076198510825634003e-02 2.770201675593852997e-02 7.586365342140197754e-01
2.251000000000000000e+03 6.040024280548095703e+00 6.366191864013671875e+00 3.998166620731353760e-01 2.075891196727752686e-01 1.822217255830764771e-01 5.839622020721435547e-01
2.252000000000000000e+03 1.958317375183105469e+01 -2.942906856536865234e+00 5.309686183929443359e+00 5.750948429107666016e+00 3.318190574645996094e+00 -2.976691961288452148e+00
2.253000000000000000e+03 2.079712677001953125e+01 -3.521655559539794922e+00 4.496369361877441406e+00 3.547099590301513672e+00 2.413040637969970703e+00 -3.156494379043579102e+00
2.254000000000000000e+03 1.795089912414550781e+01 2.876697540283203125e+00 -1.276323556900024414e+00 1.084731292724609375e+01 2.871296644210815430e+00 -5.690414905548095703e-01
2.255000000000000000e+03 8.651121139526367188e+00 4.765571117401123047e+00 3.756324350833892822e-01 7.835121750831604004e-01 3.477433621883392334e-01 2.339241951704025269e-01
2.256000000000000000e+03 7.020609855651855469e+00 5.686001777648925781e+00 4.146869778633117676e-01 4.280323684215545654e-01 2.528158128261566162e-01 5.359934568405151367e-01
2.257000000000000000e+03 7.818443298339843750e+00 5.659866809844970703e+00 5.009897947311401367e-01 7.097008824348449707e-01 3.632072210311889648e-01 3.627533912658691406e-01
2.258000000000000000e+03 5.917963504791259766e+00 -6.170631408691406250e+00 6.557639688253402710e-02 8.722013831138610840e-01 2.813333272933959961e-01 8.475697040557861328e-02
2.259000000000000000e+03 1.480289173126220703e+01 -4.208485126495361328e+00 2.354907751083374023e+00 6.367710113525390625e+00 2.616785287857055664e+00 4.621366024017333984e+00
2.260000000000000000e+03 1.479056739807128906e+01 2.797839641571044922e+00 -5.422039628028869629e-01 7.584477424621582031e+00 2.112682104110717773e+00 -3.242627382278442383e+00
2.261000000000000000e+03 6.730059146881103516e+00 -6.044301509857177734e+00 9.624360501766204834e-02 1.103670835494995117e+00 3.599743247032165527e-01 3.199587762355804443e-01
2.262000000000000000e+03 9.802271842956542969e+00 -5.349858760833740234e+00 7.129017114639282227e-01 1.601493954658508301e+00 6.943187117576599121e-01 1.690382838249206543e+00
2.263000000000000000e+03 1.463145828247070312e+01 9.810293197631835938e+00 1.024908065795898438e+00 7.376854419708251953e+00 2.520528554916381836e+00 -1.009133934974670410e+00
2.264000000000000000e+03 1.465141487121582031e+01 8.890581130981445312e+00 8.341438770294189453e-01 7.276141166687011719e+00 2.433085441589355469e+00 -1.072206377983093262e+00
2.265000000000000000e+03 7.532558917999267578e+00 -5.891143798828125000e+00 1.931346803903579712e-01 1.293180704116821289e+00 4.458946287631988525e-01 6.272406578063964844e-01
2.266000000000000000e+03 8.633997917175292969e+00 6.439102649688720703e+00 7.125470042228698730e-01 1.279709935188293457e+00 5.976770520210266113e-01 8.343529701232910156e-02
2.267000000000000000e+03 1.235887622833251953e+01 4.264694213867187500e+00 3.043031692504882812e-01 3.439637422561645508e+00 1.123182177543640137e+00 -1.555997371673583984e+00
2.268000000000000000e+03 1.085871982574462891e+01 4.438809394836425781e+00 4.528827071189880371e-01 2.012161970138549805e+00 7.395133972167968750e-01 -6.588562726974487305e-01
2.269000000000000000e+03 1.371360588073730469e+01 -9.413577079772949219e+00 -1.581626057624816895e+00 4.217521667480468750e+00 7.907686829566955566e-01 3.804413795471191406e+00
2.270000000000000000e+03 1.012450218200683594e+01 5.279033184051513672e+00 6.059947609901428223e-01 1.802946805953979492e+00 7.226824760437011719e-01 -3.485113978385925293e-01
2.271000000000000000e+03 8.617805480957031250e+00 5.567156314849853516e+00 5.573977828025817871e-01 1.016258597373962402e+00 4.720969200134277344e-01 1.762756556272506714e-01
2.272000000000000000e+03 2.697966384887695312e+01 -8.394701004028320312e+00 1.494664788246154785e+00 1.692028999328613281e+00 9.560081362724304199e-01 -2.763711452484130859e+00
2.273000000000000000e+03 6.206210327148437500e+01 -6.976161956787109375e+00 2.233081609010696411e-01 1.400550246238708496e+00 4.871575236320495605e-01 -5.957487821578979492e-01
2.274000000000000000e+03 7.362668991088867188e+00 -1.491809272766113281e+01 9.844740033149719238e-01 3.921131134033203125e+00 1.471681475639343262e+00 1.391397565603256226e-01
2.275000000000000000e+03 7.233812713623046875e+01 -1.252834701538085938e+01 8.073088526725769043e-02 8.532670974731445312e+00 2.584020376205444336e+00 8.599949479103088379e-01
2.276000000000000000e+03 4.341465759277343750e+01 -2.877744197845458984e+00 -4.190944731235504150e-01 1.079587078094482422e+01 3.113032817840576172e+00 1.025359272956848145e+00
2.277000000000000000e+03 4.563957977294921875e+01 -4.139072418212890625e+00 -9.799042940139770508e-01 8.731771469116210938e+00 2.325560092926025391e+00 3.341840207576751709e-01
2.278000000000000000e+03 1.572186660766601562e+01 2.640061616897583008e+00 -1.198273897171020508e+00 9.927586555480957031e+00 2.618793725967407227e+00 -3.058104515075683594e+00
2.279000000000000000e+03 1.709721565246582031e+01 1.830610156059265137e+00 -8.244387507438659668e-01 1.266388797760009766e+01 3.551834821701049805e+00 -9.327239990234375000e-01
2.280000000000000000e+03 8.818104743957519531e+00 1.517696571350097656e+01 9.211490154266357422e-01 2.696192026138305664e+00 1.085202336311340332e+00 -9.156634807586669922e-01
2.281000000000000000e+03 5.606400299072265625e+01 -4.357642650604248047e+00 9.358857274055480957e-01 -1.561443060636520386e-01 2.339224219322204590e-01 -1.287517696619033813e-01
2.282000000000000000e+03 1.647960281372070312e+01 -9.935455322265625000e+00 -1.790628075599670410e+00 1.820375561714172363e+00 8.924257941544055939e-03 2.527748823165893555e+00
2.283000000000000000e+03 1.540104866027832031e+01 -9.232666015625000000e+00 -1.357721567153930664e+00 3.285931825637817383e+00 5.784630775451660156e-01 3.356898307800292969e+00
2.284000000000000000e+03 7.254541778564453125e+01 -9.239374160766601562e+00 -5.697169303894042969e-01 7.871429920196533203e+00 2.190513849258422852e+00 6.135378479957580566e-01
2.285000000000000000e+03 2.202674102783203125e+01 -9.737694740295410156e+00 -6.453186869621276855e-01 1.465116858482360840e+00 2.459394484758377075e-01 -1.667319059371948242e+00
2.286000000000000000e+03 1.844159507751464844e+01 -9.041485786437988281e+00 -8.752220869064331055e-01 2.016903877258300781e+00 3.425045311450958252e-01 -1.132253278046846390e-02
2.287000000000000000e+03 6.627337646484375000e+01 -7.968760967254638672e+00 -4.296705424785614014e-01 4.532985210418701172e+00 1.230994343757629395e+00 -1.105874300003051758e+00
2.288000000000000000e+03 6.750267028808593750e+01 -9.052721023559570312e+00 -7.112344503402709961e-01 5.868896007537841797e+00 1.547298550605773926e+00 -1.132619142532348633e+00
2.289000000000000000e+03 2.363344192504882812e+01 -5.883454799652099609e+00 2.984845876693725586e+00 1.504453778266906738e+00 1.346789836883544922e+00 -2.903928995132446289e+00
2.290000000000000000e+03 5.937506866455078125e+01 -4.644589900970458984e+00 7.676696181297302246e-01 5.841372609138488770e-01 4.055420756340026855e-01 -2.340082973241806030e-01
2.291000000000000000e+03 1.197139835357666016e+01 -9.867114067077636719e+00 -1.489480495452880859e+00 5.251408576965332031e+00 1.128578543663024902e+00 2.985470056533813477e+00
2.292000000000000000e+03 5.697300910949707031e+00 -1.037898826599121094e+01 -9.877736866474151611e-02 1.838593006134033203e+00 5.219447016716003418e-01 -1.743220388889312744e-01
2.293000000000000000e+03 4.154007339477539062e+01 -7.895295619964599609e+00 -1.247615098953247070e+00 7.839596748352050781e+00 1.977594494819641113e+00 1.550680875778198242e+00
2.294000000000000000e+03 3.982426071166992188e+01 2.093202400207519531e+01 -5.301896929740905762e-01 3.424355506896972656e+00 8.682497143745422363e-01 -1.084081172943115234e+00
2.295000000000000000e+03 4.167860794067382812e+01 -4.536074638366699219e+00 -1.391193747520446777e+00 9.039032936096191406e+00 2.294351816177368164e+00 2.148308515548706055e+00
2.296000000000000000e+03 3.549152755737304688e+01 -1.175680446624755859e+01 1.517671108245849609e+00 4.439120769500732422e+00 1.787037491798400879e+00 -1.535908937454223633e+00
2.297000000000000000e+03 3.146940422058105469e+01 -1.029825019836425781e+01 1.445934891700744629e+00 1.750486135482788086e+00 9.589263200759887695e-01 -3.119810104370117188e+00
2.298000000000000000e+03 1.424312686920166016e+01 2.043634605407714844e+01 3.320407867431640625e-01 5.672734260559082031e+00 1.801432490348815918e+00 -1.052803874015808105e+00
2.299000000000000000e+03 6.674673557281494141e+00 1.023112583160400391e+01 7.041053771972656250e-01 9.413554668426513672e-01 4.936382472515106201e-01 -5.519824568182229996e-03
2.300000000000000000e+03 1.451112937927246094e+01 1.083098506927490234e+01 1.199779033660888672e+00 7.292214870452880859e+00 2.547598123550415039e+00 -9.557359218597412109e-01
2.301000000000000000e+03 5.890478897094726562e+01 -3.570546627044677734e+00 1.010820746421813965e+00 4.124601185321807861e-01 4.269842505455017090e-01 -1.282293945550918579e-01
2.302000000000000000e+03 1.445338726043701172e+01 2.361002922058105469e+00 -1.645433008670806885e-01 6.387045383453369141e+00 1.866750597953796387e+00 -3.490698337554931641e+00
2.303000000000000000e+03 1.631773567199707031e+01 3.775681972503662109e+00 -1.442928671836853027e+00 1.003380203247070312e+01 2.577262163162231445e+00 -1.978991627693176270e+00
2.304000000000000000e+03 6.499719238281250000e+01 -8.428193628787994385e-03 2.152201533317565918e-01 3.500990629196166992e+00 1.114863276481628418e+00 3.744993507862091064e-01
2.305000000000000000e+03 4.404760742187500000e+01 -8.028656959533691406e+00 -1.465696454048156738e+00 8.890238761901855469e+00 2.227362871170043945e+00 1.157683134078979492e+00
2.306000000000000000e+03 1.293783855438232422e+01 -9.315779685974121094e+00 -1.469867944717407227e+00 4.678058147430419922e+00 9.624570608139038086e-01 3.677814483642578125e+00
2.307000000000000000e+03 3.938628768920898438e+01 -8.957177162170410156e+00 -2.389537096023559570e-01 6.100609302520751953e+00 1.758496642112731934e+00 1.007881045341491699e+00
2.308000000000000000e+03 2.132400512695312500e+01 -2.364002943038940430e+00 5.048483848571777344e+00 2.872148513793945312e+00 2.376189708709716797e+00 -2.797634601593017578e+00
2.309000000000000000e+03 6.613040161132812500e+01 8.768855333328247070e-01 -2.390682697296142578e-02 4.298119068145751953e+00 1.282263636589050293e+00 4.918458461761474609e-01
2.310000000000000000e+03 3.945735549926757812e+01 2.265149307250976562e+01 -6.745637059211730957e-01 3.298892021179199219e+00 7.872985005378723145e-01 -1.079620122909545898e+00
2.311000000000000000e+03 3.572276306152343750e+01 2.438718795776367188e+01 -6.191523075103759766e-01 1.904720664024353027e+00 3.856704831123352051e-01 -9.066188931465148926e-01
2.312000000000000000e+03 1.942818641662597656e+01 -4.060395717620849609e+00 3.703259229660034180e+00 5.590091228485107422e+00 2.788005113601684570e+00 -2.778772830963134766e+00
2.313000000000000000e+03 6.957527160644531250e+01 -2.888699722290039062e+01 -1.005181193351745605e+00 6.826024532318115234e+00 1.746252894401550293e+00 2.241478264331817627e-01
2.314000000000000000e+03 6.627369403839111328e+00 -1.047768783569335938e+01 -2.141081839799880981e-01 2.523823738098144531e+00 6.929146051406860352e-01 8.419995754957199097e-02
2.315000000000000000e+03 7.605214118957519531e+00 -1.330179309844970703e+01 4.945912063121795654e-01 3.955556631088256836e+00 1.335044384002685547e+00 -1.746908761560916901e-02
2.316000000000000000e+03 7.034477233886718750e+01 -2.725671195983886719e+01 -9.393799901008605957e-01 7.610990047454833984e+00 2.001482963562011719e+00 -1.187370941042900085e-01
2.317000000000000000e+03 6.720531463623046875e+01 -2.867537498474121094e+01 -9.531740546226501465e-01 5.376613140106201172e+00 1.327031731605529785e+00 8.299345374107360840e-01
2.318000000000000000e+03 7.264626312255859375e+01 -3.338476181030273438e+01 -4.345207512378692627e-01 6.979771137237548828e+00 1.963575005531311035e+00 -3.119129315018653870e-02
2.319000000000000000e+03 7.404627227783203125e+01 2.428613281250000000e+01 -6.656848192214965820e-01 8.329852104187011719e+00 2.299250125885009766e+00 7.887042760848999023e-01
2.320000000000000000e+03 7.316779327392578125e+01 -2.236608123779296875e+01 6.660814881324768066e-01 8.349239349365234375e+00 2.704596281051635742e+00 -1.116142272949218750e+00
2.321000000000000000e+03 8.510060310363769531e+00 2.886151885986328125e+01 -4.969489574432373047e-01 2.912651777267456055e+00 7.247108817100524902e-01 -8.963403701782226562e-01
2.322000000000000000e+03 8.950772285461425781e+00 3.352479553222656250e+01 -4.897326529026031494e-01 2.865944147109985352e+00 7.128634452819824219e-01 -5.134887099266052246e-01
2.323000000000000000e+03 7.435044860839843750e+01 2.648151397705078125e+01 -6.596418619155883789e-01 8.197144508361816406e+00 2.261250734329223633e+00 3.882207274436950684e-01
2.324000000000000000e+03 7.352181243896484375e+01 -1.869819068908691406e+01 1.359595537185668945e+00 8.236237525939941406e+00 2.878749847412109375e+00 -1.840747892856597900e-01
2.325000000000000000e+03 7.333563995361328125e+01 -1.952512168884277344e+01 1.426398873329162598e+00 8.367819786071777344e+00 2.938265800476074219e+00 -4.761367738246917725e-01
2.326000000000000000e+03 7.349098205566406250e+01 8.124252319335937500e+00 1.367856655269861221e-02 7.986415386199951172e+00 2.400028228759765625e+00 -5.074176192283630371e-01
2.327000000000000000e+03 7.146348571777343750e+01 2.792168378829956055e+00 -4.566532373428344727e-01 6.984752178192138672e+00 1.958429574966430664e+00 -5.509939789772033691e-02
2.328000000000000000e+03 7.480545043945312500e+01 3.500112295150756836e+00 -2.572557330131530762e-01 7.545342445373535156e+00 2.186426162719726562e+00 -3.784107863903045654e-01
2.329000000000000000e+03 7.277898406982421875e+01 -3.155998706817626953e+00 -5.235278010368347168e-01 7.118392467498779297e+00 1.978459358215332031e+00 9.460300952196121216e-02
2.330000000000000000e+03 7.284827423095703125e+01 -4.313957691192626953e+00 -5.893336534500122070e-01 7.196346282958984375e+00 1.982103824615478516e+00 1.329034864902496338e-01
2.331000000000000000e+03 7.418479156494140625e+01 1.138405609130859375e+01 5.668455362319946289e-01 8.056875228881835938e+00 2.587116241455078125e+00 -3.401959240436553955e-01
2.332000000000000000e+03 7.135507965087890625e+01 1.124248218536376953e+01 9.291517734527587891e-01 8.984103202819824219e+00 2.973976612091064453e+00 6.214842572808265686e-02
2.333000000000000000e+03 7.358340454101562500e+01 -1.042089939117431641e+01 -2.964747846126556396e-01 7.876127243041992188e+00 2.273895740509033203e+00 8.813221454620361328e-01
2.334000000000000000e+03 7.455836486816406250e+01 5.654469490051269531e+00 -2.021469324827194214e-01 7.686904907226562500e+00 2.245427370071411133e+00 -5.087959766387939453e-01
2.335000000000000000e+03 7.166159057617187500e+01 4.189130783081054688e+00 -4.105477333068847656e-01 7.232723712921142578e+00 2.046652793884277344e+00 -1.082248389720916748e-01
2.336000000000000000e+03 7.396835327148437500e+01 -1.749901056289672852e+00 -4.097233712673187256e-01 7.322549343109130859e+00 2.073847770690917969e+00 2.273390814661979675e-02
2.337000000000000000e+03 7.257544708251953125e+01 -1.854002237319946289e+00 -5.042591691017150879e-01 7.007698535919189453e+00 1.951031923294067383e+00 -1.020258944481611252e-02
2.338000000000000000e+03 7.322828674316406250e+01 -2.140942573547363281e+01 9.447356462478637695e-01 8.342262268066406250e+00 2.786099433898925781e+00 -8.512864112854003906e-01
2.339000000000000000e+03 7.439453887939453125e+01 -2.044109725952148438e+01 9.006657004356384277e-01 7.742255210876464844e+00 2.592876195907592773e+00 -6.765187978744506836e-01
2.340000000000000000e+03 7.386904144287109375e+01 -9.307394027709960938e+00 -4.201467931270599365e-01 7.788857936859130859e+00 2.210613250732421875e+00 7.684435844421386719e-01
2.341000000000000000e+03 7.224041748046875000e+01 -6.853820323944091797e+00 -6.938158869743347168e-01 7.403866767883300781e+00 2.013015270233154297e+00 2.925980687141418457e-01
2.342000000000000000e+03 7.450205230712890625e+01 1.903419685363769531e+01 5.115098953247070312e-01 8.249286651611328125e+00 2.628238916397094727e+00 1.162626266479492188e+00
2.343000000000000000e+03 7.407360076904296875e+01 1.804254341125488281e+01 6.876513361930847168e-01 8.442788124084472656e+00 2.739131689071655273e+00 9.116303324699401855e-01
2.344000000000000000e+03 7.070127105712890625e+01 -2.824647903442382812e+01 -9.394557476043701172e-01 7.350927829742431641e+00 1.923441648483276367e+00 -1.026279926300048828e-01
2.345000000000000000e+03 7.243771362304687500e+01 -2.836648941040039062e+01 -7.413020133972167969e-01 7.666110038757324219e+00 2.077442407608032227e+00 -5.099354982376098633e-01
2.346000000000000000e+03 8.579010963439941406e+00 2.006212615966796875e+01 3.219875991344451904e-01 2.861474037170410156e+00 9.550384879112243652e-01 -1.375061988830566406e+00
2.347000000000000000e+03 7.163522338867187500e+01 2.592544174194335938e+01 -1.162776827812194824e+00 7.845102310180664062e+00 2.004697561264038086e+00 -6.555428355932235718e-02
2.348000000000000000e+03 6.917285919189453125e+01 2.511531257629394531e+01 -1.621279001235961914e+00 6.675835132598876953e+00 1.516366839408874512e+00 -9.283597469329833984e-01
2.349000000000000000e+03 2.008035850524902344e+01 -3.798753023147583008e+00 4.176480293273925781e+00 4.489850521087646484e+00 2.599899291992187500e+00 -3.172825574874877930e+00
2.350000000000000000e+03 1.885111427307128906e+01 -4.347247600555419922e+00 3.049703836441040039e+00 6.365536689758300781e+00 2.824572086334228516e+00 -2.211793184280395508e+00
2.351000000000000000e+03 3.687311172485351562e+01 -1.291103363037109375e+01 1.603202581405639648e+00 5.994954586029052734e+00 2.279447078704833984e+00 -8.906549215316772461e-01
2.352000000000000000e+03 4.076223754882812500e+01 -2.270747947692871094e+01 2.252081155776977539e+00 9.183643341064453125e+00 3.430717229843139648e+00 -2.248187214136123657e-01
2.353000000000000000e+03 6.127338409423828125e+00 -2.409303283691406250e+01 -5.488890036940574646e-02 3.346300363540649414e+00 9.874234199523925781e-01 1.595642328262329102e+00
2.354000000000000000e+03 6.258049488067626953e+00 -2.511968040466308594e+01 -2.779839038848876953e-01 3.382846355438232422e+00 9.314587116241455078e-01 1.584662437438964844e+00
2.355000000000000000e+03 6.149702072143554688e+00 -8.092391014099121094e+00 -8.403685688972473145e-02 1.564342260360717773e+00 4.440916180610656738e-01 1.444448679685592651e-01
2.356000000000000000e+03 5.151436328887939453e+00 -8.322905540466308594e+00 -8.044502139091491699e-02 1.101441740989685059e+00 3.062990307807922363e-01 -1.056623682379722595e-01
2.357000000000000000e+03 5.865008354187011719e+00 -1.560084915161132812e+01 8.238050937652587891e-01 2.439566612243652344e+00 9.790115356445312500e-01 1.582624465227127075e-01
2.358000000000000000e+03 6.505301475524902344e+00 1.604421043395996094e+01 5.560846924781799316e-01 1.478882789611816406e+00 6.104902625083923340e-01 -8.530884981155395508e-01
2.359000000000000000e+03 6.821713447570800781e+00 1.708372879028320312e+01 5.144122838973999023e-01 1.706047892570495605e+00 6.661380529403686523e-01 -9.822054505348205566e-01
2.360000000000000000e+03 7.380795955657958984e+00 1.788025856018066406e+01 5.441074371337890625e-01 2.133066415786743164e+00 8.031521439552307129e-01 -1.131150245666503906e+00
2.361000000000000000e+03 2.235817718505859375e+01 -1.670738816261291504e+00 4.431659698486328125e+00 1.753739476203918457e+00 1.855619788169860840e+00 -2.462292432785034180e+00
2.362000000000000000e+03 5.851151943206787109e+00 -1.695153999328613281e+01 9.970627427101135254e-01 2.464687347412109375e+00 1.038524985313415527e+00 5.135870575904846191e-01
2.363000000000000000e+03 6.063267707824707031e+00 1.492241477966308594e+01 5.640152692794799805e-01 1.107655763626098633e+00 5.015013217926025391e-01 -6.318463683128356934e-01
2.364000000000000000e+03 7.647389411926269531e+00 1.563245773315429688e+01 7.581039071083068848e-01 2.098750829696655273e+00 8.570563793182373047e-01 -8.914756774902343750e-01
2.365000000000000000e+03 5.368811607360839844e+00 1.298562908172607422e+01 5.313451290130615234e-01 5.869067907333374023e-01 3.354755938053131104e-01 -3.157173097133636475e-01
2.366000000000000000e+03 5.868424415588378906e+00 1.955710029602050781e+01 2.317177057266235352e-01 1.443750500679016113e+00 5.026404857635498047e-01 -1.109714150428771973e+00
2.367000000000000000e+03 5.624521255493164062e+00 -2.009769058227539062e+01 7.722661495208740234e-01 2.637222766876220703e+00 1.022846698760986328e+00 1.253386259078979492e+00
2.368000000000000000e+03 8.357004165649414062e+00 -3.171003913879394531e+01 -7.222414016723632812e-01 3.050306320190429688e+00 6.984194517135620117e-01 5.477570295333862305e-01
2.369000000000000000e+03 6.631975173950195312e+00 -3.506396102905273438e+01 -3.879823982715606689e-01 2.931242704391479492e+00 7.629780769348144531e-01 3.679017126560211182e-01
2.370000000000000000e+03 7.121668338775634766e+00 2.806706237792968750e+01 -3.683448433876037598e-01 2.596563816070556641e+00 6.684656739234924316e-01 -9.745934009552001953e-01
2.371000000000000000e+03 1.285181713104248047e+01 8.828775405883789062e+00 9.741964340209960938e-01 5.320625305175781250e+00 1.888446450233459473e+00 -9.023211002349853516e-01
2.372000000000000000e+03 5.797381401062011719e+00 8.407558441162109375e+00 5.552597045898437500e-01 3.329693078994750977e-01 2.664687037467956543e-01 3.522072732448577881e-01
2.373000000000000000e+03 4.772545242309570312e+01 -4.091010570526123047e+00 -3.493860363960266113e-01 6.592478275299072266e+00 1.872927784919738770e+00 2.399213165044784546e-01
2.374000000000000000e+03 4.820276641845703125e+01 -3.091347932815551758e+00 1.948279589414596558e-01 6.059947490692138672e+00 1.876432657241821289e+00 -1.873621940612792969e-01
2.375000000000000000e+03 7.028055572509765625e+01 -2.339788246154785156e+01 4.552312195301055908e-02 9.317258834838867188e+00 2.808834791183471680e+00 -2.958829402923583984e-01
2.376000000000000000e+03 8.596938133239746094e+00 -1.412115859985351562e+01 8.111866116523742676e-01 5.108374595642089844e+00 1.775868415832519531e+00 1.624372005462646484e-01
2.377000000000000000e+03 7.625091552734375000e+00 -1.405948638916015625e+01 6.931815147399902344e-01 4.022852897644042969e+00 1.414810419082641602e+00 6.844373792409896851e-02
2.378000000000000000e+03 6.603573799133300781e+00 1.291839790344238281e+01 7.054349184036254883e-01 1.205836534500122070e+00 5.733814239501953125e-01 -3.982639014720916748e-01
2.379000000000000000e+03 7.182727050781250000e+01 3.088389968872070312e+01 -4.169701635837554932e-01 6.832511425018310547e+00 1.924662351608276367e+00 -4.221560060977935791e-01
2.380000000000000000e+03 7.465739440917968750e+01 3.125002670288085938e+01 -2.530274093151092529e-01 7.873723506927490234e+00 2.286208868026733398e+00 -1.790250390768051147e-01
2.381000000000000000e+03 6.017375469207763672e+00 9.546415328979492188e+00 6.284241676330566406e-01 5.576028823852539062e-01 3.558081388473510742e-01 1.467799395322799683e-01
2.382000000000000000e+03 1.429997634887695312e+01 1.191942977905273438e+01 1.319489359855651855e+00 7.170645713806152344e+00 2.547040462493896484e+00 -9.133389592170715332e-01
2.383000000000000000e+03 5.983194828033447266e+00 -1.197353553771972656e+01 1.026244610548019409e-01 2.357209205627441406e+00 7.379500865936279297e-01 -1.571994423866271973e-01
2.384000000000000000e+03 6.401590824127197266e+00 -1.292338657379150391e+01 3.902154862880706787e-01 2.856658697128295898e+00 9.740622639656066895e-01 -1.235735937952995300e-01
2.385000000000000000e+03 5.139152050018310547e+00 -1.234349155426025391e+01 1.725689321756362915e-01 1.561507463455200195e+00 5.202229022979736328e-01 -2.940278351306915283e-01
2.386000000000000000e+03 6.617524719238281250e+01 -6.780844211578369141e+00 -2.982236146926879883e-01 4.347485542297363281e+00 1.214778542518615723e+00 -9.180369973182678223e-01
2.387000000000000000e+03 5.981531143188476562e+01 -5.418203830718994141e+00 5.729449391365051270e-01 6.345363259315490723e-01 3.622443675994873047e-01 -2.870884239673614502e-01
2.388000000000000000e+03 6.311953353881835938e+01 -6.848940849304199219e+00 2.216193825006484985e-01 1.976902604103088379e+00 6.595565676689147949e-01 -7.298955321311950684e-01
2.389000000000000000e+03 1.354038715362548828e+01 1.770473861694335938e+01 1.147378563880920410e+00 5.974412441253662109e+00 2.136537313461303711e+00 -9.976310133934020996e-01
2.390000000000000000e+03 4.431538009643554688e+01 -5.109619140625000000e+00 -1.619487643241882324e+00 9.434896469116210938e+00 2.344622611999511719e+00 8.127877712249755859e-01
2.391000000000000000e+03 3.291361999511718750e+01 -8.855117797851562500e+00 1.337143540382385254e+00 1.507073640823364258e+00 8.532651066780090332e-01 -2.656003952026367188e+00
2.392000000000000000e+03 6.084065246582031250e+01 -1.894960999488830566e+00 9.434332847595214844e-01 1.135312199592590332e+00 6.236236691474914551e-01 4.180227220058441162e-02
2.393000000000000000e+03 3.242883682250976562e+01 2.815699768066406250e+01 -2.669809758663177490e-01 1.324202895164489746e+00 3.171665668487548828e-01 -5.088763236999511719e-01
2.394000000000000000e+03 5.983295059204101562e+01 -2.600207090377807617e+00 1.007632613182067871e+00 7.775696516036987305e-01 5.355606675148010254e-01 -2.525728940963745117e-02
2.395000000000000000e+03 3.871865844726562500e+01 -1.483046913146972656e+01 1.985876798629760742e+00 7.571351051330566406e+00 2.867168426513671875e+00 -1.701708883047103882e-01
2.396000000000000000e+03 3.805259323120117188e+01 -1.631756401062011719e+01 2.595788955688476562e+00 8.131420135498046875e+00 3.218162775039672852e+00 -6.594201326370239258e-01
2.397000000000000000e+03 6.993493652343750000e+01 -2.645305061340332031e+01 -9.005411267280578613e-01 7.815389633178710938e+00 2.074454545974731445e+00 6.692434847354888916e-02
2.398000000000000000e+03 3.542550659179687500e+01 -1.301826667785644531e+01 1.836810231208801270e+00 5.103553295135498047e+00 2.082109212875366211e+00 -1.785874485969543457e+00
2.399000000000000000e+03 4.378818511962890625e+01 -9.824845314025878906e+00 -7.043952345848083496e-01 8.784440994262695312e+00 2.424013853073120117e+00 1.141441345214843750e+00
2.400000000000000000e+03 6.940615844726562500e+01 -2.722804069519042969e+01 -9.216126203536987305e-01 7.198756694793701172e+00 1.883143186569213867e+00 2.550034224987030029e-01
2.401000000000000000e+03 8.359931945800781250e+00 -2.406891441345214844e+01 -1.631050556898117065e-01 4.543630599975585938e+00 1.314157605171203613e+00 1.301879405975341797e+00
2.402000000000000000e+03 7.237374114990234375e+01 7.444000244140625000e+00 -1.142940297722816467e-01 7.883765220642089844e+00 2.330841302871704102e+00 -3.822653591632843018e-01
2.403000000000000000e+03 6.934582519531250000e+01 5.358133792877197266e+00 -4.084714353084564209e-01 6.949144363403320312e+00 1.962201833724975586e+00 3.926064372062683105e-01
2.404000000000000000e+03 7.200030517578125000e+01 1.022347259521484375e+01 5.827284455299377441e-01 8.712079048156738281e+00 2.788442373275756836e+00 -2.010529786348342896e-01
2.405000000000000000e+03 7.284790802001953125e+01 1.399082660675048828e+01 1.177937150001525879e+00 8.754611968994140625e+00 2.979764938354492188e+00 3.064886331558227539e-01
2.406000000000000000e+03 7.131883239746093750e+01 6.786938190460205078e+00 -2.830843925476074219e-01 7.862610340118408203e+00 2.273857831954956055e+00 -1.003247648477554321e-01
2.407000000000000000e+03 7.299939727783203125e+01 6.364255428314208984e+00 -2.451327890157699585e-01 7.816650390625000000e+00 2.271455287933349609e+00 -3.963375687599182129e-01
2.408000000000000000e+03 7.277082824707031250e+01 2.961380481719970703e-01 -4.370622038841247559e-01 7.085231304168701172e+00 1.994450688362121582e+00 -8.383937925100326538e-02
2.409000000000000000e+03 4.235173797607421875e+01 -2.508136177062988281e+01 1.767428755760192871e+00 8.639643669128417969e+00 3.122121810913085938e+00 -5.517599582672119141e-01
2.410000000000000000e+03 7.258043670654296875e+01 1.729469299316406250e+01 1.125845074653625488e+00 8.993783950805664062e+00 3.035888671875000000e+00 7.279040813446044922e-01
2.411000000000000000e+03 3.741669845581054688e+01 2.374697113037109375e+01 -6.850610375404357910e-01 2.432942390441894531e+00 5.243644118309020996e-01 -9.667189717292785645e-01
2.412000000000000000e+03 6.844734191894531250e+01 -2.907401847839355469e+01 -9.880909919738769531e-01 6.163034915924072266e+00 1.552483081817626953e+00 6.284435391426086426e-01
2.413000000000000000e+03 4.920971679687500000e+01 -3.562468528747558594e+00 4.244395494461059570e-01 4.540415287017822266e+00 1.489456534385681152e+00 8.491960167884826660e-02
2.414000000000000000e+03 4.158208084106445312e+01 -3.037617874145507812e+01 -6.232753396034240723e-01 7.302382946014404297e+00 2.003732442855834961e+00 -4.109493494033813477e-01
2.415000000000000000e+03 2.298247337341308594e+01 -4.969706058502197266e+00 3.574277877807617188e+00 1.689751029014587402e+00 1.579208731651306152e+00 -2.975865364074707031e+00
2.416000000000000000e+03 2.290063095092773438e+01 -8.586579322814941406e+00 6.508417725563049316e-01 1.599173903465270996e+00 6.750046610832214355e-01 -2.297466039657592773e+00
2.417000000000000000e+03 4.045693206787109375e+01 -1.932155418395996094e+01 2.664893388748168945e+00 9.096259117126464844e+00 3.528345823287963867e+00 -2.870956659317016602e-01
2.418000000000000000e+03 4.083643341064453125e+01 -1.661626052856445312e+01 2.323719501495361328e+00 8.735980987548828125e+00 3.317910194396972656e+00 1.796442866325378418e-01
2.419000000000000000e+03 3.858157348632812500e+01 -1.752788734436035156e+01 2.886084794998168945e+00 8.705224990844726562e+00 3.477392911911010742e+00 -6.144668459892272949e-01
2.420000000000000000e+03 7.207140445709228516e+00 -2.513057518005371094e+01 -3.572239577770233154e-01 3.785577535629272461e+00 1.028506040573120117e+00 1.441593408584594727e+00
2.421000000000000000e+03 9.381603240966796875e+00 -2.550610160827636719e+01 -6.597436070442199707e-01 4.414492607116699219e+00 1.126424670219421387e+00 8.304572105407714844e-01
2.422000000000000000e+03 3.859690475463867188e+01 -2.575865173339843750e+01 1.461700797080993652e+00 8.609855651855468750e+00 3.021466970443725586e+00 3.871958553791046143e-01
2.423000000000000000e+03 4.044593048095703125e+01 -2.708142280578613281e+01 7.804693579673767090e-01 8.117579460144042969e+00 2.669414758682250977e+00 -1.357091516256332397e-01
2.424000000000000000e+03 5.714703750610351562e+01 -4.016143321990966797e+00 9.958832859992980957e-01 5.519584566354751587e-02 3.153237402439117432e-01 -1.212202757596969604e-01
2.425000000000000000e+03 3.435013198852539062e+01 -1.127000141143798828e+01 1.580703854560852051e+00 3.487560272216796875e+00 1.520479202270507812e+00 -2.147197246551513672e+00
2.426000000000000000e+03 6.914913940429687500e+01 1.004881501197814941e+00 -4.236127138137817383e-01 5.975502490997314453e+00 1.665566921234130859e+00 2.156800627708435059e-01
2.427000000000000000e+03 3.968908691406250000e+01 -1.358022689819335938e+01 1.475140094757080078e+00 7.528891086578369141e+00 2.701209306716918945e+00 2.893762290477752686e-01
2.428000000000000000e+03 2.417553138732910156e+01 -9.635141372680664062e+00 3.232612013816833496e-01 1.265090227127075195e+00 4.765054285526275635e-01 -2.190423488616943359e+00
2.429000000000000000e+03 2.528245925903320312e+01 -9.797493934631347656e+00 6.201480627059936523e-01 1.256110787391662598e+00 5.628776550292968750e-01 -2.299763202667236328e+00
2.430000000000000000e+03 1.148707485198974609e+01 1.311575031280517578e+01 1.322924971580505371e+00 4.488245964050292969e+00 1.743351340293884277e+00 -8.294912576675415039e-01
2.431000000000000000e+03 6.838958740234375000e+01 4.539422035217285156e+00 -3.242432177066802979e-01 6.248432159423828125e+00 1.777256727218627930e+00 6.857838630676269531e-01
2.432000000000000000e+03 7.225361633300781250e+01 3.210134983062744141e+00 -4.693917036056518555e-01 7.256060123443603516e+00 2.036000490188598633e+00 -1.614407300949096680e-01
2.433000000000000000e+03 3.352333831787109375e+01 -1.012183380126953125e+01 1.455542922019958496e+00 2.279253721237182617e+00 1.120439052581787109e+00 -2.528292894363403320e+00
2.434000000000000000e+03 4.271627426147460938e+01 1.557282352447509766e+01 5.624210834503173828e-02 6.241768360137939453e+00 1.889403104782104492e+00 -7.360703945159912109e-01
2.435000000000000000e+03 1.410238170623779297e+01 -3.243651962280273438e+01 -8.574786186218261719e-01 1.951084256172180176e+00 3.280816972255706787e-01 -2.342247515916824341e-01
2.436000000000000000e+03 5.544090652465820312e+01 2.834811401367187500e+01 -5.412454605102539062e-01 2.517153978347778320e+00 5.927725434303283691e-01 1.582842230796813965e+00
2.437000000000000000e+03 5.874551010131835938e+01 3.260691070556640625e+01 3.075897991657257080e-01 2.456663846969604492e+00 8.292760848999023438e-01 6.447282433509826660e-01
2.438000000000000000e+03 3.914681243896484375e+01 -1.593932247161865234e+01 2.386934280395507812e+00 8.171772003173828125e+00 3.167612075805664062e+00 -1.735411137342453003e-01
2.439000000000000000e+03 4.171865844726562500e+01 -1.585136890411376953e+01 1.969001770019531250e+00 8.962660789489746094e+00 3.279498815536499023e+00 5.353960990905761719e-01
2.440000000000000000e+03 5.260093688964843750e+01 -4.854011535644531250e+00 8.570203781127929688e-01 6.839933395385742188e-01 4.623041152954101562e-01 2.132945656776428223e-01
2.441000000000000000e+03 2.275434303283691406e+01 2.732286262512207031e+01 -4.957223236560821533e-01 1.741896390914916992e+00 3.738522231578826904e-01 1.243803977966308594e+00
2.442000000000000000e+03 2.342517852783203125e+01 2.615840339660644531e+01 -4.189987480640411377e-01 1.397560715675354004e+00 2.935685813426971436e-01 1.180067777633666992e+00
2.443000000000000000e+03 6.976125335693359375e+01 2.408610343933105469e+01 -1.782147169113159180e+00 8.065254211425781250e+00 1.884932160377502441e+00 -4.566044509410858154e-01
2.444000000000000000e+03 3.896867752075195312e+01 -1.143839740753173828e+01 8.126244544982910156e-01 6.531706809997558594e+00 2.203299283981323242e+00 2.649298608303070068e-01
2.445000000000000000e+03 4.339279556274414062e+01 -2.627854347229003906e+01 1.212153077125549316e+00 8.395228385925292969e+00 2.882214307785034180e+00 -8.582676649093627930e-01
2.446000000000000000e+03 4.212785339355468750e+01 -2.801180076599121094e+01 3.347094953060150146e-01 7.930106163024902344e+00 2.479444742202758789e+00 -4.961842894554138184e-01
2.447000000000000000e+03 3.680001068115234375e+01 -1.182226467132568359e+01 1.307157516479492188e+00 5.269065380096435547e+00 1.972866773605346680e+00 -7.866191267967224121e-01
2.448000000000000000e+03 3.935334777832031250e+01 -1.250019264221191406e+01 1.142184972763061523e+00 7.130671501159667969e+00 2.481856822967529297e+00 2.394485622644424438e-01
2.449000000000000000e+03 7.297543334960937500e+01 1.845786857604980469e+01 8.301103711128234863e-01 8.758921623229980469e+00 2.876709461212158203e+00 1.123911380767822266e+00
2.450000000000000000e+03 7.391626739501953125e+01 1.454209232330322266e+01 9.218020439147949219e-01 8.373091697692871094e+00 2.788468122482299805e+00 1.562528461217880249e-01
2.451000000000000000e+03 7.471970367431640625e+01 1.583323669433593750e+01 7.627639770507812500e-01 8.100893974304199219e+00 2.659097433090209961e+00 5.105859041213989258e-01
2.452000000000000000e+03 7.493933200836181641e+00 -2.937884330749511719e+01 -7.259681820869445801e-01 3.288323640823364258e+00 7.687066197395324707e-01 8.875432610511779785e-01
2.453000000000000000e+03 4.763980484008789062e+01 2.306004905700683594e+01 -9.479904770851135254e-01 5.949655532836914062e+00 1.500499606132507324e+00 3.612074553966522217e-01
2.454000000000000000e+03 5.337399291992187500e+01 2.685849571228027344e+01 -1.019920229911804199e+00 3.504561185836791992e+00 7.453922629356384277e-01 1.765427350997924805e+00
2.455000000000000000e+03 4.975975418090820312e+01 2.474683952331542969e+01 -1.299036502838134766e+00 5.331496715545654297e+00 1.209738016128540039e+00 1.039770841598510742e+00
2.456000000000000000e+03 1.288151454925537109e+01 -3.712593078613281250e+01 -4.334695935249328613e-01 1.830808520317077637e+00 4.192016720771789551e-01 -1.011428162455558777e-01
2.457000000000000000e+03 1.877446746826171875e+01 -3.398094177246093750e+01 -6.821250319480895996e-01 5.789029002189636230e-01 -3.096662834286689758e-02 -2.854587137699127197e-01
2.458000000000000000e+03 4.091946792602539062e+01 -1.327243804931640625e+01 1.278960108757019043e+00 8.023439407348632812e+00 2.790719747543334961e+00 5.431445837020874023e-01
2.459000000000000000e+03 8.281226158142089844e+00 -2.807523918151855469e+01 -8.435644507408142090e-01 3.585125923156738281e+00 8.224684000015258789e-01 9.268473982810974121e-01
2.460000000000000000e+03 7.316647338867187500e+01 3.624706983566284180e+00 -3.796523213386535645e-01 7.384404182434082031e+00 2.101425647735595703e+00 -3.180739283561706543e-01
2.461000000000000000e+03 7.362450408935546875e+01 -6.556606292724609375e+00 -5.616712570190429688e-01 7.521217346191406250e+00 2.087863683700561523e+00 4.217743575572967529e-01
2.462000000000000000e+03 1.638439750671386719e+01 2.561424446105957031e+01 -1.201559066772460938e+00 4.810256481170654297e+00 1.082609295845031738e+00 7.277654856443405151e-02
2.463000000000000000e+03 5.300658416748046875e+01 2.573683547973632812e+01 -1.114957451820373535e+00 3.788914442062377930e+00 8.021870851516723633e-01 1.909613132476806641e+00
2.464000000000000000e+03 5.283599090576171875e+01 -3.834124565124511719e+00 1.377388119697570801e+00 6.543403267860412598e-01 6.095185279846191406e-01 8.361584693193435669e-02
2.465000000000000000e+03 5.373445892333984375e+01 -4.994757652282714844e+00 9.181090593338012695e-01 1.810175925493240356e-01 3.297379910945892334e-01 1.080007106065750122e-01
2.466000000000000000e+03 7.396411132812500000e+01 -1.296050548553466797e+01 1.954827159643173218e-01 8.018992424011230469e+00 2.464342594146728516e+00 9.848229289054870605e-01
2.467000000000000000e+03 7.592916011810302734e+00 -3.333882141113281250e+01 -5.744155049324035645e-01 2.957955121994018555e+00 7.150618433952331543e-01 4.771972596645355225e-01
2.468000000000000000e+03 5.191536712646484375e+01 -3.772269058227539062e+01 -1.151512414216995239e-01 2.941563367843627930e+00 8.479236364364624023e-01 -1.031818747520446777e+00
2.469000000000000000e+03 4.297705078125000000e+01 1.674749565124511719e+01 -6.216292455792427063e-02 5.999412059783935547e+00 1.781174778938293457e+00 -7.133764028549194336e-01
2.470000000000000000e+03 6.461086273193359375e+01 3.166966629028320312e+01 1.939757913351058960e-01 3.400444984436035156e+00 1.078326225280761719e+00 -4.581992328166961670e-01
2.471000000000000000e+03 6.486346435546875000e+01 3.433697509765625000e+01 3.814896345138549805e-01 3.800995349884033203e+00 1.254745483398437500e+00 -3.069765865802764893e-01
2.472000000000000000e+03 7.165821838378906250e+01 2.809937667846679688e+01 -8.662708401679992676e-01 7.274600505828857422e+00 1.922498941421508789e+00 -3.213488161563873291e-01
2.473000000000000000e+03 7.383076477050781250e+01 3.008779144287109375e+01 -3.918634951114654541e-01 7.685819149017333984e+00 2.188186645507812500e+00 -1.475626230239868164e-01
2.474000000000000000e+03 6.872085571289062500e+01 2.339138221740722656e+01 -1.844206094741821289e+00 7.163018226623535156e+00 1.595643639564514160e+00 -1.084483027458190918e+00
2.475000000000000000e+03 7.164879608154296875e+01 2.084390068054199219e+01 -3.267086744308471680e-01 9.171311378479003906e+00 2.653380870819091797e+00 1.106626510620117188e+00
2.476000000000000000e+03 1.343477916717529297e+01 -3.433245182037353516e+00 3.501260757446289062e+00 2.249732732772827148e+00 1.725298047065734863e+00 3.709901094436645508e+00
2.477000000000000000e+03 1.307768344879150391e+01 -3.520730733871459961e+00 3.144556045532226562e+00 1.800195336341857910e+00 1.483425378799438477e+00 3.315299034118652344e+00
2.478000000000000000e+03 1.351144504547119141e+01 2.852186441421508789e+00 1.013132333755493164e-01 4.376273632049560547e+00 1.343276023864746094e+00 -2.588713169097900391e+00
2.479000000000000000e+03 1.681164360046386719e+01 2.817117452621459961e+00 -1.507704377174377441e+00 1.137307548522949219e+01 2.959611177444458008e+00 -1.663673400878906250e+00
2.480000000000000000e+03 1.267538738250732422e+01 -4.069956302642822266e+00 2.516897201538085938e+00 1.999356508255004883e+00 1.354876160621643066e+00 3.265590429306030273e+00
2.481000000000000000e+03 1.215395259857177734e+01 -4.153447628021240234e+00 2.171728610992431641e+00 1.634503364562988281e+00 1.141869544982910156e+00 2.849948406219482422e+00
2.482000000000000000e+03 1.509366703033447266e+01 -4.993770122528076172e+00 1.365898370742797852e+00 6.515163898468017578e+00 2.364318609237670898e+00 3.972984790802001953e+00
2.483000000000000000e+03 1.723827743530273438e+01 3.491020441055297852e+00 -1.616994976997375488e+00 1.081153678894042969e+01 2.758362531661987305e+00 -1.278603792190551758e+00
2.484000000000000000e+03 1.521578693389892578e+01 2.422488451004028320e+00 -7.944668531417846680e-01 8.853425979614257812e+00 2.417687892913818359e+00 -3.473610162734985352e+00
2.485000000000000000e+03 1.592707729339599609e+01 2.092405319213867188e+00 -1.173968195915222168e+00 1.122906494140625000e+01 3.016529083251953125e+00 -3.116766214370727539e+00
2.486000000000000000e+03 1.109287452697753906e+01 -4.974054813385009766e+00 1.259831190109252930e+00 1.760306954383850098e+00 9.060414433479309082e-01 2.428622722625732422e+00
2.487000000000000000e+03 1.067606163024902344e+01 -5.842928886413574219e+00 7.092671394348144531e-01 2.227300167083740234e+00 8.809701800346374512e-01 2.407092809677124023e+00
2.488000000000000000e+03 1.163795852661132812e+01 -1.062980747222900391e+01 -1.526168584823608398e+00 5.846577167510986328e+00 1.296122550964355469e+00 2.376781940460205078e+00
2.489000000000000000e+03 5.557822227478027344e+00 5.824600696563720703e+00 2.942543923854827881e-01 4.022820293903350830e-02 1.003447845578193665e-01 6.893523335456848145e-01
2.490000000000000000e+03 6.889892101287841797e+00 6.495223522186279297e+00 5.159378051757812500e-01 5.247790813446044922e-01 3.122150599956512451e-01 4.479451477527618408e-01
2.491000000000000000e+03 1.333882236480712891e+01 3.609657764434814453e+00 8.064550161361694336e-02 4.601550579071044922e+00 1.404658794403076172e+00 -2.262184143066406250e+00
2.492000000000000000e+03 1.313303279876708984e+01 4.366298675537109375e+00 1.310503035783767700e-01 4.618861198425292969e+00 1.424973368644714355e+00 -1.941314816474914551e+00
2.493000000000000000e+03 1.181845092773437500e+01 4.685930728912353516e+00 4.719309508800506592e-01 2.989140033721923828e+00 1.038321256637573242e+00 -1.159708023071289062e+00
2.494000000000000000e+03 1.141516971588134766e+01 5.255111694335937500e+00 5.746941566467285156e-01 2.881839275360107422e+00 1.036960005760192871e+00 -9.207946658134460449e-01
2.495000000000000000e+03 8.323024749755859375e+00 -5.731163024902343750e+00 3.192081749439239502e-01 1.424716830253601074e+00 5.231775045394897461e-01 9.660407900810241699e-01
2.496000000000000000e+03 1.234974002838134766e+01 -8.392372131347656250e+00 -8.374948501586914062e-01 4.324961185455322266e+00 1.046239972114562988e+00 3.474323987960815430e+00
2.497000000000000000e+03 1.618768119812011719e+01 5.674222469329833984e+00 -6.844215393066406250e-01 9.056353569030761719e+00 2.511579751968383789e+00 -1.482916355133056641e+00
2.498000000000000000e+03 1.601672744750976562e+01 6.798491954803466797e+00 -1.974180936813354492e-01 8.718630790710449219e+00 2.556363821029663086e+00 -1.368615627288818359e+00
2.499000000000000000e+03 6.833291053771972656e+00 -6.910861492156982422e+00 2.144142985343933105e-02 1.462457537651062012e+00 4.451696872711181641e-01 4.065837860107421875e-01
2.500000000000000000e+03 1.376743793487548828e+01 -8.593631744384765625e+00 -1.047588944435119629e+00 4.239746570587158203e+00 9.576473236083984375e-01 3.849163293838500977e+00
2.501000000000000000e+03 1.371995353698730469e+01 8.908747673034667969e+00 9.043313860893249512e-01 6.296154022216796875e+00 2.160145759582519531e+00 -9.833014011383056641e-01
2.502000000000000000e+03 9.573078155517578125e+00 -8.277961730957031250e+00 -3.957382440567016602e-01 3.370737075805664062e+00 8.924996256828308105e-01 1.765121459960937500e+00
2.503000000000000000e+03 1.364573383331298828e+01 9.742269515991210938e+00 1.072967529296875000e+00 6.248250961303710938e+00 2.196365594863891602e+00 -9.276008009910583496e-01
2.504000000000000000e+03 1.325801658630371094e+01 1.164491176605224609e+01 1.310170173645019531e+00 5.992779254913330078e+00 2.190884828567504883e+00 -8.494979739189147949e-01
2.505000000000000000e+03 7.584811687469482422e+00 7.384575843811035156e+00 7.324492931365966797e-01 9.962683320045471191e-01 5.186153054237365723e-01 2.051082551479339600e-01
2.506000000000000000e+03 1.457657146453857422e+01 8.071095466613769531e+00 6.195338368415832520e-01 7.157636165618896484e+00 2.333150863647460938e+00 -1.118645071983337402e+00
2.507000000000000000e+03 7.618699550628662109e+00 -1.020211505889892578e+01 -3.216065168380737305e-01 3.228200435638427734e+00 8.719781637191772461e-01 4.159690439701080322e-01
2.508000000000000000e+03 1.052959156036376953e+01 -1.060693645477294922e+01 -1.068835258483886719e+00 5.288176536560058594e+00 1.265802383422851562e+00 1.813383340835571289e+00
2.509000000000000000e+03 1.305278778076171875e+01 -8.543101310729980469e+00 -1.041046857833862305e+00 4.305293560028076172e+00 9.792740345001220703e-01 3.724482536315917969e+00
2.510000000000000000e+03 2.183971786499023438e+01 -8.695738792419433594e+00 3.223926723003387451e-01 1.755678296089172363e+00 6.234212517738342285e-01 -2.048363685607910156e+00
2.511000000000000000e+03 4.370794677734375000e+01 -6.220336914062500000e+00 -1.772402286529541016e+00 9.237526893615722656e+00 2.239537239074707031e+00 1.153981566429138184e+00
2.512000000000000000e+03 1.784157752990722656e+01 3.583467960357666016e+00 -1.528911590576171875e+00 1.057562065124511719e+01 2.714012861251831055e+00 -9.052042365074157715e-01
2.513000000000000000e+03 4.042447662353515625e+01 -8.822422981262207031e+00 -5.841058492660522461e-01 6.889272689819335938e+00 1.891550064086914062e+00 1.301015853881835938e+00
2.514000000000000000e+03 8.856987953186035156e+00 7.313186645507812500e+00 8.449446558952331543e-01 1.645080804824829102e+00 7.470076680183410645e-01 -4.423768818378448486e-02
2.515000000000000000e+03 1.629286003112792969e+01 -8.959880828857421875e+00 -1.106572508811950684e+00 2.861813545227050781e+00 5.265723466873168945e-01 2.516881704330444336e+00
2.516000000000000000e+03 1.616726303100585938e+01 -5.500061988830566406e+00 7.187308669090270996e-01 7.001464843750000000e+00 2.316058635711669922e+00 2.408866405487060547e+00
2.517000000000000000e+03 8.529520988464355469e+00 -1.316740703582763672e+01 2.959324121475219727e-01 4.804278850555419922e+00 1.530063390731811523e+00 2.286090999841690063e-01
2.518000000000000000e+03 6.411429882049560547e+00 1.143182086944580078e+01 7.172688245773315430e-01 9.567934870719909668e-01 5.022186636924743652e-01 -1.453223377466201782e-01
2.519000000000000000e+03 1.704363822937011719e+01 -6.955506801605224609e+00 9.764511883258819580e-02 4.913730621337890625e+00 1.503412723541259766e+00 1.378456115722656250e+00
2.520000000000000000e+03 7.347004890441894531e+00 1.149986839294433594e+01 8.354179263114929199e-01 1.453149795532226562e+00 6.865702867507934570e-01 -2.646992802619934082e-01
2.521000000000000000e+03 7.883224964141845703e+00 1.689564704895019531e+01 6.541854739189147949e-01 2.317299842834472656e+00 8.914456367492675781e-01 -1.047349810600280762e+00
2.522000000000000000e+03 1.082328224182128906e+01 5.175224304199218750e+00 5.903455018997192383e-01 2.296503067016601562e+00 8.660545349121093750e-01 -6.538085341453552246e-01
2.523000000000000000e+03 1.013423919677734375e+01 6.022962570190429688e+00 7.376444339752197266e-01 2.097343683242797852e+00 8.504964113235473633e-01 -3.876544535160064697e-01
2.524000000000000000e+03 4.470970153808593750e+01 -4.050758838653564453e+00 -1.077758550643920898e+00 9.507303237915039062e+00 2.528863191604614258e+00 6.001192331314086914e-01
2.525000000000000000e+03 7.196495056152343750e+01 5.769167900085449219e+00 -3.094109594821929932e-01 7.551923274993896484e+00 2.172753572463989258e+00 -2.275731116533279419e-01
2.526000000000000000e+03 7.306527709960937500e+01 2.365983200073242188e+01 -7.477695345878601074e-01 8.407032012939453125e+00 2.297778844833374023e+00 6.917516589164733887e-01
2.527000000000000000e+03 7.345200347900390625e+01 2.556179046630859375e+01 -7.855610251426696777e-01 8.209190368652343750e+00 2.227088928222656250e+00 3.927891254425048828e-01
2.528000000000000000e+03 6.730042266845703125e+01 1.741402983665466309e+00 -2.183311432600021362e-01 5.112982749938964844e+00 1.468395471572875977e+00 4.900086224079132080e-01
2.529000000000000000e+03 1.526410675048828125e+01 7.150509357452392578e+00 1.931942552328109741e-01 7.944820880889892578e+00 2.441404581069946289e+00 -1.249614953994750977e+00
2.530000000000000000e+03 1.833073806762695312e+01 -4.610892772674560547e+00 2.378801107406616211e+00 7.412692546844482422e+00 2.937448024749755859e+00 -1.643259644508361816e+00
2.531000000000000000e+03 2.047756958007812500e+01 -4.784510135650634766e+00 3.333027839660644531e+00 3.719414234161376953e+00 2.115732669830322266e+00 -2.943599462509155273e+00
2.532000000000000000e+03 1.717796707153320312e+01 -8.615483283996582031e+00 -7.625670433044433594e-01 2.919071197509765625e+00 6.469512581825256348e-01 1.563488841056823730e+00
2.533000000000000000e+03 7.364791107177734375e+01 2.197000122070312500e+01 -3.719504177570343018e-01 8.461574554443359375e+00 2.426887273788452148e+00 1.187890648841857910e+00
2.534000000000000000e+03 7.114849853515625000e+01 -2.424377059936523438e+01 -1.517672240734100342e-01 8.835747718811035156e+00 2.605194091796875000e+00 -7.287752628326416016e-01
2.535000000000000000e+03 6.722348785400390625e+01 -6.548957347869873047e+00 -5.158993601799011230e-01 5.113701343536376953e+00 1.379340648651123047e+00 -7.546036243438720703e-01
2.536000000000000000e+03 6.580677795410156250e+01 -1.008688688278198242e+00 2.975125983357429504e-02 4.007477760314941406e+00 1.211168646812438965e+00 1.797861158847808838e-01
2.537000000000000000e+03 2.860739326477050781e+01 -9.515914916992187500e+00 1.115030884742736816e+00 1.657804608345031738e+00 8.318506479263305664e-01 -3.051107883453369141e+00
2.538000000000000000e+03 6.178304290771484375e+01 -4.420900344848632812e+00 5.749624371528625488e-01 1.526493549346923828e+00 6.304367780685424805e-01 -3.327096998691558838e-01
2.539000000000000000e+03 6.429652404785156250e+01 -5.995756626129150391e+00 1.039761453866958618e-01 2.903692960739135742e+00 9.023007154464721680e-01 -7.544029355049133301e-01
2.540000000000000000e+03 6.982804107666015625e+01 -3.016379356384277344e+01 -9.465024471282958984e-01 6.616207599639892578e+00 1.700911641120910645e+00 2.382432967424392700e-01
2.541000000000000000e+03 7.178903198242187500e+01 -2.748103332519531250e+01 -7.546002864837646484e-01 7.816524505615234375e+00 2.118577241897583008e+00 -5.273761153221130371e-01
2.542000000000000000e+03 7.184562683105468750e+01 -1.151947784423828125e+01 -2.251300513744354248e-01 8.393416404724121094e+00 2.450485944747924805e+00 6.503326296806335449e-01
2.543000000000000000e+03 1.941600799560546875e+01 -8.461421012878417969e+00 -2.991369068622589111e-01 2.289979457855224609e+00 5.972527861595153809e-01 -9.855726957321166992e-01
2.544000000000000000e+03 3.033092117309570312e+01 -1.058709144592285156e+01 1.310107946395874023e+00 1.624294519424438477e+00 8.803207278251647949e-01 -3.238705635070800781e+00
2.545000000000000000e+03 3.814380645751953125e+01 -1.275250339508056641e+01 1.341675877571105957e+00 6.558447360992431641e+00 2.370037078857421875e+00 -1.779843568801879883e-01
2.546000000000000000e+03 2.279639434814453125e+01 -4.055154800415039062e+00 4.122003078460693359e+00 1.695975065231323242e+00 1.745393395423889160e+00 -3.105703592300415039e+00
2.547000000000000000e+03 2.255711364746093750e+01 -3.204478263854980469e+00 4.468162536621093750e+00 1.644222617149353027e+00 1.833715558052062988e+00 -3.031342029571533203e+00
2.548000000000000000e+03 7.266502380371093750e+01 2.167856216430664062e+00 -4.190384447574615479e-01 7.139829158782958984e+00 2.016237258911132812e+00 -1.867661774158477783e-01
2.549000000000000000e+03 7.353443908691406250e+01 2.466884851455688477e+00 -3.736079335212707520e-01 7.408637523651123047e+00 2.110508918762207031e+00 -2.372462600469589233e-01
2.550000000000000000e+03 1.202131462097167969e+01 1.466139030456542969e+01 1.278621792793273926e+00 4.906100273132324219e+00 1.855416655540466309e+00 -9.270683526992797852e-01
2.551000000000000000e+03 1.170715141296386719e+01 1.568221378326416016e+01 1.192971229553222656e+00 4.630406379699707031e+00 1.747013330459594727e+00 -1.009429216384887695e+00
2.552000000000000000e+03 2.956024932861328125e+01 -1.128701782226562500e+01 1.161761045455932617e+00 1.433188080787658691e+00 7.784847617149353027e-01 -2.996166229248046875e+00
2.553000000000000000e+03 3.055134773254394531e+01 -1.149143028259277344e+01 1.438254594802856445e+00 1.615687489509582520e+00 9.161826372146606445e-01 -2.991416454315185547e+00
2.554000000000000000e+03 6.331493759155273438e+01 -4.169296264648437500e+00 3.671563267707824707e-01 2.441748142242431641e+00 8.426713347434997559e-01 -3.624640405178070068e-01
2.555000000000000000e+03 6.148556900024414062e+01 -6.076862335205078125e+00 3.951962292194366455e-01 1.200511097908020020e+00 4.787122011184692383e-01 -4.481633603572845459e-01
2.556000000000000000e+03 2.121658706665039062e+01 -4.495911121368408203e+00 3.657852411270141602e+00 2.914986610412597656e+00 1.971851706504821777e+00 -3.108776330947875977e+00
2.557000000000000000e+03 2.160947418212890625e+01 -7.528961181640625000e+00 1.137162685394287109e+00 2.116161823272705078e+00 9.759973883628845215e-01 -2.337660551071166992e+00
2.558000000000000000e+03 7.106082916259765625e+00 2.299678993225097656e+01 -4.762372747063636780e-02 2.375297307968139648e+00 6.983020305633544922e-01 -1.306496977806091309e+00
2.559000000000000000e+03 8.855422973632812500e+00 2.484711074829101562e+01 -3.355618715286254883e-01 3.105036973953247070e+00 8.308424949645996094e-01 -1.256896138191223145e+00
2.560000000000000000e+03 7.078734588623046875e+01 -2.584026336669921875e+01 -7.074061036109924316e-01 8.202656745910644531e+00 2.248575210571289062e+00 -3.901689648628234863e-01
2.561000000000000000e+03 4.670419311523437500e+01 -5.545652389526367188e+00 -1.183956265449523926e+00 7.683323383331298828e+00 1.949810147285461426e+00 7.084254026412963867e-01
2.562000000000000000e+03 1.010754108428955078e+01 -8.957215309143066406e+00 -6.920971274375915527e-01 4.023803710937500000e+00 9.995118975639343262e-01 1.944823741912841797e+00
2.563000000000000000e+03 6.148522853851318359e+00 -9.668251991271972656e+00 -1.378580033779144287e-01 2.011447668075561523e+00 5.620768666267395020e-01 1.068248003721237183e-01
2.564000000000000000e+03 7.243338012695312500e+01 -1.865516853332519531e+01 1.727613806724548340e+00 9.045662879943847656e+00 3.231982946395874023e+00 -1.508971154689788818e-01
2.565000000000000000e+03 7.081240081787109375e+01 3.588444709777832031e+00 -4.856548607349395752e-01 6.991566181182861328e+00 1.951773405075073242e+00 2.812536247074604034e-02
2.566000000000000000e+03 6.997232818603515625e+01 -1.842694878578186035e+00 -4.913783371448516846e-01 6.129345893859863281e+00 1.691390275955200195e+00 -1.688780821859836578e-02
2.567000000000000000e+03 7.174242401123046875e+01 -4.494393825531005859e+00 -6.122024059295654297e-01 6.966331005096435547e+00 1.906238555908203125e+00 6.717550009489059448e-02
2.568000000000000000e+03 6.275241088867187500e+01 -1.771717190742492676e+00 6.296396851539611816e-01 2.119489908218383789e+00 8.247388601303100586e-01 4.940439015626907349e-02
2.569000000000000000e+03 5.655062675476074219e+00 -2.123862838745117188e+01 4.286961853504180908e-01 2.813735485076904297e+00 9.727295041084289551e-01 1.431843638420104980e+00
2.570000000000000000e+03 1.249828243255615234e+01 1.709197616577148438e+01 1.151113986968994141e+00 5.133035182952880859e+00 1.885244846343994141e+00 -1.085801124572753906e+00
2.571000000000000000e+03 7.243818664550781250e+01 -8.072602272033691406e+00 -6.758310794830322266e-01 7.653988361358642578e+00 2.093447208404541016e+00 4.197906553745269775e-01
2.572000000000000000e+03 1.106117630004882812e+01 1.869593048095703125e+01 7.201272845268249512e-01 4.176794052124023438e+00 1.469076514244079590e+00 -1.305691838264465332e+00
2.573000000000000000e+03 7.207294464111328125e+00 2.039538574218750000e+01 2.257609516382217407e-01 2.220616340637207031e+00 7.339131236076354980e-01 -1.269474148750305176e+00
2.574000000000000000e+03 8.401140213012695312e+00 -3.599376678466796875e+01 -4.437177181243896484e-01 2.695449829101562500e+00 6.755196452140808105e-01 2.381026744842529297e-01
2.575000000000000000e+03 6.652161121368408203e+00 -8.974343299865722656e+00 -1.676346808671951294e-01 2.118196725845336914e+00 5.851686000823974609e-01 2.427075952291488647e-01
2.576000000000000000e+03 7.301001071929931641e+00 -1.247972202301025391e+01 1.635102778673171997e-01 3.581369400024414062e+00 1.123463869094848633e+00 3.004264272749423981e-02
2.577000000000000000e+03 1.193709564208984375e+01 1.222426033020019531e+01 1.303097963333129883e+00 4.791468620300292969e+00 1.828369975090026855e+00 -7.938579916954040527e-01
2.578000000000000000e+03 1.181410694122314453e+01 3.019081306457519531e+01 -7.903689146041870117e-01 3.452802896499633789e+00 7.987301945686340332e-01 -5.606412291526794434e-01
2.579000000000000000e+03 1.291360664367675781e+01 1.615827560424804688e+01 1.245392680168151855e+00 5.660084724426269531e+00 2.071643114089965820e+00 -9.676782488822937012e-01
2.580000000000000000e+03 1.293836021423339844e+01 1.872030448913574219e+01 8.666964173316955566e-01 5.245748996734619141e+00 1.833733677864074707e+00 -1.189514160156250000e+00
2.581000000000000000e+03 6.417027282714843750e+01 -6.967151165008544922e+00 1.113259419798851013e-02 2.780184030532836914e+00 8.373949527740478516e-01 -8.980490565299987793e-01
2.582000000000000000e+03 6.509221649169921875e+01 -5.975689888000488281e+00 -5.705315247178077698e-02 3.504910469055175781e+00 1.034357190132141113e+00 -7.790929079055786133e-01
2.583000000000000000e+03 1.292610931396484375e+01 1.265175437927246094e+01 1.371505260467529297e+00 5.725661277770996094e+00 2.129149913787841797e+00 -8.639297485351562500e-01
2.584000000000000000e+03 6.406557464599609375e+01 -4.740424633026123047e+00 2.315242588520050049e-01 2.859778881072998047e+00 9.273909330368041992e-01 -5.060501694679260254e-01
2.585000000000000000e+03 7.268070220947265625e+01 9.168983459472656250e+00 2.235703170299530029e-01 8.174444198608398438e+00 2.519404411315917969e+00 -4.646117687225341797e-01
2.586000000000000000e+03 3.733686065673828125e+01 -1.088741302490234375e+01 9.041144847869873047e-01 5.170308113098144531e+00 1.822326779365539551e+00 -3.794667720794677734e-01
2.587000000000000000e+03 6.824364471435546875e+01 -3.033048439025878906e+01 -9.035533666610717773e-01 5.741023540496826172e+00 1.451241135597229004e+00 5.477994084358215332e-01
2.588000000000000000e+03 7.217214202880859375e+01 -2.643101692199707031e+01 -6.447842717170715332e-01 8.067653656005859375e+00 2.226860761642456055e+00 -7.150949239730834961e-01
2.589000000000000000e+03 7.011753082275390625e+01 -2.499029541015625000e+01 -5.713176131248474121e-01 8.469172477722167969e+00 2.369356632232666016e+00 -7.064284384250640869e-02
2.590000000000000000e+03 4.256264877319335938e+01 -1.030967330932617188e+01 -2.642329037189483643e-01 8.374105453491210938e+00 2.432961940765380859e+00 1.072750329971313477e+00
2.591000000000000000e+03 7.069128417968750000e+01 2.716128730773925781e+01 -1.071231484413146973e+00 7.044698238372802734e+00 1.792039990425109863e+00 -4.147822856903076172e-01
2.592000000000000000e+03 7.178472137451171875e+01 -2.529447364807128906e+01 -4.388835430145263672e-01 8.277968406677246094e+00 2.351725339889526367e+00 -7.571389675140380859e-01
2.593000000000000000e+03 7.178952789306640625e+01 1.925158143043518066e+00 -4.805959463119506836e-01 7.011762142181396484e+00 1.959349870681762695e+00 -5.825206264853477478e-02
2.594000000000000000e+03 4.300109863281250000e+01 -2.723764419555664062e+01 6.286600828170776367e-01 7.978055000305175781e+00 2.582014560699462891e+00 -6.761047244071960449e-01
2.595000000000000000e+03 7.088787078857421875e+01 -1.325022220611572266e+00 -5.212177038192749023e-01 6.482628822326660156e+00 1.788423299789428711e+00 -8.552341721951961517e-03
2.596000000000000000e+03 5.101331710815429688e+01 -3.622961044311523438e+00 1.000808000564575195e+00 2.233386039733886719e+00 9.702582359313964844e-01 2.379762679338455200e-01
2.597000000000000000e+03 5.856127166748046875e+01 -4.281284809112548828e+00 8.853564858436584473e-01 3.032716214656829834e-01 3.565884232521057129e-01 -1.639608889818191528e-01
2.598000000000000000e+03 3.535653305053710938e+01 -1.065496540069580078e+01 1.257463812828063965e+00 3.735451459884643555e+00 1.497874498367309570e+00 -1.385046482086181641e+00
2.599000000000000000e+03 7.196936798095703125e+01 -5.661677837371826172e+00 -6.812566518783569336e-01 7.169002532958984375e+00 1.946323871612548828e+00 1.482051610946655273e-01
2.600000000000000000e+03 7.351532745361328125e+01 5.245187282562255859e+00 -2.943159937858581543e-01 7.571999073028564453e+00 2.183305025100708008e+00 -4.509459435939788818e-01
2.601000000000000000e+03 4.013912200927734375e+01 -1.557412719726562500e+01 2.100364208221435547e+00 8.254514694213867188e+00 3.106463670730590820e+00 1.790530234575271606e-01
2.602000000000000000e+03 4.519937515258789062e+01 -2.676126861572265625e+01 9.844240546226501465e-01 8.182898521423339844e+00 2.750196933746337891e+00 -1.603572607040405273e+00
2.603000000000000000e+03 4.430503463745117188e+01 -2.655216407775878906e+01 1.004805207252502441e+00 8.217698097229003906e+00 2.766751050949096680e+00 -1.069179296493530273e+00
2.604000000000000000e+03 4.569308471679687500e+01 2.167266464233398438e+01 -6.426897644996643066e-01 5.836943626403808594e+00 1.558276176452636719e+00 -1.588765978813171387e-01
2.605000000000000000e+03 4.107417297363281250e+01 2.115084075927734375e+01 -5.850361585617065430e-01 4.102158069610595703e+00 1.055136561393737793e+00 -1.063156485557556152e+00
2.606000000000000000e+03 9.073386192321777344e+00 -2.684764671325683594e+01 -8.163546919822692871e-01 3.909203052520751953e+00 9.278544783592224121e-01 8.951196074485778809e-01
2.607000000000000000e+03 8.252542495727539062e+00 -2.526815414428710938e+01 -5.505963563919067383e-01 4.088382720947265625e+00 1.061335921287536621e+00 1.248504042625427246e+00
2.608000000000000000e+03 9.620705604553222656e+00 1.086584186553955078e+01 1.104630947113037109e+00 2.822453498840332031e+00 1.178125262260437012e+00 -5.098277926445007324e-01
2.609000000000000000e+03 7.293803405761718750e+01 -1.357004261016845703e+01 4.398893713951110840e-01 8.362317085266113281e+00 2.640661954879760742e+00 8.941939473152160645e-01
2.610000000000000000e+03 7.256601715087890625e+01 4.730072021484375000e+00 -3.974303007125854492e-01 7.543037414550781250e+00 2.143682241439819336e+00 -2.663030922412872314e-01
2.611000000000000000e+03 2.743754005432128906e+01 -9.593960762023925781e+00 9.894747138023376465e-01 1.564017176628112793e+00 7.660475373268127441e-01 -2.772786378860473633e+00
2.612000000000000000e+03 4.079614257812500000e+01 -2.854870033264160156e+01 2.818937003612518311e-01 7.894475460052490234e+00 2.452910661697387695e+00 -2.375391721725463867e-01
2.613000000000000000e+03 7.130003356933593750e+01 -9.418757438659667969e+00 -7.249003052711486816e-01 7.891439914703369141e+00 2.149961948394775391e+00 2.652957141399383545e-01
2.614000000000000000e+03 7.036986541748046875e+01 -1.084375095367431641e+01 -5.954303145408630371e-01 8.321240425109863281e+00 2.317742824554443359e+00 4.476239904761314392e-02
2.615000000000000000e+03 1.840828323364257812e+01 2.523575210571289062e+01 -1.247305750846862793e+00 4.532151222229003906e+00 9.854536056518554688e-01 9.721493124961853027e-01
2.616000000000000000e+03 4.776850128173828125e+01 2.493984222412109375e+01 -1.196178793907165527e+00 5.389392852783203125e+00 1.257964253425598145e+00 4.544140398502349854e-01
2.617000000000000000e+03 4.924408721923828125e+01 2.234200096130371094e+01 -6.995317339897155762e-01 6.167418479919433594e+00 1.640366077423095703e+00 8.659500479698181152e-01
2.618000000000000000e+03 7.036671447753906250e+01 -3.431992721557617188e+01 -4.437419176101684570e-01 6.202311515808105469e+00 1.727570772171020508e+00 2.573893964290618896e-01
2.619000000000000000e+03 1.011869907379150391e+01 -3.242029571533203125e+01 -8.184646964073181152e-01 2.822663784027099609e+00 6.012597084045410156e-01 2.612141072750091553e-01
2.620000000000000000e+03 9.701680183410644531e+00 -2.886855506896972656e+01 -9.361585974693298340e-01 3.434311151504516602e+00 7.494457960128784180e-01 5.449694991111755371e-01
2.621000000000000000e+03 9.412797927856445312e+00 -3.415625000000000000e+01 -6.385808587074279785e-01 2.698012590408325195e+00 6.178295016288757324e-01 2.490686774253845215e-01
2.622000000000000000e+03 4.238803482055664062e+01 2.236864662170410156e+01 -7.532999515533447266e-01 4.668568611145019531e+00 1.174580693244934082e+00 -8.390772938728332520e-01
2.623000000000000000e+03 4.088231277465820312e+01 2.263615608215332031e+01 -6.976715922355651855e-01 3.792270421981811523e+00 9.283796548843383789e-01 -1.005414247512817383e+00
2.624000000000000000e+03 1.751446342468261719e+01 2.659787750244140625e+01 -1.214691162109375000e+00 4.349780559539794922e+00 9.405267238616943359e-01 5.123552083969116211e-01
2.625000000000000000e+03 6.936427116394042969e+00 3.571963500976562500e+01 -3.043422400951385498e-01 2.663659334182739258e+00 7.077950835227966309e-01 -3.724207282066345215e-01
2.626000000000000000e+03 9.366444587707519531e+00 3.139295959472656250e+01 -5.572735667228698730e-01 2.992975234985351562e+00 7.307104468345642090e-01 -6.634362936019897461e-01
2.627000000000000000e+03 4.701007461547851562e+01 3.187306785583496094e+01 -9.052954316139221191e-01 3.767013788223266602e+00 8.585155010223388672e-01 3.939318954944610596e-01
2.628000000000000000e+03 5.316555786132812500e+01 2.866704750061035156e+01 -8.217122554779052734e-01 3.268827676773071289e+00 7.341346144676208496e-01 1.539118766784667969e+00
2.629000000000000000e+03 4.433527755737304688e+01 -3.281971740722656250e+01 -1.050655007362365723e+00 6.374947071075439453e+00 1.597287654876708984e+00 -9.682542681694030762e-01
2.630000000000000000e+03 2.339288711547851562e+01 2.970601844787597656e+01 -3.845544755458831787e-01 1.895179271697998047e+00 4.531874358654022217e-01 8.158947825431823730e-01
2.631000000000000000e+03 7.239155578613281250e+01 2.911115074157714844e+01 -6.011435985565185547e-01 7.415060520172119141e+00 2.044175148010253906e+00 -1.778337359428405762e-01
2.632000000000000000e+03 6.999538421630859375e+01 2.990391540527343750e+01 -5.670075416564941406e-01 6.178085327148437500e+00 1.683323264122009277e+00 -5.839269757270812988e-01
2.633000000000000000e+03 4.251050186157226562e+01 -8.254157066345214844e+00 -1.353433370590209961e+00 8.452137947082519531e+00 2.129611492156982422e+00 1.417209386825561523e+00
2.634000000000000000e+03 6.988460540771484375e+01 -8.533281326293945312e+00 -8.732031583786010742e-01 7.282273292541503906e+00 1.922721028327941895e+00 -2.664449512958526611e-01
2.635000000000000000e+03 2.402483367919921875e+01 -8.422867774963378906e+00 1.229643940925598145e+00 1.415428161621093750e+00 7.935216426849365234e-01 -2.485681533813476562e+00
2.636000000000000000e+03 3.841349029541015625e+01 -1.377532958984375000e+01 1.694784641265869141e+00 7.148524284362792969e+00 2.652992725372314453e+00 -2.322251647710800171e-01
2.637000000000000000e+03 8.818459510803222656e+00 2.294400405883789062e+01 -9.295926243066787720e-02 3.075688600540161133e+00 8.948187828063964844e-01 -1.342039942741394043e+00
2.638000000000000000e+03 1.087420272827148438e+01 2.038618659973144531e+01 3.123148679733276367e-01 3.984211683273315430e+00 1.288957953453063965e+00 -1.383626103401184082e+00
2.639000000000000000e+03 4.054410934448242188e+01 -1.218609333038330078e+01 8.637607097625732422e-01 7.543155670166015625e+00 2.522074937820434570e+00 6.376218795776367188e-01
2.640000000000000000e+03 7.323045349121093750e+01 2.102698516845703125e+01 -1.526532024145126343e-01 8.758023262023925781e+00 2.581611156463623047e+00 1.169767022132873535e+00
2.641000000000000000e+03 4.299129486083984375e+01 1.891529273986816406e+01 -3.074587285518646240e-01 5.494545459747314453e+00 1.556125998497009277e+00 -7.099678516387939453e-01
2.642000000000000000e+03 4.379843902587890625e+01 2.031334304809570312e+01 -4.543961286544799805e-01 5.583888530731201172e+00 1.538847684860229492e+00 -5.618400573730468750e-01
2.643000000000000000e+03 7.133435058593750000e+01 2.944777679443359375e+01 -6.409059762954711914e-01 6.856071472167968750e+00 1.864549636840820312e+00 -5.037027597427368164e-01
2.644000000000000000e+03 6.937084960937500000e+01 2.816792297363281250e+01 -8.747854232788085938e-01 6.112385272979736328e+00 1.571280002593994141e+00 -8.166564702987670898e-01
2.645000000000000000e+03 6.839620971679687500e+01 2.445788192749023438e+01 -1.818571925163269043e+00 6.426962375640869141e+00 1.382517218589782715e+00 -1.210979342460632324e+00
2.646000000000000000e+03 7.071575164794921875e+01 2.496934318542480469e+01 -1.401945590972900391e+00 7.728945255279541016e+00 1.898099899291992188e+00 -3.432868793606758118e-02
2.647000000000000000e+03 1.008071327209472656e+01 2.591855430603027344e+01 -5.224613547325134277e-01 3.482027769088745117e+00 8.878699541091918945e-01 -1.139415264129638672e+00
2.648000000000000000e+03 1.005108451843261719e+01 2.960226249694824219e+01 -6.326037645339965820e-01 3.199451446533203125e+00 7.700543403625488281e-01 -8.032000660896301270e-01
2.649000000000000000e+03 6.096431732177734375e+01 3.192412757873535156e+01 3.718966245651245117e-01 2.432710409164428711e+00 8.413820862770080566e-01 2.359783947467803955e-01
2.650000000000000000e+03 1.743067550659179688e+01 -4.118186950683593750e+01 -6.564701348543167114e-02 8.315604925155639648e-01 2.297740429639816284e-01 -6.838774681091308594e-02
2.651000000000000000e+03 1.459298229217529297e+01 -4.767950534820556641e+00 1.792991042137145996e+00 5.554280281066894531e+00 2.204181432723999023e+00 4.305507183074951172e+00
2.652000000000000000e+03 1.314277553558349609e+01 -3.981680631637573242e+00 2.841827392578125000e+00 2.370998382568359375e+00 1.563847661018371582e+00 3.643450021743774414e+00
2.653000000000000000e+03 1.167648124694824219e+01 -4.817044258117675781e+00 1.581543564796447754e+00 1.881984829902648926e+00 1.039058566093444824e+00 2.796178579330444336e+00
2.654000000000000000e+03 1.219898319244384766e+01 5.070446491241455078e+00 4.541779458522796631e-01 3.673985719680786133e+00 1.238449096679687500e+00 -1.299344420433044434e+00
2.655000000000000000e+03 1.185189533233642578e+01 5.487182617187500000e+00 5.727730989456176758e-01 3.448594331741333008e+00 1.206410288810729980e+00 -1.110411405563354492e+00
2.656000000000000000e+03 1.437025260925292969e+01 -3.951996088027954102e+00 3.037878036499023438e+00 4.876746177673339844e+00 2.374387264251708984e+00 4.749903678894042969e+00
2.657000000000000000e+03 1.372809791564941406e+01 -4.235555171966552734e+00 2.636795997619628906e+00 3.690552234649658203e+00 1.898204445838928223e+00 4.282685279846191406e+00
2.658000000000000000e+03 1.126613140106201172e+01 -5.573081016540527344e+00 1.042159676551818848e+00 2.233354330062866211e+00 9.826542139053344727e-01 2.770343780517578125e+00
2.659000000000000000e+03 1.554510593414306641e+01 5.206070899963378906e+00 -6.802145838737487793e-01 8.429585456848144531e+00 2.324811220169067383e+00 -1.756595492362976074e+00
2.660000000000000000e+03 1.222476863861083984e+01 -4.686480998992919922e+00 1.871393918991088867e+00 2.123761892318725586e+00 1.198546767234802246e+00 3.157399415969848633e+00
2.661000000000000000e+03 1.484037590026855469e+01 4.929194450378417969e+00 -5.060353279113769531e-01 7.486823081970214844e+00 2.094236373901367188e+00 -1.986899971961975098e+00
2.662000000000000000e+03 1.103297424316406250e+01 -6.396646976470947266e+00 4.504875242710113525e-01 2.696092605590820312e+00 9.439740180969238281e-01 2.691814899444580078e+00
2.663000000000000000e+03 9.267468452453613281e+00 -6.376733303070068359e+00 2.682109177112579346e-01 2.070284843444824219e+00 7.015486955642700195e-01 1.529224276542663574e+00
2.664000000000000000e+03 1.384881973266601562e+01 6.443894386291503906e+00 2.852619886398315430e-01 6.207507610321044922e+00 1.947830915451049805e+00 -1.377834558486938477e+00
2.665000000000000000e+03 1.620108795166015625e+01 3.259422063827514648e+00 -1.483889698982238770e+00 1.031135272979736328e+01 2.648238658905029297e+00 -2.321888208389282227e+00
2.666000000000000000e+03 1.341835498809814453e+01 4.823064804077148438e+00 9.714173525571823120e-02 5.273750782012939453e+00 1.611267805099487305e+00 -1.880679488182067871e+00
2.667000000000000000e+03 9.101063728332519531e+00 -7.627624034881591797e+00 -1.050375923514366150e-01 2.696267604827880859e+00 7.773689627647399902e-01 1.480214357376098633e+00
2.668000000000000000e+03 1.349686717987060547e+01 1.066223526000976562e+01 1.204754352569580078e+00 6.211421489715576172e+00 2.224852561950683594e+00 -8.802675604820251465e-01
2.669000000000000000e+03 1.334698772430419922e+01 -5.034401416778564453e+00 1.841291069984436035e+00 3.548987388610839844e+00 1.617083549499511719e+00 4.032614707946777344e+00
2.670000000000000000e+03 1.775428009033203125e+01 -5.350338459014892578e+00 1.245570063591003418e+00 7.146632194519042969e+00 2.517660617828369141e+00 -3.611520826816558838e-01
2.671000000000000000e+03 1.735704612731933594e+01 2.859658241271972656e+00 -1.520268321037292480e+00 1.143636131286621094e+01 2.974828004837036133e+00 -1.116845607757568359e+00
2.672000000000000000e+03 1.127238082885742188e+01 5.890382289886474609e+00 7.012025713920593262e-01 2.963262319564819336e+00 1.099339485168457031e+00 -7.850327491760253906e-01
2.673000000000000000e+03 1.288370418548583984e+01 -6.565414905548095703e+00 4.010813832283020020e-01 3.725200653076171875e+00 1.237884640693664551e+00 3.771592617034912109e+00
2.674000000000000000e+03 1.563311100006103516e+01 6.191317558288574219e+00 -2.988901138305664062e-01 8.299657821655273438e+00 2.400230407714843750e+00 -1.507721662521362305e+00
2.675000000000000000e+03 7.649497032165527344e+00 -6.720077514648437500e+00 6.512415409088134766e-02 1.688884973526000977e+00 5.262027382850646973e-01 7.364928126335144043e-01
2.676000000000000000e+03 7.778769493103027344e+00 -7.510747432708740234e+00 -1.157695893198251724e-02 2.026882171630859375e+00 6.045915484428405762e-01 8.440509438514709473e-01
2.677000000000000000e+03 9.429709434509277344e+00 6.209369659423828125e+00 7.447535991668701172e-01 1.704707264900207520e+00 7.348382472991943359e-01 -1.379842460155487061e-01
2.678000000000000000e+03 7.002976894378662109e+00 -7.754522323608398438e+00 -9.329184144735336304e-02 1.905969500541687012e+00 5.438032746315002441e-01 5.024461746215820312e-01
2.679000000000000000e+03 1.505213356018066406e+01 6.533863067626953125e+00 -7.915211468935012817e-02 7.680003166198730469e+00 2.280255317687988281e+00 -1.410936951637268066e+00
2.680000000000000000e+03 1.451060485839843750e+01 -8.533905982971191406e+00 -9.801491498947143555e-01 3.997666358947753906e+00 9.052551984786987305e-01 3.702872276306152344e+00
2.681000000000000000e+03 1.378932189941406250e+01 -7.890549659729003906e+00 -5.948573946952819824e-01 4.197407245635986328e+00 1.080765008926391602e+00 3.826627016067504883e+00
2.682000000000000000e+03 1.914437294006347656e+01 -5.009707450866699219e+00 2.418852806091308594e+00 5.565184116363525391e+00 2.395211219787597656e+00 -2.190621852874755859e+00
2.683000000000000000e+03 1.529310035705566406e+01 -8.345146179199218750e+00 -8.759731054306030273e-01 3.928513765335083008e+00 9.157621860504150391e-01 3.304507732391357422e+00
2.684000000000000000e+03 9.907962799072265625e+00 7.726765632629394531e+00 9.429637789726257324e-01 2.436161518096923828e+00 1.013737559318542480e+00 -3.178318142890930176e-01
2.685000000000000000e+03 6.833468627929687500e+01 2.685944795608520508e+00 -3.527955114841461182e-01 5.818658351898193359e+00 1.639758825302124023e+00 4.985486268997192383e-01
2.686000000000000000e+03 6.801902770996093750e+01 6.636804342269897461e-01 -2.924205064773559570e-01 5.378948211669921875e+00 1.525958299636840820e+00 2.947479784488677979e-01
2.687000000000000000e+03 7.055607604980468750e+01 -4.689089298248291016e+00 -6.581265926361083984e-01 6.589877605438232422e+00 1.779525279998779297e+00 -8.174258470535278320e-02
2.688000000000000000e+03 3.968786239624023438e+01 -1.005945205688476562e+01 1.014296263456344604e-01 6.589556217193603516e+00 2.007295846939086914e+00 8.293318748474121094e-01
2.689000000000000000e+03 1.074989604949951172e+01 5.907026767730712891e+00 7.230157852172851562e-01 2.575619459152221680e+00 9.895905852317810059e-01 -5.969470739364624023e-01
2.690000000000000000e+03 1.297753238677978516e+01 7.510838508605957031e+00 6.949453949928283691e-01 5.278248310089111328e+00 1.791958093643188477e+00 -1.075283169746398926e+00
2.691000000000000000e+03 9.874319076538085938e+00 -1.083433723449707031e+01 -8.740152120590209961e-01 4.956204891204833984e+00 1.224656820297241211e+00 1.314117312431335449e+00
2.692000000000000000e+03 1.099211883544921875e+01 -1.014299106597900391e+01 -1.174052953720092773e+00 5.164122581481933594e+00 1.197020888328552246e+00 2.059289932250976562e+00
2.693000000000000000e+03 4.748163223266601562e+00 7.252998828887939453e+00 3.537381589412689209e-01 -1.349987834692001343e-01 6.562180817127227783e-02 5.731994509696960449e-01
2.694000000000000000e+03 7.073371124267578125e+01 -5.888241291046142578e+00 -7.236851453781127930e-01 6.854026317596435547e+00 1.839102387428283691e+00 -4.124437645077705383e-02
2.695000000000000000e+03 3.848576736450195312e+01 -1.034861755371093750e+01 5.680385828018188477e-01 5.656148910522460938e+00 1.867256164550781250e+00 3.216265738010406494e-01
2.696000000000000000e+03 3.788515090942382812e+01 -1.176756095886230469e+01 1.105106949806213379e+00 6.118132591247558594e+00 2.166971921920776367e+00 -1.564301550388336182e-01
2.697000000000000000e+03 1.217403984069824219e+01 -9.110325813293457031e+00 -1.338722586631774902e+00 4.707371711730957031e+00 1.010594725608825684e+00 3.264233112335205078e+00
2.698000000000000000e+03 2.045527267456054688e+01 -7.851107120513916016e+00 6.302062273025512695e-01 2.487893104553222656e+00 9.354298114776611328e-01 -1.850456833839416504e+00
2.699000000000000000e+03 1.901053619384765625e+01 -6.127555370330810547e+00 1.451863169670104980e+00 4.830708980560302734e+00 1.884771585464477539e+00 -1.487294793128967285e+00
2.700000000000000000e+03 6.734746932983398438e+00 7.349092960357666016e+00 6.242678165435791016e-01 6.074264645576477051e-01 3.695082664489746094e-01 3.739541172981262207e-01
2.701000000000000000e+03 6.765822601318359375e+01 -1.025044441223144531e+00 -2.658344507217407227e-01 5.052966117858886719e+00 1.436139464378356934e+00 9.811519831418991089e-02
2.702000000000000000e+03 1.372853851318359375e+01 8.149109840393066406e+00 7.399994134902954102e-01 6.224279403686523438e+00 2.089283704757690430e+00 -1.073097944259643555e+00
2.703000000000000000e+03 6.867649078369140625e+00 9.272584915161132812e+00 7.637608647346496582e-01 9.681828022003173828e-01 5.195831060409545898e-01 9.660444408655166626e-02
2.704000000000000000e+03 7.525668621063232422e+00 8.172864913940429688e+00 7.900655269622802734e-01 1.091704607009887695e+00 5.645310282707214355e-01 1.366463750600814819e-01
2.705000000000000000e+03 8.280629158020019531e+00 -1.221387767791748047e+01 2.797832340002059937e-02 4.354990005493164062e+00 1.314890503883361816e+00 2.288762927055358887e-01
2.706000000000000000e+03 7.005759429931640625e+01 2.865487813949584961e+00 -4.562731385231018066e-01 6.573951721191406250e+00 1.835303544998168945e+00 2.107229828834533691e-01
2.707000000000000000e+03 7.159360504150390625e+01 -3.348455429077148438e+00 -5.904467701911926270e-01 6.799791812896728516e+00 1.862803578376770020e+00 1.164320390671491623e-03
2.708000000000000000e+03 6.633660888671875000e+01 -2.891149997711181641e+00 -1.024391502141952515e-01 4.266981601715087891e+00 1.249362707138061523e+00 -1.818787306547164917e-01
2.709000000000000000e+03 7.763642311096191406e+00 6.539186000823974609e+00 6.405135989189147949e-01 8.930330276489257812e-01 4.600639939308166504e-01 2.720410525798797607e-01
2.710000000000000000e+03 7.100334167480468750e+01 5.136953353881835938e+00 -4.424134194850921631e-01 7.390836238861083984e+00 2.084526777267456055e+00 -1.493542455136775970e-02
2.711000000000000000e+03 7.287980079650878906e+00 -8.514961242675781250e+00 -1.636598557233810425e-01 2.230058431625366211e+00 6.199195384979248047e-01 5.969969630241394043e-01
2.712000000000000000e+03 7.493092060089111328e+00 1.059477424621582031e+01 8.415820598602294922e-01 1.417416453361511230e+00 6.776995658874511719e-01 -1.564153581857681274e-01
2.713000000000000000e+03 4.399681472778320312e+01 -3.627802848815917969e+00 -9.231185913085937500e-01 1.014167881011962891e+01 2.765568017959594727e+00 7.546582221984863281e-01
2.714000000000000000e+03 4.263259506225585938e+01 -3.734320163726806641e+00 -1.055375933647155762e+00 1.054974746704101562e+01 2.848311424255371094e+00 1.512687683105468750e+00
2.715000000000000000e+03 1.191220378875732422e+01 2.351889419555664062e+01 -3.754966259002685547e-01 4.340393543243408203e+00 1.189468979835510254e+00 -1.233618021011352539e+00
2.716000000000000000e+03 9.195365905761718750e+00 2.730806350708007812e+01 -5.272120833396911621e-01 3.126954555511474609e+00 7.799227237701416016e-01 -1.033299446105957031e+00
2.717000000000000000e+03 6.689389801025390625e+01 -1.020693555474281311e-01 -1.257307529449462891e-01 4.683645248413085938e+00 1.367374420166015625e+00 2.777616381645202637e-01
2.718000000000000000e+03 7.083760738372802734e+00 1.433842658996582031e+01 7.389519810676574707e-01 1.620954036712646484e+00 7.079718112945556641e-01 -6.492490768432617188e-01
2.719000000000000000e+03 6.813233947753906250e+01 -5.052918434143066406e+00 -5.267250537872314453e-01 5.481939792633056641e+00 1.486564397811889648e+00 -4.205091297626495361e-01
2.720000000000000000e+03 6.823300361633300781e+00 2.144116020202636719e+01 8.829380571842193604e-02 2.086426258087158203e+00 6.524159908294677734e-01 -1.279902458190917969e+00
2.721000000000000000e+03 8.077631950378417969e+00 1.880604171752929688e+01 4.629031419754028320e-01 2.513656139373779297e+00 8.929677605628967285e-01 -1.268013000488281250e+00
2.722000000000000000e+03 9.594447135925292969e+00 -7.148830890655517578e+00 1.953949406743049622e-02 2.649223566055297852e+00 8.006289601325988770e-01 1.795772910118103027e+00
2.723000000000000000e+03 6.906716346740722656e+00 -1.150339126586914062e+01 6.178445182740688324e-03 3.041579246520996094e+00 9.143272638320922852e-01 7.843196392059326172e-03
2.724000000000000000e+03 8.969998359680175781e+00 -1.097345638275146484e+01 -5.402021408081054688e-01 4.440549373626708984e+00 1.170104146003723145e+00 8.442101478576660156e-01
2.725000000000000000e+03 5.987260437011718750e+01 -3.704807043075561523e+00 8.641007542610168457e-01 7.532406449317932129e-01 4.852024018764495850e-01 -1.553013771772384644e-01
2.726000000000000000e+03 6.340274810791015625e+01 -5.706668376922607422e+00 2.093396782875061035e-01 2.342003822326660156e+00 7.654030323028564453e-01 -6.259234547615051270e-01
2.727000000000000000e+03 7.207872772216796875e+01 2.274667739868164062e+01 -8.945432901382446289e-01 8.635941505432128906e+00 2.322419404983520508e+00 9.237945675849914551e-01
2.728000000000000000e+03 2.270668983459472656e+01 -7.554891586303710938e+00 1.619047522544860840e+00 1.787767767906188965e+00 1.022044539451599121e+00 -2.618347406387329102e+00
2.729000000000000000e+03 2.047154235839843750e+01 -5.915760517120361328e+00 2.223820447921752930e+00 3.378747224807739258e+00 1.680770277976989746e+00 -2.577150583267211914e+00
2.730000000000000000e+03 7.050751495361328125e+01 1.477537631988525391e+00 -4.805415272712707520e-01 6.576848506927490234e+00 1.828892111778259277e+00 8.691488951444625854e-02
2.731000000000000000e+03 8.178720474243164062e+00 7.793814659118652344e+00 8.248360157012939453e-01 1.333400845527648926e+00 6.474710702896118164e-01 6.247109174728393555e-02
2.732000000000000000e+03 6.951358032226562500e+01 -6.093770503997802734e+00 -7.281950712203979492e-01 6.389905929565429688e+00 1.698513269424438477e+00 -3.036493659019470215e-01
2.733000000000000000e+03 7.112432098388671875e+01 -8.275014877319335938e+00 -7.737440466880798340e-01 7.520649909973144531e+00 2.024071931838989258e+00 1.576430052518844604e-01
2.734000000000000000e+03 6.250774765014648438e+01 -5.158101081848144531e+00 4.284557998180389404e-01 1.874053001403808594e+00 6.907526254653930664e-01 -4.867195487022399902e-01
2.735000000000000000e+03 8.019878387451171875e+00 1.124662399291992188e+01 9.372820854187011719e-01 1.881336927413940430e+00 8.455857038497924805e-01 -3.236118257045745850e-01
2.736000000000000000e+03 7.897227764129638672e+00 2.204369163513183594e+01 2.724301069974899292e-02 2.655029535293579102e+00 8.046817779541015625e-01 -1.376529455184936523e+00
2.737000000000000000e+03 9.277384757995605469e+00 8.113475799560546875e+00 9.443947076797485352e-01 2.127988815307617188e+00 9.217150211334228516e-01 -2.231361716985702515e-01
2.738000000000000000e+03 7.008433532714843750e+01 4.439673423767089844e+00 -4.076806902885437012e-01 6.901510238647460938e+00 1.948148846626281738e+00 2.436953336000442505e-01
2.739000000000000000e+03 6.920194244384765625e+01 3.637401103973388672e+00 -4.339073002338409424e-01 6.430488109588623047e+00 1.798974275588989258e+00 3.445247411727905273e-01
2.740000000000000000e+03 6.940572357177734375e+01 1.976007819175720215e+00 -4.319545328617095947e-01 6.153926849365234375e+00 1.716591715812683105e+00 2.157281041145324707e-01
2.741000000000000000e+03 9.978035926818847656e+00 1.464705657958984375e+01 1.083913803100585938e+00 3.420796632766723633e+00 1.351413130760192871e+00 -9.101262092590332031e-01
2.742000000000000000e+03 9.448673248291015625e+00 1.611605453491210938e+01 8.720273971557617188e-01 3.049248218536376953e+00 1.176382660865783691e+00 -1.037778139114379883e+00
2.743000000000000000e+03 4.398694610595703125e+01 2.199757766723632812e+01 -6.915455460548400879e-01 5.312548637390136719e+00 1.386300921440124512e+00 -5.586482882499694824e-01
2.744000000000000000e+03 1.130729007720947266e+01 3.199370193481445312e+01 -6.977250576019287109e-01 3.200899362564086914e+00 7.509523034095764160e-01 -4.787206649780273438e-01
2.745000000000000000e+03 6.969597625732421875e+01 -7.325479507446289062e+00 -7.920989990234375000e-01 6.774181365966796875e+00 1.794624805450439453e+00 -3.027917742729187012e-01
2.746000000000000000e+03 6.833751678466796875e+01 -6.309203624725341797e+00 -6.120237112045288086e-01 5.788595199584960938e+00 1.552971363067626953e+00 -5.519871115684509277e-01
2.747000000000000000e+03 6.474559783935546875e+01 -5.261678218841552734e+00 5.096114706248044968e-03 3.256318807601928711e+00 9.784244894981384277e-01 -6.253213286399841309e-01
2.748000000000000000e+03 4.012532043457031250e+01 -1.111273956298828125e+01 5.093592405319213867e-01 7.071724414825439453e+00 2.274325132369995117e+00 6.753883361816406250e-01
2.749000000000000000e+03 1.009996128082275391e+01 1.322730541229248047e+01 1.198429703712463379e+00 3.411647319793701172e+00 1.383023142814636230e+00 -7.608373165130615234e-01
2.750000000000000000e+03 7.715884208679199219e+00 1.264447975158691406e+01 9.012949466705322266e-01 1.867089867591857910e+00 8.305154442787170410e-01 -4.821246266365051270e-01
2.751000000000000000e+03 1.203325462341308594e+01 1.961994171142578125e+01 5.237687230110168457e-01 4.653646469116210938e+00 1.553224563598632812e+00 -1.351579666137695312e+00
2.752000000000000000e+03 6.789086914062500000e+01 2.662014198303222656e+01 -1.091962099075317383e+00 5.247918128967285156e+00 1.246786832809448242e+00 -1.151569247245788574e+00
2.753000000000000000e+03 3.824631500244140625e+01 2.708653450012207031e+01 -6.562980413436889648e-01 2.771120071411132812e+00 6.344466209411621094e-01 -8.578787446022033691e-01
2.754000000000000000e+03 1.112427902221679688e+01 -3.501988220214843750e+01 -6.496763825416564941e-01 2.362526655197143555e+00 5.138550996780395508e-01 4.036775976419448853e-02
2.755000000000000000e+03 2.032842636108398438e+01 2.466998291015625000e+01 -1.093568563461303711e+00 3.738649606704711914e+00 7.935242652893066406e-01 1.530001282691955566e+00
2.756000000000000000e+03 1.213356494903564453e+01 2.842139625549316406e+01 -8.400804996490478516e-01 3.710256814956665039e+00 8.610528707504272461e-01 -6.735007762908935547e-01
2.757000000000000000e+03 7.179580688476562500e+01 -3.043707656860351562e+01 -7.728219628334045410e-01 7.216643333435058594e+00 1.933146476745605469e+00 -1.718750894069671631e-01
2.758000000000000000e+03 7.121804809570312500e+01 -2.932668495178222656e+01 -8.551234006881713867e-01 7.267046928405761719e+00 1.923577070236206055e+00 -1.695324927568435669e-01
2.759000000000000000e+03 2.311443328857421875e+00 -3.503209304809570312e+01 -7.831714302301406860e-02 3.363355875015258789e+00 9.855116605758666992e-01 2.391333431005477905e-01
2.760000000000000000e+03 1.287574958801269531e+01 2.072184753417968750e+01 2.351479679346084595e-01 4.991319179534912109e+00 1.567940235137939453e+00 -1.293891787528991699e+00
2.761000000000000000e+03 9.624487876892089844e+00 2.213501167297363281e+01 -5.210102349519729614e-02 3.358091592788696289e+00 9.917971491813659668e-01 -1.366975665092468262e+00
2.762000000000000000e+03 6.842541503906250000e+01 3.074263000488281250e+01 -3.111736774444580078e-01 5.271071434020996094e+00 1.487969279289245605e+00 -7.305961847305297852e-01
2.763000000000000000e+03 7.051796722412109375e+01 3.456679153442382812e+01 4.979844018816947937e-02 6.167833805084228516e+00 1.865289688110351562e+00 -4.581462740898132324e-01
2.764000000000000000e+03 4.075964736938476562e+01 -9.728332519531250000e+00 -2.292179316282272339e-01 7.288938522338867188e+00 2.117916107177734375e+00 1.040225386619567871e+00
2.765000000000000000e+03 3.973600769042968750e+01 -3.065484809875488281e+01 -7.123266458511352539e-01 7.240824222564697266e+00 1.958549261093139648e+00 7.445082068443298340e-02
2.766000000000000000e+03 4.413071823120117188e+01 -3.545765686035156250e+01 -1.413999080657958984e+00 5.919832706451416016e+00 1.351750135421752930e+00 -6.636560559272766113e-01
2.767000000000000000e+03 1.061928749084472656e+01 2.808153152465820312e+01 -6.725583672523498535e-01 3.419839143753051758e+00 8.241842389106750488e-01 -8.818070292472839355e-01
2.768000000000000000e+03 1.051107978820800781e+01 -3.088650703430175781e+01 -9.414815306663513184e-01 3.009952783584594727e+00 6.205413937568664551e-01 2.679517865180969238e-01
2.769000000000000000e+03 6.890429687500000000e+01 2.679719924926757812e+01 -1.209470033645629883e+00 5.948520183563232422e+00 1.421715140342712402e+00 -9.179174304008483887e-01
2.770000000000000000e+03 6.789920043945312500e+01 2.513663673400878906e+01 -1.580336689949035645e+00 5.594566822052001953e+00 1.204269051551818848e+00 -1.210398077964782715e+00
2.771000000000000000e+03 5.425441360473632812e+01 2.995182037353515625e+01 -4.980215728282928467e-01 2.898213624954223633e+00 7.200576066970825195e-01 1.416900396347045898e+00
2.772000000000000000e+03 4.971155929565429688e+01 2.923287582397460938e+01 -1.092431187629699707e+00 4.079111576080322266e+00 8.960040807723999023e-01 9.334841370582580566e-01
2.773000000000000000e+03 4.229954528808593750e+01 2.096610260009765625e+01 -5.720806717872619629e-01 4.744356155395507812e+00 1.251682639122009277e+00 -8.765393495559692383e-01
2.774000000000000000e+03 2.177471542358398438e+01 2.849843025207519531e+01 -6.089506745338439941e-01 2.404270172119140625e+00 5.385958552360534668e-01 1.066245198249816895e+00
2.775000000000000000e+03 4.724768447875976562e+01 -3.528357696533203125e+01 -9.940540790557861328e-01 4.972806930541992188e+00 1.193625926971435547e+00 -1.296049237251281738e+00
2.776000000000000000e+03 4.321097183227539062e+01 -2.939345359802246094e+01 -1.884709447622299194e-01 7.469701290130615234e+00 2.184369087219238281e+00 -8.431956768035888672e-01
2.777000000000000000e+03 9.859813690185546875e+00 2.384685707092285156e+01 -2.620719671249389648e-01 3.490314483642578125e+00 9.684727787971496582e-01 -1.313848853111267090e+00
2.778000000000000000e+03 1.260142135620117188e+01 2.579587173461914062e+01 -8.040181994438171387e-01 4.202685356140136719e+00 1.019600152969360352e+00 -8.678256869316101074e-01
2.779000000000000000e+03 6.528450775146484375e+01 -3.536404418945312500e+01 -6.305083632469177246e-02 3.552706718444824219e+00 1.046896815299987793e+00 6.636409163475036621e-01
2.780000000000000000e+03 6.744128417968750000e+01 -3.446763992309570312e+01 -3.109409511089324951e-01 4.609354019165039062e+00 1.289523959159851074e+00 5.888721346855163574e-01
2.781000000000000000e+03 8.932720184326171875e+00 3.586063385009765625e+01 -4.212741851806640625e-01 2.782708406448364258e+00 7.084302902221679688e-01 -3.331510424613952637e-01
2.782000000000000000e+03 8.828175544738769531e+00 3.833356857299804688e+01 -3.487127125263214111e-01 2.725987434387207031e+00 7.131824493408203125e-01 -2.112847268581390381e-01
2.783000000000000000e+03 4.251692581176757812e+01 -2.630537033081054688e+01 1.174695372581481934e+00 8.241357803344726562e+00 2.824815988540649414e+00 -5.092768669128417969e-01
2.784000000000000000e+03 1.043715476989746094e+01 -3.679644012451171875e+01 -4.766961336135864258e-01 2.356776952743530273e+00 5.640242099761962891e-01 6.880318373441696167e-02
2.785000000000000000e+03 5.749144363403320312e+01 -4.088103866577148438e+01 6.847915053367614746e-01 1.906143426895141602e+00 7.772805094718933105e-01 -1.486273854970932007e-01
2.786000000000000000e+03 4.673865509033203125e+01 -3.291864013671875000e+01 -9.094833731651306152e-01 5.727649211883544922e+00 1.445449829101562500e+00 -1.544400453567504883e+00
2.787000000000000000e+03 4.731230926513671875e+01 2.936060333251953125e+01 -1.105437755584716797e+00 4.197371482849121094e+00 9.275801181793212891e-01 4.345526993274688721e-01
2.788000000000000000e+03 4.969884109497070312e+01 2.688710212707519531e+01 -1.253340244293212891e+00 4.629770755767822266e+00 1.012929081916809082e+00 1.031524896621704102e+00
2.789000000000000000e+03 1.429463100433349609e+01 3.066808223724365234e+00 -2.911739051342010498e-01 6.277866363525390625e+00 1.796007752418518066e+00 -2.948758125305175781e+00
2.790000000000000000e+03 1.506142902374267578e+01 3.812561035156250000e+00 -8.015859127044677734e-01 8.088518142700195312e+00 2.186079740524291992e+00 -2.508633852005004883e+00
2.791000000000000000e+03 1.410867691040039062e+01 -4.536369800567626953e+00 2.258045911788940430e+00 4.556262493133544922e+00 2.044292688369750977e+00 4.383317947387695312e+00
2.792000000000000000e+03 1.309708213806152344e+01 -6.077507495880126953e+00 8.936963081359863281e-01 3.680979490280151367e+00 1.372402787208557129e+00 3.857614755630493164e+00
2.793000000000000000e+03 1.213710498809814453e+01 5.827566146850585938e+00 5.615240335464477539e-01 3.943147420883178711e+00 1.351401448249816895e+00 -1.167951345443725586e+00
2.794000000000000000e+03 1.251659679412841797e+01 5.472154140472412109e+00 4.581693410873413086e-01 4.257626056671142578e+00 1.414738655090332031e+00 -1.365198373794555664e+00
2.795000000000000000e+03 1.328132152557373047e+01 -4.482417106628417969e+00 2.393988609313964844e+00 3.110611915588378906e+00 1.651380181312561035e+00 3.977618694305419922e+00
2.796000000000000000e+03 1.202087116241455078e+01 -5.907696247100830078e+00 9.401056766510009766e-01 2.834527492523193359e+00 1.132390022277832031e+00 3.317034959793090820e+00
2.797000000000000000e+03 1.231721782684326172e+01 -5.188998222351074219e+00 1.526295423507690430e+00 2.556606531143188477e+00 1.224870562553405762e+00 3.359177112579345703e+00
2.798000000000000000e+03 1.668911933898925781e+01 3.388281345367431641e+00 -1.603496551513671875e+00 1.068130111694335938e+01 2.723341464996337891e+00 -1.766043066978454590e+00
2.799000000000000000e+03 1.361716938018798828e+01 4.074655055999755859e+00 -8.635379374027252197e-03 5.270763874053955078e+00 1.578638672828674316e+00 -2.191070556640625000e+00
2.800000000000000000e+03 1.413976955413818359e+01 3.825879335403442383e+00 -2.971191108226776123e-01 6.243093013763427734e+00 1.783792257308959961e+00 -2.537727355957031250e+00
2.801000000000000000e+03 1.460276317596435547e+01 3.536379814147949219e+00 -4.635127484798431396e-01 7.030548572540283203e+00 1.970110774040222168e+00 -2.737987041473388672e+00
2.802000000000000000e+03 1.282112598419189453e+01 -5.078862190246582031e+00 1.758338928222656250e+00 2.902500152587890625e+00 1.398251652717590332e+00 3.720730781555175781e+00
2.803000000000000000e+03 1.536724758148193359e+01 -5.788628101348876953e+00 6.424671411514282227e-01 6.108440399169921875e+00 2.025272369384765625e+00 3.382986068725585938e+00
2.804000000000000000e+03 1.487853813171386719e+01 -5.529017925262451172e+00 9.694539308547973633e-01 5.713348388671875000e+00 2.004840612411499023e+00 3.834062814712524414e+00
2.805000000000000000e+03 1.521520900726318359e+01 5.755460739135742188e+00 -3.784892857074737549e-01 7.893916130065917969e+00 2.254628181457519531e+00 -1.595155715942382812e+00
2.806000000000000000e+03 1.173362350463867188e+01 5.956919193267822266e+00 6.445140838623046875e-01 3.531793355941772461e+00 1.252892255783081055e+00 -9.836977720260620117e-01
2.807000000000000000e+03 1.628050041198730469e+01 2.732755899429321289e+00 -1.468327403068542480e+00 1.090470314025878906e+01 2.830912828445434570e+00 -2.329574823379516602e+00
2.808000000000000000e+03 1.024448394775390625e+01 6.756203174591064453e+00 8.446065783500671387e-01 2.471307039260864258e+00 9.947741031646728516e-01 -4.164566993713378906e-01
2.809000000000000000e+03 1.438273525238037109e+01 -5.319642066955566406e+00 1.381691336631774902e+00 5.147142887115478516e+00 1.958650231361389160e+00 4.171782970428466797e+00
2.810000000000000000e+03 8.510010719299316406e+00 -7.363183975219726562e+00 -4.149596020579338074e-02 2.316529750823974609e+00 6.825101375579833984e-01 1.166913151741027832e+00
2.811000000000000000e+03 8.264656066894531250e+00 -9.068629264831542969e+00 -3.954975903034210205e-01 3.121058225631713867e+00 8.176681995391845703e-01 9.077962040901184082e-01
2.812000000000000000e+03 1.677711486816406250e+01 -5.815052032470703125e+00 6.349737644195556641e-01 6.789573669433593750e+00 2.227364063262939453e+00 1.436586499214172363e+00
2.813000000000000000e+03 1.585750293731689453e+01 -6.137966156005859375e+00 3.798252940177917480e-01 6.034358978271484375e+00 1.924255251884460449e+00 2.772514820098876953e+00
2.814000000000000000e+03 1.153289318084716797e+01 7.721783638000488281e+00 8.883661627769470215e-01 3.789551973342895508e+00 1.403375387191772461e+00 -7.245660424232482910e-01
2.815000000000000000e+03 1.131489086151123047e+01 -7.229716300964355469e+00 -3.708227351307868958e-02 3.365958213806152344e+00 9.986627697944641113e-01 2.997612953186035156e+00
2.816000000000000000e+03 1.751809120178222656e+01 -6.180143833160400391e+00 6.870964765548706055e-01 5.958751678466796875e+00 1.993754386901855469e+00 4.298277199268341064e-01
2.817000000000000000e+03 1.891545867919921875e+01 -7.569900512695312500e+00 3.074664175510406494e-01 3.300131082534790039e+00 1.082279324531555176e+00 -7.808175683021545410e-01
2.818000000000000000e+03 1.444766712188720703e+01 -7.814774036407470703e+00 -5.675171017646789551e-01 4.291474819183349609e+00 1.117187261581420898e+00 3.723154067993164062e+00
2.819000000000000000e+03 1.366701698303222656e+01 7.431338310241699219e+00 5.654793381690979004e-01 6.097062110900878906e+00 1.998762369155883789e+00 -1.157227635383605957e+00
2.820000000000000000e+03 7.986747264862060547e+00 -8.273344039916992188e+00 -2.318758815526962280e-01 2.539187192916870117e+00 6.921933293342590332e-01 8.504654765129089355e-01
2.821000000000000000e+03 7.954093933105468750e+00 -1.122380256652832031e+01 -3.170108497142791748e-01 3.833215236663818359e+00 1.054861307144165039e+00 3.692217171192169189e-01
2.822000000000000000e+03 1.960715484619140625e+01 -5.527298927307128906e+00 2.267822504043579102e+00 4.517722606658935547e+00 2.035663366317749023e+00 -2.240952968597412109e+00
2.823000000000000000e+03 1.497224521636962891e+01 4.371324062347412109e+00 -6.663895845413208008e-01 7.703327178955078125e+00 2.111081361770629883e+00 -2.259109735488891602e+00
2.824000000000000000e+03 1.573474311828613281e+01 4.525949954986572266e+00 -1.004721403121948242e+00 8.926856040954589844e+00 2.376640319824218750e+00 -1.917715311050415039e+00
2.825000000000000000e+03 1.048531532287597656e+01 8.144353866577148438e+00 9.804140925407409668e-01 2.995877981185913086e+00 1.192887663841247559e+00 -4.865947663784027100e-01
2.826000000000000000e+03 9.582132339477539062e+00 8.812011718750000000e+00 1.001388788223266602e+00 2.465888023376464844e+00 1.040183067321777344e+00 -3.030115962028503418e-01
2.827000000000000000e+03 1.250137519836425781e+01 6.930600166320800781e+00 6.943513154983520508e-01 4.621840000152587891e+00 1.594857454299926758e+00 -1.073367595672607422e+00
2.828000000000000000e+03 1.272737216949462891e+01 9.594162940979003906e+00 1.086333394050598145e+00 5.324670791625976562e+00 1.923301339149475098e+00 -8.371412158012390137e-01
2.829000000000000000e+03 7.090079498291015625e+01 2.236266613006591797e+00 -4.899938106536865234e-01 6.741662502288818359e+00 1.875500559806823730e+00 1.902219140902161598e-03
2.830000000000000000e+03 7.042549896240234375e+01 -3.561800956726074219e+00 -5.815196037292480469e-01 6.446788311004638672e+00 1.759580612182617188e+00 -6.743664294481277466e-02
2.831000000000000000e+03 6.931297302246093750e+01 -1.155773282051086426e+00 -4.380279183387756348e-01 5.891529560089111328e+00 1.636050462722778320e+00 4.030764847993850708e-02
2.832000000000000000e+03 1.255090808868408203e+01 1.043340206146240234e+01 1.200541138648986816e+00 5.193363666534423828e+00 1.918171525001525879e+00 -7.999457716941833496e-01
2.833000000000000000e+03 1.125636577606201172e+01 8.372863769531250000e+00 9.978628158569335938e-01 3.681995153427124023e+00 1.403957366943359375e+00 -6.420181393623352051e-01
2.834000000000000000e+03 8.622554779052734375e+00 -8.033630371093750000e+00 -2.349590510129928589e-01 2.757808923721313477e+00 7.568549513816833496e-01 1.202084779739379883e+00
2.835000000000000000e+03 1.542553806304931641e+01 -6.659995555877685547e+00 1.658181399106979370e-01 5.326221466064453125e+00 1.647611975669860840e+00 3.193649530410766602e+00
2.836000000000000000e+03 7.093553161621093750e+01 -7.090178489685058594e+00 -8.026067614555358887e-01 7.185563087463378906e+00 1.914886951446533203e+00 1.363095920532941818e-02
2.837000000000000000e+03 1.364140033721923828e+01 5.285549640655517578e+00 6.626285612583160400e-02 5.739283561706542969e+00 1.741663813591003418e+00 -1.770942091941833496e+00
2.838000000000000000e+03 1.486860656738281250e+01 6.076266765594482422e+00 -1.356281489133834839e-01 7.439067840576171875e+00 2.191031932830810547e+00 -1.526507496833801270e+00
2.839000000000000000e+03 8.565274238586425781e+00 8.577702522277832031e+00 9.243735074996948242e-01 1.770156145095825195e+00 8.083589076995849609e-01 -9.007977694272994995e-02
2.840000000000000000e+03 7.767470836639404297e+00 9.071551322937011719e+00 8.421583771705627441e-01 1.326426029205322266e+00 6.505753397941589355e-01 -1.579794916324317455e-03
2.841000000000000000e+03 2.170077323913574219e+01 -6.231471061706542969e+00 2.440356969833374023e+00 2.315672874450683594e+00 1.426808953285217285e+00 -2.736040830612182617e+00
2.842000000000000000e+03 1.080792903900146484e+01 6.579875946044921875e+00 8.035166263580322266e-01 2.792608976364135742e+00 1.078837633132934570e+00 -6.064388155937194824e-01
2.843000000000000000e+03 1.229143524169921875e+01 1.132174682617187500e+01 1.273301482200622559e+00 5.061769008636474609e+00 1.900521159172058105e+00 -7.871746420860290527e-01
2.844000000000000000e+03 1.034115314483642578e+01 1.779872322082519531e+01 8.277060985565185547e-01 3.770408391952514648e+00 1.379434347152709961e+00 -1.235782504081726074e+00
2.845000000000000000e+03 1.050128078460693359e+01 -7.385116577148437500e+00 -1.643443405628204346e-01 3.230676651000976562e+00 9.198997020721435547e-01 2.378219842910766602e+00
2.846000000000000000e+03 1.166335964202880859e+01 -8.148275375366210938e+00 -6.628581881523132324e-01 4.041397571563720703e+00 1.013561844825744629e+00 3.110894203186035156e+00
2.847000000000000000e+03 1.089921379089355469e+01 1.398898315429687500e+01 1.245087504386901855e+00 4.029533386230468750e+00 1.582386255264282227e+00 -8.502862453460693359e-01
2.848000000000000000e+03 1.050175762176513672e+01 1.565217685699462891e+01 1.071990370750427246e+00 3.784144878387451172e+00 1.456840634346008301e+00 -1.015313029289245605e+00
2.849000000000000000e+03 6.671678924560546875e+01 -1.830941438674926758e+00 -1.092180982232093811e-01 4.475301265716552734e+00 1.309824943542480469e+00 -1.241673133336007595e-03
2.850000000000000000e+03 1.828047370910644531e+01 -6.766070365905761719e+00 6.231390833854675293e-01 4.590616226196289062e+00 1.564126491546630859e+00 -3.456269800662994385e-01
2.851000000000000000e+03 8.259119033813476562e+00 1.392216110229492188e+01 9.162057638168334961e-01 2.275913715362548828e+00 9.576358199119567871e-01 -7.017977833747863770e-01
2.852000000000000000e+03 6.555874633789062500e+01 -4.620880126953125000e+00 -4.173745214939117432e-02 3.799965858459472656e+00 1.127468466758728027e+00 -5.357340574264526367e-01
2.853000000000000000e+03 6.351657104492187500e+01 -2.589652538299560547e+00 4.197922646999359131e-01 2.535191059112548828e+00 8.864949941635131836e-01 -1.092677265405654907e-01
2.854000000000000000e+03 9.278109550476074219e+00 1.825455665588378906e+01 6.322776675224304199e-01 3.089350700378417969e+00 1.116488456726074219e+00 -1.275813102722167969e+00
2.855000000000000000e+03 6.663670349121093750e+01 -4.125189781188964844e+00 -2.265943139791488647e-01 4.434862613677978516e+00 1.262480497360229492e+00 -3.773056268692016602e-01
2.856000000000000000e+03 6.256376647949218750e+01 -3.478818893432617188e+00 5.423806905746459961e-01 1.976976275444030762e+00 7.558071017265319824e-01 -2.629960477352142334e-01
2.857000000000000000e+03 6.699715423583984375e+01 -5.330168724060058594e+00 -3.477290570735931396e-01 4.802117347717285156e+00 1.336316466331481934e+00 -5.859650373458862305e-01
2.858000000000000000e+03 6.918788146972656250e+01 -3.628742456436157227e+00 -5.241842269897460938e-01 5.884472370147705078e+00 1.608086466789245605e+00 -1.781077980995178223e-01
2.859000000000000000e+03 6.158322811126708984e+00 2.254149627685546875e+01 -1.359800458885729313e-03 1.918857693672180176e+00 5.752493739128112793e-01 -1.211952805519104004e+00
2.860000000000000000e+03 1.113566780090332031e+01 1.728030967712402344e+01 1.001496195793151855e+00 4.235191822052001953e+00 1.571006417274475098e+00 -1.185401439666748047e+00
2.861000000000000000e+03 8.972530364990234375e+00 1.703319358825683594e+01 8.005223274230957031e-01 2.843625307083129883e+00 1.093244314193725586e+00 -1.139967918395996094e+00
2.862000000000000000e+03 1.016093254089355469e+01 2.127714729309082031e+01 1.076770648360252380e-01 3.596809148788452148e+00 1.111345887184143066e+00 -1.429250717163085938e+00
2.863000000000000000e+03 8.470003128051757812e+00 -2.283777236938476562e+01 1.503790616989135742e-01 4.810673236846923828e+00 1.488315582275390625e+00 1.352628350257873535e+00
2.864000000000000000e+03 9.833232879638671875e+00 1.200538349151611328e+01 1.137733340263366699e+00 3.066591024398803711e+00 1.261297225952148438e+00 -6.018013358116149902e-01
2.865000000000000000e+03 1.220114898681640625e+01 2.227641677856445312e+01 -1.511087268590927124e-01 4.553272724151611328e+00 1.320649147033691406e+00 -1.305631637573242188e+00
2.866000000000000000e+03 1.156124019622802734e+01 1.660926818847656250e+01 1.068682670593261719e+00 4.515258312225341797e+00 1.675182223320007324e+00 -1.109861850738525391e+00
2.867000000000000000e+03 8.555621147155761719e+00 1.211525249481201172e+01 1.022020220756530762e+00 2.293584346771240234e+00 9.946813583374023438e-01 -5.066558122634887695e-01
2.868000000000000000e+03 1.342108726501464844e+01 2.426261138916015625e+01 -6.947494149208068848e-01 4.721996784210205078e+00 1.208174109458923340e+00 -9.073147177696228027e-01
2.869000000000000000e+03 1.111480331420898438e+01 2.475158500671386719e+01 -5.045939087867736816e-01 3.876240253448486328e+00 1.011493921279907227e+00 -1.201994180679321289e+00
2.870000000000000000e+03 6.704994964599609375e+01 2.745867156982421875e+01 -8.569592833518981934e-01 4.556619167327880859e+00 1.109897971153259277e+00 -1.115442514419555664e+00
2.871000000000000000e+03 1.279797077178955078e+01 -3.542443084716796875e+01 -6.165671348571777344e-01 1.954248189926147461e+00 4.013043045997619629e-01 -1.329068988561630249e-01
2.872000000000000000e+03 1.241683769226074219e+01 -3.405595779418945312e+01 -7.325413823127746582e-01 2.223632335662841797e+00 4.473273158073425293e-01 -7.094159722328186035e-02
2.873000000000000000e+03 4.235756301879882812e+01 2.389941406250000000e+01 -8.543273210525512695e-01 4.433163166046142578e+00 1.073650717735290527e+00 -8.101947903633117676e-01
2.874000000000000000e+03 1.825674819946289062e+01 2.947168731689453125e+01 -9.770687222480773926e-01 3.489024639129638672e+00 7.535868287086486816e-01 5.457023978233337402e-01
2.875000000000000000e+03 1.432486057281494141e+01 2.668634605407714844e+01 -1.023180842399597168e+00 4.297455787658691406e+00 9.822824001312255859e-01 -4.266885221004486084e-01
2.876000000000000000e+03 4.761140823364257812e+01 2.707645416259765625e+01 -1.282823562622070312e+00 4.759270191192626953e+00 1.042933940887451172e+00 4.608307182788848877e-01
2.877000000000000000e+03 4.183631515502929688e+01 2.548339843750000000e+01 -9.219819903373718262e-01 3.992769718170166016e+00 9.212363362312316895e-01 -7.837088704109191895e-01
2.878000000000000000e+03 1.084271907806396484e+01 3.379854965209960938e+01 -6.021885871887207031e-01 3.029549837112426758e+00 7.282084226608276367e-01 -4.022247493267059326e-01
2.879000000000000000e+03 6.921913146972656250e+01 3.269186401367187500e+01 -7.391518354415893555e-02 5.631596088409423828e+00 1.667304277420043945e+00 -4.959888458251953125e-01
2.880000000000000000e+03 1.152089023590087891e+01 2.696861076354980469e+01 -7.558259367942810059e-01 3.763648748397827148e+00 9.023468494415283203e-01 -8.638641834259033203e-01
2.881000000000000000e+03 7.318761444091796875e+01 3.419271850585937500e+01 -4.335293918848037720e-02 7.150276660919189453e+00 2.132077217102050781e+00 -3.215026557445526123e-01
2.882000000000000000e+03 7.237612915039062500e+01 3.592930221557617188e+01 1.068961545825004578e-01 6.642442703247070312e+00 2.024801492691040039e+00 -3.285157084465026855e-01
2.883000000000000000e+03 1.819755172729492188e+01 3.444494628906250000e+01 -6.498755812644958496e-01 2.858363866806030273e+00 6.625464558601379395e-01 2.729467153549194336e-01
2.884000000000000000e+03 2.017741775512695312e+01 2.935481834411621094e+01 -7.681547403335571289e-01 2.835879802703857422e+00 6.203175187110900879e-01 8.851137161254882812e-01
2.885000000000000000e+03 3.903763198852539062e+01 -3.448455429077148438e+01 -1.507141232490539551e+00 6.219697952270507812e+00 1.413766980171203613e+00 3.105106949806213379e-01
2.886000000000000000e+03 7.011611175537109375e+01 7.275667786598205566e-01 -4.734143614768981934e-01 6.384361267089843750e+00 1.773284077644348145e+00 8.530793339014053345e-02
2.887000000000000000e+03 6.862032318115234375e+01 -3.408883810043334961e-01 -3.555996716022491455e-01 5.619211196899414062e+00 1.579083442687988281e+00 8.932635188102722168e-02
2.888000000000000000e+03 7.019657897949218750e+01 -5.453268289566040039e-01 -4.593311846256256104e-01 6.270284175872802734e+00 1.743285894393920898e+00 4.660354554653167725e-02
2.889000000000000000e+03 4.132251358032226562e+01 -3.511986160278320312e+01 -1.557477355003356934e+00 6.210190296173095703e+00 1.395813941955566406e+00 -1.885247528553009033e-01
2.890000000000000000e+03 4.487417984008789062e+01 2.899654197692871094e+01 -1.092355847358703613e+00 4.135219573974609375e+00 9.128591418266296387e-01 -6.466108560562133789e-02
2.891000000000000000e+03 7.184260559082031250e+01 -4.074869918823242188e+01 5.040430277585983276e-02 6.227509975433349609e+00 1.883374214172363281e+00 5.485294386744499207e-02
2.892000000000000000e+03 7.152277374267578125e+01 -3.758470916748046875e+01 -1.129447519779205322e-01 6.174642086029052734e+00 1.818509221076965332e+00 1.467194408178329468e-01
2.893000000000000000e+03 2.506244087219238281e+01 3.081490707397460938e+01 -1.871357411146163940e-01 1.611425161361694336e+00 4.272868335247039795e-01 5.340564846992492676e-01
2.894000000000000000e+03 3.138138389587402344e+01 2.995289993286132812e+01 -1.615984737873077393e-01 1.362475514411926270e+00 3.602631092071533203e-01 -3.277734518051147461e-01
2.895000000000000000e+03 2.946280479431152344e+01 3.465426635742187500e+01 -8.575209230184555054e-02 1.757467150688171387e+00 5.015145540237426758e-01 -1.692242361605167389e-02
2.896000000000000000e+03 1.269124412536621094e+01 -4.140436172485351562e+01 -2.580088675022125244e-01 1.785166978836059570e+00 4.581474363803863525e-01 -1.596230641007423401e-02
2.897000000000000000e+03 5.036586380004882812e+01 -3.180731010437011719e+01 -3.117296695709228516e-01 3.422529697418212891e+00 9.332399964332580566e-01 -1.920596361160278320e+00
2.898000000000000000e+03 5.981500625610351562e+01 2.968945121765136719e+01 1.065210327506065369e-01 1.690484762191772461e+00 5.391017198562622070e-01 5.921861529350280762e-01
2.899000000000000000e+03 4.083565521240234375e+01 2.436089515686035156e+01 -8.051499128341674805e-01 3.757784843444824219e+00 8.857904672622680664e-01 -9.038106799125671387e-01
2.900000000000000000e+03 3.895259857177734375e+01 2.459933280944824219e+01 -7.097862958908081055e-01 3.041270017623901367e+00 6.994451284408569336e-01 -9.969407320022583008e-01
2.901000000000000000e+03 2.261902427673339844e+01 -3.808669662475585938e+01 -7.491102814674377441e-02 3.192074596881866455e-01 7.328893244266510010e-02 -1.860580034554004669e-02
2.902000000000000000e+03 5.325949478149414062e+01 3.320809936523437500e+01 -3.299199938774108887e-01 3.087672233581542969e+00 8.273256421089172363e-01 9.406400918960571289e-01
2.903000000000000000e+03 5.043934631347656250e+01 3.425585174560546875e+01 -5.132231116294860840e-01 3.320367097854614258e+00 8.421431779861450195e-01 6.781458258628845215e-01
2.904000000000000000e+03 4.985298156738281250e+01 3.166249275207519531e+01 -7.904592156410217285e-01 3.639161825180053711e+00 8.546108007431030273e-01 8.032289147377014160e-01
2.905000000000000000e+03 4.571940231323242188e+01 2.524865150451660156e+01 -1.147156715393066406e+00 5.039445400238037109e+00 1.167686700820922852e+00 -7.176518440246582031e-02
2.906000000000000000e+03 1.505715179443359375e+01 3.285352230072021484e+00 -8.653638362884521484e-01 8.213033676147460938e+00 2.204300880432128906e+00 -2.934275865554809570e+00
2.907000000000000000e+03 1.563827323913574219e+01 3.238011121749877930e+00 -1.155215978622436523e+00 9.357315063476562500e+00 2.460629701614379883e+00 -2.685909509658813477e+00
2.908000000000000000e+03 1.387649250030517578e+01 -5.119797229766845703e+00 1.679298877716064453e+00 4.263356208801269531e+00 1.782796621322631836e+00 4.175721645355224609e+00
2.909000000000000000e+03 1.434077548980712891e+01 4.314876556396484375e+00 -3.474127650260925293e-01 6.694062232971191406e+00 1.903994798660278320e+00 -2.335977077484130859e+00
2.910000000000000000e+03 1.386931133270263672e+01 4.511732578277587891e+00 -1.176842749118804932e-01 5.845785140991210938e+00 1.718430280685424805e+00 -2.162341356277465820e+00
2.911000000000000000e+03 1.371623706817626953e+01 -5.694920539855957031e+00 1.174349665641784668e+00 4.174498081207275391e+00 1.604654431343078613e+00 4.047259330749511719e+00
2.912000000000000000e+03 1.326060104370117188e+01 -5.584945678710937500e+00 1.288220286369323730e+00 3.671466112136840820e+00 1.487905859947204590e+00 3.946624755859375000e+00
2.913000000000000000e+03 1.320117950439453125e+01 5.567646026611328125e+00 3.055674731731414795e-01 5.134874820709228516e+00 1.632132649421691895e+00 -1.566256761550903320e+00
2.914000000000000000e+03 1.168581771850585938e+01 6.460756301879882812e+00 7.452085614204406738e-01 3.620561122894287109e+00 1.309730887413024902e+00 -9.229738116264343262e-01
2.915000000000000000e+03 1.151327705383300781e+01 -6.130077838897705078e+00 7.155461907386779785e-01 2.728938102722167969e+00 1.033345222473144531e+00 3.026725292205810547e+00
2.916000000000000000e+03 1.019862079620361328e+01 -6.833699703216552734e+00 2.025885581970214844e-01 2.652587890625000000e+00 8.565529584884643555e-01 2.178531885147094727e+00
2.917000000000000000e+03 1.691793632507324219e+01 -7.754688262939453125e+00 -3.819015026092529297e-01 4.024766921997070312e+00 1.092859625816345215e+00 1.715440154075622559e+00
2.918000000000000000e+03 1.244430065155029297e+01 -5.631379604339599609e+00 1.260873794555664062e+00 2.934100389480590820e+00 1.258492350578308105e+00 3.573295116424560547e+00
2.919000000000000000e+03 1.490427875518798828e+01 -7.009393692016601562e+00 -8.484908938407897949e-02 4.758988380432128906e+00 1.402241826057434082e+00 3.528844356536865234e+00
2.920000000000000000e+03 1.251631450653076172e+01 -7.721079826354980469e+00 -4.381551444530487061e-01 3.976799964904785156e+00 1.061593413352966309e+00 3.592693567276000977e+00
2.921000000000000000e+03 1.314648532867431641e+01 -7.855088233947753906e+00 -5.043385624885559082e-01 4.171435356140136719e+00 1.100129127502441406e+00 3.802788972854614258e+00
2.922000000000000000e+03 1.076155757904052734e+01 -6.897552013397216797e+00 1.870472282171249390e-01 2.942916870117187500e+00 9.389892220497131348e-01 2.586303710937500000e+00
2.923000000000000000e+03 1.294063758850097656e+01 8.135420799255371094e+00 8.343698382377624512e-01 5.347673892974853516e+00 1.854613184928894043e+00 -9.795786142349243164e-01
2.924000000000000000e+03 1.762565040588378906e+01 -7.413659095764160156e+00 4.256207030266523361e-04 4.157272338867187500e+00 1.247309327125549316e+00 7.335461974143981934e-01
2.925000000000000000e+03 8.974244117736816406e+00 -8.723469734191894531e+00 -4.322661459445953369e-01 3.288053512573242188e+00 8.567361831665039062e-01 1.282897114753723145e+00
2.926000000000000000e+03 1.581558132171630859e+01 -7.221035003662109375e+00 -2.412337064743041992e-01 4.790667057037353516e+00 1.364830017089843750e+00 2.766226053237915039e+00
2.927000000000000000e+03 1.981789207458496094e+01 -6.877408981323242188e+00 1.166488528251647949e+00 3.245494604110717773e+00 1.323594927787780762e+00 -1.797858238220214844e+00
2.928000000000000000e+03 1.476658439636230469e+01 5.686064243316650391e+00 -2.873230278491973877e-01 7.376932144165039062e+00 2.126882791519165039e+00 -1.736206054687500000e+00
2.929000000000000000e+03 1.443793201446533203e+01 6.181814193725585938e+00 -2.537246979773044586e-02 6.952901840209960938e+00 2.078258752822875977e+00 -1.570678710937500000e+00
2.930000000000000000e+03 1.344286346435546875e+01 6.804255962371826172e+00 4.358729720115661621e-01 5.774489402770996094e+00 1.863108754158020020e+00 -1.272271156311035156e+00
2.931000000000000000e+03 1.203686428070068359e+01 8.648988723754882812e+00 1.001571059226989746e+00 4.503586292266845703e+00 1.651547193527221680e+00 -7.901243567466735840e-01
2.932000000000000000e+03 1.187538623809814453e+01 9.374255180358886719e+00 1.099125146865844727e+00 4.416576385498046875e+00 1.654710412025451660e+00 -7.366648912429809570e-01
2.933000000000000000e+03 1.440272998809814453e+01 6.658521175384521484e+00 1.796828359365463257e-01 6.909350872039794922e+00 2.126710176467895508e+00 -1.348743796348571777e+00
2.934000000000000000e+03 1.105761814117431641e+01 1.176824665069580078e+01 1.236294865608215332e+00 4.024810314178466797e+00 1.578331589698791504e+00 -6.926546096801757812e-01
2.935000000000000000e+03 1.019566440582275391e+01 9.588738441467285156e+00 1.091018080711364746e+00 3.071638345718383789e+00 1.248796939849853516e+00 -4.609679877758026123e-01
2.936000000000000000e+03 9.424221038818359375e+00 -9.507233619689941406e+00 -6.575880646705627441e-01 4.007386684417724609e+00 1.004939556121826172e+00 1.437361717224121094e+00
2.937000000000000000e+03 1.055492496490478516e+01 -9.608230590820312500e+00 -9.598513841629028320e-01 4.614703178405761719e+00 1.096455454826354980e+00 2.078504800796508789e+00
2.938000000000000000e+03 9.332103729248046875e+00 1.362654876708984375e+01 1.086140275001525879e+00 2.912142038345336914e+00 1.199484705924987793e+00 -7.426850795745849609e-01
2.939000000000000000e+03 1.048260688781738281e+01 7.462787151336669922e+00 9.136921167373657227e-01 2.852536678314208984e+00 1.129868626594543457e+00 -5.071924924850463867e-01
2.940000000000000000e+03 1.031006431579589844e+01 8.860917091369628906e+00 1.042967557907104492e+00 2.999843597412109375e+00 1.212843298912048340e+00 -4.592079520225524902e-01
2.941000000000000000e+03 1.611070823669433594e+01 -8.014280319213867188e+00 -5.522349476814270020e-01 3.973957538604736328e+00 1.026516795158386230e+00 2.589251279830932617e+00
2.942000000000000000e+03 1.168450260162353516e+01 1.015592288970947266e+01 1.167295932769775391e+00 4.388536930084228516e+00 1.666749835014343262e+00 -7.044106125831604004e-01
2.943000000000000000e+03 9.991729736328125000e+00 -1.010594940185546875e+01 -8.280140757560729980e-01 4.552902698516845703e+00 1.117466568946838379e+00 1.526276588439941406e+00
2.944000000000000000e+03 6.749263000488281250e+01 -2.649566888809204102e+00 -3.118920624256134033e-01 5.045162677764892578e+00 1.419981122016906738e+00 -1.474011093378067017e-01
2.945000000000000000e+03 7.032448577880859375e+01 -2.593057155609130859e+00 -5.595863461494445801e-01 6.322067260742187500e+00 1.728744149208068848e+00 -7.394148409366607666e-02
2.946000000000000000e+03 1.138645076751708984e+01 -8.833990097045898438e+00 -9.406194090843200684e-01 4.483930587768554688e+00 1.062993407249450684e+00 2.806915044784545898e+00
2.947000000000000000e+03 1.065603542327880859e+01 -8.402604103088378906e+00 -6.611502766609191895e-01 3.966843843460083008e+00 9.917080998420715332e-01 2.380460500717163086e+00
2.948000000000000000e+03 1.061390781402587891e+01 1.253498172760009766e+01 1.211974740028381348e+00 3.729531049728393555e+00 1.482451796531677246e+00 -7.072961330413818359e-01
2.949000000000000000e+03 9.330784797668457031e+00 1.272847270965576172e+01 1.070315837860107422e+00 2.812932252883911133e+00 1.164974451065063477e+00 -6.269435882568359375e-01
2.950000000000000000e+03 6.844909667968750000e+01 -1.922634124755859375e+00 -3.796695768833160400e-01 5.480200767517089844e+00 1.530159354209899902e+00 -6.485160440206527710e-02
2.951000000000000000e+03 9.945483207702636719e+00 1.940746879577636719e+01 4.727275669574737549e-01 3.526066541671752930e+00 1.199638247489929199e+00 -1.383579850196838379e+00
2.952000000000000000e+03 1.113940906524658203e+01 2.192693519592285156e+01 -3.708879649639129639e-02 4.050533294677734375e+00 1.204033374786376953e+00 -1.354245305061340332e+00
2.953000000000000000e+03 1.064122390747070312e+01 1.060056114196777344e+01 1.163779735565185547e+00 3.556517839431762695e+00 1.416089296340942383e+00 -5.861682891845703125e-01
2.954000000000000000e+03 9.089232444763183594e+00 1.038005638122558594e+01 1.003240942955017090e+00 2.383535385131835938e+00 1.016032934188842773e+00 -3.850026130676269531e-01
2.955000000000000000e+03 1.062481117248535156e+01 2.285766983032226562e+01 -1.509178131818771362e-01 3.728354454040527344e+00 1.073230981826782227e+00 -1.378991246223449707e+00
2.956000000000000000e+03 1.613405418395996094e+01 2.711982917785644531e+01 -1.142757058143615723e+00 4.279974937438964844e+00 9.411653280258178711e-01 1.340186148881912231e-01
2.957000000000000000e+03 8.987744331359863281e+00 2.124094200134277344e+01 1.398275643587112427e-01 3.065825462341308594e+00 9.616959095001220703e-01 -1.375705957412719727e+00
2.958000000000000000e+03 7.150743865966796875e+01 -1.049766349792480469e+01 -5.196805000305175781e-01 8.203300476074218750e+00 2.305085897445678711e+00 5.202143788337707520e-01
2.959000000000000000e+03 6.789415740966796875e+01 -3.793336153030395508e+00 -3.981758058071136475e-01 5.266991615295410156e+00 1.460644721984863281e+00 -2.683569788932800293e-01
2.960000000000000000e+03 6.668676757812500000e+01 3.145317268371582031e+01 -2.355257235467433929e-02 4.368265151977539062e+00 1.303413867950439453e+00 -6.344918012619018555e-01
2.961000000000000000e+03 1.614719772338867188e+01 2.905226898193359375e+01 -1.052031755447387695e+00 3.802235364913940430e+00 8.250610828399658203e-01 1.365789920091629028e-01
2.962000000000000000e+03 1.400758934020996094e+01 2.863639259338378906e+01 -9.788386821746826172e-01 3.900949716567993164e+00 8.766333460807800293e-01 -3.461870849132537842e-01
2.963000000000000000e+03 6.933654022216796875e+01 -4.855813503265380859e+00 -6.101335287094116211e-01 6.089039325714111328e+00 1.643671751022338867e+00 -2.504401206970214844e-01
2.964000000000000000e+03 1.830809593200683594e+01 3.178497695922851562e+01 -8.077058196067810059e-01 3.108248949050903320e+00 6.901629567146301270e-01 4.198705255985260010e-01
2.965000000000000000e+03 6.185120010375976562e+01 3.469770050048828125e+01 4.784336090087890625e-01 3.093234777450561523e+00 1.071500539779663086e+00 5.788072943687438965e-02
2.966000000000000000e+03 2.439356994628906250e+01 3.398962402343750000e+01 -2.356379628181457520e-01 1.983600378036499023e+00 5.243887305259704590e-01 3.866936564445495605e-01
2.967000000000000000e+03 2.132158660888671875e+01 3.457860183715820312e+01 -4.376951754093170166e-01 2.423372030258178711e+00 5.957030057907104492e-01 3.904036283493041992e-01
2.968000000000000000e+03 2.083607292175292969e+01 3.179157829284667969e+01 -5.803012847900390625e-01 2.570805311203002930e+00 5.971512198448181152e-01 6.439958214759826660e-01
2.969000000000000000e+03 5.249316787719726562e+01 -4.087819290161132812e+01 -1.121934410184621811e-02 2.831364393234252930e+00 8.460435271263122559e-01 -3.430664539337158203e-01
2.970000000000000000e+03 3.764859390258789062e+01 -3.671884918212890625e+01 -1.645733594894409180e+00 5.514322280883789062e+00 1.160576701164245605e+00 4.395088255405426025e-01
2.971000000000000000e+03 3.371105575561523438e+01 -3.683141326904296875e+01 -1.127661943435668945e+00 3.712131738662719727e+00 7.753409147262573242e-01 8.948534131050109863e-01
2.972000000000000000e+03 6.617372131347656250e+01 -3.786166000366210938e+01 1.959574967622756958e-01 3.994136571884155273e+00 1.257028222084045410e+00 4.228160977363586426e-01
2.973000000000000000e+03 3.462105941772460938e+01 2.898431777954101562e+01 -3.803308904170989990e-01 1.929751157760620117e+00 4.648260772228240967e-01 -6.288052201271057129e-01
2.974000000000000000e+03 1.202725601196289062e+01 3.799786758422851562e+01 -4.919696748256683350e-01 2.830433845520019531e+00 7.015392184257507324e-01 -1.337549537420272827e-01
2.975000000000000000e+03 2.679452323913574219e+01 3.259878921508789062e+01 -1.076948568224906921e-01 1.589512348175048828e+00 4.445452392101287842e-01 2.798133492469787598e-01
2.976000000000000000e+03 1.283609390258789062e+01 -5.533316612243652344e+00 1.392678856849670410e+00 3.224762678146362305e+00 1.385232448577880859e+00 3.788094282150268555e+00
2.977000000000000000e+03 1.419177246093750000e+01 -5.876830577850341797e+00 8.697971105575561523e-01 4.725262165069580078e+00 1.678517699241638184e+00 3.988143920898437500e+00
2.978000000000000000e+03 1.456098556518554688e+01 5.329627990722656250e+00 -2.997237145900726318e-01 7.151611804962158203e+00 2.055566549301147461e+00 -1.863050460815429688e+00
2.979000000000000000e+03 1.425908279418945312e+01 4.759535312652587891e+00 -2.953167557716369629e-01 6.601119041442871094e+00 1.891740679740905762e+00 -2.105628728866577148e+00
2.980000000000000000e+03 1.211452388763427734e+01 -6.873575687408447266e+00 2.041571736335754395e-01 3.441180467605590820e+00 1.093601346015930176e+00 3.439095973968505859e+00
2.981000000000000000e+03 1.239522838592529297e+01 -6.329380035400390625e+00 6.745406389236450195e-01 3.321349143981933594e+00 1.198766946792602539e+00 3.573753356933593750e+00
2.982000000000000000e+03 1.347900295257568359e+01 6.005362510681152344e+00 2.611910998821258545e-01 5.622622489929199219e+00 1.765143990516662598e+00 -1.479167699813842773e+00
2.983000000000000000e+03 1.311000537872314453e+01 6.309662818908691406e+00 4.362869560718536377e-01 5.190430164337158203e+00 1.688015103340148926e+00 -1.350199103355407715e+00
2.984000000000000000e+03 1.412405967712402344e+01 5.168672084808349609e+00 -1.582742333412170410e-01 6.499798297882080078e+00 1.902457237243652344e+00 -1.899605512619018555e+00
2.985000000000000000e+03 1.437128639221191406e+01 5.843960285186767578e+00 -4.898217692971229553e-02 6.784513473510742188e+00 2.020659446716308594e+00 -1.673598527908325195e+00
2.986000000000000000e+03 1.293749332427978516e+01 6.981324672698974609e+00 6.139724850654602051e-01 5.174906730651855469e+00 1.736663818359375000e+00 -1.121252655982971191e+00
2.987000000000000000e+03 1.154272365570068359e+01 -6.669666290283203125e+00 3.583577573299407959e-01 3.150655031204223633e+00 1.052703857421875000e+00 3.135928392410278320e+00
2.988000000000000000e+03 1.466782855987548828e+01 -6.030749797821044922e+00 6.750231385231018066e-01 5.216667175292968750e+00 1.767507076263427734e+00 3.836332321166992188e+00
2.989000000000000000e+03 1.103151607513427734e+01 -7.806846141815185547e+00 -3.618958890438079834e-01 3.683768510818481445e+00 9.965618252754211426e-01 2.751954555511474609e+00
2.990000000000000000e+03 1.324153232574462891e+01 -7.247253894805908203e+00 -1.336935609579086304e-01 4.038474559783935547e+00 1.171434283256530762e+00 3.813932895660400391e+00
2.991000000000000000e+03 1.268527984619140625e+01 -7.108705997467041016e+00 6.314925849437713623e-02 3.834446907043457031e+00 1.169278860092163086e+00 3.713892698287963867e+00
2.992000000000000000e+03 1.379942417144775391e+01 -7.290013313293457031e+00 -1.366816014051437378e-01 4.257855892181396484e+00 1.236352324485778809e+00 3.887056112289428711e+00
2.993000000000000000e+03 1.184951877593994141e+01 7.189608097076416016e+00 8.299282789230346680e-01 3.935298204421997070e+00 1.429567933082580566e+00 -8.617994785308837891e-01
2.994000000000000000e+03 1.274037075042724609e+01 6.581535339355468750e+00 5.575874447822570801e-01 4.886253833770751953e+00 1.633152365684509277e+00 -1.186760783195495605e+00
2.995000000000000000e+03 1.007404041290283203e+01 -7.808302402496337891e+00 -2.641765773296356201e-01 3.309135675430297852e+00 9.134876728057861328e-01 2.094465255737304688e+00
2.996000000000000000e+03 1.104132366180419922e+01 7.227331161499023438e+00 8.992645144462585449e-01 3.210666179656982422e+00 1.232979178428649902e+00 -6.307451725006103516e-01
2.997000000000000000e+03 1.512285232543945312e+01 -7.602537631988525391e+00 -4.015665650367736816e-01 4.383563518524169922e+00 1.194599032402038574e+00 3.394824504852294922e+00
2.998000000000000000e+03 1.383110809326171875e+01 5.718949317932128906e+00 9.593102335929870605e-02 6.158447265625000000e+00 1.876313447952270508e+00 -1.585196137428283691e+00
2.999000000000000000e+03 1.408634662628173828e+01 6.057313919067382812e+00 6.645834445953369141e-02 6.525882244110107422e+00 1.977702140808105469e+00 -1.508723855018615723e+00
3.000000000000000000e+03 1.145234680175781250e+01 6.874597072601318359e+00 8.092221617698669434e-01 3.563418865203857422e+00 1.311792254447937012e+00 -7.925468087196350098e-01
3.001000000000000000e+03 1.090040779113769531e+01 9.857314109802246094e+00 1.139067649841308594e+00 3.630696535110473633e+00 1.430929303169250488e+00 -5.865824818611145020e-01
3.002000000000000000e+03 1.141688060760498047e+01 1.096516513824462891e+01 1.226588964462280273e+00 4.215983390808105469e+00 1.632771730422973633e+00 -6.881889104843139648e-01
3.003000000000000000e+03 6.933926391601562500e+01 -2.554699897766113281e+00 -4.805003106594085693e-01 5.876492500305175781e+00 1.618797659873962402e+00 -8.902255445718765259e-02
3.004000000000000000e+03 4.375659942626953125e+01 2.553891944885253906e+01 -1.013300538063049316e+00 4.471342563629150391e+00 1.037412643432617188e+00 -4.673197865486145020e-01
3.005000000000000000e+03 6.632192230224609375e+01 2.960054397583007812e+01 -2.921186685562133789e-01 4.012224197387695312e+00 1.116031646728515625e+00 -8.295957446098327637e-01
3.006000000000000000e+03 5.688056182861328125e+01 3.371427154541015625e+01 2.194788008928298950e-01 2.619245529174804688e+00 8.516172766685485840e-01 7.679345011711120605e-01
3.007000000000000000e+03 4.115573883056640625e+01 2.772190475463867188e+01 -8.569092154502868652e-01 3.593428611755371094e+00 8.209558129310607910e-01 -6.631157398223876953e-01
3.008000000000000000e+03 8.317821502685546875e+00 -4.123604583740234375e+01 -1.956579834222793579e-01 2.597098588943481445e+00 7.204321622848510742e-01 3.492495045065879822e-02
3.009000000000000000e+03 3.555044555664062500e+01 3.287429046630859375e+01 -3.217572867870330811e-01 2.204825639724731445e+00 5.649205446243286133e-01 -4.325148165225982666e-01
3.010000000000000000e+03 1.236626243591308594e+01 7.421114444732666016e+00 7.616363167762756348e-01 4.570081710815429688e+00 1.599515438079833984e+00 -9.543149471282958984e-01
3.011000000000000000e+03 1.220690631866455078e+01 7.997498989105224609e+00 8.931741714477539062e-01 4.514162063598632812e+00 1.622200846672058105e+00 -8.661798238754272461e-01
3.012000000000000000e+03 1.435567569732666016e+01 -7.213676452636718750e+00 -1.321438103914260864e-01 4.446771621704101562e+00 1.294388294219970703e+00 3.759392738342285156e+00
3.013000000000000000e+03 1.190197181701660156e+01 -7.503262042999267578e+00 -2.184489369392395020e-01 3.762418985366821289e+00 1.063190937042236328e+00 3.311195611953735352e+00
3.014000000000000000e+03 1.270067882537841797e+01 -5.922027587890625000e+00 9.859977364540100098e-01 3.313950777053833008e+00 1.289984583854675293e+00 3.723480224609375000e+00
3.015000000000000000e+03 1.396452236175537109e+01 -6.356280326843261719e+00 6.058759689331054688e-01 4.443363666534423828e+00 1.514771819114685059e+00 3.950708389282226562e+00
3.016000000000000000e+03 1.108438491821289062e+01 9.112433433532714844e+00 1.074185848236083984e+00 3.706838846206665039e+00 1.434307456016540527e+00 -6.083908081054687500e-01
3.017000000000000000e+03 6.736692047119140625e+01 3.372432708740234375e+01 1.698489338159561157e-01 4.722361564636230469e+00 1.467663049697875977e+00 -4.859453439712524414e-01
3.018000000000000000e+03 4.318649673461914062e+01 3.450764465332031250e+01 -6.686686873435974121e-01 3.230384349822998047e+00 7.685146927833557129e-01 -9.141714870929718018e-02
3.019000000000000000e+03 1.353233528137207031e+01 -6.205901622772216797e+00 6.958327293395996094e-01 4.088747024536132812e+00 1.435374021530151367e+00 3.939940452575683594e+00
3.020000000000000000e+03 1.424059009552001953e+01 -6.690646171569824219e+00 2.299925535917282104e-01 4.593781471252441406e+00 1.447132229804992676e+00 3.851008892059326172e+00
3.021000000000000000e+03 1.378693199157714844e+01 3.073745155334472656e+01 -8.867347240447998047e-01 3.501386165618896484e+00 7.843954563140869141e-01 -2.415638267993927002e-01
3.022000000000000000e+03 3.721921920776367188e+01 2.992767143249511719e+01 -5.081429481506347656e-01 2.475563526153564453e+00 5.902261734008789062e-01 -6.771780252456665039e-01
3.023000000000000000e+03 1.447936439514160156e+01 3.627254104614257812e+01 -6.157693266868591309e-01 2.930469512939453125e+00 6.944100260734558105e-01 -4.904399439692497253e-02
3.024000000000000000e+03 3.929500579833984375e+01 3.392051315307617188e+01 -5.170701742172241211e-01 2.780824422836303711e+00 6.791262626647949219e-01 -3.301582932472229004e-01
3.025000000000000000e+03 1.336260509490966797e+01 -6.704484939575195312e+00 3.390284478664398193e-01 4.033345699310302734e+00 1.311712265014648438e+00 3.901405096054077148e+00
3.026000000000000000e+03 1.381664085388183594e+01 -6.782774925231933594e+00 1.792066544294357300e-01 4.255625247955322266e+00 1.330449581146240234e+00 3.878623962402343750e+00
3.027000000000000000e+03 4.041953277587890625e+01 3.072438240051269531e+01 -7.299337983131408691e-01 3.147563934326171875e+00 7.252890467643737793e-01 -4.997512102127075195e-01
3.028000000000000000e+03 3.355850219726562500e+01 3.635081863403320312e+01 -1.814053505659103394e-01 2.072031021118164062e+00 5.671876668930053711e-01 -1.901032626628875732e-01
3.029000000000000000e+03 4.382363510131835938e+01 3.145422363281250000e+01 -8.783197402954101562e-01 3.650169372558593750e+00 8.315548896789550781e-01 -1.026593446731567383e-01
3.030000000000000000e+03 4.721015930175781250e+01 3.772319412231445312e+01 -4.560232758522033691e-01 3.183152198791503906e+00 8.181387186050415039e-01 1.927979886531829834e-01
3.031000000000000000e+03 6.759323120117187500e+01 -3.176549720764160156e+01 -7.230829000473022461e-01 5.108446598052978516e+00 1.315609097480773926e+00 6.975839734077453613e-01
3.032000000000000000e+03 5.896571731567382812e+01 3.478486251831054688e+01 4.167142212390899658e-01 2.702404260635375977e+00 9.357355237007141113e-01 4.811514914035797119e-01
3.033000000000000000e+03 3.853258132934570312e+01 -4.082917404174804688e+01 -1.688538789749145508e+00 5.093301773071289062e+00 1.021428823471069336e+00 7.927980273962020874e-02
3.034000000000000000e+03 1.252360725402832031e+01 3.460431289672851562e+01 -6.479632854461669922e-01 3.061316251754760742e+00 7.240058779716491699e-01 -2.393317669630050659e-01
3.035000000000000000e+03 2.445309257507324219e+01 -3.467486572265625000e+01 -6.153542399406433105e-01 1.565157175064086914e-01 -1.376515477895736694e-01 1.408635973930358887e-01
3.036000000000000000e+03 5.492494201660156250e+01 3.572244644165039062e+01 6.566550582647323608e-02 2.861663579940795898e+00 8.781987428665161133e-01 6.576452851295471191e-01
3.037000000000000000e+03 3.179743766784667969e+01 -4.083038330078125000e+01 -8.681756258010864258e-01 2.887362003326416016e+00 6.057559251785278320e-01 2.628833353519439697e-01
3.038000000000000000e+03 2.731781387329101562e+01 4.048178863525390625e+01 -1.342442482709884644e-01 2.032750606536865234e+00 5.695518851280212402e-01 3.511962294578552246e-02
3.039000000000000000e+03 6.214673233032226562e+01 3.784463500976562500e+01 5.961726903915405273e-01 3.449406385421752930e+00 1.213673710823059082e+00 2.980586886405944824e-02
3.040000000000000000e+03 6.603840637207031250e+01 3.755463409423828125e+01 4.775542020797729492e-01 4.483156681060791016e+00 1.488213300704956055e+00 -2.132223695516586304e-01
3.041000000000000000e+03 4.025217437744140625e+01 -3.776190567016601562e+01 -1.711781740188598633e+00 5.724389553070068359e+00 1.203782320022583008e+00 8.506862819194793701e-02
3.042000000000000000e+03 6.887073516845703125e+01 3.631905746459960938e+01 2.844006717205047607e-01 5.419490337371826172e+00 1.711167216300964355e+00 -3.101613521575927734e-01
3.043000000000000000e+03 3.828902053833007812e+01 3.725951385498046875e+01 -3.894390165805816650e-01 2.605071783065795898e+00 6.646898388862609863e-01 -2.024065107107162476e-01
3.044000000000000000e+03 2.685912322998046875e+01 -3.801408386230468750e+01 -2.366621494293212891e-01 8.916366696357727051e-01 1.964923590421676636e-01 3.988562524318695068e-01
3.045000000000000000e+03 2.238314056396484375e+01 -4.102194213867187500e+01 6.580933928489685059e-02 4.597031176090240479e-01 1.576537340879440308e-01 -1.494138780981302261e-02
3.046000000000000000e+03 1.293874549865722656e+01 1.846457004547119141e+00 4.673460125923156738e-02 2.288467168807983398e+00 7.005605101585388184e-01 -1.928751111030578613e+00
3.047000000000000000e+03 1.369407272338867188e+01 1.501492023468017578e+00 3.899813592433929443e-01 3.240152359008789062e+00 1.089040040969848633e+00 -2.791526794433593750e+00
3.048000000000000000e+03 1.339786624908447266e+01 1.662957191467285156e+00 2.666071355342864990e-01 2.743765115737915039e+00 9.031116962432861328e-01 -2.450084447860717773e+00
3.049000000000000000e+03 1.390239334106445312e+01 1.349274516105651855e+00 5.198248624801635742e-01 3.627769947052001953e+00 1.244278430938720703e+00 -3.044094562530517578e+00
3.050000000000000000e+03 1.451099777221679688e+01 8.095070719718933105e-01 1.142554759979248047e+00 4.863471031188964844e+00 1.801807761192321777e+00 -4.101880550384521484e+00
3.051000000000000000e+03 1.447189426422119141e+01 1.003911852836608887e+00 9.147983789443969727e-01 4.961481571197509766e+00 1.762883901596069336e+00 -3.976288318634033203e+00
3.052000000000000000e+03 1.469773292541503906e+01 1.100953340530395508e+00 7.683471441268920898e-01 6.245381355285644531e+00 2.104118585586547852e+00 -4.405196189880371094e+00
3.053000000000000000e+03 1.510910320281982422e+01 7.298777699470520020e-01 1.038684368133544922e+00 7.969560146331787109e+00 2.702473402023315430e+00 -5.222848892211914062e+00
3.054000000000000000e+03 1.589599132537841797e+01 6.540363430976867676e-01 1.675475388765335083e-02 1.449861907958984375e+01 4.354612350463867188e+00 -4.149087429046630859e+00
3.055000000000000000e+03 1.561447620391845703e+01 9.254667162895202637e-01 -6.277336925268173218e-02 1.199926090240478516e+01 3.580946445465087891e+00 -4.711130142211914062e+00
3.056000000000000000e+03 1.620539855957031250e+01 1.108297824859619141e+00 -6.749485135078430176e-01 1.471371841430664062e+01 4.211630821228027344e+00 -2.828829050064086914e+00
3.057000000000000000e+03 1.258258247375488281e+01 -2.606136083602905273e+00 2.771595239639282227e+00 4.513467550277709961e-01 9.668825864791870117e-01 1.816851258277893066e+00
3.058000000000000000e+03 1.394704914093017578e+01 -2.431421518325805664e+00 4.833082199096679688e+00 1.458388805389404297e+00 1.887441277503967285e+00 3.274295806884765625e+00
3.059000000000000000e+03 1.414143657684326172e+01 -2.434597253799438477e+00 5.276317596435546875e+00 1.792913079261779785e+00 2.120769262313842773e+00 3.740907192230224609e+00
3.060000000000000000e+03 7.796072387695312500e+01 4.166356277465820312e+01 1.747343689203262329e-01 8.712702751159667969e+00 2.666230916976928711e+00 -4.913979023694992065e-02
3.061000000000000000e+03 1.511648845672607422e+01 -3.180902719497680664e+00 3.711528301239013672e+00 7.752479553222656250e+00 3.439202308654785156e+00 5.332784175872802734e+00
3.062000000000000000e+03 1.426732540130615234e+01 -2.809613800048828125e+01 -8.295185565948486328e-01 2.154781341552734375e+00 3.975788354873657227e-01 -3.369598388671875000e-01
3.063000000000000000e+03 3.769615554809570312e+01 -2.949801254272460938e+01 -3.009473383426666260e-01 7.217032909393310547e+00 2.074825763702392578e+00 6.149857640266418457e-01
3.064000000000000000e+03 6.208044815063476562e+01 2.629589462280273438e+01 -7.102652788162231445e-01 8.851796388626098633e-01 5.247429758310317993e-02 -1.039620712399482727e-01
3.065000000000000000e+03 7.059691619873046875e+01 1.402603530883789062e+01 1.410694479942321777e+00 1.027218723297119141e+01 3.504864454269409180e+00 7.358797788619995117e-01
3.066000000000000000e+03 7.064896392822265625e+01 1.968307113647460938e+01 7.191172838211059570e-01 9.318305015563964844e+00 3.011226892471313477e+00 9.392769336700439453e-01
3.067000000000000000e+03 1.631163787841796875e+01 1.853131294250488281e+01 1.303658962249755859e+00 8.172679901123046875e+00 2.842901706695556641e+00 1.970826275646686554e-02
3.068000000000000000e+03 4.351247024536132812e+01 -2.509421920776367188e+01 1.797069191932678223e+00 8.681056022644042969e+00 3.143437385559082031e+00 -8.546857237815856934e-01
3.069000000000000000e+03 1.330742073059082031e+01 3.276921081542968750e+01 -7.596467733383178711e-01 3.242134571075439453e+00 7.447463274002075195e-01 -2.286700159311294556e-01
3.070000000000000000e+03 1.550706195831298828e+01 3.372232437133789062e+01 -7.489830255508422852e-01 3.113850116729736328e+00 7.094601392745971680e-01 3.560723364353179932e-02
3.071000000000000000e+03 1.461423301696777344e+01 -3.389756679534912109e+00 3.815937042236328125e+00 5.495394706726074219e+00 2.793399572372436523e+00 5.090572357177734375e+00
3.072000000000000000e+03 4.487042617797851562e+01 2.280927419662475586e+00 1.632116436958312988e+00 1.197555351257324219e+01 4.082300662994384766e+00 1.019335865974426270e+00
3.073000000000000000e+03 2.283841896057128906e+01 -1.192216014862060547e+01 -1.815597176551818848e+00 8.629930019378662109e-01 -2.857812643051147461e-01 -7.929145693778991699e-01
3.074000000000000000e+03 4.436605834960937500e+01 -1.543648433685302734e+01 1.488262176513671875e+00 1.027110195159912109e+01 3.527809143066406250e+00 1.394434094429016113e+00
3.075000000000000000e+03 1.395504283905029297e+01 1.833235263824462891e+00 2.850938737392425537e-01 4.499833583831787109e+00 1.435478210449218750e+00 -3.274999856948852539e+00
3.076000000000000000e+03 1.498822307586669922e+01 -3.668174982070922852e+00 3.046795368194580078e+00 7.034927368164062500e+00 3.024516820907592773e+00 5.022181034088134766e+00
3.077000000000000000e+03 1.045922183990478516e+01 -2.434220504760742188e+01 -3.759589195251464844e-01 5.100732803344726562e+00 1.417432188987731934e+00 4.904184937477111816e-01
3.078000000000000000e+03 1.540629291534423828e+01 1.215078473091125488e+00 -5.370033159852027893e-02 1.015938186645507812e+01 3.031704425811767578e+00 -4.621760368347167969e+00
3.079000000000000000e+03 1.496992492675781250e+01 1.093450188636779785e+00 6.468903422355651855e-01 7.692298412322998047e+00 2.501756668090820312e+00 -4.720137596130371094e+00
3.080000000000000000e+03 1.457120609283447266e+01 1.383857965469360352e+00 4.949624240398406982e-01 5.984283924102783203e+00 1.943773984909057617e+00 -4.069011688232421875e+00
3.081000000000000000e+03 1.430953216552734375e+01 1.969830751419067383e+00 1.691262423992156982e-01 5.630846500396728516e+00 1.739991784095764160e+00 -3.536368846893310547e+00
3.082000000000000000e+03 4.127065277099609375e+01 -3.491785764694213867e+00 -7.208709120750427246e-01 9.654610633850097656e+00 2.680121898651123047e+00 2.817020654678344727e+00
3.083000000000000000e+03 5.151243209838867188e+01 2.459731101989746094e+01 -1.164675831794738770e+00 4.770983695983886719e+00 1.081892251968383789e+00 1.647960186004638672e+00
3.084000000000000000e+03 4.707146835327148438e+01 -2.864835548400878906e+01 2.804282307624816895e-01 6.647596836090087891e+00 2.078407526016235352e+00 -1.969854474067687988e+00
3.085000000000000000e+03 3.823427963256835938e+01 -3.081789588928222656e+01 -7.748204469680786133e-01 6.951336860656738281e+00 1.852954983711242676e+00 4.761470258235931396e-01
3.086000000000000000e+03 6.397507095336914062e+01 2.718489646911621094e+01 -4.994206428527832031e-01 2.230531692504882812e+00 5.193333029747009277e-01 -8.705592751502990723e-01
3.087000000000000000e+03 1.965293884277343750e+01 2.263625144958496094e+01 -1.055624008178710938e+00 5.339271545410156250e+00 1.285094261169433594e+00 1.801177740097045898e+00
3.088000000000000000e+03 2.899217224121093750e+01 -8.574407577514648438e+00 1.295332193374633789e+00 1.973282217979431152e+00 9.805843234062194824e-01 -3.245696783065795898e+00
3.089000000000000000e+03 1.223035335540771484e+01 3.012355566024780273e+00 1.992507576942443848e-01 2.475476503372192383e+00 8.024181723594665527e-01 -1.548917770385742188e+00
3.090000000000000000e+03 6.868568420410156250e+01 -8.805734634399414062e+00 -7.787778377532958984e-01 6.704161167144775391e+00 1.777615070343017578e+00 -7.146325111389160156e-01
3.091000000000000000e+03 2.035574531555175781e+01 -2.549369573593139648e+00 5.317911624908447266e+00 4.208962917327880859e+00 2.858062505722045898e+00 -2.980261087417602539e+00
3.092000000000000000e+03 2.162084197998046875e+01 -3.316944599151611328e+00 4.504951477050781250e+00 2.548186302185058594e+00 2.115941286087036133e+00 -3.200085401535034180e+00
3.093000000000000000e+03 7.009801483154296875e+01 -9.707880020141601562e+00 -7.572065591812133789e-01 7.764431476593017578e+00 2.102167606353759766e+00 -8.367369323968887329e-02
3.094000000000000000e+03 5.505571365356445312e+01 -3.648175430297851562e+01 3.113222122192382812e-01 1.689857840538024902e+00 6.003540158271789551e-01 -8.262728452682495117e-01
3.095000000000000000e+03 1.310488986968994141e+01 -2.863043212890625000e+01 -9.974091649055480957e-01 2.683070182800292969e+00 5.056983232498168945e-01 -2.294576466083526611e-01
3.096000000000000000e+03 7.284029006958007812e+00 -2.279171562194824219e+01 1.870965510606765747e-01 4.136095523834228516e+00 1.296957612037658691e+00 1.554704546928405762e+00
3.097000000000000000e+03 1.450745773315429688e+01 2.172576141357421875e+01 -1.873517781496047974e-01 5.620123863220214844e+00 1.629831552505493164e+00 -1.012431025505065918e+00
3.098000000000000000e+03 1.333445072174072266e+01 2.199284553527832031e+01 -1.588521450757980347e-01 5.011654376983642578e+00 1.455840706825256348e+00 -1.122535109519958496e+00
3.099000000000000000e+03 4.416754913330078125e+01 2.587388038635253906e+00 1.729811072349548340e+00 1.400543689727783203e+01 4.720574378967285156e+00 1.744826555252075195e+00
3.100000000000000000e+03 3.814294433593750000e+01 -3.211698150634765625e+01 -1.144201278686523438e+00 6.604930877685546875e+00 1.638218879699707031e+00 5.282040834426879883e-01
3.101000000000000000e+03 1.641477775573730469e+01 2.200945854187011719e+00 -1.343339681625366211e+00 1.171935749053955078e+01 3.112805366516113281e+00 -2.247585058212280273e+00
3.102000000000000000e+03 1.510999870300292969e+01 1.770236372947692871e+00 -2.836851775646209717e-01 8.760500907897949219e+00 2.543044805526733398e+00 -4.123198509216308594e+00
3.103000000000000000e+03 1.355793476104736328e+01 -3.823730945587158203e+00 3.214772462844848633e+00 2.813607454299926758e+00 1.808513998985290527e+00 4.026269435882568359e+00
3.104000000000000000e+03 6.128745651245117188e+01 -7.646969795227050781e+00 1.642293632030487061e-01 7.923068404197692871e-01 2.869608700275421143e-01 -3.503504395484924316e-01
3.105000000000000000e+03 3.630395650863647461e+00 3.407456970214843750e+01 -1.156970560550689697e-01 2.362826824188232422e+00 6.741389036178588867e-01 -3.504079282283782959e-01
3.106000000000000000e+03 4.493080902099609375e+01 8.648361563682556152e-01 1.720744967460632324e+00 1.159097099304199219e+01 3.993514776229858398e+00 1.071613311767578125e+00
3.107000000000000000e+03 4.420782470703125000e+01 1.491443037986755371e+00 1.728210687637329102e+00 1.299045085906982422e+01 4.415598392486572266e+00 1.543418407440185547e+00
3.108000000000000000e+03 1.419546985626220703e+01 2.292568397521972656e+01 -4.874472320079803467e-01 5.305713653564453125e+00 1.445479869842529297e+00 -9.442502856254577637e-01
3.109000000000000000e+03 2.154224967956542969e+01 2.518397521972656250e+01 -7.377563714981079102e-01 2.579371690750122070e+00 5.524845719337463379e-01 1.746260523796081543e+00
3.110000000000000000e+03 6.849147033691406250e+01 2.586345100402832031e+01 -1.459783911705017090e+00 6.024820804595947266e+00 1.369511008262634277e+00 -1.176907181739807129e+00
3.111000000000000000e+03 4.546713256835937500e+01 -5.547231674194335938e+00 -1.461022019386291504e+00 8.698158264160156250e+00 2.171140670776367188e+00 7.499479055404663086e-01
3.112000000000000000e+03 4.341508102416992188e+01 -1.394209289550781250e+01 1.355086684226989746e+00 9.168119430541992188e+00 3.156961917877197266e+00 1.135170817375183105e+00
3.113000000000000000e+03 1.852779960632324219e+01 -5.337872028350830078e+00 1.829101085662841797e+00 6.006361007690429688e+00 2.350638628005981445e+00 -1.416681647300720215e+00
3.114000000000000000e+03 5.802262878417968750e+01 -2.778167963027954102e+00 1.184970974922180176e+00 2.337571680545806885e-01 4.256184399127960205e-01 -4.427956417202949524e-02
3.115000000000000000e+03 1.457745170593261719e+01 -3.505425262451171875e+01 -5.883925557136535645e-01 1.594841480255126953e+00 3.019346892833709717e-01 -2.420285642147064209e-01
3.116000000000000000e+03 1.580094718933105469e+01 -3.404668807983398438e+01 -7.177525758743286133e-01 1.288674831390380859e+00 1.712766587734222412e-01 -3.050115406513214111e-01
3.117000000000000000e+03 4.133506774902343750e+01 -8.998071670532226562e+00 -7.438295483589172363e-01 7.731131553649902344e+00 2.096190452575683594e+00 1.253080368041992188e+00
3.118000000000000000e+03 7.270188140869140625e+01 3.184593963623046875e+01 -2.674349248409271240e-01 7.176967144012451172e+00 2.072859525680541992e+00 -3.676681816577911377e-01
3.119000000000000000e+03 4.509542846679687500e+01 -2.790972709655761719e+01 2.704927325248718262e-01 7.413572788238525391e+00 2.305219650268554688e+00 -1.248393654823303223e+00
3.120000000000000000e+03 4.490593719482421875e+01 -6.915376663208007812e+00 -1.653794527053833008e+00 8.826927185058593750e+00 2.151939868927001953e+00 9.696708917617797852e-01
3.121000000000000000e+03 1.853368186950683594e+01 3.627180814743041992e+00 -1.293579578399658203e+00 1.018954944610595703e+01 2.668790817260742188e+00 -5.826166868209838867e-01
3.122000000000000000e+03 3.696411132812500000e+01 -9.127766609191894531e+00 6.186025738716125488e-01 3.932764530181884766e+00 1.365410089492797852e+00 -8.808395266532897949e-02
3.123000000000000000e+03 5.892193603515625000e+01 -5.362108707427978516e+00 5.654299259185791016e-01 3.095450103282928467e-01 2.624924778938293457e-01 -2.095291018486022949e-01
3.124000000000000000e+03 4.411117172241210938e+01 9.010038375854492188e+00 1.064135074615478516e+00 1.169648265838623047e+01 3.828185319900512695e+00 4.986730515956878662e-01
3.125000000000000000e+03 4.468934631347656250e+01 -3.097760200500488281e+00 -5.276271104812622070e-01 9.774762153625488281e+00 2.774140596389770508e+00 4.912554621696472168e-01
3.126000000000000000e+03 6.991780853271484375e+01 2.602688407897949219e+01 -1.439525246620178223e+00 7.088414192199707031e+00 1.694666624069213867e+00 -6.679583191871643066e-01
3.127000000000000000e+03 3.252787017822265625e+01 -1.083222007751464844e+01 1.539262890815734863e+00 2.192828655242919922e+00 1.119627475738525391e+00 -2.829252958297729492e+00
3.128000000000000000e+03 1.185924243927001953e+01 -2.894102478027343750e+01 -1.059365272521972656e+00 3.207828998565673828e+00 6.445391178131103516e-01 5.649118870496749878e-02
3.129000000000000000e+03 5.171588897705078125e+01 2.910826683044433594e+01 -9.588402509689331055e-01 3.733241558074951172e+00 8.323203921318054199e-01 1.328325629234313965e+00
3.130000000000000000e+03 1.461695003509521484e+01 1.844435691833496094e+00 5.236914008855819702e-02 6.657540321350097656e+00 2.012972831726074219e+00 -3.902415275573730469e+00
3.131000000000000000e+03 2.132687568664550781e+01 2.676705551147460938e+01 -7.890484333038330078e-01 2.688989400863647461e+00 5.699822902679443359e-01 1.300472974777221680e+00
3.132000000000000000e+03 4.156731796264648438e+01 -2.670696449279785156e+01 1.013088941574096680e+00 8.270084381103515625e+00 2.784952163696289062e+00 -3.370266854763031006e-01
3.133000000000000000e+03 4.161418533325195312e+01 -2.239511871337890625e+01 2.356363058090209961e+00 9.224445343017578125e+00 3.474242448806762695e+00 -4.596157073974609375e-01
3.134000000000000000e+03 7.103869915008544922e+00 -1.594229984283447266e+01 1.274758934974670410e+00 3.744728803634643555e+00 1.505846381187438965e+00 3.591968715190887451e-01
3.135000000000000000e+03 2.326706504821777344e+01 -1.803601861000061035e+00 3.814640283584594727e+00 8.178338408470153809e-01 1.389742255210876465e+00 -2.436394453048706055e+00
3.136000000000000000e+03 1.275397205352783203e+01 -4.582662582397460938e+00 2.131935119628906250e+00 2.488231182098388672e+00 1.386049985885620117e+00 3.527239322662353516e+00
3.137000000000000000e+03 7.342243957519531250e+01 -3.222741699218750000e+01 -5.018729567527770996e-01 7.259355068206787109e+00 2.027244567871093750e+00 -1.919940561056137085e-01
3.138000000000000000e+03 5.893448257446289062e+01 -2.749096155166625977e+00 1.083194136619567871e+00 4.136840999126434326e-01 4.490634799003601074e-01 -8.057084679603576660e-02
3.139000000000000000e+03 6.363751983642578125e+01 2.924773025512695312e+01 2.939791651442646980e-03 2.561981916427612305e+00 7.694765329360961914e-01 -5.200523138046264648e-01
3.140000000000000000e+03 1.265167999267578125e+01 4.694380283355712891e+00 3.179345726966857910e-01 4.068526744842529297e+00 1.315938472747802734e+00 -1.596443653106689453e+00
3.141000000000000000e+03 7.458544731140136719e+00 -9.276563644409179688e+00 -3.347740173339843750e-01 2.727530956268310547e+00 7.178270816802978516e-01 4.999598562717437744e-01
3.142000000000000000e+03 5.236542701721191406e+00 -2.423076438903808594e+01 -1.154055818915367126e-01 2.655282974243164062e+00 7.619632482528686523e-01 1.505576968193054199e+00
3.143000000000000000e+03 7.315276622772216797e+00 -2.712870597839355469e+01 -6.286991238594055176e-01 3.574358701705932617e+00 8.836978673934936523e-01 1.179569602012634277e+00
3.144000000000000000e+03 4.210210037231445312e+01 -1.291651439666748047e+01 1.006650447845458984e+00 8.454557418823242188e+00 2.838362455368041992e+00 8.970774412155151367e-01
3.145000000000000000e+03 1.971781730651855469e+01 -4.821094036102294922e+00 2.894411325454711914e+00 4.613076210021972656e+00 2.252246379852294922e+00 -2.630195379257202148e+00
3.146000000000000000e+03 1.179539203643798828e+01 2.124692916870117188e+01 1.191403642296791077e-01 4.424973487854003906e+00 1.363234043121337891e+00 -1.363333582878112793e+00
3.147000000000000000e+03 1.444667148590087891e+01 7.316307544708251953e+00 4.007784724235534668e-01 6.956123828887939453e+00 2.207070827484130859e+00 -1.240583181381225586e+00
3.148000000000000000e+03 5.427455425262451172e+00 -2.534144020080566406e+01 -2.054704278707504272e-01 2.944334745407104492e+00 8.216593265533447266e-01 1.490009784698486328e+00
3.149000000000000000e+03 6.129653930664062500e+00 -2.603841018676757812e+01 -3.779676556587219238e-01 3.282818794250488281e+00 8.714553117752075195e-01 1.433267474174499512e+00
3.150000000000000000e+03 1.096429157257080078e+01 -2.961559867858886719e+01 -1.045587539672851562e+00 3.210940599441528320e+00 6.496058702468872070e-01 2.724972069263458252e-01
3.151000000000000000e+03 3.266643524169921875e+01 2.473445510864257812e+01 -6.475878953933715820e-01 9.915687441825866699e-01 1.031942516565322876e-01 -6.012639999389648438e-01
3.152000000000000000e+03 3.984698104858398438e+01 -1.461915969848632812e+01 1.831564307212829590e+00 7.956946849822998047e+00 2.936553239822387695e+00 1.879947781562805176e-01
3.153000000000000000e+03 7.558985137939453125e+01 2.077337074279785156e+01 5.796209350228309631e-02 8.110704421997070312e+00 2.450599908828735352e+00 1.121450543403625488e+00
3.154000000000000000e+03 7.347057342529296875e+01 -3.049196434020996094e+01 -5.794229507446289062e-01 7.444407939910888672e+00 2.059495449066162109e+00 -3.965573012828826904e-01
3.155000000000000000e+03 6.093514633178710938e+01 -3.919058561325073242e+00 7.536902427673339844e-01 1.098223924636840820e+00 5.555742383003234863e-01 -2.155501991510391235e-01
3.156000000000000000e+03 7.331971740722656250e+01 2.873805236816406250e+01 -5.718817114830017090e-01 7.657737255096435547e+00 2.125756740570068359e+00 -1.257643550634384155e-01
3.157000000000000000e+03 4.560365676879882812e+01 2.711608314514160156e+01 -1.179590940475463867e+00 4.670697212219238281e+00 1.047331929206848145e+00 1.247898768633604050e-02
3.158000000000000000e+03 5.495244026184082031e+00 -1.351791477203369141e+01 4.184890091419219971e-01 1.983370184898376465e+00 7.205577492713928223e-01 -1.314377784729003906e-01
3.159000000000000000e+03 6.898364067077636719e+00 -1.368980026245117188e+01 5.249115228652954102e-01 3.288854122161865234e+00 1.144129633903503418e+00 -3.404250368475914001e-02
3.160000000000000000e+03 7.416786956787109375e+01 6.935324192047119141e+00 -1.413142085075378418e-01 7.722897529602050781e+00 2.274475097656250000e+00 -5.994659662246704102e-01
3.161000000000000000e+03 7.485064697265625000e+01 -1.235225009918212891e+01 1.083566993474960327e-01 7.662161350250244141e+00 2.331155538558959961e+00 1.003730535507202148e+00
3.162000000000000000e+03 6.169262695312500000e+01 -2.767193317413330078e+00 7.393171787261962891e-01 1.501555323600769043e+00 6.722617745399475098e-01 -1.031597778201103210e-01
3.163000000000000000e+03 6.597467041015625000e+01 -5.663892745971679688e+00 -2.326249182224273682e-01 4.145771026611328125e+00 1.173943877220153809e+00 -6.906987428665161133e-01
3.164000000000000000e+03 7.413877105712890625e+01 2.828281211853027344e+01 -5.040773153305053711e-01 7.984307765960693359e+00 2.244069099426269531e+00 1.093532666563987732e-01
3.165000000000000000e+03 7.124431610107421875e+01 -2.673463249206542969e+01 -7.947305440902709961e-01 7.881344795227050781e+00 2.125984191894531250e+00 -4.462328851222991943e-01
3.166000000000000000e+03 7.437715148925781250e+01 -2.998211860656738281e+01 -4.620169401168823242e-01 7.671041011810302734e+00 2.162707328796386719e+00 -5.545142889022827148e-01
3.167000000000000000e+03 1.569183826446533203e+01 3.858262777328491211e+00 -1.182067513465881348e+00 9.083873748779296875e+00 2.370541810989379883e+00 -2.271579265594482422e+00
3.168000000000000000e+03 7.295617675781250000e+01 -2.950277137756347656e+01 -6.502977013587951660e-01 7.561048507690429688e+00 2.073225259780883789e+00 -4.542987644672393799e-01
3.169000000000000000e+03 4.142921447753906250e+01 -1.425364208221435547e+01 1.542452931404113770e+00 8.431305885314941406e+00 2.992127656936645508e+00 6.113834977149963379e-01
3.170000000000000000e+03 1.181015300750732422e+01 -5.367239952087402344e+00 1.299915313720703125e+00 2.332497358322143555e+00 1.089723825454711914e+00 3.055512905120849609e+00
3.171000000000000000e+03 1.072331809997558594e+01 1.656243324279785156e+01 9.933193325996398926e-01 3.967746973037719727e+00 1.488319873809814453e+00 -1.124826431274414062e+00
3.172000000000000000e+03 7.618490695953369141e+00 2.553837585449218750e+01 -2.979246675968170166e-01 2.719262123107910156e+00 7.264012098312377930e-01 -1.197203516960144043e+00
3.173000000000000000e+03 7.401950836181640625e+01 4.143438339233398438e+00 -3.332212567329406738e-01 7.589027404785156250e+00 2.176741838455200195e+00 -3.892484605312347412e-01
3.174000000000000000e+03 6.413218688964843750e+01 -3.359699487686157227e+00 2.867185175418853760e-01 2.880220174789428711e+00 9.500815868377685547e-01 -2.326550930738449097e-01
3.175000000000000000e+03 7.491297149658203125e+01 2.754690742492675781e+01 -4.656828045845031738e-01 8.193031311035156250e+00 2.318204402923583984e+00 2.143220156431198120e-01
3.176000000000000000e+03 6.942728996276855469e+00 1.937333679199218750e+01 3.322334587574005127e-01 2.080991744995117188e+00 7.239675521850585938e-01 -1.218146562576293945e+00
3.177000000000000000e+03 6.326511859893798828e+00 2.561517333984375000e+01 -2.063835114240646362e-01 2.211574316024780273e+00 6.015571951866149902e-01 -1.101949334144592285e+00
3.178000000000000000e+03 1.280385684967041016e+01 5.886105537414550781e+00 4.243749976158142090e-01 4.744435787200927734e+00 1.550643205642700195e+00 -1.387057781219482422e+00
3.179000000000000000e+03 9.912883758544921875e+00 1.690061378479003906e+01 9.398992657661437988e-01 3.498087167739868164e+00 1.331395983695983887e+00 -1.173220992088317871e+00
3.180000000000000000e+03 1.240940093994140625e+01 6.233887195587158203e+00 5.925992131233215332e-01 4.355322837829589844e+00 1.484376668930053711e+00 -1.176908612251281738e+00
3.181000000000000000e+03 1.420379543304443359e+01 5.533317089080810547e+00 -1.059903055429458618e-01 6.590564250946044922e+00 1.945372104644775391e+00 -1.731771945953369141e+00
3.182000000000000000e+03 6.951180267333984375e+01 1.686982661485671997e-01 -4.357087016105651855e-01 6.005557060241699219e+00 1.670954465866088867e+00 1.352718472480773926e-01
3.183000000000000000e+03 5.139434814453125000e+00 1.540644550323486328e+01 3.863055408000946045e-01 6.372677087783813477e-01 3.070719838142395020e-01 -6.222467422485351562e-01
3.184000000000000000e+03 1.126765441894531250e+01 6.444836139678955078e+00 7.675508260726928711e-01 3.186935424804687500e+00 1.186345934867858887e+00 -7.301259040832519531e-01
3.185000000000000000e+03 6.714323043823242188e+00 8.290013313293457031e+00 6.932210326194763184e-01 7.803848385810852051e-01 4.420817494392395020e-01 2.299501001834869385e-01
3.186000000000000000e+03 7.193756866455078125e+01 -6.904175877571105957e-01 -4.968566298484802246e-01 6.874028682708740234e+00 1.913151621818542480e+00 -3.257403895258903503e-02
3.187000000000000000e+03 9.142223358154296875e+00 1.145080280303955078e+01 1.108192563056945801e+00 2.597629308700561523e+00 1.111746549606323242e+00 -4.911890625953674316e-01
3.188000000000000000e+03 1.028412437438964844e+01 1.131710338592529297e+01 1.183593630790710449e+00 3.341235637664794922e+00 1.357448816299438477e+00 -5.773950815200805664e-01
3.189000000000000000e+03 7.158656311035156250e+01 9.750066399574279785e-01 -4.867564439773559570e-01 6.850224971771240234e+00 1.909040570259094238e+00 -6.993763893842697144e-02
3.190000000000000000e+03 8.583394050598144531e+00 1.077263927459716797e+01 1.002583265304565430e+00 2.160772562026977539e+00 9.490067362785339355e-01 -3.362277448177337646e-01
3.191000000000000000e+03 9.971352577209472656e+00 1.025646209716796875e+01 1.106090188026428223e+00 3.004350423812866211e+00 1.233132243156433105e+00 -4.635626077651977539e-01
3.192000000000000000e+03 9.398706436157226562e+00 9.947958946228027344e+00 1.057534694671630859e+00 2.596157789230346680e+00 1.096107721328735352e+00 -3.907087445259094238e-01
3.193000000000000000e+03 1.468003273010253906e+01 -6.509395122528076172e+00 3.535594344139099121e-01 4.919774055480957031e+00 1.582000136375427246e+00 3.707192420959472656e+00
3.194000000000000000e+03 1.209755897521972656e+01 6.678544521331787109e+00 7.021556496620178223e-01 4.124427318572998047e+00 1.447974801063537598e+00 -1.007107257843017578e+00
3.195000000000000000e+03 7.332175445556640625e+01 1.402248620986938477e+00 -4.180924892425537109e-01 7.286884784698486328e+00 2.060637712478637695e+00 -1.887506097555160522e-01
3.196000000000000000e+03 8.128593444824218750e+00 9.987673759460449219e+00 8.880020380020141602e-01 1.699233889579772949e+00 7.761707901954650879e-01 -1.524206995964050293e-01
3.197000000000000000e+03 9.024669647216796875e+00 9.160296440124511719e+00 9.820181131362915039e-01 2.105961084365844727e+00 9.263937473297119141e-01 -2.246411740779876709e-01
3.198000000000000000e+03 9.573964118957519531e+00 9.404078483581542969e+00 1.056826710700988770e+00 2.635463953018188477e+00 1.107687234878540039e+00 -3.674686253070831299e-01
3.199000000000000000e+03 8.831219673156738281e+00 9.783276557922363281e+00 9.671465158462524414e-01 2.084097385406494141e+00 9.153731465339660645e-01 -2.557959854602813721e-01
3.200000000000000000e+03 1.580369091033935547e+01 -1.067448973655700684e+00 3.296023941040039062e+01 2.498517513275146484e+00 1.063762664794921875e+01 5.514930725097656250e+00
3.201000000000000000e+03 1.580414676666259766e+01 -1.086911916732788086e+00 3.449058151245117188e+01 9.475665092468261719e+00 1.318987369537353516e+01 1.682202339172363281e+01
3.202000000000000000e+03 1.580838394165039062e+01 -1.105913519859313965e+00 3.409397506713867188e+01 1.836835098266601562e+01 1.573869800567626953e+01 2.208408546447753906e+01
3.203000000000000000e+03 1.581623840332031250e+01 -1.123726725578308105e+00 3.167206382751464844e+01 2.849899864196777344e+01 1.805131912231445312e+01 2.538747978210449219e+01
3.204000000000000000e+03 1.582741069793701172e+01 -1.139670014381408691e+00 2.863115882873535156e+01 3.865785217285156250e+01 2.018670272827148438e+01 2.604471969604492188e+01
3.205000000000000000e+03 1.584147262573242188e+01 -1.153133153915405273e+00 2.494547462463378906e+01 4.826570510864257812e+01 2.196335411071777344e+01 2.437740516662597656e+01
3.206000000000000000e+03 1.585788726806640625e+01 -1.163601040840148926e+00 2.192242622375488281e+01 5.627525329589843750e+01 2.345930480957031250e+01 2.053534698486328125e+01
3.207000000000000000e+03 1.587602519989013672e+01 -1.170673131942749023e+00 1.983257675170898438e+01 6.195611572265625000e+01 2.453660774230957031e+01 1.505638885498046875e+01
3.208000000000000000e+03 1.589519405364990234e+01 -1.174078583717346191e+00 1.951325607299804688e+01 6.484934234619140625e+01 2.530877876281738281e+01 8.904401779174804688e+00
3.209000000000000000e+03 1.591465759277343750e+01 -1.173687219619750977e+00 2.118240547180175781e+01 6.510791778564453125e+01 2.588709640502929688e+01 2.702261447906494141e+00
3.210000000000000000e+03 1.593367385864257812e+01 -1.169514060020446777e+00 2.410350227355957031e+01 6.284763336181640625e+01 2.608534049987792969e+01 -2.493195056915283203e+00
3.211000000000000000e+03 1.595151329040527344e+01 -1.161718845367431641e+00 2.772955894470214844e+01 5.889455795288085938e+01 2.598723602294921875e+01 -6.056180477142333984e+00
3.212000000000000000e+03 1.596749305725097656e+01 -1.150599718093872070e+00 3.303982543945312500e+01 5.471106338500976562e+01 2.632526588439941406e+01 -7.561734199523925781e+00
3.213000000000000000e+03 1.598100280761718750e+01 -1.136582136154174805e+00 3.678850555419921875e+01 4.933157730102539062e+01 2.583602523803710938e+01 -7.714984893798828125e+00
3.214000000000000000e+03 1.599152565002441406e+01 -1.120202779769897461e+00 4.063914489746093750e+01 4.574546051025390625e+01 2.591538047790527344e+01 -5.957102298736572266e+00
3.215000000000000000e+03 1.599865818023681641e+01 -1.102088093757629395e+00 4.327965927124023438e+01 4.307853317260742188e+01 2.590745735168457031e+01 -3.120495080947875977e+00
3.216000000000000000e+03 1.600212860107421875e+01 -1.082931518554687500e+00 4.461111450195312500e+01 4.136424255371093750e+01 2.579260635375976562e+01 7.177832126617431641e-01
3.217000000000000000e+03 1.600180053710937500e+01 -1.063466191291809082e+00 4.466748428344726562e+01 4.189490890502929688e+01 2.596871757507324219e+01 4.404848098754882812e+00
3.218000000000000000e+03 1.599769115447998047e+01 -1.044436693191528320e+00 4.291110992431640625e+01 4.378707122802734375e+01 2.600945472717285156e+01 8.381297111511230469e+00
3.219000000000000000e+03 1.598995590209960938e+01 -1.026571512222290039e+00 4.002482223510742188e+01 4.728894042968750000e+01 2.619412994384765625e+01 1.122237110137939453e+01
3.220000000000000000e+03 1.597888946533203125e+01 -1.010554075241088867e+00 3.542193222045898438e+01 5.206090164184570312e+01 2.624485015869140625e+01 1.297842884063720703e+01
3.221000000000000000e+03 1.596491718292236328e+01 -9.969974756240844727e-01 3.025551795959472656e+01 5.718236160278320312e+01 2.623136329650878906e+01 1.286009693145751953e+01
3.222000000000000000e+03 1.594857311248779297e+01 -9.864204525947570801e-01 2.461822891235351562e+01 6.218249511718750000e+01 2.604021644592285156e+01 1.066232490539550781e+01
3.223000000000000000e+03 1.593048286437988281e+01 -9.792276620864868164e-01 1.963214111328125000e+01 6.595413970947265625e+01 2.567588424682617188e+01 6.480058193206787109e+00
3.224000000000000000e+03 1.591133785247802734e+01 -9.756944775581359863e-01 1.561636924743652344e+01 6.758216857910156250e+01 2.495956230163574219e+01 7.067668437957763672e-01
3.225000000000000000e+03 1.589187145233154297e+01 -9.759560227394104004e-01 1.347546100616455078e+01 6.659542083740234375e+01 2.402126502990722656e+01 -5.945543289184570312e+00
3.226000000000000000e+03 1.587282848358154297e+01 -9.800022840499877930e-01 1.310445976257324219e+01 6.263598632812500000e+01 2.272213363647460938e+01 -1.250737380981445312e+01
3.227000000000000000e+03 1.585493755340576172e+01 -9.876784682273864746e-01 1.444562053680419922e+01 5.575039672851562500e+01 2.105880546569824219e+01 -1.822426795959472656e+01
3.228000000000000000e+03 1.583888339996337891e+01 -9.986908435821533203e-01 1.701160812377929688e+01 4.686260986328125000e+01 1.916226577758789062e+01 -2.202995109558105469e+01
3.229000000000000000e+03 1.582528018951416016e+01 -1.012617945671081543e+00 2.064862823486328125e+01 3.576687622070312500e+01 1.692465019226074219e+01 -2.362376022338867188e+01
3.230000000000000000e+03 1.581464862823486328e+01 -1.028926849365234375e+00 2.394539070129394531e+01 2.438189888000488281e+01 1.449818706512451172e+01 -2.247745704650878906e+01
3.231000000000000000e+03 1.580739593505859375e+01 -1.046993494033813477e+00 2.960378265380859375e+01 1.031540203094482422e+01 1.197575569152832031e+01 -1.537179183959960938e+01
