# el_label, x, y, sXX, sYY, sZZ, sXY
1.000000000000000000e+00 4.849587249755859375e+01 2.797785282135009766e+00 -5.060484400019049644e-04 1.612542400835081935e-04 -1.034382657962851226e-04 -1.225331943714991212e-04
2.000000000000000000e+00 4.892214584350585938e+01 2.033759832382202148e+00 1.537173811811953783e-04 8.267832890851423144e-05 7.091871520970016718e-05 6.240279617486521602e-05
3.000000000000000000e+00 4.783546066284179688e+01 2.654093742370605469e+00 -3.514351265039294958e-04 -1.076243235729634762e-03 -4.283035232219845057e-04 1.546154817333444953e-05
4.000000000000000000e+00 4.722854232788085938e+01 2.522307157516479492e+00 -8.759448537603020668e-04 9.256951743736863136e-04 1.492509272793540731e-05 -8.367942791664972901e-05
5.000000000000000000e+00 4.727311325073242188e+01 2.026992321014404297e+00 2.488091122359037399e-04 -7.046062091831117868e-05 5.350454739527776837e-05 -2.538455883041024208e-04
6.000000000000000000e+00 4.810872650146484375e+01 2.023794889450073242e+00 1.418635656591504812e-04 -1.226065651280805469e-04 5.777103524451376870e-06 8.884611452231183648e-05
7.000000000000000000e+00 4.729270935058593750e+01 3.012445688247680664e+00 1.939773210324347019e-03 6.790449842810630798e-04 7.856454467400908470e-04 4.450174164958298206e-04
8.000000000000000000e+00 4.573234176635742188e+01 2.174080610275268555e+00 2.425046113785356283e-04 -3.224774263799190521e-04 -2.399184450041502714e-05 1.328681100858375430e-04
9.000000000000000000e+00 4.651468276977539062e+01 2.578076601028442383e+00 1.081646070815622807e-03 -3.191312425769865513e-04 2.287544484715908766e-04 2.042106207227334380e-04
1.000000000000000000e+01 4.504420852661132812e+01 2.750800132751464844e+00 8.519989205524325371e-04 -1.778369769454002380e-04 2.022485714405775070e-04 4.086047702003270388e-04
1.100000000000000000e+01 4.655563354492187500e+01 3.070483207702636719e+00 -1.159268314950168133e-03 -2.718663308769464493e-04 -4.293403762858361006e-04 -3.423180023673921824e-04
1.200000000000000000e+01 4.436678314208984375e+01 3.329679012298583984e+00 1.118172542192041874e-03 -3.058990987483412027e-04 2.436820359434932470e-04 -3.914702028851024806e-05
1.300000000000000000e+01 4.499063491821289062e+01 2.261848688125610352e+00 -3.105226205661892891e-04 7.470558921340852976e-05 -7.074511086102575064e-05 -2.624599146656692028e-04
1.400000000000000000e+01 4.424848937988281250e+01 2.350222826004028320e+00 1.892319996841251850e-04 2.829307923093438148e-04 1.416488375980407000e-04 3.649776917882263660e-04
1.500000000000000000e+01 4.430780792236328125e+01 2.839294672012329102e+00 -5.711638368666172028e-04 3.356107918079942465e-04 -7.066590478643774986e-05 -5.530267953872680664e-04
1.600000000000000000e+01 4.647332763671875000e+01 2.086724758148193359e+00 -4.041799693368375301e-04 3.279144584666937590e-04 -2.287964707647915930e-05 1.066085533238947392e-04
1.700000000000000000e+01 4.577987289428710938e+01 2.663899183273315430e+00 -6.888521602377295494e-04 8.379213250009343028e-05 -1.815180148696526885e-04 -3.333993081469088793e-04
1.800000000000000000e+01 4.582620620727539062e+01 3.156108379364013672e+00 1.440646592527627945e-03 5.996461550239473581e-05 4.501833755057305098e-04 3.592980792745947838e-04
1.900000000000000000e+01 4.509663772583007812e+01 3.242400169372558594e+00 -5.724364309571683407e-04 -4.069064016221091151e-05 -1.839381293393671513e-04 -2.921131963375955820e-04
2.000000000000000000e+01 4.357517623901367188e+01 2.926583766937255859e+00 6.730068707838654518e-04 -5.480209365487098694e-04 3.749577444978058338e-05 1.916972105391323566e-04
2.100000000000000000e+01 4.210865783691406250e+01 3.517240524291992188e+00 2.206035278504714370e-04 1.537882781121879816e-04 1.123175461543723941e-04 -3.088619851041585207e-04
2.200000000000000000e+01 4.355050277709960938e+01 3.427353143692016602e+00 -4.787469879374839365e-05 4.758969298563897610e-04 1.284066674998030066e-04 -4.486427496885880828e-05
2.300000000000000000e+01 4.228748703002929688e+01 2.746337413787841797e+00 -7.133419421734288335e-05 -1.062556475517340004e-04 -5.327695180312730372e-05 1.175575162051245570e-04
2.400000000000000000e+01 4.347160720825195312e+01 2.450020074844360352e+00 -8.109731134027242661e-04 -5.371972220018506050e-04 -4.044511006213724613e-04 -4.962055245414376259e-04
2.500000000000000000e+01 4.268299865722656250e+01 3.494009971618652344e+00 -1.456183963455259800e-04 -2.677462180145084858e-04 -1.240093843080103397e-04 4.248548430041410029e-05
2.600000000000000000e+01 4.293809127807617188e+01 2.837639093399047852e+00 6.344092544168233871e-04 7.595251081511378288e-04 4.181803087703883648e-04 2.881948312278836966e-04
2.700000000000000000e+01 4.271473693847656250e+01 1.061951160430908203e+00 -2.702842950820922852e-01 -5.994226410984992981e-02 -9.906797111034393311e-02 -1.952836066484451294e-01
2.800000000000000000e+01 4.264341354370117188e+01 1.619309663772583008e+00 -9.472696483135223389e-02 -3.090693801641464233e-02 -3.769017010927200317e-02 -6.473419070243835449e-02
2.900000000000000000e+01 4.216484069824218750e+01 1.138419866561889648e+00 -9.601288288831710815e-02 -1.015568748116493225e-01 -5.927092954516410828e-02 -1.287245750427246094e-01
3.000000000000000000e+01 4.337281036376953125e+01 1.785883188247680664e+00 -1.900723129510879517e-01 8.654268458485603333e-04 -5.676206201314926147e-02 -6.142708286643028259e-02
3.100000000000000000e+01 4.216044998168945312e+01 1.951311111450195312e+00 -1.606212183833122253e-02 -4.696576390415430069e-03 -6.227609235793352127e-03 -8.663803339004516602e-03
3.200000000000000000e+01 4.178366470336914062e+01 1.255512118339538574e+00 2.588554751127958298e-03 -3.773768246173858643e-02 -1.054473873227834702e-02 -2.368305437266826630e-02
3.300000000000000000e+01 4.336007308959960938e+01 1.040874958038330078e+00 -4.160276949405670166e-01 -1.873232796788215637e-02 -1.304280012845993042e-01 -2.318014502525329590e-01
3.400000000000000000e+01 4.559793090820312500e+01 7.826830744743347168e-01 -8.628582358360290527e-01 9.028906375169754028e-02 -2.317707538604736328e-01 -1.484371870756149292e-01
3.500000000000000000e+01 4.566867446899414062e+01 1.519477009773254395e+00 -8.376200199127197266e-01 2.148756012320518494e-02 -2.448397427797317505e-01 5.414093029685318470e-04
3.600000000000000000e+01 4.641819000244140625e+01 1.431636214256286621e+00 -1.018117189407348633e+00 7.119369227439165115e-03 -3.032993674278259277e-01 3.175342828035354614e-02
3.700000000000000000e+01 4.491914367675781250e+01 1.608290433883666992e+00 -6.337255835533142090e-01 1.896417513489723206e-02 -1.844284236431121826e-01 -3.630163893103599548e-02
3.800000000000000000e+01 4.416964721679687500e+01 1.698033809661865234e+00 -4.164035618305206299e-01 1.579704321920871735e-02 -1.201819553971290588e-01 -6.036100536584854126e-02
3.900000000000000000e+01 4.408101654052734375e+01 9.633592367172241211e-01 -5.671936869621276855e-01 4.711869731545448303e-02 -1.560224890708923340e-01 -2.398612797260284424e-01
4.000000000000000000e+01 4.635638427734375000e+01 6.937649250030517578e-01 -9.233667254447937012e-01 7.458312064409255981e-02 -2.546350657939910889e-01 -7.203628867864608765e-02
4.100000000000000000e+01 4.483945465087890625e+01 8.725561499595642090e-01 -7.339136004447937012e-01 7.992327213287353516e-02 -1.961971074342727661e-01 -2.077698409557342529e-01
4.200000000000000000e+01 1.761911964416503906e+01 -1.256168460845947266e+01 -4.339034855365753174e-01 3.447304293513298035e-02 -1.198291331529617310e-01 5.740754306316375732e-02
4.300000000000000000e+01 1.830917930603027344e+01 -1.293450450897216797e+01 -1.504415124654769897e-01 2.436634711921215057e-02 -3.782254830002784729e-02 -3.581164032220840454e-02
4.400000000000000000e+01 1.969950866699218750e+01 -1.364719200134277344e+01 1.062793880701065063e-01 4.252593591809272766e-02 4.464159905910491943e-02 -1.000246182084083557e-01
4.500000000000000000e+01 2.143803977966308594e+01 -1.342502403259277344e+01 1.719371676445007324e-01 5.620753392577171326e-02 6.844341009855270386e-02 -1.710853278636932373e-01
4.600000000000000000e+01 2.348156166076660156e+01 -1.459345722198486328e+01 5.900012254714965820e-01 1.567238010466098785e-02 1.817020773887634277e-01 -1.178379058837890625e-01
4.700000000000000000e+01 2.412870597839355469e+01 -3.217943429946899414e+00 -4.900462925434112549e-01 1.015054136514663696e-01 -1.165622621774673462e-01 4.237194359302520752e-02
4.800000000000000000e+01 2.157789802551269531e+01 -4.117772102355957031e+00 -4.054780304431915283e-01 7.770581543445587158e-02 -9.833166748285293579e-02 -1.669378876686096191e-01
4.900000000000000000e+01 2.075638580322265625e+01 -3.402940988540649414e+00 -3.160600662231445312e-01 3.290541470050811768e-02 -8.494639396667480469e-02 -1.569807231426239014e-01
5.000000000000000000e+01 1.755759239196777344e+01 -3.170798540115356445e+00 -6.772473454475402832e-02 2.070048265159130096e-02 -1.410727482289075851e-02 -1.809901446104049683e-01
5.100000000000000000e+01 1.671707344055175781e+01 -3.743675708770751953e+00 -6.645131111145019531e-02 8.761871722526848316e-04 -1.967253722250461578e-02 -2.044242173433303833e-01
5.200000000000000000e+01 1.157804584503173828e+01 -2.168836832046508789e+00 2.114128470420837402e-01 -3.069077804684638977e-02 5.421661958098411560e-02 -1.241875998675823212e-02
5.300000000000000000e+01 1.087034606933593750e+01 -2.047878026962280273e+00 2.160897403955459595e-01 -3.689827769994735718e-02 5.375744029879570007e-02 1.640190952457487583e-03
5.400000000000000000e+01 8.607580184936523438e+00 -1.858356714248657227e+00 1.858220249414443970e-01 -2.577478252351284027e-02 4.801417142152786255e-02 3.830014541745185852e-02
5.500000000000000000e+01 5.332116127014160156e+00 -1.899295926094055176e+00 1.039722263813018799e-01 -1.276524290005909279e-05 3.118783980607986450e-02 7.140386849641799927e-02
5.600000000000000000e+01 1.052143335342407227e+00 -1.074422073364257812e+01 -8.888766169548034668e-03 2.788293957710266113e-01 8.098218590021133423e-02 1.034064218401908875e-02
5.700000000000000000e+01 1.075432062149047852e+00 -1.796105957031250000e+01 -5.055472720414400101e-03 -5.197830870747566223e-02 -1.711013354361057281e-02 -1.080330014228820801e-01
5.800000000000000000e+01 1.121919512748718262e+00 -2.678574752807617188e+01 8.041713386774063110e-03 -7.602385282516479492e-01 -2.256590425968170166e-01 -5.549863725900650024e-02
5.900000000000000000e+01 1.238792419433593750e+00 -3.485916900634765625e+01 3.482185536995530128e-03 -9.042688608169555664e-01 -2.702359855175018311e-01 -1.968667376786470413e-03
6.000000000000000000e+01 1.892050147056579590e+00 -4.096290969848632812e+01 1.105447183363139629e-03 -8.724247217178344727e-01 -2.613957822322845459e-01 -4.789939615875482559e-03
6.100000000000000000e+01 3.842164576053619385e-01 -3.645495986938476562e+01 -1.601601368747651577e-03 -9.839210510253906250e-01 -2.956568002700805664e-01 1.455220510251820087e-03
6.200000000000000000e+01 6.102012634277343750e+00 -3.983788299560546875e+01 -2.361486200243234634e-03 -4.821431040763854980e-01 -1.453513801097869873e-01 6.461353041231632233e-03
6.300000000000000000e+01 8.226937294006347656e+00 -3.597834777832031250e+01 3.783686086535453796e-02 -3.315967917442321777e-01 -8.812797814607620239e-02 -2.255004644393920898e-02
6.400000000000000000e+01 6.055582523345947266e+00 -2.960387611389160156e+01 1.017413139343261719e-01 -4.490481913089752197e-01 -1.041920632123947144e-01 -1.073241308331489563e-01
6.500000000000000000e+01 1.540727996826171875e+01 -2.534462547302246094e+01 4.482170343399047852e-01 4.202181398868560791e-01 2.605305612087249756e-01 -4.316653609275817871e-01
6.600000000000000000e+01 1.167580318450927734e+01 -2.167032051086425781e+01 2.259282022714614868e-01 3.367862850427627563e-02 7.788205146789550781e-02 -2.693214714527130127e-01
6.700000000000000000e+01 1.388597965240478516e+01 -2.589744186401367188e+01 3.748978674411773682e-01 2.832070589065551758e-01 1.974314749240875244e-01 -3.206002712249755859e-01
6.800000000000000000e+01 1.265073204040527344e+01 -2.226342964172363281e+01 2.633377015590667725e-01 4.256040453910827637e-01 2.066825181245803833e-01 -3.138121962547302246e-01
6.900000000000000000e+01 1.197071647644042969e+01 -1.985548591613769531e+01 2.271252125501632690e-02 -2.039445042610168457e-01 -5.436959490180015564e-02 -5.994088202714920044e-02
7.000000000000000000e+01 1.183358287811279297e+01 -1.822280120849609375e+01 -1.328802108764648438e-02 -6.990605592727661133e-01 -2.137045711278915405e-01 -8.863180130720138550e-02
7.100000000000000000e+01 1.193509578704833984e+01 -1.656323051452636719e+01 -1.908093541860580444e-01 -1.288397789001464844e+00 -4.437621533870697021e-01 -3.797460198402404785e-01
7.200000000000000000e+01 1.249415016174316406e+01 -1.395634841918945312e+01 -7.494456171989440918e-01 -9.060419201850891113e-01 -4.966462552547454834e-01 -6.192291975021362305e-01
7.300000000000000000e+01 1.304595088958740234e+01 -1.323012351989746094e+01 -8.752643465995788574e-01 -7.867643833160400391e-01 -4.986086189746856689e-01 -5.844528675079345703e-01
7.400000000000000000e+01 1.306353855133056641e+01 -1.433638954162597656e+01 -8.288992643356323242e-01 -1.124528646469116211e+00 -5.860283970832824707e-01 -8.684221506118774414e-01
7.500000000000000000e+01 3.533631563186645508e-01 -9.135528564453125000e+00 -1.306851278059184551e-03 3.220844864845275879e-01 9.623328596353530884e-02 1.147459633648395538e-02
7.600000000000000000e+01 2.242361450195312500e+01 -1.285968494415283203e+01 1.516211479902267456e-01 8.599714189767837524e-02 7.128548622131347656e-02 -2.743250429630279541e-01
7.700000000000000000e+01 2.894337081909179688e+01 -1.513908290863037109e+01 1.729586839675903320e+00 6.781347095966339111e-02 5.392200946807861328e-01 -2.952612936496734619e-01
7.800000000000000000e+01 3.364975738525390625e+01 -1.605042076110839844e+01 1.564582109451293945e+00 3.853704929351806641e-01 5.849857926368713379e-01 -6.807172894477844238e-01
7.900000000000000000e+01 3.448970031738281250e+01 -1.613281440734863281e+01 1.212372303009033203e+00 1.198841780424118042e-01 3.996769487857818604e-01 -4.235704541206359863e-01
8.000000000000000000e+01 3.654359436035156250e+01 -9.767567634582519531e+00 -2.124694138765335083e-01 -3.414103686809539795e-01 -1.661639362573623657e-01 -1.068740114569664001e-01
8.100000000000000000e+01 3.793761444091796875e+01 -3.596832752227783203e+00 -3.306771755218505859e+00 -5.302114486694335938e-01 -1.151094913482666016e+00 -1.129512310028076172e+00
8.200000000000000000e+01 3.653422164916992188e+01 -4.752566814422607422e+00 -2.490882158279418945e+00 -2.849616706371307373e-01 -8.327531814575195312e-01 -8.027996420860290527e-01
8.300000000000000000e+01 3.411100769042968750e+01 -4.701671600341796875e+00 -2.997601032257080078e+00 -2.974061071872711182e-01 -9.885021448135375977e-01 -8.446073532104492188e-01
8.400000000000000000e+01 3.255717468261718750e+01 -5.029466629028320312e+00 -3.412210941314697266e+00 -1.496471166610717773e-01 -1.068557381629943848e+00 -4.671373367309570312e-01
8.500000000000000000e+01 2.947072982788085938e+01 -5.003844261169433594e+00 -2.527427673339843750e+00 -3.812581002712249756e-01 -8.726057410240173340e-01 6.596506834030151367e-01
8.600000000000000000e+01 2.876168823242187500e+01 -5.082505702972412109e+00 -1.856625318527221680e+00 -3.124688863754272461e-01 -6.507282257080078125e-01 3.957451283931732178e-01
8.700000000000000000e+01 2.693280982971191406e+01 -2.588981866836547852e+00 -2.738597989082336426e-01 -1.304484903812408447e-01 -1.212924793362617493e-01 1.871378123760223389e-01
8.800000000000000000e+01 3.502780914306640625e+01 -1.758917045593261719e+01 3.361757993698120117e-01 1.757567375898361206e-02 1.061254441738128662e-01 -2.090381383895874023e-01
8.900000000000000000e+01 3.633522796630859375e+01 -1.859611892700195312e+01 2.081887125968933105e-01 -3.199592828750610352e-01 -3.353117033839225769e-02 -2.507988512516021729e-01
9.000000000000000000e+01 4.698144149780273438e+01 -2.303159141540527344e+01 4.490543901920318604e-01 3.074989080429077148e+00 1.057213068008422852e+00 -9.289805293083190918e-01
9.100000000000000000e+01 4.615303802490234375e+01 -2.250728416442871094e+01 3.752745687961578369e-01 2.769195079803466797e+00 9.433408975601196289e-01 -5.299171209335327148e-01
9.200000000000000000e+01 4.658663558959960938e+01 -1.732403945922851562e+01 4.216152802109718323e-02 3.124210596084594727e+00 9.499116539955139160e-01 2.409884929656982422e-01
9.300000000000000000e+01 4.797447967529296875e+01 -1.082062435150146484e+01 1.142135143280029297e+00 2.455665588378906250e+00 1.079340219497680664e+00 1.309939026832580566e+00
9.400000000000000000e+01 4.591110229492187500e+01 -1.725040435791015625e+01 1.528731435537338257e-01 2.898973464965820312e+00 9.155539870262145996e-01 3.173514902591705322e-01
9.500000000000000000e+01 3.572748184204101562e+01 -1.891953086853027344e+01 -2.377107366919517517e-02 -7.422416806221008301e-01 -2.298038303852081299e-01 1.473427563905715942e-02
9.600000000000000000e+01 3.573578643798828125e+01 -2.316031265258789062e+01 -1.779399998486042023e-02 -7.628101110458374023e-01 -2.341812252998352051e-01 -1.042601186782121658e-02
9.700000000000000000e+01 3.513137054443359375e+01 -2.551578712463378906e+01 -3.252380713820457458e-02 -3.141796588897705078e-01 -1.040110364556312561e-01 -9.195932745933532715e-02
9.800000000000000000e+01 3.375002670288085938e+01 -2.754953956604003906e+01 4.614358767867088318e-03 -4.892091080546379089e-02 -1.329196617007255554e-02 -1.720338128507137299e-02
9.900000000000000000e+01 3.030154418945312500e+01 -2.988236618041992188e+01 2.162274122238159180e-01 1.847508363425731659e-02 7.041075080633163452e-02 4.003996029496192932e-02
1.000000000000000000e+02 2.782757949829101562e+01 -3.203143692016601562e+01 3.390783667564392090e-01 3.813095018267631531e-02 1.131627932190895081e-01 -5.385772883892059326e-02
1.010000000000000000e+02 2.779542350769042969e+01 -3.029032707214355469e+01 3.236031830310821533e-01 6.599511485546827316e-03 9.906080365180969238e-02 2.720191609114408493e-03
1.020000000000000000e+02 2.697622108459472656e+01 -3.033015441894531250e+01 3.627017736434936523e-01 5.789707414805889130e-03 1.105474457144737244e-01 -8.360747247934341431e-03
1.030000000000000000e+02 2.212681388854980469e+01 -2.977191734313964844e+01 6.245121359825134277e-01 7.872731238603591919e-02 2.109718322753906250e-01 -1.962233334779739380e-01
1.040000000000000000e+02 1.794305419921875000e+01 -2.883441543579101562e+01 5.645645856857299805e-01 3.406505882740020752e-01 2.715645432472229004e-01 -3.390875160694122314e-01
1.050000000000000000e+02 1.907203865051269531e+01 -2.855361557006835938e+01 7.611370086669921875e-01 2.820551395416259766e-01 3.129576444625854492e-01 -4.175902605056762695e-01
1.060000000000000000e+02 1.792834854125976562e+01 -3.964040756225585938e+01 7.811453938484191895e-02 1.582441776990890503e-01 7.090761512517929077e-02 -4.528717696666717529e-02
1.070000000000000000e+02 1.796542739868164062e+01 -3.767804718017578125e+01 1.060549914836883545e-01 1.693557798862457275e-01 8.262322843074798584e-02 -7.153555005788803101e-02
1.080000000000000000e+02 1.818995666503906250e+01 -3.015643882751464844e+01 4.406930804252624512e-01 2.944981455802917480e-01 2.205573767423629761e-01 -2.649950981140136719e-01
1.090000000000000000e+02 1.496165943145751953e+01 -1.274347400665283203e+01 -1.318888187408447266e+00 -4.857719838619232178e-01 -5.413980484008789062e-01 -7.482413649559020996e-01
1.100000000000000000e+02 1.693275642395019531e+01 -1.116773033142089844e+01 -6.633723378181457520e-01 -1.797154396772384644e-01 -2.529263198375701904e-01 -4.431405067443847656e-01
1.110000000000000000e+02 5.302124404907226562e+01 -7.786982536315917969e+00 -1.093980789184570312e+00 -1.647907644510269165e-01 -3.776314556598663330e-01 8.265598416328430176e-01
1.120000000000000000e+02 5.174631881713867188e+01 -6.551022529602050781e-01 -5.782367587089538574e-01 -1.663678586483001709e-01 -2.233813852071762085e-01 5.977315902709960938e-01
1.130000000000000000e+02 4.849172210693359375e+01 -1.580860912799835205e-01 -1.004034757614135742e+00 1.934319436550140381e-01 -2.431808561086654663e-01 2.059912979602813721e-01
1.140000000000000000e+02 4.549687957763671875e+01 1.196805462241172791e-01 -8.980998396873474121e-01 1.653770953416824341e-01 -2.198168188333511353e-01 -2.228748500347137451e-01
1.150000000000000000e+02 5.039662551879882812e+01 -8.521684408187866211e-01 -8.700962662696838379e-01 -4.811984300613403320e-02 -2.754648327827453613e-01 3.929658830165863037e-01
1.160000000000000000e+02 5.637040710449218750e+01 -9.561853408813476562e+00 -2.120786666870117188e+00 -7.830746173858642578e-01 -8.711584210395812988e-01 1.275567412376403809e+00
1.170000000000000000e+02 5.704410552978515625e+01 -9.966615676879882812e+00 -1.871263027191162109e+00 -5.717169046401977539e-01 -7.328939437866210938e-01 1.111361503601074219e+00
1.180000000000000000e+02 5.877712249755859375e+01 -9.926150321960449219e+00 -1.888135790824890137e+00 -2.125995308160781860e-01 -6.302205920219421387e-01 9.211717844009399414e-01
1.190000000000000000e+02 6.325085067749023438e+01 -1.118989849090576172e+01 -2.449238538742065430e+00 -1.821042224764823914e-02 -7.402346730232238770e-01 4.671992659568786621e-01
1.200000000000000000e+02 6.722377014160156250e+01 -1.319674873352050781e+01 -4.934947490692138672e-01 5.302985191345214844e+00 1.442847251892089844e+00 -1.223404288291931152e+00
1.210000000000000000e+02 6.786081695556640625e+01 -1.586078548431396484e+01 1.183546900749206543e+00 1.152981662750244141e+01 3.814008951187133789e+00 -2.507254123687744141e+00
1.220000000000000000e+02 6.807085418701171875e+01 -1.912583923339843750e+01 1.780465990304946899e-01 1.304487514495849609e+01 3.966876506805419922e+00 3.262975811958312988e-01
1.230000000000000000e+02 6.878469848632812500e+01 -1.754050827026367188e+01 7.439304590225219727e-01 1.168065547943115234e+01 3.727375745773315430e+00 -4.247786402702331543e-01
1.240000000000000000e+02 6.804936981201171875e+01 -1.993543434143066406e+01 5.098092555999755859e-01 1.472874736785888672e+01 4.571567058563232422e+00 1.162521481513977051e+00
1.250000000000000000e+02 6.758518218994140625e+01 -2.152530479431152344e+01 3.311676979064941406e+00 1.028610515594482422e+01 4.079334735870361328e+00 4.514943599700927734e+00
1.260000000000000000e+02 6.704508209228515625e+01 -2.216344261169433594e+01 2.440382719039916992e+00 5.381931781768798828e+00 2.346694231033325195e+00 3.752522230148315430e+00
1.270000000000000000e+02 7.885810852050781250e+01 -3.075754547119140625e+01 -1.791532151401042938e-02 8.540103912353515625e+00 2.556656360626220703e+00 -1.275533437728881836e-01
1.280000000000000000e+02 7.963261413574218750e+01 -2.682906913757324219e+01 -1.365728327073156834e-03 8.118392944335937500e+00 2.435108184814453125e+00 -9.207765758037567139e-02
1.290000000000000000e+02 7.891960906982421875e+01 -2.355650520324707031e+01 1.818304136395454407e-02 7.510213375091552734e+00 2.258518934249877930e+00 -2.105340659618377686e-01
1.300000000000000000e+02 7.964668273925781250e+01 -2.041271591186523438e+01 1.239185314625501633e-02 6.990249156951904297e+00 2.100792407989501953e+00 -1.919253729283809662e-02
1.310000000000000000e+02 7.894692993164062500e+01 -1.633298110961914062e+01 3.535188734531402588e-02 7.657908916473388672e+00 2.307978153228759766e+00 2.599512636661529541e-01
1.320000000000000000e+02 7.894786071777343750e+01 -9.116904258728027344e+00 -3.593189269304275513e-02 9.394104957580566406e+00 2.807451963424682617e+00 1.794431209564208984e-01
1.330000000000000000e+02 7.894859313964843750e+01 -2.700649023056030273e+00 -2.777297981083393097e-02 9.504002571105957031e+00 2.842868804931640625e+00 -1.450214087963104248e-01
1.340000000000000000e+02 7.895012664794921875e+01 4.515382766723632812e+00 -1.594120822846889496e-02 7.872007846832275391e+00 2.356820106506347656e+00 -4.255959987640380859e-01
1.350000000000000000e+02 7.894461059570312500e+01 1.171201419830322266e+01 3.950678929686546326e-02 5.097490787506103516e+00 1.541099309921264648e+00 -4.225348830223083496e-01
1.360000000000000000e+02 7.892928314208984375e+01 1.892909431457519531e+01 5.277758091688156128e-02 4.641489505767822266e+00 1.408280134201049805e+00 3.111869394779205322e-01
1.370000000000000000e+02 7.885188293457031250e+01 2.697387504577636719e+01 -4.605061933398246765e-02 7.479481220245361328e+00 2.230029106140136719e+00 3.864258825778961182e-01
1.380000000000000000e+02 7.892057800292968750e+01 3.334420013427734375e+01 -2.289420738816261292e-02 8.472889900207519531e+00 2.534998655319213867e+00 6.855914741754531860e-02
1.390000000000000000e+02 7.899263763427734375e+01 3.797623062133789062e+01 8.879744447767734528e-03 8.588151931762695312e+00 2.579109430313110352e+00 1.193854864686727524e-02
1.400000000000000000e+02 7.960384368896484375e+01 3.650834655761718750e+01 2.072102390229701996e-03 8.773922920227050781e+00 2.632798433303833008e+00 1.468398259021341801e-03
1.410000000000000000e+02 7.484285736083984375e+01 3.764987945556640625e+01 -6.620053946971893311e-02 7.318649291992187500e+00 2.175734519958496094e+00 -3.194865072146058083e-03
1.420000000000000000e+02 7.310433959960937500e+01 3.811189651489257812e+01 -5.941576510667800903e-02 6.645306587219238281e+00 1.975767254829406738e+00 2.878664759919047356e-03
1.430000000000000000e+02 7.376250457763671875e+01 3.041843795776367188e+01 -5.064271688461303711e-01 7.358415603637695312e+00 2.055596590042114258e+00 2.489338964223861694e-01
1.440000000000000000e+02 6.805950927734375000e+01 2.191927146911621094e+01 -4.961964115500450134e-02 9.659483909606933594e+00 2.882959127426147461e+00 -2.033386707305908203e+00
1.450000000000000000e+02 6.689566802978515625e+01 2.059125328063964844e+01 4.142123699188232422e+00 5.434119701385498047e+00 2.872873067855834961e+00 -4.734040737152099609e+00
1.460000000000000000e+02 6.749617004394531250e+01 2.013128471374511719e+01 4.756586551666259766e+00 1.255551338195800781e+01 5.193629741668701172e+00 -6.242443084716796875e+00
1.470000000000000000e+02 6.806968688964843750e+01 1.896835517883300781e+01 3.279525518417358398e+00 2.120870590209960938e+01 7.346469402313232422e+00 -4.184321880340576172e+00
1.480000000000000000e+02 6.882301330566406250e+01 1.817567253112792969e+01 2.216118097305297852e+00 1.694405746459960938e+01 5.748052597045898438e+00 -2.359877109527587891e+00
1.490000000000000000e+02 6.755525207519531250e+01 1.257568550109863281e+01 1.476045846939086914e+00 1.477764225006103516e+01 4.876106739044189453e+00 4.088824272155761719e+00
1.500000000000000000e+02 6.791641235351562500e+01 1.412660121917724609e+01 1.218426465988159180e+00 1.849105834960937500e+01 5.912845611572265625e+00 3.173130273818969727e+00
1.510000000000000000e+02 6.732842254638671875e+01 1.027515602111816406e+01 1.195772886276245117e+00 9.658674240112304688e+00 3.256334066390991211e+00 2.631988048553466797e+00
1.520000000000000000e+02 6.739530181884765625e+01 1.120981025695800781e+01 2.519618272781372070e+00 1.162553596496582031e+01 4.243546485900878906e+00 3.968468427658081055e+00
1.530000000000000000e+02 6.581872558593750000e+01 8.550976753234863281e+00 1.438439607620239258e+00 5.353323936462402344e+00 2.037528991699218750e+00 2.548673391342163086e+00
1.540000000000000000e+02 6.281090164184570312e+01 5.738536357879638672e+00 7.594645619392395020e-01 1.550846457481384277e+00 6.930932998657226562e-01 1.085039854049682617e+00
1.550000000000000000e+02 5.403264999389648438e+01 -2.751353681087493896e-01 1.504718512296676636e-01 1.931623816490173340e-01 1.030902639031410217e-01 4.907912611961364746e-01
1.560000000000000000e+02 5.427202224731445312e+01 -8.478040695190429688e+00 -2.468523025512695312e+00 -4.659800231456756592e-01 -8.803508877754211426e-01 9.712135791778564453e-01
1.570000000000000000e+02 5.568733215332031250e+01 -9.162173271179199219e+00 -2.442227602005004883e+00 -8.133823275566101074e-01 -9.766830205917358398e-01 1.339155554771423340e+00
1.580000000000000000e+02 6.809754180908203125e+01 -2.195321846008300781e+01 1.404425859451293945e+00 1.021692276000976562e+01 3.486404657363891602e+00 2.030694246292114258e+00
1.590000000000000000e+02 6.760147857666015625e+01 -2.257400512695312500e+01 1.163378715515136719e+00 8.169923782348632812e+00 2.799990653991699219e+00 3.040978670120239258e+00
1.600000000000000000e+02 6.265554428100585938e+01 -2.911477661132812500e+01 -2.405319362878799438e-01 1.297073125839233398e+00 3.169623315334320068e-01 5.992593765258789062e-01
1.610000000000000000e+02 5.795058441162109375e+01 -4.113417434692382812e+01 8.388457894325256348e-01 9.541465640068054199e-01 5.378977060317993164e-01 7.994841784238815308e-03
1.620000000000000000e+02 6.487213897705078125e+01 -3.807705688476562500e+01 4.148033857345581055e-01 3.225087404251098633e+00 1.091967225074768066e+00 3.655793666839599609e-01
1.630000000000000000e+02 6.854264831542968750e+01 -3.709201812744140625e+01 8.112669736146926880e-02 4.675881862640380859e+00 1.427102565765380859e+00 2.748970389366149902e-01
1.640000000000000000e+02 7.143066406250000000e+01 -3.838111877441406250e+01 3.605477139353752136e-02 6.131407737731933594e+00 1.850238800048828125e+00 2.223826348781585693e-01
1.650000000000000000e+02 7.959542083740234375e+01 -3.402315521240234375e+01 -6.441295146942138672e-03 8.978197097778320312e+00 2.691526651382446289e+00 -2.089344896376132965e-02
1.660000000000000000e+02 7.381655883789062500e+01 -3.167728424072265625e+01 -2.802810072898864746e-01 7.280504226684570312e+00 2.100066900253295898e+00 -7.074759155511856079e-02
1.670000000000000000e+02 7.358698272705078125e+01 -2.959505653381347656e+01 -3.428893983364105225e-01 7.404196262359619141e+00 2.118391990661621094e+00 -1.675808429718017578e-01
1.680000000000000000e+02 6.604052734375000000e+01 -2.443478965759277344e+01 8.794209361076354980e-01 3.653850317001342773e+00 1.359981298446655273e+00 1.904373407363891602e+00
1.690000000000000000e+02 6.255683517456054688e+01 -2.788243484497070312e+01 -1.848568767309188843e-01 8.638011217117309570e-01 2.036832720041275024e-01 3.916393518447875977e-01
1.700000000000000000e+02 5.920573043823242188e+01 -2.916935348510742188e+01 -1.358978748321533203e+00 -1.673946380615234375e-01 -4.579120278358459473e-01 -3.701572716236114502e-01
1.710000000000000000e+02 5.586719512939453125e+01 -2.953349685668945312e+01 -1.100510120391845703e+00 -2.380202524363994598e-02 -3.372936546802520752e-01 -7.991622388362884521e-02
1.720000000000000000e+02 5.670459747314453125e+01 -2.951163101196289062e+01 -1.283536911010742188e+00 -2.421502582728862762e-02 -3.923255801200866699e-01 -1.216492429375648499e-01
1.730000000000000000e+02 5.502682876586914062e+01 -2.951811408996582031e+01 -8.953063488006591797e-01 -6.817746907472610474e-03 -2.706372439861297607e-01 -4.951371997594833374e-02
1.740000000000000000e+02 5.337019348144531250e+01 -2.917413711547851562e+01 -3.749548494815826416e-01 5.709839612245559692e-02 -9.535693377256393433e-02 -7.503766566514968872e-02
1.750000000000000000e+02 5.157765960693359375e+01 -4.106099700927734375e+01 6.227930784225463867e-01 4.543159008026123047e-01 3.231326937675476074e-01 -7.517729699611663818e-02
1.760000000000000000e+02 5.157411956787109375e+01 -3.571769332885742188e+01 3.506421744823455811e-01 4.412232041358947754e-01 2.375596165657043457e-01 -3.796493411064147949e-01
1.770000000000000000e+02 5.644114685058593750e+01 -3.600779342651367188e+01 6.253884434700012207e-01 4.931425750255584717e-01 3.355593085289001465e-01 -1.676317304372787476e-01
1.780000000000000000e+02 5.857858657836914062e+01 -3.850457763671875000e+01 7.718451023101806641e-01 1.003389596939086914e+00 5.325704216957092285e-01 3.564457222819328308e-02
1.790000000000000000e+02 5.111959457397460938e+01 -2.809134292602539062e+01 3.426644504070281982e-01 4.646826982498168945e-01 2.422041445970535278e-01 -3.859809935092926025e-01
1.800000000000000000e+02 4.493819427490234375e+01 -2.845227432250976562e+01 -1.496686018072068691e-03 1.197192311286926270e+00 3.587087094783782959e-01 -5.691235139966011047e-02
1.810000000000000000e+02 3.317394638061523438e+01 -2.814469718933105469e+01 3.302392736077308655e-02 -1.797074265778064728e-02 4.515955224633216858e-03 4.406062420457601547e-03
1.820000000000000000e+02 3.509386444091796875e+01 -2.850784111022949219e+01 1.377989798784255981e-01 1.275810645893216133e-04 4.137796908617019653e-02 9.564538300037384033e-02
1.830000000000000000e+02 3.415716552734375000e+01 -3.654428100585937500e+01 2.909367382526397705e-01 1.784796416759490967e-01 1.408249139785766602e-01 2.601720206439495087e-02
1.840000000000000000e+02 3.625578689575195312e+01 -3.757108688354492188e+01 2.716280221939086914e-01 2.648805975914001465e-01 1.609525829553604126e-01 4.135293141007423401e-02
1.850000000000000000e+02 2.869248008728027344e+01 -3.578276824951171875e+01 2.986533343791961670e-01 1.106286421418190002e-01 1.227845922112464905e-01 -6.306308507919311523e-02
1.860000000000000000e+02 2.208917808532714844e+01 -3.953661346435546875e+01 1.641130447387695312e-01 1.956675648689270020e-01 1.079341843724250793e-01 -5.919404700398445129e-02
1.870000000000000000e+02 4.879473495483398438e+01 -2.840944862365722656e+01 1.378675699234008789e-01 9.447893500328063965e-01 3.247970640659332275e-01 -4.469169080257415771e-01
1.880000000000000000e+02 4.823124694824218750e+01 -2.518796730041503906e+01 7.016618251800537109e-01 1.305371999740600586e+00 6.021101474761962891e-01 -9.138342142105102539e-01
1.890000000000000000e+02 4.676700210571289062e+01 -1.571129322052001953e+01 1.962830126285552979e-01 3.460221767425537109e+00 1.096951484680175781e+00 6.010723710060119629e-01
1.900000000000000000e+02 4.766016387939453125e+01 -1.256669235229492188e+01 8.734968304634094238e-01 3.489731073379516602e+00 1.308968305587768555e+00 1.565462946891784668e+00
1.910000000000000000e+02 4.850881958007812500e+01 -1.117068004608154297e+01 1.483553647994995117e+00 2.857859373092651367e+00 1.302423954010009766e+00 1.895041227340698242e+00
1.920000000000000000e+02 5.013762664794921875e+01 -9.460373878479003906e+00 1.363130211830139160e+00 1.270310759544372559e+00 7.900322675704956055e-01 1.322138905525207520e+00
1.930000000000000000e+02 5.091982650756835938e+01 -8.287620544433593750e+00 5.857062935829162598e-01 1.041320681571960449e+00 4.881080687046051025e-01 9.183688163757324219e-01
1.940000000000000000e+02 5.090113067626953125e+01 7.615794986486434937e-02 -1.278171658515930176e+00 -3.547044098377227783e-01 -4.898628294467926025e-01 5.135266780853271484e-01
1.950000000000000000e+02 5.454727554321289062e+01 5.162043571472167969e-01 7.373429536819458008e-01 1.783726811408996582e-01 2.747146785259246826e-01 3.519994318485260010e-01
1.960000000000000000e+02 5.296568298339843750e+01 1.720121800899505615e-01 -1.869903206825256348e-01 4.298289120197296143e-02 -4.320222884416580200e-02 1.818584948778152466e-01
1.970000000000000000e+02 5.011892700195312500e+01 -1.939218491315841675e-01 -1.004736065864562988e+00 -1.729827746748924255e-02 -3.066103160381317139e-01 3.096572756767272949e-01
1.980000000000000000e+02 4.398920822143554688e+01 2.918228805065155029e-01 -7.228389978408813477e-01 7.100225985050201416e-02 -1.955510228872299194e-01 -3.685390055179595947e-01
1.990000000000000000e+02 4.039506912231445312e+01 -3.109981060028076172e+00 -2.032038211822509766e+00 -7.251391410827636719e-01 -8.271532058715820312e-01 -9.294843077659606934e-01
2.000000000000000000e+02 4.388741302490234375e+01 -3.273820281028747559e-01 -8.730056881904602051e-01 1.236610263586044312e-01 -2.248034030199050903e-01 -4.523833990097045898e-01
2.010000000000000000e+02 4.667777252197265625e+01 -1.307147121429443359e+01 7.667028307914733887e-01 2.855431556701660156e+00 1.086640357971191406e+00 1.064264893531799316e+00
2.020000000000000000e+02 4.747233963012695312e+01 -1.150823783874511719e+01 1.041762351989746094e+00 2.652672052383422852e+00 1.108330249786376953e+00 1.273308634757995605e+00
2.030000000000000000e+02 4.198821640014648438e+01 6.008365750312805176e-01 -2.026059031486511230e-01 -1.611814200878143311e-01 -1.091362014412879944e-01 -2.239731550216674805e-01
2.040000000000000000e+02 4.474143218994140625e+01 2.072187066078186035e-01 -8.350343108177185059e-01 1.459276825189590454e-01 -2.067319899797439575e-01 -3.099333345890045166e-01
2.050000000000000000e+02 2.744222640991210938e+01 -3.212940216064453125e+00 -4.029394388198852539e-01 -1.937945932149887085e-01 -1.790202111005783081e-01 2.824426591396331787e-01
2.060000000000000000e+02 4.671213912963867188e+01 -3.857796859741210938e+01 3.133678734302520752e-01 5.194144248962402344e-01 2.498346865177154541e-01 -1.484361290931701660e-01
2.070000000000000000e+02 4.290525054931640625e+01 -3.845803070068359375e+01 2.307668626308441162e-01 4.886173307895660400e-01 2.158152610063552856e-01 -2.678753063082695007e-02
2.080000000000000000e+02 7.875630950927734375e+01 -3.709931182861328125e+01 2.599434228613972664e-03 8.729800224304199219e+00 2.619719743728637695e+00 -2.246958762407302856e-02
2.090000000000000000e+02 7.877558898925781250e+01 -3.788138580322265625e+01 -2.537994273006916046e-02 8.739640235900878906e+00 2.614278078079223633e+00 -7.933963090181350708e-03
2.100000000000000000e+02 6.219853210449218750e+01 4.056687164306640625e+01 5.870702862739562988e-01 2.725150108337402344e+00 9.936661124229431152e-01 -1.214203462004661560e-01
2.110000000000000000e+02 6.508325195312500000e+01 3.633456039428710938e+01 2.758758962154388428e-01 3.728350877761840820e+00 1.201268076896667480e+00 -3.466808497905731201e-01
2.120000000000000000e+02 6.532720184326171875e+01 2.862877655029296875e+01 -3.420253098011016846e-01 3.919425487518310547e+00 1.073220014572143555e+00 -1.399787783622741699e+00
2.130000000000000000e+02 6.150285720825195312e+01 2.230298233032226562e+01 -3.219316482543945312e+00 -3.436400368809700012e-02 -9.761041402816772461e-01 2.198361158370971680e-01
2.140000000000000000e+02 6.231397247314453125e+01 2.217499542236328125e+01 -2.611615896224975586e+00 -6.440304964780807495e-02 -8.028056621551513672e-01 2.322302758693695068e-01
2.150000000000000000e+02 6.548959350585937500e+01 2.137850189208984375e+01 1.134227156639099121e+00 9.996154308319091797e-01 6.401527523994445801e-01 -1.414384841918945312e+00
2.160000000000000000e+02 6.622498321533203125e+01 2.102501106262207031e+01 2.896835327148437500e+00 3.371004104614257812e+00 1.880351781845092773e+00 -2.858801364898681641e+00
2.170000000000000000e+02 5.711067581176757812e+01 4.068056869506835938e+01 7.971424460411071777e-01 1.342731356620788574e+00 6.419621109962463379e-01 -3.426199033856391907e-02
2.180000000000000000e+02 5.572553253173828125e+01 3.724802017211914062e+01 7.353928685188293457e-01 9.708245396614074707e-01 5.118651986122131348e-01 -2.364094555377960205e-02
2.190000000000000000e+02 5.561483001708984375e+01 2.862925338745117188e+01 -5.451007280498743057e-03 2.405014932155609131e-01 7.051514834165573120e-02 1.537046879529953003e-01
2.200000000000000000e+02 5.498266983032226562e+01 2.134256553649902344e+01 -2.074708938598632812e+00 -1.608212590217590332e-01 -6.706590056419372559e-01 -5.316904187202453613e-01
2.210000000000000000e+02 5.260535812377929688e+01 2.015093994140625000e+01 -1.045214295387268066e+00 -5.363303422927856445e-01 -4.744633734226226807e-01 -5.638357400894165039e-01
2.220000000000000000e+02 5.415909957885742188e+01 2.110407066345214844e+01 -1.966718077659606934e+00 -3.033330738544464111e-01 -6.810153126716613770e-01 -5.836774706840515137e-01
2.230000000000000000e+02 5.224591064453125000e+01 4.089649200439453125e+01 7.906867265701293945e-01 4.540863037109375000e-01 3.734318912029266357e-01 5.011882260441780090e-02
2.240000000000000000e+02 5.174957275390625000e+01 3.775393295288085938e+01 7.110490202903747559e-01 4.237995743751525879e-01 3.404545783996582031e-01 1.177473366260528564e-01
2.250000000000000000e+02 5.031592559814453125e+01 2.950259590148925781e+01 1.241968479007482529e-02 1.306855529546737671e-01 4.293157160282135010e-02 3.651107847690582275e-01
2.260000000000000000e+02 5.351550292968750000e+01 2.306490898132324219e+01 -1.242590546607971191e+00 -1.387387812137603760e-01 -4.143988192081451416e-01 3.495221957564353943e-02
2.270000000000000000e+02 5.213722229003906250e+01 1.936864662170410156e+01 -4.288822710514068604e-01 -4.460146427154541016e-01 -2.624690830707550049e-01 -4.290949702262878418e-01
2.280000000000000000e+02 4.227831268310546875e+01 4.056055831909179688e+01 4.731841087341308594e-01 -7.561273127794265747e-02 1.192714124917984009e-01 6.912898272275924683e-02
2.290000000000000000e+02 4.558158111572265625e+01 2.461538314819335938e+01 -3.988066613674163818e-01 1.824413388967514038e-01 -6.490959227085113525e-02 2.308299392461776733e-01
2.300000000000000000e+02 3.939526748657226562e+01 1.591261005401611328e+01 -1.916812211275100708e-01 2.303309924900531769e-02 -5.059443786740303040e-02 6.042308732867240906e-02
2.310000000000000000e+02 3.955866241455078125e+01 1.255489349365234375e+01 -2.498897537589073181e-02 -3.889382118359208107e-03 -8.663507178425788879e-03 1.397558953613042831e-02
2.320000000000000000e+02 4.133820343017578125e+01 9.994093894958496094e+00 6.723537575453519821e-03 1.928258314728736877e-02 7.801836356520652771e-03 -1.120350603014230728e-02
2.330000000000000000e+02 4.172866439819335938e+01 9.410170555114746094e+00 5.590326152741909027e-03 1.518505997955799103e-02 6.232616025954484940e-03 -1.008366327732801437e-02
2.340000000000000000e+02 4.238761901855468750e+01 5.906344890594482422e+00 3.205722605343908072e-04 2.052755793556571007e-03 7.119984365999698639e-04 -9.379225666634738445e-04
2.350000000000000000e+02 4.518624114990234375e+01 3.866439819335937500e+00 1.418973319232463837e-03 8.778915071161463857e-05 4.520287329796701670e-04 1.023977984004886821e-05
2.360000000000000000e+02 4.743834304809570312e+01 3.646428823471069336e+00 -1.165305031463503838e-03 -3.632073348853737116e-04 -4.585537244565784931e-04 6.068825314287096262e-05
2.370000000000000000e+02 4.828187942504882812e+01 3.619182825088500977e+00 1.070075435563921928e-03 2.009324380196630955e-04 3.813023504335433245e-04 1.054942040354944766e-04
2.380000000000000000e+02 4.908713531494140625e+01 1.084326648712158203e+01 -3.262315643951296806e-03 2.430098876357078552e-02 6.311601959168910980e-03 7.018428761512041092e-03
2.390000000000000000e+02 5.102680206298828125e+01 1.711798286437988281e+01 -9.074884653091430664e-02 -1.598661541938781738e-01 -7.518449425697326660e-02 -1.065105125308036804e-01
2.400000000000000000e+02 5.073466110229492188e+01 1.634725379943847656e+01 -2.809738554060459137e-02 -8.847128599882125854e-02 -3.497060015797615051e-02 -6.284248828887939453e-02
2.410000000000000000e+02 3.993500900268554688e+01 1.537566280364990234e+01 -1.715015321969985962e-01 2.314501069486141205e-02 -4.450695589184761047e-02 5.164543911814689636e-02
2.420000000000000000e+02 3.718093109130859375e+01 4.054868698120117188e+01 3.187535405158996582e-01 -1.402134150266647339e-01 5.356204509735107422e-02 4.115563631057739258e-02
2.430000000000000000e+02 4.141268539428710938e+01 3.687424850463867188e+01 3.611539304256439209e-01 -6.041449308395385742e-02 9.022183716297149658e-02 1.565833091735839844e-01
2.440000000000000000e+02 3.762487030029296875e+01 2.882349777221679688e+01 -2.978342771530151367e-02 -1.617812551558017731e-02 -1.378846634179353714e-02 1.940317004919052124e-01
2.450000000000000000e+02 3.646166992187500000e+01 2.243511199951171875e+01 -2.464734762907028198e-01 1.126329600811004639e-02 -7.056305557489395142e-02 1.210586875677108765e-01
2.460000000000000000e+02 3.431153106689453125e+01 1.743428802490234375e+01 -2.691296935081481934e-01 -1.282887458801269531e-01 -1.192255318164825439e-01 1.843803375959396362e-01
2.470000000000000000e+02 3.494227981567382812e+01 1.693707656860351562e+01 -2.411084473133087158e-01 -1.248988881707191467e-01 -1.098022013902664185e-01 1.683823019266128540e-01
2.480000000000000000e+02 3.615724945068359375e+01 1.590104007720947266e+01 -1.727484464645385742e-01 -9.468045830726623535e-02 -8.022867143154144287e-02 1.269374638795852661e-01
2.490000000000000000e+02 3.734390640258789062e+01 1.484655952453613281e+01 -1.228209435939788818e-01 -6.600757688283920288e-02 -5.664855614304542542e-02 8.828357607126235962e-02
2.500000000000000000e+02 3.214494705200195312e+01 4.067179107666015625e+01 2.287798374891281128e-01 -1.576352864503860474e-01 2.134336344897747040e-02 3.197382390499114990e-02
2.510000000000000000e+02 3.078904533386230469e+01 3.724022674560546875e+01 1.753908991813659668e-01 -1.464123427867889404e-01 8.693566545844078064e-03 7.688510417938232422e-02
2.520000000000000000e+02 3.151293373107910156e+01 2.982377815246582031e+01 1.720160618424415588e-02 -1.066446155309677124e-01 -2.683290280401706696e-02 1.421468704938888550e-01
2.530000000000000000e+02 2.860786437988281250e+01 2.147815513610839844e+01 -3.021698594093322754e-01 -6.330430507659912109e-02 -1.096422448754310608e-01 1.338219493627548218e-01
2.540000000000000000e+02 2.460603332519531250e+01 2.131992721557617188e+01 -2.252982705831527710e-01 -8.232648484408855438e-03 -7.005927711725234985e-02 5.041456222534179688e-02
2.550000000000000000e+02 2.932778739929199219e+01 2.032711982727050781e+01 -3.995884358882904053e-01 -5.811667069792747498e-02 -1.373115330934524536e-01 1.357840746641159058e-01
2.560000000000000000e+02 3.090037536621093750e+01 1.978878974914550781e+01 -4.206224977970123291e-01 -1.162141487002372742e-01 -1.610509902238845825e-01 1.934289485216140747e-01
2.570000000000000000e+02 2.231149101257324219e+01 4.092340087890625000e+01 9.494479000568389893e-02 -1.204905733466148376e-01 -7.663732860237360001e-03 1.640173047780990601e-02
2.580000000000000000e+02 2.244196128845214844e+01 2.856073188781738281e+01 -3.352682664990425110e-02 -7.068667560815811157e-02 -3.126404806971549988e-02 1.011868342757225037e-01
2.590000000000000000e+02 2.210643005371093750e+01 2.154410362243652344e+01 -1.682768762111663818e-01 -9.248846210539340973e-03 -5.325771495699882507e-02 2.407704945653676987e-03
2.600000000000000000e+02 2.370157051086425781e+01 2.340364074707031250e+01 -1.535036414861679077e-01 -4.154992476105690002e-02 -5.851607024669647217e-02 7.736352086067199707e-02
2.610000000000000000e+02 1.732073974609375000e+01 4.112437057495117188e+01 5.549263209104537964e-02 -9.026130288839340210e-02 -1.043060049414634705e-02 9.368079714477062225e-03
2.620000000000000000e+02 1.898900413513183594e+01 3.656916427612304688e+01 4.971481487154960632e-02 -9.086316078901290894e-02 -1.234450191259384155e-02 4.290974885225296021e-02
2.630000000000000000e+02 2.118243026733398438e+01 3.205028152465820312e+01 2.279631420969963074e-02 -8.578693121671676636e-02 -1.889718510210514069e-02 8.135461062192916870e-02
2.640000000000000000e+02 1.740888404846191406e+01 2.068165779113769531e+01 -2.839544415473937988e-02 4.543713759630918503e-03 -7.155518978834152222e-03 -1.451169140636920929e-03
2.650000000000000000e+02 1.869454574584960938e+01 1.622523689270019531e+01 6.984704523347318172e-04 1.320776995271444321e-02 4.171872045844793320e-03 1.684414921328425407e-03
2.660000000000000000e+02 1.941532897949218750e+01 1.943341636657714844e+01 -2.104072831571102142e-03 1.278160046786069870e-02 3.203258384019136429e-03 3.436241531744599342e-03
2.670000000000000000e+02 1.888507461547851562e+01 1.784295654296875000e+01 2.353743882849812508e-03 2.048777602612972260e-02 6.852455902844667435e-03 4.919263999909162521e-03
2.680000000000000000e+02 1.990821838378906250e+01 2.015303421020507812e+01 -1.401948090642690659e-02 6.191730499267578125e-03 -2.348325215280056000e-03 -2.116981428116559982e-03
2.690000000000000000e+02 1.253027343750000000e+01 4.154864120483398438e+01 2.585921995341777802e-02 -5.848309770226478577e-02 -9.787163697183132172e-03 3.079561283811926842e-03
2.700000000000000000e+02 8.706806182861328125e+00 3.997134399414062500e+01 1.206646207720041275e-02 -4.057542234659194946e-02 -8.552688173949718475e-03 7.293595466762781143e-03
2.710000000000000000e+02 7.137164592742919922e+00 3.121539497375488281e+01 -2.139922929927706718e-03 -2.030363865196704865e-02 -6.733068265020847321e-03 1.659582741558551788e-02
2.720000000000000000e+02 6.654814243316650391e+00 2.218615531921386719e+01 -4.876728635281324387e-03 -3.571645123884081841e-03 -2.534512197598814964e-03 3.200352890416979790e-03
2.730000000000000000e+02 1.398769760131835938e+01 1.592187118530273438e+01 -2.335534372832626104e-05 -3.528660396113991737e-03 -1.065604737959802151e-03 9.260412771254777908e-04
2.740000000000000000e+02 8.646490097045898438e+00 6.556552886962890625e+00 8.137358236126601696e-04 -5.554858944378793240e-04 7.747496420051902533e-05 -2.409124135738238692e-04
2.750000000000000000e+02 5.817135810852050781e+00 1.849169611930847168e+00 3.386866592336446047e-04 -2.459941970300860703e-05 9.422616858500987291e-05 -1.741945889079943299e-04
2.760000000000000000e+02 1.130770492553710938e+01 1.608465075492858887e+00 4.913594457320868969e-04 -3.339931936352513731e-05 1.373880368191748857e-04 9.114023850997909904e-05
2.770000000000000000e+02 1.208048057556152344e+01 1.475797533988952637e+00 4.171438340563327074e-04 -6.544345524162054062e-05 1.055101092788390815e-04 9.822128049563616514e-05
2.780000000000000000e+02 1.433594512939453125e+01 1.074946522712707520e+00 2.718908071983605623e-04 -1.163588694907957688e-05 7.807647489244118333e-05 1.234272349392995238e-04
2.790000000000000000e+02 1.794258117675781250e+01 4.909434914588928223e-01 1.534137663838919252e-05 1.000074644252890721e-05 7.602636742376489565e-06 3.212569572497159243e-05
2.800000000000000000e+02 2.125803947448730469e+01 4.471852302551269531e+00 -1.131257304223254323e-04 -3.160725464113056660e-05 -4.341989551903679967e-05 -1.803677332645747811e-05
2.810000000000000000e+02 2.174608993530273438e+01 9.548048973083496094e-01 -1.697392690402921289e-05 -2.705969382077455521e-05 -1.321008585364324972e-05 -5.509528364200377837e-06
2.820000000000000000e+02 1.702453017234802246e+00 3.700199127197265625e+01 -3.013398600160144269e-05 -2.167787402868270874e-02 -6.512402556836605072e-03 3.433575620874762535e-03
2.830000000000000000e+02 1.269918203353881836e+00 3.875613784790039062e+01 1.112407699110917747e-04 -2.430998533964157104e-02 -7.259623147547245026e-03 1.644555712118744850e-03
2.840000000000000000e+02 2.308315753936767578e+00 3.581756591796875000e+01 2.360254875384271145e-04 -1.991898007690906525e-02 -5.904886405915021896e-03 5.200010724365711212e-03
2.850000000000000000e+02 1.128596544265747070e+00 2.897500038146972656e+01 -5.704832728952169418e-04 -2.294205361977219582e-03 -8.594065438956022263e-04 2.566980198025703430e-03
2.860000000000000000e+02 3.597573935985565186e-01 2.031482505798339844e+01 -2.831690071616321802e-04 8.178575895726680756e-03 2.368621993809938431e-03 -6.729477900080382824e-05
2.870000000000000000e+02 1.068456649780273438e+00 1.533930492401123047e+01 1.803815830498933792e-04 4.230925347656011581e-03 1.323392032645642757e-03 -7.672811043448746204e-04
2.880000000000000000e+02 3.463642299175262451e-01 6.661513805389404297e+00 7.399284368148073554e-05 6.539638270623981953e-04 2.183869946748018265e-04 -9.558619785821065307e-05
2.890000000000000000e+02 1.059312820434570312e+00 8.914129257202148438e+00 1.285355683648958802e-04 1.226329244673252106e-03 4.064594395458698273e-04 -3.930044185835868120e-04
2.900000000000000000e+02 4.972640991210937500e+00 2.553537368774414062e+00 2.730221895035356283e-04 -3.005880898854229599e-06 8.100488776108250022e-05 -2.330571587663143873e-04
2.910000000000000000e+02 1.653004837036132812e+01 2.046111583709716797e+00 9.264616528525948524e-05 2.975007373606786132e-05 3.671886952361091971e-05 1.343319163424894214e-04
2.920000000000000000e+02 1.722500991821289062e+01 5.913035273551940918e-01 8.901926776161417365e-05 2.490120277798268944e-05 3.417614061618223786e-05 5.382902600103989244e-05
2.930000000000000000e+02 1.928289031982421875e+01 8.947272300720214844e+00 -1.549505250295624137e-04 1.080525340512394905e-03 2.776724286377429962e-04 -1.365426724078133702e-04
2.940000000000000000e+02 1.818895339965820312e+01 1.133591365814208984e+01 -2.054130018223077059e-04 2.847336931154131889e-03 7.925771642476320267e-04 5.757166072726249695e-04
2.950000000000000000e+02 1.874041938781738281e+01 1.215952205657958984e+01 -1.964454277185723186e-04 4.011111799627542496e-03 1.144399866461753845e-03 2.694468275876715779e-05
2.960000000000000000e+02 1.876465606689453125e+01 1.703515815734863281e+01 3.942960174754261971e-04 1.667740568518638611e-02 5.121510475873947144e-03 2.857070649042725563e-03
2.970000000000000000e+02 1.385519504547119141e+01 1.677611732482910156e+01 -1.337254187092185020e-03 -3.738360013812780380e-03 -1.522684236988425255e-03 5.542911821976304054e-04
2.980000000000000000e+02 4.235924911499023438e+01 6.746871471405029297e+00 8.318556938320398331e-04 4.028749652206897736e-03 1.458181533962488174e-03 -1.842515892349183559e-03
2.990000000000000000e+02 5.866306304931640625e+01 3.106093406677246094e+00 5.069363117218017578e-01 4.131076633930206299e-01 2.760131955146789551e-01 4.392137229442596436e-01
3.000000000000000000e+02 5.604763412475585938e+01 1.168251395225524902e+00 9.565801620483398438e-01 3.098980784416198730e-01 3.799434602260589600e-01 5.134577155113220215e-01
3.010000000000000000e+02 5.560648345947265625e+01 2.906427979469299316e-01 6.599833369255065918e-01 2.879464328289031982e-01 2.843789160251617432e-01 4.394834339618682861e-01
3.020000000000000000e+02 2.886583137512207031e+01 -5.926200389862060547e+00 -1.866353034973144531e+00 -1.130380332469940186e-01 -5.938172936439514160e-01 -1.223084032535552979e-01
3.030000000000000000e+02 2.889425468444824219e+01 -1.369325542449951172e+01 1.018541932106018066e+00 8.603952825069427490e-02 3.313744366168975830e-01 -4.030609428882598877e-01
3.040000000000000000e+02 3.597556304931640625e+01 -6.379917621612548828e+00 -1.779290080070495605e+00 -3.280544877052307129e-01 -6.322034001350402832e-01 -4.968292713165283203e-01
3.050000000000000000e+02 6.663390350341796875e+01 -1.364872837066650391e+01 7.945246696472167969e-01 3.410144567489624023e+00 1.261400699615478516e+00 -1.737684726715087891e+00
3.060000000000000000e+02 6.773313140869140625e+01 -1.402968120574951172e+01 2.140212804079055786e-01 7.052443504333496094e+00 2.179939508438110352e+00 -1.360380649566650391e+00
3.070000000000000000e+02 7.964945983886718750e+01 -5.978658199310302734e+00 -3.972582519054412842e-03 1.002061557769775391e+01 3.004992723464965820e+00 -8.564369753003120422e-03
3.080000000000000000e+02 7.402349090576171875e+01 -4.659614562988281250e+00 -5.191215276718139648e-01 7.782269001007080078e+00 2.178944349288940430e+00 -2.640652954578399658e-01
3.090000000000000000e+02 7.405677032470703125e+01 -3.825718402862548828e+00 -4.808620810508728027e-01 7.746011257171630859e+00 2.179544687271118164e+00 -3.581226766109466553e-01
3.100000000000000000e+02 6.617990112304687500e+01 5.804172515869140625e+00 1.072912737727165222e-01 5.173425197601318359e+00 1.584214925765991211e+00 1.354537367820739746e+00
3.110000000000000000e+02 7.964973449707031250e+01 1.238652229309082031e+00 -8.005190640687942505e-03 9.050705909729003906e+00 2.712810039520263672e+00 -1.219796836376190186e-01
3.120000000000000000e+02 6.302974700927734375e+01 -1.181014347076416016e+01 -3.254661321640014648e+00 -4.640705138444900513e-02 -9.903205037117004395e-01 5.087650418281555176e-01
3.130000000000000000e+02 6.301076507568359375e+01 -7.417648315429687500e+00 -6.973311305046081543e-01 1.188854575157165527e+00 1.474570333957672119e-01 -5.497461184859275818e-02
3.140000000000000000e+02 6.082543182373046875e+01 -6.710397243499755859e+00 -6.382303237915039062e-01 5.241380929946899414e-01 -3.422766178846359253e-02 3.755870759487152100e-01
3.150000000000000000e+02 2.891667747497558594e+01 -1.441917610168457031e+01 1.334301471710205078e+00 8.463004231452941895e-02 4.256794750690460205e-01 -3.404388129711151123e-01
3.160000000000000000e+02 7.964920043945312500e+01 -1.319614696502685547e+01 -4.618753213435411453e-03 8.522191047668457031e+00 2.555271863937377930e+00 1.153022497892379761e-01
3.170000000000000000e+02 2.503764724731445312e+01 -1.478841400146484375e+01 9.121941924095153809e-01 2.415970154106616974e-02 2.809061706066131592e-01 -1.500672698020935059e-01
3.180000000000000000e+02 3.543454742431640625e+01 -2.475180053710937500e+01 -3.843309357762336731e-02 -4.783610999584197998e-01 -1.550382524728775024e-01 -1.066900864243507385e-01
3.190000000000000000e+02 4.728933715820312500e+01 -2.380293464660644531e+01 6.920777559280395508e-01 2.587614059448242188e+00 9.839075207710266113e-01 -1.127025127410888672e+00
3.200000000000000000e+02 3.975969552993774414e-01 -3.002969360351562500e+01 6.175693124532699585e-04 -9.480493068695068359e-01 -2.842295169830322266e-01 -7.580102887004613876e-03
3.210000000000000000e+02 1.159085750579833984e+01 -2.768733787536621094e+01 2.849190235137939453e-01 -2.024281304329633713e-03 8.486842364072799683e-02 -1.875988095998764038e-01
3.220000000000000000e+02 2.360019493103027344e+01 -3.107063674926757812e+01 4.739320278167724609e-01 8.881675451993942261e-02 1.688246279954910278e-01 -1.441487371921539307e-01
3.230000000000000000e+02 3.619590997695922852e-01 -2.279429244995117188e+01 1.389207085594534874e-03 -5.361527800559997559e-01 -1.604290604591369629e-01 -3.517213836312294006e-02
3.240000000000000000e+02 3.576985299587249756e-01 -1.636326026916503906e+01 -1.901456154882907867e-03 1.464449614286422729e-01 4.336305335164070129e-02 -3.126689791679382324e-02
3.250000000000000000e+02 1.184246635437011719e+01 -1.739588165283203125e+01 -6.694980710744857788e-02 -9.944397211074829102e-01 -3.184168636798858643e-01 -1.802354454994201660e-01
3.260000000000000000e+02 6.293352508544921875e+01 6.796923160552978516e+00 1.017643332481384277e+00 1.264863967895507812e+00 6.847521662712097168e-01 1.122287034988403320e+00
3.270000000000000000e+02 6.679795837402343750e+01 6.344587802886962891e+00 7.060333155095577240e-03 6.073365688323974609e+00 1.824127793312072754e+00 1.318501949310302734e+00
3.280000000000000000e+02 7.964987945556640625e+01 8.453038215637207031e+00 3.713441081345081329e-03 6.092113494873046875e+00 1.828747987747192383e+00 -1.955764889717102051e-01
3.290000000000000000e+02 6.809859466552734375e+01 1.735812377929687500e+01 3.544209003448486328e-01 1.829112052917480469e+01 5.593662261962890625e+00 -3.717700242996215820e-01
3.300000000000000000e+02 7.964777374267578125e+01 1.566672992706298828e+01 2.459271438419818878e-02 3.496364831924438477e+00 1.056287288665771484e+00 -2.157067693769931793e-02
3.310000000000000000e+02 6.757456970214843750e+01 2.306532859802246094e+01 -7.123758792877197266e-01 7.806751251220703125e+00 2.128312587738037109e+00 -2.275004386901855469e+00
3.320000000000000000e+02 7.963530731201171875e+01 2.208469009399414062e+01 9.010201320052146912e-03 5.277487277984619141e+00 1.585949182510375977e+00 1.888303905725479126e-01
3.330000000000000000e+02 7.456605529785156250e+01 3.249126434326171875e+01 -2.761856913566589355e-01 7.385862350463867188e+00 2.132903099060058594e+00 1.588656753301620483e-01
3.340000000000000000e+02 7.960756683349609375e+01 2.932178688049316406e+01 -1.333611458539962769e-02 8.181230545043945312e+00 2.450368404388427734e+00 9.585789591073989868e-02
3.350000000000000000e+02 5.658556365966796875e+01 2.176255226135253906e+01 -2.474220514297485352e+00 -1.223982870578765869e-01 -7.789856791496276855e-01 -4.999798834323883057e-01
3.360000000000000000e+02 5.175439453125000000e+01 2.167176437377929688e+01 -1.122505545616149902e+00 -1.226212084293365479e-02 -3.404302895069122314e-01 -8.185318857431411743e-02
3.370000000000000000e+02 4.687907028198242188e+01 2.551062393188476562e+01 -4.001338779926300049e-01 1.922119408845901489e-01 -6.237658113241195679e-02 2.845380604267120361e-01
3.380000000000000000e+02 3.643698120117187500e+01 2.464132690429687500e+01 -1.775652468204498291e-01 2.214874140918254852e-03 -5.260511115193367004e-02 1.445276588201522827e-01
3.390000000000000000e+02 1.878219413757324219e+01 2.148020172119140625e+01 -5.745507404208183289e-02 1.036102324724197388e-02 -1.412821561098098755e-02 4.166894592344760895e-03
3.400000000000000000e+02 5.709406375885009766e+00 2.500852966308593750e+01 -5.044989753514528275e-03 -5.324764642864465714e-03 -3.110926365479826927e-03 6.535533815622329712e-03
3.410000000000000000e+02 1.089956521987915039e+00 2.337927246093750000e+01 1.176592704723589122e-04 5.680956877768039703e-03 1.739584957249462605e-03 5.127545446157455444e-04
3.420000000000000000e+02 6.283708572387695312e+01 3.049474906921386719e+01 1.231259629130363464e-01 2.429454565048217773e+00 7.657741904258728027e-01 -9.697303771972656250e-01
3.430000000000000000e+02 5.747249603271484375e+01 2.919564056396484375e+01 1.546965837478637695e-01 5.113415718078613281e-01 1.998114436864852905e-01 -4.304027184844017029e-02
3.440000000000000000e+02 4.183453750610351562e+01 3.043213653564453125e+01 5.617684870958328247e-02 2.096880041062831879e-02 2.314369566738605499e-02 2.662041783332824707e-01
3.450000000000000000e+02 3.754685211181640625e+01 3.375465011596679688e+01 1.814128607511520386e-01 -7.908707857131958008e-02 3.069773502647876740e-02 1.796017885208129883e-01
3.460000000000000000e+02 3.131638717651367188e+01 3.300440216064453125e+01 9.478002786636352539e-02 -1.246101930737495422e-01 -8.949049748480319977e-03 1.234366744756698608e-01
3.470000000000000000e+02 1.811637115478515625e+01 3.278512954711914062e+01 1.656075939536094666e-02 -6.870952248573303223e-02 -1.564463041722774506e-02 5.879957601428031921e-02
3.480000000000000000e+02 5.475882053375244141e+00 3.202213287353515625e+01 -9.016629774123430252e-04 -1.841876842081546783e-02 -5.796129349619150162e-03 1.280139479786157608e-02
3.490000000000000000e+02 1.173169970512390137e+00 3.058338165283203125e+01 -4.724813916254788637e-04 -6.103628315031528473e-03 -1.972832949832081795e-03 2.996094292029738426e-03
3.500000000000000000e+02 9.393597602844238281e+00 7.218898773193359375e+00 9.162729256786406040e-04 -7.308280328288674355e-04 5.563347440329380333e-05 -1.232654321938753128e-04
3.510000000000000000e+02 1.070318937301635742e+00 1.614406013488769531e+01 -1.913595333462581038e-04 4.656001459807157516e-03 1.339392620138823986e-03 -6.921348394826054573e-04
3.520000000000000000e+02 4.772218322753906250e+01 1.167416763305664062e+01 -4.208005033433437347e-03 -4.437093157321214676e-03 -2.593529410660266876e-03 -2.139097778126597404e-03
3.530000000000000000e+02 5.997599029541015625e+01 -2.881920814514160156e+01 -1.077099680900573730e+00 -1.438411623239517212e-01 -3.662822544574737549e-01 -3.623568713665008545e-01
3.540000000000000000e+02 1.899923706054687500e+01 -1.330592250823974609e+01 2.972215227782726288e-02 6.625037640333175659e-02 2.879175916314125061e-02 -5.700809881091117859e-02
3.550000000000000000e+02 2.042252922058105469e+01 -1.393512535095214844e+01 1.890390515327453613e-01 5.107714980840682983e-02 7.203485816717147827e-02 -1.031389757990837097e-01
3.560000000000000000e+02 2.192660903930664062e+01 -1.436398601531982422e+01 3.331039547920227051e-01 1.983389072120189667e-02 1.058813557028770447e-01 -1.093478351831436157e-01
3.570000000000000000e+02 2.369469833374023438e+01 -1.388960075378417969e+01 4.820631742477416992e-01 4.590999707579612732e-02 1.583919525146484375e-01 -2.351884394884109497e-01
3.580000000000000000e+02 2.444712448120117188e+01 -1.403305053710937500e+01 6.154082417488098145e-01 4.917339608073234558e-02 1.993744820356369019e-01 -2.468464225530624390e-01
3.590000000000000000e+02 2.580734062194824219e+01 -1.489204216003417969e+01 1.039357423782348633e+00 2.777415141463279724e-02 3.201394975185394287e-01 -1.700296401977539062e-01
3.600000000000000000e+02 2.656934165954589844e+01 -1.494864749908447266e+01 1.212157130241394043e+00 1.367320213466882706e-02 3.677490949630737305e-01 -1.795137077569961548e-01
3.610000000000000000e+02 2.814443778991699219e+01 -1.504447841644287109e+01 1.583194494247436523e+00 4.525961726903915405e-02 4.885362386703491211e-01 -2.429336905479431152e-01
3.620000000000000000e+02 2.973505020141601562e+01 -1.525431632995605469e+01 1.787651181221008301e+00 5.096170678734779358e-02 5.515838861465454102e-01 -3.177477717399597168e-01
3.630000000000000000e+02 2.971042442321777344e+01 -1.452169895172119141e+01 1.457531094551086426e+00 6.606724113225936890e-02 4.570794999599456787e-01 -3.418215811252593994e-01
3.640000000000000000e+02 3.052659225463867188e+01 -1.536456012725830078e+01 1.863999128341674805e+00 3.349947929382324219e-02 5.692495703697204590e-01 -3.062499165534973145e-01
3.650000000000000000e+02 3.133023643493652344e+01 -1.545088672637939453e+01 2.106173753738403320e+00 4.996255785226821899e-02 6.468408703804016113e-01 -3.266455829143524170e-01
3.660000000000000000e+02 3.293073654174804688e+01 -1.574789810180664062e+01 2.208313703536987305e+00 4.168034791946411133e-01 7.875351309776306152e-01 -7.281510233879089355e-01
3.670000000000000000e+02 3.543090057373046875e+01 -1.824015235900878906e+01 1.327885687351226807e-01 -3.456610441207885742e-01 -6.386174261569976807e-02 -2.423360198736190796e-02
3.680000000000000000e+02 3.626335906982421875e+01 -1.950585556030273438e+01 6.190465646795928478e-04 -5.905144810676574707e-01 -1.769686341285705566e-01 -2.534749731421470642e-02
3.690000000000000000e+02 3.579932785034179688e+01 -2.158852767944335938e+01 2.599994768388569355e-04 -7.991302013397216797e-01 -2.396610677242279053e-01 1.019567158073186874e-02
3.700000000000000000e+02 3.576741027832031250e+01 -2.236896896362304688e+01 -8.101637358777225018e-04 -7.757632732391357422e-01 -2.329720407724380493e-01 9.668564423918724060e-03
3.710000000000000000e+02 3.564580917358398438e+01 -2.396240615844726562e+01 -4.208136722445487976e-02 -6.843044161796569824e-01 -2.179157435894012451e-01 -7.171172648668289185e-02
3.720000000000000000e+02 3.475874710083007812e+01 -2.625017547607421875e+01 -3.263937309384346008e-02 -2.057924121618270874e-01 -7.152952998876571655e-02 -7.046099007129669189e-02
3.730000000000000000e+02 3.185436248779296875e+01 -2.916999244689941406e+01 1.141769960522651672e-01 1.424302812665700912e-02 3.852600976824760437e-02 3.662991523742675781e-02
3.740000000000000000e+02 3.110362625122070312e+01 -2.956557273864746094e+01 1.624247580766677856e-01 1.648146472871303558e-02 5.367187038064002991e-02 4.380878806114196777e-02
3.750000000000000000e+02 2.946934127807617188e+01 -3.011257171630859375e+01 2.637622058391571045e-01 1.385004352778196335e-02 8.328367024660110474e-02 2.924600988626480103e-02
3.760000000000000000e+02 2.534708786010742188e+01 -3.033941841125488281e+01 4.744126200675964355e-01 1.953540369868278503e-02 1.481844037771224976e-01 -5.323149263858795166e-02
3.770000000000000000e+02 2.453318405151367188e+01 -3.027750587463378906e+01 5.321376919746398926e-01 3.713733330368995667e-02 1.707825064659118652e-01 -9.205101430416107178e-02
3.780000000000000000e+02 2.372435760498046875e+01 -3.014992523193359375e+01 5.603306889533996582e-01 5.576065182685852051e-02 1.848274022340774536e-01 -1.352688372135162354e-01
3.790000000000000000e+02 2.133593559265136719e+01 -2.954359436035156250e+01 6.844277381896972656e-01 1.279399394989013672e-01 2.437103092670440674e-01 -2.527382373809814453e-01
3.800000000000000000e+02 1.980986785888671875e+01 -2.892290115356445312e+01 7.198519706726074219e-01 1.944071948528289795e-01 2.742777466773986816e-01 -3.478870093822479248e-01
3.810000000000000000e+02 1.772751045227050781e+01 -2.760464096069335938e+01 6.324086189270019531e-01 4.394467473030090332e-01 3.215565979480743408e-01 -4.921834170818328857e-01
3.820000000000000000e+02 1.837280464172363281e+01 -2.811383247375488281e+01 7.302802205085754395e-01 3.806696832180023193e-01 3.332849740982055664e-01 -4.779569804668426514e-01
3.830000000000000000e+02 1.654966545104980469e+01 -2.648558235168457031e+01 4.869924485683441162e-01 4.340972900390625000e-01 2.763269245624542236e-01 -4.537676870822906494e-01
3.840000000000000000e+02 1.597835826873779297e+01 -2.591527175903320312e+01 4.615188241004943848e-01 4.246041476726531982e-01 2.658368945121765137e-01 -4.410861730575561523e-01
3.850000000000000000e+02 1.425619697570800781e+01 -2.419903755187988281e+01 4.314293265342712402e-01 4.244116842746734619e-01 2.567523121833801270e-01 -4.215236306190490723e-01
3.860000000000000000e+02 1.367642402648925781e+01 -2.360865402221679688e+01 4.116625785827636719e-01 4.385579526424407959e-01 2.550661563873291016e-01 -4.154779911041259766e-01
3.870000000000000000e+02 1.311777496337890625e+01 -2.297607231140136719e+01 3.647054731845855713e-01 4.575819671154022217e-01 2.466862350702285767e-01 -3.831412494182586670e-01
3.880000000000000000e+02 1.232436943054199219e+01 -2.147826385498046875e+01 1.353005617856979370e-01 2.720490694046020508e-01 1.222048848867416382e-01 -2.018105089664459229e-01
3.890000000000000000e+02 1.187378215789794922e+01 -1.904180717468261719e+01 -4.304807167500257492e-03 -4.509218335151672363e-01 -1.365679949522018433e-01 -5.800644680857658386e-02
3.900000000000000000e+02 1.218231868743896484e+01 -1.575989437103271484e+01 -3.948191404342651367e-01 -1.381023764610290527e+00 -5.327528715133666992e-01 -6.086313724517822266e-01
3.910000000000000000e+02 1.426155662536621094e+01 -1.318538188934326172e+01 -1.251115322113037109e+00 -7.045987844467163086e-01 -5.867142677307128906e-01 -8.270584940910339355e-01
3.920000000000000000e+02 1.633346748352050781e+01 -1.183013629913330078e+01 -1.175802946090698242e+00 -3.463278114795684814e-01 -4.566392302513122559e-01 -3.823009431362152100e-01
3.930000000000000000e+02 5.498453903198242188e+01 -8.797497749328613281e+00 -2.590177297592163086e+00 -6.670489907264709473e-01 -9.771678447723388672e-01 1.220299959182739258e+00
3.940000000000000000e+02 5.773377609252929688e+01 -1.033242416381835938e+01 -1.864694476127624512e+00 -3.729050755500793457e-01 -6.712798476219177246e-01 9.543240666389465332e-01
3.950000000000000000e+02 5.919754028320312500e+01 -1.089291095733642578e+01 -2.315256118774414062e+00 -2.481390088796615601e-01 -7.690185904502868652e-01 8.158252239227294922e-01
3.960000000000000000e+02 5.807129287719726562e+01 -9.643317222595214844e+00 -1.872226357460021973e+00 -2.389317303895950317e-01 -6.333473920822143555e-01 9.768283367156982422e-01
3.970000000000000000e+02 5.995088577270507812e+01 -1.113195991516113281e+01 -2.437480211257934570e+00 -1.769012659788131714e-01 -7.843144536018371582e-01 7.694422006607055664e-01
3.980000000000000000e+02 6.248981094360351562e+01 -1.100935745239257812e+01 -2.416644096374511719e+00 2.975412085652351379e-02 -7.160669565200805664e-01 5.319339632987976074e-01
3.990000000000000000e+02 6.381557083129882812e+01 -1.195008659362792969e+01 -3.578736066818237305e+00 -1.984323561191558838e-01 -1.133150577545166016e+00 6.019278168678283691e-01
4.000000000000000000e+02 6.402969360351562500e+01 -1.139297389984130859e+01 -2.281730413436889648e+00 -1.416681520640850067e-02 -6.887691617012023926e-01 1.999169439077377319e-01
4.010000000000000000e+02 6.459715270996093750e+01 -1.218127346038818359e+01 -2.920265913009643555e+00 -1.986116617918014526e-01 -9.356632232666015625e-01 6.723843812942504883e-01
4.020000000000000000e+02 6.754322814941406250e+01 -1.507610797882080078e+01 1.337835192680358887e+00 8.756817817687988281e+00 3.028396129608154297e+00 -2.914784669876098633e+00
4.030000000000000000e+02 6.804215240478515625e+01 -1.667821693420410156e+01 7.705460190773010254e-01 1.310401630401611328e+01 4.162368774414062500e+00 -1.466008663177490234e+00
4.040000000000000000e+02 6.808436584472656250e+01 -1.832064437866210938e+01 5.834440141916275024e-02 1.261848545074462891e+01 3.803049087524414062e+00 4.934440925717353821e-02
4.050000000000000000e+02 6.492288208007812500e+01 -2.457682800292968750e+01 1.082451939582824707e+00 1.920811057090759277e+00 9.009788632392883301e-01 1.444423556327819824e+00
4.060000000000000000e+02 6.435605621337890625e+01 -2.514981460571289062e+01 8.356191515922546387e-01 1.436264276504516602e+00 6.815649867057800293e-01 1.079103589057922363e+00
4.070000000000000000e+02 6.376645278930664062e+01 -2.569857025146484375e+01 5.497257113456726074e-01 9.617865681648254395e-01 4.534536898136138916e-01 7.442797422409057617e-01
4.080000000000000000e+02 6.194096755981445312e+01 -2.728133201599121094e+01 -2.025329023599624634e-01 1.797796934843063354e-01 -6.825964432209730148e-03 2.131967246532440186e-02
4.090000000000000000e+02 6.133201599121093750e+01 -2.783204650878906250e+01 -4.711981117725372314e-01 3.816835209727287292e-02 -1.299089342355728149e-01 -1.455749571323394775e-01
4.100000000000000000e+02 6.068226623535156250e+01 -2.835641098022460938e+01 -7.833154797554016113e-01 -7.989350706338882446e-02 -2.589626908302307129e-01 -2.842088639736175537e-01
4.110000000000000000e+02 5.838069915771484375e+01 -2.937401199340820312e+01 -1.523835897445678711e+00 -1.326147764921188354e-01 -4.969352185726165771e-01 -3.090156316757202148e-01
4.120000000000000000e+02 5.419213867187500000e+01 -2.939739036560058594e+01 -6.432310342788696289e-01 2.215517871081829071e-02 -1.863227486610412598e-01 -4.667432978749275208e-02
4.130000000000000000e+02 5.256280136108398438e+01 -2.891296195983886719e+01 -1.148802638053894043e-01 1.183620616793632507e-01 1.044538686983287334e-03 -1.521361917257308960e-01
4.140000000000000000e+02 5.179716491699218750e+01 -2.856925964355468750e+01 1.691328883171081543e-01 2.795743346214294434e-01 1.346121579408645630e-01 -2.786494493484497070e-01
4.150000000000000000e+02 4.993161010742187500e+01 -2.696751213073730469e+01 4.723598062992095947e-01 6.591075062751770020e-01 3.394401967525482178e-01 -5.461117625236511230e-01
4.160000000000000000e+02 4.936239624023437500e+01 -2.638556671142578125e+01 5.359412431716918945e-01 7.889190912246704102e-01 3.974580764770507812e-01 -6.442969441413879395e-01
4.170000000000000000e+02 4.771116256713867188e+01 -2.453146934509277344e+01 7.754098773002624512e-01 1.856889128684997559e+00 7.896896600723266602e-01 -1.079683184623718262e+00
4.180000000000000000e+02 4.657507324218750000e+01 -2.143945121765136719e+01 2.011833786964416504e-01 3.409837245941162109e+00 1.083306193351745605e+00 -4.812092781066894531e-01
4.190000000000000000e+02 4.675787734985351562e+01 -2.224172592163085938e+01 2.310187220573425293e-01 3.186729431152343750e+00 1.025324463844299316e+00 -7.096793055534362793e-01
4.200000000000000000e+02 4.642160415649414062e+01 -1.978884124755859375e+01 5.465007573366165161e-02 3.222378492355346680e+00 9.831085205078125000e-01 -5.155609175562858582e-02
4.210000000000000000e+02 4.645388793945312500e+01 -2.062187767028808594e+01 1.306363195180892944e-01 3.407920360565185547e+00 1.061567068099975586e+00 -2.175713628530502319e-01
4.220000000000000000e+02 4.645276260375976562e+01 -1.895366287231445312e+01 7.308765500783920288e-02 3.174308300018310547e+00 9.742188453674316406e-01 7.549417763948440552e-02
4.230000000000000000e+02 4.665843963623046875e+01 -1.651693153381347656e+01 1.224206164479255676e-01 3.357334852218627930e+00 1.043926715850830078e+00 3.800658583641052246e-01
4.240000000000000000e+02 4.691894531250000000e+01 -1.490948104858398438e+01 2.681955099105834961e-01 3.463302612304687500e+00 1.119449496269226074e+00 8.084971308708190918e-01
4.250000000000000000e+02 4.710756301879882812e+01 -1.411159801483154297e+01 3.948291838169097900e-01 3.542865514755249023e+00 1.181308388710021973e+00 1.026007652282714844e+00
4.260000000000000000e+02 4.805135345458984375e+01 -1.184596252441406250e+01 1.156988620758056641e+00 3.253802061080932617e+00 1.323237180709838867e+00 1.783246397972106934e+00
4.270000000000000000e+02 4.902504730224609375e+01 -1.055236721038818359e+01 1.697175979614257812e+00 2.267756700515747070e+00 1.189479827880859375e+00 1.831933140754699707e+00
4.280000000000000000e+02 5.065345382690429688e+01 -8.938382148742675781e+00 1.084218621253967285e+00 1.072682142257690430e+00 6.470702290534973145e-01 1.105321764945983887e+00
4.290000000000000000e+02 5.238491821289062500e+01 -8.184689521789550781e+00 -5.605322122573852539e-01 4.609603434801101685e-02 -1.543308496475219727e-01 5.299336314201354980e-01
4.300000000000000000e+02 4.776009368896484375e+01 -9.681418538093566895e-02 -9.901355504989624023e-01 1.998111754655838013e-01 -2.370973080396652222e-01 1.391639560461044312e-01
4.310000000000000000e+02 4.625344085693359375e+01 2.919908985495567322e-02 -9.424676895141601562e-01 1.731691509485244751e-01 -2.307895720005035400e-01 -1.107514873147010803e-01
4.320000000000000000e+02 4.462377929687500000e+01 -3.974911272525787354e-01 -9.336340427398681641e-01 2.063049226999282837e-01 -2.181987464427947998e-01 -3.638494908809661865e-01
4.330000000000000000e+02 4.327671432495117188e+01 3.794847428798675537e-01 -5.488217473030090332e-01 -3.629087284207344055e-02 -1.755337864160537720e-01 -3.736448287963867188e-01
4.340000000000000000e+02 4.228092575073242188e+01 -7.537490725517272949e-01 -8.285761475563049316e-01 -2.820476889610290527e-01 -3.331871628761291504e-01 -6.801963448524475098e-01
4.350000000000000000e+02 4.153908157348632812e+01 -4.213351011276245117e-01 -3.612449467182159424e-01 -5.476285815238952637e-01 -2.726620435714721680e-01 -4.537190198898315430e-01
4.360000000000000000e+02 4.074094772338867188e+01 -1.901844382286071777e+00 -1.449817180633544922e+00 -1.130436301231384277e+00 -7.740760445594787598e-01 -1.173307657241821289e+00
4.370000000000000000e+02 4.008009719848632812e+01 -2.446510076522827148e+00 -2.125871658325195312e+00 -1.216836333274841309e+00 -1.002812385559082031e+00 -1.484380960464477539e+00
4.380000000000000000e+02 3.868738174438476562e+01 -3.293270349502563477e+00 -3.215449810028076172e+00 -8.207104802131652832e-01 -1.210848093032836914e+00 -1.432586908340454102e+00
4.390000000000000000e+02 3.639736557006835938e+01 -4.044898986816406250e+00 -2.761955261230468750e+00 -2.331151068210601807e-01 -8.985211253166198730e-01 -8.162482380867004395e-01
4.400000000000000000e+02 3.496214294433593750e+01 -5.177535533905029297e+00 -2.578624963760375977e+00 -2.268893718719482422e-01 -8.416543006896972656e-01 -6.743811964988708496e-01
4.410000000000000000e+02 3.486896896362304688e+01 -4.479156970977783203e+00 -2.724432706832885742e+00 -2.301679104566574097e-01 -8.863801956176757812e-01 -8.208613991737365723e-01
4.420000000000000000e+02 3.334280776977539062e+01 -4.898115158081054688e+00 -3.376114368438720703e+00 -2.736285030841827393e-01 -1.094922900199890137e+00 -7.212359905242919922e-01
4.430000000000000000e+02 3.097796249389648438e+01 -5.156927108764648438e+00 -3.498951435089111328e+00 -1.397275328636169434e-01 -1.091603636741638184e+00 -2.769975364208221436e-02
4.440000000000000000e+02 3.019626998901367188e+01 -5.131748676300048828e+00 -3.371959209442138672e+00 -2.643094360828399658e-01 -1.090880632400512695e+00 4.114477336406707764e-01
4.450000000000000000e+02 2.325876808166503906e+01 -3.288128852844238281e+00 -4.557156860828399658e-01 8.154319226741790771e-02 -1.122517436742782593e-01 -1.710187271237373352e-02
4.460000000000000000e+02 2.240647697448730469e+01 -3.376066923141479492e+00 -4.182276427745819092e-01 6.090660765767097473e-02 -1.071963086724281311e-01 -7.258346676826477051e-02
4.470000000000000000e+02 2.157124519348144531e+01 -3.417600393295288086e+00 -3.725242912769317627e-01 4.258357733488082886e-02 -9.898221492767333984e-02 -1.207882985472679138e-01
4.480000000000000000e+02 1.678374671936035156e+01 -3.061137437820434570e+00 -6.426096428185701370e-03 1.205755211412906647e-02 1.689436729066073895e-03 -1.649118661880493164e-01
4.490000000000000000e+02 1.601234245300292969e+01 -2.947981834411621094e+00 4.966064915060997009e-02 8.050550706684589386e-03 1.731335930526256561e-02 -1.449084430932998657e-01
4.500000000000000000e+02 1.228736972808837891e+01 -2.293793201446533203e+00 2.048364579677581787e-01 -2.698600105941295624e-02 5.335513502359390259e-02 -3.295887261629104614e-02
4.510000000000000000e+02 1.301330471038818359e+01 -2.422906875610351562e+00 1.912328302860260010e-01 -2.020390518009662628e-02 5.130867660045623779e-02 -5.284219980239868164e-02
4.520000000000000000e+02 1.375605487823486328e+01 -2.556289196014404297e+00 1.697599440813064575e-01 -1.634465716779232025e-02 4.602458328008651733e-02 -7.611920684576034546e-02
4.530000000000000000e+02 1.007063770294189453e+01 -2.654971837997436523e+00 1.621828824281692505e-01 -5.067887529730796814e-02 3.345120325684547424e-02 2.615135535597801208e-02
4.540000000000000000e+02 1.016182231903076172e+01 -1.934736967086791992e+00 2.117640972137451172e-01 -3.507390990853309631e-02 5.300705507397651672e-02 1.376795116811990738e-02
4.550000000000000000e+02 8.568313598632812500e+00 -2.571784257888793945e+00 1.450738459825515747e-01 -3.787820041179656982e-02 3.215869516134262085e-02 5.356435850262641907e-02
4.560000000000000000e+02 6.977958679199218750e+00 -1.869671344757080078e+00 1.463825702667236328e-01 -1.074468903243541718e-02 4.069136455655097961e-02 6.237418949604034424e-02
4.570000000000000000e+02 7.795074939727783203e+00 -1.859898209571838379e+00 1.648299992084503174e-01 -1.800804212689399719e-02 4.404658451676368713e-02 5.074084177613258362e-02
4.580000000000000000e+02 4.509121417999267578e+00 -1.905807375907897949e+00 8.289845287799835205e-02 4.815230146050453186e-03 2.631410583853721619e-02 6.936608999967575073e-02
4.590000000000000000e+02 1.096462011337280273e+00 -6.718173027038574219e+00 -2.139972290024161339e-03 1.796995401382446289e-01 5.326786637306213379e-02 4.869931936264038086e-02
4.600000000000000000e+02 1.117515921592712402e+00 -5.904108524322509766e+00 -4.506362020038068295e-04 1.491277515888214111e-01 4.460313543677330017e-02 5.118625611066818237e-02
4.610000000000000000e+02 1.815171837806701660e+00 -6.747756958007812500e+00 -5.522869061678647995e-03 1.436792910099029541e-01 4.144692420959472656e-02 7.079751789569854736e-02
4.620000000000000000e+02 3.993643522262573242e-01 -2.697373390197753906e+00 1.813358278013765812e-03 3.765686973929405212e-02 1.184106804430484772e-02 1.270953193306922913e-02
4.630000000000000000e+02 4.069700539112091064e-01 -1.898764491081237793e+00 2.371681155636906624e-03 1.635275594890117645e-02 5.617331247776746750e-03 8.578156121075153351e-03
4.640000000000000000e+02 4.559995830059051514e-01 -4.204277420043945312e+01 5.737656611017882824e-04 -9.589482545852661133e-01 -2.875123620033264160e-01 -8.117806864902377129e-04
4.650000000000000000e+02 5.793564915657043457e-01 -4.118350982666015625e+01 -1.201202906668186188e-02 -9.606950283050537109e-01 -2.918121218681335449e-01 5.022627301514148712e-03
4.660000000000000000e+02 5.879212617874145508e-01 -4.037768936157226562e+01 1.375080924481153488e-02 -9.692528843879699707e-01 -2.866506278514862061e-01 8.554433472454547882e-03
4.670000000000000000e+02 5.272073745727539062e-01 -3.877476501464843750e+01 -1.012361317407339811e-04 -9.732280969619750977e-01 -2.919988036155700684e-01 -1.850253829616121948e-05
4.680000000000000000e+02 5.758022665977478027e-01 -3.956702804565429688e+01 -2.583014313131570816e-03 -9.754562973976135254e-01 -2.934117913246154785e-01 -2.427377970889210701e-03
4.690000000000000000e+02 3.810660541057586670e-01 -3.723574066162109375e+01 2.862457185983657837e-03 -9.793999791145324707e-01 -2.929612696170806885e-01 3.084561089053750038e-03
4.700000000000000000e+02 3.983391523361206055e-01 -3.566172790527343750e+01 1.973662059754133224e-03 -9.863315224647521973e-01 -2.953073680400848389e-01 1.149928662925958633e-03
4.710000000000000000e+02 4.072546064853668213e-01 -3.485870361328125000e+01 -6.821850547567009926e-04 -9.868522286415100098e-01 -2.962603271007537842e-01 -1.617522502783685923e-04
4.720000000000000000e+02 4.102320969104766846e-01 -3.405261993408203125e+01 1.529225381091237068e-03 -9.854168891906738281e-01 -2.951663136482238770e-01 -9.451659279875457287e-04
4.730000000000000000e+02 4.104814231395721436e-01 -3.324851226806640625e+01 -6.673668394796550274e-04 -9.821652173995971680e-01 -2.948497533798217773e-01 -1.844595186412334442e-03
4.740000000000000000e+02 4.096154868602752686e-01 -3.244520187377929688e+01 1.172604039311408997e-03 -9.776508212089538574e-01 -2.929434776306152344e-01 -2.287003211677074432e-03
4.750000000000000000e+02 1.243448734283447266e+00 -3.323664474487304688e+01 2.413385314866900444e-03 -8.957635760307312012e-01 -2.680050730705261230e-01 -5.609056446701288223e-03
4.760000000000000000e+02 4.074674546718597412e-01 -3.164102554321289062e+01 2.013373741647228599e-04 -9.711924791336059570e-01 -2.912973463535308838e-01 -3.674641717225313187e-03
4.770000000000000000e+02 3.909299969673156738e-01 -2.922356414794921875e+01 1.836819108575582504e-03 -9.294754266738891602e-01 -2.782915830612182617e-01 -1.000846922397613525e-02
4.780000000000000000e+02 3.845553696155548096e-01 -2.841835212707519531e+01 7.785990601405501366e-04 -9.051296710968017578e-01 -2.713053226470947266e-01 -1.278027519583702087e-02
4.790000000000000000e+02 3.787960410118103027e-01 -2.761424827575683594e+01 1.893008826300501823e-03 -8.746137022972106934e-01 -2.618162035942077637e-01 -1.550395041704177856e-02
4.800000000000000000e+02 3.740069866180419922e-01 -2.681086349487304688e+01 1.121306326240301132e-03 -8.372241854667663574e-01 -2.508308589458465576e-01 -1.877373456954956055e-02
4.810000000000000000e+02 3.701342046260833740e-01 -2.600789070129394531e+01 1.848569023422896862e-03 -7.925073504447937012e-01 -2.371976375579833984e-01 -2.189476229250431061e-02
4.820000000000000000e+02 3.670904040336608887e-01 -2.520511627197265625e+01 1.378593384288251400e-03 -7.400826215744018555e-01 -2.216112017631530762e-01 -2.544485963881015778e-02
4.830000000000000000e+02 1.110288381576538086e+00 -2.598615646362304688e+01 7.386294193565845490e-03 -7.208955883979797363e-01 -2.140527963638305664e-01 -6.501623988151550293e-02
4.840000000000000000e+02 3.647893071174621582e-01 -2.440190124511718750e+01 1.749526360072195530e-03 -6.797278523445129395e-01 -2.033934891223907471e-01 -2.879399061203002930e-02
4.850000000000000000e+02 3.607656061649322510e-01 -2.198946571350097656e+01 8.348089759238064289e-04 -4.545937180519104004e-01 -1.361276805400848389e-01 -3.765729069709777832e-02
4.860000000000000000e+02 3.592687249183654785e-01 -2.118611907958984375e+01 7.280957652255892754e-04 -3.681547045707702637e-01 -1.102279871702194214e-01 -3.930399194359779358e-02
4.870000000000000000e+02 3.583352863788604736e-01 -2.038336181640625000e+01 2.536598185542970896e-04 -2.783787250518798828e-01 -8.343752473592758179e-02 -4.040759429335594177e-02
4.880000000000000000e+02 3.581761121749877930e-01 -1.957982063293457031e+01 -9.149869583779945970e-05 -1.872618794441223145e-01 -5.620601400732994080e-02 -4.049186035990715027e-02
4.890000000000000000e+02 3.582902550697326660e-01 -1.877581596374511719e+01 -5.685579380951821804e-04 -9.701389819383621216e-02 -2.927473746240139008e-02 -3.975319862365722656e-02
4.900000000000000000e+02 1.789581179618835449e+00 -1.958103179931640625e+01 -1.508229062892496586e-03 -2.181910872459411621e-01 -6.590979546308517456e-02 -1.792205572128295898e-01
4.910000000000000000e+02 3.582912385463714600e-01 -1.797166061401367188e+01 -1.051488914526998997e-03 -9.857675991952419281e-03 -3.272749483585357666e-03 -3.784494474530220032e-02
4.920000000000000000e+02 3.571066260337829590e-01 -1.555857467651367188e+01 -2.087472239509224892e-03 2.116456329822540283e-01 6.286744773387908936e-02 -2.679458260536193848e-02
4.930000000000000000e+02 3.565045297145843506e-01 -1.475515460968017578e+01 -2.442289376631379128e-03 2.660711109638214111e-01 7.908864319324493408e-02 -2.162306569516658783e-02
4.940000000000000000e+02 3.558943271636962891e-01 -1.395219707489013672e+01 -2.324908273294568062e-03 3.086469471454620361e-01 9.189660847187042236e-02 -1.626343838870525360e-02
4.950000000000000000e+02 3.549509346485137939e-01 -1.314934635162353516e+01 -2.524511655792593956e-03 3.389618098735809326e-01 1.009311899542808533e-01 -1.072235405445098877e-02
4.960000000000000000e+02 3.536116778850555420e-01 -1.234653186798095703e+01 -2.174061257392168045e-03 3.570552766323089600e-01 1.064643636345863342e-01 -5.420779809355735779e-03
4.970000000000000000e+02 3.522634804248809814e-01 -1.154423809051513672e+01 -2.236183034256100655e-03 3.634079992771148682e-01 1.083515435457229614e-01 -3.466483613010495901e-04
4.980000000000000000e+02 1.760049104690551758e+00 -1.235120582580566406e+01 -2.709462121129035950e-02 1.972207576036453247e-01 5.103784054517745972e-02 -2.850669249892234802e-02
4.990000000000000000e+02 3.515350818634033203e-01 -1.074196147918701172e+01 -1.722242333926260471e-03 3.588390052318572998e-01 1.071350276470184326e-01 4.138817545026540756e-03
5.000000000000000000e+02 3.564972877502441406e-01 -8.330324172973632812e+00 -1.107822405174374580e-03 2.927762269973754883e-01 8.750052005052566528e-02 1.425237860530614853e-02
5.010000000000000000e+02 3.610053956508636475e-01 -7.525236606597900391e+00 -8.953549549914896488e-04 2.582098841667175293e-01 7.719435542821884155e-02 1.645035482943058014e-02
5.020000000000000000e+02 3.669744729995727539e-01 -6.718782424926757812e+00 -4.977249773219227791e-04 2.200132012367248535e-01 6.585464626550674438e-02 1.803285814821720123e-02
5.030000000000000000e+02 3.735117316246032715e-01 -5.911653995513916016e+00 -2.360871876589953899e-04 1.799715459346771240e-01 5.392063781619071960e-02 1.878478564321994781e-02
5.040000000000000000e+02 3.800411820411682129e-01 -5.105482101440429688e+00 2.883366250898689032e-04 1.398379653692245483e-01 4.203788936138153076e-02 1.878041401505470276e-02
5.050000000000000000e+02 3.863619267940521240e-01 -4.300698280334472656e+00 6.767053855583071709e-04 1.014651432633399963e-01 3.064255416393280029e-02 1.773202978074550629e-02
5.060000000000000000e+02 3.926069438457489014e-01 -3.497977733612060547e+00 1.222801744006574154e-03 6.674154847860336304e-02 2.038930542767047882e-02 1.582423783838748932e-02
5.070000000000000000e+02 7.951692199707031250e+01 -4.200667190551757812e+01 -2.640684833750128746e-03 8.986279487609863281e+00 2.695091724395751953e+00 -3.644665936008095741e-03
5.080000000000000000e+02 7.940069580078125000e+01 -4.112100601196289062e+01 2.669696137309074402e-02 8.984856605529785156e+00 2.703466176986694336e+00 3.627378260716795921e-03
5.090000000000000000e+02 7.587581634521484375e+01 -3.824850082397460938e+01 1.024615019559860229e-02 7.559558391571044922e+00 2.270941495895385742e+00 -2.502147294580936432e-02
5.100000000000000000e+02 5.255405426025390625e+01 -3.765857315063476562e+01 5.247228741645812988e-01 4.015708565711975098e-01 2.778881192207336426e-01 -2.733970880508422852e-01
5.110000000000000000e+02 1.175271511077880859e+01 -3.833540344238281250e+01 3.310713544487953186e-02 -7.544041424989700317e-02 -1.269998308271169662e-02 -2.581140398979187012e-02
5.120000000000000000e+02 1.787214040756225586e+00 -3.930330276489257812e+01 5.585743114352226257e-03 -8.458926081657409668e-01 -2.520920634269714355e-01 5.781559739261865616e-03
5.130000000000000000e+02 1.578531384468078613e+00 -4.195626068115234375e+01 -2.256056061014533043e-03 -8.966148495674133301e-01 -2.696612775325775146e-01 5.224781576544046402e-03
5.140000000000000000e+02 7.957058715820312500e+01 4.204800033569335938e+01 1.371882762759923935e-02 8.769187927246093750e+00 2.634871959686279297e+00 -1.563084498047828674e-02
5.150000000000000000e+02 7.949270629882812500e+01 4.119011306762695312e+01 -3.066138550639152527e-02 8.792798042297363281e+00 2.628641128540039062e+00 -1.126331649720668793e-02
5.160000000000000000e+02 7.890191650390625000e+01 3.865795898437500000e+01 -2.190076047554612160e-03 8.552880287170410156e+00 2.565207004547119141e+00 3.191547002643346786e-03
5.170000000000000000e+02 7.565653991699218750e+01 3.933651733398437500e+01 -1.351100974716246128e-03 7.543828487396240234e+00 2.262743234634399414e+00 -6.757427752017974854e-02
5.180000000000000000e+02 7.957990264892578125e+01 3.960595703125000000e+01 -1.137759420089423656e-03 8.778736114501953125e+00 2.633279561996459961e+00 7.281980477273464203e-03
5.190000000000000000e+02 7.965934753417968750e+01 3.805125427246093750e+01 5.629629828035831451e-03 8.760790824890136719e+00 2.629926204681396484e+00 3.637104760855436325e-03
5.200000000000000000e+02 7.963685607910156250e+01 3.728122711181640625e+01 -3.369521116837859154e-03 8.765724182128906250e+00 2.628706216812133789e+00 5.887470324523746967e-04
5.210000000000000000e+02 7.960816955566406250e+01 3.490775680541992188e+01 7.436260115355253220e-03 8.757275581359863281e+00 2.629413604736328125e+00 1.424023415893316269e-02
5.220000000000000000e+02 7.962187194824218750e+01 3.410506439208984375e+01 -9.658879600465297699e-03 8.738744735717773438e+00 2.618725776672363281e+00 1.789563335478305817e-02
5.230000000000000000e+02 7.963851165771484375e+01 3.330529785156250000e+01 2.274273661896586418e-03 8.708756446838378906e+00 2.613309383392333984e+00 2.492983080446720123e-02
5.240000000000000000e+02 7.964271545410156250e+01 3.171538925170898438e+01 -4.803456831723451614e-04 8.575134277343750000e+00 2.572396039962768555e+00 5.073466524481773376e-02
5.250000000000000000e+02 7.962500000000000000e+01 3.092511558532714844e+01 -1.096557918936014175e-02 8.468265533447265625e+00 2.537190198898315430e+00 6.499128043651580811e-02
5.260000000000000000e+02 7.882241058349609375e+01 3.024600219726562500e+01 -3.974630683660507202e-02 8.155068397521972656e+00 2.434596776962280273e+00 1.987568140029907227e-01
5.270000000000000000e+02 7.961320495605468750e+01 2.770886421203613281e+01 -1.211385056376457214e-02 7.759524345397949219e+00 2.324223279953002930e+00 1.303898394107818604e-01
5.280000000000000000e+02 7.961710357666015625e+01 2.690313529968261719e+01 -3.370782826095819473e-03 7.493085384368896484e+00 2.246914386749267578e+00 1.459893435239791870e-01
5.290000000000000000e+02 7.962098693847656250e+01 2.609867858886718750e+01 -1.135113462805747986e-02 7.189389705657958984e+00 2.153411626815795898e+00 1.628569960594177246e-01
5.300000000000000000e+02 7.962450408935546875e+01 2.529520416259765625e+01 -1.160814426839351654e-03 6.850217342376708984e+00 2.054717063903808594e+00 1.757229119539260864e-01
5.310000000000000000e+02 7.962757110595703125e+01 2.449218368530273438e+01 -8.271488361060619354e-03 6.481091976165771484e+00 1.941846132278442383e+00 1.871205419301986694e-01
5.320000000000000000e+02 7.887190246582031250e+01 2.535795211791992188e+01 -3.730939701199531555e-02 6.972784996032714844e+00 2.080642700195312500e+00 4.700246155261993408e-01
5.330000000000000000e+02 7.963305664062500000e+01 2.288677215576171875e+01 -3.821541788056492805e-03 5.683654785156250000e+00 1.703949928283691406e+00 1.951441764831542969e-01
5.340000000000000000e+02 7.963943481445312500e+01 2.048171997070312500e+01 1.620993390679359436e-02 4.516489028930664062e+00 1.359809637069702148e+00 1.607937216758728027e-01
5.350000000000000000e+02 7.964102172851562500e+01 1.967885208129882812e+01 3.219097387045621872e-03 4.189676761627197266e+00 1.257868766784667969e+00 1.404460966587066650e-01
5.360000000000000000e+02 7.964282226562500000e+01 1.887582015991210938e+01 2.180792763829231262e-02 3.914325475692749023e+00 1.180840015411376953e+00 1.109545752406120300e-01
5.370000000000000000e+02 7.964449310302734375e+01 1.807329177856445312e+01 5.560649093240499496e-03 3.702392101287841797e+00 1.112385869026184082e+00 8.139568567276000977e-02
5.380000000000000000e+02 7.964687347412109375e+01 1.646888351440429688e+01 5.521683022379875183e-03 3.491065740585327148e+00 1.048976182937622070e+00 1.409651432186365128e-02
5.390000000000000000e+02 7.964831542968750000e+01 1.406412124633789062e+01 2.255144529044628143e-02 3.729319810867309570e+00 1.125561356544494629e+00 -8.651155233383178711e-02
5.400000000000000000e+02 7.964811706542968750e+01 1.326124095916748047e+01 4.063975997269153595e-03 3.948674917221069336e+00 1.185821652412414551e+00 -1.153133288025856018e-01
5.410000000000000000e+02 7.964827728271484375e+01 1.245927333831787109e+01 1.594713144004344940e-02 4.221607208251953125e+00 1.271266341209411621e+00 -1.382236629724502563e-01
5.420000000000000000e+02 7.964865875244140625e+01 1.165809917449951172e+01 4.500190727412700653e-03 4.543918609619140625e+00 1.364525675773620605e+00 -1.603368222713470459e-01
5.430000000000000000e+02 7.964909362792968750e+01 1.085702896118164062e+01 7.570178713649511337e-03 4.900478839874267578e+00 1.472414731979370117e+00 -1.731411218643188477e-01
5.440000000000000000e+02 7.964941406250000000e+01 1.005610561370849609e+01 5.262849386781454086e-03 5.285419464111328125e+00 1.587204813957214355e+00 -1.870892941951751709e-01
5.450000000000000000e+02 7.894856262207031250e+01 1.011484527587890625e+01 1.772420853376388550e-02 5.685767650604248047e+00 1.711047530174255371e+00 -4.924662709236145020e-01
5.460000000000000000e+02 7.964970397949218750e+01 6.851248741149902344e+00 1.820611418224871159e-03 6.888737678527832031e+00 2.067167520523071289e+00 -1.897473484277725220e-01
5.470000000000000000e+02 7.964970397949218750e+01 6.049502849578857422e+00 -6.494634319096803665e-03 7.265396595001220703e+00 2.177670478820800781e+00 -1.820155680179595947e-01
5.480000000000000000e+02 7.964969635009765625e+01 5.247915744781494141e+00 2.096472453558817506e-04 7.623168468475341797e+00 2.287013292312622070e+00 -1.747515350580215454e-01
5.490000000000000000e+02 7.964963531494140625e+01 4.446248531341552734e+00 -7.488163653761148453e-03 7.957212924957275391e+00 2.384917497634887695e+00 -1.642240136861801147e-01
5.500000000000000000e+02 7.964969635009765625e+01 3.644320249557495117e+00 -4.432458372320979834e-04 8.268182754516601562e+00 2.480321884155273438e+00 -1.552454829216003418e-01
5.510000000000000000e+02 7.964973449707031250e+01 2.040671348571777344e+00 -8.313055150210857391e-04 8.815023422241210938e+00 2.644257783889770508e+00 -1.338578462600708008e-01
5.520000000000000000e+02 7.964943695068359375e+01 -3.643907904624938965e-01 -7.893861271440982819e-03 9.447802543640136719e+00 2.831972599029541016e+00 -9.944436699151992798e-02
5.530000000000000000e+02 7.964940643310546875e+01 -1.166556596755981445e+00 -1.930578262545168400e-03 9.609234809875488281e+00 2.882191419601440430e+00 -8.866331726312637329e-02
5.540000000000000000e+02 7.964936828613281250e+01 -1.968561291694641113e+00 -8.041015826165676117e-03 9.745003700256347656e+00 2.921088933944702148e+00 -7.596113532781600952e-02
5.550000000000000000e+02 7.964928436279296875e+01 -2.770629405975341797e+00 -2.499567810446023941e-03 9.855675697326660156e+00 2.955952882766723633e+00 -6.444953382015228271e-02
5.560000000000000000e+02 7.964932250976562500e+01 -3.572792291641235352e+00 -8.413562551140785217e-03 9.939535140991210938e+00 2.979336500167846680e+00 -5.085674673318862915e-02
5.570000000000000000e+02 7.964936828613281250e+01 -5.176596164703369141e+00 -9.174004197120666504e-03 1.002369403839111328e+01 3.004355907440185547e+00 -2.289686724543571472e-02
5.580000000000000000e+02 7.964943695068359375e+01 -7.581535816192626953e+00 -4.459343384951353073e-03 9.914203643798828125e+00 2.972923517227172852e+00 2.422646619379520416e-02
5.590000000000000000e+02 7.964929199218750000e+01 -8.383605003356933594e+00 -1.036906428635120392e-02 9.808456420898437500e+00 2.939426183700561523e+00 4.197653755545616150e-02
5.600000000000000000e+02 7.964922332763671875e+01 -9.185808181762695312e+00 -4.220574628561735153e-03 9.667784690856933594e+00 2.899069070816040039e+00 5.773149058222770691e-02
5.610000000000000000e+02 7.964935302734375000e+01 -9.987850189208984375e+00 -9.670995175838470459e-03 9.492863655090332031e+00 2.844957828521728516e+00 7.427843660116195679e-02
5.620000000000000000e+02 7.964952087402343750e+01 -1.078964233398437500e+01 -3.079387126490473747e-03 9.286187171936035156e+00 2.784932374954223633e+00 8.787864446640014648e-02
5.630000000000000000e+02 7.894813537597656250e+01 -9.919519424438476562e+00 -2.891249954700469971e-02 9.256790161132812500e+00 2.768363237380981445e+00 2.205028235912322998e-01
5.640000000000000000e+02 7.964934539794921875e+01 -1.239369392395019531e+01 -3.347182355355471373e-04 8.794026374816894531e+00 2.638107538223266602e+00 1.091977953910827637e-01
5.650000000000000000e+02 7.964906311035156250e+01 -1.479902839660644531e+01 -9.515848942101001740e-04 7.973447799682617188e+00 2.391748905181884766e+00 1.117823570966720581e-01
5.660000000000000000e+02 7.964893341064453125e+01 -1.560076236724853516e+01 8.728889748454093933e-03 7.717370510101318359e+00 2.317829847335815430e+00 1.015698537230491638e-01
5.670000000000000000e+02 7.964897918701171875e+01 -1.640250968933105469e+01 2.874047961086034775e-03 7.487491130828857422e+00 2.247109651565551758e+00 8.882689476013183594e-02
5.680000000000000000e+02 7.964909362792968750e+01 -1.720428657531738281e+01 1.234796363860368729e-02 7.293240547180175781e+00 2.191676616668701172e+00 7.013930380344390869e-02
5.690000000000000000e+02 7.964900207519531250e+01 -1.800602531433105469e+01 5.746887531131505966e-03 7.142528057098388672e+00 2.144482374191284180e+00 5.003231391310691833e-02
5.700000000000000000e+02 7.894773864746093750e+01 -1.713435745239257812e+01 3.612103313207626343e-02 7.498247623443603516e+00 2.260310649871826172e+00 2.129435688257217407e-01
5.710000000000000000e+02 7.964773559570312500e+01 -1.961022949218750000e+01 7.200776599347591400e-03 6.989885807037353516e+00 2.099126100540161133e+00 3.727725939825177193e-03
5.720000000000000000e+02 7.964421081542968750e+01 -2.201642227172851562e+01 9.224737063050270081e-03 7.129355430603027344e+00 2.141573905944824219e+00 -5.841682106256484985e-02
5.730000000000000000e+02 7.964243316650390625e+01 -2.281879425048828125e+01 4.766990896314382553e-03 7.255185604095458984e+00 2.177985668182373047e+00 -7.354510575532913208e-02
5.740000000000000000e+02 7.964063262939453125e+01 -2.362116622924804688e+01 5.301163531839847565e-03 7.407995223999023438e+00 2.223989009857177734e+00 -8.468531072139739990e-02
5.750000000000000000e+02 7.963890838623046875e+01 -2.442348861694335938e+01 1.830559223890304565e-03 7.578886508941650391e+00 2.274214982986450195e+00 -9.202808141708374023e-02
5.760000000000000000e+02 7.963501739501953125e+01 -2.602699851989746094e+01 -1.249051885679364204e-03 7.941826343536376953e+00 2.382173061370849609e+00 -9.523766487836837769e-02
5.770000000000000000e+02 7.962686157226562500e+01 -2.843083000183105469e+01 -2.618204336613416672e-03 8.432258605957031250e+00 2.528892040252685547e+00 -7.871975004673004150e-02
5.780000000000000000e+02 7.962403106689453125e+01 -2.923258972167968750e+01 -5.150971468538045883e-03 8.563457489013671875e+00 2.567491769790649414e+00 -6.991998851299285889e-02
5.790000000000000000e+02 7.962123107910156250e+01 -3.003362083435058594e+01 -2.465239958837628365e-03 8.676630973815917969e+00 2.602249622344970703e+00 -6.188903376460075378e-02
5.800000000000000000e+02 7.961792755126953125e+01 -3.083386230468750000e+01 -6.232293322682380676e-03 8.771131515502929688e+00 2.629469633102416992e+00 -5.217523872852325439e-02
5.810000000000000000e+02 7.961363983154296875e+01 -3.163380241394042969e+01 -1.598413451574742794e-03 8.847601890563964844e+00 2.653800964355468750e+00 -4.433281719684600830e-02
5.820000000000000000e+02 7.960137939453125000e+01 -3.322811126708984375e+01 2.902727283071726561e-04 8.948382377624511719e+00 2.684601783752441406e+00 -2.795172110199928284e-02
5.830000000000000000e+02 7.959098815917968750e+01 -3.561925888061523438e+01 -6.250120699405670166e-03 9.024084091186523438e+00 2.705350160598754883e+00 -1.704069972038269043e-02
5.840000000000000000e+02 7.959078979492187500e+01 -3.642214584350585938e+01 1.950001809746026993e-03 9.040746688842773438e+00 2.712809085845947266e+00 -1.402252539992332458e-02
5.850000000000000000e+02 7.959262847900390625e+01 -3.722279357910156250e+01 -4.607778508216142654e-03 9.053043365478515625e+00 2.714530706405639648e+00 -1.047271303832530975e-02
5.860000000000000000e+02 7.959497070312500000e+01 -3.801839065551757812e+01 -7.435166044160723686e-04 9.058226585388183594e+00 2.717245101928710938e+00 -5.725405178964138031e-03
5.870000000000000000e+02 7.958617401123046875e+01 -3.880971908569335938e+01 -1.451183296740055084e-02 9.041101455688476562e+00 2.707976818084716797e+00 1.195780094712972641e-02
5.880000000000000000e+02 7.946947479248046875e+01 -4.035435104370117188e+01 -2.619505487382411957e-02 8.998550415039062500e+00 2.691706657409667969e+00 1.893489621579647064e-02
5.890000000000000000e+02 4.925206899642944336e-01 4.200293350219726562e+01 1.766602363204583526e-04 -2.698781713843345642e-02 -8.043346926569938660e-03 2.456075453665107489e-04
5.900000000000000000e+02 5.689538121223449707e-01 4.112101364135742188e+01 -8.564825111534446478e-05 -2.664083614945411682e-02 -8.017945103347301483e-03 3.516133874654769897e-04
5.910000000000000000e+02 7.263233661651611328e+00 3.666751098632812500e+01 7.046489510685205460e-03 -3.355500847101211548e-02 -7.952556014060974121e-03 1.139530446380376816e-02
5.920000000000000000e+02 2.726607513427734375e+01 4.096839904785156250e+01 1.497864723205566406e-01 -1.492202728986740112e-01 1.698575215414166451e-04 1.606338284909725189e-02
5.930000000000000000e+02 4.732287979125976562e+01 4.067604827880859375e+01 6.250287294387817383e-01 9.239120036363601685e-02 2.152259945869445801e-01 5.624505504965782166e-02
5.940000000000000000e+02 6.721653747558593750e+01 4.090689468383789062e+01 2.752928435802459717e-01 4.453877925872802734e+00 1.418751239776611328e+00 -1.088576018810272217e-01
5.950000000000000000e+02 7.874290466308593750e+01 3.937177658081054688e+01 5.394010338932275772e-03 8.465726852416992188e+00 2.541336297988891602e+00 1.331360172480344772e-02
5.960000000000000000e+02 7.852069854736328125e+01 4.194626998901367188e+01 1.637004665099084377e-03 8.485838890075683594e+00 2.546242713928222656e+00 3.245903179049491882e-02
5.970000000000000000e+02 3.814966678619384766e-01 1.893778443336486816e+00 2.292042699991725385e-05 1.462752516090404242e-05 1.126438564824638888e-05 -1.259407417819602415e-05
5.980000000000000000e+02 1.148229837417602539e+00 1.880297541618347168e+00 8.652191354485694319e-06 4.613536657416261733e-05 1.643626819713972509e-05 -3.941356771974824369e-05
5.990000000000000000e+02 3.411796331405639648e+00 2.577776432037353516e+00 1.474764867452904582e-04 5.925736695644445717e-05 6.202016083989292383e-05 -1.976730272872373462e-04
6.000000000000000000e+02 4.190484523773193359e+00 2.564219474792480469e+00 2.567806222941726446e-04 5.191332093090750277e-05 9.260817751055583358e-05 -2.318635524716228247e-04
6.010000000000000000e+02 3.512750566005706787e-01 4.272995948791503906e+00 -3.822874714387580752e-05 2.029124298132956028e-04 4.940510552842170000e-05 -3.880468284478411078e-05
6.020000000000000000e+02 1.053276062011718750e+00 4.972518444061279297e+00 -2.278272222611121833e-05 3.258634242229163647e-04 9.092420805245637894e-05 -1.544852566439658403e-04
6.030000000000000000e+02 3.456228971481323242e-01 5.863600254058837891e+00 -5.432801117422059178e-05 4.676420649047940969e-04 1.239942212123423815e-04 -5.814907490275800228e-05
6.040000000000000000e+02 3.498548567295074463e-01 8.259119033813476562e+00 9.090952516999095678e-05 1.115509425289928913e-03 3.619256895035505295e-04 -1.323259784840047359e-04
6.050000000000000000e+02 3.519141077995300293e-01 9.060511589050292969e+00 -8.271704427897930145e-05 1.392009085975587368e-03 3.927876241505146027e-04 -1.135035709012299776e-04
6.060000000000000000e+02 3.535647988319396973e-01 9.863086700439453125e+00 1.077096385415643454e-04 1.734716934151947498e-03 5.527279572561383247e-04 -1.747279020491987467e-04
6.070000000000000000e+02 3.543214201927185059e-01 1.066693401336669922e+01 -9.868737834040075541e-05 2.095685573294758797e-03 5.990994395688176155e-04 -1.492427982157096267e-04
6.080000000000000000e+02 3.542902171611785889e-01 1.147018909454345703e+01 1.258346601389348507e-04 2.530120080336928368e-03 7.967864512465894222e-04 -2.194491826230660081e-04
6.090000000000000000e+02 1.063536167144775391e+00 1.132138824462890625e+01 -7.607798761455342174e-05 2.117964439094066620e-03 6.125659565441310406e-04 -5.143966991454362869e-04
6.100000000000000000e+02 3.548463881015777588e-01 1.307739067077636719e+01 1.443786750314757228e-04 3.503690240904688835e-03 1.094420673325657845e-03 -2.620062732603400946e-04
6.110000000000000000e+02 3.562726974487304688e-01 1.548878383636474609e+01 -1.697419938864186406e-04 5.195222795009613037e-03 1.507644192315638065e-03 -2.261340123368427157e-04
6.120000000000000000e+02 3.570838868618011475e-01 1.629310798645019531e+01 1.828451931942254305e-04 5.813941825181245804e-03 1.799036050215363503e-03 -3.065956407226622105e-04
6.130000000000000000e+02 3.575875759124755859e-01 1.709799003601074219e+01 -2.025157155003398657e-04 6.377576850354671478e-03 1.852518413215875626e-03 -2.135972754331305623e-04
6.140000000000000000e+02 3.575225174427032471e-01 1.790216255187988281e+01 2.029145398410037160e-04 6.957241334021091461e-03 2.148046856746077538e-03 -2.877514634747058153e-04
6.150000000000000000e+02 3.577486872673034668e-01 1.870575141906738281e+01 -2.422625402687117457e-04 7.434451952576637268e-03 2.157656708732247353e-03 -1.615774672245606780e-04
6.160000000000000000e+02 3.609283566474914551e-01 2.192231750488281250e+01 -3.293140907771885395e-04 8.409358561038970947e-03 2.424013335257768631e-03 7.438282045768573880e-05
6.170000000000000000e+02 3.617902696132659912e-01 2.272488594055175781e+01 2.689336251933127642e-04 8.300164714455604553e-03 2.570729469880461693e-03 3.144112633890472353e-05
6.180000000000000000e+02 3.634346425533294678e-01 2.352850723266601562e+01 -3.661983355414122343e-04 7.931876927614212036e-03 2.269703662022948265e-03 2.566468901932239532e-04
6.190000000000000000e+02 3.649106919765472412e-01 2.433273124694824219e+01 2.919017861131578684e-04 7.416007108986377716e-03 2.312372671440243721e-03 2.178623981308192015e-04
6.200000000000000000e+02 3.657167255878448486e-01 2.513622283935546875e+01 -3.989478282164782286e-04 6.618333514779806137e-03 1.865815604105591774e-03 4.604661371558904648e-04
6.210000000000000000e+02 1.093753337860107422e+00 2.418439483642578125e+01 -5.563959130086004734e-04 5.074602086097002029e-03 1.355461892671883106e-03 9.014600655063986778e-04
6.220000000000000000e+02 3.680013120174407959e-01 2.674127197265625000e+01 -4.172749759163707495e-04 4.415061324834823608e-03 1.199335907585918903e-03 6.669935537502169609e-04
6.230000000000000000e+02 3.781429827213287354e-01 2.914778137207031250e+01 3.081142785958945751e-04 -4.553616163320839405e-04 -4.417420495883561671e-05 8.341187494806945324e-04
6.240000000000000000e+02 3.848361968994140625e-01 2.995181274414062500e+01 -3.686275449581444263e-04 -2.457792405039072037e-03 -8.479260141029953957e-04 1.022813492454588413e-03
6.250000000000000000e+02 3.932520747184753418e-01 3.075694274902343750e+01 2.706161467358469963e-04 -4.560866858810186386e-03 -1.287075225263834000e-03 1.013135188259184361e-03
6.260000000000000000e+02 4.020763635635375977e-01 3.156264495849609375e+01 -2.967499895021319389e-04 -6.750745698809623718e-03 -2.114248694851994514e-03 1.129118958488106728e-03
6.270000000000000000e+02 1.200913548469543457e+00 3.139245223999023438e+01 2.644648193381726742e-04 -8.171154186129570007e-03 -2.372006652876734734e-03 3.179989056661725044e-03
6.280000000000000000e+02 4.163661003112792969e-01 3.317247772216796875e+01 -2.585102920420467854e-04 -1.117896754294633865e-02 -3.431243356317281723e-03 1.178071019239723682e-03
6.290000000000000000e+02 4.533230960369110107e-01 3.558230972290039062e+01 3.726276918314397335e-04 -1.764538511633872986e-02 -5.181827582418918610e-03 1.095578074455261230e-03
6.300000000000000000e+02 4.960583746433258057e-01 3.638749694824218750e+01 -3.636985202319920063e-04 -1.961618103086948395e-02 -5.993963684886693954e-03 1.185102970339357853e-03
6.310000000000000000e+02 5.364930629730224609e-01 3.718932723999023438e+01 5.243581254035234451e-04 -2.122297324240207672e-02 -6.209584884345531464e-03 9.533833945170044899e-04
6.320000000000000000e+02 5.092972517013549805e-01 3.800266265869140625e+01 -3.511632385198026896e-04 -2.260070294141769409e-02 -6.885559763759374619e-03 9.356451919302344322e-04
6.330000000000000000e+02 4.348276853561401367e-01 3.881139755249023438e+01 5.205216584727168083e-04 -2.398277074098587036e-02 -7.038674782961606979e-03 7.109314319677650928e-04
6.340000000000000000e+02 4.635234773159027100e-01 4.035814666748046875e+01 2.526364114601165056e-04 -2.604598365724086761e-02 -7.738004438579082489e-03 4.209051257930696011e-04
6.350000000000000000e+02 9.741282463073730469e+00 1.806336283683776855e+00 5.344399251043796539e-04 -2.762125586741603911e-05 1.520455989520996809e-04 2.836401904460217338e-07
6.360000000000000000e+02 8.951889991760253906e+00 1.825029373168945312e+00 4.971877788193523884e-04 -5.584365862887352705e-05 1.324032346019521356e-04 -6.250596925383433700e-05
6.370000000000000000e+02 8.166343688964843750e+00 1.835279345512390137e+00 5.174055695533752441e-04 -2.784268872346729040e-05 1.468688569730147719e-04 -1.025760648190043867e-04
6.380000000000000000e+02 7.382412433624267578e+00 1.841489791870117188e+00 4.465256934054195881e-04 -5.282052370603196323e-05 1.181115512736141682e-04 -1.343985495623201132e-04
6.390000000000000000e+02 6.599422454833984375e+00 1.845755696296691895e+00 4.293319943826645613e-04 -1.169276310974964872e-05 1.252917718375101686e-04 -1.634588261367753148e-04
6.400000000000000000e+02 5.035608768463134766e+00 1.852253913879394531e+00 3.083414048887789249e-04 1.741663618304301053e-05 9.772741759661585093e-05 -1.835436560213565826e-04
6.410000000000000000e+02 4.254808425903320312e+00 1.855435848236083984e+00 2.111632493324577808e-04 1.247359978151507676e-05 6.709105946356430650e-05 -1.676227111602202058e-04
6.420000000000000000e+02 3.475190639495849609e+00 1.859494686126708984e+00 1.833713322412222624e-04 4.829316821997053921e-05 6.949935050215572119e-05 -1.533342729089781642e-04
6.430000000000000000e+02 2.697067499160766602e+00 1.864593744277954102e+00 9.335297363577410579e-05 4.516073022386990488e-05 4.155411079409532249e-05 -1.145344795077107847e-04
6.440000000000000000e+02 1.920924425125122070e+00 1.871169209480285645e+00 8.047775918385013938e-05 6.313778430921956897e-05 4.308466304792091250e-05 -8.312165300594642758e-05
6.450000000000000000e+02 1.284921360015869141e+01 1.340825796127319336e+00 3.915819106623530388e-04 -3.303579796920530498e-05 1.075638283509761095e-04 1.240855199284851551e-04
6.460000000000000000e+02 1.360147857666015625e+01 1.207538366317749023e+00 2.915682853199541569e-04 -4.457573959371075034e-05 7.409776299027726054e-05 1.119033404393121600e-04
6.470000000000000000e+02 1.506507492065429688e+01 9.422679543495178223e-01 1.723305176710709929e-04 -1.777484430931508541e-05 4.636670200852677226e-05 9.759370004758238792e-05
6.480000000000000000e+02 1.579051208496093750e+01 8.122550845146179199e-01 1.641437556827440858e-04 1.121655986935365945e-05 5.260809120954945683e-05 9.432203660253435373e-05
6.490000000000000000e+02 2.038410568237304688e+01 5.873722076416015625e+00 -1.233137882081791759e-04 9.698588837636634707e-05 -7.898371222836431116e-06 -3.947165532736107707e-05
6.500000000000000000e+02 2.018535041809082031e+01 4.965433597564697266e+00 -1.353588595520704985e-04 1.106277850340120494e-04 -7.419324902002699673e-06 -1.998255356738809496e-05
6.510000000000000000e+02 1.946243858337402344e+01 3.180463612079620361e-01 -1.825830622692592442e-05 7.040162927296478301e-06 -3.365443035363568924e-06 1.074931242328602821e-05
6.520000000000000000e+02 2.273836135864257812e+01 1.785633683204650879e+00 3.748842573259025812e-05 2.433865847706329077e-05 1.854812580859288573e-05 2.755839159362949431e-05
6.530000000000000000e+02 2.270615005493164062e+01 4.010092318058013916e-01 -2.036166370089631528e-05 -2.295848025823943317e-05 -1.299604355153860524e-05 -1.171383246401092038e-05
6.540000000000000000e+02 2.368908309936523438e+01 1.306012392044067383e+00 4.210382030578330159e-05 5.667916866514133289e-06 1.433152101526502520e-05 2.064766704279463738e-05
6.550000000000000000e+02 2.340386772155761719e+01 5.143010616302490234e-01 3.235700205550529063e-05 8.113224794215057045e-06 1.214106850966345519e-05 1.163121032732306048e-05
6.560000000000000000e+02 2.408080673217773438e+01 6.400074958801269531e-01 -2.779307942546438426e-05 -9.328928172180894762e-06 -1.113660164264729246e-05 -1.053726373356766999e-05
6.570000000000000000e+02 2.243296813964843750e+01 1.031893253326416016e+00 3.073981497436761856e-05 1.737876482366118580e-05 1.443557448510546237e-05 4.152537712798221037e-06
6.580000000000000000e+02 2.199544334411621094e+01 3.021419048309326172e-01 2.624370972625911236e-05 1.301508109463611618e-05 1.177763715531909838e-05 -6.464214948209701106e-06
6.590000000000000000e+02 2.120860862731933594e+01 2.601049542427062988e-01 -2.071823655569460243e-05 -1.187990801554406062e-05 -9.779443644220009446e-06 -4.418827302288264036e-06
6.600000000000000000e+02 1.866382598876953125e+01 3.918139338493347168e-01 5.178614082979038358e-05 2.541120375099126250e-05 2.315920391993131489e-05 9.278546713176183403e-06
6.610000000000000000e+02 2.079549407958984375e+01 5.159513950347900391e+00 8.663914923090487719e-05 2.647967812663409859e-05 3.393564838916063309e-05 5.066410449217073619e-05
6.620000000000000000e+02 1.944358253479003906e+01 1.003044366836547852e+00 6.277752254391089082e-05 2.885489629989024252e-05 2.748972656263504177e-05 2.959327957796631381e-06
6.630000000000000000e+02 1.978074455261230469e+01 7.398688793182373047e+00 -1.471965078962966800e-04 3.933759289793670177e-04 7.385382195934653282e-05 -8.334400627063587308e-05
6.640000000000000000e+02 1.908712387084960938e+01 9.740070343017578125e+00 2.222444891231134534e-04 1.634815125726163387e-03 5.571178626269102097e-04 -1.050944993039593101e-04
6.650000000000000000e+02 1.893378067016601562e+01 1.054253292083740234e+01 -1.485693064751103520e-04 2.341554267331957817e-03 6.578954635187983513e-04 -6.370729533955454826e-05
6.660000000000000000e+02 1.867015266418457031e+01 1.297141933441162109e+01 3.736847138497978449e-04 5.421561188995838165e-03 1.738573657348752022e-03 2.470130566507577896e-04
6.670000000000000000e+02 1.864778137207031250e+01 1.460179424285888672e+01 3.609208215493708849e-04 8.227214217185974121e-03 2.576440339908003807e-03 7.081782678142189980e-04
6.680000000000000000e+02 1.865740203857421875e+01 1.541393470764160156e+01 -8.910383621696382761e-05 1.053746324032545090e-02 3.134507685899734497e-03 1.119169872254133224e-03
6.690000000000000000e+02 1.910250282287597656e+01 1.863775634765625000e+01 2.837496111169457436e-03 1.943090371787548065e-02 6.680519785732030869e-03 6.859887856990098953e-03
6.700000000000000000e+02 2.055451393127441406e+01 2.074623870849609375e+01 -4.331976175308227539e-02 -1.566289691254496574e-03 -1.346581522375345230e-02 -1.307711005210876465e-02
6.710000000000000000e+02 2.299484062194824219e+01 2.157397842407226562e+01 -2.229254841804504395e-01 -1.782575622200965881e-02 -7.222536951303482056e-02 2.817581035196781158e-02
6.720000000000000000e+02 2.457829475402832031e+01 2.227837562561035156e+01 -2.192767411470413208e-01 -2.377572283148765564e-02 -7.291574031114578247e-02 6.861520558595657349e-02
6.730000000000000000e+02 2.381659126281738281e+01 2.147108650207519531e+01 -2.301054596900939941e-01 -1.764545030891895294e-02 -7.432527095079421997e-02 4.792283475399017334e-02
6.740000000000000000e+02 2.619036865234375000e+01 2.107826042175292969e+01 -3.156450986862182617e-01 -3.328153491020202637e-02 -1.046779900789260864e-01 7.864273339509963989e-02
6.750000000000000000e+02 2.697723007202148438e+01 2.088869476318359375e+01 -3.218702375888824463e-01 -3.528865054249763489e-02 -1.071476712822914124e-01 9.751255065202713013e-02
6.760000000000000000e+02 2.775217247009277344e+01 2.068283462524414062e+01 -3.239054083824157715e-01 -3.342014178633689880e-02 -1.071976646780967712e-01 1.035657972097396851e-01
6.770000000000000000e+02 2.944983100891113281e+01 2.135801506042480469e+01 -3.016970753669738770e-01 -8.484990149736404419e-02 -1.159640923142433167e-01 1.467348784208297729e-01
6.780000000000000000e+02 3.163463211059570312e+01 1.935631179809570312e+01 -3.907294869422912598e-01 -1.205489486455917358e-01 -1.533835381269454956e-01 2.071294784545898438e-01
6.790000000000000000e+02 3.234167480468750000e+01 1.889278411865234375e+01 -3.700819313526153564e-01 -1.367239356040954590e-01 -1.520417630672454834e-01 2.108657062053680420e-01
6.800000000000000000e+02 3.367059707641601562e+01 1.792465972900390625e+01 -2.962086200714111328e-01 -1.351504623889923096e-01 -1.294077187776565552e-01 1.963492035865783691e-01
6.810000000000000000e+02 3.606919097900390625e+01 1.697416877746582031e+01 -2.308741360902786255e-01 -6.683503091335296631e-02 -8.931274712085723877e-02 1.292980611324310303e-01
6.820000000000000000e+02 3.675280380249023438e+01 1.537615966796875000e+01 -1.461105942726135254e-01 -7.779870182275772095e-02 -6.717278808355331421e-02 1.086262017488479614e-01
6.830000000000000000e+02 3.792333602905273438e+01 1.430206298828125000e+01 -9.369841963052749634e-02 -5.075086653232574463e-02 -4.333478584885597229e-02 6.996303796768188477e-02
6.840000000000000000e+02 3.902742004394531250e+01 1.315036678314208984e+01 -4.126352444291114807e-02 -1.706296578049659729e-02 -1.749794743955135345e-02 2.952038124203681946e-02
6.850000000000000000e+02 4.005524063110351562e+01 1.193220233917236328e+01 -1.058584731072187424e-02 6.950573995709419250e-03 -1.090581878088414669e-03 2.568758558481931686e-03
6.860000000000000000e+02 4.050342178344726562e+01 1.128161430358886719e+01 -8.783272933214902878e-04 1.573275029659271240e-02 4.456327296793460846e-03 -5.484311375766992569e-03
6.870000000000000000e+02 4.092338562011718750e+01 1.062925052642822266e+01 3.813643008470535278e-03 1.861433312296867371e-02 6.728393025696277618e-03 -1.061430573463439941e-02
6.880000000000000000e+02 4.210828018188476562e+01 8.290442466735839844e+00 2.530171303078532219e-03 1.235978864133358002e-02 4.466988146305084229e-03 -5.631725769490003586e-03
6.890000000000000000e+02 4.227085876464843750e+01 9.111166000366210938e+00 7.498093880712985992e-03 1.128700468689203262e-02 5.635529756546020508e-03 -7.268607616424560547e-03
6.900000000000000000e+02 4.222014617919921875e+01 7.541212558746337891e+00 1.540634199045598507e-03 7.721058558672666550e-03 2.778507769107818604e-03 -3.379831789061427116e-03
6.910000000000000000e+02 4.299236297607421875e+01 4.978123664855957031e+00 1.019833842292428017e-03 6.791629712097346783e-04 5.096990498714148998e-04 -7.260789861902594566e-04
6.920000000000000000e+02 4.211467361450195312e+01 4.283799648284912109e+00 7.274495146702975035e-05 3.062642063014209270e-04 1.137027502409182489e-04 2.837684587575495243e-04
6.930000000000000000e+02 4.444784927368164062e+01 3.951283931732177734e+00 1.825193903641775250e-04 -3.771185874938964844e-04 -5.837975550093688071e-05 -1.975631021196022630e-04
6.940000000000000000e+02 4.664828491210937500e+01 3.705049037933349609e+00 1.535177463665604591e-03 5.701681948266923428e-04 6.316037033684551716e-04 3.479454899206757545e-04
6.950000000000000000e+02 4.605127334594726562e+01 4.543770790100097656e+00 2.061208942905068398e-03 2.412241592537611723e-04 6.907299393787980080e-04 5.103611620143055916e-04
6.960000000000000000e+02 4.834137344360351562e+01 5.226184844970703125e+00 2.300594002008438110e-03 8.645952912047505379e-04 9.495567646808922291e-04 6.471126107499003410e-04
6.970000000000000000e+02 4.690262222290039062e+01 5.254074573516845703e+00 2.583073684945702553e-03 3.968981036450713873e-04 8.939915569499135017e-04 1.530799898318946362e-03
6.980000000000000000e+02 4.847344589233398438e+01 6.836350440979003906e+00 3.879204858094453812e-03 3.918574657291173935e-03 2.339333994314074516e-03 1.686766976490616798e-03
6.990000000000000000e+02 4.841150665283203125e+01 6.030484199523925781e+00 -2.606202149763703346e-03 1.781012513674795628e-03 -2.475568617228418589e-04 3.856695839203894138e-04
7.000000000000000000e+02 4.854848480224609375e+01 7.644495010375976562e+00 -3.292786423116922379e-03 7.319783791899681091e-03 1.208099187351763248e-03 2.111308742314577103e-03
7.010000000000000000e+02 4.865788650512695312e+01 8.448075294494628906e+00 5.773342214524745941e-03 1.134318765252828598e-02 5.134958773851394653e-03 3.900995943695306778e-03
7.020000000000000000e+02 4.878620910644531250e+01 9.246171951293945312e+00 -3.218334401026368141e-03 1.612992398440837860e-02 3.873476758599281311e-03 5.135321989655494690e-03
7.030000000000000000e+02 4.925923919677734375e+01 1.164648056030273438e+01 6.115338765084743500e-03 2.681843005120754242e-02 9.880130179226398468e-03 6.428664550185203552e-03
7.040000000000000000e+02 4.944752120971679688e+01 1.244912052154541016e+01 -5.324165802448987961e-03 2.652742341160774231e-02 6.360977422446012497e-03 5.433334503322839737e-03
7.050000000000000000e+02 5.018429183959960938e+01 1.480364418029785156e+01 -4.983059130609035492e-03 -1.233600825071334839e-02 -5.195720121264457703e-03 -1.790647581219673157e-02
7.060000000000000000e+02 5.063875579833984375e+01 1.807682800292968750e+01 -2.722100019454956055e-01 -1.609497964382171631e-01 -1.299479305744171143e-01 -2.237875163555145264e-01
7.070000000000000000e+02 5.135877990722656250e+01 1.787540626525878906e+01 -1.273930966854095459e-01 -2.444605231285095215e-01 -1.115560904145240784e-01 -1.836324632167816162e-01
7.080000000000000000e+02 5.173350524902343750e+01 1.861852073669433594e+01 -2.710951566696166992e-01 -3.353790044784545898e-01 -1.819422394037246704e-01 -2.691635787487030029e-01
7.090000000000000000e+02 5.330366897583007812e+01 2.076296043395996094e+01 -1.596212148666381836e+00 -4.613578319549560547e-01 -6.172710061073303223e-01 -6.359164714813232422e-01
7.100000000000000000e+02 5.578605651855468750e+01 2.156066131591796875e+01 -2.238889217376708984e+00 -1.643140017986297607e-01 -7.209609746932983398e-01 -5.021176934242248535e-01
7.110000000000000000e+02 5.739162445068359375e+01 2.193474197387695312e+01 -2.672241210937500000e+00 -1.458886414766311646e-01 -8.454389572143554688e-01 -4.448362290859222412e-01
7.120000000000000000e+02 5.889493179321289062e+01 2.306103706359863281e+01 -2.375028848648071289e+00 -5.323645472526550293e-02 -7.284796237945556641e-01 -1.413150131702423096e-01
7.130000000000000000e+02 5.902219009399414062e+01 2.220691680908203125e+01 -3.013420581817626953e+00 -1.004408374428749084e-01 -9.341584444046020508e-01 -3.887277841567993164e-01
7.140000000000000000e+02 5.984580230712890625e+01 2.231901550292968750e+01 -3.418792724609375000e+00 -8.947364985942840576e-02 -1.052479863166809082e+00 -3.251125514507293701e-01
7.150000000000000000e+02 6.067683792114257812e+01 2.236608886718750000e+01 -3.672147274017333984e+00 -2.337542921304702759e-01 -1.171770453453063965e+00 -3.216991573572158813e-02
7.160000000000000000e+02 6.238005828857421875e+01 2.297185516357421875e+01 -1.811085462570190430e+00 2.679827213287353516e-01 -4.629308283329010010e-01 -3.758898079395294189e-01
7.170000000000000000e+02 6.311904907226562500e+01 2.203062629699707031e+01 -2.146290540695190430e+00 1.302950233221054077e-01 -6.047986745834350586e-01 1.248801499605178833e-01
7.180000000000000000e+02 6.470828247070312500e+01 2.163788795471191406e+01 -4.563166797161102295e-01 5.472503304481506348e-01 2.728009037673473358e-02 -4.559284448623657227e-01
7.190000000000000000e+02 6.815794372558593750e+01 1.986452102661132812e+01 3.839781284332275391e+00 1.628889465332031250e+01 6.038602828979492188e+00 -3.700423955917358398e+00
7.200000000000000000e+02 6.807312774658203125e+01 1.574100399017333984e+01 3.511264324188232422e-01 1.865733528137207031e+01 5.702538490295410156e+00 3.367306292057037354e-01
7.210000000000000000e+02 6.803061676025390625e+01 1.492981433868408203e+01 7.595720291137695312e-01 1.983310699462890625e+01 6.177803516387939453e+00 1.655501365661621094e+00
7.220000000000000000e+02 6.735567474365234375e+01 1.185797786712646484e+01 2.264653682708740234e+00 1.341961193084716797e+01 4.705279350280761719e+00 4.593485832214355469e+00
7.230000000000000000e+02 6.581420898437500000e+01 9.626294136047363281e+00 2.535943269729614258e+00 5.545976638793945312e+00 2.424576044082641602e+00 3.506948947906494141e+00
7.240000000000000000e+02 6.529003143310546875e+01 9.018005371093750000e+00 2.378553867340087891e+00 4.123358726501464844e+00 1.950573682785034180e+00 3.003443717956542969e+00
7.250000000000000000e+02 6.352804946899414062e+01 7.348049640655517578e+00 1.204151391983032227e+00 1.568997740745544434e+00 8.319447636604309082e-01 1.360282659530639648e+00
7.260000000000000000e+02 6.169883728027343750e+01 5.746829986572265625e+00 6.855832338333129883e-01 6.860042214393615723e-01 4.114762544631958008e-01 6.888434290885925293e-01
7.270000000000000000e+02 6.045664596557617188e+01 4.724004745483398438e+00 4.739472866058349609e-01 4.368477165699005127e-01 2.732385098934173584e-01 4.621394276618957520e-01
7.280000000000000000e+02 6.034088516235351562e+01 3.643354892730712891e+00 5.833415985107421875e-01 6.281481981277465820e-01 3.634469509124755859e-01 5.858966112136840820e-01
7.290000000000000000e+02 6.156521606445312500e+01 4.687655925750732422e+00 6.243650317192077637e-01 9.555131196975708008e-01 4.739634394645690918e-01 7.699826359748840332e-01
7.300000000000000000e+02 5.925409698486328125e+01 3.656583786010742188e+00 4.431456327438354492e-01 3.829761147499084473e-01 2.478365153074264526e-01 4.176270365715026855e-01
7.310000000000000000e+02 5.985013961791992188e+01 4.197747230529785156e+00 4.460940361022949219e-01 4.017204046249389648e-01 2.543443441390991211e-01 4.107246696949005127e-01
7.320000000000000000e+02 5.806210327148437500e+01 2.560727834701538086e+00 6.145951151847839355e-01 4.296700358390808105e-01 3.132795393466949463e-01 5.018817782402038574e-01
7.330000000000000000e+02 5.743048858642578125e+01 2.042599201202392578e+00 7.821756005287170410e-01 4.380342960357666016e-01 3.660629689693450928e-01 5.439035892486572266e-01
7.340000000000000000e+02 5.531111145019531250e+01 8.124559521675109863e-01 9.087557196617126465e-01 2.370152324438095093e-01 3.437312841415405273e-01 4.572260379791259766e-01
7.350000000000000000e+02 4.322257232666015625e+01 5.799929618835449219e+00 4.302907618694007397e-04 -1.112725221901200712e-04 9.570547263137996197e-05 -1.538549084216356277e-03
7.360000000000000000e+02 2.581526756286621094e+01 -2.837374925613403320e+00 -4.260851144790649414e-01 2.588474191725254059e-02 -1.200601086020469666e-01 1.471184045076370239e-01
7.370000000000000000e+02 2.798194122314453125e+01 -3.781445264816284180e+00 -5.906355381011962891e-01 -3.165439665317535400e-01 -2.721538543701171875e-01 4.460389316082000732e-01
7.380000000000000000e+02 5.144115447998046875e+01 1.062011718750000000e-01 -1.342449545860290527e+00 -1.934472769498825073e-01 -4.607690274715423584e-01 4.378639757633209229e-01
7.390000000000000000e+02 4.917505264282226562e+01 -2.395578771829605103e-01 -9.961650967597961426e-01 1.389421820640563965e-01 -2.571668624877929688e-01 2.721023559570312500e-01
7.400000000000000000e+02 5.051430130004882812e+01 -7.502668350934982300e-02 -1.021826505661010742e+00 -2.240086048841476440e-01 -3.737505376338958740e-01 3.547613322734832764e-01
7.410000000000000000e+02 9.409734725952148438e+00 -1.870343089103698730e+00 2.019448876380920410e-01 -3.379583731293678284e-02 5.044471472501754761e-02 2.561366930603981018e-02
7.420000000000000000e+02 1.070841693878173828e+01 -3.422327995300292969e+00 1.141581088304519653e-01 -7.037529349327087402e-02 1.313484366983175278e-02 1.455331407487392426e-02
7.430000000000000000e+02 1.078108882904052734e+01 -2.745995283126831055e+00 1.615123450756072998e-01 -5.110077932476997375e-02 3.312347084283828735e-02 1.070923544466495514e-02
7.440000000000000000e+02 1.148990917205810547e+01 -2.854274511337280273e+00 1.570389121770858765e-01 -5.191113799810409546e-02 3.153833374381065369e-02 -8.972014300525188446e-03
7.450000000000000000e+02 1.450173377990722656e+01 -2.691029071807861328e+00 1.377594321966171265e-01 -6.721334531903266907e-03 3.931142762303352356e-02 -9.860209375619888306e-02
7.460000000000000000e+02 1.795701217651367188e+01 1.170386314392089844e+00 9.309320739703252912e-05 4.646402521757408977e-05 4.186716978438198566e-05 5.359267015592195094e-05
7.470000000000000000e+02 1.650975036621093750e+01 6.951119303703308105e-01 7.807579822838306427e-05 2.468792672516428865e-06 2.416337702015880495e-05 6.484866753453388810e-05
7.480000000000000000e+02 1.723742103576660156e+01 1.265626072883605957e+00 5.038881863583810627e-05 2.134784517693333328e-05 2.152100023522507399e-05 7.080806244630366564e-05
7.490000000000000000e+02 2.217119979858398438e+01 1.643156170845031738e+00 -1.330217310169246048e-05 -4.805774005944840610e-05 -1.840797449403908104e-05 -1.076847911463119090e-05
7.500000000000000000e+02 2.326914978027343750e+01 1.963548183441162109e+00 -5.911159314564429224e-05 -3.067008947255089879e-05 -2.693450551305431873e-05 -2.337836122023873031e-05
7.510000000000000000e+02 2.229764366149902344e+01 3.203935384750366211e+00 -9.529742237646132708e-05 -4.893443110631778836e-05 -4.326955604483373463e-05 -3.457726415945217013e-05
7.520000000000000000e+02 4.360155105590820312e+01 6.544363975524902344e+00 4.215160384774208069e-03 7.238647085614502430e-04 1.481707440689206123e-03 -2.398855751380324364e-03
7.530000000000000000e+02 4.532014846801757812e+01 4.616744518280029297e+00 5.967919132672250271e-04 -1.125420676544308662e-03 -1.585886348038911819e-04 -6.268242577789351344e-05
7.540000000000000000e+02 4.591714477539062500e+01 3.784455299377441406e+00 -1.800158206606283784e-04 -5.562143051065504551e-04 -2.208690420957282186e-04 -5.667424920829944313e-05
7.550000000000000000e+02 1.437095355987548828e+01 1.752888560295104980e+00 2.425610873615369201e-04 -3.562837082426995039e-05 6.207981641637161374e-05 1.557504438096657395e-04
7.560000000000000000e+02 1.581377410888671875e+01 1.492150187492370605e+00 1.336156419711187482e-04 8.952544590101751965e-07 4.035326855955645442e-05 1.222892024088650942e-04
7.570000000000000000e+02 1.509755706787109375e+01 1.620825529098510742e+00 2.463099663145840168e-04 1.362455986964050680e-05 7.798035949235782027e-05 1.596596994204446673e-04
7.580000000000000000e+02 1.525090980529785156e+01 -2.824554204940795898e+00 9.823516011238098145e-02 -2.397022675722837448e-03 2.875144220888614655e-02 -1.229365468025207520e-01
7.590000000000000000e+02 1.220379066467285156e+01 -2.972939729690551758e+00 1.445952951908111572e-01 -4.739313572645187378e-02 2.916064672172069550e-02 -2.994808554649353027e-02
7.600000000000000000e+02 1.441624355316162109e+01 -3.365611553192138672e+00 7.121917605400085449e-02 -3.184291720390319824e-02 1.181287877261638641e-02 -1.164700537919998169e-01
7.610000000000000000e+02 1.293011093139648438e+01 -3.098733186721801758e+00 1.277739703655242920e-01 -4.460662603378295898e-02 2.495020441710948944e-02 -5.740994587540626526e-02
7.620000000000000000e+02 1.366909790039062500e+01 -3.230735540390014648e+00 1.024215668439865112e-01 -3.706555068492889404e-02 1.960680633783340454e-02 -8.491309732198715210e-02
7.630000000000000000e+02 4.754949569702148438e+01 -7.794022560119628906e-01 -9.940326213836669922e-01 2.998561859130859375e-01 -2.082529217004776001e-01 8.677736669778823853e-02
7.640000000000000000e+02 4.700992584228515625e+01 -4.249496012926101685e-02 -9.500064849853515625e-01 1.813530027866363525e-01 -2.305960506200790405e-01 1.526182144880294800e-02
7.650000000000000000e+02 4.823097610473632812e+01 -8.952854275703430176e-01 -9.880057573318481445e-01 2.845480740070343018e-01 -2.110373079776763916e-01 1.929156929254531860e-01
7.660000000000000000e+02 5.099137878417968750e+01 -7.545095920562744141e+00 -2.775675058364868164e-01 1.037181615829467773e+00 2.278842478990554810e-01 9.457058906555175781e-01
7.670000000000000000e+02 4.535922622680664062e+01 -4.810644388198852539e-01 -9.714128375053405762e-01 2.549054324626922607e-01 -2.149522304534912109e-01 -2.622049152851104736e-01
7.680000000000000000e+02 4.609345626831054688e+01 -5.806299448013305664e-01 -9.780747890472412109e-01 2.723685801029205322e-01 -2.117118686437606812e-01 -1.442865431308746338e-01
7.690000000000000000e+02 4.247480773925781250e+01 -1.103889495134353638e-01 -5.079578161239624023e-01 -2.163891196250915527e-01 -2.173040658235549927e-01 -4.807823002338409424e-01
7.700000000000000000e+02 1.749962997436523438e+01 -3.853661775588989258e+00 -1.218053475022315979e-01 9.851388633251190186e-03 -3.358618915081024170e-02 -2.249233126640319824e-01
7.710000000000000000e+02 1.833764457702636719e+01 -3.274269104003906250e+00 -1.330484002828598022e-01 2.185848355293273926e-02 -3.335697203874588013e-02 -1.901463866233825684e-01
7.720000000000000000e+02 1.517305755615234375e+01 -3.498588323593139648e+00 3.108347579836845398e-02 -2.063030935823917389e-02 3.135949838906526566e-03 -1.468639522790908813e-01
7.730000000000000000e+02 1.594148159027099609e+01 -3.625224590301513672e+00 -1.467026118189096451e-02 -1.274548936635255814e-02 -8.224724791944026947e-03 -1.775192320346832275e-01
7.740000000000000000e+02 1.829644012451171875e+01 -3.951291084289550781e+00 -1.788442581892013550e-01 2.383009344339370728e-02 -4.650424793362617493e-02 -2.379904836416244507e-01
7.750000000000000000e+02 8.898126602172851562e+00 3.134342193603515625e+00 5.007489817216992378e-04 -1.652573846513405442e-04 1.006474776659160852e-04 -8.469466411042958498e-05
7.760000000000000000e+02 1.053402519226074219e+01 2.357470750808715820e+00 5.252754199318587780e-04 -6.973784911679103971e-05 1.366612705169245601e-04 6.752504123141989112e-05
7.770000000000000000e+02 8.925056457519531250e+00 2.476996660232543945e+00 5.337133188731968403e-04 -7.002375787124037743e-05 1.391068653902038932e-04 -6.503823533421382308e-05
7.780000000000000000e+02 8.127278327941894531e+00 2.504317283630371094e+00 4.704275634139776230e-04 -9.791811316972598433e-05 1.117528299801051617e-04 -1.282793673453852534e-04
7.790000000000000000e+02 7.334320068359375000e+00 2.521758794784545898e+00 4.818566667381674051e-04 -5.046121441409923136e-05 1.294186367886140943e-04 -1.763674081303179264e-04
7.800000000000000000e+02 1.051067471504211426e+00 7.325222015380859375e+00 1.057013214449398220e-04 7.865728111937642097e-04 2.676822477951645851e-04 -2.924440195783972740e-04
7.810000000000000000e+02 6.544758796691894531e+00 2.534090042114257812e+00 3.904213372152298689e-04 -6.202198710525408387e-05 9.851980576058849692e-05 -2.074615913443267345e-04
7.820000000000000000e+02 1.800715088844299316e+00 4.127538204193115234e+00 2.461758776917122304e-05 2.173872489947825670e-04 7.260144775500521064e-05 -1.994784979615360498e-04
7.830000000000000000e+02 2.637565135955810547e+00 2.595067501068115234e+00 1.385541690979152918e-04 9.887076885206624866e-05 7.122747774701565504e-05 -1.700200373306870461e-04
7.840000000000000000e+02 1.869602918624877930e+00 2.617269515991210938e+00 3.978119275416247547e-05 9.585075167706236243e-05 4.068958151037804782e-05 -1.151140095316804945e-04
7.850000000000000000e+02 3.675110638141632080e-01 2.684099674224853516e+00 -2.048720307357143611e-05 4.935924880555830896e-05 8.661613719596061856e-06 -2.004230191232636571e-05
7.860000000000000000e+02 1.132744503021240234e+01 2.254188776016235352e+00 4.569251905195415020e-04 -1.041753203026019037e-04 1.058249617926776409e-04 1.025427263812161982e-04
7.870000000000000000e+02 1.052860260009765625e+01 1.733913540840148926e+00 4.878189647570252419e-04 -6.103431951487436891e-05 1.280354044865816832e-04 3.653781095636077225e-05
7.880000000000000000e+02 1.362994003295898438e+01 1.884265184402465820e+00 3.584268270060420036e-04 -2.563782436482142657e-05 9.983670315705239773e-05 1.828379317885264754e-04
7.890000000000000000e+02 1.287354087829589844e+01 2.011600494384765625e+00 3.647747216746211052e-04 -7.887211540946736932e-05 8.577078551752492785e-05 1.561311946716159582e-04
7.900000000000000000e+02 2.846812248229980469e+01 -4.347681045532226562e+00 -1.319377541542053223e+00 -4.534398019313812256e-01 -5.318452119827270508e-01 6.372397541999816895e-01
7.910000000000000000e+02 3.100681114196777344e+01 -5.771334648132324219e+00 -2.707582235336303711e+00 -3.233986198902130127e-01 -9.092942476272583008e-01 -2.984419092535972595e-02
7.920000000000000000e+02 3.179370117187500000e+01 -5.718925952911376953e+00 -2.846280574798583984e+00 -2.266892641782760620e-01 -9.218909740447998047e-01 -2.304243147373199463e-01
7.930000000000000000e+02 2.782909393310546875e+01 -4.764281272888183594e+00 -1.389455795288085938e+00 5.817117914557456970e-02 -3.993853926658630371e-01 2.243920862674713135e-01
7.940000000000000000e+02 4.378568649291992188e+01 -9.665277004241943359e-01 -1.031847357749938965e+00 1.833687126636505127e-01 -2.545435726642608643e-01 -4.885137379169464111e-01
7.950000000000000000e+02 3.964722442626953125e+01 -3.524948596954345703e+00 -2.332165241241455078e+00 -7.954514622688293457e-01 -9.382849931716918945e-01 -9.903383851051330566e-01
7.960000000000000000e+02 3.811487960815429688e+01 -4.231073379516601562e+00 -2.488530635833740234e+00 -6.426966190338134766e-01 -9.393681287765502930e-01 -9.517387151718139648e-01
7.970000000000000000e+02 1.693512725830078125e+01 -1.225288772583007812e+01 -1.126935482025146484e+00 -9.475342184305191040e-02 -3.665066957473754883e-01 -1.082650646567344666e-01
7.980000000000000000e+02 3.889152145385742188e+01 -3.903223276138305664e+00 -2.493986606597900391e+00 -7.768058776855468750e-01 -9.812377095222473145e-01 -9.724727869033813477e-01
7.990000000000000000e+02 3.940185546875000000e+01 -2.907627820968627930e+00 -2.749362468719482422e+00 -1.095116376876831055e+00 -1.153343677520751953e+00 -1.566680431365966797e+00
8.000000000000000000e+02 3.176797866821289062e+01 -5.110757350921630859e+00 -3.356980323791503906e+00 -7.288896292448043823e-02 -1.028960824012756348e+00 -2.816756367683410645e-01
8.010000000000000000e+02 3.668031311035156250e+01 -5.452001571655273438e+00 -2.093101024627685547e+00 -3.525592088699340820e-01 -7.336981296539306641e-01 -7.155181169509887695e-01
8.020000000000000000e+02 3.258892822265625000e+01 -5.637217044830322266e+00 -2.805538892745971680e+00 -2.793456614017486572e-01 -9.254653453826904297e-01 -4.212457835674285889e-01
8.030000000000000000e+02 4.261122894287109375e+01 4.801461398601531982e-01 -3.791709542274475098e-01 -1.135652363300323486e-01 -1.478208601474761963e-01 -3.157897293567657471e-01
8.040000000000000000e+02 4.124021148681640625e+01 -1.194070100784301758e+00 -8.932508230209350586e-01 -9.237675070762634277e-01 -5.451055169105529785e-01 -8.054802417755126953e-01
8.050000000000000000e+02 3.716727447509765625e+01 -3.830034017562866211e+00 -2.983439683914184570e+00 -2.766375243663787842e-01 -9.780231118202209473e-01 -8.844850659370422363e-01
8.060000000000000000e+02 3.563196182250976562e+01 -4.263348579406738281e+00 -2.726750373840332031e+00 -2.439392805099487305e-01 -8.912069201469421387e-01 -8.065344095230102539e-01
8.070000000000000000e+02 3.339052581787109375e+01 -5.518276214599609375e+00 -2.719775915145874023e+00 -3.375844955444335938e-01 -9.172080755233764648e-01 -4.847365021705627441e-01
8.080000000000000000e+02 2.499603080749511719e+01 -3.053068876266479492e+00 -4.807722270488739014e-01 8.405604213476181030e-02 -1.190148591995239258e-01 9.426121413707733154e-02
8.090000000000000000e+02 2.745123100280761719e+01 -4.221679687500000000e+00 -1.045491814613342285e+00 -5.243299901485443115e-02 -3.293774425983428955e-01 3.949884474277496338e-01
8.100000000000000000e+02 4.156262969970703125e+01 6.090833544731140137e-01 -6.293561309576034546e-02 -2.923920750617980957e-01 -1.065983101725578308e-01 -1.203074902296066284e-01
8.110000000000000000e+02 3.732442855834960938e+01 -4.508817195892333984e+00 -2.503017187118530273e+00 -4.370609521865844727e-01 -8.820234537124633789e-01 -9.189296960830688477e-01
8.120000000000000000e+02 3.423912429809570312e+01 -6.043925762176513672e+00 -2.235377311706542969e+00 -3.207994103431701660e-01 -7.668530344963073730e-01 -4.402656257152557373e-01
8.130000000000000000e+02 2.287778663635253906e+01 2.248083877563476562e+01 -1.619423478841781616e-01 -3.126965463161468506e-02 -5.796360224485397339e-02 4.886059090495109558e-02
8.140000000000000000e+02 6.868147277832031250e+01 -2.000631523132324219e+01 1.711389541625976562e+00 1.245165729522705078e+01 4.248914241790771484e+00 1.860951185226440430e+00
8.150000000000000000e+02 6.794966888427734375e+01 -2.076812934875488281e+01 2.414583683013916016e+00 1.499632167816162109e+01 5.223271369934082031e+00 3.457405567169189453e+00
8.160000000000000000e+02 2.539522933959960938e+01 2.120536994934082031e+01 -2.658146619796752930e-01 -1.095293369144201279e-02 -8.303028345108032227e-02 5.586788430809974670e-02
8.170000000000000000e+02 4.807927322387695312e+01 9.211492538452148438e+00 6.804624572396278381e-03 6.227372679859399796e-03 3.909599035978317261e-03 6.601559929549694061e-03
8.180000000000000000e+02 4.372637176513671875e+01 7.453898429870605469e+00 4.409386310726404190e-03 -1.096414984203875065e-03 9.938913863152265549e-04 -3.279171884059906006e-03
8.190000000000000000e+02 4.194351196289062500e+01 1.159620952606201172e+01 -2.743828669190406799e-02 4.202149342745542526e-03 -6.970841437578201294e-03 4.792769905179738998e-03
8.200000000000000000e+02 4.060241317749023438e+01 1.244138622283935547e+01 -4.090141505002975464e-02 7.889585569500923157e-03 -9.903548285365104675e-03 1.528404746204614639e-02
8.210000000000000000e+02 4.312791824340820312e+01 7.051160812377929688e+00 2.110154367983341217e-03 2.077357494272291660e-04 6.953670526854693890e-04 -4.382868297398090363e-03
8.220000000000000000e+02 4.693378829956054688e+01 1.167841148376464844e+01 -1.957448571920394897e-02 -1.128676440566778183e-02 -9.258374571800231934e-03 -5.628881976008415222e-03
8.230000000000000000e+02 4.293681716918945312e+01 7.736841678619384766e+00 3.700856817886233330e-03 2.795845735818147659e-03 1.949010766111314297e-03 -4.847993142902851105e-03
8.240000000000000000e+02 3.282485198974609375e+01 1.964608955383300781e+01 -3.294040262699127197e-01 -1.058834344148635864e-01 -1.305862367153167725e-01 1.665375083684921265e-01
8.250000000000000000e+02 2.701729774475097656e+01 2.178011322021484375e+01 -2.705406248569488525e-01 -5.038670822978019714e-02 -9.627820551395416260e-02 9.666279703378677368e-02
8.260000000000000000e+02 2.620065116882324219e+01 2.196430206298828125e+01 -2.409765273332595825e-01 -4.607520624995231628e-02 -8.611552417278289795e-02 9.211700409650802612e-02
8.270000000000000000e+02 3.555599594116210938e+01 1.642360877990722656e+01 -2.033829838037490845e-01 -1.101416945457458496e-01 -9.405740350484848022e-02 1.501221507787704468e-01
8.280000000000000000e+02 3.545077896118164062e+01 1.750149726867675781e+01 -2.530387938022613525e-01 -7.877182960510253906e-02 -9.954318404197692871e-02 1.429555267095565796e-01
8.290000000000000000e+02 2.938178443908691406e+01 2.342512321472167969e+01 -1.917375028133392334e-01 -9.376056492328643799e-02 -8.564942330121994019e-02 1.355361193418502808e-01
8.300000000000000000e+02 2.781369209289550781e+01 2.161694717407226562e+01 -2.926606833934783936e-01 -4.786568135023117065e-02 -1.021579056978225708e-01 1.146390512585639954e-01
8.310000000000000000e+02 3.012871932983398438e+01 2.011495780944824219e+01 -4.321897625923156738e-01 -8.959189802408218384e-02 -1.565344929695129395e-01 1.694722920656204224e-01
8.320000000000000000e+02 3.131632041931152344e+01 2.288739013671875000e+01 -2.148922830820083618e-01 -9.954177588224411011e-02 -9.433021396398544312e-02 1.355103552341461182e-01
8.330000000000000000e+02 4.009951019287109375e+01 1.307831954956054688e+01 -6.021009013056755066e-02 3.212317125871777534e-03 -1.709933206439018250e-02 2.542614191770553589e-02
8.340000000000000000e+02 4.227730560302734375e+01 5.075865745544433594e+00 2.906929003074765205e-04 5.889766616746783257e-04 2.639008744154125452e-04 -4.521256778389215469e-04
8.350000000000000000e+02 4.618587493896484375e+01 5.296722412109375000e+00 6.876182742416858673e-04 -1.338897040113806725e-03 -1.953836472239345312e-04 5.416150088422000408e-04
8.360000000000000000e+02 2.853140830993652344e+01 2.049924087524414062e+01 -3.524741828441619873e-01 -3.595547005534172058e-02 -1.165288910269737244e-01 1.128275915980339050e-01
8.370000000000000000e+02 4.103181838989257812e+01 1.177528762817382812e+01 -2.309642173349857330e-02 7.787393406033515930e-03 -4.592708311975002289e-03 6.195134948939085007e-03
8.380000000000000000e+02 3.834101867675781250e+01 1.589469528198242188e+01 -1.850062906742095947e-01 -5.280215758830308914e-03 -5.708594992756843567e-02 7.709744572639465332e-02
8.390000000000000000e+02 4.222955703735351562e+01 1.017544174194335938e+01 5.445020506158471107e-04 4.827190656214952469e-03 1.611507730558514595e-03 -3.873280948027968407e-03
8.400000000000000000e+02 4.180669784545898438e+01 1.058291816711425781e+01 -4.217397421598434448e-03 6.463316734880208969e-03 6.737757357768714428e-04 -3.110937774181365967e-03
8.410000000000000000e+02 3.481785964965820312e+01 1.802321052551269531e+01 -2.750400304794311523e-01 -9.134505689144134521e-02 -1.099155247211456299e-01 1.555058807134628296e-01
8.420000000000000000e+02 4.271702957153320312e+01 4.197871685028076172e+00 -1.874289591796696186e-04 -8.540497219655662775e-06 -5.879083619220182300e-05 -3.425601171329617500e-04
8.430000000000000000e+02 4.361643600463867188e+01 4.059041023254394531e+00 8.241296163760125637e-04 3.553144633769989014e-04 3.538332239259034395e-04 -3.168698749504983425e-04
8.440000000000000000e+02 3.667174530029296875e+01 1.644212341308593750e+01 -2.044511884450912476e-01 -5.462491512298583984e-02 -7.772283256053924561e-02 1.168429479002952576e-01
8.450000000000000000e+02 3.469589614868164062e+01 1.915379524230957031e+01 -2.927925586700439453e-01 -6.568545848131179810e-02 -1.075434088706970215e-01 1.386472880840301514e-01
8.460000000000000000e+02 3.301876449584960938e+01 1.841444778442382812e+01 -3.348295688629150391e-01 -1.406624764204025269e-01 -1.426476091146469116e-01 2.101761996746063232e-01
8.470000000000000000e+02 3.848284149169921875e+01 1.373458099365234375e+01 -6.545841693878173828e-02 -3.407687693834304810e-02 -2.986058779060840607e-02 4.738825932145118713e-02
8.480000000000000000e+02 3.209650802612304688e+01 2.024503326416015625e+01 -3.359065949916839600e-01 -1.057283803820610046e-01 -1.324904859066009521e-01 1.587350070476531982e-01
8.490000000000000000e+02 3.840847778320312500e+01 1.481169891357421875e+01 -1.317718774080276489e-01 -2.099787630140781403e-02 -4.583092778921127319e-02 6.628094613552093506e-02
8.500000000000000000e+02 3.783754348754882812e+01 1.536293029785156250e+01 -1.547543853521347046e-01 -3.330462425947189331e-02 -5.641769990324974060e-02 8.356726169586181641e-02
8.510000000000000000e+02 5.007842636108398438e+01 -2.976476097106933594e+01 -2.872196258977055550e-03 7.284333109855651855e-01 2.176683247089385986e-01 -4.323351085186004639e-01
8.520000000000000000e+02 5.170318984985351562e+01 -8.367977142333984375e+00 6.006914377212524414e-01 6.744950413703918457e-01 3.825559318065643311e-01 7.064272165298461914e-01
8.530000000000000000e+02 5.172589874267578125e+01 -7.129714012145996094e+00 -4.528389871120452881e-01 6.262251138687133789e-01 5.201583355665206909e-02 1.143573403358459473e+00
8.540000000000000000e+02 3.543480682373046875e+01 -1.598306369781494141e+01 1.103485584259033203e+00 -2.760214209556579590e-01 2.482392638921737671e-01 -2.115292102098464966e-01
8.550000000000000000e+02 5.211373138427734375e+01 -7.551968097686767578e+00 -4.620223641395568848e-01 5.173248648643493652e-01 1.659074984490871429e-02 1.276289343833923340e+00
8.560000000000000000e+02 5.356546401977539062e+01 -7.206963062286376953e+00 -9.303080439567565918e-01 -3.563792407512664795e-01 -3.860061764717102051e-01 1.150418639183044434e+00
8.570000000000000000e+02 5.357617187500000000e+01 -8.215808868408203125e+00 -1.838169574737548828e+00 -2.610471546649932861e-01 -6.297650337219238281e-01 7.265244722366333008e-01
8.580000000000000000e+02 6.534184265136718750e+01 -1.255193805694580078e+01 -1.363313555717468262e+00 4.544692635536193848e-01 -2.726533114910125732e-01 1.545939594507217407e-01
8.590000000000000000e+02 3.593186950683593750e+01 -2.010290336608886719e+01 -5.299573298543691635e-03 -7.912333011627197266e-01 -2.389598637819290161e-01 -3.010072046890854836e-03
8.600000000000000000e+02 6.652960968017578125e+01 -2.277898788452148438e+01 1.995251059532165527e+00 4.245121955871582031e+00 1.872111916542053223e+00 2.804358005523681641e+00
8.610000000000000000e+02 6.769077301025390625e+01 -2.363876152038574219e+01 4.211178719997406006e-01 7.052359104156494141e+00 2.242043018341064453e+00 2.083414316177368164e+00
8.620000000000000000e+02 6.810784912109375000e+01 1.816843414306640625e+01 3.983390629291534424e-01 2.025011444091796875e+01 6.194535732269287109e+00 -1.247010946273803711e+00
8.630000000000000000e+02 6.884613037109375000e+01 1.898482704162597656e+01 3.568342685699462891e+00 1.449855518341064453e+01 5.420069217681884766e+00 -1.801362395286560059e+00
8.640000000000000000e+02 6.602938842773437500e+01 -1.304686546325683594e+01 -7.166639715433120728e-02 1.713285923004150391e+00 4.924858510494232178e-01 -7.648445367813110352e-01
8.650000000000000000e+02 6.565447235107421875e+01 -1.202093219757080078e+01 -1.592347264289855957e+00 1.718258500099182129e+00 3.777336329221725464e-02 -6.605705618858337402e-01
8.660000000000000000e+02 6.808892822265625000e+01 -1.750483894348144531e+01 3.236527740955352783e-01 1.293347644805908203e+01 3.977138757705688477e+00 -4.148800969123840332e-01
8.670000000000000000e+02 4.707194519042968750e+01 -2.503256988525390625e+01 3.959051370620727539e-01 1.868973851203918457e+00 6.794636845588684082e-01 -6.126754879951477051e-01
8.680000000000000000e+02 4.669996643066406250e+01 -2.415768051147460938e+01 5.202599763870239258e-01 2.219793081283569336e+00 8.220159411430358887e-01 -6.071059107780456543e-01
8.690000000000000000e+02 6.098640823364257812e+01 -1.063537120819091797e+01 -2.221540212631225586e+00 -4.780836030840873718e-02 -6.808045506477355957e-01 7.152977585792541504e-01
8.700000000000000000e+02 5.754061508178710938e+01 -2.946995925903320312e+01 -1.460050225257873535e+00 -8.409468084573745728e-02 -4.632434546947479248e-01 -1.952524930238723755e-01
8.710000000000000000e+02 5.773861694335937500e+01 -3.035915756225585938e+01 -7.651492953300476074e-01 -1.118085905909538269e-01 -2.630873620510101318e-01 -2.097650021314620972e-01
8.720000000000000000e+02 6.713536071777343750e+01 -1.433535289764404297e+01 1.374743819236755371e+00 5.950643539428710938e+00 2.197616338729858398e+00 -2.545015811920166016e+00
8.730000000000000000e+02 6.776051330566406250e+01 -1.194862651824951172e+01 -1.403617024421691895e+00 5.720340728759765625e+00 1.295017123222351074e+00 -8.367290496826171875e-01
8.740000000000000000e+02 4.553564453125000000e+01 -2.281272125244140625e+01 4.373599588871002197e-01 2.301554918289184570e+00 8.216744661331176758e-01 -3.295184373855590820e-01
8.750000000000000000e+02 3.624211120605468750e+01 -2.412807655334472656e+01 -3.243979811668395996e-02 -3.884949982166290283e-01 -1.262804418802261353e-01 5.514552816748619080e-02
8.760000000000000000e+02 3.649613189697265625e+01 -2.180167388916015625e+01 1.256419252604246140e-02 -4.903482496738433838e-01 -1.433352082967758179e-01 3.717665001749992371e-02
8.770000000000000000e+02 6.319879150390625000e+01 -2.843225669860839844e+01 -1.884469836950302124e-01 1.539357304573059082e+00 4.052731096744537354e-01 6.738749742507934570e-01
8.780000000000000000e+02 6.879531860351562500e+01 -1.663632965087890625e+01 1.226572394371032715e+00 1.076670169830322266e+01 3.597982168197631836e+00 -5.958284139633178711e-01
8.790000000000000000e+02 6.816757965087890625e+01 -1.484419727325439453e+01 6.484138369560241699e-01 8.810596466064453125e+00 2.837702989578247070e+00 -1.251371026039123535e+00
8.800000000000000000e+02 3.214221572875976562e+01 -1.555249595642089844e+01 2.388969898223876953e+00 2.316002398729324341e-01 7.861710190773010254e-01 -5.068685412406921387e-01
8.810000000000000000e+02 4.761810684204101562e+01 -2.580588912963867188e+01 3.608358800411224365e-01 1.518847823143005371e+00 5.639051198959350586e-01 -6.421268582344055176e-01
8.820000000000000000e+02 4.591629409790039062e+01 -2.168314743041992188e+01 3.191266059875488281e-01 2.791124820709228516e+00 9.330754280090332031e-01 -3.404169976711273193e-01
8.830000000000000000e+02 5.845373153686523438e+01 -1.063557147979736328e+01 -2.064009428024291992e+00 -2.632913589477539062e-01 -6.981902718544006348e-01 8.607835173606872559e-01
8.840000000000000000e+02 5.051345062255859375e+01 -2.753826332092285156e+01 3.979870080947875977e-01 5.430689454078674316e-01 2.823168039321899414e-01 -4.729610085487365723e-01
8.850000000000000000e+02 4.999704742431640625e+01 -2.829422950744628906e+01 2.298411428928375244e-01 7.035689353942871094e-01 2.800230085849761963e-01 -4.446615278720855713e-01
8.860000000000000000e+02 4.958016967773437500e+01 -9.991356849670410156e+00 1.646044254302978516e+00 1.668500423431396484e+00 9.943634271621704102e-01 1.582349896430969238e+00
8.870000000000000000e+02 6.071046447753906250e+01 -1.134169006347656250e+01 -2.581112384796142578e+00 -1.084774360060691833e-01 -8.068769574165344238e-01 6.799461841583251953e-01
8.880000000000000000e+02 6.147925186157226562e+01 -1.151260852813720703e+01 -2.851123332977294922e+00 -1.045896634459495544e-01 -8.867139220237731934e-01 6.267918944358825684e-01
8.890000000000000000e+02 6.650473022460937500e+01 -1.249703121185302734e+01 -1.030196070671081543e+00 3.537299633026123047e+00 7.521310448646545410e-01 -1.051981210708618164e+00
8.900000000000000000e+02 5.310541915893554688e+01 -3.020647811889648438e+01 -2.396097928285598755e-01 2.202911376953125000e-01 -5.795594304800033569e-03 -3.532375395298004150e-01
8.910000000000000000e+02 5.685314941406250000e+01 -3.039726829528808594e+01 -7.550198435783386230e-01 -7.812719792127609253e-02 -2.499441057443618774e-01 -2.290267646312713623e-01
8.920000000000000000e+02 4.566941833496093750e+01 -2.081271934509277344e+01 3.025436401367187500e-01 2.734585762023925781e+00 9.111388325691223145e-01 -2.380210906267166138e-01
8.930000000000000000e+02 5.532612609863281250e+01 -8.306198120117187500e+00 -1.918821334838867188e+00 -6.793267130851745605e-01 -7.794443964958190918e-01 9.780313372611999512e-01
8.940000000000000000e+02 5.408874511718750000e+01 -7.602527618408203125e+00 -1.206364870071411133e+00 -5.632960200309753418e-01 -5.308982729911804199e-01 1.020293951034545898e+00
8.950000000000000000e+02 4.581020736694335938e+01 -1.807830619812011719e+01 1.291210055351257324e-01 2.857356309890747070e+00 8.959432244300842285e-01 1.456466615200042725e-01
8.960000000000000000e+02 6.314193725585937500e+01 -2.729620170593261719e+01 -1.303675957024097443e-02 1.102854251861572266e+00 3.269452750682830811e-01 5.594900846481323242e-01
8.970000000000000000e+02 5.065293121337890625e+01 -2.887662315368652344e+01 1.119265779852867126e-01 5.983322858810424805e-01 2.130776643753051758e-01 -3.914763033390045166e-01
8.980000000000000000e+02 5.222183990478515625e+01 -2.983348846435546875e+01 -1.306746900081634521e-01 3.399300873279571533e-01 6.277662515640258789e-02 -3.792907893657684326e-01
8.990000000000000000e+02 5.836560440063476562e+01 -8.964235305786132812e+00 -1.659203052520751953e+00 -1.599197834730148315e-01 -5.457368493080139160e-01 8.718835711479187012e-01
9.000000000000000000e+02 5.737878799438476562e+01 -9.331818580627441406e+00 -1.896904349327087402e+00 -3.374913632869720459e-01 -6.703187227249145508e-01 9.860684275627136230e-01
9.010000000000000000e+02 5.600265121459960938e+01 -8.656889915466308594e+00 -1.970034122467041016e+00 -6.364143490791320801e-01 -7.819345593452453613e-01 9.959542155265808105e-01
9.020000000000000000e+02 4.613122940063476562e+01 -1.560118389129638672e+01 3.431020379066467285e-01 2.966996192932128906e+00 9.930294752120971680e-01 5.684269666671752930e-01
9.030000000000000000e+02 4.946371459960937500e+01 -9.066475868225097656e+00 8.002626895904541016e-01 1.584691166877746582e+00 7.154861688613891602e-01 1.124539971351623535e+00
9.040000000000000000e+02 4.702040863037109375e+01 -1.225785446166992188e+01 9.079072475433349609e-01 2.791660070419311523e+00 1.109870195388793945e+00 1.170965790748596191e+00
9.050000000000000000e+02 4.734615707397460938e+01 -1.332516765594482422e+01 6.194042563438415527e-01 3.604892730712890625e+00 1.267289042472839355e+00 1.295179724693298340e+00
9.060000000000000000e+02 6.225247573852539062e+01 -1.167163753509521484e+01 -2.997633218765258789e+00 -5.613100156188011169e-02 -9.161292910575866699e-01 5.718422532081604004e-01
9.070000000000000000e+02 6.601176452636718750e+01 -2.339182853698730469e+01 1.681298732757568359e+00 3.300113677978515625e+00 1.494423747062683105e+00 2.338683128356933594e+00
9.080000000000000000e+02 6.658145141601562500e+01 -2.382303237915039062e+01 1.047865748405456543e+00 4.618684768676757812e+00 1.699965119361877441e+00 2.216515779495239258e+00
9.090000000000000000e+02 4.627394866943359375e+01 -1.476716327667236328e+01 4.256560802459716797e-01 2.989921569824218750e+00 1.024673342704772949e+00 7.467423677444458008e-01
9.100000000000000000e+02 6.547442626953125000e+01 -2.398989677429199219e+01 1.382892012596130371e+00 2.543009281158447266e+00 1.177770376205444336e+00 1.836338877677917480e+00
9.110000000000000000e+02 6.058034133911132812e+01 -2.980223655700683594e+01 -5.174183249473571777e-01 3.820720613002777100e-01 -4.060388728976249695e-02 2.058957517147064209e-01
9.120000000000000000e+02 6.131463623046875000e+01 -2.913591957092285156e+01 -4.808441698551177979e-01 5.732493400573730469e-01 2.772155404090881348e-02 2.472366541624069214e-01
9.130000000000000000e+02 5.405390548706054688e+01 -3.054495620727539062e+01 -3.331176042556762695e-01 1.108620986342430115e-01 -6.667665392160415649e-02 -3.427550494670867920e-01
9.140000000000000000e+02 5.503677749633789062e+01 -3.062038803100585938e+01 -4.438214600086212158e-01 3.297969326376914978e-02 -1.232525259256362915e-01 -3.060958981513977051e-01
9.150000000000000000e+02 6.254598999023437500e+01 -2.674413871765136719e+01 1.290640141814947128e-02 3.468676507472991943e-01 1.079322174191474915e-01 2.036781758069992065e-01
9.160000000000000000e+02 6.372888565063476562e+01 -2.673478507995605469e+01 1.560494303703308105e-01 1.420271992683410645e+00 4.728964269161224365e-01 7.701953053474426270e-01
9.170000000000000000e+02 6.716135406494140625e+01 -2.427816200256347656e+01 5.000753402709960938e-01 5.532554149627685547e+00 1.809788823127746582e+00 1.963618874549865723e+00
9.180000000000000000e+02 6.195861434936523438e+01 -2.849867057800292969e+01 -3.714773654937744141e-01 7.012287378311157227e-01 9.892541170120239258e-02 3.103577196598052979e-01
9.190000000000000000e+02 5.669029617309570312e+01 -9.000043869018554688e+00 -1.941050410270690918e+00 -4.855934977531433105e-01 -7.279931902885437012e-01 9.825702309608459473e-01
9.200000000000000000e+02 4.570128250122070312e+01 -1.893597412109375000e+01 1.512869745492935181e-01 2.784987926483154297e+00 8.808825016021728516e-01 3.973549976944923401e-02
9.210000000000000000e+02 3.378311920166015625e+01 -1.506663227081298828e+01 1.450362920761108398e+00 5.776711925864219666e-02 4.524390101432800293e-01 -1.531636118888854980e-01
9.220000000000000000e+02 3.462579727172851562e+01 -1.696047401428222656e+01 8.091133832931518555e-01 2.318776696920394897e-01 3.122973144054412842e-01 -4.370349347591400146e-01
9.230000000000000000e+02 4.879686737060546875e+01 -2.579256439208984375e+01 6.113510131835937500e-01 9.798894524574279785e-01 4.773721396923065186e-01 -7.483252286911010742e-01
9.240000000000000000e+02 6.315864562988281250e+01 -2.622409439086914062e+01 2.566005289554595947e-01 5.958867073059082031e-01 2.557461857795715332e-01 4.387909173965454102e-01
9.250000000000000000e+02 4.983631134033203125e+01 -8.515394210815429688e+00 4.631646871566772461e-01 1.395550251007080078e+00 5.576145052909851074e-01 9.824172258377075195e-01
9.260000000000000000e+02 4.644783782958984375e+01 -1.392148017883300781e+01 5.786883234977722168e-01 2.931475639343261719e+00 1.053049206733703613e+00 9.352469444274902344e-01
9.270000000000000000e+02 6.943938446044921875e+01 -1.847892189025878906e+01 9.124652147293090820e-01 1.111134338378906250e+01 3.607142686843872070e+00 4.059565961360931396e-01
9.280000000000000000e+02 6.024246978759765625e+01 -1.042158222198486328e+01 -2.103465080261230469e+00 -8.437207341194152832e-02 -6.563511490821838379e-01 7.458343505859375000e-01
9.290000000000000000e+02 5.596973800659179688e+01 -3.047797012329101562e+01 -6.354445219039916992e-01 -3.419634327292442322e-02 -2.008922547101974487e-01 -2.314344793558120728e-01
9.300000000000000000e+02 4.939896774291992188e+01 -2.768509864807128906e+01 2.850773036479949951e-01 8.142580986022949219e-01 3.298006355762481689e-01 -5.120548605918884277e-01
9.310000000000000000e+02 4.559321975708007812e+01 -1.986850738525390625e+01 2.120796889066696167e-01 2.782424211502075195e+00 8.983511328697204590e-01 -1.062809526920318604e-01
9.320000000000000000e+02 4.651798629760742188e+01 -1.813337326049804688e+01 3.794833645224571228e-02 3.083544492721557617e+00 9.364478588104248047e-01 1.789154857397079468e-01
9.330000000000000000e+02 4.825246429443359375e+01 -2.644077682495117188e+01 3.664275705814361572e-01 1.173661828041076660e+00 4.620268046855926514e-01 -6.398489475250244141e-01
9.340000000000000000e+02 4.882917022705078125e+01 -2.706575775146484375e+01 3.407002389430999756e-01 9.673372507095336914e-01 3.924112617969512939e-01 -5.677365064620971680e-01
9.350000000000000000e+02 6.548134613037109375e+01 -2.503368377685546875e+01 7.116285562515258789e-01 2.954146862030029297e+00 1.099732637405395508e+00 1.561421871185302734e+00
9.360000000000000000e+02 6.490541839599609375e+01 -2.561707115173339844e+01 5.212728977203369141e-01 2.325133800506591797e+00 8.539219498634338379e-01 1.260859608650207520e+00
9.370000000000000000e+02 6.872154998779296875e+01 -1.919558143615722656e+01 5.617973804473876953e-01 1.247090911865234375e+01 3.909811735153198242e+00 8.869265913963317871e-01
9.380000000000000000e+02 6.875492095947265625e+01 -1.838333892822265625e+01 4.945354461669921875e-01 1.208577060699462891e+01 3.774091958999633789e+00 1.983532756567001343e-01
9.390000000000000000e+02 3.428887939453125000e+01 -2.692634010314941406e+01 -1.653088815510272980e-02 -1.065644398331642151e-01 -3.692859783768653870e-02 -4.467181861400604248e-02
9.400000000000000000e+02 1.211590385437011719e+01 -2.066750526428222656e+01 4.940494522452354431e-02 3.562301769852638245e-02 2.550838887691497803e-02 -1.063043922185897827e-01
9.410000000000000000e+02 1.266292190551757812e+01 -2.472805404663085938e+01 3.537910580635070801e-01 2.156045585870742798e-01 1.708186864852905273e-01 -2.789147198200225830e-01
9.420000000000000000e+02 1.361937522888183594e+01 -1.371486282348632812e+01 -1.065666675567626953e+00 -9.290233254432678223e-01 -5.984070301055908203e-01 -9.047085046768188477e-01
9.430000000000000000e+02 1.566794967651367188e+01 -1.235957431793212891e+01 -1.506394982337951660e+00 -3.780108392238616943e-01 -5.653217434883117676e-01 -5.485027432441711426e-01
9.440000000000000000e+02 1.257958126068115234e+01 -1.501904487609863281e+01 -5.829120874404907227e-01 -1.273109436035156250e+00 -5.568064451217651367e-01 -7.791550159454345703e-01
9.450000000000000000e+02 1.150899982452392578e+01 -1.550647258758544922e+01 -4.853444993495941162e-01 -9.306132197380065918e-01 -4.247873127460479736e-01 -4.804259240627288818e-01
9.460000000000000000e+02 1.120468902587890625e+01 -1.822668647766113281e+01 -6.018938124179840088e-02 -6.314032077789306641e-01 -2.074777781963348389e-01 -2.572996020317077637e-01
9.470000000000000000e+02 1.314790058135986328e+01 -2.414068794250488281e+01 3.684601783752441406e-01 3.244102299213409424e-01 2.078611254692077637e-01 -3.277927935123443604e-01
9.480000000000000000e+02 2.056530189514160156e+01 -2.925075340270996094e+01 6.874473094940185547e-01 1.512472480535507202e-01 2.516083717346191406e-01 -2.998183965682983398e-01
9.490000000000000000e+02 2.270141601562500000e+01 -1.449285602569580078e+01 4.474684000015258789e-01 1.239604875445365906e-02 1.379593312740325928e-01 -1.119074821472167969e-01
9.500000000000000000e+02 2.071224403381347656e+01 -1.322272205352783203e+01 7.103504240512847900e-02 6.701193004846572876e-02 4.141409322619438171e-02 -1.606318950653076172e-01
9.510000000000000000e+02 3.254560852050781250e+01 -2.869422149658203125e+01 6.973353028297424316e-02 1.937013701535761356e-03 2.150116302073001862e-02 2.460342645645141602e-02
9.520000000000000000e+02 3.449376678466796875e+01 -2.923074722290039062e+01 1.610264331102371216e-01 1.379036903381347656e-02 5.244504287838935852e-02 8.129664510488510132e-02
9.530000000000000000e+02 2.292438697814941406e+01 -2.996612167358398438e+01 5.650118589401245117e-01 5.200932919979095459e-02 1.851063519716262817e-01 -1.624944359064102173e-01
9.540000000000000000e+02 2.255551910400390625e+01 -3.183267974853515625e+01 4.177288711071014404e-01 1.490778177976608276e-01 1.700420081615447998e-01 -1.884482651948928833e-01
9.550000000000000000e+02 1.198734092712402344e+01 -1.469653129577636719e+01 -6.254321932792663574e-01 -9.800657033920288086e-01 -4.816493690013885498e-01 -5.670661330223083496e-01
9.560000000000000000e+02 1.867049789428710938e+01 -2.933067512512207031e+01 5.566459298133850098e-01 3.109191358089447021e-01 2.602695226669311523e-01 -3.291405439376831055e-01
9.570000000000000000e+02 1.376619052886962891e+01 -2.475252723693847656e+01 3.868002295494079590e-01 3.464676439762115479e-01 2.199803590774536133e-01 -3.569758534431457520e-01
9.580000000000000000e+02 2.862871170043945312e+01 -3.023648834228515625e+01 2.959101796150207520e-01 1.040352601557970047e-02 9.189411252737045288e-02 1.569092832505702972e-02
9.590000000000000000e+02 2.969873046875000000e+01 -3.105802917480468750e+01 2.798706293106079102e-01 2.285515516996383667e-02 9.081773459911346436e-02 -9.256029734387993813e-04
9.600000000000000000e+02 3.065901947021484375e+01 -3.072823333740234375e+01 2.469991892576217651e-01 1.840322278439998627e-02 7.962072640657424927e-02 1.401621103286743164e-02
9.610000000000000000e+02 1.125123596191406250e+01 -1.907844924926757812e+01 6.760558113455772400e-03 -4.433113038539886475e-01 -1.309652179479598999e-01 -2.136394381523132324e-01
9.620000000000000000e+02 3.493033981323242188e+01 -2.733039665222167969e+01 6.570227444171905518e-02 -8.959215879440307617e-02 -7.166965864598751068e-03 3.751335293054580688e-02
9.630000000000000000e+02 1.374423503875732422e+01 -1.262380027770996094e+01 -9.270657300949096680e-01 -6.830129027366638184e-01 -4.830235838890075684e-01 -5.836768746376037598e-01
9.640000000000000000e+02 1.119870471954345703e+01 -1.735481452941894531e+01 -1.551964133977890015e-01 -7.909163832664489746e-01 -2.838338315486907959e-01 -3.449275195598602295e-01
9.650000000000000000e+02 3.605044937133789062e+01 -2.496411514282226562e+01 9.877242147922515869e-03 -3.192321956157684326e-01 -9.280648827552795410e-02 5.321789905428886414e-02
9.660000000000000000e+02 3.241383361816406250e+01 -2.989285850524902344e+01 1.779301762580871582e-01 7.184181362390518188e-03 5.553431063890457153e-02 3.842732310295104980e-02
9.670000000000000000e+02 3.439451980590820312e+01 -2.802540206909179688e+01 8.554271608591079712e-02 -4.293140769004821777e-02 1.278339140117168427e-02 3.813454136252403259e-02
9.680000000000000000e+02 3.314819335937500000e+01 -2.931978225708007812e+01 1.422674655914306641e-01 1.203375519253313541e-03 4.304125159978866577e-02 4.172620549798011780e-02
9.690000000000000000e+02 2.274799728393554688e+01 -3.089505386352539062e+01 5.101570487022399902e-01 1.037949249148368835e-01 1.841855943202972412e-01 -1.842488199472427368e-01
9.700000000000000000e+02 2.616222000122070312e+01 -3.035318946838378906e+01 4.168054759502410889e-01 1.298202946782112122e-02 1.289362460374832153e-01 -2.595642395317554474e-02
9.710000000000000000e+02 1.451230812072753906e+01 -1.216616535186767578e+01 -1.075115084648132324e+00 -5.402815341949462891e-01 -4.846189916133880615e-01 -5.316015481948852539e-01
9.720000000000000000e+02 1.712760353088378906e+01 -2.705261230468750000e+01 5.378692150115966797e-01 4.435598254203796387e-01 2.944287061691284180e-01 -4.747761785984039307e-01
9.730000000000000000e+02 1.727248382568359375e+01 -2.828540039062500000e+01 5.574427247047424316e-01 3.475700616836547852e-01 2.715038359165191650e-01 -3.632655739784240723e-01
9.740000000000000000e+02 2.116590118408203125e+01 -1.417631053924560547e+01 2.516430020332336426e-01 2.859175577759742737e-02 8.407042920589447021e-02 -1.154591739177703857e-01
9.750000000000000000e+02 2.218257141113281250e+01 -1.359857845306396484e+01 2.624040544033050537e-01 4.174618422985076904e-02 9.124507009983062744e-02 -2.008657008409500122e-01
9.760000000000000000e+02 3.050153732299804688e+01 -1.461919307708740234e+01 1.567129969596862793e+00 5.062695592641830444e-02 4.853270649909973145e-01 -3.752848207950592041e-01
9.770000000000000000e+02 3.628738784790039062e+01 -1.589065361022949219e+01 1.052495837211608887e+00 -3.202027082443237305e-01 2.196879237890243530e-01 -2.329162806272506714e-01
9.780000000000000000e+02 2.873314476013183594e+01 -3.118684196472167969e+01 3.077389299869537354e-01 2.194241620600223541e-02 9.890440106391906738e-02 -1.272689737379550934e-02
9.790000000000000000e+02 1.747096252441406250e+01 -1.159071254730224609e+01 -7.142068147659301758e-01 -6.700366735458374023e-03 -2.162721604108810425e-01 -4.024812281131744385e-01
9.800000000000000000e+02 1.148105907440185547e+01 -2.078596878051757812e+01 1.300799399614334106e-01 -9.489843249320983887e-02 1.055445056408643723e-02 -2.351807504892349243e-01
9.810000000000000000e+02 2.445496559143066406e+01 -3.119114494323730469e+01 4.474576711654663086e-01 7.941544055938720703e-02 1.580619364976882935e-01 -1.255555152893066406e-01
9.820000000000000000e+02 2.698909568786621094e+01 -3.123003196716308594e+01 3.697135746479034424e-01 2.425739355385303497e-02 1.181912869215011597e-01 -5.000558122992515564e-02
9.830000000000000000e+02 3.046516418457031250e+01 -1.389358329772949219e+01 1.195013523101806641e+00 8.881167322397232056e-02 3.851475715637207031e-01 -4.061077535152435303e-01
9.840000000000000000e+02 2.024320411682128906e+01 -3.012388229370117188e+01 5.608009099960327148e-01 2.050430178642272949e-01 2.297531813383102417e-01 -2.772085964679718018e-01
9.850000000000000000e+02 2.190422630310058594e+01 -3.068302917480468750e+01 5.155991315841674805e-01 1.403584331274032593e-01 1.967872679233551025e-01 -2.252074778079986572e-01
9.860000000000000000e+02 2.001167297363281250e+01 -1.298699760437011719e+01 -4.783820360898971558e-03 8.845429122447967529e-02 2.510114014148712158e-02 -1.261755973100662231e-01
9.870000000000000000e+02 1.933477020263671875e+01 -1.270495986938476562e+01 -1.529956310987472534e-01 9.128588438034057617e-02 -1.851292699575424194e-02 -1.243539154529571533e-01
9.880000000000000000e+02 1.435661506652832031e+01 -2.534326553344726562e+01 4.014541506767272949e-01 3.547210097312927246e-01 2.268525511026382446e-01 -3.718879520893096924e-01
9.890000000000000000e+02 2.587743949890136719e+01 -1.433845806121826172e+01 9.150440692901611328e-01 4.182474315166473389e-02 2.870606482028961182e-01 -2.428019046783447266e-01
9.900000000000000000e+02 3.554939651489257812e+01 -1.670285224914550781e+01 9.958881139755249023e-01 -3.035061359405517578e-01 2.077146023511886597e-01 -3.043138384819030762e-01
9.910000000000000000e+02 3.578556442260742188e+01 -1.735758399963378906e+01 7.138919234275817871e-01 -2.704744637012481689e-01 1.330252438783645630e-01 -3.452133536338806152e-01
9.920000000000000000e+02 3.539727020263671875e+01 -2.658362770080566406e+01 4.609136283397674561e-02 -1.433258205652236938e-01 -2.917033620178699493e-02 3.990967199206352234e-02
9.930000000000000000e+02 3.577059936523437500e+01 -2.578836250305175781e+01 3.125420585274696350e-02 -2.260258793830871582e-01 -5.843150243163108826e-02 3.854359686374664307e-02
9.940000000000000000e+02 2.106640243530273438e+01 -3.043047523498535156e+01 5.281174182891845703e-01 1.734299659729003906e-01 2.104642093181610107e-01 -2.412428408861160278e-01
9.950000000000000000e+02 2.810506057739257812e+01 -1.432402610778808594e+01 1.212965726852416992e+00 8.403383195400238037e-02 3.890998661518096924e-01 -3.468437492847442627e-01
9.960000000000000000e+02 2.783095359802246094e+01 -3.118283843994140625e+01 3.401039838790893555e-01 2.089066989719867706e-02 1.082983985543251038e-01 -2.741257287561893463e-02
9.970000000000000000e+02 2.734584617614746094e+01 -1.497970485687255859e+01 1.404133439064025879e+00 3.468425199389457703e-02 4.316453039646148682e-01 -2.002478241920471191e-01
9.980000000000000000e+02 2.426149177551269531e+01 -1.468778800964355469e+01 7.529048323631286621e-01 1.720863580703735352e-02 2.310340404510498047e-01 -1.321830451488494873e-01
9.990000000000000000e+02 3.131441879272460938e+01 -1.470080280303955078e+01 1.621037244796752930e+00 1.291626393795013428e-01 5.250599980354309082e-01 -4.427460134029388428e-01
1.000000000000000000e+03 3.585005187988281250e+01 -2.082515525817871094e+01 1.030685566365718842e-02 -7.981394529342651367e-01 -2.363497763872146606e-01 -4.208334255963563919e-03
1.001000000000000000e+03 3.707831573486328125e+01 -1.992682838439941406e+01 6.837183982133865356e-02 -2.086854279041290283e-01 -4.209407418966293335e-02 -8.060522377490997314e-02
1.002000000000000000e+03 1.493215370178222656e+01 -2.593075561523437500e+01 4.183444380760192871e-01 3.573155701160430908e-01 2.326980084180831909e-01 -3.817794322967529297e-01
1.003000000000000000e+03 1.483379459381103516e+01 -2.477386665344238281e+01 4.391052722930908203e-01 4.167756438255310059e-01 2.567642927169799805e-01 -4.274504482746124268e-01
1.004000000000000000e+03 1.665418052673339844e+01 -2.770567893981933594e+01 5.206938982009887695e-01 3.540911674499511719e-01 2.624355256557464600e-01 -3.865846693515777588e-01
1.005000000000000000e+03 2.615039634704589844e+01 -3.125781440734863281e+01 3.971922993659973145e-01 3.673189505934715271e-02 1.301772594451904297e-01 -7.275704294443130493e-02
1.006000000000000000e+03 3.662132263183593750e+01 -2.110971069335937500e+01 2.016576752066612244e-02 -4.564025998115539551e-01 -1.308710575103759766e-01 3.343219682574272156e-02
1.007000000000000000e+03 3.635319137573242188e+01 -2.331265640258789062e+01 -3.465367481112480164e-02 -4.561114311218261719e-01 -1.472295373678207397e-01 3.986899182200431824e-02
1.008000000000000000e+03 3.642104721069335938e+01 -2.253918647766113281e+01 -6.551321595907211304e-03 -4.998532533645629883e-01 -1.519213765859603882e-01 4.541412368416786194e-02
1.009000000000000000e+03 1.550062274932861328e+01 -2.652066612243652344e+01 4.403542876243591309e-01 3.604581654071807861e-01 2.402437478303909302e-01 -3.890310227870941162e-01
1.010000000000000000e+03 1.606978225708007812e+01 -2.711360359191894531e+01 4.733190834522247314e-01 3.593208193778991699e-01 2.497919648885726929e-01 -3.935493230819702148e-01
1.011000000000000000e+03 6.779372406005859375e+01 2.105608177185058594e+01 2.870573997497558594e-01 1.106194400787353516e+01 3.404700279235839844e+00 -2.522056341171264648e+00
1.012000000000000000e+03 7.963395690917968750e+01 3.882752990722656250e+01 -3.368823672644793987e-04 8.767995834350585938e+00 2.630297660827636719e+00 9.287833236157894135e-03
1.013000000000000000e+03 7.960013580322265625e+01 3.571363449096679688e+01 -1.119492202997207642e-02 8.771054267883300781e+00 2.627957820892333984e+00 1.193828228861093521e-02
1.014000000000000000e+03 7.882305908203125000e+01 3.494586181640625000e+01 -9.051360189914703369e-03 8.498286247253417969e+00 2.546770572662353516e+00 2.252342924475669861e-02
1.015000000000000000e+03 7.803748321533203125e+01 3.124600601196289062e+01 -7.053638994693756104e-02 8.082948684692382812e+00 2.403723716735839844e+00 2.233259081840515137e-01
1.016000000000000000e+03 7.964898681640625000e+01 3.250765228271484375e+01 -1.204293407499790192e-02 8.656590461730957031e+00 2.593364238739013672e+00 3.749625757336616516e-02
1.017000000000000000e+03 7.894532012939453125e+01 1.491883850097656250e+01 7.654353231191635132e-02 4.343606472015380859e+00 1.326044917106628418e+00 -1.415396034717559814e-01
1.018000000000000000e+03 7.964831542968750000e+01 1.486541652679443359e+01 5.038761533796787262e-03 3.577720642089843750e+00 1.074827790260314941e+00 -5.397256091237068176e-02
1.019000000000000000e+03 7.891680145263671875e+01 2.053969001770019531e+01 3.303289785981178284e-02 5.127971649169921875e+00 1.548301339149475098e+00 4.472492635250091553e-01
1.020000000000000000e+03 7.963746643066406250e+01 2.128329086303710938e+01 6.743367703165858984e-05 4.883988857269287109e+00 1.465216875076293945e+00 1.800045073032379150e-01
1.021000000000000000e+03 7.882802581787109375e+01 2.860493278503417969e+01 -4.476601257920265198e-02 7.869535923004150391e+00 2.347430944442749023e+00 2.914422452449798584e-01
1.022000000000000000e+03 7.960937500000000000e+01 2.851530647277832031e+01 -3.863805904984474182e-03 7.988864421844482422e+00 2.395500183105468750e+00 1.124590933322906494e-01
1.023000000000000000e+03 7.961165618896484375e+01 3.012674713134765625e+01 -2.442316850647330284e-03 8.339022636413574219e+00 2.500973939895629883e+00 7.781387865543365479e-02
1.024000000000000000e+03 7.892429351806640625e+01 3.181216621398925781e+01 -3.219016268849372864e-02 8.356338500976562500e+00 2.497244596481323242e+00 1.219720989465713501e-01
1.025000000000000000e+03 7.881867218017578125e+01 2.942474365234375000e+01 -3.499062359333038330e-02 8.023514747619628906e+00 2.396557331085205078e+00 2.442969083786010742e-01
1.026000000000000000e+03 7.884030151367187500e+01 2.778763389587402344e+01 -3.469156101346015930e-02 7.690421581268310547e+00 2.296719074249267578e+00 3.366797566413879395e-01
1.027000000000000000e+03 7.741487121582031250e+01 2.220281982421875000e+01 4.668973013758659363e-02 6.559331417083740234e+00 1.981806397438049316e+00 9.791885614395141602e-01
1.028000000000000000e+03 7.886235046386718750e+01 2.616442298889160156e+01 -2.954138070344924927e-02 7.238962173461914062e+00 2.162826299667358398e+00 4.294676780700683594e-01
1.029000000000000000e+03 7.888867187500000000e+01 2.374710655212402344e+01 -1.845813170075416565e-02 6.371299743652343750e+00 1.905852556228637695e+00 5.223385691642761230e-01
1.030000000000000000e+03 7.888060760498046875e+01 2.455269432067871094e+01 -1.617215946316719055e-02 6.681760787963867188e+00 1.999676585197448730e+00 5.012367963790893555e-01
1.031000000000000000e+03 7.963038635253906250e+01 2.368918418884277344e+01 2.679586410522460938e-03 6.088967323303222656e+00 1.827494144439697266e+00 1.927597522735595703e-01
1.032000000000000000e+03 7.890332794189453125e+01 2.214228248596191406e+01 7.079239469021558762e-03 5.730681896209716797e+00 1.721328377723693848e+00 5.188351273536682129e-01
1.033000000000000000e+03 7.746672821044921875e+01 2.059310340881347656e+01 1.671611368656158447e-01 6.174984455108642578e+00 1.902643680572509766e+00 8.469330072402954102e-01
1.034000000000000000e+03 7.821857452392578125e+01 1.896178627014160156e+01 1.547974795103073120e-01 5.275335311889648438e+00 1.629039883613586426e+00 4.672322273254394531e-01
1.035000000000000000e+03 7.893842315673828125e+01 1.732268905639648438e+01 6.089400500059127808e-02 4.348292827606201172e+00 1.322756052017211914e+00 1.354842931032180786e-01
1.036000000000000000e+03 7.893450164794921875e+01 1.812539100646972656e+01 7.634294778108596802e-02 4.464964389801025391e+00 1.362392187118530273e+00 2.245601415634155273e-01
1.037000000000000000e+03 7.964580535888671875e+01 1.727102851867675781e+01 2.408878691494464874e-02 3.559532642364501953e+00 1.075086355209350586e+00 4.639480635523796082e-02
1.038000000000000000e+03 7.894392395019531250e+01 1.571916294097900391e+01 6.188862398266792297e-02 4.288384914398193359e+00 1.305082082748413086e+00 -5.158716812729835510e-02
1.039000000000000000e+03 7.894153594970703125e+01 1.652063179016113281e+01 8.017814904451370239e-02 4.285551548004150391e+00 1.309718847274780273e+00 4.147276654839515686e-02
1.040000000000000000e+03 7.894377899169921875e+01 1.331362533569335938e+01 6.117391958832740784e-02 4.630602836608886719e+00 1.407533049583435059e+00 -3.043926060199737549e-01
1.041000000000000000e+03 7.894515991210937500e+01 1.411847782135009766e+01 5.721371993422508240e-02 4.464561939239501953e+00 1.356532573699951172e+00 -2.306740283966064453e-01
1.042000000000000000e+03 7.823246002197265625e+01 1.254803466796875000e+01 1.168810576200485229e-01 5.426621437072753906e+00 1.663050770759582520e+00 -5.515555143356323242e-01
1.043000000000000000e+03 7.894997406005859375e+01 9.315567970275878906e+00 1.263182051479816437e-02 6.006494522094726562e+00 1.805737853050231934e+00 -5.143543481826782227e-01
1.044000000000000000e+03 7.888324737548828125e+01 -2.836316680908203125e+01 -1.978717185556888580e-02 8.282299995422363281e+00 2.478754043579101562e+00 -1.951892226934432983e-01
1.045000000000000000e+03 7.962989807128906250e+01 -2.762996292114257812e+01 -3.869436914101243019e-03 8.283170700073242188e+00 2.483790159225463867e+00 -8.585090935230255127e-02
1.046000000000000000e+03 7.820767974853515625e+01 -2.188754272460937500e+01 9.113906323909759521e-02 7.452024459838867188e+00 2.262948989868164062e+00 -1.907207965850830078e-01
1.047000000000000000e+03 7.964562225341796875e+01 -2.121448707580566406e+01 6.690056063234806061e-03 7.038629531860351562e+00 2.113595962524414062e+00 -4.021218791604042053e-02
1.048000000000000000e+03 7.879275512695312500e+01 3.576464843750000000e+01 -7.577657233923673630e-03 8.483771324157714844e+00 2.542858123779296875e+00 1.279021427035331726e-02
1.049000000000000000e+03 7.789177703857421875e+01 -3.535960388183593750e+01 -2.044847048819065094e-02 8.406963348388671875e+00 2.515954256057739258e+00 -3.069994971156120300e-02
1.050000000000000000e+03 7.959232330322265625e+01 -3.481970214843750000e+01 4.448377992957830429e-03 9.002312660217285156e+00 2.702028274536132812e+00 -2.046305686235427856e-02
1.051000000000000000e+03 7.894855499267578125e+01 -7.511444091796875000e+00 -3.671310096979141235e-02 9.585726737976074219e+00 2.864703893661499023e+00 9.039127826690673828e-02
1.052000000000000000e+03 7.964952087402343750e+01 -6.780030250549316406e+00 -1.008927728980779648e-02 9.984445571899414062e+00 2.992306709289550781e+00 8.413841016590595245e-03
1.053000000000000000e+03 7.894927978515625000e+01 -2.935197055339813232e-01 -2.009306289255619049e-02 9.146114349365234375e+00 2.737806320190429688e+00 -2.428781092166900635e-01
1.054000000000000000e+03 7.964962768554687500e+01 4.372159540653228760e-01 -1.390810124576091766e-03 9.262099266052246094e+00 2.778212785720825195e+00 -1.115858182311058044e-01
1.055000000000000000e+03 7.823893737792968750e+01 -1.467016315460205078e+01 2.796057984232902527e-02 8.100519180297851562e+00 2.438544034957885742e+00 4.946374595165252686e-01
1.056000000000000000e+03 7.964916992187500000e+01 -1.399765014648437500e+01 4.006880801171064377e-03 8.245452880859375000e+00 2.474838018417358398e+00 1.148096770048141479e-01
1.057000000000000000e+03 7.895134735107421875e+01 7.715951442718505859e+00 -1.699442160315811634e-03 6.662003040313720703e+00 1.998091101646423340e+00 -5.117259621620178223e-01
1.058000000000000000e+03 7.964991760253906250e+01 7.652084350585937500e+00 -4.206037614494562149e-03 6.495286464691162109e+00 1.947324037551879883e+00 -1.926702260971069336e-01
1.059000000000000000e+03 7.951986694335937500e+01 4.039020919799804688e+01 7.908782921731472015e-03 8.796711921691894531e+00 2.641386270523071289e+00 1.556330639868974686e-02
1.060000000000000000e+03 7.798226928710937500e+01 3.899481964111328125e+01 5.079640541225671768e-03 8.200861930847167969e+00 2.461782217025756836e+00 -1.462868042290210724e-02
1.061000000000000000e+03 7.887838745117187500e+01 3.732549667358398438e+01 5.644062533974647522e-03 8.539757728576660156e+00 2.563620567321777344e+00 -1.912389416247606277e-03
1.062000000000000000e+03 7.751890563964843750e+01 3.741399765014648438e+01 -5.000180564820766449e-03 8.123717308044433594e+00 2.435615062713623047e+00 1.011498458683490753e-02
1.063000000000000000e+03 7.886564636230468750e+01 3.413898468017578125e+01 -1.718232594430446625e-02 8.497653961181640625e+00 2.544141530990600586e+00 4.348808526992797852e-02
1.064000000000000000e+03 7.709729003906250000e+01 3.231037139892578125e+01 -1.234886348247528076e-01 7.921969890594482422e+00 2.339544534683227539e+00 2.068290561437606812e-01
1.065000000000000000e+03 7.964957427978515625e+01 9.254804611206054688e+00 2.526426978874951601e-04 5.685316562652587891e+00 1.705670833587646484e+00 -1.914332360029220581e-01
1.066000000000000000e+03 7.894661712646484375e+01 1.091303157806396484e+01 2.884898707270622253e-02 5.382138729095458984e+00 1.623296380043029785e+00 -4.720341265201568604e-01
1.067000000000000000e+03 7.895127868652343750e+01 8.514930725097656250e+00 -1.504299929365515709e-03 6.333877563476562500e+00 1.899712085723876953e+00 -5.141257047653198242e-01
1.068000000000000000e+03 7.895074462890625000e+01 6.116486072540283203e+00 -1.109825819730758667e-02 7.294764995574951172e+00 2.185100078582763672e+00 -4.773725271224975586e-01
1.069000000000000000e+03 7.895073699951171875e+01 6.917260169982910156e+00 -1.452475134283304214e-02 6.982017993927001953e+00 2.090247869491577148e+00 -4.956164658069610596e-01
1.070000000000000000e+03 7.825421905517578125e+01 5.379193782806396484e+00 -4.118848219513893127e-02 7.597124099731445312e+00 2.266780614852905273e+00 -6.829213500022888184e-01
1.071000000000000000e+03 7.895029449462890625e+01 2.912635326385498047e+00 -1.779872365295886993e-02 8.377028465270996094e+00 2.507768869400024414e+00 -3.662278950214385986e-01
1.072000000000000000e+03 7.895035552978515625e+01 3.713715553283691406e+00 -2.437724731862545013e-02 8.133284568786621094e+00 2.432672262191772461e+00 -3.946459889411926270e-01
1.073000000000000000e+03 7.964976501464843750e+01 2.842561244964599609e+00 -7.947864942252635956e-03 8.553712844848632812e+00 2.563729524612426758e+00 -1.436453312635421753e-01
1.074000000000000000e+03 7.895000457763671875e+01 2.111061334609985352e+00 -2.524172142148017883e-02 8.598985671997070312e+00 2.572123050689697266e+00 -3.345103859901428223e-01
1.075000000000000000e+03 7.894985198974609375e+01 1.309067487716674805e+00 -1.893051527440547943e-02 8.802710533142089844e+00 2.635134220123291016e+00 -3.049937784671783447e-01
1.076000000000000000e+03 7.894934082031250000e+01 -1.096070408821105957e+00 -2.639667317271232605e-02 9.286437988281250000e+00 2.778012514114379883e+00 -2.100912183523178101e-01
1.077000000000000000e+03 7.825093841552734375e+01 -1.830096960067749023e+00 -6.181989237666130066e-02 9.103590965270996094e+00 2.712531328201293945e+00 -2.689794898033142090e-01
1.078000000000000000e+03 7.894866943359375000e+01 -4.305369853973388672e+00 -3.061881102621555328e-02 9.632558822631835938e+00 2.880582094192504883e+00 -7.468551397323608398e-02
1.079000000000000000e+03 7.894858551025390625e+01 -3.503521919250488281e+00 -2.372987195849418640e-02 9.580573081970214844e+00 2.867053031921386719e+00 -1.118918508291244507e-01
1.080000000000000000e+03 7.964937591552734375e+01 -4.374645709991455078e+00 -3.264808328822255135e-03 9.996398925781250000e+00 2.997940301895141602e+00 -3.810707107186317444e-02
1.081000000000000000e+03 7.894859313964843750e+01 -5.107279777526855469e+00 -2.722925692796707153e-02 9.661160469055175781e+00 2.890179395675659180e+00 -3.782060369849205017e-02
1.082000000000000000e+03 7.894860076904296875e+01 -5.909430980682373047e+00 -3.413626179099082947e-02 9.663011550903320312e+00 2.888662576675415039e+00 3.924110904335975647e-03
1.083000000000000000e+03 7.824642944335937500e+01 -9.052434921264648438e+00 -7.925037294626235962e-02 9.156411170959472656e+00 2.723148345947265625e+00 2.688566446304321289e-01
1.084000000000000000e+03 7.894885253906250000e+01 -1.152301788330078125e+01 -2.030158229172229767e-02 8.908399581909179688e+00 2.666429519653320312e+00 2.914436757564544678e-01
1.085000000000000000e+03 7.894871520996093750e+01 -1.072130393981933594e+01 -3.046679683029651642e-02 9.093668937683105469e+00 2.718960523605346680e+00 2.598547339439392090e-01
1.086000000000000000e+03 7.964951324462890625e+01 -1.159148406982421875e+01 -7.847716100513935089e-03 9.051150321960449219e+00 2.712990760803222656e+00 1.009317412972450256e-01
1.087000000000000000e+03 7.894819641113281250e+01 -1.232575416564941406e+01 -1.822104118764400482e-02 8.704009056091308594e+00 2.605736494064331055e+00 3.173465132713317871e-01
1.088000000000000000e+03 7.894709777832031250e+01 -1.312926578521728516e+01 -4.448700696229934692e-03 8.487985610961914062e+00 2.545061111450195312e+00 3.302971124649047852e-01
1.089000000000000000e+03 7.894608306884765625e+01 -1.473122215270996094e+01 1.577117107808589935e-02 8.050623893737792969e+00 2.419918537139892578e+00 3.212357461452484131e-01
1.090000000000000000e+03 7.894615173339843750e+01 -1.873707008361816406e+01 4.450771212577819824e-02 7.281418323516845703e+00 2.197777748107910156e+00 9.498682618141174316e-02
1.091000000000000000e+03 7.894766235351562500e+01 -1.793546485900878906e+01 4.818373546004295349e-02 7.370648384094238281e+00 2.225649595260620117e+00 1.561927795410156250e-01
1.092000000000000000e+03 7.964852905273437500e+01 -1.880796241760253906e+01 1.361346989870071411e-02 7.040389537811279297e+00 2.116200923919677734e+00 2.685870230197906494e-02
1.093000000000000000e+03 7.894303894042968750e+01 -1.953969764709472656e+01 5.160669237375259399e-02 7.230886459350585938e+00 2.184747934341430664e+00 3.177415207028388977e-02
1.094000000000000000e+03 7.893883514404296875e+01 -2.034335517883300781e+01 4.356308653950691223e-02 7.221176624298095703e+00 2.179421901702880859e+00 -3.107129782438278198e-02
1.095000000000000000e+03 7.892981719970703125e+01 -2.194915390014648438e+01 3.331553190946578979e-02 7.309673309326171875e+00 2.202896595001220703e+00 -1.388901174068450928e-01
1.096000000000000000e+03 7.744538116455078125e+01 -2.345847511291503906e+01 8.943689614534378052e-02 7.666965007781982422e+00 2.326920509338378906e+00 -3.684248328208923340e-01
1.097000000000000000e+03 7.891053009033203125e+01 -2.516086959838867188e+01 2.030067145824432373e-03 7.771497249603271484e+00 2.332058191299438477e+00 -2.403396666049957275e-01
1.098000000000000000e+03 7.891479492187500000e+01 -2.435991668701171875e+01 1.344022527337074280e-02 7.636796474456787109e+00 2.295071125030517578e+00 -2.305434048175811768e-01
1.099000000000000000e+03 7.963717651367187500e+01 -2.522517013549804688e+01 1.550644286908209324e-03 7.759637832641601562e+00 2.328356504440307617e+00 -9.548430144786834717e-02
1.100000000000000000e+03 7.890513610839843750e+01 -2.596229362487792969e+01 -2.843007212504744530e-03 7.909127235412597656e+00 2.371885299682617188e+00 -2.398872971534729004e-01
1.101000000000000000e+03 7.814774322509765625e+01 -2.830809974670410156e+01 -4.207534343004226685e-02 8.161527633666992188e+00 2.435835599899291992e+00 -2.853597402572631836e-01
1.102000000000000000e+03 7.737951660156250000e+01 -3.061528205871582031e+01 -7.382315397262573242e-02 8.168208122253417969e+00 2.428315401077270508e+00 -2.174221873283386230e-01
1.103000000000000000e+03 7.882000732421875000e+01 -3.234005737304687500e+01 -1.678795367479324341e-02 8.638026237487792969e+00 2.586371421813964844e+00 -8.362706005573272705e-02
1.104000000000000000e+03 7.884307098388671875e+01 -3.155119895935058594e+01 -2.205342799425125122e-02 8.596138954162597656e+00 2.572225570678710938e+00 -1.029541417956352234e-01
1.105000000000000000e+03 7.960794830322265625e+01 -3.243224334716796875e+01 -7.387002930045127869e-03 8.906021118164062500e+00 2.669590234756469727e+00 -3.435016050934791565e-02
1.106000000000000000e+03 7.879281616210937500e+01 -3.312209701538085938e+01 -2.042928896844387054e-02 8.666903495788574219e+00 2.593942165374755859e+00 -6.203640997409820557e-02
1.107000000000000000e+03 7.875714874267578125e+01 -3.548885345458984375e+01 1.961220288649201393e-03 8.706081390380859375e+00 2.612412691116333008e+00 -3.294344618916511536e-02
1.108000000000000000e+03 7.876853179931640625e+01 -3.863923263549804688e+01 -1.459453627467155457e-02 8.754330635070800781e+00 2.621921062469482422e+00 -1.065456308424472809e-03
1.109000000000000000e+03 7.954960632324218750e+01 -3.959198760986328125e+01 1.818707399070262909e-02 9.023439407348632812e+00 2.712487936019897461e+00 1.722718821838498116e-03
1.110000000000000000e+03 7.870056152343750000e+01 -3.935055923461914062e+01 6.338335108011960983e-03 8.728183746337890625e+00 2.620356559753417969e+00 7.938789203763008118e-03
1.111000000000000000e+03 7.791732788085937500e+01 -3.926116180419921875e+01 -2.416755445301532745e-02 8.451839447021484375e+00 2.528301477432250977e+00 -2.397498115897178650e-02
1.112000000000000000e+03 7.827723693847656250e+01 -4.181716537475585938e+01 1.015412528067827225e-02 8.583052635192871094e+00 2.577962160110473633e+00 3.099498338997364044e-02
1.113000000000000000e+03 6.678501892089843750e+01 1.083251476287841797e+01 2.969044685363769531e+00 9.797858238220214844e+00 3.830070734024047852e+00 4.653638839721679688e+00
1.114000000000000000e+03 6.911129760742187500e+01 1.249740409851074219e+01 1.433191657066345215e+00 1.280406570434570312e+01 4.271177291870117188e+00 1.100067973136901855e+00
1.115000000000000000e+03 6.642025756835937500e+01 2.173642730712890625e+01 1.040486335754394531e+00 4.681367397308349609e+00 1.716556191444396973e+00 -3.118953704833984375e+00
1.116000000000000000e+03 6.403897094726562500e+01 2.260993576049804688e+01 -7.880651354789733887e-01 8.898143768310546875e-01 3.052477166056632996e-02 -9.779825806617736816e-01
1.117000000000000000e+03 5.376049804687500000e+01 3.072019219398498535e-01 3.252479434013366699e-01 7.772870361804962158e-02 1.208929941058158875e-01 2.510061264038085938e-01
1.118000000000000000e+03 5.218178939819335938e+01 8.123084157705307007e-02 -8.181779980659484863e-01 -2.116103656589984894e-02 -2.518016993999481201e-01 2.285284101963043213e-01
1.119000000000000000e+03 6.152803421020507812e+01 2.308492851257324219e+01 -2.103820085525512695e+00 -1.120103150606155396e-01 -6.647491455078125000e-01 -2.974641621112823486e-01
1.120000000000000000e+03 6.871765136718750000e+01 1.572667789459228516e+01 7.938504219055175781e-01 1.699145698547363281e+01 5.335592269897460938e+00 8.828927278518676758e-01
1.121000000000000000e+03 5.570248794555664062e+01 -7.799273014068603516e+00 -1.419743776321411133e+00 -6.064389944076538086e-01 -6.078548431396484375e-01 8.582413196563720703e-01
1.122000000000000000e+03 4.315566718578338623e-01 3.477897262573242188e+01 -3.425056638661772013e-04 -1.553783100098371506e-02 -4.764101002365350723e-03 1.227318425662815571e-03
1.123000000000000000e+03 4.223832786083221436e-01 3.397626495361328125e+01 2.816904161591082811e-04 -1.332690380513668060e-02 -3.913564141839742661e-03 1.082962029613554478e-03
1.124000000000000000e+03 3.731569647789001465e-01 2.834565925598144531e+01 -4.129721492063254118e-04 1.352654537186026573e-03 2.819047076627612114e-04 8.590273791924118996e-04
1.125000000000000000e+03 3.698975145816802979e-01 2.754366493225097656e+01 3.261467791162431240e-04 3.013976849615573883e-03 1.002037082798779011e-03 6.262193783186376095e-04
1.126000000000000000e+03 4.329595565795898438e-01 -3.800608062744140625e+01 -3.046794561669230461e-03 -9.742973446846008301e-01 -2.932032346725463867e-01 2.072769682854413986e-03
1.127000000000000000e+03 1.113165140151977539e+00 -3.716706848144531250e+01 -2.220747293904423714e-03 -9.206647872924804688e-01 -2.768656611442565918e-01 1.664260053075850010e-03
1.128000000000000000e+03 3.605251312255859375e-01 2.111956977844238281e+01 2.466370351612567902e-04 8.399040438234806061e-03 2.593703335151076317e-03 -1.206621236633509398e-04
1.129000000000000000e+03 1.083088755607604980e+00 2.177768707275390625e+01 1.248955813935026526e-04 6.306703668087720871e-03 1.929479883983731270e-03 1.406317824148572981e-05
1.130000000000000000e+03 1.096092581748962402e+00 2.498672866821289062e+01 1.286867482122033834e-04 4.331224132329225540e-03 1.337973284535109997e-03 1.086800009943544865e-03
1.131000000000000000e+03 1.101981520652770996e+00 2.658368301391601562e+01 1.584125566296279430e-04 2.226804150268435478e-03 7.155650528147816658e-04 1.675184466876089573e-03
1.132000000000000000e+03 1.098382592201232910e+00 2.578582763671875000e+01 -5.912772030569612980e-04 3.359853290021419525e-03 8.305728551931679249e-04 1.483759842813014984e-03
1.133000000000000000e+03 3.666000068187713623e-01 2.593887519836425781e+01 3.157711762469261885e-04 5.658975802361965179e-03 1.792424009181559086e-03 4.202653944958001375e-04
1.134000000000000000e+03 1.106866121292114258e+00 2.738097763061523438e+01 -5.976746324449777603e-04 8.920791442506015301e-04 8.832135063130408525e-05 2.047765534371137619e-03
1.135000000000000000e+03 1.148005962371826172e+00 2.977720451354980469e+01 2.166152553400024772e-04 -4.170287866145372391e-03 -1.186101813800632954e-03 2.787682926282286644e-03
1.136000000000000000e+03 2.684104681015014648e+00 3.023204612731933594e+01 -1.025133533403277397e-03 -8.820337243378162384e-03 -2.953641116619110107e-03 6.258069537580013275e-03
1.137000000000000000e+03 1.247537851333618164e+00 3.300941848754882812e+01 3.139670589007437229e-04 -1.220967341214418411e-02 -3.568711923435330391e-03 3.284898353740572929e-03
1.138000000000000000e+03 4.098789989948272705e-01 3.236816787719726562e+01 2.470550825819373131e-04 -8.948303759098052979e-03 -2.610374707728624344e-03 1.099357265047729015e-03
1.139000000000000000e+03 1.262156605720520020e+00 3.381367492675781250e+01 -2.223280898761004210e-04 -1.423405110836029053e-02 -4.336914047598838806e-03 3.306645201519131660e-03
1.140000000000000000e+03 1.325241327285766602e+00 3.539527511596679688e+01 -2.364843385294079781e-04 -1.783151552081108093e-02 -5.420399829745292664e-03 3.337219124659895897e-03
1.141000000000000000e+03 3.413676023483276367e+00 3.908341217041015625e+01 1.380500150844454765e-03 -2.640186063945293427e-02 -7.506407797336578369e-03 3.731408389285206795e-03
1.142000000000000000e+03 1.622138500213623047e+00 3.792448806762695312e+01 8.833344909362494946e-04 -2.309132367372512817e-02 -6.662396714091300964e-03 2.967213047668337822e-03
1.143000000000000000e+03 2.152224540710449219e+00 3.966888427734375000e+01 1.160301151685416698e-03 -2.511424385011196136e-02 -7.186182774603366852e-03 2.198070287704467773e-03
1.144000000000000000e+03 1.187982320785522461e+00 3.939874267578125000e+01 6.551367696374654770e-04 -2.490781620144844055e-02 -7.275803480297327042e-03 1.484467880800366402e-03
1.145000000000000000e+03 4.117638170719146729e-01 3.959311294555664062e+01 -2.309381525265052915e-04 -2.517804130911827087e-02 -7.622693665325641632e-03 5.189523799344897270e-04
1.146000000000000000e+03 1.680366396903991699e+00 4.049242401123046875e+01 5.815828917548060417e-04 -2.550417743623256683e-02 -7.476778235286474228e-03 1.207802910357713699e-03
1.147000000000000000e+03 1.445665478706359863e+00 4.197915267944335938e+01 4.340533632785081863e-04 -2.666090801358222961e-02 -7.868056185543537140e-03 -7.252825889736413956e-05
1.148000000000000000e+03 1.219571352005004883e+00 -3.567281723022460938e+01 1.646449207328259945e-03 -9.101985692977905273e-01 -2.725656330585479736e-01 5.247314111329615116e-04
1.149000000000000000e+03 1.784633636474609375e+00 -7.562201023101806641e+00 -9.053853340446949005e-03 1.653739362955093384e-01 4.689602553844451904e-02 6.385056674480438232e-02
1.150000000000000000e+03 3.586401343345642090e-01 1.950975608825683594e+01 2.237237640656530857e-04 7.884416729211807251e-03 2.432442270219326019e-03 -2.267605304950848222e-04
1.151000000000000000e+03 3.559194207191467285e-01 1.468592357635498047e+01 1.638621033634990454e-04 4.623231478035449982e-03 1.436128048226237297e-03 -2.946487511508166790e-04
1.152000000000000000e+03 3.554767966270446777e-01 1.388195800781250000e+01 -1.406182273058220744e-04 4.030789248645305634e-03 1.167051261290907860e-03 -2.139096905011683702e-04
1.153000000000000000e+03 3.478797972202301025e-01 7.459684848785400391e+00 -6.906696944497525692e-05 8.566544856876134872e-04 2.362762461416423321e-04 -8.243026240961626172e-05
1.154000000000000000e+03 1.172114610671997070e+00 -2.919729423522949219e+01 5.632455926388502121e-03 -8.426434993743896484e-01 -2.511033117771148682e-01 -3.150842711329460144e-02
1.155000000000000000e+03 1.080768942832946777e+00 -2.197458457946777344e+01 4.915097728371620178e-03 -4.285889565944671631e-01 -1.271021515130996704e-01 -1.076711341738700867e-01
1.156000000000000000e+03 1.071593999862670898e+00 -1.554526996612548828e+01 -1.031607575714588165e-02 1.375498026609420776e-01 3.817011788487434387e-02 -7.623738050460815430e-02
1.157000000000000000e+03 1.776657104492187500e+00 -3.731359100341796875e+01 1.310969702899456024e-03 -8.627583980560302734e-01 -2.584342360496520996e-01 2.420608885586261749e-03
1.158000000000000000e+03 1.646497845649719238e+00 -3.846768188476562500e+01 -8.018425665795803070e-03 -8.672730326652526855e-01 -2.625874280929565430e-01 2.357219636905938387e-04
1.159000000000000000e+03 1.245443582534790039e+00 -3.779185104370117188e+01 2.511518076062202454e-03 -9.032210707664489746e-01 -2.702128589153289795e-01 3.909700084477663040e-03
1.160000000000000000e+03 1.987764477729797363e+00 -2.997754478454589844e+01 1.366944517940282822e-02 -7.798520922660827637e-01 -2.298547923564910889e-01 -4.142676666378974915e-02
1.161000000000000000e+03 1.228308558464050293e+00 -3.162770271301269531e+01 4.904860630631446838e-03 -8.834304809570312500e-01 -2.635576725006103516e-01 -1.247450243681669235e-02
1.162000000000000000e+03 1.238177895545959473e+00 -3.243377685546875000e+01 1.877726288512349129e-03 -8.907248377799987793e-01 -2.666541337966918945e-01 -8.782165125012397766e-03
1.163000000000000000e+03 4.034399688243865967e-01 -3.083577346801757812e+01 1.553478767164051533e-03 -9.616851806640625000e-01 -2.880395054817199707e-01 -5.358643364161252975e-03
1.164000000000000000e+03 1.212481260299682617e+00 -3.081831741333007812e+01 4.520782735198736191e-03 -8.734411001205444336e-01 -2.606761157512664795e-01 -1.816540583968162537e-02
1.165000000000000000e+03 1.192985415458679199e+00 -3.000758743286132812e+01 6.652748677879571915e-03 -8.601266145706176758e-01 -2.560421526432037354e-01 -2.445204369723796844e-02
1.166000000000000000e+03 1.152915716171264648e+00 -2.838993835449218750e+01 7.491394877433776855e-03 -8.208832144737243652e-01 -2.440175414085388184e-01 -3.877013176679611206e-02
1.167000000000000000e+03 1.869997143745422363e+00 -2.676182556152343750e+01 1.817560940980911255e-02 -6.939539909362792969e-01 -2.027335166931152344e-01 -8.949624747037887573e-02
1.168000000000000000e+03 1.093088746070861816e+00 -2.438637542724609375e+01 7.408833596855401993e-03 -6.224821805953979492e-01 -1.845220029354095459e-01 -8.393109589815139771e-02
1.169000000000000000e+03 3.630917072296142578e-01 -2.359860420227050781e+01 1.346013741567730904e-03 -6.115838289260864258e-01 -1.830713450908660889e-01 -3.223035484552383423e-02
1.170000000000000000e+03 1.087519884109497070e+00 -2.358478927612304688e+01 7.423774339258670807e-03 -5.636190176010131836e-01 -1.668585687875747681e-01 -9.278304129838943481e-02
1.171000000000000000e+03 1.083763360977172852e+00 -2.278082847595214844e+01 5.851541645824909210e-03 -4.986149966716766357e-01 -1.478290408849716187e-01 -1.012143194675445557e-01
1.172000000000000000e+03 1.077078461647033691e+00 -2.117263793945312500e+01 3.152966033667325974e-03 -3.552570641040802002e-01 -1.056312322616577148e-01 -1.127160638570785522e-01
1.173000000000000000e+03 1.075199842453002930e+00 -1.876643562316894531e+01 -2.831040881574153900e-03 -1.259597837924957275e-01 -3.863725066184997559e-02 -1.131382808089256287e-01
1.174000000000000000e+03 1.074426651000976562e+00 -1.957101440429687500e+01 -6.335719372145831585e-04 -2.024669200181961060e-01 -6.093014776706695557e-02 -1.156804934144020081e-01
1.175000000000000000e+03 3.580955266952514648e-01 -1.716768264770507812e+01 -1.420194632373750210e-03 7.199097424745559692e-02 2.117123454809188843e-02 -3.507770597934722900e-02
1.176000000000000000e+03 1.074835300445556641e+00 -1.715606880187988281e+01 -7.119510322809219360e-03 1.762226969003677368e-02 3.150827717036008835e-03 -9.969487786293029785e-02
1.177000000000000000e+03 1.069752216339111328e+00 -1.474279880523681641e+01 -1.128176692873239517e-02 1.849617958068847656e-01 5.210400745272636414e-02 -6.212290376424789429e-02
1.178000000000000000e+03 1.783352732658386230e+00 -1.474671840667724609e+01 -2.795013971626758575e-02 1.177289560437202454e-01 2.693364582955837250e-02 -9.785115718841552734e-02
1.179000000000000000e+03 1.067495942115783691e+00 -1.394198417663574219e+01 -1.168839260935783386e-02 2.228883653879165649e-01 6.335999071598052979e-02 -4.674375429749488831e-02
1.180000000000000000e+03 1.054632902145385742e+00 -1.154254531860351562e+01 -1.001650933176279068e-02 2.787497043609619141e-01 8.061996102333068848e-02 -2.367089735344052315e-03
1.181000000000000000e+03 1.059013843536376953e+00 -1.234094715118408203e+01 -1.105777267366647720e-02 2.697090804576873779e-01 7.759539037942886353e-02 -1.623183488845825195e-02
1.182000000000000000e+03 3.517251014709472656e-01 -9.939414024353027344e+00 -1.696847029961645603e-03 3.446329236030578613e-01 1.028808206319808960e-01 8.093494921922683716e-03
1.183000000000000000e+03 1.056223988533020020e+00 -9.142621040344238281e+00 -6.359375547617673874e-03 2.556316256523132324e-01 7.478167116641998291e-02 3.056938014924526215e-02
1.184000000000000000e+03 1.052382588386535645e+00 -9.944623947143554688e+00 -7.546038366854190826e-03 2.708074152469635010e-01 7.897841930389404297e-02 2.119752578437328339e-02
1.185000000000000000e+03 1.065043091773986816e+00 -8.336186408996582031e+00 -4.992738831788301468e-03 2.343721240758895874e-01 6.881381571292877197e-02 3.830332681536674500e-02
1.186000000000000000e+03 4.493707656860351562e+00 -2.739978075027465820e+00 6.413456797599792480e-02 8.893237449228763580e-03 2.190834097564220428e-02 8.838067948818206787e-02
1.187000000000000000e+03 3.685419321060180664e+00 -1.902837276458740234e+00 6.228706240653991699e-02 1.055463496595621109e-02 2.185251004993915558e-02 6.431110948324203491e-02
1.188000000000000000e+03 2.828604698181152344e+00 -2.696807622909545898e+00 3.373593837022781372e-02 2.897951751947402954e-02 1.881463639438152313e-02 7.013746351003646851e-02
1.189000000000000000e+03 2.861330509185791016e+00 -1.896876096725463867e+00 4.279996827244758606e-02 1.622029766440391541e-02 1.770607940852642059e-02 5.448040366172790527e-02
1.190000000000000000e+03 2.582053661346435547e+00 -5.992103099822998047e+00 -3.336009336635470390e-03 9.323017299175262451e-02 2.696825005114078522e-02 9.113324433565139771e-02
1.191000000000000000e+03 1.222379565238952637e+00 -1.894287586212158203e+00 1.130739226937294006e-02 2.372723259031772614e-02 1.051038783043622971e-02 2.544525079429149628e-02
1.192000000000000000e+03 1.202103614807128906e+00 -2.686447620391845703e+00 8.622254244983196259e-03 4.180744290351867676e-02 1.512890867888927460e-02 3.603789582848548889e-02
1.193000000000000000e+03 3.470472991466522217e-01 5.067845821380615234e+00 5.676238652085885406e-05 3.266370913479477167e-04 1.150198440882377326e-04 -6.478931754827499390e-05
1.194000000000000000e+03 4.861166477203369141e+00 3.946143865585327148e+00 2.779682108666747808e-04 4.322977019910467789e-06 8.468735904898494482e-05 -3.459771978668868542e-04
1.195000000000000000e+03 1.048092126846313477e+00 6.537386417388916016e+00 -3.455859769019298255e-05 5.969909834675490856e-04 1.687297044554725289e-04 -2.235315041616559029e-04
1.196000000000000000e+03 1.063870191574096680e+00 1.051941680908203125e+01 1.497774210292845964e-04 1.799514051526784897e-03 5.847874563187360764e-04 -5.056489026173949242e-04
1.197000000000000000e+03 1.062532067298889160e+00 9.714636802673339844e+00 -5.707376476493664086e-05 1.477825222536921501e-03 4.262254224158823490e-04 -4.087582929059863091e-04
1.198000000000000000e+03 1.064231157302856445e+00 1.292719745635986328e+01 -1.027373946271836758e-04 2.886886242777109146e-03 8.352446602657437325e-04 -6.129143293946981430e-04
1.199000000000000000e+03 1.063515663146972656e+00 1.212395381927490234e+01 1.675693201832473278e-04 2.507858909666538239e-03 8.026284631341695786e-04 -6.182612269185483456e-04
1.200000000000000000e+03 3.544353544712066650e-01 1.227363681793212891e+01 -1.178675447590649128e-04 2.979724435135722160e-03 8.585570612922310829e-04 -1.845079823397099972e-04
1.201000000000000000e+03 1.065818548202514648e+00 1.373240470886230469e+01 1.774702395778149366e-04 3.335002576932311058e-03 1.053741783834993839e-03 -7.146000280044972897e-04
1.202000000000000000e+03 2.490732908248901367e+00 1.590677356719970703e+01 -2.264281647512689233e-04 2.643127692863345146e-03 7.250098860822618008e-04 -1.283286139369010925e-03
1.203000000000000000e+03 1.071722745895385742e+00 1.695131492614746094e+01 1.741655287332832813e-04 5.115526262670755386e-03 1.586907543241977692e-03 -7.462257053703069687e-04
1.204000000000000000e+03 1.071957230567932129e+00 1.775597381591796875e+01 -2.604471228551119566e-04 5.490713752806186676e-03 1.569079933688044548e-03 -6.109448731876909733e-04
1.205000000000000000e+03 1.072810411453247070e+00 1.855846595764160156e+01 1.603063719812780619e-04 5.865560378879308701e-03 1.807759981602430344e-03 -6.211193394847214222e-04
1.206000000000000000e+03 1.075230598449707031e+00 1.936221885681152344e+01 -3.376392705831676722e-04 6.111114751547574997e-03 1.732042524963617325e-03 -4.162835248280316591e-04
1.207000000000000000e+03 1.085703849792480469e+00 2.257735443115234375e+01 -5.007153376936912537e-04 6.057905498892068863e-03 1.667157048359513283e-03 3.566030645743012428e-04
1.208000000000000000e+03 6.630747985839843750e+01 1.024498558044433594e+01 2.599035739898681641e+00 6.777163505554199219e+00 2.812859773635864258e+00 4.184413433074951172e+00
1.209000000000000000e+03 6.692340850830078125e+01 8.691798210144042969e+00 7.310071587562561035e-01 7.489391326904296875e+00 2.466119527816772461e+00 2.203329086303710938e+00
1.210000000000000000e+03 5.675677108764648438e+01 1.576356649398803711e+00 9.098836779594421387e-01 3.745035231113433838e-01 3.853161633014678955e-01 5.568139553070068359e-01
1.211000000000000000e+03 5.847244262695312500e+01 2.051194667816162109e+00 7.296843528747558594e-01 4.202627539634704590e-01 3.449841439723968506e-01 4.831334054470062256e-01
1.212000000000000000e+03 6.391777038574218750e+01 2.185438919067382812e+01 -1.478056311607360840e+00 3.782211616635322571e-02 -4.320702552795410156e-01 -7.011190056800842285e-02
1.213000000000000000e+03 6.774385070800781250e+01 1.334168529510498047e+01 1.122126817703247070e+00 1.600431442260742188e+01 5.137932777404785156e+00 3.796905755996704102e+00
1.214000000000000000e+03 6.844324493408203125e+01 1.329749584197998047e+01 1.307274103164672852e+00 1.525074577331542969e+01 4.967405796051025391e+00 2.181703805923461914e+00
1.215000000000000000e+03 5.709630203247070312e+01 1.077471137046813965e+00 8.056221008300781250e-01 3.616120517253875732e-01 3.501702547073364258e-01 4.581920802593231201e-01
1.216000000000000000e+03 6.472035980224609375e+01 8.443020820617675781e+00 2.027588844299316406e+00 2.894560575485229492e+00 1.476644873619079590e+00 2.320454120635986328e+00
1.217000000000000000e+03 5.324607467651367188e+01 -4.821703135967254639e-01 -1.908164918422698975e-01 1.029546335339546204e-01 -2.635855786502361298e-02 5.541442036628723145e-01
1.218000000000000000e+03 6.634210968017578125e+01 9.159349441528320312e+00 1.584129810333251953e+00 6.360713481903076172e+00 2.383453130722045898e+00 2.951167583465576172e+00
1.219000000000000000e+03 5.482351303100585938e+01 -2.097700722515583038e-02 4.325223267078399658e-01 2.489333599805831909e-01 2.044367045164108276e-01 4.547545611858367920e-01
1.220000000000000000e+03 5.636513137817382812e+01 6.576942205429077148e-01 7.670788168907165527e-01 3.129501640796661377e-01 3.240086734294891357e-01 4.594385623931884766e-01
1.221000000000000000e+03 6.245396041870117188e+01 2.378805732727050781e+01 -1.099923014640808105e+00 4.097977876663208008e-01 -2.070375829935073853e-01 -7.936812639236450195e-01
1.222000000000000000e+03 6.412469482421875000e+01 7.894314765930175781e+00 1.532000422477722168e+00 2.006264209747314453e+00 1.061479449272155762e+00 1.766885638236999512e+00
1.223000000000000000e+03 6.524216461181640625e+01 7.964125156402587891e+00 1.239386677742004395e+00 4.163149356842041016e+00 1.620760798454284668e+00 2.278885364532470703e+00
1.224000000000000000e+03 6.454640197753906250e+01 6.317418098449707031e+00 7.085137367248535156e-01 3.280269145965576172e+00 1.196634888648986816e+00 1.610651493072509766e+00
1.225000000000000000e+03 6.232386779785156250e+01 6.261026859283447266e+00 8.733749389648437500e-01 9.676915407180786133e-01 5.523199439048767090e-01 8.811492919921875000e-01
1.226000000000000000e+03 6.464314270019531250e+01 7.397203922271728516e+00 1.123410940170288086e+00 3.216264486312866211e+00 1.301902651786804199e+00 1.938340663909912109e+00
1.227000000000000000e+03 6.403913879394531250e+01 6.839232921600341797e+00 1.007689595222473145e+00 2.436989784240722656e+00 1.033403754234313965e+00 1.626416444778442383e+00
1.228000000000000000e+03 6.485101318359375000e+01 2.236357688903808594e+01 -1.423025876283645630e-01 1.342552423477172852e+00 3.600749671459197998e-01 -1.546460509300231934e+00
1.229000000000000000e+03 5.973069000244140625e+01 3.111591577529907227e+00 6.121413111686706543e-01 5.410746932029724121e-01 3.459647893905639648e-01 5.304415225982666016e-01
1.230000000000000000e+03 6.879650878906250000e+01 1.735862350463867188e+01 5.734210014343261719e-01 1.718062973022460938e+01 5.326215267181396484e+00 -8.274954557418823242e-01
1.231000000000000000e+03 6.017289352416992188e+01 2.553532600402832031e+00 6.742827892303466797e-01 7.101197838783264160e-01 4.153207838535308838e-01 6.009874939918518066e-01
1.232000000000000000e+03 6.821839141845703125e+01 1.182628345489501953e+01 1.692559599876403809e+00 1.230200862884521484e+01 4.198370456695556641e+00 2.301006078720092773e+00
1.233000000000000000e+03 6.832606506347656250e+01 1.253028202056884766e+01 1.524326205253601074e+00 1.367122840881347656e+01 4.558666229248046875e+00 2.691796541213989258e+00
1.234000000000000000e+03 6.683317565917968750e+01 9.754675865173339844e+00 1.484938025474548340e+00 8.396545410156250000e+00 2.964445114135742188e+00 3.179433345794677734e+00
1.235000000000000000e+03 6.094982147216796875e+01 4.167644977569580078e+00 5.989345908164978027e-01 7.781612277030944824e-01 4.131287336349487305e-01 6.476663947105407715e-01
1.236000000000000000e+03 6.107365798950195312e+01 5.238592147827148438e+00 5.626153349876403809e-01 5.393759012222290039e-01 3.305973708629608154e-01 5.356149673461914062e-01
1.237000000000000000e+03 6.855612945556640625e+01 1.409335517883300781e+01 1.466529011726379395e+00 1.610406494140625000e+01 5.271178245544433594e+00 1.603499054908752441e+00
1.238000000000000000e+03 6.944303894042968750e+01 1.652375030517578125e+01 1.069504499435424805e+00 1.540045166015625000e+01 4.940986633300781250e+00 4.575404804199934006e-03
1.239000000000000000e+03 6.876335906982421875e+01 1.654336166381835938e+01 6.194154620170593262e-01 1.704834175109863281e+01 5.300326824188232422e+00 -8.261897414922714233e-02
1.240000000000000000e+03 6.808714294433593750e+01 1.655008316040039062e+01 -5.889189615845680237e-02 1.786947631835937500e+01 5.343174934387207031e+00 -3.224131464958190918e-02
1.241000000000000000e+03 6.218704986572265625e+01 5.208605766296386719e+00 6.899247765541076660e-01 1.240616321563720703e+00 5.791623592376708984e-01 9.028744101524353027e-01
1.242000000000000000e+03 5.911114883422851562e+01 2.577507019042968750e+00 6.557563543319702148e-01 4.580391049385070801e-01 3.341386318206787109e-01 5.119457244873046875e-01
1.243000000000000000e+03 1.819028854370117188e+01 1.712590217590332031e+01 2.408854663372039795e-03 1.057355478405952454e-02 3.894722787663340569e-03 3.901805728673934937e-03
1.244000000000000000e+03 1.867073631286621094e+01 1.958041954040527344e+01 -1.110044121742248535e-02 7.062050979584455490e-03 -1.211516908369958401e-03 -3.035123692825436592e-03
1.245000000000000000e+03 1.851045799255371094e+01 1.875034904479980469e+01 1.535087591037154198e-03 9.744030423462390900e-03 3.383735427632927895e-03 1.793745090253651142e-03
1.246000000000000000e+03 1.866178131103515625e+01 1.784366607666015625e+00 9.805607260204851627e-05 5.900643373024649918e-05 4.711875226348638535e-05 4.846441515837796032e-05
1.247000000000000000e+03 2.005678749084472656e+01 6.628367900848388672e+00 1.330596714979037642e-04 2.352329029235988855e-04 1.104877665056847036e-04 4.342020929470891133e-06
1.248000000000000000e+03 1.883278465270996094e+01 1.135175514221191406e+01 2.080758567899465561e-04 2.961193211376667023e-03 9.507806971669197083e-04 -5.115275598654989153e-06
1.249000000000000000e+03 1.951399230957031250e+01 8.166610717773437500e+00 1.838112657424062490e-04 6.881461013108491898e-04 2.615872072055935860e-04 -6.569868128281086683e-05
1.250000000000000000e+03 1.929960060119628906e+01 2.077331733703613281e+01 -3.974451497197151184e-02 8.330103941261768341e-03 -9.424323216080665588e-03 -5.874857306480407715e-03
1.251000000000000000e+03 1.994579505920410156e+01 -3.377912521362304688e+00 -2.631697058677673340e-01 2.913992479443550110e-02 -7.020893692970275879e-02 -1.797356158494949341e-01
1.252000000000000000e+03 1.913523674011230469e+01 -3.343576669692993164e+00 -1.975961178541183472e-01 2.881647460162639618e-02 -5.063389614224433899e-02 -1.898527592420578003e-01
1.253000000000000000e+03 2.075295066833496094e+01 -4.107650279998779297e+00 -3.534613847732543945e-01 6.034317985177040100e-02 -8.793545514345169067e-02 -2.030628472566604614e-01
1.254000000000000000e+03 1.911008453369140625e+01 -4.026926994323730469e+00 -2.404098063707351685e-01 3.404638916254043579e-02 -6.190902367234230042e-02 -2.389163821935653687e-01
1.255000000000000000e+03 2.387748718261718750e+01 -5.001177787780761719e+00 -6.801002025604248047e-01 2.087401896715164185e-01 -1.414079964160919189e-01 -1.158439591526985168e-01
1.256000000000000000e+03 1.864861106872558594e+01 1.378787803649902344e+01 -1.822460471885278821e-04 6.670588627457618713e-03 1.946502830833196640e-03 5.479459068737924099e-04
1.257000000000000000e+03 1.867379188537597656e+01 8.879991531372070312e+00 1.436146703781560063e-04 1.204040949232876301e-03 4.042967048007994890e-04 2.020165266003459692e-04
1.258000000000000000e+03 1.946397399902343750e+01 6.513735294342041016e+00 -1.698827254585921764e-04 3.557180752977728844e-04 5.575060276896692812e-05 1.024190260068280622e-05
1.259000000000000000e+03 1.583089637756347656e+01 2.176880359649658203e+00 2.182852913392707705e-04 5.413879262050613761e-05 8.172722300514578819e-05 1.814813149394467473e-04
1.260000000000000000e+03 2.308299827575683594e+01 1.153160452842712402e+00 -2.849411430361215025e-05 -3.220988946850411594e-05 -1.821120167733170092e-05 -1.900104325613938272e-05
1.261000000000000000e+03 2.280357360839843750e+01 2.594672918319702148e+00 6.698126526316627860e-05 1.002494718704838306e-05 2.310186209797393531e-05 5.006545688956975937e-05
1.262000000000000000e+03 1.853522491455078125e+01 2.037458610534667969e+01 -2.622290328145027161e-02 7.318070158362388611e-03 -5.671450402587652206e-03 -3.949807956814765930e-03
1.263000000000000000e+03 2.192531776428222656e+01 2.251479148864746094e+01 -1.362491697072982788e-01 -1.794176921248435974e-02 -4.625728353857994080e-02 4.554894939064979553e-02
1.264000000000000000e+03 2.126231384277343750e+01 2.125694847106933594e+01 -1.093252226710319519e-01 -9.074757806956768036e-03 -3.551999479532241821e-02 -9.782138280570507050e-03
1.265000000000000000e+03 1.800611495971679688e+01 1.465506076812744141e+01 6.244210089789703488e-05 6.602793931961059570e-03 1.999570755288004875e-03 1.994210761040449142e-03
1.266000000000000000e+03 1.803598403930664062e+01 1.298963260650634766e+01 4.754782821692060679e-06 4.378882236778736115e-03 1.315091154538094997e-03 1.163446460850536823e-03
1.267000000000000000e+03 1.809747314453125000e+01 1.215932655334472656e+01 3.736342478077858686e-04 3.564030863344669342e-03 1.181299565359950066e-03 9.220936917699873447e-04
1.268000000000000000e+03 1.890584754943847656e+01 8.082697868347167969e+00 -2.026436559390276670e-04 8.400094811804592609e-04 1.912097504828125238e-04 8.551875362172722816e-05
1.269000000000000000e+03 1.803317642211914062e+01 1.548054313659667969e+01 1.062176306731998920e-03 7.802997715771198273e-03 2.659552264958620071e-03 2.505375072360038757e-03
1.270000000000000000e+03 1.831266784667968750e+01 1.051081466674804688e+01 2.476757799740880728e-04 2.126867882907390594e-03 7.123631075955927372e-04 4.382180341053754091e-04
1.271000000000000000e+03 1.847486877441406250e+01 9.689904212951660156e+00 -1.884287921711802483e-04 1.662337337620556355e-03 4.421725752763450146e-04 2.848895092029124498e-04
1.272000000000000000e+03 2.176725578308105469e+01 3.818093776702880859e+00 8.216129936045035720e-05 -8.542997420590836555e-06 2.208549085480626673e-05 6.697371281916275620e-05
1.273000000000000000e+03 2.033899879455566406e+01 2.787689864635467529e-01 3.260828816564753652e-05 1.576502836542204022e-05 1.451199477742193267e-05 -1.261750549019780010e-05
1.274000000000000000e+03 1.809184265136718750e+01 1.630578994750976562e+01 5.883059930056333542e-04 9.331557899713516235e-03 2.975959097966551781e-03 3.101535839959979057e-03
1.275000000000000000e+03 1.800633239746093750e+01 1.382526683807373047e+01 6.215983303263783455e-04 5.403619259595870972e-03 1.807565218769013882e-03 1.476720557548105717e-03
1.276000000000000000e+03 1.939670372009277344e+01 1.720812082290649414e+00 -2.814420258800964803e-05 3.865540566039271653e-05 3.153360921714920551e-06 2.623954605951439589e-05
1.277000000000000000e+03 5.467823028564453125e+01 2.227691459655761719e+01 -1.737696528434753418e+00 -1.858145892620086670e-01 -5.770533084869384766e-01 -2.740728259086608887e-01
1.278000000000000000e+03 5.820439529418945312e+01 2.208157348632812500e+01 -2.836445093154907227e+00 -6.436142325401306152e-02 -8.702419996261596680e-01 -4.195651710033416748e-01
1.279000000000000000e+03 5.001989746093750000e+01 1.650189208984375000e+01 -1.110226809978485107e-01 -8.371996134519577026e-02 -5.842279270291328430e-02 -1.100613474845886230e-01
1.280000000000000000e+03 4.678256607055664062e+01 4.480407714843750000e+00 -5.613491521216928959e-04 -4.254936648067086935e-04 -2.960528363473713398e-04 3.352002531755715609e-04
1.281000000000000000e+03 4.966952514648437500e+01 1.324298381805419922e+01 4.090502392500638962e-03 2.019331976771354675e-02 7.285146508365869522e-03 1.007907558232545853e-03
1.282000000000000000e+03 4.849768447875976562e+01 1.166666412353515625e+01 -7.088038139045238495e-03 7.053302600979804993e-03 -1.042053008859511465e-05 2.170317806303501129e-03
1.283000000000000000e+03 5.045867538452148438e+01 1.557500839233398438e+01 -3.248162567615509033e-02 -4.209163412451744080e-02 -2.237197756767272949e-02 -3.254688158631324768e-02
1.284000000000000000e+03 5.097034072875976562e+01 1.887092208862304688e+01 -3.860452175140380859e-01 -2.028431445360183716e-01 -1.766665130853652954e-01 -3.017706274986267090e-01
1.285000000000000000e+03 4.779770660400390625e+01 6.817934036254882812e+00 -1.170589472167193890e-03 2.063130494207143784e-03 2.677623415365815163e-04 1.991966739296913147e-03
1.286000000000000000e+03 4.991936492919921875e+01 1.402697277069091797e+01 -1.363610569387674332e-02 7.316710893064737320e-03 -1.895818393677473068e-03 -4.949131049215793610e-03
1.287000000000000000e+03 4.893511962890625000e+01 1.331942462921142578e+01 -2.064128033816814423e-02 -1.569805433973670006e-03 -6.663325708359479904e-03 -1.373695954680442810e-02
1.288000000000000000e+03 5.976866912841796875e+01 2.312716674804687500e+01 -2.359103918075561523e+00 -2.224967330694198608e-01 -7.744802236557006836e-01 -5.340457707643508911e-02
1.289000000000000000e+03 5.880155181884765625e+01 2.394459152221679688e+01 -1.638087153434753418e+00 -1.333456635475158691e-01 -5.314298272132873535e-01 -3.793365135788917542e-02
1.290000000000000000e+03 4.973197174072265625e+01 1.571525287628173828e+01 -5.513932928442955017e-02 -5.268265306949615479e-02 -3.234659507870674133e-02 -7.186663150787353516e-02
1.291000000000000000e+03 4.945427322387695312e+01 1.492609786987304688e+01 -4.912606999278068542e-02 -2.874523587524890900e-02 -2.336139045655727386e-02 -4.565631598234176636e-02
1.292000000000000000e+03 4.892783355712890625e+01 1.004347991943359375e+01 6.630279123783111572e-03 2.076399326324462891e-02 8.218281902372837067e-03 6.282073911279439926e-03
1.293000000000000000e+03 5.803499603271484375e+01 2.296179389953613281e+01 -2.230537414550781250e+00 -1.152090877294540405e-01 -7.037239670753479004e-01 -1.769802719354629517e-01
1.294000000000000000e+03 4.798120498657226562e+01 8.419059753417968750e+00 -1.081892638467252254e-03 5.168413277715444565e-03 1.225956249982118607e-03 4.879009909927845001e-03
1.295000000000000000e+03 4.832624053955078125e+01 1.083389282226562500e+01 4.870716482400894165e-03 8.099195547401905060e-03 3.890973748639225960e-03 5.209019407629966736e-03
1.296000000000000000e+03 5.032122039794921875e+01 1.728954887390136719e+01 -1.501034051179885864e-01 -1.207723468542098999e-01 -8.126273006200790405e-02 -1.588939875364303589e-01
1.297000000000000000e+03 5.718680191040039062e+01 2.283207511901855469e+01 -2.117120265960693359e+00 -8.245906233787536621e-02 -6.598738431930541992e-01 -2.034776359796524048e-01
1.298000000000000000e+03 5.634992218017578125e+01 2.267570877075195312e+01 -1.994591355323791504e+00 -1.282016336917877197e-01 -6.368378996849060059e-01 -1.958771049976348877e-01
1.299000000000000000e+03 4.818962860107421875e+01 1.001222133636474609e+01 -2.201949479058384895e-03 7.460191845893859863e-03 1.577472663484513760e-03 6.504922639578580856e-03
1.300000000000000000e+03 4.918787765502929688e+01 1.412879753112792969e+01 -1.942202635109424591e-02 -1.208196301013231277e-02 -9.451196528971195221e-03 -2.709395252168178558e-02
1.301000000000000000e+03 9.337079048156738281e+00 -2.594373703002929688e+00 1.565331965684890747e-01 -4.537697508931159973e-02 3.334686905145645142e-02 4.009251669049263000e-02
1.302000000000000000e+03 6.156328201293945312e+00 -1.884667396545410156e+00 1.256124228239059448e-01 -6.023718975484371185e-03 3.587661311030387878e-02 6.837320327758789062e-02
1.303000000000000000e+03 6.975981712341308594e+00 -2.610203266143798828e+00 1.139260828495025635e-01 -1.926911436021327972e-02 2.839709073305130005e-02 7.704959809780120850e-02
1.304000000000000000e+03 7.777645587921142578e+00 -2.580093860626220703e+00 1.312825977802276611e-01 -2.811362966895103455e-02 3.095068968832492828e-02 6.688396632671356201e-02
1.305000000000000000e+03 6.158909320831298828e+00 -2.656972646713256836e+00 9.699517488479614258e-02 -1.007858291268348694e-02 2.607497945427894592e-02 8.580239862203598022e-02
1.306000000000000000e+03 2.040381908416748047e+00 -1.893604636192321777e+00 2.544719353318214417e-02 2.169920317828655243e-02 1.414391864091157913e-02 4.126608744263648987e-02
1.307000000000000000e+03 1.161712527275085449e+00 -4.285091876983642578e+00 3.677965374663472176e-03 8.998006582260131836e-02 2.809740789234638214e-02 4.883820936083793640e-02
1.308000000000000000e+03 1.182374119758605957e+00 -3.483365535736083984e+00 6.083975080400705338e-03 6.401719897985458374e-02 2.103035338222980499e-02 4.360426589846611023e-02
1.309000000000000000e+03 2.240902709960937500e+01 -4.106179714202880859e+00 -4.673351943492889404e-01 1.037494018673896790e-01 -1.090757399797439575e-01 -1.177227199077606201e-01
1.310000000000000000e+03 2.697587966918945312e+01 -3.718165636062622070e+00 -6.407154798507690430e-01 -6.399473547935485840e-02 -2.114130556583404541e-01 2.962015569210052490e-01
1.311000000000000000e+03 2.323390960693359375e+01 -4.095772743225097656e+00 -5.263565778732299805e-01 1.302597969770431519e-01 -1.188290417194366455e-01 -6.573101133108139038e-02
1.312000000000000000e+03 2.404706382751464844e+01 -4.134066581726074219e+00 -5.968511104583740234e-01 1.560912579298019409e-01 -1.322279572486877441e-01 -1.405324973165988922e-02
1.313000000000000000e+03 4.829310607910156250e+01 4.418790817260742188e+00 -1.426536124199628830e-03 2.645529748406261206e-04 -3.485949418973177671e-04 -5.799602877232246101e-05
1.314000000000000000e+03 2.062125778198242188e+01 4.177463054656982422e+00 9.227675764122977853e-05 5.231085015111602843e-05 4.337628342909738421e-05 4.349691516836173832e-05
1.315000000000000000e+03 2.234425354003906250e+01 2.386067867279052734e+00 -3.150265183649025857e-05 -6.119436147855594754e-05 -2.780910472210962325e-05 -2.946152017102576792e-05
1.316000000000000000e+03 4.379002761840820312e+01 4.822228908538818359e+00 3.709810844156891108e-04 -3.730551688931882381e-04 -6.222238084774289746e-07 -7.099971990101039410e-04
1.317000000000000000e+03 5.283255386352539062e+01 2.177778434753417969e+01 -1.292718768119812012e+00 -2.278200984001159668e-01 -4.561616480350494385e-01 -1.446707546710968018e-01
1.318000000000000000e+03 5.164324569702148438e+01 2.061702346801757812e+01 -1.060188055038452148e+00 -8.897379785776138306e-02 -3.447485566139221191e-01 -2.890484631061553955e-01
1.319000000000000000e+03 3.635122537612915039e+00 -4.185519790649414062e+01 -4.629853065125644207e-04 -7.268076539039611816e-01 -2.181811928749084473e-01 -5.097676999866962433e-03
1.320000000000000000e+03 2.097334480285644531e+01 2.266638374328613281e+01 -1.145422309637069702e-01 -5.203722510486841202e-03 -3.592378646135330200e-02 3.997317701578140259e-02
1.321000000000000000e+03 2.062477684020996094e+01 2.189551544189453125e+01 -1.018146872520446777e-01 5.922787357121706009e-03 -2.876756899058818817e-02 1.761829480528831482e-02
1.322000000000000000e+03 2.588511466979980469e+01 -3.447627782821655273e+00 -5.639429688453674316e-01 5.303945019841194153e-02 -1.532710641622543335e-01 1.618537157773971558e-01
1.323000000000000000e+03 4.968651580810546875e+01 -5.858654975891113281e-01 -9.874716997146606445e-01 1.034671068191528320e-01 -2.652013897895812988e-01 3.161863982677459717e-01
1.324000000000000000e+03 5.120844268798828125e+01 -6.765733957290649414e-01 -7.318999171257019043e-01 -2.043478935956954956e-01 -2.808743417263031006e-01 4.792082607746124268e-01
1.325000000000000000e+03 1.000688171386718750e+01 -3.340121984481811523e+00 1.166392639279365540e-01 -6.536025553941726685e-02 1.538370177149772644e-02 3.363252431154251099e-02
1.326000000000000000e+03 5.029386520385742188e+01 -7.290756225585937500e+00 -2.043127864599227905e-01 1.216635823249816895e+00 3.036969304084777832e-01 9.543788433074951172e-01
1.327000000000000000e+03 2.121463203430175781e+01 3.478929758071899414e+00 -4.652332791010849178e-05 -4.880706455878680572e-06 -1.542121026432141662e-05 -4.964278195984661579e-05
1.328000000000000000e+03 1.652451705932617188e+01 1.372293114662170410e+00 1.508920104242861271e-04 4.297246778151020408e-05 5.815934491693042219e-05 1.107425123336724937e-04
1.329000000000000000e+03 5.766754150390625000e+01 -8.689595222473144531e+00 -1.666914224624633789e+00 -2.409491091966629028e-01 -5.723590254783630371e-01 8.716924786567687988e-01
1.330000000000000000e+03 2.167983436584472656e+01 -1.269193172454833984e+01 5.214512348175048828e-02 9.211927652359008789e-02 4.327932000160217285e-02 -2.523682415485382080e-01
1.331000000000000000e+03 2.293692207336425781e+01 -1.374878692626953125e+01 3.653554618358612061e-01 4.361756145954132080e-02 1.226919069886207581e-01 -2.166090458631515503e-01
1.332000000000000000e+03 1.141016101837158203e+01 -3.523879766464233398e+00 1.053509339690208435e-01 -7.185120135545730591e-02 1.004991959780454636e-02 -6.330026313662528992e-03
1.333000000000000000e+03 9.291188240051269531e+00 -3.286526203155517578e+00 1.145290955901145935e-01 -5.925698578357696533e-02 1.658163219690322876e-02 4.943390563130378723e-02
1.334000000000000000e+03 5.907198333740234375e+01 -9.229365348815917969e+00 -1.662444233894348145e+00 -9.365823864936828613e-02 -5.268307328224182129e-01 8.381837010383605957e-01
1.335000000000000000e+03 1.868272972106933594e+01 1.081392168998718262e+00 -7.970462320372462273e-06 2.493254760338459164e-05 5.088626039650989696e-06 3.089254460064694285e-05
1.336000000000000000e+03 1.980125427246093750e+01 5.733284950256347656e+00 1.038390182657167315e-04 2.103719743900001049e-04 9.426329779671505094e-05 6.592270074179396033e-05
1.337000000000000000e+03 2.079828643798828125e+01 2.284261941909790039e+00 5.432716716313734651e-05 3.018704592250287533e-05 2.535426392569206655e-05 -2.904785287682898343e-05
1.338000000000000000e+03 6.226034545898437500e+01 -9.469837188720703125e+00 -1.416425585746765137e+00 3.100423216819763184e-01 -3.319149911403656006e-01 3.626388609409332275e-01
1.339000000000000000e+03 6.125899505615234375e+01 -9.941793441772460938e+00 -1.785981178283691406e+00 5.933648347854614258e-02 -5.179933905601501465e-01 6.146326661109924316e-01
1.340000000000000000e+03 4.495248031616210938e+01 6.159458160400390625e+00 4.368244670331478119e-03 -1.220838981680572033e-03 9.442217415198683739e-04 -4.221821145620197058e-04
1.341000000000000000e+03 4.701483535766601562e+01 6.026333332061767578e+00 1.954360777745023370e-04 -4.252237558830529451e-04 -6.893630052218213677e-05 1.131511642597615719e-03
1.342000000000000000e+03 4.578808975219726562e+01 6.792190074920654297e+00 4.599928390234708786e-03 -1.938170404173433781e-03 7.985273841768503189e-04 1.640273840166628361e-03
1.343000000000000000e+03 4.457664871215820312e+01 4.703534603118896484e+00 1.945334835909307003e-03 1.253693626495078206e-04 6.212112493813037872e-04 -3.977985761594027281e-04
1.344000000000000000e+03 5.979222488403320312e+01 -9.482278823852539062e+00 -1.701373696327209473e+00 -4.139576107263565063e-02 -5.228308439254760742e-01 7.815586924552917480e-01
1.345000000000000000e+03 2.096121406555175781e+01 -1.251622104644775391e+01 -2.500141598284244537e-02 1.048583090305328369e-01 2.395706810057163239e-02 -2.168628722429275513e-01
1.346000000000000000e+03 2.467390441894531250e+01 -1.336913299560546875e+01 4.713407754898071289e-01 8.076248317956924438e-02 1.656309813261032104e-01 -3.380256891250610352e-01
1.347000000000000000e+03 2.393238258361816406e+01 -1.318804168701171875e+01 3.576331734657287598e-01 8.045588433742523193e-02 1.314267069101333618e-01 -3.216947317123413086e-01
1.348000000000000000e+03 1.512054347991943359e+01 2.309081792831420898e+00 1.904544769786298275e-04 -8.392140443902462721e-06 5.461870023282244802e-05 1.896886533359065652e-04
1.349000000000000000e+03 1.922552680969238281e+01 3.220010519027709961e+00 -6.680723163299262524e-05 9.343078272650018334e-05 7.987066055648028851e-06 4.235325468471273780e-05
1.350000000000000000e+03 1.439313983917236328e+01 2.437894105911254883e+00 3.266447747591882944e-04 1.832730049500241876e-06 9.854324889602139592e-05 2.308379334863275290e-04
1.351000000000000000e+03 3.750157928466796875e+01 -5.196206092834472656e+00 -2.058700561523437500e+00 -4.680917561054229736e-01 -7.580376863479614258e-01 -7.480096817016601562e-01
1.352000000000000000e+03 3.574670791625976562e+01 -4.974584579467773438e+00 -2.460237026214599609e+00 -2.414445281028747559e-01 -8.105044960975646973e-01 -7.400928139686584473e-01
1.353000000000000000e+03 2.538477897644042969e+01 2.213520812988281250e+01 -2.274161279201507568e-01 -3.458362817764282227e-02 -7.859992980957031250e-02 8.866034448146820068e-02
1.354000000000000000e+03 2.280226898193359375e+01 2.347976112365722656e+01 -1.333410441875457764e-01 -3.479176759719848633e-02 -5.043984204530715942e-02 7.055393606424331665e-02
1.355000000000000000e+03 2.023742103576660156e+01 9.491326808929443359e-01 -2.078038414765615016e-05 6.341039807011839002e-06 -4.331803665991174057e-06 9.284441148338373750e-06
1.356000000000000000e+03 1.964072990417480469e+01 -1.211455535888671875e+01 -2.308295220136642456e-01 1.326583325862884521e-01 -2.945135720074176788e-02 -1.872211992740631104e-01
1.357000000000000000e+03 1.867984199523925781e+01 -1.236808395385742188e+01 -3.044832348823547363e-01 1.161473765969276428e-01 -5.650075525045394897e-02 -9.658192843198776245e-02
1.358000000000000000e+03 4.303812408447265625e+01 -9.033148884773254395e-01 -1.007093548774719238e+00 3.998252004384994507e-02 -2.901333272457122803e-01 -5.927959680557250977e-01
1.359000000000000000e+03 2.615144729614257812e+01 -3.219224166870117188e+01 3.697920441627502441e-01 6.346612423658370972e-02 1.299774497747421265e-01 -9.628854691982269287e-02
1.360000000000000000e+03 2.696377563476562500e+01 -4.645130157470703125e+00 -1.086565375328063965e+00 1.391446292400360107e-01 -2.842262089252471924e-01 1.306369900703430176e-01
1.361000000000000000e+03 1.433133983612060547e+01 -4.037570476531982422e+00 1.380048599094152451e-02 -5.840814113616943359e-02 -1.338229700922966003e-02 -1.330434530973434448e-01
1.362000000000000000e+03 1.212046241760253906e+01 -3.639774322509765625e+00 9.252247214317321777e-02 -7.278228551149368286e-02 5.922055337578058243e-03 -3.373062238097190857e-02
1.363000000000000000e+03 1.284426975250244141e+01 -3.766218900680541992e+00 7.198800891637802124e-02 -7.001650333404541016e-02 5.914502544328570366e-04 -6.263595819473266602e-02
1.364000000000000000e+03 3.418146514892578125e+01 -5.361356258392333984e+00 -2.672274589538574219e+00 -2.653440237045288086e-01 -8.812855482101440430e-01 -5.526798963546752930e-01
1.365000000000000000e+03 3.504575347900390625e+01 -5.877710819244384766e+00 -2.199256181716918945e+00 -2.759739756584167480e-01 -7.425690293312072754e-01 -5.146428346633911133e-01
1.366000000000000000e+03 6.374251174926757812e+01 -2.780458450317382812e+01 -6.989204883575439453e-02 1.793177962303161621e+00 5.169857740402221680e-01 8.002390265464782715e-01
1.367000000000000000e+03 4.753355789184570312e+01 4.433953285217285156e+00 1.858272938989102840e-03 3.384117444511502981e-04 6.590053671970963478e-04 7.441537454724311829e-04
1.368000000000000000e+03 4.771086883544921875e+01 6.022488117218017578e+00 3.045079531148076057e-03 1.415348728187382221e-03 1.338128466159105301e-03 2.294775797054171562e-03
1.369000000000000000e+03 1.210569763183593750e+01 2.136031627655029297e+00 4.621193802449852228e-04 -5.714841609005816281e-05 1.214912845171056688e-04 1.576518407091498375e-04
1.370000000000000000e+03 1.755108070373535156e+01 1.131041622161865234e+01 4.188709135632961988e-04 2.342456020414829254e-03 8.283981005661189556e-04 1.162289991043508053e-03
1.371000000000000000e+03 6.830168914794921875e+01 -2.411306953430175781e+01 7.651995122432708740e-02 7.328234672546386719e+00 2.221426486968994141e+00 1.253787159919738770e+00
1.372000000000000000e+03 6.710158538818359375e+01 -2.319916915893554688e+01 1.228873252868652344e+00 5.637321472167968750e+00 2.059858322143554688e+00 2.717647552490234375e+00
1.373000000000000000e+03 3.126221847534179688e+01 -1.395939350128173828e+01 1.198830366134643555e+00 1.358996182680130005e-01 4.004189968109130859e-01 -3.945103883743286133e-01
1.374000000000000000e+03 3.105521392822265625e+01 -6.428176879882812500e+00 -2.085188627243041992e+00 -3.962471783161163330e-01 -7.444307804107666016e-01 -1.853409409523010254e-01
1.375000000000000000e+03 4.682826232910156250e+01 -6.794738769531250000e-01 -9.957996010780334473e-01 2.897219955921173096e-01 -2.118232846260070801e-01 -2.011968009173870087e-02
1.376000000000000000e+03 4.731046295166015625e+01 -1.478964924812316895e+00 -1.012998342514038086e+00 4.117333590984344482e-01 -1.803795099258422852e-01 7.029515504837036133e-02
1.377000000000000000e+03 4.798242568969726562e+01 -1.634016036987304688e+00 -9.808605313301086426e-01 4.127822518348693848e-01 -1.704234778881072998e-01 1.747394055128097534e-01
1.378000000000000000e+03 4.882694625854492188e+01 -1.031515598297119141e+00 -9.685910344123840332e-01 2.561042904853820801e-01 -2.137460261583328247e-01 2.492585033178329468e-01
1.379000000000000000e+03 5.950292205810546875e+01 -1.018367195129394531e+01 -1.957295417785644531e+00 -1.592733561992645264e-01 -6.349706053733825684e-01 8.250544667243957520e-01
1.380000000000000000e+03 6.173474502563476562e+01 -1.082720947265625000e+01 -2.276563644409179688e+00 -2.296795509755611420e-02 -6.898594498634338379e-01 6.179600954055786133e-01
1.381000000000000000e+03 6.274167633056640625e+01 -1.034953022003173828e+01 -1.822475194931030273e+00 1.598985344171524048e-01 -4.987730085849761963e-01 3.931168615818023682e-01
1.382000000000000000e+03 4.520198440551757812e+01 -1.095195651054382324e+00 -1.042121767997741699e+00 3.428006470203399658e-01 -2.097963392734527588e-01 -2.789637744426727295e-01
1.383000000000000000e+03 4.589415740966796875e+01 -1.223589181900024414e+00 -1.041439533233642578e+00 3.761380016803741455e-01 -1.995904743671417236e-01 -1.705011725425720215e-01
1.384000000000000000e+03 3.215266036987304688e+01 -1.477813529968261719e+01 1.561666369438171387e+00 2.860161364078521729e-01 5.543047785758972168e-01 -4.183337092399597168e-01
1.385000000000000000e+03 3.339202117919921875e+01 -1.246609973907470703e+01 5.656700730323791504e-01 -1.181653663516044617e-01 1.342514008283615112e-01 -1.349578499794006348e-01
1.386000000000000000e+03 4.316714859008789062e+01 -2.442009598016738892e-01 -7.499718666076660156e-01 -2.968093566596508026e-02 -2.338958382606506348e-01 -5.227784514427185059e-01
1.387000000000000000e+03 4.064107894897460938e+01 -3.838528633117675781e+00 -1.836331129074096680e+00 -3.926700949668884277e-01 -6.687003374099731445e-01 -5.737745761871337891e-01
1.388000000000000000e+03 4.746109771728515625e+01 -3.047454595565795898e+00 -9.895429015159606934e-01 6.696685552597045898e-01 -9.596230834722518921e-02 1.943404674530029297e-01
1.389000000000000000e+03 4.930887603759765625e+01 -1.204853177070617676e+00 -9.125945568084716797e-01 2.221700996160507202e-01 -2.071273326873779297e-01 2.992567121982574463e-01
1.390000000000000000e+03 4.601295852661132812e+01 -1.642786407470703125e+01 2.610602676868438721e-01 2.906775951385498047e+00 9.503508210182189941e-01 4.460384845733642578e-01
1.391000000000000000e+03 4.458883666992187500e+01 -1.704203414916992188e+01 3.865580558776855469e-01 2.214880943298339844e+00 7.804316878318786621e-01 2.737314403057098389e-01
1.392000000000000000e+03 5.139526748657226562e+01 -2.939744186401367188e+01 -3.017053380608558655e-02 4.984784424304962158e-01 1.404923796653747559e-01 -3.807947039604187012e-01
1.393000000000000000e+03 3.586051559448242188e+01 -5.679162502288818359e+00 -2.165936946868896484e+00 -2.752378284931182861e-01 -7.323523759841918945e-01 -6.195424795150756836e-01
1.394000000000000000e+03 6.342963409423828125e+01 6.283765792846679688e+00 8.914110660552978516e-01 1.948814749717712402e+00 8.520677685737609863e-01 1.294877290725708008e+00
1.395000000000000000e+03 6.565227508544921875e+01 2.207151031494140625e+01 4.481582641601562500e-01 3.021502256393432617e+00 1.040898084640502930e+00 -2.404700756072998047e+00
1.396000000000000000e+03 6.713619995117187500e+01 2.138317489624023438e+01 1.141173005104064941e+00 8.544510841369628906e+00 2.905705213546752930e+00 -3.969730615615844727e+00
1.397000000000000000e+03 1.665395164489746094e+01 -4.433462142944335938e+00 -1.169903203845024109e-01 -2.087916992604732513e-02 -4.136084765195846558e-02 -2.402907162904739380e-01
1.398000000000000000e+03 1.744618606567382812e+01 -4.547492027282714844e+00 -1.687027812004089355e-01 -4.682409344241023064e-04 -5.075130984187126160e-02 -2.660279870033264160e-01
1.399000000000000000e+03 1.587028503417968750e+01 -4.307851791381835938e+00 -6.904032081365585327e-02 -3.535597771406173706e-02 -3.131889179348945618e-02 -2.081579566001892090e-01
1.400000000000000000e+03 1.993158340454101562e+01 -4.077528953552246094e+00 -2.943495512008666992e-01 4.636461287736892700e-02 -7.439547777175903320e-02 -2.287695854902267456e-01
1.401000000000000000e+03 6.079849243164062500e+01 3.080912828445434570e+00 6.495035290718078613e-01 8.971142768859863281e-01 4.639853537082672119e-01 6.645662188529968262e-01
1.402000000000000000e+03 4.561709594726562500e+01 -1.465048694610595703e+01 5.525560975074768066e-01 2.525857448577880859e+00 9.235240817070007324e-01 6.634060740470886230e-01
1.403000000000000000e+03 9.729552268981933594e+00 2.432136774063110352e+00 4.952339222654700279e-04 -1.084188406821340322e-04 1.160445244750007987e-04 -9.935029993357602507e-06
1.404000000000000000e+03 7.287501811981201172e+00 3.198272943496704102e+00 4.424990329425781965e-04 -1.240652345586568117e-04 9.553014388075098395e-05 -2.114729431923478842e-04
1.405000000000000000e+03 6.491919994354248047e+00 3.217428922653198242e+00 4.511393199209123850e-04 -5.364259413909167051e-05 1.192490162793546915e-04 -2.613672986626625061e-04
1.406000000000000000e+03 5.700724601745605469e+00 3.233461141586303711e+00 3.367971803527325392e-04 -4.629924660548567772e-05 8.714938303455710411e-05 -2.802591479849070311e-04
1.407000000000000000e+03 5.757418155670166016e+00 2.544019222259521484e+00 3.799636324401944876e-04 -5.157102350494824350e-06 1.124419577536173165e-04 -2.348384441575035453e-04
1.408000000000000000e+03 5.646784305572509766e+00 3.922354221343994141e+00 4.164903075434267521e-04 -2.542597758292686194e-05 1.173193013528361917e-04 -3.472167009022086859e-04
1.409000000000000000e+03 4.132604598999023438e+00 3.270002841949462891e+00 2.079691475955769420e-04 4.853015343542210758e-05 7.694979285588487983e-05 -2.781244693323969841e-04
1.410000000000000000e+03 4.914158344268798828e+00 3.249895572662353516e+00 3.335197397973388433e-04 2.931975541287101805e-05 1.088518474716693163e-04 -2.991557703353464603e-04
1.411000000000000000e+03 2.550553083419799805e+00 4.067950725555419922e+00 1.555250346427783370e-04 2.022953412961214781e-04 1.073461098712868989e-04 -2.762355434242635965e-04
1.412000000000000000e+03 9.712105751037597656e+00 3.079358816146850586e+00 5.561577272601425648e-04 -1.256208197446539998e-04 1.291610824409872293e-04 1.013188239085138775e-06
1.413000000000000000e+03 1.916860580444335938e+01 7.297928333282470703e+00 1.118143263738602400e-04 5.725522059947252274e-04 2.053099742624908686e-04 9.615121234674006701e-05
1.414000000000000000e+03 1.916675567626953125e+01 5.614224910736083984e+00 -1.542886893730610609e-04 2.953328366857022047e-04 4.231324783177115023e-05 6.243562529562041163e-05
1.415000000000000000e+03 6.332628631591796875e+01 2.362039184570312500e+01 -8.416701555252075195e-01 9.861608147621154785e-01 4.334719479084014893e-02 -1.138105630874633789e+00
1.416000000000000000e+03 6.321536636352539062e+01 2.281313705444335938e+01 -1.313866734504699707e+00 3.413920700550079346e-01 -2.917423844337463379e-01 -5.497690439224243164e-01
1.417000000000000000e+03 4.632154464721679688e+01 6.043390750885009766e+00 3.528472501784563065e-03 -3.960786270909011364e-04 9.397181565873324871e-04 1.997338840737938881e-03
1.418000000000000000e+03 1.211270236968994141e+01 2.802429199218750000e+00 4.287512274459004402e-04 -1.336670684395357966e-04 8.852525206748396158e-05 1.724633038975298405e-04
1.419000000000000000e+03 1.132735633850097656e+01 2.910371303558349609e+00 5.217196303419768810e-04 -1.065102987922728062e-04 1.245628081960603595e-04 1.459651393815875053e-04
1.420000000000000000e+03 1.364629173278808594e+01 2.564408063888549805e+00 3.157993487548083067e-04 -7.208658644231036305e-05 7.311382796615362167e-05 2.098146796924993396e-04
1.421000000000000000e+03 1.288419723510742188e+01 2.686098814010620117e+00 4.374484997242689133e-04 -5.917761518503539264e-05 1.134812628151848912e-04 2.255432045785710216e-04
1.422000000000000000e+03 4.117714309692382812e+01 -2.675065279006958008e+00 -1.720286846160888672e+00 -4.522154927253723145e-01 -6.517506837844848633e-01 -7.749331593513488770e-01
1.423000000000000000e+03 2.518508148193359375e+01 -1.418487739562988281e+01 7.679942250251770020e-01 4.629557952284812927e-02 2.442869395017623901e-01 -2.501321732997894287e-01
1.424000000000000000e+03 2.726132774353027344e+01 -1.425051593780517578e+01 1.075101375579833984e+00 6.165296211838722229e-02 3.410263061523437500e-01 -3.302196264266967773e-01
1.425000000000000000e+03 6.865030670166015625e+01 1.490719032287597656e+01 1.587891697883605957e+00 1.656697845458984375e+01 5.446461200714111328e+00 1.263433456420898438e+00
1.426000000000000000e+03 7.012691497802734375e+01 1.649688339233398438e+01 1.675224661827087402e+00 1.381009292602539062e+01 4.645595073699951172e+00 -2.839376032352447510e-01
1.427000000000000000e+03 2.646568870544433594e+01 -2.748688697814941406e+00 -3.593398630619049072e-01 -6.448956578969955444e-02 -1.271488368511199951e-01 1.874254047870635986e-01
1.428000000000000000e+03 6.141636276245117188e+01 3.604608058929443359e+00 6.267408132553100586e-01 1.096780657768249512e+00 5.170564651489257812e-01 7.680397033691406250e-01
1.429000000000000000e+03 5.526765441894531250e+01 2.348074150085449219e+01 -1.457320451736450195e+00 -1.184198334813117981e-01 -4.727220833301544189e-01 -1.620019786059856415e-02
1.430000000000000000e+03 5.551876831054687500e+01 2.248879814147949219e+01 -1.886971473693847656e+00 -9.527251869440078735e-02 -5.946732163429260254e-01 -2.462105900049209595e-01
1.431000000000000000e+03 2.340620422363281250e+01 -1.231329345703125000e+01 1.151817962527275085e-01 1.207812726497650146e-01 7.078891992568969727e-02 -3.712843358516693115e-01
1.432000000000000000e+03 3.725977325439453125e+01 1.590558052062988281e+01 -1.791487187147140503e-01 -4.489075765013694763e-02 -6.721184402704238892e-02 9.920601546764373779e-02
1.433000000000000000e+03 3.404582214355468750e+01 1.972906494140625000e+01 -3.010329604148864746e-01 -7.421839982271194458e-02 -1.125754117965698242e-01 1.424475610256195068e-01
1.434000000000000000e+03 1.944220733642578125e+01 -2.975963211059570312e+01 5.609367489814758301e-01 2.568155825138092041e-01 2.453257143497467041e-01 -3.163917958736419678e-01
1.435000000000000000e+03 1.988473510742187500e+01 -3.103202438354492188e+01 4.320966005325317383e-01 2.387188822031021118e-01 2.012446373701095581e-01 -2.474879324436187744e-01
1.436000000000000000e+03 1.509451007843017578e+01 -4.174427032470703125e+00 -2.357058413326740265e-02 -5.002105236053466797e-02 -2.207749150693416595e-02 -1.716238260269165039e-01
1.437000000000000000e+03 3.129740142822265625e+01 2.087404060363769531e+01 -3.156417012214660645e-01 -1.056360155344009399e-01 -1.263833194971084595e-01 1.459219306707382202e-01
1.438000000000000000e+03 3.038165283203125000e+01 2.124594306945800781e+01 -2.973062992095947266e-01 -1.076175346970558167e-01 -1.214771494269371033e-01 1.449370235204696655e-01
1.439000000000000000e+03 3.417449188232421875e+01 1.854835891723632812e+01 -3.004807531833648682e-01 -9.547378867864608765e-02 -1.187863647937774658e-01 1.664408594369888306e-01
1.440000000000000000e+03 3.897616958618164062e+01 1.424817466735839844e+01 -1.074057444930076599e-01 -1.034156791865825653e-02 -3.532419353723526001e-02 5.304729565978050232e-02
1.441000000000000000e+03 3.954399871826171875e+01 1.367081928253173828e+01 -8.341147005558013916e-02 -1.479577156715095043e-03 -2.546731382608413696e-02 3.776889666914939880e-02
1.442000000000000000e+03 4.400553512573242188e+01 5.583275318145751953e+00 2.629620954394340515e-03 2.395784540567547083e-04 8.607598138041794300e-04 -1.274357084184885025e-03
1.443000000000000000e+03 6.949198913574218750e+01 1.734400177001953125e+01 1.617759227752685547e+00 1.526287078857421875e+01 5.064188957214355469e+00 -1.058135509490966797e+00
1.444000000000000000e+03 6.431831359863281250e+01 -2.618148994445800781e+01 3.272128105163574219e-01 1.848146319389343262e+00 6.526077389717102051e-01 9.912399649620056152e-01
1.445000000000000000e+03 3.718942642211914062e+01 1.698312950134277344e+01 -2.277124524116516113e-01 -2.274983003735542297e-02 -7.513868063688278198e-02 1.032143905758857727e-01
1.446000000000000000e+03 3.658674240112304688e+01 1.752445411682128906e+01 -2.472748011350631714e-01 -3.295086324214935303e-02 -8.406770229339599609e-02 1.157913058996200562e-01
1.447000000000000000e+03 3.781723785400390625e+01 -2.027588272094726562e+01 1.298610568046569824e-01 -1.381803490221500397e-02 3.481290489435195923e-02 -4.055437445640563965e-02
1.448000000000000000e+03 3.680934906005859375e+01 -2.049286842346191406e+01 3.070847503840923309e-02 -3.136293292045593262e-01 -8.487625420093536377e-02 5.338477902114391327e-03
1.449000000000000000e+03 5.009997177124023438e+01 -7.935823917388916016e+00 1.163759231567382812e-01 1.302820086479187012e+00 4.257587790489196777e-01 9.410309791564941406e-01
1.450000000000000000e+03 4.913072967529296875e+01 -8.171061515808105469e+00 1.412347555160522461e-01 1.552967429161071777e+00 5.082606673240661621e-01 8.707889914512634277e-01
1.451000000000000000e+03 4.262455749511718750e+01 1.081515789031982422e+01 -1.288089435547590256e-02 -3.513514529913663864e-03 -4.918322432786226273e-03 1.043617492541670799e-03
1.452000000000000000e+03 4.849516677856445312e+01 -1.019606876373291016e+01 1.134141087532043457e+00 2.188920021057128906e+00 9.969183802604675293e-01 1.287548422813415527e+00
1.453000000000000000e+03 3.298904037475585938e+01 -1.490358829498291016e+01 1.465789079666137695e+00 2.940021455287933350e-01 5.279373526573181152e-01 -2.656313478946685791e-01
1.454000000000000000e+03 6.065282058715820312e+01 2.313998794555664062e+01 -2.223422288894653320e+00 -2.049826532602310181e-01 -7.285215258598327637e-01 -1.748958528041839600e-01
1.455000000000000000e+03 5.700294494628906250e+01 2.378838157653808594e+01 -1.593619704246520996e+00 -1.019401252269744873e-01 -5.086679458618164062e-01 -9.797808714210987091e-03
1.456000000000000000e+03 2.783688354492187500e+01 2.256425476074218750e+01 -2.362059503793716431e-01 -7.079566270112991333e-02 -9.210048615932464600e-02 1.223685964941978455e-01
1.457000000000000000e+03 1.737062644958496094e+01 1.384794998168945312e+01 2.899832616094499826e-04 3.969909157603979111e-03 1.277967705391347408e-03 2.150202402845025063e-03
1.458000000000000000e+03 4.929578399658203125e+01 1.664982032775878906e+01 -1.496377587318420410e-01 -5.849167704582214355e-02 -6.243883445858955383e-02 -1.295456588268280029e-01
1.459000000000000000e+03 4.900473022460937500e+01 1.585041999816894531e+01 -1.143593192100524902e-01 -4.395138472318649292e-02 -4.749321192502975464e-02 -9.486673772335052490e-02
1.460000000000000000e+03 1.445458412170410156e+01 -2.648966026306152344e+01 3.919450938701629639e-01 2.932769656181335449e-01 2.055666148662567139e-01 -3.299311697483062744e-01
1.461000000000000000e+03 3.458260345458984375e+01 -1.516498947143554688e+01 1.364650368690490723e+00 -1.378713101148605347e-01 3.680337369441986084e-01 -1.878447085618972778e-01
1.462000000000000000e+03 7.009312438964843750e+01 -1.937588882446289062e+01 1.606218695640563965e+00 9.938436508178710938e+00 3.463396549224853516e+00 6.885316371917724609e-01
1.463000000000000000e+03 4.774145507812500000e+01 -2.709308433532714844e+01 2.025353163480758667e-01 1.261091351509094238e+00 4.390879869461059570e-01 -4.924026131629943848e-01
1.464000000000000000e+03 3.754853057861328125e+01 -2.083812332153320312e+01 7.321425527334213257e-02 -8.923255652189254761e-02 -4.805490840226411819e-03 -1.631853543221950531e-02
1.465000000000000000e+03 1.500922966003417969e+01 -2.709504699707031250e+01 4.133251607418060303e-01 2.952657043933868408e-01 2.125772535800933838e-01 -3.324606716632843018e-01
1.466000000000000000e+03 6.935865020751953125e+01 -2.006354522705078125e+01 1.952305793762207031e+00 1.056362152099609375e+01 3.754778146743774414e+00 1.130749702453613281e+00
1.467000000000000000e+03 4.005118560791015625e+01 1.423625946044921875e+01 -1.196131780743598938e-01 1.144257094711065292e-02 -3.245118260383605957e-02 4.115460067987442017e-02
1.468000000000000000e+03 7.837228393554687500e+01 4.094476318359375000e+01 -1.326001062989234924e-02 8.336957931518554688e+00 2.497109413146972656e+00 2.992338314652442932e-02
1.469000000000000000e+03 7.892302703857421875e+01 1.973482513427734375e+01 5.964204668998718262e-02 4.863218784332275391e+00 1.476858258247375488e+00 3.835995793342590332e-01
1.470000000000000000e+03 7.822714996337890625e+01 1.815802764892578125e+01 1.554022878408432007e-01 5.136850357055664062e+00 1.587675809860229492e+00 3.430059254169464111e-01
1.471000000000000000e+03 7.753469085693359375e+01 3.834770584106445312e+01 1.718073501251637936e-03 8.099495887756347656e+00 2.430364131927490234e+00 -1.481112278997898102e-02
1.472000000000000000e+03 7.780878448486328125e+01 3.652339553833007812e+01 -2.132606506347656250e-02 8.188172340393066406e+00 2.450053691864013672e+00 -8.747616811888292432e-05
1.473000000000000000e+03 7.885689544677734375e+01 3.105102348327636719e+01 -1.957920752465724945e-02 8.264910697937011719e+00 2.473599433898925781e+00 1.554877460002899170e-01
1.474000000000000000e+03 7.802413177490234375e+01 2.951341247558593750e+01 -9.722878783941268921e-02 7.901597976684570312e+00 2.341310739517211914e+00 3.554138243198394775e-01
1.475000000000000000e+03 7.890994262695312500e+01 2.134137153625488281e+01 3.423276916146278381e-02 5.419295787811279297e+00 1.636058568954467773e+00 4.886297881603240967e-01
1.476000000000000000e+03 7.819179534912109375e+01 2.057797813415527344e+01 1.039490997791290283e-01 5.672229766845703125e+00 1.732853651046752930e+00 6.692905426025390625e-01
1.477000000000000000e+03 7.807152557373046875e+01 2.784682846069335938e+01 -1.084751933813095093e-01 7.659681320190429688e+00 2.265361785888671875e+00 4.965628087520599365e-01
1.478000000000000000e+03 7.737229919433593750e+01 2.462055206298828125e+01 -9.937325119972229004e-02 7.122013568878173828e+00 2.106791973114013672e+00 9.302751421928405762e-01
1.479000000000000000e+03 7.816431427001953125e+01 2.218204307556152344e+01 3.792362287640571594e-02 6.154909610748291016e+00 1.857849955558776855e+00 7.748326659202575684e-01
1.480000000000000000e+03 7.889640808105468750e+01 2.294383621215820312e+01 6.988034583628177643e-03 6.052048206329345703e+00 1.817710876464843750e+00 5.266163945198059082e-01
1.481000000000000000e+03 7.753277587890625000e+01 1.578036308288574219e+01 3.036253452301025391e-01 5.628292560577392578e+00 1.779575347900390625e+00 -9.155567735433578491e-02
1.482000000000000000e+03 7.875254058837890625e+01 3.658860015869140625e+01 -1.646158657968044281e-02 8.495202064514160156e+00 2.543622255325317383e+00 9.221197105944156647e-03
1.483000000000000000e+03 7.831284332275390625e+01 3.260834503173828125e+01 -4.146903380751609802e-02 8.249792098999023438e+00 2.462496757507324219e+00 1.306007653474807739e-01
1.484000000000000000e+03 7.824027252197265625e+01 1.575621986389160156e+01 1.785147339105606079e-01 4.984296321868896484e+00 1.548843383789062500e+00 -7.042995840311050415e-02
1.485000000000000000e+03 7.894338226318359375e+01 1.251144695281982422e+01 4.343071207404136658e-02 4.849835395812988281e+00 1.467979907989501953e+00 -3.774026036262512207e-01
1.486000000000000000e+03 7.824087524414062500e+01 1.095330905914306641e+01 6.662239134311676025e-02 5.843466758728027344e+00 1.773026704788208008e+00 -6.935799717903137207e-01
1.487000000000000000e+03 7.824078369140625000e+01 1.415846538543701172e+01 1.612772643566131592e-01 5.118356704711914062e+00 1.583890199661254883e+00 -3.329795002937316895e-01
1.488000000000000000e+03 7.823615264892578125e+01 1.335239601135253906e+01 1.340524852275848389e-01 5.264068126678466797e+00 1.619436144828796387e+00 -4.617978036403656006e-01
1.489000000000000000e+03 7.824787902832031250e+01 1.015972232818603516e+01 4.920568317174911499e-02 6.079655647277832031e+00 1.838658452033996582e+00 -7.473887801170349121e-01
1.490000000000000000e+03 7.895676422119140625e+01 3.256521987915039062e+01 -1.745551638305187225e-02 8.427891731262207031e+00 2.523130893707275391e+00 8.895487338304519653e-02
1.491000000000000000e+03 7.886859893798828125e+01 -2.996240425109863281e+01 -2.103095687925815582e-02 8.468888282775878906e+00 2.534357070922851562e+00 -1.489020437002182007e-01
1.492000000000000000e+03 7.723683166503906250e+01 -3.209350585937500000e+01 -8.602447807788848877e-02 8.165630340576171875e+00 2.423881769180297852e+00 -1.437144428491592407e-01
1.493000000000000000e+03 7.892458343505859375e+01 -2.275284385681152344e+01 3.012933023273944855e-02 7.399181365966796875e+00 2.228793144226074219e+00 -1.791897863149642944e-01
1.494000000000000000e+03 7.818431091308593750e+01 -2.430699157714843750e+01 2.719975076615810394e-02 7.687901496887207031e+00 2.314530372619628906e+00 -3.332280814647674561e-01
1.495000000000000000e+03 7.894617462158203125e+01 -1.553190994262695312e+01 1.975543051958084106e-02 7.844782352447509766e+00 2.359361410140991211e+00 2.984876036643981934e-01
1.496000000000000000e+03 7.754403686523437500e+01 -1.859397888183593750e+01 2.026689201593399048e-01 7.596080303192138672e+00 2.339624881744384766e+00 2.247667908668518066e-01
1.497000000000000000e+03 7.894819641113281250e+01 -8.313862800598144531e+00 -3.191305696964263916e-02 9.504474639892578125e+00 2.841768503189086914e+00 1.340320110321044922e-01
1.498000000000000000e+03 7.824668884277343750e+01 -9.856523513793945312e+00 -7.856738567352294922e-02 9.051794052124023438e+00 2.691967964172363281e+00 3.339541256427764893e-01
1.499000000000000000e+03 7.894902801513671875e+01 -1.898214817047119141e+00 -2.143113873898983002e-02 9.406785964965820312e+00 2.815606594085693359e+00 -1.790394037961959839e-01
1.500000000000000000e+03 7.754960632324218750e+01 -4.170899391174316406e+00 -1.245564892888069153e-01 9.011942863464355469e+00 2.666216135025024414e+00 -1.516829580068588257e-01
1.501000000000000000e+03 7.895041656494140625e+01 5.316130161285400391e+00 -2.159873954951763153e-02 7.590400695800781250e+00 2.270640611648559570e+00 -4.511775970458984375e-01
1.502000000000000000e+03 7.825332641601562500e+01 3.780604839324951172e+00 -4.827671125531196594e-02 8.038927078247070312e+00 2.397195100784301758e+00 -5.987045764923095703e-01
1.503000000000000000e+03 7.808877563476562500e+01 2.702608108520507812e+01 -8.797261118888854980e-02 7.499733924865722656e+00 2.223528385162353516e+00 5.646627545356750488e-01
1.504000000000000000e+03 7.810668945312500000e+01 3.413429260253906250e+01 -4.926774650812149048e-02 8.253118515014648438e+00 2.461155176162719727e+00 7.373732328414916992e-02
1.505000000000000000e+03 7.821726226806640625e+01 3.333652114868164062e+01 -4.602968692779541016e-02 8.257227897644042969e+00 2.463359355926513672e+00 1.020517870783805847e-01
1.506000000000000000e+03 7.799914550781250000e+01 -3.850883102416992188e+01 -2.541195787489414215e-02 8.422134399414062500e+00 2.519016742706298828e+00 -3.704882040619850159e-02
1.507000000000000000e+03 7.875608062744140625e+01 -3.629711914062500000e+01 -1.444754935801029205e-02 8.716523170471191406e+00 2.610622644424438477e+00 -2.690990269184112549e-02
1.508000000000000000e+03 7.793290710449218750e+01 -3.781004333496093750e+01 -9.737754240632057190e-03 8.382704734802246094e+00 2.511890172958374023e+00 -1.765249110758304596e-02
1.509000000000000000e+03 7.810201263427734375e+01 2.621239089965820312e+01 -9.951682388782501221e-02 7.321754455566406250e+00 2.166671276092529297e+00 6.345688104629516602e-01
1.510000000000000000e+03 7.820628356933593750e+01 1.977063179016113281e+01 1.174529194831848145e-01 5.461770057678222656e+00 1.673766851425170898e+00 5.809367299079895020e-01
1.511000000000000000e+03 7.754550170898437500e+01 1.018746376037597656e+01 7.563811540603637695e-02 6.470057487487792969e+00 1.963708639144897461e+00 -9.300899505615234375e-01
1.512000000000000000e+03 7.825180053710937500e+01 1.378903985023498535e+00 -5.875647068023681641e-02 8.590263366699218750e+00 2.559452056884765625e+00 -4.600331485271453857e-01
1.513000000000000000e+03 7.824891662597656250e+01 -4.238461971282958984e+00 -6.571654975414276123e-02 9.307912826538085938e+00 2.772659063339233398e+00 -1.141554862260818481e-01
1.514000000000000000e+03 7.824769592285156250e+01 -1.786777877807617188e+01 1.049127355217933655e-01 7.539716720581054688e+00 2.293388843536376953e+00 2.513536214828491211e-01
1.515000000000000000e+03 7.889838409423828125e+01 -2.676450920104980469e+01 -1.142222248017787933e-02 8.042690277099609375e+00 2.409380435943603516e+00 -2.308426797389984131e-01
1.516000000000000000e+03 7.877073669433593750e+01 -3.390427017211914062e+01 -7.675572298467159271e-03 8.687341690063476562e+00 2.603899955749511719e+00 -4.976224526762962341e-02
1.517000000000000000e+03 7.852557373046875000e+01 4.011267852783203125e+01 4.648360889405012131e-03 8.350180625915527344e+00 2.506448745727539062e+00 9.009245783090591431e-03
1.518000000000000000e+03 7.699768829345703125e+01 4.045816421508789062e+01 1.393304020166397095e-02 7.836599349975585938e+00 2.355159759521484375e+00 -3.501792997121810913e-02
1.519000000000000000e+03 7.802538299560546875e+01 3.496018981933593750e+01 -3.272404521703720093e-02 8.267234802246093750e+00 2.470353364944458008e+00 4.056505486369132996e-02
1.520000000000000000e+03 7.801299285888671875e+01 3.036854553222656250e+01 -8.439768850803375244e-02 7.994232177734375000e+00 2.372950315475463867e+00 2.889635562896728516e-01
1.521000000000000000e+03 7.804862976074218750e+01 2.867617797851562500e+01 -9.085382521152496338e-02 7.795198917388916016e+00 2.311303615570068359e+00 4.190698564052581787e-01
1.522000000000000000e+03 7.812869262695312500e+01 2.459539985656738281e+01 -6.728116422891616821e-02 6.896211624145507812e+00 2.048679113388061523e+00 7.454746365547180176e-01
1.523000000000000000e+03 7.823275756835937500e+01 1.735588836669921875e+01 1.785205602645874023e-01 5.036104202270507812e+00 1.564387440681457520e+00 2.070537209510803223e-01
1.524000000000000000e+03 7.825731658935546875e+01 8.567426681518554688e+00 6.731126923114061356e-03 6.589196205139160156e+00 1.978778123855590820e+00 -7.751393318176269531e-01
1.525000000000000000e+03 7.889080047607421875e+01 -2.756387901306152344e+01 -1.386059168726205826e-02 8.168395996093750000e+00 2.446360588073730469e+00 -2.162948250770568848e-01
1.526000000000000000e+03 7.814028167724609375e+01 -2.910577774047851562e+01 -4.979944974184036255e-02 8.234837532043457031e+00 2.455511569976806641e+00 -2.489508986473083496e-01
1.527000000000000000e+03 7.893473815917968750e+01 -2.114593124389648438e+01 4.450210928916931152e-02 7.248278617858886719e+00 2.187834262847900391e+00 -8.783522248268127441e-02
1.528000000000000000e+03 7.819817352294921875e+01 -2.269476699829101562e+01 6.730309128761291504e-02 7.515292644500732422e+00 2.274778604507446289e+00 -2.549008429050445557e-01
1.529000000000000000e+03 7.876061248779296875e+01 -3.469224166870117188e+01 -1.097620092332363129e-02 8.700201988220214844e+00 2.606767654418945312e+00 -3.600364178419113159e-02
1.530000000000000000e+03 7.790076446533203125e+01 -3.617611694335937500e+01 -4.168069921433925629e-03 8.390025138854980469e+00 2.515757083892822266e+00 -2.517574839293956757e-02
1.531000000000000000e+03 7.894866180419921875e+01 -6.710160732269287109e+00 -3.079453669488430023e-02 9.638767242431640625e+00 2.882391691207885742e+00 4.506092146039009094e-02
1.532000000000000000e+03 7.824822235107421875e+01 -7.444769859313964844e+00 -8.081050962209701538e-02 9.297819137573242188e+00 2.765102624893188477e+00 1.342169642448425293e-01
1.533000000000000000e+03 7.894950866699218750e+01 5.080687999725341797e-01 -2.584906853735446930e-02 8.983790397644042969e+00 2.687382221221923828e+00 -2.731127142906188965e-01
1.534000000000000000e+03 7.825177764892578125e+01 -2.250024676322937012e-01 -5.997662618756294250e-02 8.880105018615722656e+00 2.646038532257080078e+00 -3.656715750694274902e-01
1.535000000000000000e+03 7.894641113281250000e+01 -1.393055248260498047e+01 -8.563956362195312977e-05 8.267463684082031250e+00 2.480213403701782227e+00 3.340629041194915771e-01
1.536000000000000000e+03 7.824035644531250000e+01 -1.546869754791259766e+01 5.733540281653404236e-02 7.933815002441406250e+00 2.397345066070556641e+00 4.574662744998931885e-01
1.537000000000000000e+03 7.825612640380859375e+01 6.975183010101318359e+00 -2.336712740361690521e-02 7.106648445129394531e+00 2.124984264373779297e+00 -7.479025125503540039e-01
1.538000000000000000e+03 7.825513458251953125e+01 6.177382946014404297e+00 -4.208677634596824646e-02 7.354975700378417969e+00 2.193866729736328125e+00 -7.164341211318969727e-01
1.539000000000000000e+03 7.825353240966796875e+01 4.580365657806396484e+00 -5.351236090064048767e-02 7.822744369506835938e+00 2.330769538879394531e+00 -6.400318145751953125e-01
1.540000000000000000e+03 7.825279235839843750e+01 2.981312513351440430e+00 -5.737063661217689514e-02 8.236839294433593750e+00 2.453840732574462891e+00 -5.518871545791625977e-01
1.541000000000000000e+03 7.755500030517578125e+01 2.253275394439697266e+00 -1.030019894242286682e-01 8.273670196533203125e+00 2.451200485229492188e+00 -6.482276916503906250e-01
1.542000000000000000e+03 7.825168609619140625e+01 -1.027664422988891602e+00 -5.512571334838867188e-02 9.001738548278808594e+00 2.683984041213989258e+00 -3.188458383083343506e-01
1.543000000000000000e+03 7.824814605712890625e+01 -5.842540740966796875e+00 -7.451735436916351318e-02 9.345980644226074219e+00 2.781438827514648438e+00 4.224810749292373657e-03
1.544000000000000000e+03 7.824925231933593750e+01 -3.436500072479248047e+00 -6.664377450942993164e-02 9.257677078247070312e+00 2.757309913635253906e+00 -1.670264154672622681e-01
1.545000000000000000e+03 7.754876708984375000e+01 -5.775284767150878906e+00 -1.393791288137435913e-01 9.059157371520996094e+00 2.675933361053466797e+00 -2.088718814775347710e-03
1.546000000000000000e+03 7.824742126464843750e+01 -8.247901916503906250e+00 -8.557249605655670166e-02 9.238602638244628906e+00 2.745908975601196289e+00 2.033923119306564331e-01
1.547000000000000000e+03 7.824383544921875000e+01 -1.306717300415039062e+01 -2.031426504254341125e-02 8.450762748718261719e+00 2.529134511947631836e+00 5.038599967956542969e-01
1.548000000000000000e+03 7.824804687500000000e+01 -1.065867614746093750e+01 -6.597098708152770996e-02 8.927079200744628906e+00 2.658332347869873047e+00 3.905310630798339844e-01
1.549000000000000000e+03 7.824872589111328125e+01 -1.146004581451416016e+01 -5.798970907926559448e-02 8.782860755920410156e+00 2.617461204528808594e+00 4.414626955986022949e-01
1.550000000000000000e+03 7.754681396484375000e+01 -1.059935855865478516e+01 -1.257017850875854492e-01 8.779618263244628906e+00 2.596174716949462891e+00 4.903557300567626953e-01
1.551000000000000000e+03 7.753957366943359375e+01 -1.620795059204101562e+01 1.387573331594467163e-01 7.868765830993652344e+00 2.402256965637207031e+00 5.248922705650329590e-01
1.552000000000000000e+03 7.824728393554687500e+01 -1.706852912902832031e+01 9.849306195974349976e-02 7.646480083465576172e+00 2.323492050170898438e+00 3.331493437290191650e-01
1.553000000000000000e+03 7.822830963134765625e+01 -2.027403068542480469e+01 1.174813434481620789e-01 7.396234512329101562e+00 2.254114627838134766e+00 -2.656864933669567108e-02
1.554000000000000000e+03 7.753300476074218750e+01 -1.939237785339355469e+01 2.166524827480316162e-01 7.548858642578125000e+00 2.329653263092041016e+00 1.070728525519371033e-01
1.555000000000000000e+03 7.818122100830078125e+01 -2.510754394531250000e+01 1.141674909740686417e-02 7.786960124969482422e+00 2.339513063430786133e+00 -3.480629622936248779e-01
1.556000000000000000e+03 7.818972778320312500e+01 -2.350211334228515625e+01 5.212374404072761536e-02 7.596241950988769531e+00 2.294509649276733398e+00 -3.013616502285003662e-01
1.557000000000000000e+03 7.816737365722656250e+01 -2.670994567871093750e+01 -2.333162724971771240e-02 7.987613201141357422e+00 2.389284610748291016e+00 -3.355547487735748291e-01
1.558000000000000000e+03 7.887662506103515625e+01 -2.916414260864257812e+01 -1.763083040714263916e-02 8.383338928222656250e+00 2.509712457656860352e+00 -1.731812506914138794e-01
1.559000000000000000e+03 7.811124420166015625e+01 -3.068460655212402344e+01 -4.776911810040473938e-02 8.340587615966796875e+00 2.487845420837402344e+00 -1.820076256990432739e-01
1.560000000000000000e+03 7.802646636962890625e+01 -3.223386001586914062e+01 -4.770291596651077271e-02 8.390679359436035156e+00 2.502892971038818359e+00 -1.183115914463996887e-01
1.561000000000000000e+03 7.790840148925781250e+01 -3.377126693725585938e+01 -3.739861026406288147e-02 8.399139404296875000e+00 2.508522272109985352e+00 -6.942630559206008911e-02
1.562000000000000000e+03 7.788754272460937500e+01 -3.456057739257812500e+01 -1.847548037767410278e-02 8.405496597290039062e+00 2.516106128692626953e+00 -5.264027044177055359e-02
1.563000000000000000e+03 7.785012054443359375e+01 -3.701403427124023438e+01 -2.189844101667404175e-02 8.366616249084472656e+00 2.503415107727050781e+00 -1.701950468122959137e-02
1.564000000000000000e+03 7.801324462890625000e+01 -4.067144775390625000e+01 -1.259577926248311996e-02 8.516148567199707031e+00 2.551065683364868164e+00 2.558950893580913544e-02
1.565000000000000000e+03 3.731805801391601562e+01 -2.140190887451171875e+01 4.141557216644287109e-02 -1.476734280586242676e-01 -3.187735378742218018e-02 3.388395905494689941e-02
1.566000000000000000e+03 6.604110717773437500e+01 -2.551252746582031250e+01 3.398266732692718506e-01 3.802872180938720703e+00 1.242809653282165527e+00 1.547282695770263672e+00
1.567000000000000000e+03 1.556198024749755859e+01 -2.771765899658203125e+01 4.381880462169647217e-01 2.945971786975860596e-01 2.198355644941329956e-01 -3.257991969585418701e-01
1.568000000000000000e+03 3.579577207565307617e-01 3.478071689605712891e+00 3.919828668585978448e-05 1.162632761406712234e-04 4.663846630137413740e-05 -3.823097358690574765e-05
1.569000000000000000e+03 1.467900156974792480e+00 3.617667007446289062e+01 6.606806418858468533e-04 -1.977491565048694611e-02 -5.734270904213190079e-03 3.251178655773401260e-03
1.570000000000000000e+03 3.594852685928344727e+00 4.020027542114257812e+01 2.387231215834617615e-03 -2.710082381963729858e-02 -7.414077874273061752e-03 2.751041203737258911e-03
1.571000000000000000e+03 1.278063654899597168e+00 3.460976409912109375e+01 3.592517168726772070e-04 -1.597960479557514191e-02 -4.686105996370315552e-03 3.142909612506628036e-03
1.572000000000000000e+03 2.821973085403442383e+00 3.645380020141601562e+01 1.163906301371753216e-03 -2.190173044800758362e-02 -6.221347488462924957e-03 5.379559937864542007e-03
1.573000000000000000e+03 1.114917039871215820e+00 2.817819595336914062e+01 1.861618511611595750e-04 -6.305035203695297241e-04 -1.333024993073195219e-04 2.252023667097091675e-03
1.574000000000000000e+03 1.937820434570312500e+00 3.040817832946777344e+01 1.161608597612939775e-04 -7.603359408676624298e-03 -2.246159594506025314e-03 4.791575483977794647e-03
1.575000000000000000e+03 2.566051959991455078e+00 2.553115463256835938e+01 -1.449156785383820534e-03 -3.685799019876867533e-04 -5.453209741972386837e-04 3.173664212226867676e-03
1.576000000000000000e+03 2.037826299667358398e+00 3.203643798828125000e+01 3.087066870648413897e-04 -1.153311133384704590e-02 -3.367321565747261047e-03 5.275936331599950790e-03
1.577000000000000000e+03 1.243960618972778320e+00 -3.404250717163085938e+01 6.618099287152290344e-04 -8.993719816207885742e-01 -2.696130573749542236e-01 -4.412530455738306046e-03
1.578000000000000000e+03 2.063915014266967773e+00 -3.160911178588867188e+01 1.050692517310380936e-02 -8.006722331047058105e-01 -2.370495945215225220e-01 -2.349994145333766937e-02
1.579000000000000000e+03 1.829594731330871582e+00 2.565053367614746094e+01 -1.881189236883074045e-04 1.375833526253700256e-03 3.563143836800009012e-04 2.276882296428084373e-03
1.580000000000000000e+03 2.079942464828491211e+00 3.285216140747070312e+01 -2.441738906782120466e-04 -1.352162007242441177e-02 -4.129738081246614456e-03 5.214064382016658783e-03
1.581000000000000000e+03 1.226740598678588867e+00 3.220270156860351562e+01 -3.290155145805329084e-04 -1.023108139634132385e-02 -3.168029244989156723e-03 3.251003101468086243e-03
1.582000000000000000e+03 1.173239469528198242e+00 -3.645561599731445312e+01 2.603528555482625961e-03 -9.161593317985534668e-01 -2.740667462348937988e-01 3.630531486123800278e-03
1.583000000000000000e+03 1.081150412559509277e+00 2.097554206848144531e+01 -4.196882364340126514e-04 6.350750103592872620e-03 1.779318437911570072e-03 -8.993135270429775119e-05
1.584000000000000000e+03 1.816278696060180664e+00 2.325081062316894531e+01 -8.460133685730397701e-04 3.688012016937136650e-03 8.525995654053986073e-04 1.000069081783294678e-03
1.585000000000000000e+03 2.542818069458007812e+00 2.314179229736328125e+01 -6.167878746055066586e-04 1.976249273866415024e-03 4.078384081367403269e-04 1.344006857834756374e-03
1.586000000000000000e+03 1.825842022895812988e+00 2.485686302185058594e+01 -9.314711787737905979e-04 2.305824775248765945e-03 4.123061080463230610e-04 1.889870851300656796e-03
1.587000000000000000e+03 1.847962975502014160e+00 2.802033996582031250e+01 -9.217078913934528828e-04 -2.348228124901652336e-03 -9.809808107092976570e-04 3.622169839218258858e-03
1.588000000000000000e+03 1.839138150215148926e+00 2.723090171813964844e+01 -1.270960638066753745e-04 -9.852574439719319344e-04 -3.337060334160923958e-04 3.175208577886223793e-03
1.589000000000000000e+03 1.896138548851013184e+00 2.960397529602050781e+01 -8.053961792029440403e-04 -5.644650664180517197e-03 -1.935014035552740097e-03 4.377108998596668243e-03
1.590000000000000000e+03 1.987088680267333984e+00 3.122021293640136719e+01 -5.688425153493881226e-04 -9.507130831480026245e-03 -3.022791817784309387e-03 4.969152621924877167e-03
1.591000000000000000e+03 2.104285478591918945e+00 3.446092224121093750e+01 3.738032091860077344e-06 -1.702364534139633179e-02 -5.105972290039062500e-03 5.020509473979473114e-03
1.592000000000000000e+03 2.917962551116943359e+00 -3.679977416992187500e+01 4.222521558403968811e-03 -7.424668073654174805e-01 -2.214732766151428223e-01 -6.325909402221441269e-03
1.593000000000000000e+03 2.083954572677612305e+00 -3.573157882690429688e+01 5.806718952953815460e-03 -8.254333138465881348e-01 -2.458879649639129639e-01 -4.596782848238945007e-03
1.594000000000000000e+03 1.078398466110229492e+00 2.016875457763671875e+01 1.397585583617910743e-04 6.315010134130716324e-03 1.936430577188730240e-03 -3.703797701746225357e-04
1.595000000000000000e+03 1.805642127990722656e+00 2.165248107910156250e+01 -7.192194461822509766e-04 4.434491042047739029e-03 1.114581478759646416e-03 2.272315614391118288e-04
1.596000000000000000e+03 2.456297397613525391e+00 -1.237768840789794922e+01 -4.935700818896293640e-02 1.364115327596664429e-01 2.611635997891426086e-02 -4.108196124434471130e-02
1.597000000000000000e+03 2.503785133361816406e+00 -2.040965080261230469e+01 6.698801647871732712e-03 -2.902995347976684570e-01 -8.508022129535675049e-02 -2.325111478567123413e-01
1.598000000000000000e+03 1.790482282638549805e+00 -1.635320091247558594e+01 -2.200702391564846039e-02 2.662327885627746582e-02 1.384876319207251072e-03 -1.390017569065093994e-01
1.599000000000000000e+03 1.136020779609680176e+00 -2.758662414550781250e+01 6.644020322710275650e-03 -7.934370040893554688e-01 -2.360378950834274292e-01 -4.731614887714385986e-02
1.600000000000000000e+03 1.832167506217956543e+00 -2.517585754394531250e+01 1.909189671277999878e-02 -6.212300062179565430e-01 -1.806414425373077393e-01 -1.172317117452621460e-01
1.601000000000000000e+03 1.067355394363403320e+00 1.453779506683349609e+01 -1.401144545525312424e-04 3.756269812583923340e-03 1.084846677258610725e-03 -6.824291194789111614e-04
1.602000000000000000e+03 1.781622886657714844e+00 1.601599884033203125e+01 1.674769882811233401e-04 3.636406268924474716e-03 1.141165033914148808e-03 -1.107788295485079288e-03
1.603000000000000000e+03 1.055139780044555664e+00 8.117422103881835938e+00 -4.510373400989919901e-05 9.750198223628103733e-04 2.789748250506818295e-04 -3.087724617216736078e-04
1.604000000000000000e+03 1.773289322853088379e+00 1.279487705230712891e+01 2.273539139423519373e-04 2.319879131391644478e-03 7.641699048690497875e-04 -9.818252874538302422e-04
1.605000000000000000e+03 1.785706758499145508e+00 1.763088798522949219e+01 1.018281254800967872e-04 4.220112226903438568e-03 1.296582166105508804e-03 -9.888960048556327820e-04
1.606000000000000000e+03 1.078454017639160156e+00 -7.529376983642578125e+00 -3.712440840899944305e-03 2.086432129144668579e-01 6.147923320531845093e-02 4.443544521927833557e-02
1.607000000000000000e+03 2.520975828170776367e+00 -6.814927577972412109e+00 -1.061654835939407349e-02 1.109441369771957397e-01 3.009827621281147003e-02 8.541689068078994751e-02
1.608000000000000000e+03 2.449947118759155273e+00 -8.432959556579589844e+00 -2.281080000102519989e-02 1.400279104709625244e-01 3.516513109207153320e-02 6.455022841691970825e-02
1.609000000000000000e+03 1.139807224273681641e+00 -5.092839717864990234e+00 1.544835628010332584e-03 1.187676191329956055e-01 3.609373793005943298e-02 5.110991001129150391e-02
1.610000000000000000e+03 1.799803853034973145e+00 -2.278009033203125000e+01 1.510412711650133133e-02 -4.703118205070495605e-01 -1.365623176097869873e-01 -1.568184047937393188e-01
1.611000000000000000e+03 1.100569248199462891e+00 -2.518726921081542969e+01 8.276528678834438324e-03 -6.750330328941345215e-01 -2.000269442796707153e-01 -7.409996539354324341e-02
1.612000000000000000e+03 1.074572682380676270e+00 -2.037353515625000000e+01 1.451154355891048908e-03 -2.794895768165588379e-01 -8.341152220964431763e-02 -1.151032671332359314e-01
1.613000000000000000e+03 1.791290640830993652e+00 -1.877486228942871094e+01 -7.088843267410993576e-03 -1.525652259588241577e-01 -4.789622128009796143e-02 -1.760675162076950073e-01
1.614000000000000000e+03 1.063634753227233887e+00 -1.314141654968261719e+01 -1.153370458632707596e-02 2.511444687843322754e-01 7.188323140144348145e-02 -3.148624673485755920e-02
1.615000000000000000e+03 1.751487016677856445e+00 -1.155850410461425781e+01 -2.479462884366512299e-02 2.080964595079421997e-01 5.499054864048957825e-02 -7.040655706077814102e-03
1.616000000000000000e+03 1.773530960083007812e+00 8.783555984497070312e+00 5.918720944464439526e-06 9.973740670830011368e-04 3.009878564625978470e-04 -5.492156487889587879e-04
1.617000000000000000e+03 1.047823905944824219e+00 5.751855373382568359e+00 8.395355689572170377e-05 4.617504018824547529e-04 1.637111854506656528e-04 -2.080219564959406853e-04
1.618000000000000000e+03 1.773518919944763184e+00 1.199254035949707031e+01 -3.053863110835663974e-05 1.989335054531693459e-03 5.876388750039041042e-04 -8.588557830080389977e-04
1.619000000000000000e+03 1.767662882804870605e+00 7.203372478485107422e+00 1.009442075883271173e-05 6.538104498758912086e-04 1.991714671021327376e-04 -4.103233513887971640e-04
1.620000000000000000e+03 1.111284017562866211e+00 2.646108627319335938e+00 5.141233123140409589e-05 9.545194188831374049e-05 4.405928120831958950e-05 -7.469816046068444848e-05
1.621000000000000000e+03 1.770637750625610352e+00 7.990604400634765625e+00 1.672906655585393310e-04 8.338476764038205147e-04 3.003415185958147049e-04 -5.075618391856551170e-04
1.622000000000000000e+03 1.918464779853820801e+00 -2.835780334472656250e+01 1.619886048138141632e-02 -7.459012866020202637e-01 -2.189107388257980347e-01 -6.375630199909210205e-02
1.623000000000000000e+03 1.792480230331420898e+00 -2.117569160461425781e+01 7.945044897496700287e-03 -3.478485643863677979e-01 -1.019710525870323181e-01 -1.743180602788925171e-01
1.624000000000000000e+03 1.073465347290039062e+00 -1.635118675231933594e+01 -8.862153626978397369e-03 8.122972398996353149e-02 2.171027101576328278e-02 -8.918929845094680786e-02
1.625000000000000000e+03 1.769642949104309082e+00 -1.314779376983642578e+01 -2.861713618040084839e-02 1.786051988601684570e-01 4.499642178416252136e-02 -5.109669268131256104e-02
1.626000000000000000e+03 2.513447761535644531e+00 -3.778945541381835938e+01 -1.640637638047337532e-03 -7.919396758079528809e-01 -2.380740940570831299e-01 -4.248746205121278763e-03
1.627000000000000000e+03 2.091696977615356445e+00 -3.242100906372070312e+01 9.054161608219146729e-03 -8.070912361145019531e-01 -2.394111156463623047e-01 -1.545846462249755859e-02
1.628000000000000000e+03 2.844303131103515625e+00 -3.075154495239257812e+01 2.334755845367908478e-02 -7.151593565940856934e-01 -2.075435370206832886e-01 -4.573272541165351868e-02
1.629000000000000000e+03 1.950363159179687500e+00 -2.916545867919921875e+01 1.680504903197288513e-02 -7.655107975006103516e-01 -2.246117144823074341e-01 -5.165923759341239929e-02
1.630000000000000000e+03 1.892131209373474121e+00 -2.755690574645996094e+01 1.881290785968303680e-02 -7.225248813629150391e-01 -2.111136019229888916e-01 -7.550703734159469604e-02
1.631000000000000000e+03 1.817392706871032715e+00 -2.437989807128906250e+01 1.948901824653148651e-02 -5.763464570045471191e-01 -1.670572310686111450e-01 -1.311547458171844482e-01
1.632000000000000000e+03 2.516817808151245117e+00 -2.359024810791015625e+01 3.161613643169403076e-02 -4.960898756980895996e-01 -1.393421143293380737e-01 -1.883558928966522217e-01
1.633000000000000000e+03 1.796302676200866699e+00 -2.197476577758789062e+01 1.146580651402473450e-02 -4.103465974330902100e-01 -1.196642369031906128e-01 -1.676044166088104248e-01
1.634000000000000000e+03 1.789539694786071777e+00 -2.038127136230468750e+01 3.451316384598612785e-03 -2.839592397212982178e-01 -8.415237814188003540e-02 -1.788700222969055176e-01
1.635000000000000000e+03 1.787212848663330078e+00 -1.554774761199951172e+01 -2.542478032410144806e-02 7.577605545520782471e-02 1.510538253933191299e-02 -1.198321357369422913e-01
1.636000000000000000e+03 1.778005719184875488e+00 -1.394727802276611328e+01 -2.886178530752658844e-02 1.519567072391510010e-01 3.692847862839698792e-02 -7.499644905328750610e-02
1.637000000000000000e+03 1.762982845306396484e+00 -8.368974685668945312e+00 -1.237621158361434937e-02 1.839799135923385620e-01 5.148110911250114441e-02 5.474212020635604858e-02
1.638000000000000000e+03 1.750156402587890625e+00 -9.172138214111328125e+00 -1.559519581496715546e-02 1.986708790063858032e-01 5.492270365357398987e-02 4.282777011394500732e-02
1.639000000000000000e+03 1.746093630790710449e+00 -1.076584434509277344e+01 -2.184647694230079651e-02 2.114522308111190796e-01 5.688172951340675354e-02 1.185159757733345032e-02
1.640000000000000000e+03 1.775465607643127441e+00 9.583825111389160156e+00 1.965313276741653681e-04 1.228601089678704739e-03 4.275397513993084431e-04 -6.628822302445769310e-04
1.641000000000000000e+03 2.482474803924560547e+00 1.348486804962158203e+01 2.771257422864437103e-04 1.975991064682602882e-03 6.759350653737783432e-04 -1.285128062590956688e-03
1.642000000000000000e+03 1.774663209915161133e+00 1.119059944152832031e+01 2.201694587711244822e-04 1.728189527057111263e-03 5.845077103003859520e-04 -8.284153300337493420e-04
1.643000000000000000e+03 1.777207612991333008e+00 1.440790271759033203e+01 2.110878413077443838e-04 2.975993091240525246e-03 9.561242186464369297e-04 -1.090272911824285984e-03
1.644000000000000000e+03 1.774720668792724609e+00 1.360003280639648438e+01 -7.880013436079025269e-05 2.616577781736850739e-03 7.613333291374146938e-04 -9.869660716503858566e-04
1.645000000000000000e+03 1.784057974815368652e+00 1.682575988769531250e+01 -2.636111166793853045e-04 3.918074537068605423e-03 1.096339081414043903e-03 -9.944104822352528572e-04
1.646000000000000000e+03 1.787654519081115723e+00 1.843143272399902344e+01 -4.042014479637145996e-04 4.414754454046487808e-03 1.203165855258703232e-03 -7.821398903615772724e-04
1.647000000000000000e+03 1.791005253791809082e+00 1.923431587219238281e+01 1.415960559825180098e-05 4.593984223902225494e-03 1.382443122565746307e-03 -6.936787394806742668e-04
1.648000000000000000e+03 1.810466527938842773e+00 2.245003128051757812e+01 -1.609725004527717829e-04 4.152232315391302109e-03 1.197377918288111687e-03 5.076946690678596497e-04
1.649000000000000000e+03 1.800890445709228516e+00 2.084953498840332031e+01 -8.137854456435889006e-05 4.614692181348800659e-03 1.359994057565927505e-03 -1.892251457320526242e-04
1.650000000000000000e+03 2.011409521102905273e+00 -2.686048269271850586e+00 2.022284455597400665e-02 3.720221668481826782e-02 1.722751744091510773e-02 5.452371016144752502e-02
1.651000000000000000e+03 2.107463121414184570e+00 -3.322636413574218750e+01 3.869188483804464340e-03 -8.111897706985473633e-01 -2.421961724758148193e-01 -1.082209404557943344e-02
1.652000000000000000e+03 2.105317592620849609e+00 -3.403585052490234375e+01 4.192919470369815826e-03 -8.149721622467041016e-01 -2.432337701320648193e-01 -7.441054563969373703e-03
1.653000000000000000e+03 2.000123739242553711e+00 -3.656861114501953125e+01 2.202450996264815331e-03 -8.412404060363769531e-01 -2.517113685607910156e-01 -2.734942594543099403e-03
1.654000000000000000e+03 4.166636657714843750e+01 1.227254390716552734e+01 -4.591620340943336487e-02 7.011621724814176559e-03 -1.167137455195188522e-02 1.086579076945781708e-02
1.655000000000000000e+03 4.141128540039062500e+01 1.113823890686035156e+01 -1.040936913341283798e-02 8.558804169297218323e-03 -5.551695358008146286e-04 3.838988195639103651e-04
1.656000000000000000e+03 6.052392959594726562e+01 -9.721677780151367188e+00 -1.743697524070739746e+00 5.165360867977142334e-03 -5.215596556663513184e-01 7.177732586860656738e-01
1.657000000000000000e+03 1.329511642456054688e+01 -2.531359863281250000e+01 3.608559668064117432e-01 2.604641020298004150e-01 1.863960176706314087e-01 -3.041175603866577148e-01
1.658000000000000000e+03 2.074779701232910156e+01 -4.843559741973876953e+00 -3.879557251930236816e-01 8.750919997692108154e-02 -9.013395756483078003e-02 -2.531605362892150879e-01
1.659000000000000000e+03 4.762273025512695312e+01 5.229707717895507812e+00 -1.192801166325807571e-03 3.834178496617823839e-04 -2.428149746265262365e-04 3.800358972512185574e-04
1.660000000000000000e+03 6.392776489257812500e+01 5.750317096710205078e+00 6.819983720779418945e-01 2.606953620910644531e+00 9.866855740547180176e-01 1.404061675071716309e+00
1.661000000000000000e+03 6.938275909423828125e+01 1.570427131652832031e+01 1.433721303939819336e+00 1.522324085235595703e+01 4.997088432312011719e+00 4.094951748847961426e-01
1.662000000000000000e+03 6.299879455566406250e+01 -9.684529304504394531e+00 -1.397706627845764160e+00 4.522686600685119629e-01 -2.836313843727111816e-01 1.621279716491699219e-01
1.663000000000000000e+03 4.788727188110351562e+01 7.619920730590820312e+00 5.117948167026042938e-03 3.236896358430385590e-03 2.506453311070799828e-03 4.705012775957584381e-03
1.664000000000000000e+03 1.828704071044921875e+01 8.000720977783203125e+00 1.220746489707380533e-04 8.827130659483373165e-04 3.014363173861056566e-04 3.416634572204202414e-04
1.665000000000000000e+03 1.740439224243164062e+01 1.553854274749755859e+01 6.461404263973236084e-04 5.088625010102987289e-03 1.720429630950093269e-03 3.041676944121718407e-03
1.666000000000000000e+03 3.023943519592285156e+01 -5.800558567047119141e+00 -2.353895902633666992e+00 -4.291273653507232666e-01 -8.349069952964782715e-01 1.388788316398859024e-02
1.667000000000000000e+03 3.261954116821289062e+01 -6.284126758575439453e+00 -2.277966499328613281e+00 -3.510229289531707764e-01 -7.886968255043029785e-01 -3.154985606670379639e-01
1.668000000000000000e+03 3.691662216186523438e+01 -2.429846000671386719e+01 4.532944411039352417e-03 -1.649801284074783325e-01 -4.813415557146072388e-02 1.380637735128402710e-01
1.669000000000000000e+03 1.134333992004394531e+01 -1.992791175842285156e+01 5.204598605632781982e-02 -2.634645104408264160e-01 -6.342555582523345947e-02 -2.124067395925521851e-01
1.670000000000000000e+03 1.067648029327392578e+01 -1.997995948791503906e+01 7.877810299396514893e-02 -3.081281781196594238e-01 -6.880502402782440186e-02 -3.171246945858001709e-01
1.671000000000000000e+03 3.351428985595703125e+01 1.908640861511230469e+01 -3.198382556438446045e-01 -1.009391248226165771e-01 -1.262332051992416382e-01 1.653058975934982300e-01
1.672000000000000000e+03 3.267957687377929688e+01 2.105182838439941406e+01 -2.884537875652313232e-01 -8.970229327678680420e-02 -1.134468242526054382e-01 1.333282142877578735e-01
1.673000000000000000e+03 4.938446426391601562e+01 -2.909526062011718750e+01 7.276769727468490601e-02 8.287237286567687988e-01 2.704474329948425293e-01 -4.249145984649658203e-01
1.674000000000000000e+03 2.185269927978515625e+01 2.930864572525024414e+00 3.607947655837051570e-05 1.736835292831528932e-05 1.603434975550044328e-05 5.331534339347854257e-05
1.675000000000000000e+03 1.248038578033447266e+01 -2.346154785156250000e+01 3.524210155010223389e-01 2.378118038177490234e-01 1.770698428153991699e-01 -2.886116802692413330e-01
1.676000000000000000e+03 1.905521583557128906e+01 -1.181668090820312500e+01 -4.325951337814331055e-01 1.464343518018722534e-01 -8.584822714328765869e-02 -2.327917665243148804e-01
1.677000000000000000e+03 1.805239105224609375e+01 -1.198622608184814453e+01 -6.522714495658874512e-01 1.141173690557479858e-01 -1.614462286233901978e-01 -1.946461349725723267e-01
1.678000000000000000e+03 4.498059082031250000e+01 -1.883480834960937500e+01 2.387349009513854980e-01 2.497619867324829102e+00 8.209064006805419922e-01 2.937210164964199066e-02
1.679000000000000000e+03 1.829532623291015625e+01 3.951837062835693359e+00 -5.815519398311153054e-05 1.716244005365297198e-04 3.404076051083393395e-05 1.162572661996819079e-04
1.680000000000000000e+03 1.737221145629882812e+01 1.469462013244628906e+01 1.210386515595018864e-03 4.505247808992862701e-03 1.714690239168703556e-03 2.661492675542831421e-03
1.681000000000000000e+03 5.379788589477539062e+01 2.204792785644531250e+01 -1.506201744079589844e+00 -2.508175373077392578e-01 -5.271057486534118652e-01 -2.690313458442687988e-01
1.682000000000000000e+03 6.734630584716796875e+01 9.316781044006347656e+00 8.101275563240051270e-01 8.372180938720703125e+00 2.754692554473876953e+00 2.077609062194824219e+00
1.683000000000000000e+03 1.859668731689453125e+01 2.504514455795288086e+00 -2.640686398081015795e-05 7.445911614922806621e-05 1.441567474103067070e-05 5.253497874946333468e-05
1.684000000000000000e+03 6.660942077636718750e+01 -2.490409469604492188e+01 4.081535935401916504e-01 4.660299777984619141e+00 1.520535945892333984e+00 1.756414175033569336e+00
1.685000000000000000e+03 2.530344581604003906e+01 -3.124853134155273438e+01 4.257099032402038574e-01 5.702636018395423889e-02 1.448208838701248169e-01 -9.930876642465591431e-02
1.686000000000000000e+03 4.870248413085937500e+01 1.249718666076660156e+01 -1.905724639073014259e-03 4.227375146001577377e-03 6.964951171539723873e-04 -3.997209481894969940e-03
1.687000000000000000e+03 5.618649291992187500e+01 -3.135690879821777344e+01 -2.987570166587829590e-01 -1.276550814509391785e-02 -9.345676004886627197e-02 -2.980700135231018066e-01
1.688000000000000000e+03 5.700589370727539062e+01 -3.123841285705566406e+01 -3.521413207054138184e-01 -5.740587413311004639e-02 -1.228641569614410400e-01 -2.193968743085861206e-01
1.689000000000000000e+03 6.204009246826171875e+01 4.128095626831054688e+00 6.269000172615051270e-01 1.391869664192199707e+00 6.056309342384338379e-01 8.717885613441467285e-01
1.690000000000000000e+03 6.267075347900390625e+01 4.655408382415771484e+00 6.245107650756835938e-01 1.712735772132873535e+00 7.011739611625671387e-01 1.022176861763000488e+00
1.691000000000000000e+03 6.578245544433593750e+01 7.455774307250976562e+00 7.145399451255798340e-01 5.086482524871826172e+00 1.740306735038757324e+00 1.978352069854736328e+00
1.692000000000000000e+03 2.968490600585937500e+01 -1.379571723937988281e+01 1.116009354591369629e+00 7.702733576297760010e-02 3.579109907150268555e-01 -3.979332745075225830e-01
1.693000000000000000e+03 3.182625007629394531e+01 -6.364596843719482422e+00 -2.236292839050292969e+00 -3.624024093151092529e-01 -7.796086072921752930e-01 -2.339797616004943848e-01
1.694000000000000000e+03 3.596746444702148438e+01 1.806547546386718750e+01 -2.643752992153167725e-01 -4.485095664858818054e-02 -9.276787936687469482e-02 1.253358721733093262e-01
1.695000000000000000e+03 7.010918140411376953e+00 -3.354593753814697266e+00 8.478205651044845581e-02 -2.719219215214252472e-02 1.727695949375629425e-02 8.903656899929046631e-02
1.696000000000000000e+03 5.327830791473388672e+00 -2.714362621307373047e+00 8.008527010679244995e-02 -7.696209941059350967e-04 2.379469387233257294e-02 8.902396261692047119e-02
1.697000000000000000e+03 3.658183097839355469e+00 -2.720475673675537109e+00 4.856830090284347534e-02 1.866110973060131073e-02 2.016882225871086121e-02 8.150058984756469727e-02
1.698000000000000000e+03 6.215080738067626953e+00 -3.426182031631469727e+00 7.131353020668029785e-02 -1.714861020445823669e-02 1.624947600066661835e-02 9.703049063682556152e-02
1.699000000000000000e+03 1.854282021522521973e+00 -5.927528381347656250e+00 -1.249412307515740395e-03 1.203855052590370178e-01 3.574083000421524048e-02 7.447059452533721924e-02
1.700000000000000000e+03 3.619975328445434570e+00 -3.562897205352783203e+00 3.356043994426727295e-02 2.907831408083438873e-02 1.879162713885307312e-02 9.419135749340057373e-02
1.701000000000000000e+03 1.898997664451599121e+00 -5.109313964843750000e+00 3.476897487416863441e-03 9.707231074571609497e-02 3.016476333141326904e-02 7.514911890029907227e-02
1.702000000000000000e+03 4.493821620941162109e+00 -3.640512704849243164e+00 4.286587983369827271e-02 1.314448472112417221e-02 1.680310815572738647e-02 1.015895605087280273e-01
1.703000000000000000e+03 8.550188064575195312e+00 -3.271925449371337891e+00 1.077372059226036072e-01 -5.009942129254341125e-02 1.729133538901805878e-02 6.450033932924270630e-02
1.704000000000000000e+03 6.811902618408203125e+01 1.120911121368408203e+01 1.585119843482971191e+00 1.183708858489990234e+01 4.026662349700927734e+00 2.321506261825561523e+00
1.705000000000000000e+03 5.246904373168945312e+01 -6.515921354293823242e-01 -4.658630788326263428e-01 -1.981448940932750702e-02 -1.457032710313796997e-01 6.369466185569763184e-01
1.706000000000000000e+03 5.165940475463867188e+01 -1.247256994247436523e+00 -5.478736162185668945e-01 -7.513073831796646118e-02 -1.869013160467147827e-01 7.063707709312438965e-01
1.707000000000000000e+03 5.952937316894531250e+01 2.027335882186889648e+00 7.172685265541076660e-01 5.847413539886474609e-01 3.906029760837554932e-01 5.303437709808349609e-01
1.708000000000000000e+03 4.294825744628906250e+01 9.083564758300781250e+00 3.317096503451466560e-03 -2.857773564755916595e-03 1.377969310851767659e-04 -4.292394965887069702e-03
1.709000000000000000e+03 6.717519378662109375e+01 -2.540826416015625000e+01 5.395931750535964966e-02 5.296363353729248047e+00 1.605096697807312012e+00 1.506494641304016113e+00
1.710000000000000000e+03 5.274623489379882812e+01 -3.125206947326660156e+01 -1.083417013287544250e-01 3.157292008399963379e-01 6.221625581383705139e-02 -4.796963036060333252e-01
1.711000000000000000e+03 3.380360031127929688e+01 -2.868775177001953125e+01 1.084613874554634094e-01 -1.280487980693578720e-02 2.869695238769054413e-02 4.377396404743194580e-02
1.712000000000000000e+03 2.967127037048339844e+01 -1.306922149658203125e+01 7.992574572563171387e-01 7.785877585411071777e-02 2.631348669528961182e-01 -4.357383847236633301e-01
1.713000000000000000e+03 4.268287658691406250e+01 9.922558784484863281e+00 -1.588696497492492199e-03 -2.252995036542415619e-03 -1.152507495135068893e-03 -3.426748560741543770e-03
1.714000000000000000e+03 3.382770538330078125e+01 -2.995096778869628906e+01 1.888923794031143188e-01 2.601521648466587067e-02 6.447228044271469116e-02 6.844841688871383667e-02
1.715000000000000000e+03 2.874762535095214844e+01 -3.332457351684570312e+01 3.233231604099273682e-01 5.994440987706184387e-02 1.149802729487419128e-01 -5.678048357367515564e-02
1.716000000000000000e+03 4.872341918945312500e+01 1.504400253295898438e+01 -6.629327684640884399e-02 -2.964098192751407623e-02 -2.878027781844139099e-02 -6.359186023473739624e-02
1.717000000000000000e+03 6.430207824707031250e+01 -2.722559738159179688e+01 3.182265907526016235e-02 2.164305448532104492e+00 6.588383913040161133e-01 9.497190117835998535e-01
1.718000000000000000e+03 5.130312347412109375e+01 1.970153808593750000e+01 -7.172533869743347168e-01 -1.870371699333190918e-01 -2.712871730327606201e-01 -3.994771242141723633e-01
1.719000000000000000e+03 4.536479187011718750e+01 -1.633053016662597656e+01 3.550392985343933105e-01 2.564409017562866211e+00 8.758344650268554688e-01 4.269037544727325439e-01
1.720000000000000000e+03 4.579037475585937500e+01 -2.361990737915039062e+01 4.418048262596130371e-01 2.184565067291259766e+00 7.879109382629394531e-01 -3.567689359188079834e-01
1.721000000000000000e+03 5.789308547973632812e+01 2.388406562805175781e+01 -1.655282020568847656e+00 -4.781063646078109741e-02 -5.109277963638305664e-01 -3.737559169530868530e-02
1.722000000000000000e+03 5.812933731079101562e+01 -7.346220970153808594e+00 -1.067361354827880859e+00 -1.063932925462722778e-01 -3.521263897418975830e-01 6.982430219650268555e-01
1.723000000000000000e+03 1.800919151306152344e+01 -1.100445270538330078e+01 -5.747854709625244141e-01 2.045379579067230225e-02 -1.662995070219039917e-01 -3.787420094013214111e-01
1.724000000000000000e+03 1.743118095397949219e+01 -2.959916496276855469e+01 4.508570134639739990e-01 3.036957085132598877e-01 2.263658195734024048e-01 -2.705291807651519775e-01
1.725000000000000000e+03 6.873028564453125000e+01 -2.164706611633300781e+01 1.769620776176452637e+00 1.010705661773681641e+01 3.563003063201904297e+00 1.022564411163330078e+00
1.726000000000000000e+03 4.512757492065429688e+01 -1.798166847229003906e+01 2.401940226554870605e-01 2.522660017013549805e+00 8.288562297821044922e-01 1.717955023050308228e-01
1.727000000000000000e+03 5.865953445434570312e+01 -3.032113075256347656e+01 -6.556298732757568359e-01 -6.780261546373367310e-02 -2.170297503471374512e-01 -8.945166319608688354e-02
1.728000000000000000e+03 1.746007537841796875e+01 1.215098953247070312e+01 5.346944817574694753e-05 2.845280105248093605e-03 8.696248987689614296e-04 1.395189668983221054e-03
1.729000000000000000e+03 1.768483161926269531e+01 1.047011852264404297e+01 -1.233030779985710979e-04 1.926159835420548916e-03 5.408570286817848682e-04 8.000321686267852783e-04
1.730000000000000000e+03 6.426995086669921875e+01 -1.079076671600341797e+01 -1.697826862335205078e+00 5.386735200881958008e-01 -3.477460145950317383e-01 -2.305893003940582275e-01
1.731000000000000000e+03 4.405160522460937500e+01 7.120446205139160156e+00 2.401483943685889244e-03 -3.091170219704508781e-03 -2.069058973575010896e-04 -2.805841853842139244e-03
1.732000000000000000e+03 1.052312564849853516e+01 -1.737312126159667969e+01 -2.184241861104965210e-01 -6.207764148712158203e-01 -2.517601847648620605e-01 -4.155394434928894043e-01
1.733000000000000000e+03 1.054785442352294922e+01 -1.824433135986328125e+01 -8.925327658653259277e-02 -5.410566926002502441e-01 -1.890929937362670898e-01 -3.656527400016784668e-01
1.734000000000000000e+03 1.740147399902343750e+01 1.299704074859619141e+01 7.587331347167491913e-04 3.363267751410603523e-03 1.236600219272077084e-03 1.814198913052678108e-03
1.735000000000000000e+03 2.437869644165039062e+01 -3.216991806030273438e+01 3.948022127151489258e-01 1.036190465092658997e-01 1.495263725519180298e-01 -1.386300474405288696e-01
1.736000000000000000e+03 6.545992279052734375e+01 -2.610295104980468750e+01 2.347757518291473389e-01 3.172786712646484375e+00 1.022268772125244141e+00 1.335961222648620605e+00
1.737000000000000000e+03 2.702174377441406250e+01 -3.215280532836914062e+01 3.558352887630462646e-01 4.660440608859062195e-02 1.207319125533103943e-01 -7.206498086452484131e-02
1.738000000000000000e+03 1.746893310546875000e+01 1.638316345214843750e+01 1.957228174433112144e-03 5.435237195342779160e-03 2.217739587649703026e-03 3.502744715660810471e-03
1.739000000000000000e+03 5.440137481689453125e+01 2.327556800842285156e+01 -1.352825999259948730e+00 -1.173488423228263855e-01 -4.410524666309356689e-01 -2.360946871340274811e-02
1.740000000000000000e+03 2.077323913574218750e+01 -3.135113334655761719e+01 4.345256984233856201e-01 2.022130340337753296e-01 1.910216212272644043e-01 -2.360893189907073975e-01
1.741000000000000000e+03 4.728357696533203125e+01 8.357508659362792969e+00 6.229271180927753448e-03 -7.599830278195440769e-04 1.640786416828632355e-03 6.181252188980579376e-03
1.742000000000000000e+03 4.068857955932617188e+01 1.368348598480224609e+01 -9.726359695196151733e-02 1.470438949763774872e-02 -2.476776391267776489e-02 2.900517359375953674e-02
1.743000000000000000e+03 5.592432785034179688e+01 -2.668042480945587158e-01 4.765887856483459473e-01 2.910482585430145264e-01 2.302911132574081421e-01 4.800760149955749512e-01
1.744000000000000000e+03 4.959214401245117188e+01 1.744528961181640625e+01 -2.400668561458587646e-01 -7.395870238542556763e-02 -9.420766681432723999e-02 -1.779558509588241577e-01
1.745000000000000000e+03 5.669462966918945312e+01 1.142984032630920410e-01 6.288961172103881836e-01 3.268317282199859619e-01 2.867183387279510498e-01 4.383963644504547119e-01
1.746000000000000000e+03 4.637897109985351562e+01 -2.629982948303222656e+01 1.665425151586532593e-01 1.583093762397766113e+00 5.248908996582031250e-01 -3.173002302646636963e-01
1.747000000000000000e+03 4.640328979492187500e+01 -2.332352638244628906e+01 5.080375671386718750e-01 2.499815940856933594e+00 9.023560285568237305e-01 -6.339525580406188965e-01
1.748000000000000000e+03 4.548595809936523438e+01 -1.549902534484863281e+01 4.478466510772705078e-01 2.553791999816894531e+00 9.004915952682495117e-01 5.439506769180297852e-01
1.749000000000000000e+03 1.196103954315185547e+01 -2.260932731628417969e+01 3.242615461349487305e-01 1.358571648597717285e-01 1.380356103181838989e-01 -2.740463912487030029e-01
1.750000000000000000e+03 1.222438430786132812e+01 -2.538067817687988281e+01 3.373742103576660156e-01 1.165881827473640442e-01 1.361887156963348389e-01 -2.475044876337051392e-01
1.751000000000000000e+03 4.486956405639648438e+01 -1.185012817382812500e+01 6.808939576148986816e-01 1.577612638473510742e+00 6.775519847869873047e-01 5.108283162117004395e-01
1.752000000000000000e+03 4.575843811035156250e+01 -1.376767635345458984e+01 6.650003790855407715e-01 2.427634477615356445e+00 9.277904629707336426e-01 7.650338411331176758e-01
1.753000000000000000e+03 6.798233795166015625e+01 -1.287652873992919922e+01 -9.654507040977478027e-01 6.445924758911132812e+00 1.644142270088195801e+00 -7.643306851387023926e-01
1.754000000000000000e+03 6.682475280761718750e+01 -1.176740074157714844e+01 -1.469610691070556641e+00 4.266802310943603516e+00 8.391575217247009277e-01 -1.061059832572937012e+00
1.755000000000000000e+03 4.845459365844726562e+01 1.422772312164306641e+01 -5.444806441664695740e-02 -1.949770189821720123e-02 -2.218372933566570282e-02 -4.190710186958312988e-02
1.756000000000000000e+03 4.819608688354492188e+01 1.339522743225097656e+01 -2.552174963057041168e-02 -1.192540023475885391e-02 -1.123414468020200729e-02 -2.381546609103679657e-02
1.757000000000000000e+03 1.851531791687011719e+01 -3.159923553466796875e+01 3.383476138114929199e-01 2.652168273925781250e-01 1.810693442821502686e-01 -2.111616879701614380e-01
1.758000000000000000e+03 5.780098342895507812e+01 1.545570373535156250e+00 7.822221517562866211e-01 3.778167665004730225e-01 3.480116724967956543e-01 4.730539023876190186e-01
1.759000000000000000e+03 4.546958541870117188e+01 5.356868267059326172e+00 2.975157229229807854e-03 -3.207217669114470482e-04 7.963306270539760590e-04 3.496602876111865044e-04
1.760000000000000000e+03 5.535020446777343750e+01 -3.166125106811523438e+01 -1.680927872657775879e-01 6.829895824193954468e-02 -2.993815019726753235e-02 -3.582411110401153564e-01
1.761000000000000000e+03 4.711967849731445312e+01 -2.654523468017578125e+01 1.920590996742248535e-01 1.474152922630310059e+00 4.998636245727539062e-01 -4.386378824710845947e-01
1.762000000000000000e+03 5.886245346069335938e+01 1.511424660682678223e+00 7.437823414802551270e-01 4.683558344841003418e-01 3.636414408683776855e-01 4.872131347656250000e-01
1.763000000000000000e+03 3.342943572998046875e+01 -6.178446292877197266e+00 -2.263813257217407227e+00 -3.440405428409576416e-01 -7.823561429977416992e-01 -3.813049197196960449e-01
1.764000000000000000e+03 5.965821456909179688e+01 -3.022205162048339844e+01 -5.399141311645507812e-01 1.601187288761138916e-01 -1.139386221766471863e-01 1.032152697443962097e-01
1.765000000000000000e+03 6.298083877563476562e+01 -3.046852493286132812e+01 -1.392518728971481323e-01 1.712547540664672852e+00 4.719887077808380127e-01 7.576619386672973633e-01
1.766000000000000000e+03 5.017629623413085938e+01 1.904579544067382812e+01 -5.108388066291809082e-01 -7.094147801399230957e-02 -1.745340824127197266e-01 -2.819101810455322266e-01
1.767000000000000000e+03 1.254963016510009766e+01 -1.207929801940917969e+01 -6.765764355659484863e-01 -5.996522903442382812e-01 -3.828686177730560303e-01 -3.477462828159332275e-01
1.768000000000000000e+03 3.157702636718750000e+01 -3.035717201232910156e+01 2.116983234882354736e-01 1.392156817018985748e-02 6.768596917390823364e-02 2.839760482311248779e-02
1.769000000000000000e+03 4.337777709960937500e+01 1.113831710815429688e+01 -2.350013516843318939e-02 -7.663046941161155701e-03 -9.348955005407333374e-03 1.081601600162684917e-03
1.770000000000000000e+03 4.287242507934570312e+01 8.400888442993164062e+00 6.948726717382669449e-03 1.385570853017270565e-03 2.500289352610707283e-03 -7.549136877059936523e-03
1.771000000000000000e+03 2.531412315368652344e+01 -4.771070003509521484e+00 -8.145800828933715820e-01 2.107365727424621582e-01 -1.811530441045761108e-01 -6.105052772909402847e-03
1.772000000000000000e+03 2.380332183837890625e+01 -5.792079448699951172e+00 -6.941857933998107910e-01 2.388867735862731934e-01 -1.365896910429000854e-01 -2.142674922943115234e-01
1.773000000000000000e+03 3.207482147216796875e+01 -3.120640373229980469e+01 2.476633936166763306e-01 2.747779339551925659e-02 8.254235982894897461e-02 2.764810621738433838e-02
1.774000000000000000e+03 5.983097076416015625e+01 -3.145467758178710938e+01 -1.063034385442733765e-01 4.420705735683441162e-01 1.007301360368728638e-01 2.601285576820373535e-01
1.775000000000000000e+03 4.754736328125000000e+01 1.079427051544189453e+01 -6.221545860171318054e-03 -3.097131615504622459e-03 -2.795603359118103981e-03 2.733462955802679062e-03
1.776000000000000000e+03 1.825405693054199219e+01 -4.648662567138671875e+00 -2.235044091939926147e-01 1.835792325437068939e-02 -6.154394522309303284e-02 -2.805794179439544678e-01
1.777000000000000000e+03 5.467894363403320312e+01 -7.953839778900146484e+00 -1.611270666122436523e+00 -6.459479928016662598e-01 -6.771655678749084473e-01 9.222967624664306641e-01
1.778000000000000000e+03 5.698012161254882812e+01 -8.413914680480957031e+00 -1.655388593673706055e+00 -3.785277903079986572e-01 -6.101748943328857422e-01 8.530550599098205566e-01
1.779000000000000000e+03 6.417712402343750000e+01 2.340087318420410156e+01 -5.173146128654479980e-01 1.436651349067687988e+00 2.758010029792785645e-01 -1.503952980041503906e+00
1.780000000000000000e+03 1.059302616119384766e+01 -1.910874557495117188e+01 -5.096103530377149582e-03 -4.299764335155487061e-01 -1.305217593908309937e-01 -3.327324986457824707e-01
1.781000000000000000e+03 5.631533432006835938e+01 -8.128305435180664062e+00 -1.598919868469238281e+00 -4.947555661201477051e-01 -6.281026601791381836e-01 8.425890207290649414e-01
1.782000000000000000e+03 5.436982727050781250e+01 -8.893980979919433594e-01 5.538118630647659302e-02 2.066460102796554565e-01 7.860816270112991333e-02 6.409833431243896484e-01
1.783000000000000000e+03 6.756579589843750000e+01 8.418379783630371094e+00 3.779692053794860840e-01 7.840088844299316406e+00 2.465417385101318359e+00 1.556691288948059082e+00
1.784000000000000000e+03 5.361329269409179688e+01 -1.162636995315551758e+00 -1.492165625095367432e-01 1.312692165374755859e-01 -5.384202115237712860e-03 7.509695291519165039e-01
1.785000000000000000e+03 1.805424880981445312e+01 8.812121391296386719e+00 -1.837442832766100764e-04 1.183675718493759632e-03 2.999794087372720242e-04 4.298702406231313944e-04
1.786000000000000000e+03 3.910744857788085938e+01 -4.571940898895263672e+00 -1.978713393211364746e+00 -6.448541283607482910e-01 -7.870702147483825684e-01 -7.013890743255615234e-01
1.787000000000000000e+03 3.006777572631835938e+01 -3.196495246887207031e+01 2.935104966163635254e-01 3.069056198000907898e-02 9.726031869649887085e-02 -1.387743372470140457e-02
1.788000000000000000e+03 1.185753536224365234e+01 -1.358660507202148438e+01 -6.907439231872558594e-01 -7.298933267593383789e-01 -4.261911809444427490e-01 -4.360531270503997803e-01
1.789000000000000000e+03 4.900350952148437500e+01 -9.623198509216308594e+00 9.960554242134094238e-01 1.878080964088439941e+00 8.622409105300903320e-01 1.230808854103088379e+00
1.790000000000000000e+03 6.858297729492187500e+01 -1.570963954925537109e+01 1.062186241149902344e+00 1.006851196289062500e+01 3.339209556579589844e+00 -7.606157064437866211e-01
1.791000000000000000e+03 5.372837066650390625e+01 -3.171009063720703125e+01 -8.477126061916351318e-02 2.152673155069351196e-01 3.914881497621536255e-02 -4.619745314121246338e-01
1.792000000000000000e+03 2.858612060546875000e+01 -3.208826065063476562e+01 3.205468952655792236e-01 3.553122654557228088e-02 1.068234443664550781e-01 -3.506538644433021545e-02
1.793000000000000000e+03 5.744025802612304688e+01 5.442782640457153320e-01 7.125624418258666992e-01 3.495977818965911865e-01 3.186480700969696045e-01 4.344418942928314209e-01
1.794000000000000000e+03 6.880757904052734375e+01 -1.456866931915283203e+01 2.667870521545410156e-01 8.599887847900390625e+00 2.660002470016479492e+00 -3.228224813938140869e-01
1.795000000000000000e+03 1.613406562805175781e+01 -2.835567092895507812e+01 4.564275443553924561e-01 2.956974804401397705e-01 2.256375104188919067e-01 -3.052642643451690674e-01
1.796000000000000000e+03 1.674771118164062500e+01 -2.899156379699707031e+01 4.598428606986999512e-01 3.001336753368377686e-01 2.279929667711257935e-01 -2.834110856056213379e-01
1.797000000000000000e+03 1.833257675170898438e+01 1.793999481201171875e+01 1.774185802787542343e-03 1.082041393965482712e-02 3.778379876166582108e-03 3.960920963436365128e-03
1.798000000000000000e+03 1.674900817871093750e+01 1.471198844909667969e+01 7.379586459137499332e-04 2.640389837324619293e-03 1.013504574075341225e-03 2.738012000918388367e-03
1.799000000000000000e+03 1.474006175994873047e+01 -1.116605281829833984e+01 -7.371230125427246094e-01 -5.181640386581420898e-01 -3.765861093997955322e-01 -4.181234538555145264e-01
1.800000000000000000e+03 6.842188262939453125e+01 2.079932594299316406e+01 9.486820101737976074e-01 1.166887950897216797e+01 3.785268545150756836e+00 -1.398734211921691895e+00
1.801000000000000000e+03 6.387517929077148438e+01 -2.891728782653808594e+01 -1.899397969245910645e-01 2.150590181350708008e+00 5.881951451301574707e-01 8.600077629089355469e-01
1.802000000000000000e+03 4.086645889282226562e+01 -4.562738895416259766e+00 -1.603853940963745117e+00 -1.855273693799972534e-01 -5.368143916130065918e-01 -3.854021131992340088e-01
1.803000000000000000e+03 4.441913223266601562e+01 -1.596325278282165527e+00 -1.134532570838928223e+00 3.418888747692108154e-01 -2.377931177616119385e-01 -3.892752826213836670e-01
1.804000000000000000e+03 5.786345291137695312e+01 -3.125128555297851562e+01 -2.783803641796112061e-01 -3.342979773879051208e-02 -9.354305267333984375e-02 -1.293261647224426270e-01
1.805000000000000000e+03 3.612599563598632812e+01 -2.693854331970214844e+01 9.613837301731109619e-02 -5.211289599537849426e-02 1.320764422416687012e-02 1.300567537546157837e-01
1.806000000000000000e+03 2.346595001220703125e+01 -3.203016662597656250e+01 4.099209904670715332e-01 1.237737610936164856e-01 1.601084321737289429e-01 -1.655078232288360596e-01
1.807000000000000000e+03 2.611029052734375000e+01 -1.384167671203613281e+01 7.861142754554748535e-01 6.341453641653060913e-02 2.548586428165435791e-01 -3.430582582950592041e-01
1.808000000000000000e+03 6.989939880371093750e+01 1.250768756866455078e+01 1.343013525009155273e+00 1.198688697814941406e+01 3.998970031738281250e+00 4.329319596290588379e-01
1.809000000000000000e+03 6.483441925048828125e+01 -1.166033744812011719e+01 -2.054212808609008789e+00 5.350306630134582520e-01 -4.557546675205230713e-01 -2.762750089168548584e-01
1.810000000000000000e+03 1.901315498352050781e+01 -3.063818931579589844e+01 4.363603889942169189e-01 2.691679894924163818e-01 2.116585075855255127e-01 -2.559705674648284912e-01
1.811000000000000000e+03 3.831575775146484375e+01 -4.905333995819091797e+00 -2.022388219833374023e+00 -5.897068381309509277e-01 -7.836284637451171875e-01 -7.561209201812744141e-01
1.812000000000000000e+03 3.461708450317382812e+01 -3.054936599731445312e+01 2.131839245557785034e-01 6.472152471542358398e-02 8.337163925170898438e-02 9.483682364225387573e-02
1.813000000000000000e+03 1.794402885437011719e+01 1.851776838302612305e+00 1.364613035548245534e-05 4.648809772334061563e-05 1.804026760510168970e-05 6.347108865156769753e-05
1.814000000000000000e+03 3.811653137207031250e+01 -1.967176628112792969e+01 2.118150591850280762e-01 1.031337380409240723e-01 9.448464214801788330e-02 -1.155722141265869141e-01
1.815000000000000000e+03 1.336252117156982422e+01 -1.196776866912841797e+01 -7.741860151290893555e-01 -6.104283928871154785e-01 -4.153843224048614502e-01 -3.985886573791503906e-01
1.816000000000000000e+03 1.154288768768310547e+01 -1.255467319488525391e+01 -5.990834832191467285e-01 -5.557834506034851074e-01 -3.464600741863250732e-01 -2.808746397495269775e-01
1.817000000000000000e+03 4.649394989013671875e+01 1.269405746459960938e+01 -4.593857377767562866e-02 -1.289764512330293655e-02 -1.765086501836776733e-02 -1.678880676627159119e-02
1.818000000000000000e+03 4.742248153686523438e+01 9.934923171997070312e+00 4.990785848349332809e-03 -1.811951282434165478e-03 9.536503348499536514e-04 5.718903150409460068e-03
1.819000000000000000e+03 1.022874736785888672e+01 -2.273825645446777344e+01 2.892831861972808838e-01 -1.769071072340011597e-01 3.371282294392585754e-02 -3.128672540187835693e-01
1.820000000000000000e+03 6.840759277343750000e+01 -1.375537776947021484e+01 -3.337592482566833496e-01 7.661994934082031250e+00 2.198470592498779297e+00 -5.762846469879150391e-01
1.821000000000000000e+03 6.882901763916015625e+01 -1.270624542236328125e+01 -1.056915640830993652e+00 7.280873775482177734e+00 1.867187500000000000e+00 -2.462110817432403564e-01
1.822000000000000000e+03 1.052426052093505859e+01 3.004232406616210938e+00 4.962371313013136387e-04 -1.664911978878080845e-04 9.892377420328557491e-05 6.477852730313315988e-05
1.823000000000000000e+03 1.232107257843017578e+01 -1.283908557891845703e+01 -7.058124542236328125e-01 -6.770861744880676270e-01 -4.148695766925811768e-01 -4.031915366649627686e-01
1.824000000000000000e+03 1.124061107635498047e+01 -1.642380905151367188e+01 -3.520747423171997070e-01 -8.639283776283264160e-01 -3.648009300231933594e-01 -4.326319098472595215e-01
1.825000000000000000e+03 4.141696166992187500e+01 -3.516134262084960938e+00 -1.704992532730102539e+00 -1.236713081598281860e-01 -5.485991835594177246e-01 -5.196610093116760254e-01
1.826000000000000000e+03 4.437193298339843750e+01 -2.061149406433105469e+01 3.641651868820190430e-01 2.114452838897705078e+00 7.435854077339172363e-01 -9.593866765499114990e-02
1.827000000000000000e+03 4.491833496093750000e+01 -2.122841644287109375e+01 3.579945862293243408e-01 2.317268848419189453e+00 8.025790452957153320e-01 -1.735465824604034424e-01
1.828000000000000000e+03 3.607915878295898438e+01 -1.800708580017089844e+01 3.732649981975555420e-01 -3.715724349021911621e-01 5.077699315734207630e-04 -2.849639356136322021e-01
1.829000000000000000e+03 3.651338577270507812e+01 -1.719152069091796875e+01 7.694291472434997559e-01 -3.354759812355041504e-01 1.301859468221664429e-01 -3.210968673229217529e-01
1.830000000000000000e+03 3.543093490600585938e+01 -1.517058467864990234e+01 1.181778907775878906e+00 -2.426889985799789429e-01 2.817269563674926758e-01 -1.588364988565444946e-01
1.831000000000000000e+03 1.136794853210449219e+01 -1.432295036315917969e+01 -6.106592416763305664e-01 -7.401829361915588379e-01 -4.052526652812957764e-01 -4.304521381855010986e-01
1.832000000000000000e+03 6.916853332519531250e+01 1.328542232513427734e+01 1.560097336769104004e+00 1.367248535156250000e+01 4.569775104522705078e+00 1.148720502853393555e+00
1.833000000000000000e+03 6.923713684082031250e+01 1.408391666412353516e+01 1.726341724395751953e+00 1.439595890045166016e+01 4.836689949035644531e+00 9.261846542358398438e-01
1.834000000000000000e+03 3.702856826782226562e+01 -2.347374343872070312e+01 -1.262019947171211243e-02 -1.994336843490600586e-01 -6.361616402864456177e-02 1.130964010953903198e-01
1.835000000000000000e+03 6.155988311767578125e+01 2.390042304992675781e+01 -1.293266534805297852e+00 1.736332625150680542e-01 -3.358899950981140137e-01 -5.511810183525085449e-01
1.836000000000000000e+03 4.621557235717773438e+01 -2.714809989929199219e+01 8.185593783855438232e-02 1.408150911331176758e+00 4.470020532608032227e-01 -2.451277524232864380e-01
1.837000000000000000e+03 5.457794189453125000e+01 -7.070313453674316406e+00 -9.652203321456909180e-01 -5.526744723320007324e-01 -4.553684294223785400e-01 1.021520733833312988e+00
1.838000000000000000e+03 4.592271041870117188e+01 -1.281078433990478516e+01 7.761656045913696289e-01 2.265106678009033203e+00 9.123817086219787598e-01 8.115276098251342773e-01
1.839000000000000000e+03 5.878111648559570312e+01 -3.134743881225585938e+01 -2.096375077962875366e-01 1.310670077800750732e-01 -2.357114851474761963e-02 2.402648888528347015e-02
1.840000000000000000e+03 6.962783813476562500e+01 -1.678547668457031250e+01 1.112626910209655762e+00 9.976768493652343750e+00 3.326818466186523438e+00 4.017708078026771545e-02
1.841000000000000000e+03 6.995101165771484375e+01 -1.601896476745605469e+01 1.012274265289306641e+00 9.314847946166992188e+00 3.098136663436889648e+00 2.567989528179168701e-01
1.842000000000000000e+03 3.564424514770507812e+01 -2.775460052490234375e+01 1.185066998004913330e-01 -1.832438074052333832e-02 3.005469590425491333e-02 1.138122305274009705e-01
1.843000000000000000e+03 2.101658630371093750e+01 9.289569854736328125e-01 3.981994086643680930e-05 1.773356780176982284e-05 1.726605296425987035e-05 -1.674909435678273439e-05
1.844000000000000000e+03 2.191451072692871094e+01 2.189785957336425781e+00 2.276356644870247692e-05 3.343968273838981986e-05 1.686097493802662939e-05 1.012171014735940844e-05
1.845000000000000000e+03 2.004372787475585938e+01 3.181564331054687500e+00 1.061508664861321449e-04 6.491424574051052332e-05 5.131953366799280047e-05 8.136523319990374148e-06
1.846000000000000000e+03 2.953265953063964844e+01 -5.830422401428222656e+00 -2.060535430908203125e+00 -3.214160501956939697e-01 -7.145854234695434570e-01 -1.151183769106864929e-01
1.847000000000000000e+03 3.107029914855957031e+01 -1.262653160095214844e+01 6.106728315353393555e-01 3.545143827795982361e-02 1.938372701406478882e-01 -3.712370693683624268e-01
1.848000000000000000e+03 1.829586863517761230e+00 3.369946479797363281e+00 9.567964298184961081e-05 1.631263730814680457e-04 7.764180190861225128e-05 -1.679023844189941883e-04
1.849000000000000000e+03 1.084621191024780273e+00 3.419653177261352539e+00 -7.190907581389183179e-06 1.473117445129901171e-04 4.203624848742038012e-05 -9.554335701977834105e-05
1.850000000000000000e+03 2.375427055358886719e+01 2.239864730834960938e+01 -1.896697729825973511e-01 -2.930815890431404114e-02 -6.569337844848632812e-02 5.218219384551048279e-02
1.851000000000000000e+03 1.796381187438964844e+01 1.950628852844238281e+01 -1.217987574636936188e-02 4.973926581442356110e-03 -2.161784796044230461e-03 -2.814958337694406509e-03
1.852000000000000000e+03 1.787373924255371094e+01 1.879700088500976562e+01 -4.202991724014282227e-03 3.624265780672430992e-03 -1.736177509883418679e-04 -1.027059392072260380e-03
1.853000000000000000e+03 1.584828662872314453e+01 2.877247810363769531e+00 1.360302849207073450e-04 3.466853013378567994e-05 5.120964488014578819e-05 2.166033373214304447e-04
1.854000000000000000e+03 1.723205375671386719e+01 1.935187935829162598e+00 1.333599793724715710e-04 7.887288666097447276e-05 6.366986053762957454e-05 1.170145624200813472e-04
1.855000000000000000e+03 1.079681396484375000e+01 -2.086707687377929688e+01 1.599523872137069702e-01 -2.019261419773101807e-01 -1.259212568402290344e-02 -3.171885907649993896e-01
1.856000000000000000e+03 1.094884014129638672e+01 -2.178656387329101562e+01 2.554461061954498291e-01 -1.105977520346641541e-01 4.345450177788734436e-02 -3.075262010097503662e-01
1.857000000000000000e+03 6.783948516845703125e+01 9.818081855773925781e+00 9.914157986640930176e-01 9.350449562072753906e+00 3.102559566497802734e+00 1.937851905822753906e+00
1.858000000000000000e+03 6.842778015136718750e+01 1.030537128448486328e+01 8.426333665847778320e-01 1.045015430450439453e+01 3.387836217880249023e+00 1.417907834053039551e+00
1.859000000000000000e+03 6.064551162719726562e+01 2.396109771728515625e+01 -1.458908438682556152e+00 -1.029589325189590454e-01 -4.685602188110351562e-01 -2.947776019573211670e-01
1.860000000000000000e+03 1.047413063049316406e+01 -1.646528625488281250e+01 -3.594488501548767090e-01 -6.315005421638488770e-01 -2.972848117351531982e-01 -4.303953647613525391e-01
1.861000000000000000e+03 3.649200057983398438e+01 -2.606456375122070312e+01 7.082749903202056885e-02 -8.705638349056243896e-02 -4.868664313107728958e-03 1.439783573150634766e-01
1.862000000000000000e+03 3.674220657348632812e+01 -2.517135238647460938e+01 3.448146581649780273e-02 -1.222487911581993103e-01 -2.633019722998142242e-02 1.486735790967941284e-01
1.863000000000000000e+03 5.161047744750976562e+01 -7.674870967864990234e+00 -4.839219748973846436e-01 8.705891966819763184e-01 1.160001605749130249e-01 1.120095491409301758e+00
1.864000000000000000e+03 4.862868499755859375e+01 -1.806737065315246582e+00 -9.205601811408996582e-01 3.751235008239746094e-01 -1.636310070753097534e-01 2.934337258338928223e-01
1.865000000000000000e+03 6.891390228271484375e+01 1.980893325805664062e+01 2.733970880508422852e+00 1.385576915740966797e+01 4.976922035217285156e+00 -7.872310876846313477e-01
1.866000000000000000e+03 6.591989135742187500e+01 -1.139493942260742188e+01 -1.569728374481201172e+00 2.501711606979370117e+00 2.795949578285217285e-01 -1.020878672599792480e+00
1.867000000000000000e+03 4.630029296875000000e+01 -1.188810348510742188e+01 8.378401994705200195e-01 2.190294981002807617e+00 9.084405899047851562e-01 8.398237824440002441e-01
1.868000000000000000e+03 1.757690048217773438e+01 1.721535873413085938e+01 1.315119327045977116e-03 5.301589146256446838e-03 1.985012553632259369e-03 3.108113305643200874e-03
1.869000000000000000e+03 2.806409454345703125e+01 -5.390119075775146484e+00 -1.483477234840393066e+00 2.112357504665851593e-02 -4.387060999870300293e-01 1.901019550859928131e-02
1.870000000000000000e+03 1.980502009391784668e+00 -3.486652851104736328e+00 1.419699937105178833e-02 5.518442019820213318e-02 2.081442624330520630e-02 6.527235358953475952e-02
1.871000000000000000e+03 2.188464736938476562e+01 2.353796005249023438e+01 -1.174370795488357544e-01 -2.569103799760341644e-02 -4.293843358755111694e-02 6.453883647918701172e-02
1.872000000000000000e+03 6.939647674560546875e+01 -1.927845001220703125e+01 1.321556806564331055e+00 1.113315677642822266e+01 3.736413955688476562e+00 1.042745590209960938e+00
1.873000000000000000e+03 2.157060432434082031e+01 -4.865027427673339844e+00 -4.504254162311553955e-01 1.157380491495132446e-01 -1.004062145948410034e-01 -2.184667587280273438e-01
1.874000000000000000e+03 5.135525894165039062e+01 -3.186409950256347656e+01 -1.158038899302482605e-02 5.127221345901489258e-01 1.503425240516662598e-01 -4.988860189914703369e-01
1.875000000000000000e+03 3.385198974609375000e+01 -1.419006919860839844e+01 1.128100275993347168e+00 -3.786391811445355415e-03 3.372941613197326660e-01 -1.047793924808502197e-01
1.876000000000000000e+03 6.660606384277343750e+01 2.252918243408203125e+01 -1.302943229675292969e-01 6.142357349395751953e+00 1.803618907928466797e+00 -3.086626052856445312e+00
1.877000000000000000e+03 1.640128135681152344e+01 -9.684479713439941406e+00 -4.851766526699066162e-01 -2.854352593421936035e-01 -2.311835736036300659e-01 -4.581195712089538574e-01
1.878000000000000000e+03 5.405944442749023438e+01 -6.686509132385253906e+00 -7.366550564765930176e-01 -4.249796271324157715e-01 -3.484904170036315918e-01 1.129301786422729492e+00
1.879000000000000000e+03 5.411962127685546875e+01 -4.885564327239990234e+00 -3.582152426242828369e-01 -1.645995229482650757e-01 -1.568444371223449707e-01 1.139212727546691895e+00
1.880000000000000000e+03 2.705297088623046875e+01 2.268992042541503906e+01 -2.201423645019531250e-01 -6.251983344554901123e-02 -8.479865640401840210e-02 1.139251142740249634e-01
1.881000000000000000e+03 2.623445892333984375e+01 2.290505409240722656e+01 -2.048358470201492310e-01 -5.637162178754806519e-02 -7.836224138736724854e-02 1.050020828843116760e-01
1.882000000000000000e+03 6.818523406982421875e+01 -2.299789047241210938e+01 5.378955602645874023e-01 8.313956260681152344e+00 2.655555486679077148e+00 1.533100605010986328e+00
1.883000000000000000e+03 6.864193725585937500e+01 -2.234294128417968750e+01 1.035559773445129395e+00 9.123033523559570312e+00 3.047578096389770508e+00 1.188300848007202148e+00
1.884000000000000000e+03 3.740913772583007812e+01 -1.934008789062500000e+01 1.544179320335388184e-01 -1.357902437448501587e-01 5.588308442384004593e-03 -1.515108048915863037e-01
1.885000000000000000e+03 3.681719207763671875e+01 -1.783316040039062500e+01 5.452158451080322266e-01 -2.130701094865798950e-01 9.964371472597122192e-02 -3.447127044200897217e-01
1.886000000000000000e+03 2.861528205871582031e+01 2.248402404785156250e+01 -2.439832985401153564e-01 -7.708463072776794434e-02 -9.632038325071334839e-02 1.316582411527633667e-01
1.887000000000000000e+03 2.097636222839355469e+01 2.360297966003417969e+01 -1.043011844158172607e-01 -1.547297649085521698e-02 -3.593224659562110901e-02 5.844603106379508972e-02
1.888000000000000000e+03 5.061325454711914062e+01 2.077488517761230469e+01 -8.719351887702941895e-01 5.352128297090530396e-02 -2.455241829156875610e-01 -1.465970128774642944e-01
1.889000000000000000e+03 6.873240661621093750e+01 2.162680816650390625e+01 -1.506834775209426880e-01 1.103361511230468750e+01 3.264879703521728516e+00 -1.201833009719848633e+00
1.890000000000000000e+03 5.042990493774414062e+01 1.988522529602050781e+01 -7.315474748611450195e-01 -5.889817839488387108e-04 -2.196409404277801514e-01 -2.539064288139343262e-01
1.891000000000000000e+03 1.758408546447753906e+01 2.176794242858886719e+01 -4.686632752418518066e-02 6.125037092715501785e-03 -1.222238689661026001e-02 7.839446887373924255e-03
1.892000000000000000e+03 1.941842269897460938e+01 2.190226364135742188e+01 -7.418207079172134399e-02 1.024956628680229187e-02 -1.917975023388862610e-02 1.262779254466295242e-02
1.893000000000000000e+03 1.582359218597412109e+01 -1.125712203979492188e+01 -7.955021262168884277e-01 -4.374399185180664062e-01 -3.698826134204864502e-01 -4.457314312458038330e-01
1.894000000000000000e+03 1.519541072845458984e+01 -1.173630809783935547e+01 -9.499273300170898438e-01 -4.842742681503295898e-01 -4.302604794502258301e-01 -4.201555848121643066e-01
1.895000000000000000e+03 1.064108276367187500e+01 -4.075759887695312500e+00 6.978219002485275269e-02 -8.939628303050994873e-02 -5.884226877242326736e-03 1.704666577279567719e-02
1.896000000000000000e+03 9.957891464233398438e+00 -3.995667934417724609e+00 7.558824867010116577e-02 -8.237686008214950562e-02 -2.036583144217729568e-03 3.663877025246620178e-02
1.897000000000000000e+03 5.791782379150390625e+01 -8.029559135437011719e+00 -1.371253490447998047e+00 -1.790723949670791626e-01 -4.650977849960327148e-01 7.735044360160827637e-01
1.898000000000000000e+03 4.752566146850585938e+01 1.611316680908203125e+01 -1.835356652736663818e-01 -5.632877815514802933e-03 -5.675056204199790955e-02 -9.824755042791366577e-02
1.899000000000000000e+03 2.188825416564941406e+01 -1.196990013122558594e+01 -5.305330827832221985e-02 1.312095969915390015e-01 2.344688773155212402e-02 -3.142051994800567627e-01
1.900000000000000000e+03 2.317778205871582031e+01 -1.302195167541503906e+01 2.484521865844726562e-01 7.899419218301773071e-02 9.823390841484069824e-02 -3.065551817417144775e-01
1.901000000000000000e+03 4.524940872192382812e+01 -1.715435028076171875e+01 2.830095291137695312e-01 2.554412603378295898e+00 8.512266874313354492e-01 2.896478474140167236e-01
1.902000000000000000e+03 1.986543464660644531e+01 4.007309913635253906e+00 -1.083291426766663790e-04 1.009312109090387821e-04 -2.219378075096756220e-06 2.382757884333841503e-05
1.903000000000000000e+03 4.295020675659179688e+01 -2.384145736694335938e+00 -1.358064413070678711e+00 2.134867906570434570e-01 -3.433732688426971436e-01 -5.192072987556457520e-01
1.904000000000000000e+03 4.207142639160156250e+01 -1.537687420845031738e+00 -1.240506887435913086e+00 -2.126216143369674683e-01 -4.359385669231414795e-01 -7.387274503707885742e-01
1.905000000000000000e+03 2.116421127319335938e+01 -1.180273628234863281e+01 -1.576677411794662476e-01 1.425231546163558960e-01 -4.543378017842769623e-03 -2.995053231716156006e-01
1.906000000000000000e+03 2.027976036071777344e+01 -1.233112144470214844e+01 -1.459847390651702881e-01 1.207232996821403503e-01 -7.578428834676742554e-03 -2.104365527629852295e-01
1.907000000000000000e+03 1.884206008911132812e+01 6.405033111572265625e+00 9.422790753887966275e-05 4.463862860575318336e-04 1.621842529857531190e-04 1.678526896284893155e-04
1.908000000000000000e+03 6.079475402832031250e+01 -9.027882575988769531e+00 -1.418226838111877441e+00 1.432638615369796753e-01 -3.824888765811920166e-01 6.036612987518310547e-01
1.909000000000000000e+03 5.934109497070312500e+01 -8.534808158874511719e+00 -1.396134972572326660e+00 5.153038538992404938e-03 -4.172945916652679443e-01 7.400955557823181152e-01
1.910000000000000000e+03 2.048399162292480469e+01 -1.166144466400146484e+01 -2.179814279079437256e-01 1.448754072189331055e-01 -2.193180657923221588e-02 -2.743265330791473389e-01
1.911000000000000000e+03 6.057353973388671875e+01 -7.403166294097900391e+00 -8.673004508018493652e-01 3.609796464443206787e-01 -1.518962383270263672e-01 4.694241285324096680e-01
1.912000000000000000e+03 6.199714279174804688e+01 -1.014757919311523438e+01 -1.844043374061584473e+00 1.299912333488464355e-01 -5.142156481742858887e-01 5.246924161911010742e-01
1.913000000000000000e+03 2.525812911987304688e+01 -3.771483898162841797e+00 -6.208595633506774902e-01 1.256947517395019531e-01 -1.485494375228881836e-01 9.501618891954421997e-02
1.914000000000000000e+03 2.570497512817382812e+01 -4.271607398986816406e+00 -8.139513731002807617e-01 1.617680639028549194e-01 -1.956549882888793945e-01 9.920700639486312866e-02
1.915000000000000000e+03 1.132959175109863281e+01 -4.174870967864990234e+00 6.040498614311218262e-02 -9.515162557363510132e-02 -1.042399276047945023e-02 -8.177283219993114471e-03
1.916000000000000000e+03 7.786436557769775391e+00 -3.298244476318359375e+00 9.641718119382858276e-02 -3.950363025069236755e-02 1.707406528294086456e-02 7.773380726575851440e-02
1.917000000000000000e+03 9.268670082092285156e+00 -3.946551799774169922e+00 7.646789401769638062e-02 -7.383153587579727173e-02 7.909079431556165218e-04 5.504886060953140259e-02
1.918000000000000000e+03 5.160277938842773438e+01 2.280033111572265625e+01 -1.005304098129272461e+00 8.907804265618324280e-03 -2.989188730716705322e-01 9.552538394927978516e-02
1.919000000000000000e+03 1.639398956298828125e+01 5.293321132659912109e+00 6.502323230961337686e-05 2.198017464252188802e-04 8.544749289285391569e-05 3.743845445569604635e-04
1.920000000000000000e+03 1.904870033264160156e+01 3.979026794433593750e+00 1.053219457389786839e-04 1.654922234592959285e-04 8.124425221467390656e-05 8.507598249707370996e-05
1.921000000000000000e+03 1.358174800872802734e+01 -3.900212287902832031e+00 4.706952720880508423e-02 -6.647689640522003174e-02 -5.822211038321256638e-03 -9.786323457956314087e-02
1.922000000000000000e+03 5.513077926635742188e+01 -7.436458587646484375e+00 -1.196467876434326172e+00 -6.383870244026184082e-01 -5.504564642906188965e-01 9.358190894126892090e-01
1.923000000000000000e+03 1.736445236206054688e+01 1.957975769042968750e+01 -1.427289564162492752e-02 1.535617746412754059e-03 -3.821183228865265846e-03 -2.013017190620303154e-03
1.924000000000000000e+03 2.127037239074707031e+01 -7.705964565277099609e+00 -4.911624491214752197e-01 1.855531781911849976e-01 -9.168277680873870850e-02 -4.079979956150054932e-01
1.925000000000000000e+03 3.189165687561035156e+01 -7.708861351013183594e+00 -1.340689539909362793e+00 -3.876540064811706543e-01 -5.185030698776245117e-01 -2.942105531692504883e-01
1.926000000000000000e+03 1.439710712432861328e+01 3.136175870895385742e+00 2.621600287966430187e-04 -4.146153878537006676e-05 6.620954809477552772e-05 2.579956490080803633e-04
1.927000000000000000e+03 6.349516677856445312e+01 -1.055763339996337891e+01 -1.765027284622192383e+00 2.508470416069030762e-01 -4.542540907859802246e-01 1.503846943378448486e-01
1.928000000000000000e+03 6.105539321899414062e+01 -8.338076591491699219e+00 -1.128244400024414062e+00 3.124293982982635498e-01 -2.447444945573806763e-01 4.882467389106750488e-01
1.929000000000000000e+03 6.006419754028320312e+01 -8.786142349243164062e+00 -1.403975009918212891e+00 7.370351999998092651e-02 -3.990814387798309326e-01 6.900366544723510742e-01
1.930000000000000000e+03 3.522027969360351562e+01 -7.296453952789306641e+00 -1.424731254577636719e+00 -3.587080538272857666e-01 -5.350317955017089844e-01 -3.321542739868164062e-01
1.931000000000000000e+03 3.682876968383789062e+01 -6.151465892791748047e+00 -1.733269810676574707e+00 -3.737176358699798584e-01 -6.320962309837341309e-01 -5.591639876365661621e-01
1.932000000000000000e+03 1.364459419250488281e+01 3.252858161926269531e+00 4.106117994524538517e-04 -3.571534762158989906e-05 1.124689370044507086e-04 2.922375279013067484e-04
1.933000000000000000e+03 1.653355026245117188e+01 2.717605829238891602e+00 1.813866256270557642e-04 1.090353689505718648e-04 8.712660201126709580e-05 1.910274877445772290e-04
1.934000000000000000e+03 4.474931335449218750e+01 5.444567203521728516e+00 1.304920297116041183e-03 -1.835286268033087254e-03 -1.591097970958799124e-04 -5.935788503848016262e-04
1.935000000000000000e+03 1.203096675872802734e+01 -4.290679931640625000e+00 4.468130692839622498e-02 -9.900658577680587769e-02 -1.629758253693580627e-02 -3.609703853726387024e-02
1.936000000000000000e+03 1.275020694732666016e+01 -4.420584678649902344e+00 2.496279589831829071e-02 -9.995044767856597900e-02 -2.249629609286785126e-02 -7.154473662376403809e-02
1.937000000000000000e+03 6.095180511474609375e+01 1.386193752288818359e+00 6.413639187812805176e-01 1.094941616058349609e+00 5.208916664123535156e-01 6.020256876945495605e-01
1.938000000000000000e+03 6.122127914428710938e+01 2.502402782440185547e+00 6.432570815086364746e-01 1.135330557823181152e+00 5.335763096809387207e-01 7.033548951148986816e-01
1.939000000000000000e+03 1.348709487915039062e+01 -4.560584545135498047e+00 -2.602065214887261391e-03 -9.787785261869430542e-02 -3.014397621154785156e-02 -1.084495335817337036e-01
1.940000000000000000e+03 4.660676574707031250e+01 -1.348483204841613770e+00 -1.028337597846984863e+00 4.020166695117950439e-01 -1.878962814807891846e-01 -5.286313220858573914e-02
1.941000000000000000e+03 4.959027481079101562e+01 -6.998010158538818359e+00 -3.482002317905426025e-01 1.281707525253295898e+00 2.800522148609161377e-01 8.512830734252929688e-01
1.942000000000000000e+03 1.988508415222167969e+01 -1.155413436889648438e+01 -3.352151513099670410e-01 1.578924357891082764e-01 -5.319681391119956970e-02 -2.884739935398101807e-01
1.943000000000000000e+03 1.851967620849609375e+01 -1.143306064605712891e+01 -5.029054880142211914e-01 1.071096584200859070e-01 -1.187387555837631226e-01 -3.356612026691436768e-01
1.944000000000000000e+03 6.185261917114257812e+01 3.024815082550048828e+00 6.104143857955932617e-01 1.432411789894104004e+00 6.128478646278381348e-01 7.916692495346069336e-01
1.945000000000000000e+03 4.450891113281250000e+01 -1.007938146591186523e+00 -1.045864939689636230e+00 2.836182117462158203e-01 -2.286740094423294067e-01 -3.940669000148773193e-01
1.946000000000000000e+03 1.696058845520019531e+01 -1.011007022857666016e+01 -5.241338014602661133e-01 -1.730632483959197998e-01 -2.091591060161590576e-01 -4.860526025295257568e-01
1.947000000000000000e+03 1.908016395568847656e+01 -4.734395980834960938e+00 -2.771387398242950439e-01 4.103299230337142944e-02 -7.083172351121902466e-02 -2.862233817577362061e-01
1.948000000000000000e+03 2.166188240051269531e+01 -3.160927009582519531e+01 4.288378953933715820e-01 1.715571284294128418e-01 1.801185011863708496e-01 -2.087915390729904175e-01
1.949000000000000000e+03 2.528764724731445312e+01 -3.323025894165039062e+01 3.441346883773803711e-01 1.078955829143524170e-01 1.356090903282165527e-01 -1.262087523937225342e-01
1.950000000000000000e+03 6.208364868164062500e+01 -2.985017967224121094e+01 -2.941958606243133545e-01 1.121749043464660645e+00 2.482659667730331421e-01 5.798258781433105469e-01
1.951000000000000000e+03 6.343005371093750000e+01 -2.965626335144042969e+01 -2.004713565111160278e-01 1.963909745216369629e+00 5.290315151214599609e-01 7.713546752929687500e-01
1.952000000000000000e+03 5.125687408447265625e+01 -1.708133935928344727e+00 -5.442215204238891602e-01 -7.642584387212991714e-03 -1.655592322349548340e-01 7.070420980453491211e-01
1.953000000000000000e+03 3.512945556640625000e+01 -6.582796096801757812e+00 -1.811047792434692383e+00 -3.258463442325592041e-01 -6.410682201385498047e-01 -4.184451997280120850e-01
1.954000000000000000e+03 6.443221282958984375e+01 5.187775611877441406e+00 4.704670608043670654e-01 3.253054618835449219e+00 1.117056488990783691e+00 1.342467904090881348e+00
1.955000000000000000e+03 6.505487060546875000e+01 5.774787425994873047e+00 4.302383959293365479e-01 3.881952762603759766e+00 1.293657302856445312e+00 1.510571241378784180e+00
1.956000000000000000e+03 1.781077146530151367e+00 4.886900901794433594e+00 1.129321390180848539e-04 3.157747269142419100e-04 1.286120532313361764e-04 -2.627996727824211121e-04
1.957000000000000000e+03 2.588071107864379883e+00 3.328919172286987305e+00 8.344990783371031284e-05 1.292384549742564559e-04 6.380651029758155346e-05 -2.091175119858235121e-04
1.958000000000000000e+03 8.864362716674804688e+00 3.799388408660888672e+00 5.840854719281196594e-04 -1.852595596574246883e-04 1.196477751364000142e-04 -9.786137525225058198e-05
1.959000000000000000e+03 7.946887016296386719e+00 5.206090927124023438e+00 5.737419705837965012e-04 -3.591509885154664516e-04 6.437729462049901485e-05 -2.548836346250027418e-04
1.960000000000000000e+03 4.711875152587890625e+01 6.802223205566406250e+00 4.222516436129808426e-03 2.571459335740655661e-04 1.343898708000779152e-03 3.811758477240800858e-03
1.961000000000000000e+03 4.563086700439453125e+01 6.082196235656738281e+00 2.049067057669162750e-03 -2.863163594156503677e-03 -2.442289260216057301e-04 4.572290345095098019e-04
1.962000000000000000e+03 2.493806123733520508e+00 7.880085945129394531e+00 8.137069380609318614e-05 6.298024090938270092e-04 2.133519301423802972e-04 -6.033221143297851086e-04
1.963000000000000000e+03 7.239001274108886719e+00 3.874733448028564453e+00 5.247634835541248322e-04 -1.288777712034061551e-04 1.187657180707901716e-04 -2.579320862423628569e-04
1.964000000000000000e+03 8.089148521423339844e+00 3.172194004058837891e+00 5.317373434081673622e-04 -1.093759492505341768e-04 1.267084153369069099e-04 -1.532611931907013059e-04
1.965000000000000000e+03 8.047444343566894531e+00 3.842800378799438477e+00 5.004525301046669483e-04 -2.107222244376316667e-04 8.691909170011058450e-05 -1.822570775402709842e-04
1.966000000000000000e+03 1.769967555999755859e+00 5.651262760162353516e+00 1.465903915232047439e-05 3.982798370998352766e-04 1.238816621480509639e-04 -2.946986060123890638e-04
1.967000000000000000e+03 2.506960153579711914e+00 5.564464569091796875e+00 1.810745889088138938e-04 3.443553578108549118e-04 1.576289796503260732e-04 -3.996118612121790648e-04
1.968000000000000000e+03 4.814527034759521484e+00 4.649254798889160156e+00 3.738592786248773336e-04 4.193171844235621393e-05 1.247373002115637064e-04 -4.261201538611203432e-04
1.969000000000000000e+03 3.356713056564331055e+00 3.296132802963256836e+00 2.057112142210826278e-04 1.141947068390436471e-04 9.597177995601668954e-05 -2.632219984661787748e-04
1.970000000000000000e+03 1.589129829406738281e+01 -1.022624492645263672e+01 -5.406911373138427734e-01 -3.717702031135559082e-01 -2.737383842468261719e-01 -4.276200532913208008e-01
1.971000000000000000e+03 2.539819717407226562e+01 -1.357686805725097656e+01 6.096666455268859863e-01 6.907931715250015259e-02 2.036237865686416626e-01 -3.491048216819763184e-01
1.972000000000000000e+03 2.417715263366699219e+01 -1.248960208892822266e+01 2.156074941158294678e-01 1.123870164155960083e-01 9.839835017919540405e-02 -4.013268053531646729e-01
1.973000000000000000e+03 1.423947715759277344e+01 -4.704254150390625000e+00 -3.307146206498146057e-02 -9.212110191583633423e-02 -3.755776956677436829e-02 -1.510662883520126343e-01
1.974000000000000000e+03 1.500808525085449219e+01 -4.848654747009277344e+00 -7.214318960905075073e-02 -8.193696290254592896e-02 -4.622404649853706360e-02 -1.933972388505935669e-01
1.975000000000000000e+03 3.014824485778808594e+01 2.341072654724121094e+01 -1.938937455415725708e-01 -9.905381500720977783e-02 -8.788426965475082397e-02 1.382078081369400024e-01
1.976000000000000000e+03 4.254330825805664062e+01 -4.819569587707519531e+00 -1.321667313575744629e+00 3.232712149620056152e-01 -2.995188236236572266e-01 -2.155454158782958984e-01
1.977000000000000000e+03 1.819171714782714844e+01 6.308953285217285156e+00 -1.420816115569323301e-04 4.729668435174971819e-04 9.926556231221184134e-05 2.248885430162772536e-04
1.978000000000000000e+03 1.854859733581542969e+01 7.200602054595947266e+00 -1.903367228806018829e-04 6.396243697963654995e-04 1.347862853435799479e-04 1.849574036896228790e-04
1.979000000000000000e+03 3.110833740234375000e+01 -7.100887298583984375e+00 -1.640671014785766602e+00 -3.864851295948028564e-01 -6.081468462944030762e-01 -2.879604995250701904e-01
1.980000000000000000e+03 6.892018127441406250e+01 -2.464023017883300781e+01 -1.222603544592857361e-01 7.389777660369873047e+00 2.180255174636840820e+00 8.758469820022583008e-01
1.981000000000000000e+03 1.287714195251464844e+01 3.367351293563842773e+00 3.977952001150697470e-04 -1.397555315634235740e-04 7.741189619991928339e-05 2.441463002469390631e-04
1.982000000000000000e+03 3.211157989501953125e+01 -1.395179748535156250e+01 1.126096725463867188e+00 1.671754866838455200e-01 3.879816532135009766e-01 -3.096832633018493652e-01
1.983000000000000000e+03 6.567468261718750000e+01 6.351454257965087891e+00 3.715159893035888672e-01 4.753516197204589844e+00 1.537509560585021973e+00 1.602654695510864258e+00
1.984000000000000000e+03 6.516247558593750000e+01 6.885277271270751953e+00 7.081739902496337891e-01 4.044439315795898438e+00 1.425783991813659668e+00 1.850668430328369141e+00
1.985000000000000000e+03 3.777315902709960938e+01 1.644008827209472656e+01 -2.069915831089019775e-01 -1.382778957486152649e-02 -6.624580919742584229e-02 9.172781556844711304e-02
1.986000000000000000e+03 3.770608901977539062e+01 1.753492355346679688e+01 -2.470340132713317871e-01 4.259674344211816788e-03 -7.283230125904083252e-02 9.483877569437026978e-02
1.987000000000000000e+03 1.691895103454589844e+01 1.127846622467041016e+01 1.317936694249510765e-04 1.782925799489021301e-03 5.744158406741917133e-04 1.394882448948919773e-03
1.988000000000000000e+03 7.018408203125000000e+01 1.731630325317382812e+01 1.971154808998107910e+00 1.325074291229248047e+01 4.566569328308105469e+00 -3.868196010589599609e-01
1.989000000000000000e+03 6.345117187500000000e+01 2.446687507629394531e+01 -5.375078320503234863e-01 1.368650197982788086e+00 2.493427246809005737e-01 -1.408768534660339355e+00
1.990000000000000000e+03 6.253908157348632812e+01 2.463579940795898438e+01 -6.518697738647460938e-01 8.878886699676513672e-01 7.080566883087158203e-02 -1.094668030738830566e+00
1.991000000000000000e+03 5.258287811279296875e+01 -7.180154323577880859e+00 -5.034527182579040527e-01 9.726835787296295166e-02 -1.218553110957145691e-01 1.230231881141662598e+00
1.992000000000000000e+03 1.991551208496093750e+01 -4.800359725952148438e+00 -3.358819186687469482e-01 6.393580138683319092e-02 -8.158383518457412720e-02 -2.741026878356933594e-01
1.993000000000000000e+03 2.238006973266601562e+01 -4.878639698028564453e+00 -5.121829509735107422e-01 1.451186835765838623e-01 -1.101192757487297058e-01 -1.806061863899230957e-01
1.994000000000000000e+03 3.828843307495117188e+01 1.699294853210449219e+01 -2.294825464487075806e-01 1.250363234430551529e-02 -6.509367376565933228e-02 8.282756060361862183e-02
1.995000000000000000e+03 3.853385543823242188e+01 -5.629664897918701172e+00 -1.622505187988281250e+00 -4.994974434375762939e-01 -6.366007924079895020e-01 -5.545995235443115234e-01
1.996000000000000000e+03 3.300232696533203125e+01 -1.402199459075927734e+01 1.110990285873413086e+00 1.110204607248306274e-01 3.666032254695892334e-01 -1.885498762130737305e-01
1.997000000000000000e+03 3.850250244140625000e+01 -2.061700820922851562e+01 1.599617302417755127e-01 2.110147327184677124e-01 1.112929359078407288e-01 -3.097247704863548279e-02
1.998000000000000000e+03 4.855748748779296875e+01 1.678956031799316406e+01 -2.099233120679855347e-01 -2.889717929065227509e-02 -7.164614647626876831e-02 -1.355472803115844727e-01
1.999000000000000000e+03 4.826965332031250000e+01 1.598138427734375000e+01 -1.408681124448776245e-01 -2.462132833898067474e-02 -4.964683204889297485e-02 -9.993883967399597168e-02
2.000000000000000000e+03 1.397058963775634766e+01 -2.702537345886230469e+01 3.663039207458496094e-01 2.293070405721664429e-01 1.786832958459854126e-01 -2.826138138771057129e-01
2.001000000000000000e+03 5.180094528198242188e+01 -3.081507873535156250e+01 -9.224759787321090698e-02 4.633144438266754150e-01 1.113200560212135315e-01 -4.647201001644134521e-01
2.002000000000000000e+03 4.445633316040039062e+01 -1.784746360778808594e+01 3.380218446254730225e-01 2.207418441772460938e+00 7.636320590972900391e-01 1.520328819751739502e-01
2.003000000000000000e+03 1.579213809967041016e+01 -4.993572235107421875e+00 -1.135475486516952515e-01 -6.733560562133789062e-02 -5.426494777202606201e-02 -2.369077950716018677e-01
2.004000000000000000e+03 6.958570098876953125e+01 1.897493362426757812e+01 2.659563064575195312e+00 1.349260520935058594e+01 4.845650672912597656e+00 -7.388051152229309082e-01
2.005000000000000000e+03 6.953656005859375000e+01 1.816202735900878906e+01 2.465513229370117188e+00 1.396731376647949219e+01 4.929848194122314453e+00 -1.023630380630493164e+00
2.006000000000000000e+03 7.724005889892578125e+01 3.592230606079101562e+01 -3.947013616561889648e-02 8.042193412780761719e+00 2.400817155838012695e+00 2.193331718444824219e-02
2.007000000000000000e+03 7.836403656005859375e+01 3.772580337524414062e+01 1.218429487198591232e-02 8.381033897399902344e+00 2.517965316772460938e+00 -1.538883708417415619e-02
2.008000000000000000e+03 7.800383758544921875e+01 3.576294708251953125e+01 -1.838383637368679047e-02 8.281076431274414062e+00 2.478807687759399414e+00 1.642202027142047882e-02
2.009000000000000000e+03 7.820584869384765625e+01 3.197810935974121094e+01 -5.838340148329734802e-02 8.170928001403808594e+00 2.433763265609741211e+00 1.703134179115295410e-01
2.010000000000000000e+03 7.727545166015625000e+01 2.871951484680175781e+01 -1.873793900012969971e-01 7.744925498962402344e+00 2.267263889312744141e+00 5.145090222358703613e-01
2.011000000000000000e+03 7.731316375732421875e+01 2.788295364379882812e+01 -1.668822169303894043e-01 7.653033256530761719e+00 2.245845317840576172e+00 6.019312739372253418e-01
2.012000000000000000e+03 7.817685699462890625e+01 2.138070297241210938e+01 5.685332044959068298e-02 5.908786773681640625e+00 1.789692044258117676e+00 7.384374141693115234e-01
2.013000000000000000e+03 7.824186706542968750e+01 1.495764350891113281e+01 1.605773121118545532e-01 5.036234378814697266e+00 1.559043526649475098e+00 -2.098099291324615479e-01
2.014000000000000000e+03 7.752015686035156250e+01 1.338145256042480469e+01 2.536644637584686279e-01 5.836615085601806641e+00 1.827083826065063477e+00 -5.659221410751342773e-01
2.015000000000000000e+03 7.752729797363281250e+01 1.097614288330078125e+01 1.309381127357482910e-01 6.292343616485595703e+00 1.926984548568725586e+00 -8.918223381042480469e-01
2.016000000000000000e+03 7.714717864990234375e+01 3.140326499938964844e+01 -1.262533217668533325e-01 7.899930000305175781e+00 2.332103013992309570e+00 2.564656138420104980e-01
2.017000000000000000e+03 7.821790313720703125e+01 -2.108030319213867188e+01 1.007110700011253357e-01 7.411096572875976562e+00 2.253542423248291016e+00 -1.151852756738662720e-01
2.018000000000000000e+03 7.694976043701171875e+01 -3.677880859375000000e+01 -5.058724433183670044e-03 8.054355621337890625e+00 2.414788961410522461e+00 -1.277045812457799911e-02
2.019000000000000000e+03 7.824035644531250000e+01 -1.386988258361816406e+01 7.474008016288280487e-03 8.275107383728027344e+00 2.484774589538574219e+00 5.070015788078308105e-01
2.020000000000000000e+03 7.824479675292968750e+01 -1.866759681701660156e+01 1.191827654838562012e-01 7.459602355957031250e+00 2.273635625839233398e+00 1.607723385095596313e-01
2.021000000000000000e+03 7.815705108642578125e+01 -2.751018905639648438e+01 -3.714654594659805298e-02 8.077699661254882812e+00 2.412165880203247070e+00 -3.128208816051483154e-01
2.022000000000000000e+03 7.742485046386718750e+01 -2.827198410034179688e+01 -7.594052702188491821e-02 8.058220863342285156e+00 2.394684314727783203e+00 -3.448995947837829590e-01
2.023000000000000000e+03 7.824823760986328125e+01 -6.643285751342773438e+00 -8.250417560338973999e-02 9.332632064819335938e+00 2.775038480758666992e+00 6.959220021963119507e-02
2.024000000000000000e+03 7.825179290771484375e+01 5.773564577102661133e-01 -5.306750908493995667e-02 8.744469642639160156e+00 2.607420682907104492e+00 -4.143871963024139404e-01
2.025000000000000000e+03 7.755839538574218750e+01 -9.584533572196960449e-01 -1.070453673601150513e-01 8.744645118713378906e+00 2.591279983520507812e+00 -4.099848270416259766e-01
2.026000000000000000e+03 7.825778961181640625e+01 7.771071434020996094e+00 -1.853189803659915924e-02 6.848505973815917969e+00 2.048992156982421875e+00 -7.632284760475158691e-01
2.027000000000000000e+03 7.756346893310546875e+01 6.235023975372314453e+00 -6.387016922235488892e-02 7.442142486572265625e+00 2.213481664657592773e+00 -9.105600714683532715e-01
2.028000000000000000e+03 7.812897491455078125e+01 -2.989929389953613281e+01 -4.398909583687782288e-02 8.294209480285644531e+00 2.475065946578979492e+00 -2.151365131139755249e-01
2.029000000000000000e+03 7.824852752685546875e+01 -5.040345191955566406e+00 -7.453460991382598877e-02 9.336486816406250000e+00 2.778585672378540039e+00 -5.508667975664138794e-02
2.030000000000000000e+03 7.754860687255859375e+01 -7.378171443939208984e+00 -1.508405804634094238e-01 9.040159225463867188e+00 2.666795730590820312e+00 1.625031083822250366e-01
2.031000000000000000e+03 7.824990844726562500e+01 -2.633093833923339844e+00 -5.884714797139167786e-02 9.190644264221191406e+00 2.739539146423339844e+00 -2.204615622758865356e-01
2.032000000000000000e+03 7.755103302001953125e+01 -3.368531465530395508e+00 -1.134981885552406311e-01 8.966803550720214844e+00 2.655991554260253906e+00 -2.221234589815139771e-01
2.033000000000000000e+03 7.754898071289062500e+01 -6.576418876647949219e+00 -1.423668861389160156e-01 9.059408187866210938e+00 2.675112485885620117e+00 7.656930387020111084e-02
2.034000000000000000e+03 7.824734497070312500e+01 -1.226281738281250000e+01 -3.712335601449012756e-02 8.623318672180175781e+00 2.575858592987060547e+00 4.785233438014984131e-01
2.035000000000000000e+03 7.752941894531250000e+01 -1.381146812438964844e+01 5.245939828455448151e-03 8.272396087646484375e+00 2.483292579650878906e+00 6.504711508750915527e-01
2.036000000000000000e+03 7.825209045410156250e+01 2.180677175521850586e+00 -5.103346332907676697e-02 8.422624588012695312e+00 2.511477470397949219e+00 -5.078647136688232422e-01
2.037000000000000000e+03 7.755817413330078125e+01 6.482087969779968262e-01 -1.048701927065849304e-01 8.533139228820800781e+00 2.528480768203735352e+00 -5.305703282356262207e-01
2.038000000000000000e+03 7.755652618408203125e+01 -1.761673092842102051e+00 -1.042126566171646118e-01 8.833324432373046875e+00 2.618733406066894531e+00 -3.501712381839752197e-01
2.039000000000000000e+03 7.755362701416015625e+01 -2.565036773681640625e+00 -1.128082945942878723e-01 8.905211448669433594e+00 2.637720823287963867e+00 -2.856885194778442383e-01
2.040000000000000000e+03 7.684213256835937500e+01 -9.735847473144531250e+00 -2.166773825883865356e-01 8.709002494812011719e+00 2.547697782516479492e+00 4.697919785976409912e-01
2.041000000000000000e+03 7.678809356689453125e+01 -1.455478763580322266e+01 7.369031012058258057e-02 8.153389930725097656e+00 2.468124151229858398e+00 7.522990107536315918e-01
2.042000000000000000e+03 7.753959655761718750e+01 -1.300617885589599609e+01 -3.487747162580490112e-02 8.415041923522949219e+00 2.514049530029296875e+00 6.378483176231384277e-01
2.043000000000000000e+03 7.755593872070312500e+01 3.848544836044311523e+00 -9.912285208702087402e-02 7.970732212066650391e+00 2.361482858657836914e+00 -7.613819241523742676e-01
2.044000000000000000e+03 7.755628204345703125e+01 1.451248049736022949e+00 -9.716720879077911377e-02 8.410499572753906250e+00 2.493999481201171875e+00 -5.913081169128417969e-01
2.045000000000000000e+03 7.755895996093750000e+01 -1.552558541297912598e-01 -1.003007590770721436e-01 8.647109031677246094e+00 2.564042568206787109e+00 -4.717191457748413086e-01
2.046000000000000000e+03 7.755515289306640625e+01 3.052283763885498047e+00 -9.382701665163040161e-02 8.129462242126464844e+00 2.410690546035766602e+00 -7.075518369674682617e-01
2.047000000000000000e+03 7.756016540527343750e+01 5.440503120422363281e+00 -8.582536131143569946e-02 7.625133991241455078e+00 2.261792421340942383e+00 -8.642572164535522461e-01
2.048000000000000000e+03 7.825342559814453125e+01 9.364645957946777344e+00 1.889071054756641388e-02 6.331226348876953125e+00 1.905035138130187988e+00 -7.623571157455444336e-01
2.049000000000000000e+03 7.757163238525390625e+01 7.819479942321777344e+00 -1.922787167131900787e-02 7.047880172729492188e+00 2.108595609664916992e+00 -9.664615392684936523e-01
2.050000000000000000e+03 7.754465484619140625e+01 -9.796188354492187500e+00 -1.364477127790451050e-01 8.871383666992187500e+00 2.620481014251708984e+00 4.142010807991027832e-01
2.051000000000000000e+03 7.755745697021484375e+01 4.644798278808593750e+00 -8.562873303890228271e-02 7.805596351623535156e+00 2.315990209579467773e+00 -8.175991177558898926e-01
2.052000000000000000e+03 7.754689788818359375e+01 -8.182398796081542969e+00 -1.484005898237228394e-01 9.002930641174316406e+00 2.656359195709228516e+00 2.462875843048095703e-01
2.053000000000000000e+03 7.756778717041015625e+01 7.027652740478515625e+00 -5.420272424817085266e-02 7.246325016021728516e+00 2.157636642456054688e+00 -9.416950345039367676e-01
2.054000000000000000e+03 7.754482269287109375e+01 -8.989322662353515625e+00 -1.491705924272537231e-01 8.946134567260742188e+00 2.639089107513427734e+00 3.339554965496063232e-01
2.055000000000000000e+03 7.823811340332031250e+01 -1.946927452087402344e+01 1.148479580879211426e-01 7.412879943847656250e+00 2.258318424224853516e+00 6.630387902259826660e-02
2.056000000000000000e+03 7.749464416503906250e+01 -2.101038360595703125e+01 1.938350051641464233e-01 7.536604881286621094e+00 2.319131851196289062e+00 -1.242840737104415894e-01
2.057000000000000000e+03 7.823442840576171875e+01 1.174906444549560547e+01 9.271209686994552612e-02 5.628694057464599609e+00 1.716421723365783691e+00 -6.461229920387268066e-01
2.058000000000000000e+03 7.750801849365234375e+01 1.257096195220947266e+01 2.099041491746902466e-01 5.990084171295166016e+00 1.859996557235717773e+00 -7.144409418106079102e-01
2.059000000000000000e+03 7.611653900146484375e+01 -1.919748687744140625e+01 4.639323055744171143e-01 7.744966030120849609e+00 2.462669610977172852e+00 2.014819383621215820e-01
2.060000000000000000e+03 7.754869842529296875e+01 -1.700530624389648438e+01 1.665304303169250488e-01 7.757270336151123047e+00 2.377140283584594727e+00 4.391597211360931396e-01
2.061000000000000000e+03 7.751063537597656250e+01 1.176924705505371094e+01 1.636759787797927856e-01 6.131792068481445312e+00 1.888640403747558594e+00 -7.966367602348327637e-01
2.062000000000000000e+03 7.824401855468750000e+01 -1.626838111877441406e+01 7.421535998582839966e-02 7.781224250793457031e+00 2.356631994247436523e+00 4.053718149662017822e-01
2.063000000000000000e+03 7.752702331542968750e+01 -1.540960502624511719e+01 9.390626847743988037e-02 7.997979640960693359e+00 2.427565813064575195e+00 5.948308706283569336e-01
2.064000000000000000e+03 7.823706054687500000e+01 1.655510902404785156e+01 1.664816737174987793e-01 4.991337299346923828e+00 1.547345638275146484e+00 6.660822033882141113e-02
2.065000000000000000e+03 7.753456878662109375e+01 1.498623275756835938e+01 3.030070960521697998e-01 5.654058933258056641e+00 1.787119746208190918e+00 -2.524403035640716553e-01
2.066000000000000000e+03 7.752377319335937500e+01 1.817406082153320312e+01 2.964872717857360840e-01 5.730281352996826172e+00 1.808030605316162109e+00 4.335975050926208496e-01
2.067000000000000000e+03 7.753166961669921875e+01 1.418926239013671875e+01 2.803713381290435791e-01 5.739603996276855469e+00 1.805992603302001953e+00 -4.250995218753814697e-01
2.068000000000000000e+03 7.752790832519531250e+01 1.737420845031738281e+01 3.033898770809173584e-01 5.661592006683349609e+00 1.789494514465332031e+00 2.632333934307098389e-01
2.069000000000000000e+03 7.749478149414062500e+01 1.978338432312011719e+01 2.284009158611297607e-01 5.992664337158203125e+00 1.866319537162780762e+00 7.290970683097839355e-01
2.070000000000000000e+03 7.751401519775390625e+01 1.897486305236816406e+01 2.565333545207977295e-01 5.848233699798583984e+00 1.831430077552795410e+00 5.903542041778564453e-01
2.071000000000000000e+03 7.815258789062500000e+01 2.298176383972167969e+01 -9.189223870635032654e-03 6.404853343963623047e+00 1.918699264526367188e+00 7.905679941177368164e-01
2.072000000000000000e+03 7.743788146972656250e+01 2.139965248107910156e+01 1.198430359363555908e-01 6.363636493682861328e+00 1.945043802261352539e+00 9.284468889236450195e-01
2.073000000000000000e+03 7.817591094970703125e+01 -2.590790748596191406e+01 -1.167628541588783264e-02 7.888057708740234375e+00 2.362914562225341797e+00 -3.487437665462493896e-01
2.074000000000000000e+03 7.814092254638671875e+01 2.378590011596679688e+01 -2.510878629982471466e-02 6.656086444854736328e+00 1.989293336868286133e+00 7.789061665534973145e-01
2.075000000000000000e+03 7.811507415771484375e+01 2.540319061279296875e+01 -6.920026242733001709e-02 7.118331432342529297e+00 2.114739179611206055e+00 6.957110166549682617e-01
2.076000000000000000e+03 7.659027862548828125e+01 2.544889259338378906e+01 -2.105510085821151733e-01 7.453124046325683594e+00 2.172771930694580078e+00 9.695972800254821777e-01
2.077000000000000000e+03 7.673776245117187500e+01 -2.664801406860351562e+01 -6.533641368150711060e-02 7.907646656036376953e+00 2.352693080902099609e+00 -4.574315249919891357e-01
2.078000000000000000e+03 7.744446563720703125e+01 -2.667034912109375000e+01 -4.748086258769035339e-02 7.943361759185791016e+00 2.368764400482177734e+00 -4.103633761405944824e-01
2.079000000000000000e+03 7.744712829589843750e+01 -2.507127761840820312e+01 1.548140589147806168e-02 7.802465438842773438e+00 2.345384120941162109e+00 -4.273212254047393799e-01
2.080000000000000000e+03 7.673426818847656250e+01 -2.585455322265625000e+01 -2.865105494856834412e-02 7.864461898803710938e+00 2.350743293762207031e+00 -4.799575507640838623e-01
2.081000000000000000e+03 7.743252563476562500e+01 -2.747304153442382812e+01 -6.084181368350982666e-02 8.006938934326171875e+00 2.383829116821289062e+00 -3.802616000175476074e-01
2.082000000000000000e+03 7.745672607421875000e+01 -2.264268493652343750e+01 1.320329457521438599e-01 7.610039710998535156e+00 2.322621822357177734e+00 -3.056441247463226318e-01
2.083000000000000000e+03 7.735413360595703125e+01 2.543316268920898438e+01 -1.570768356323242188e-01 7.285917758941650391e+00 2.138652324676513672e+00 8.601127266883850098e-01
2.084000000000000000e+03 7.732829284667968750e+01 2.706066703796386719e+01 -1.834002584218978882e-01 7.548647403717041016e+00 2.209573984146118164e+00 6.953782439231872559e-01
2.085000000000000000e+03 7.795890808105468750e+01 -3.299722290039062500e+01 -3.914288431406021118e-02 8.396214485168457031e+00 2.507121562957763672e+00 -9.672574698925018311e-02
2.086000000000000000e+03 7.697302246093750000e+01 -3.525650787353515625e+01 -2.011179737746715546e-02 8.101860046386718750e+00 2.424524545669555664e+00 -4.021286964416503906e-02
2.087000000000000000e+03 7.733934783935546875e+01 2.624556159973144531e+01 -1.514326035976409912e-01 7.421790599822998047e+00 2.181107521057128906e+00 7.788814306259155273e-01
2.088000000000000000e+03 7.699550628662109375e+01 -3.361234283447265625e+01 -6.568969041109085083e-02 8.108507156372070312e+00 2.412845134735107422e+00 -9.041983634233474731e-02
2.089000000000000000e+03 7.808085632324218750e+01 -3.146301460266113281e+01 -4.670464992523193359e-02 8.375241279602050781e+00 2.498561143875122070e+00 -1.514428704977035522e-01
2.090000000000000000e+03 7.663833618164062500e+01 -3.126111793518066406e+01 -1.100726500153541565e-01 8.020185470581054688e+00 2.373034000396728516e+00 -2.032287269830703735e-01
2.091000000000000000e+03 7.708848571777343750e+01 -3.282730102539062500e+01 -7.119058817625045776e-02 8.130609512329101562e+00 2.417825698852539062e+00 -1.107818633317947388e-01
2.092000000000000000e+03 7.720935821533203125e+01 3.497544479370117188e+01 -8.245085924863815308e-02 8.013906478881835938e+00 2.379436731338500977e+00 7.063046842813491821e-02
2.093000000000000000e+03 7.775247955322265625e+01 3.246651077270507812e+01 -7.355403900146484375e-02 8.074931144714355469e+00 2.400413036346435547e+00 1.650211066007614136e-01
2.094000000000000000e+03 7.740673828125000000e+01 -2.984631347656250000e+01 -8.695748448371887207e-02 8.147320747375488281e+00 2.418108940124511719e+00 -2.560286521911621094e-01
2.095000000000000000e+03 7.755356597900390625e+01 3.324312210083007812e+01 -7.893440127372741699e-02 8.040040016174316406e+00 2.388331890106201172e+00 1.338778883218765259e-01
2.096000000000000000e+03 7.735473632812500000e+01 3.407403564453125000e+01 -7.528246194124221802e-02 8.023897171020507812e+00 2.384584426879882812e+00 1.092591658234596252e-01
2.097000000000000000e+03 3.716818618774414062e+01 -2.202201461791992188e+01 2.644685283303260803e-02 -2.250824868679046631e-01 -5.959068983793258667e-02 6.906765699386596680e-02
2.098000000000000000e+03 3.792750930786132812e+01 -2.168058967590332031e+01 8.034053444862365723e-02 3.686409443616867065e-02 3.516138717532157898e-02 4.365855827927589417e-02
2.099000000000000000e+03 7.698388671875000000e+01 -3.896638488769531250e+01 -2.177163586020469666e-02 8.075292587280273438e+00 2.416056156158447266e+00 -2.385786920785903931e-02
2.100000000000000000e+03 7.706446838378906250e+01 -3.605594635009765625e+01 -3.754128888249397278e-02 8.129993438720703125e+00 2.427735567092895508e+00 -1.609853468835353851e-02
2.101000000000000000e+03 7.751329040527343750e+01 3.959760665893554688e+01 1.179305836558341980e-02 8.051875114440917969e+00 2.419100284576416016e+00 -2.012414485216140747e-02
2.102000000000000000e+03 1.449502944946289062e+01 -2.763179969787597656e+01 3.802629709243774414e-01 2.376574277877807617e-01 1.853761225938796997e-01 -2.795651555061340332e-01
2.103000000000000000e+03 1.833972692489624023e+00 2.644141197204589844e+01 -9.482176974415779114e-04 2.929654147010296583e-04 -1.965756964636966586e-04 2.786443568766117096e-03
2.104000000000000000e+03 2.103019952774047852e+00 3.519445419311523438e+01 5.737734609283506870e-04 -1.828538253903388977e-02 -5.313482601195573807e-03 4.691473674029111862e-03
2.105000000000000000e+03 3.700471162796020508e+00 3.712045669555664062e+01 1.731234369799494743e-03 -2.450068481266498566e-02 -6.830835249274969101e-03 6.535437423735857010e-03
2.106000000000000000e+03 1.866034150123596191e+00 2.880870246887207031e+01 -3.271004970883950591e-05 -3.990347497165203094e-03 -1.206917222589254379e-03 4.030376207083463669e-03
2.107000000000000000e+03 2.658175945281982422e+00 -5.166546821594238281e+00 5.201044026762247086e-03 7.528318464756011963e-02 2.414526976644992828e-02 9.216082096099853516e-02
2.108000000000000000e+03 2.497679948806762695e+00 -1.476846122741699219e+01 -5.078583583235740662e-02 6.116635724902153015e-02 3.114156890660524368e-03 -1.311233043670654297e-01
2.109000000000000000e+03 3.943053007125854492e+00 -3.713084793090820312e+01 5.693722050637006760e-03 -6.508956551551818848e-01 -1.935605853796005249e-01 1.667037489823997021e-03
2.110000000000000000e+03 2.676627159118652344e+00 -2.832442092895507812e+01 3.230519965291023254e-02 -6.804317831993103027e-01 -1.944379806518554688e-01 -8.481489121913909912e-02
2.111000000000000000e+03 2.506315469741821289e+00 -2.119992637634277344e+01 1.436144672334194183e-02 -3.450805544853210449e-01 -9.921573102474212646e-02 -2.274432480335235596e-01
2.112000000000000000e+03 2.592142105102539062e+00 -2.595416641235351562e+01 3.466679528355598450e-02 -6.084567308425903320e-01 -1.721369773149490356e-01 -1.359992176294326782e-01
2.113000000000000000e+03 2.471823453903198242e+00 -1.316825389862060547e+01 -5.181613191962242126e-02 1.178924888372421265e-01 1.982290856540203094e-02 -7.067207992076873779e-02
2.114000000000000000e+03 2.097021579742431641e+00 -3.487359237670898438e+01 3.611139953136444092e-03 -8.179350495338439941e-01 -2.442971765995025635e-01 -6.356723606586456299e-03
2.115000000000000000e+03 2.429678440093994141e+00 -1.001681327819824219e+01 -3.400704264640808105e-02 1.540510952472686768e-01 3.601321578025817871e-02 3.149272128939628601e-02
2.116000000000000000e+03 1.779258489608764648e+00 1.521070480346679688e+01 -1.579059171490371227e-04 3.283208468928933144e-03 9.375907829962670803e-04 -1.047988072969019413e-03
2.117000000000000000e+03 1.745373249053955078e+00 -9.970187187194824219e+00 -1.872337795794010162e-02 2.080340236425399780e-01 5.679319426417350769e-02 2.875824645161628723e-02
2.118000000000000000e+03 3.130853414535522461e+00 -8.524508476257324219e+00 -3.643941879272460938e-02 9.995023161172866821e-02 1.905324310064315796e-02 6.982579082250595093e-02
2.119000000000000000e+03 2.432121753692626953e+00 -1.080689334869384766e+01 -4.009820520877838135e-02 1.541426032781600952e-01 3.421331942081451416e-02 1.022057980298995972e-02
2.120000000000000000e+03 1.792515039443969727e+00 -1.796646881103515625e+01 -1.256244629621505737e-02 -8.876039832830429077e-02 -3.039685264229774475e-02 -1.677127778530120850e-01
2.121000000000000000e+03 2.510530948638916016e+00 -1.637159538269042969e+01 -3.997815772891044617e-02 -1.995579712092876434e-02 -1.798018626868724823e-02 -1.836580485105514526e-01
2.122000000000000000e+03 3.211946487426757812e+00 -1.802687644958496094e+01 -3.422381356358528137e-02 -1.494646072387695312e-01 -5.510652437806129456e-02 -2.653522491455078125e-01
2.123000000000000000e+03 1.795678377151489258e+00 2.004138755798339844e+01 -5.598245188593864441e-04 4.634292330592870712e-03 1.222340273670852184e-03 -3.788538742810487747e-04
2.124000000000000000e+03 2.519875764846801758e+00 2.073947334289550781e+01 -9.481086162850260735e-04 3.057955997064709663e-03 6.329542375169694424e-04 -4.136314237257465720e-05
2.125000000000000000e+03 2.483006477355957031e+00 1.268039226531982422e+01 1.550130764371715486e-05 1.714185811579227448e-03 5.189061048440635204e-04 -1.158451545052230358e-03
2.126000000000000000e+03 1.775847554206848145e+00 1.038929843902587891e+01 -4.717556294053792953e-06 1.444252906367182732e-03 4.318606224842369556e-04 -7.049721316434442997e-04
2.127000000000000000e+03 2.488611698150634766e+00 1.107659053802490234e+01 6.509102968266233802e-05 1.284187426790595055e-03 4.047835536766797304e-04 -9.812470525503158569e-04
2.128000000000000000e+03 3.899500131607055664e+00 1.409736919403076172e+01 7.736881343589629978e-06 7.738903514109551907e-04 2.344881650060415268e-04 -1.544561586342751980e-03
2.129000000000000000e+03 2.484662532806396484e+00 1.429357719421386719e+01 -7.865895895520225167e-05 2.185055287554860115e-03 6.319189560599625111e-04 -1.279002870433032513e-03
2.130000000000000000e+03 2.509913682937622070e+00 -1.717841148376464844e+01 -3.192590922117233276e-02 -6.822893768548965454e-02 -3.004645556211471558e-02 -2.037389576435089111e-01
2.131000000000000000e+03 2.506334781646728516e+00 -1.556776905059814453e+01 -4.632425308227539062e-02 2.343578822910785675e-02 -6.866539362818002701e-03 -1.585710644721984863e-01
2.132000000000000000e+03 1.792369961738586426e+00 -1.715899848937988281e+01 -1.768275350332260132e-02 -2.855346538126468658e-02 -1.387086603790521622e-02 -1.555751413106918335e-01
2.133000000000000000e+03 2.506770372390747070e+00 1.912579536437988281e+01 -6.789852050133049488e-04 3.197626443579792976e-03 7.555923657491803169e-04 -7.079427596181631088e-04
2.134000000000000000e+03 2.502630710601806641e+00 1.832395744323730469e+01 -8.093525684671476483e-05 3.164207795634865761e-03 9.249817812815308571e-04 -1.019985647872090340e-03
2.135000000000000000e+03 2.512513637542724609e+00 1.993192291259765625e+01 -2.769752463791519403e-04 3.196487901732325554e-03 8.758538169786334038e-04 -4.923706292174756527e-04
2.136000000000000000e+03 3.229032516479492188e+00 1.983621406555175781e+01 -1.126540126278996468e-03 1.887919381260871887e-03 2.284138026880100369e-04 -3.728084848262369633e-04
2.137000000000000000e+03 2.491059541702270508e+00 1.027482891082763672e+01 2.897689410019665956e-04 1.119274063967168331e-03 4.227129102218896151e-04 -9.246304398402571678e-04
2.138000000000000000e+03 2.494845151901245117e+00 1.671785545349121094e+01 8.391882147407159209e-05 2.875429345294833183e-03 8.878044318407773972e-04 -1.292246044613420963e-03
2.139000000000000000e+03 2.498959541320800781e+00 1.752372932434082031e+01 -4.306575283408164978e-04 3.013998502865433693e-03 7.750022923573851585e-04 -1.109733013436198235e-03
2.140000000000000000e+03 2.492422580718994141e+00 9.470276832580566406e+00 8.297730528283864260e-05 9.198536863550543785e-04 3.008492931257933378e-04 -7.866600062698125839e-04
2.141000000000000000e+03 1.766530513763427734e+00 6.424382686614990234e+00 1.375462452415376902e-04 5.346017424017190933e-04 2.016444050241261721e-04 -3.735419886652380228e-04
2.142000000000000000e+03 2.494333028793334961e+00 7.096608161926269531e+00 2.170941006625071168e-04 5.356930778361856937e-04 2.258361491840332747e-04 -5.481726839207112789e-04
2.143000000000000000e+03 2.577129125595092773e+00 2.787416267395019531e+01 -4.814804124180227518e-04 -3.998997155576944351e-03 -1.344143296591937542e-03 4.855755716562271118e-03
2.144000000000000000e+03 3.535783767700195312e+00 -4.419459342956542969e+00 1.961820945143699646e-02 4.020196571946144104e-02 1.794605329632759094e-02 1.011419445276260376e-01
2.145000000000000000e+03 3.255206346511840820e+00 5.489119052886962891e+00 1.443349610781297088e-04 2.274487342219799757e-04 1.115351115004159510e-04 -4.379760939627885818e-04
2.146000000000000000e+03 4.082993984222412109e+00 3.976913928985595703e+00 2.839087683241814375e-04 9.752313053468242288e-05 1.144295747508294880e-04 -3.514446143526583910e-04
2.147000000000000000e+03 2.508635520935058594e+00 -2.279345321655273438e+01 2.634499035775661469e-02 -4.485399425029754639e-01 -1.266584843397140503e-01 -2.049915343523025513e-01
2.148000000000000000e+03 2.570553541183471680e+00 2.631561088562011719e+01 -6.230809376575052738e-04 -1.458048587664961815e-03 -6.243388634175062180e-04 3.735128324478864670e-03
2.149000000000000000e+03 2.559139728546142578e+00 2.474284553527832031e+01 -6.709521403536200523e-04 5.335143650881946087e-04 -4.123132384847849607e-05 2.532134996727108955e-03
2.150000000000000000e+03 2.572669506072998047e+00 2.709660911560058594e+01 -1.416827202774584293e-03 -2.589666517451405525e-03 -1.201948150992393494e-03 4.312783479690551758e-03
2.151000000000000000e+03 3.344525098800659180e+00 2.927061653137207031e+01 -1.665293588303029537e-03 -8.224476128816604614e-03 -2.966931089758872986e-03 7.160743698477745056e-03
2.152000000000000000e+03 4.367872238159179688e+00 -4.565619468688964844e+00 2.260884642601013184e-02 1.991485804319381714e-02 1.275711134076118469e-02 1.095827892422676086e-01
2.153000000000000000e+03 2.789154291152954102e+00 -3.510571479797363281e+00 2.406947501003742218e-02 4.282004758715629578e-02 2.006685733795166016e-02 8.132185041904449463e-02
2.154000000000000000e+03 2.732742071151733398e+00 -4.337009906768798828e+00 1.433548610657453537e-02 5.813903734087944031e-02 2.174235694110393524e-02 8.936774730682373047e-02
2.155000000000000000e+03 1.943074345588684082e+00 -4.294549942016601562e+00 8.712112903594970703e-03 7.516699284315109253e-02 2.516373246908187866e-02 7.173807919025421143e-02
2.156000000000000000e+03 1.821667671203613281e+00 2.405672454833984375e+01 -2.048981841653585434e-04 3.083023009821772575e-03 8.634374244138598442e-04 1.362185575999319553e-03
2.157000000000000000e+03 2.550972700119018555e+00 2.394627571105957031e+01 -1.370102749206125736e-03 1.334880478680133820e-03 -1.056667406373890117e-05 1.987392548471689224e-03
2.158000000000000000e+03 3.217445373535156250e+00 -2.360757446289062500e+01 4.733776673674583435e-02 -4.712636768817901611e-01 -1.271777749061584473e-01 -2.261206358671188354e-01
2.159000000000000000e+03 1.850161910057067871e+00 -2.596891403198242188e+01 1.985336653888225555e-02 -6.600604057312011719e-01 -1.920621097087860107e-01 -1.025539264082908630e-01
2.160000000000000000e+03 2.507341384887695312e+00 -2.199374961853027344e+01 2.109014242887496948e-02 -3.976653218269348145e-01 -1.129725575447082520e-01 -2.169996798038482666e-01
2.161000000000000000e+03 1.806393623352050781e+00 -2.358194160461425781e+01 1.689139753580093384e-02 -5.257255434989929199e-01 -1.526502370834350586e-01 -1.452009677886962891e-01
2.162000000000000000e+03 2.646042823791503906e+00 -2.752725982666015625e+01 3.219147026538848877e-02 -6.595374941825866699e-01 -1.882038116455078125e-01 -1.023901700973510742e-01
2.163000000000000000e+03 2.620774984359741211e+00 -2.673926353454589844e+01 3.484573587775230408e-02 -6.353954672813415527e-01 -1.801649183034896851e-01 -1.178783178329467773e-01
2.164000000000000000e+03 2.777812004089355469e+00 -2.993498039245605469e+01 2.746462263166904449e-02 -7.073744535446166992e-01 -2.039729356765747070e-01 -5.743416771292686462e-02
2.165000000000000000e+03 2.102835893630981445e+00 3.366695022583007812e+01 4.444823134690523148e-04 -1.523093227297067642e-02 -4.435935057699680328e-03 5.219361744821071625e-03
2.166000000000000000e+03 2.791552543640136719e+00 3.520521545410156250e+01 5.971633945591747761e-04 -1.964762806892395020e-02 -5.715139675885438919e-03 6.041164509952068329e-03
2.167000000000000000e+03 3.652156352996826172e+00 -3.068353080749511719e+01 3.972513601183891296e-02 -6.439743638038635254e-01 -1.812747716903686523e-01 -5.729742348194122314e-02
2.168000000000000000e+03 2.721276044845581055e+00 -2.912808799743652344e+01 2.762482501566410065e-02 -6.950472593307495117e-01 -2.002267241477966309e-01 -7.066281139850616455e-02
2.169000000000000000e+03 2.027267456054687500e+00 -3.079288101196289062e+01 1.417361292988061905e-02 -7.915208935737609863e-01 -2.332041859626770020e-01 -3.191929310560226440e-02
2.170000000000000000e+03 3.023408651351928711e+00 -3.322042465209960938e+01 1.254232227802276611e-02 -7.297680377960205078e-01 -2.151677161455154419e-01 -1.630236953496932983e-02
2.171000000000000000e+03 2.841432332992553711e+00 3.186475944519042969e+01 -5.726164090447127819e-04 -1.280310750007629395e-02 -4.012716934084892273e-03 6.928750313818454742e-03
2.172000000000000000e+03 2.960365295410156250e+00 3.355536651611328125e+01 9.497295832261443138e-05 -1.686403155326843262e-02 -5.030717235058546066e-03 6.945443339645862579e-03
2.173000000000000000e+03 2.940472126007080078e+00 3.440461349487304688e+01 7.695753010921180248e-04 -1.828822679817676544e-02 -5.255595315247774124e-03 6.835209205746650696e-03
2.174000000000000000e+03 2.758355617523193359e+00 3.104275703430175781e+01 9.147558739641681314e-05 -1.087266579270362854e-02 -3.234357107430696487e-03 6.817823741585016251e-03
2.175000000000000000e+03 2.916751623153686523e+00 3.270194625854492188e+01 5.060647381469607353e-04 -1.482975110411643982e-02 -4.297106061130762100e-03 7.322237361222505569e-03
2.176000000000000000e+03 2.956398487091064453e+00 -3.488755416870117188e+01 6.819355301558971405e-03 -7.365724444389343262e-01 -2.189259231090545654e-01 -6.375927012413740158e-03
2.177000000000000000e+03 3.000499963760375977e+00 -3.403808975219726562e+01 6.136815063655376434e-03 -7.342746257781982422e-01 -2.184413522481918335e-01 -1.042688451707363129e-02
2.178000000000000000e+03 7.079637145996093750e+01 -1.872828102111816406e+01 1.466949224472045898e+00 9.314937591552734375e+00 3.234565973281860352e+00 5.469424724578857422e-01
2.179000000000000000e+03 1.674582290649414062e+01 1.385441398620605469e+01 1.241974998265504837e-03 2.485767705366015434e-03 1.118322834372520447e-03 2.572915051132440567e-03
2.180000000000000000e+03 1.065657496452331543e+00 4.195930004119873047e+00 6.574997678399085999e-05 2.363165549468249083e-04 9.061996388481929898e-05 -1.384092029184103012e-04
2.181000000000000000e+03 4.826681518554687500e+01 -2.773159599304199219e+01 1.747700423002243042e-01 1.077488422393798828e+00 3.756775557994842529e-01 -4.838760793209075928e-01
2.182000000000000000e+03 7.022859954833984375e+01 -1.784080886840820312e+01 1.204932332038879395e+00 9.838994026184082031e+00 3.313177824020385742e+00 4.009838104248046875e-01
2.183000000000000000e+03 6.950853729248046875e+01 -1.765225601196289062e+01 1.095497727394104004e+00 1.063803672790527344e+01 3.520060300827026367e+00 6.449676305055618286e-02
2.184000000000000000e+03 1.341915702819824219e+01 -2.644978141784667969e+01 3.532794415950775146e-01 2.106889635324478149e-01 1.691905260086059570e-01 -2.755538523197174072e-01
2.185000000000000000e+03 5.972196960449218750e+01 2.397330856323242188e+01 -1.574294090270996094e+00 -8.964625746011734009e-02 -4.991821050643920898e-01 -1.568149328231811523e-01
2.186000000000000000e+03 5.877455902099609375e+01 2.577114105224609375e+01 -6.437335610389709473e-01 1.005079373717308044e-01 -1.629676967859268188e-01 -1.435864716768264771e-01
2.187000000000000000e+03 3.775984573364257812e+01 -2.360539817810058594e+01 2.752648480236530304e-02 3.626635670661926270e-02 1.913785375654697418e-02 1.606421768665313721e-01
2.188000000000000000e+03 3.821488571166992188e+01 -2.118998718261718750e+01 1.039032489061355591e-01 1.140730828046798706e-01 6.539289653301239014e-02 3.066447190940380096e-02
2.189000000000000000e+03 4.478065872192382812e+01 -1.975433158874511719e+01 3.071542382240295410e-01 2.343047857284545898e+00 7.950606346130371094e-01 -8.236765116453170776e-02
2.190000000000000000e+03 4.332169342041015625e+01 1.193772506713867188e+01 -4.257549718022346497e-02 -4.172540735453367233e-03 -1.402441132813692093e-02 1.944264164194464684e-03
2.191000000000000000e+03 6.330209732055664062e+01 5.194014549255371094e+00 6.591061353683471680e-01 2.141452312469482422e+00 8.401675224304199219e-01 1.179075598716735840e+00
2.192000000000000000e+03 1.989314651489257812e+01 -5.550717830657958984e+00 -3.700929880142211914e-01 8.064316958189010620e-02 -8.683494478464126587e-02 -3.241887688636779785e-01
2.193000000000000000e+03 4.847313690185546875e+01 -7.876636028289794922e+00 -6.140030920505523682e-02 1.574523568153381348e+00 4.539369642734527588e-01 7.175288200378417969e-01
2.194000000000000000e+03 4.677518844604492188e+01 -2.875187683105468750e+01 2.005113987252116203e-03 1.178069829940795898e+00 3.540225028991699219e-01 -2.520710229873657227e-01
2.195000000000000000e+03 2.264016723632812500e+01 -1.214272689819335938e+01 2.423271350562572479e-02 1.251113265752792358e-01 4.480321332812309265e-02 -3.458928465843200684e-01
2.196000000000000000e+03 6.057931137084960938e+01 1.978383541107177734e+00 6.821745038032531738e-01 9.196385741233825684e-01 4.805439412593841553e-01 6.092041730880737305e-01
2.197000000000000000e+03 4.760520553588867188e+01 -2.833836364746093750e+01 6.679589301347732544e-02 1.140559315681457520e+00 3.622065484523773193e-01 -3.706029057502746582e-01
2.198000000000000000e+03 2.655104255676269531e+01 -5.061860561370849609e+00 -1.065591812133789062e+00 1.760161072015762329e-01 -2.668727040290832520e-01 3.706311434507369995e-02
2.199000000000000000e+03 2.655803489685058594e+01 -4.229606628417968750e+00 -9.277333617210388184e-01 1.101911962032318115e-01 -2.452626526355743408e-01 2.101236879825592041e-01
2.200000000000000000e+03 2.451442527770996094e+01 -5.156299114227294922e+00 -7.447474598884582520e-01 2.249318808317184448e-01 -1.559446752071380615e-01 -1.057418659329414368e-01
2.201000000000000000e+03 3.038121414184570312e+01 2.242288970947265625e+01 -2.362502664327621460e-01 -9.897913038730621338e-02 -1.005688160657882690e-01 1.371330171823501587e-01
2.202000000000000000e+03 1.533238887786865234e+01 -1.071857547760009766e+01 -6.576555371284484863e-01 -4.474164843559265137e-01 -3.315216302871704102e-01 -3.995733261108398438e-01
2.203000000000000000e+03 5.004137420654296875e+01 -1.155456423759460449e+00 -8.484697937965393066e-01 6.267721205949783325e-02 -2.357377707958221436e-01 3.842017948627471924e-01
2.204000000000000000e+03 4.636632156372070312e+01 -2.028052091598510742e+00 -1.066959142684936523e+00 5.126866102218627930e-01 -1.662817597389221191e-01 -6.162530928850173950e-02
2.205000000000000000e+03 3.533581161499023438e+01 1.860539054870605469e+01 -2.809194028377532959e-01 -5.495280772447586060e-02 -1.007616668939590454e-01 1.351262629032135010e-01
2.206000000000000000e+03 3.524124526977539062e+01 1.975664901733398438e+01 -2.863071560859680176e-01 -3.912313282489776611e-02 -9.762908518314361572e-02 1.247180327773094177e-01
2.207000000000000000e+03 4.794785308837890625e+01 1.254365539550781250e+01 -2.270204946398735046e-02 -7.530403323471546173e-03 -9.069735184311866760e-03 -1.123465877026319504e-02
2.208000000000000000e+03 4.720728683471679688e+01 1.260277175903320312e+01 -2.525508590042591095e-02 -1.197751238942146301e-02 -1.116977911442518234e-02 -1.512687653303146362e-02
2.209000000000000000e+03 4.563392639160156250e+01 -1.902562499046325684e+00 -1.096053838729858398e+00 4.790189266204833984e-01 -1.851104944944381714e-01 -1.838076114654541016e-01
2.210000000000000000e+03 4.845695972442626953e+00 -5.702797412872314453e+00 -5.095323547720909119e-03 1.082678325474262238e-02 1.719437772408127785e-03 1.126748546957969666e-01
2.211000000000000000e+03 5.376502037048339844e+00 -3.573999643325805664e+00 5.407390370965003967e-02 -2.098892582580447197e-03 1.559250336140394211e-02 1.033585742115974426e-01
2.212000000000000000e+03 6.326615810394287109e+00 -4.163452148437500000e+00 4.638579115271568298e-02 -2.375555224716663361e-02 6.789072416722774506e-03 1.032288745045661926e-01
2.213000000000000000e+03 7.081656932830810547e+00 -4.117306709289550781e+00 5.307899042963981628e-02 -3.737205639481544495e-02 4.712079651653766632e-03 9.591019898653030396e-02
2.214000000000000000e+03 7.835322380065917969e+00 -4.000020027160644531e+00 6.437058746814727783e-02 -5.179992690682411194e-02 3.771197982132434845e-03 8.472298830747604370e-02
2.215000000000000000e+03 4.725076675415039062e+01 -2.767571640014648438e+01 8.580016344785690308e-02 1.281100392341613770e+00 4.100701808929443359e-01 -3.643187880516052246e-01
2.216000000000000000e+03 1.194577312469482422e+01 -2.412885475158691406e+01 3.475311994552612305e-01 1.074808165431022644e-01 1.365036070346832275e-01 -2.612432539463043213e-01
2.217000000000000000e+03 1.284037303924560547e+01 -2.590097618103027344e+01 3.421782255172729492e-01 1.798187941312789917e-01 1.565991044044494629e-01 -2.631561458110809326e-01
2.218000000000000000e+03 6.774652099609375000e+01 -2.476784324645996094e+01 1.342355739325284958e-02 6.341670989990234375e+00 1.906528353691101074e+00 1.555451631546020508e+00
2.219000000000000000e+03 5.613069915771484375e+01 2.365571594238281250e+01 -1.539912223815917969e+00 -6.412675231695175171e-02 -4.812116920948028564e-01 -2.717417851090431213e-02
2.220000000000000000e+03 5.502425765991210938e+01 2.454481506347656250e+01 -1.056538581848144531e+00 -4.790776595473289490e-02 -3.313338756561279297e-01 1.268390268087387085e-01
2.221000000000000000e+03 1.951222229003906250e+01 4.828082561492919922e+00 1.058616689988411963e-04 1.780753664206713438e-04 8.518111280864104629e-05 7.441606430802494287e-05
2.222000000000000000e+03 6.487644195556640625e+01 -2.667002868652343750e+01 1.377262473106384277e-01 2.602821111679077148e+00 8.221641778945922852e-01 1.136622905731201172e+00
2.223000000000000000e+03 2.086973571777343750e+01 1.604516267776489258e+00 -2.010918433370534331e-05 -4.456416263565188274e-06 -7.369680133706424385e-06 1.432132012268994004e-05
2.224000000000000000e+03 2.152176666259765625e+01 2.599991559982299805e+00 2.159948599000927061e-05 -1.727580456645227969e-05 1.297104518016567454e-06 -2.484312426531687379e-05
2.225000000000000000e+03 4.733988189697265625e+01 9.129219055175781250e+00 -1.111044184654019773e-04 -5.888614105060696602e-04 -2.099897537846118212e-04 5.176458507776260376e-03
2.226000000000000000e+03 4.721176147460937500e+01 7.582416057586669922e+00 9.598812321200966835e-04 3.462601307546719909e-05 2.983521553687751293e-04 3.096809377893805504e-03
2.227000000000000000e+03 4.773192977905273438e+01 -2.354448556900024414e+00 -9.853990674018859863e-01 5.337462425231933594e-01 -1.354958415031433105e-01 1.871628612279891968e-01
2.228000000000000000e+03 4.889461898803710938e+01 -6.706140041351318359e+00 -4.454043209552764893e-01 1.321687698364257812e+00 2.628850340843200684e-01 7.204026579856872559e-01
2.229000000000000000e+03 6.600998687744140625e+01 -2.661728286743164062e+01 -6.219991017132997513e-03 3.842321872711181641e+00 1.150830626487731934e+00 1.299060463905334473e+00
2.230000000000000000e+03 2.715297889709472656e+01 -3.316933059692382812e+01 3.393011689186096191e-01 6.932473927736282349e-02 1.225877702236175537e-01 -8.722853660583496094e-02
2.231000000000000000e+03 1.682825088500976562e+01 1.213528347015380859e+01 7.920060888864099979e-04 2.028395421802997589e-03 8.461204124614596367e-04 1.842073397710919380e-03
2.232000000000000000e+03 2.857678794860839844e+01 -3.441753387451171875e+01 3.160544633865356445e-01 8.149899542331695557e-02 1.192660406231880188e-01 -6.797544658184051514e-02
2.233000000000000000e+03 5.740022277832031250e+01 -7.154243469238281250e+00 -1.028972148895263672e+00 -2.354649305343627930e-01 -3.793311119079589844e-01 7.261993288993835449e-01
2.234000000000000000e+03 3.429090118408203125e+01 -6.744845867156982422e+00 -1.818541288375854492e+00 -3.492133319377899170e-01 -6.503263711929321289e-01 -3.526369631290435791e-01
2.235000000000000000e+03 1.395340633392333984e+01 -2.812249755859375000e+01 3.459677696228027344e-01 1.823975592851638794e-01 1.585095971822738647e-01 -2.371925860643386841e-01
2.236000000000000000e+03 6.944048309326171875e+01 2.341105651855468750e+01 -1.058900117874145508e+00 9.399554252624511719e+00 2.502196311950683594e+00 -5.690367221832275391e-01
2.237000000000000000e+03 6.679610443115234375e+01 2.336558151245117188e+01 -7.593859434127807617e-01 6.172444343566894531e+00 1.623917460441589355e+00 -2.365335464477539062e+00
2.238000000000000000e+03 4.248406982421875000e+01 1.166540050506591797e+01 -3.390005603432655334e-02 -1.631672261282801628e-03 -1.065951865166425705e-02 6.109634414315223694e-03
2.239000000000000000e+03 4.222017669677734375e+01 1.111090755462646484e+01 -1.333551201969385147e-02 2.076286356896162033e-03 -3.377767745405435562e-03 1.006164005957543850e-03
2.240000000000000000e+03 4.771935653686523438e+01 1.432797908782958984e+01 -6.670982390642166138e-02 -1.717221178114414215e-02 -2.516461163759231567e-02 -4.857227206230163574e-02
2.241000000000000000e+03 6.764205932617187500e+01 7.824687004089355469e+00 9.746256470680236816e-02 7.577177524566650391e+00 2.302392005920410156e+00 1.320734739303588867e+00
2.242000000000000000e+03 6.887380218505859375e+01 1.095980644226074219e+01 1.262695193290710449e+00 1.097157096862792969e+01 3.670279741287231445e+00 1.116584658622741699e+00
2.243000000000000000e+03 5.971130371093750000e+01 2.484719276428222656e+01 -9.973577260971069336e-01 -1.653723046183586121e-02 -3.041684925556182861e-01 -2.225846350193023682e-01
2.244000000000000000e+03 5.779396057128906250e+01 2.486139869689941406e+01 -1.107148885726928711e+00 -5.181406065821647644e-02 -3.476888835430145264e-01 3.293751180171966553e-02
2.245000000000000000e+03 4.988828277587890625e+01 1.824042510986328125e+01 -3.296637833118438721e-01 -8.092077076435089111e-02 -1.231753677129745483e-01 -2.209188193082809448e-01
2.246000000000000000e+03 4.884355163574218750e+01 1.758592605590820312e+01 -2.781203389167785645e-01 -2.317394502460956573e-02 -9.038829058408737183e-02 -1.657974720001220703e-01
2.247000000000000000e+03 4.355647277832031250e+01 8.537959098815917969e+00 3.906888421624898911e-03 -4.656206350773572922e-03 -2.247954253107309341e-04 -2.697272924706339836e-03
2.248000000000000000e+03 4.540738677978515625e+01 7.555748939514160156e+00 6.331321783363819122e-03 -3.676369320601224899e-03 7.964858086779713631e-04 1.342776522506028414e-04
2.249000000000000000e+03 4.841326904296875000e+01 -9.255976676940917969e+00 5.930304527282714844e-01 1.865996599197387695e+00 7.377080917358398438e-01 9.289118647575378418e-01
2.250000000000000000e+03 4.792872238159179688e+01 -9.798341751098632812e+00 7.288349866867065430e-01 2.021843194961547852e+00 8.252034187316894531e-01 9.270077943801879883e-01
2.251000000000000000e+03 1.950760269165039062e+01 -3.199710845947265625e+01 3.413451313972473145e-01 2.402235865592956543e-01 1.744706183671951294e-01 -2.122131437063217163e-01
2.252000000000000000e+03 9.261427879333496094e+00 -4.572329044342041016e+00 4.098024964332580566e-02 -8.894097059965133667e-02 -1.438821572810411453e-02 5.613268166780471802e-02
2.253000000000000000e+03 6.949623870849609375e+01 -2.150463485717773438e+01 1.754870891571044922e+00 9.560952186584472656e+00 3.394747018814086914e+00 5.569148063659667969e-01
2.254000000000000000e+03 6.862874603271484375e+01 -2.085075950622558594e+01 2.639356851577758789e+00 1.114652061462402344e+01 4.135763168334960938e+00 1.651470780372619629e+00
2.255000000000000000e+03 6.904398345947265625e+01 1.172863292694091797e+01 1.250400185585021973e+00 1.197287654876708984e+01 3.966983079910278320e+00 1.302518606185913086e+00
2.256000000000000000e+03 6.773110961914062500e+01 -2.595387458801269531e+01 -2.322973608970642090e-01 5.832332611083984375e+00 1.680010557174682617e+00 1.246663212776184082e+00
2.257000000000000000e+03 3.710510253906250000e+01 1.808142089843750000e+01 -2.603697776794433594e-01 -4.872480873018503189e-03 -7.957267761230468750e-02 1.040962114930152893e-01
2.258000000000000000e+03 3.649062728881835938e+01 1.863410949707031250e+01 -2.728812098503112793e-01 -1.592918299138545990e-02 -8.664311468601226807e-02 1.137643158435821533e-01
2.259000000000000000e+03 3.264860153198242188e+01 -6.956092834472656250e+00 -1.802207112312316895e+00 -3.889029920101165771e-01 -6.573330163955688477e-01 -2.813373804092407227e-01
2.260000000000000000e+03 3.042855644226074219e+01 -1.318457412719726562e+01 8.604339957237243652e-01 8.052463084459304810e-02 2.822875976562500000e-01 -4.135963916778564453e-01
2.261000000000000000e+03 4.113792419433593750e+01 1.443788433074951172e+01 -1.338995546102523804e-01 2.333634160459041595e-02 -3.316896408796310425e-02 2.888033166527748108e-02
2.262000000000000000e+03 4.236717605590820312e+01 1.278413009643554688e+01 -6.696403771638870239e-02 6.173967849463224411e-03 -1.823702082037925720e-02 9.474496357142925262e-03
2.263000000000000000e+03 4.124549484252929688e+01 1.301842975616455078e+01 -7.357399910688400269e-02 1.028770394623279572e-02 -1.898588985204696655e-02 1.911280676722526550e-02
2.264000000000000000e+03 6.500820159912109375e+01 2.313839149475097656e+01 -2.664946317672729492e-01 2.587341308593750000e+00 6.962539553642272949e-01 -2.120602130889892578e+00
2.265000000000000000e+03 6.432947540283203125e+01 2.424211120605468750e+01 -4.498932361602783203e-01 2.264822721481323242e+00 5.444788336753845215e-01 -1.860628366470336914e+00
2.266000000000000000e+03 2.808104705810546875e+01 -1.359545707702636719e+01 9.137848615646362305e-01 8.566792309284210205e-02 2.998358309268951416e-01 -4.105108678340911865e-01
2.267000000000000000e+03 5.227845001220703125e+01 -1.832359075546264648e+00 -4.045299291610717773e-01 2.702908590435981750e-02 -1.132502555847167969e-01 8.518279194831848145e-01
2.268000000000000000e+03 6.379463195800781250e+01 4.617501735687255859e+00 5.011211633682250977e-01 2.649820566177368164e+00 9.452825188636779785e-01 1.194696426391601562e+00
2.269000000000000000e+03 2.014235687255859375e+01 1.659173250198364258e+00 6.762147677363827825e-05 2.967309592349920422e-05 2.918837162724230438e-05 -1.000793872663052753e-05
2.270000000000000000e+03 1.681164741516113281e+01 -3.040368461608886719e+01 3.610925078392028809e-01 2.602794170379638672e-01 1.864115744829177856e-01 -2.160171121358871460e-01
2.271000000000000000e+03 3.608746337890625000e+01 -3.037667274475097656e+01 2.015599906444549561e-01 1.434444338083267212e-01 1.035013273358345032e-01 1.449747234582901001e-01
2.272000000000000000e+03 6.931168365478515625e+01 1.489013957977294922e+01 1.551860928535461426e+00 1.487800979614257812e+01 4.928961277008056641e+00 8.442022204399108887e-01
2.273000000000000000e+03 4.428627395629882812e+01 -1.865560150146484375e+01 3.442241549491882324e-01 2.128698110580444336e+00 7.418767213821411133e-01 4.243713244795799255e-02
2.274000000000000000e+03 5.075078201293945312e+01 -1.278329253196716309e+00 -6.697250008583068848e-01 -8.277862519025802612e-02 -2.257510870695114136e-01 5.146107077598571777e-01
2.275000000000000000e+03 5.078189086914062500e+01 -7.565380930900573730e-01 -8.362853527069091797e-01 -1.722908318042755127e-01 -3.025728464126586914e-01 4.629221856594085693e-01
2.276000000000000000e+03 1.682268905639648438e+01 1.644171142578125000e+01 9.269551956094801426e-04 2.118023578077554703e-03 9.134936262853443623e-04 2.855466911569237709e-03
2.277000000000000000e+03 1.738931083679199219e+01 -5.260908126831054688e+00 -2.119152098894119263e-01 -1.824767515063285828e-02 -6.904886662960052490e-02 -3.032598197460174561e-01
2.278000000000000000e+03 1.820530509948730469e+01 -5.369105815887451172e+00 -2.619579434394836426e-01 1.232558675110340118e-02 -7.488970458507537842e-02 -3.233023583889007568e-01
2.279000000000000000e+03 4.679903793334960938e+01 -2.729146003723144531e+01 9.772145748138427734e-02 1.365361690521240234e+00 4.389249384403228760e-01 -3.124038279056549072e-01
2.280000000000000000e+03 4.632275009155273438e+01 -2.536746978759765625e+01 2.713705003261566162e-01 1.776390433311462402e+00 6.143282651901245117e-01 -3.549579381942749023e-01
2.281000000000000000e+03 5.650147628784179688e+01 -3.213120651245117188e+01 -2.637155912816524506e-02 4.325924441218376160e-02 5.066306330263614655e-03 -2.830752730369567871e-01
2.282000000000000000e+03 2.505967521667480469e+01 -5.335820674896240234e+00 -8.373381495475769043e-01 2.367321848869323730e-01 -1.801817864179611206e-01 -9.153260290622711182e-02
2.283000000000000000e+03 2.315924072265625000e+01 -4.913394451141357422e+00 -5.907285809516906738e-01 1.797323971986770630e-01 -1.232988536357879639e-01 -1.412458568811416626e-01
2.284000000000000000e+03 6.249132156372070312e+01 3.547090768814086914e+00 5.732239484786987305e-01 1.753405332565307617e+00 6.979887485504150391e-01 9.140092730522155762e-01
2.285000000000000000e+03 6.314278030395507812e+01 4.074839115142822266e+00 5.435104966163635254e-01 2.192243337631225586e+00 8.207260966300964355e-01 1.034096956253051758e+00
2.286000000000000000e+03 2.526890754699707031e+01 -3.220604705810546875e+01 3.826522529125213623e-01 8.642980456352233887e-02 1.407246142625808716e-01 -1.208814680576324463e-01
2.287000000000000000e+03 2.616661071777343750e+01 -3.313677597045898438e+01 3.459150791168212891e-01 8.581659197807312012e-02 1.295195072889328003e-01 -1.047942787408828735e-01
2.288000000000000000e+03 1.240311813354492188e+01 -2.650698661804199219e+01 3.251088857650756836e-01 1.051658764481544495e-01 1.290824264287948608e-01 -2.321545928716659546e-01
2.289000000000000000e+03 6.517592620849609375e+01 2.397151565551757812e+01 -4.331316351890563965e-01 3.167764663696289062e+00 8.203899264335632324e-01 -2.154617547988891602e+00
2.290000000000000000e+03 6.434024047851562500e+01 -2.826658439636230469e+01 -1.395842134952545166e-01 2.412812471389770508e+00 6.819684505462646484e-01 9.367498755455017090e-01
2.291000000000000000e+03 6.485905456542968750e+01 -2.770474624633789062e+01 -7.072616368532180786e-02 2.797463893890380859e+00 8.180213570594787598e-01 1.042844653129577637e+00
2.292000000000000000e+03 2.017434310913085938e+01 2.289357185363769531e+01 -9.261300414800643921e-02 2.131013432517647743e-03 -2.714459784328937531e-02 3.613673523068428040e-02
2.293000000000000000e+03 1.893422317504882812e+01 2.254979515075683594e+01 -7.147401571273803711e-02 6.408078595995903015e-03 -1.951978169381618500e-02 2.230027504265308380e-02
2.294000000000000000e+03 1.785426712036132812e+01 9.635677337646484375e+00 2.397415810264647007e-04 1.489334157668054104e-03 5.187227507121860981e-04 6.562300841324031353e-04
2.295000000000000000e+03 1.791304397583007812e+01 7.111705303192138672e+00 1.250138302566483617e-04 6.419180426746606827e-04 2.300795749761164188e-04 3.876430273521691561e-04
2.296000000000000000e+03 2.235422897338867188e+01 -5.661766529083251953e+00 -5.506880879402160645e-01 1.822518110275268555e-01 -1.105308830738067627e-01 -2.494327574968338013e-01
2.297000000000000000e+03 5.684829711914062500e+01 2.482311820983886719e+01 -1.112533688545227051e+00 -1.880501955747604370e-02 -3.394016325473785400e-01 7.050441205501556396e-02
2.298000000000000000e+03 5.592590713500976562e+01 2.471168899536132812e+01 -1.081038117408752441e+00 -7.124910503625869751e-02 -3.456861674785614014e-01 1.227379292249679565e-01
2.299000000000000000e+03 6.630548095703125000e+01 6.910860061645507812e+00 3.127798140048980713e-01 5.599751472473144531e+00 1.773759484291076660e+00 1.678107857704162598e+00
2.300000000000000000e+03 1.765935897827148438e+01 7.923111915588378906e+00 -1.409245014656335115e-04 8.330210694111883640e-04 2.076289674732834101e-04 4.667446482926607132e-04
2.301000000000000000e+03 5.816437530517578125e+01 1.013624310493469238e+00 7.525969743728637695e-01 4.095170795917510986e-01 3.486342132091522217e-01 4.425683915615081787e-01
2.302000000000000000e+03 5.991717529296875000e+01 1.458724617958068848e+00 7.063062191009521484e-01 7.139404416084289551e-01 4.260739982128143311e-01 5.441278219223022461e-01
2.303000000000000000e+03 4.427931976318359375e+01 6.296767234802246094e+00 1.739393104799091816e-03 -2.418165327981114388e-03 -2.036316436715424061e-04 -1.803747611120343208e-03
2.304000000000000000e+03 7.042062377929687500e+01 -1.710743713378906250e+01 1.161464214324951172e+00 9.414303779602050781e+00 3.172730445861816406e+00 4.481138885021209717e-01
2.305000000000000000e+03 9.830727577209472656e+00 -1.743932151794433594e+01 -2.287634760141372681e-01 -4.885005950927734375e-01 -2.151792198419570923e-01 -4.425317943096160889e-01
2.306000000000000000e+03 9.958751678466796875e+00 -2.000410461425781250e+01 7.610647380352020264e-02 -3.370942473411560059e-01 -7.829632610082626343e-02 -3.901071548461914062e-01
2.307000000000000000e+03 4.526224517822265625e+01 -2.202312278747558594e+01 3.956915438175201416e-01 2.376525640487670898e+00 8.316650986671447754e-01 -2.736166715621948242e-01
2.308000000000000000e+03 4.375769042968750000e+01 -2.225831413269042969e+01 3.832608461380004883e-01 1.704085230827331543e+00 6.262038350105285645e-01 -4.752597957849502563e-02
2.309000000000000000e+03 6.640859985351562500e+01 8.043677330017089844e+00 7.099539637565612793e-01 6.167995929718017578e+00 2.063385009765625000e+00 2.104645490646362305e+00
2.310000000000000000e+03 6.696212768554687500e+01 7.450560569763183594e+00 2.309948801994323730e-01 6.744742393493652344e+00 2.092721223831176758e+00 1.598686218261718750e+00
2.311000000000000000e+03 4.470834732055664062e+01 -1.623259735107421875e+01 4.501478374004364014e-01 2.208867311477661133e+00 7.977045178413391113e-01 3.757673203945159912e-01
2.312000000000000000e+03 3.346076202392578125e+01 -6.864639282226562500e+00 -1.823364377021789551e+00 -3.728156387805938721e-01 -6.588540077209472656e-01 -3.128828406333923340e-01
2.313000000000000000e+03 1.723164939880371094e+01 9.579298019409179688e+00 -5.602496094070374966e-05 1.282643643207848072e-03 3.679856017697602510e-04 8.411434828303754330e-04
2.314000000000000000e+03 3.770852661132812500e+01 -1.868182563781738281e+01 3.592042922973632812e-01 -2.419482171535491943e-02 1.005028411746025085e-01 -2.389018833637237549e-01
2.315000000000000000e+03 5.465938949584960938e+01 -3.236054992675781250e+01 1.778233051300048828e-02 1.607102006673812866e-01 5.354775860905647278e-02 -4.316165745258331299e-01
2.316000000000000000e+03 5.592385482788085938e+01 -3.245828247070312500e+01 4.578165337443351746e-02 8.316155523061752319e-02 3.868295997381210327e-02 -3.202120363712310791e-01
2.317000000000000000e+03 2.539769554138183594e+01 2.313224983215332031e+01 -1.908617764711380005e-01 -4.825559258460998535e-02 -7.173521071672439575e-02 9.240157902240753174e-02
2.318000000000000000e+03 2.265464591979980469e+01 2.572316932678222656e+01 -8.644912391901016235e-02 -5.096260830760002136e-02 -4.122352227568626404e-02 9.417488425970077515e-02
2.319000000000000000e+03 6.965006256103515625e+01 1.979617500305175781e+01 2.428926229476928711e+00 1.228794002532958984e+01 4.415060043334960938e+00 -3.584068119525909424e-01
2.320000000000000000e+03 1.749814605712890625e+01 -1.055309486389160156e+01 -6.108984351158142090e-01 -7.001693546772003174e-02 -2.042746096849441528e-01 -4.650009870529174805e-01
2.321000000000000000e+03 1.683895492553710938e+01 -9.103338241577148438e+00 -4.243779182434082031e-01 -1.730228960514068604e-01 -1.792202442884445190e-01 -4.625504016876220703e-01
2.322000000000000000e+03 4.825284194946289062e+01 -8.416204452514648438e+00 1.438830196857452393e-01 1.678154110908508301e+00 5.466111302375793457e-01 7.379127740859985352e-01
2.323000000000000000e+03 4.882033157348632812e+01 -8.722864151000976562e+00 3.592161238193511963e-01 1.695195913314819336e+00 6.163235902786254883e-01 8.869601488113403320e-01
2.324000000000000000e+03 1.772425460815429688e+01 1.802106666564941406e+01 1.826987601816654205e-03 4.666027612984180450e-03 1.947904587723314762e-03 2.273720689117908478e-03
2.325000000000000000e+03 1.615784645080566406e+01 1.645963478088378906e+01 1.317853573709726334e-03 -1.026910904329270124e-04 3.645487595349550247e-04 2.506728749722242355e-03
2.326000000000000000e+03 3.103396797180175781e+01 -3.155264472961425781e+01 2.692547738552093506e-01 2.864209376275539398e-02 8.936905860900878906e-02 5.829315166920423508e-03
2.327000000000000000e+03 2.926327323913574219e+01 -3.252866363525390625e+01 3.116959631443023682e-01 3.891737014055252075e-02 1.051839962601661682e-01 -3.440498188138008118e-02
2.328000000000000000e+03 4.482666778564453125e+01 -1.541168212890625000e+01 5.340616703033447266e-01 2.181534528732299805e+00 8.146788477897644043e-01 4.842518568038940430e-01
2.329000000000000000e+03 4.318415832519531250e+01 9.766998291015625000e+00 3.190880874171853065e-03 -2.595618367195129395e-03 1.785787026165053248e-04 -3.110057441517710686e-03
2.330000000000000000e+03 9.646002769470214844e+00 4.413475036621093750e+00 6.376084638759493828e-04 -2.680784673430025578e-04 1.108590004150755703e-04 -1.423037974745966494e-05
2.331000000000000000e+03 6.582180023193359375e+01 2.284283828735351562e+01 -9.553364664316177368e-02 3.799144506454467773e+00 1.111083269119262695e+00 -2.531302690505981445e+00
2.332000000000000000e+03 1.932582664489746094e+01 2.466683626174926758e+00 1.002962017082609236e-04 6.636351463384926319e-05 4.999791417503729463e-05 3.546322841430082917e-05
2.333000000000000000e+03 5.750574493408203125e+01 -6.437033653259277344e+00 -7.428445219993591309e-01 -1.677213907241821289e-01 -2.731697559356689453e-01 6.981118321418762207e-01
2.334000000000000000e+03 5.703211593627929688e+01 -4.596215486526489258e-01 5.131987333297729492e-01 3.161331713199615479e-01 2.487995624542236328e-01 4.605516791343688965e-01
2.335000000000000000e+03 1.131005764007568359e+01 3.577136278152465820e+00 4.965867265127599239e-04 -2.153403038391843438e-04 8.437392534688115120e-05 1.504378305980935693e-04
2.336000000000000000e+03 6.145536041259765625e+01 -3.067373657226562500e+01 -1.972749978303909302e-01 9.837526679039001465e-01 2.359433025121688843e-01 5.149288773536682129e-01
2.337000000000000000e+03 3.633579254150390625e+01 -1.656235313415527344e+01 9.245969057083129883e-01 -3.088186979293823242e-01 1.847334653139114380e-01 -2.690263390541076660e-01
2.338000000000000000e+03 3.629007339477539062e+01 -1.514773845672607422e+01 1.078032135963439941e+00 -3.451754450798034668e-01 2.198570072650909424e-01 -1.390724927186965942e-01
2.339000000000000000e+03 1.513032436370849609e+01 3.743680238723754883e+00 1.994116901187226176e-04 1.400607925461372361e-05 6.402533472282811999e-05 3.006878832820802927e-04
2.340000000000000000e+03 1.878645896911621094e+01 4.745699882507324219e+00 -1.092344828066416085e-04 2.314371668035164475e-04 3.666080374387092888e-05 9.925336780725046992e-05
2.341000000000000000e+03 5.324892807006835938e+01 -3.281626892089843750e+01 1.064193248748779297e-01 3.002704381942749023e-01 1.220069229602813721e-01 -4.976203441619873047e-01
2.342000000000000000e+03 9.852534294128417969e+00 -1.826613616943359375e+01 -1.162798330187797546e-01 -4.618136584758758545e-01 -1.734280437231063843e-01 -4.299746453762054443e-01
2.343000000000000000e+03 9.887287139892578125e+00 -1.912430572509765625e+01 -1.266114506870508194e-02 -4.030718207359313965e-01 -1.247198879718780518e-01 -4.079341888427734375e-01
2.344000000000000000e+03 1.677159309387207031e+01 1.299479389190673828e+01 4.259910492692142725e-04 2.291838405653834343e-03 8.153488743118941784e-04 2.065020613372325897e-03
2.345000000000000000e+03 1.705618476867675781e+01 1.042455482482910156e+01 4.384591011330485344e-04 1.513790455646812916e-03 5.856748321093618870e-04 1.204705913551151752e-03
2.346000000000000000e+03 4.404363250732421875e+01 -1.946110343933105469e+01 3.520779609680175781e-01 1.999608397483825684e+00 7.055059075355529785e-01 -1.329419109970331192e-02
2.347000000000000000e+03 4.383338546752929688e+01 -2.129656982421875000e+01 3.910472095012664795e-01 1.816691160202026367e+00 6.623215079307556152e-01 -7.755900919437408447e-02
2.348000000000000000e+03 2.140766143798828125e+01 -3.256863021850585938e+01 3.551209568977355957e-01 1.959547251462936401e-01 1.653227061033248901e-01 -2.004265934228897095e-01
2.349000000000000000e+03 2.233853149414062500e+01 -3.278038787841796875e+01 3.542697131633758545e-01 1.710689961910247803e-01 1.576016098260879517e-01 -1.842638999223709106e-01
2.350000000000000000e+03 5.514215087890625000e+01 -5.979588031768798828e-01 2.864616215229034424e-01 2.653205096721649170e-01 1.655346453189849854e-01 5.433495640754699707e-01
2.351000000000000000e+03 5.659795379638671875e+01 -7.607302665710449219e+00 -1.287844300270080566e+00 -4.298268258571624756e-01 -5.153013467788696289e-01 7.820853590965270996e-01
2.352000000000000000e+03 5.722874069213867188e+01 -7.801558494567871094e+00 -1.344224214553833008e+00 -2.990355193614959717e-01 -4.929779171943664551e-01 7.754253745079040527e-01
2.353000000000000000e+03 1.500745296478271484e+01 -2.827981185913085938e+01 3.903883993625640869e-01 2.385893315076828003e-01 1.886933147907257080e-01 -2.665276229381561279e-01
2.354000000000000000e+03 3.749000167846679688e+01 -2.534495925903320312e+01 6.130860000848770142e-02 5.670684948563575745e-02 3.540463373064994812e-02 2.126639485359191895e-01
2.355000000000000000e+03 3.779768753051757812e+01 -2.218420219421386719e+01 4.961033537983894348e-02 1.150391995906829834e-02 1.833427697420120239e-02 8.050273358821868896e-02
2.356000000000000000e+03 4.517146301269531250e+01 6.854825973510742188e+00 2.811927581205964088e-03 -4.698642063885927200e-03 -5.660143797285854816e-04 1.466951507609337568e-04
2.357000000000000000e+03 4.360348510742187500e+01 7.973025321960449219e+00 6.330497562885284424e-03 -3.861730452626943588e-03 7.406301447190344334e-04 -5.610689055174589157e-03
2.358000000000000000e+03 3.194316482543945312e+01 2.187585639953613281e+01 -2.520309686660766602e-01 -9.608338028192520142e-02 -1.044343039393424988e-01 1.326893866062164307e-01
2.359000000000000000e+03 3.305044937133789062e+01 -3.068399620056152344e+01 2.221475541591644287e-01 2.808026596903800964e-02 7.506834715604782104e-02 4.783897101879119873e-02
2.360000000000000000e+03 4.956367874145507812e+01 1.997223663330078125e+01 -6.595962643623352051e-01 6.497345864772796631e-02 -1.783868521451950073e-01 -1.704815030097961426e-01
2.361000000000000000e+03 4.936715316772460938e+01 1.916327476501464844e+01 -5.293529033660888672e-01 2.857101708650588989e-02 -1.502345651388168335e-01 -2.054401934146881104e-01
2.362000000000000000e+03 7.665675354003906250e+01 4.173353195190429688e+01 6.711232708767056465e-04 7.791643142700195312e+00 2.337694168090820312e+00 -1.907625980675220490e-02
2.363000000000000000e+03 4.686249542236328125e+01 -1.110421943664550781e+01 8.563726544380187988e-01 2.186764955520629883e+00 9.129412770271301270e-01 8.927522897720336914e-01
2.364000000000000000e+03 4.563477706909179688e+01 -1.131607246398925781e+01 6.920098066329956055e-01 1.763824582099914551e+00 7.367503046989440918e-01 5.975823998451232910e-01
2.365000000000000000e+03 5.778433990478515625e+01 -1.755475625395774841e-02 6.275658607482910156e-01 3.849817216396331787e-01 3.037642836570739746e-01 4.289201796054840088e-01
2.366000000000000000e+03 5.875367355346679688e+01 2.485816574096679688e+01 -1.085128903388977051e+00 1.587941683828830719e-02 -3.207748532295227051e-01 -9.953344613313674927e-02
2.367000000000000000e+03 6.102401351928710938e+01 -3.175934028625488281e+01 2.178232651203870773e-03 9.390252828598022461e-01 2.823610603809356689e-01 4.646960496902465820e-01
2.368000000000000000e+03 4.429116058349609375e+01 -2.179249000549316406e+01 3.991909921169281006e-01 1.930956244468688965e+00 6.990441679954528809e-01 -1.133877635002136230e-01
2.369000000000000000e+03 6.498830413818359375e+01 -3.119013023376464844e+01 -1.346403807401657104e-01 3.105147838592529297e+00 8.911522626876831055e-01 8.528760671615600586e-01
2.370000000000000000e+03 2.330198287963867188e+01 -3.300956344604492188e+01 3.483159244060516357e-01 1.531127393245697021e-01 1.504286080598831177e-01 -1.642045080661773682e-01
2.371000000000000000e+03 5.611740112304687500e+01 -7.304474353790283203e+00 -1.115373134613037109e+00 -4.797461032867431641e-01 -4.785357713699340820e-01 8.326469659805297852e-01
2.372000000000000000e+03 3.987723922729492188e+01 -4.205252647399902344e+00 -1.943367362022399902e+00 -5.764555335044860840e-01 -7.559468746185302734e-01 -6.459385156631469727e-01
2.373000000000000000e+03 2.074036407470703125e+01 -5.624276161193847656e+00 -4.298304617404937744e-01 1.160362139344215393e-01 -9.413827210664749146e-02 -3.013545870780944824e-01
2.374000000000000000e+03 2.156355857849121094e+01 -5.654950141906738281e+00 -4.809241890907287598e-01 1.466392576694488525e-01 -1.002854779362678528e-01 -2.780359983444213867e-01
2.375000000000000000e+03 2.047751998901367188e+01 -3.231941986083984375e+01 3.476798832416534424e-01 2.165063321590423584e-01 1.692558676004409790e-01 -2.064187824726104736e-01
2.376000000000000000e+03 7.024179077148437500e+01 1.813091087341308594e+01 2.230070829391479492e+00 1.292675876617431641e+01 4.547049045562744141e+00 -5.096648335456848145e-01
2.377000000000000000e+03 5.279664230346679688e+01 -2.515630960464477539e+00 -3.255822062492370605e-01 6.225916370749473572e-02 -7.899691164493560791e-02 9.918686151504516602e-01
2.378000000000000000e+03 5.562682723999023438e+01 -6.914185047149658203e+00 -9.284790754318237305e-01 -5.193731188774108887e-01 -4.343556761741638184e-01 8.713954687118530273e-01
2.379000000000000000e+03 1.314423465728759766e+01 -1.131829833984375000e+01 -6.034695506095886230e-01 -5.516245365142822266e-01 -3.465282320976257324e-01 -2.961874008178710938e-01
2.380000000000000000e+03 1.410100746154785156e+01 -1.158308601379394531e+01 -7.669625878334045410e-01 -5.768510699272155762e-01 -4.031440913677215576e-01 -4.018652141094207764e-01
2.381000000000000000e+03 6.857336425781250000e+01 -1.107637023925781250e+01 -1.516029596328735352e+00 6.286538124084472656e+00 1.431152582168579102e+00 -5.839039087295532227e-01
2.382000000000000000e+03 6.778157806396484375e+01 -1.105718135833740234e+01 -1.572893381118774414e+00 5.393106460571289062e+00 1.146064043045043945e+00 -8.547936677932739258e-01
2.383000000000000000e+03 6.993247222900390625e+01 1.409280872344970703e+01 1.674449324607849121e+00 1.308322715759277344e+01 4.427302837371826172e+00 4.911790490150451660e-01
2.384000000000000000e+03 4.937583160400390625e+01 -7.604686737060546875e+00 -8.826519548892974854e-02 1.419778704643249512e+00 3.994540572166442871e-01 8.546338081359863281e-01
2.385000000000000000e+03 3.227292633056640625e+01 -3.212728881835937500e+01 2.714862525463104248e-01 4.855285957455635071e-02 9.601173549890518188e-02 2.686468511819839478e-02
2.386000000000000000e+03 4.504272842407226562e+01 -1.370363235473632812e+01 7.095674276351928711e-01 2.029727458953857422e+00 8.217884898185729980e-01 6.249509453773498535e-01
2.387000000000000000e+03 2.965926170349121094e+01 -3.325522232055664062e+01 3.107281029224395752e-01 5.377929657697677612e-02 1.093522235751152039e-01 -3.752137348055839539e-02
2.388000000000000000e+03 1.112757301330566406e+01 -2.277042579650878906e+01 3.169758915901184082e-01 -4.013847559690475464e-02 8.305121958255767822e-02 -2.839373052120208740e-01
2.389000000000000000e+03 1.689212417602539062e+01 -3.200634765625000000e+01 2.649312019348144531e-01 2.271079123020172119e-01 1.476117372512817383e-01 -1.677122712135314941e-01
2.390000000000000000e+03 6.784204101562500000e+01 8.973396301269531250e+00 5.068252682685852051e-01 8.568176269531250000e+00 2.722500324249267578e+00 1.666341423988342285e+00
2.391000000000000000e+03 6.825027465820312500e+01 9.362915992736816406e+00 4.773881733417510986e-01 9.333745002746582031e+00 2.943339824676513672e+00 1.328080534934997559e+00
2.392000000000000000e+03 3.525474548339843750e+01 -2.977902221679687500e+01 1.914395689964294434e-01 6.963523477315902710e-02 7.832244038581848145e-02 1.167028918862342834e-01
2.393000000000000000e+03 3.641541671752929688e+01 -2.822718811035156250e+01 1.466738879680633545e-01 7.634712755680084229e-02 6.690630316734313965e-02 1.702246814966201782e-01
2.394000000000000000e+03 3.331942749023437500e+01 -3.244583511352539062e+01 2.701307237148284912e-01 7.233183830976486206e-02 1.027387678623199463e-01 4.456127062439918518e-02
2.395000000000000000e+03 1.327819633483886719e+01 -1.044383621215820312e+01 -4.819332957267761230e-01 -4.850943088531494141e-01 -2.901082932949066162e-01 -2.422031164169311523e-01
2.396000000000000000e+03 6.862602233886718750e+01 -1.188937568664550781e+01 -1.356474995613098145e+00 6.745697975158691406e+00 1.616766810417175293e+00 -4.534824788570404053e-01
2.397000000000000000e+03 5.089395904541015625e+01 -3.034416580200195312e+01 -5.019053816795349121e-02 5.993462800979614258e-01 1.647467166185379028e-01 -4.505376815795898438e-01
2.398000000000000000e+03 3.031730842590332031e+01 -6.488019943237304688e+00 -1.903429269790649414e+00 -3.732948601245880127e-01 -6.830172538757324219e-01 -2.294232994318008423e-01
2.399000000000000000e+03 3.730988311767578125e+01 -2.632864189147949219e+01 9.279523789882659912e-02 8.440300822257995605e-02 5.315947532653808594e-02 2.174079269170761108e-01
2.400000000000000000e+03 3.053248023986816406e+01 -3.280969619750976562e+01 2.975487411022186279e-01 4.902871698141098022e-02 1.039732322096824646e-01 -1.739647798240184784e-02
2.401000000000000000e+03 4.517817687988281250e+01 1.077988719940185547e+01 -1.231656782329082489e-02 -1.084501482546329498e-02 -6.948474328964948654e-03 -3.827857552096247673e-03
2.402000000000000000e+03 4.357463455200195312e+01 9.117452621459960938e+00 4.302710294723510742e-03 -4.670171067118644714e-03 -1.102382448152638972e-04 -4.400537349283695221e-03
2.403000000000000000e+03 4.038016510009765625e+01 -5.606120586395263672e+00 -1.329597115516662598e+00 -2.039983421564102173e-01 -4.600786566734313965e-01 -3.028512299060821533e-01
2.404000000000000000e+03 4.675489807128906250e+01 1.073044109344482422e+01 -2.458673203364014626e-03 -9.579625912010669708e-03 -3.611489897593855858e-03 1.467839232645928860e-03
2.405000000000000000e+03 6.932160186767578125e+01 -2.081500625610351562e+01 2.056912660598754883e+00 1.019998264312744141e+01 3.677068710327148438e+00 9.006598591804504395e-01
2.406000000000000000e+03 7.013084411621093750e+01 -1.860588073730468750e+01 1.342166781425476074e+00 1.009741878509521484e+01 3.431875705718994141e+00 6.045331954956054688e-01
2.407000000000000000e+03 3.934243392944335938e+01 -5.293932914733886719e+00 -1.612227320671081543e+00 -4.788909852504730225e-01 -6.273354887962341309e-01 -5.039561390876770020e-01
2.408000000000000000e+03 4.011201095581054688e+01 -4.914837837219238281e+00 -1.604709506034851074e+00 -3.732980787754058838e-01 -5.934022665023803711e-01 -4.309616088867187500e-01
2.409000000000000000e+03 7.006418609619140625e+01 1.567978382110595703e+01 1.577876687049865723e+00 1.369657802581787109e+01 4.582336425781250000e+00 2.459613829851150513e-01
2.410000000000000000e+03 4.965955352783203125e+01 2.082061767578125000e+01 -7.599372863769531250e-01 1.028428971767425537e-01 -1.971283257007598877e-01 -1.007282137870788574e-01
2.411000000000000000e+03 1.117331123352050781e+01 -1.322598648071289062e+01 -6.045864224433898926e-01 -5.707045793533325195e-01 -3.525873124599456787e-01 -3.054448962211608887e-01
2.412000000000000000e+03 4.605348968505859375e+01 -2.446209526062011719e+01 3.862388134002685547e-01 1.994147658348083496e+00 7.141159772872924805e-01 -3.611542880535125732e-01
2.413000000000000000e+03 1.553515815734863281e+01 -2.898061370849609375e+01 3.873625099658966064e-01 2.453147768974304199e-01 1.898031830787658691e-01 -2.480895072221755981e-01
2.414000000000000000e+03 5.549193191528320312e+01 -1.207560658454895020e+00 1.907092630863189697e-01 2.330307513475418091e-01 1.271219998598098755e-01 6.206844449043273926e-01
2.415000000000000000e+03 3.549706649780273438e+01 -3.114461517333984375e+01 2.227489203214645386e-01 1.341937035322189331e-01 1.070827841758728027e-01 1.192575842142105103e-01
2.416000000000000000e+03 1.020563602447509766e+01 -1.566150760650634766e+01 -4.494816660881042480e-01 -5.619539022445678711e-01 -3.034306764602661133e-01 -4.115539193153381348e-01
2.417000000000000000e+03 6.927316284179687500e+01 -1.537659645080566406e+01 8.022693395614624023e-01 9.236374855041503906e+00 3.011593103408813477e+00 5.638088914565742016e-04
2.418000000000000000e+03 6.507760620117187500e+01 -1.106725025177001953e+01 -1.634690403938293457e+00 1.287669301033020020e+00 -1.041063144803047180e-01 -6.539155840873718262e-01
2.419000000000000000e+03 5.403289413452148438e+01 -1.816621184349060059e+00 -1.233960464596748352e-01 1.144211366772651672e-01 -2.692474052309989929e-03 8.467407822608947754e-01
2.420000000000000000e+03 2.206616973876953125e+01 -1.126500320434570312e+01 -1.752873659133911133e-01 1.659218817949295044e-01 -2.809644443914294243e-03 -3.772124648094177246e-01
2.421000000000000000e+03 4.462927246093750000e+01 -2.243154335021972656e+01 4.103054106235504150e-01 2.002292633056640625e+00 7.237794399261474609e-01 -1.394901126623153687e-01
2.422000000000000000e+03 4.514721298217773438e+01 -2.390997123718261719e+01 3.760235011577606201e-01 1.905610799789428711e+00 6.844902634620666504e-01 -1.748928576707839966e-01
2.423000000000000000e+03 1.254804897308349609e+01 -1.137156772613525391e+01 -5.821837186813354492e-01 -5.289513468742370605e-01 -3.333405256271362305e-01 -2.507386505603790283e-01
2.424000000000000000e+03 1.179279708862304688e+01 -1.191119194030761719e+01 -5.748931169509887695e-01 -5.377827286720275879e-01 -3.338027596473693848e-01 -2.463730871677398682e-01
2.425000000000000000e+03 4.802016830444335938e+01 -2.913112068176269531e+01 2.355427667498588562e-02 1.025058150291442871e+00 3.145837187767028809e-01 -3.771476745605468750e-01
2.426000000000000000e+03 4.935266876220703125e+01 -3.077098274230957031e+01 -2.512433379888534546e-02 7.903166413307189941e-01 2.295576930046081543e-01 -4.215111136436462402e-01
2.427000000000000000e+03 7.072234344482421875e+01 -1.644546127319335938e+01 9.983451366424560547e-01 9.064940452575683594e+00 3.018985748291015625e+00 5.655947923660278320e-01
2.428000000000000000e+03 4.306899642944335938e+01 -3.157167196273803711e+00 -1.431595802307128906e+00 3.287574350833892822e-01 -3.308515250682830811e-01 -4.082193076610565186e-01
2.429000000000000000e+03 6.957424163818359375e+01 -1.250470542907714844e+01 -1.027488946914672852e+00 7.617322921752929688e+00 1.976950168609619141e+00 7.381468266248703003e-02
2.430000000000000000e+03 6.919414520263671875e+01 -1.351886367797851562e+01 -5.657228827476501465e-01 7.937033176422119141e+00 2.211393117904663086e+00 6.349900364875793457e-02
2.431000000000000000e+03 5.862468338012695312e+01 -3.241689682006835938e+01 1.392904669046401978e-01 2.953318655490875244e-01 1.303866952657699585e-01 4.694055765867233276e-02
2.432000000000000000e+03 6.228611373901367188e+01 -3.224211120605468750e+01 1.098957061767578125e-01 1.691307067871093750e+00 5.403608083724975586e-01 6.686095595359802246e-01
2.433000000000000000e+03 1.641088485717773438e+01 -1.070238971710205078e+01 -6.782500743865966797e-01 -3.398555815219879150e-01 -3.054316937923431396e-01 -4.624293446540832520e-01
2.434000000000000000e+03 2.818268013000488281e+01 -6.099829196929931641e+00 -1.542007565498352051e+00 -1.590554416179656982e-02 -4.673739075660705566e-01 -1.531919091939926147e-01
2.435000000000000000e+03 2.730075645446777344e+01 -5.084360122680664062e+00 -1.230169892311096191e+00 8.401116728782653809e-02 -3.438476324081420898e-01 9.314511716365814209e-02
2.436000000000000000e+03 1.789575386047363281e+01 2.535897016525268555e+00 1.240064884768798947e-04 1.093137907446362078e-04 6.999608740443363786e-05 1.196108205476775765e-04
2.437000000000000000e+03 4.205057525634765625e+01 -2.431267499923706055e+00 -1.504478931427001953e+00 -8.160219341516494751e-02 -4.758243262767791748e-01 -6.467204093933105469e-01
2.438000000000000000e+03 2.154828453063964844e+01 1.582555413246154785e+00 3.769435716094449162e-05 2.315104757144581527e-05 1.825362232921179384e-05 -1.587600127095356584e-05
2.439000000000000000e+03 2.142796134948730469e+01 2.153242826461791992e+00 -1.045573117153253406e-05 -3.355802618898451328e-05 -1.320412684435723349e-05 1.768330184859223664e-05
2.440000000000000000e+03 2.780997276306152344e+01 2.357987022399902344e+01 -1.838259100914001465e-01 -7.988127321004867554e-02 -7.911215722560882568e-02 1.265796422958374023e-01
2.441000000000000000e+03 1.005543518066406250e+01 -2.090063667297363281e+01 1.667169928550720215e-01 -2.704204618930816650e-01 -3.111103549599647522e-02 -3.705479502677917480e-01
2.442000000000000000e+03 9.342760086059570312e+00 -2.179546546936035156e+01 2.154551148414611816e-01 -2.827720940113067627e-01 -2.019509300589561462e-02 -3.745024204254150391e-01
2.443000000000000000e+03 5.712374114990234375e+01 -3.203071975708007812e+01 -4.748760536313056946e-02 6.413663923740386963e-02 4.994709976017475128e-03 -1.724709272384643555e-01
2.444000000000000000e+03 5.785736846923828125e+01 -3.211307144165039062e+01 -1.722873561084270477e-02 2.955264411866664886e-02 3.697172971442341805e-03 -8.629700541496276855e-02
2.445000000000000000e+03 1.023366641998291016e+01 -2.361808776855468750e+01 3.123136758804321289e-01 -1.522140949964523315e-01 4.802988097071647644e-02 -2.832478880882263184e-01
2.446000000000000000e+03 1.111298656463623047e+01 -2.373629570007324219e+01 3.408945500850677490e-01 -2.360218204557895660e-02 9.518770873546600342e-02 -2.642874419689178467e-01
2.447000000000000000e+03 4.509068679809570312e+01 -1.275910949707031250e+01 7.440135478973388672e-01 1.836608290672302246e+00 7.741865515708923340e-01 6.158240437507629395e-01
2.448000000000000000e+03 4.494299697875976562e+01 -1.457348537445068359e+01 6.170662045478820801e-01 2.124564886093139648e+00 8.224893212318420410e-01 5.645681023597717285e-01
2.449000000000000000e+03 1.084538745880126953e+01 -1.507985782623291016e+01 -5.365831255912780762e-01 -6.753168702125549316e-01 -3.635700047016143799e-01 -4.187737405300140381e-01
2.450000000000000000e+03 1.024848937988281250e+01 -1.454897022247314453e+01 -5.216801762580871582e-01 -5.045123100280761719e-01 -3.078577518463134766e-01 -3.494294285774230957e-01
2.451000000000000000e+03 4.536999893188476562e+01 -2.471098136901855469e+01 3.015381693840026855e-01 1.798629641532897949e+00 6.300503611564636230e-01 -1.710556745529174805e-01
2.452000000000000000e+03 6.160442733764648438e+01 2.474418258666992188e+01 -7.911077141761779785e-01 3.904752731323242188e-01 -1.201897338032722473e-01 -7.222933173179626465e-01
2.453000000000000000e+03 6.065972900390625000e+01 2.481100082397460938e+01 -8.995516300201416016e-01 1.833551228046417236e-01 -2.148589640855789185e-01 -4.590662717819213867e-01
2.454000000000000000e+03 4.132864379882812500e+01 -2.192549896240234375e+01 2.802404463291168213e-01 9.904145598411560059e-01 3.811964988708496094e-01 7.079488784074783325e-02
2.455000000000000000e+03 3.609531784057617188e+01 -7.075893878936767578e+00 -1.416090726852416992e+00 -3.542218208312988281e-01 -5.310937762260437012e-01 -3.859487771987915039e-01
2.456000000000000000e+03 3.465671539306640625e+01 -1.429195594787597656e+01 1.118311882019042969e+00 -1.510336995124816895e-01 2.901834547519683838e-01 -5.098656564950942993e-02
2.457000000000000000e+03 3.115364074707031250e+01 -7.771534442901611328e+00 -1.275591373443603516e+00 -3.589276075363159180e-01 -4.903557002544403076e-01 -3.309867084026336670e-01
2.458000000000000000e+03 2.807672119140625000e+01 -1.285711193084716797e+01 6.236869692802429199e-01 8.721327781677246094e-02 2.132700681686401367e-01 -4.680162072181701660e-01
2.459000000000000000e+03 1.724200248718261719e+01 1.885641860961914062e+01 -6.063795648515224457e-03 1.416981336660683155e-03 -1.394044258631765842e-03 -1.174753648228943348e-03
2.460000000000000000e+03 2.179657173156738281e+01 2.458745384216308594e+01 -9.953773766756057739e-02 -3.328515216708183289e-02 -3.984686732292175293e-02 7.732515782117843628e-02
2.461000000000000000e+03 6.374618911743164062e+01 -9.905954360961914062e+00 -1.357808947563171387e+00 6.703471541404724121e-01 -2.062385380268096924e-01 -1.217720806598663330e-01
2.462000000000000000e+03 6.881530761718750000e+01 -2.344585609436035156e+01 3.262633085250854492e-01 8.186395645141601562e+00 2.553797483444213867e+00 1.024334073066711426e+00
2.463000000000000000e+03 2.365188407897949219e+01 2.449272537231445312e+01 -1.181462705135345459e-01 -5.153108388185501099e-02 -5.090320482850074768e-02 9.138639271259307861e-02
2.464000000000000000e+03 2.272733306884765625e+01 2.455762863159179688e+01 -1.095665171742439270e-01 -4.232483729720115662e-02 -4.556740447878837585e-02 8.434494584798812866e-02
2.465000000000000000e+03 2.962611007690429688e+01 -6.561424732208251953e+00 -1.726963520050048828e+00 -2.811518609523773193e-01 -6.024346351623535156e-01 -2.544742524623870850e-01
2.466000000000000000e+03 2.969038581848144531e+01 -1.233673667907714844e+01 5.007139444351196289e-01 4.904970154166221619e-02 1.649290919303894043e-01 -4.578032791614532471e-01
2.467000000000000000e+03 2.896012496948242188e+01 -6.669170379638671875e+00 -1.523940801620483398e+00 -1.743452399969100952e-01 -5.094857811927795410e-01 -3.168548047542572021e-01
2.468000000000000000e+03 2.856624221801757812e+01 2.358017539978027344e+01 -1.850230246782302856e-01 -8.884627372026443481e-02 -8.216079324483871460e-02 1.323085725307464600e-01
2.469000000000000000e+03 4.840093231201171875e+01 -2.579824686050415039e+00 -9.229310750961303711e-01 5.224348902702331543e-01 -1.201488599181175232e-01 3.220329284667968750e-01
2.470000000000000000e+03 3.696877288818359375e+01 -1.847417449951171875e+01 3.473900258541107178e-01 -2.176149338483810425e-01 3.893252834677696228e-02 -2.556135952472686768e-01
2.471000000000000000e+03 5.232480239868164062e+01 -3.232224273681640625e+01 2.936027199029922485e-02 3.860417902469635010e-01 1.246206238865852356e-01 -5.102318525314331055e-01
2.472000000000000000e+03 3.711008834838867188e+01 -1.589419746398925781e+01 9.606706500053405762e-01 -2.865843176841735840e-01 2.022258937358856201e-01 -2.014053910970687866e-01
2.473000000000000000e+03 3.699221801757812500e+01 -1.650712585449218750e+01 8.964309692382812500e-01 -2.814810276031494141e-01 1.844849884510040283e-01 -2.895633280277252197e-01
2.474000000000000000e+03 6.599818420410156250e+01 2.367262649536132812e+01 -4.912451207637786865e-01 4.689509391784667969e+00 1.259479284286499023e+00 -2.577619075775146484e+00
2.475000000000000000e+03 1.954060173034667969e+01 2.284574508666992188e+01 -8.129008114337921143e-02 3.580251708626747131e-03 -2.331294864416122437e-02 3.058695234358310699e-02
2.476000000000000000e+03 6.909120941162109375e+01 2.246630477905273438e+01 -6.541704535484313965e-01 9.929418563842773438e+00 2.782574415206909180e+00 -7.024635672569274902e-01
2.477000000000000000e+03 5.058508300781250000e+01 2.277544212341308594e+01 -9.066897630691528320e-01 1.198265552520751953e-01 -2.360589653253555298e-01 9.899100661277770996e-02
2.478000000000000000e+03 5.066662597656250000e+01 2.172787666320800781e+01 -9.234713912010192871e-01 6.849828362464904785e-02 -2.564919292926788330e-01 -3.508428484201431274e-02
2.479000000000000000e+03 5.258628082275390625e+01 2.287741661071777344e+01 -1.118871331214904785e+00 -3.437076881527900696e-02 -3.459726572036743164e-01 6.318271905183792114e-02
2.480000000000000000e+03 5.237474060058593750e+01 2.390896415710449219e+01 -9.517645239830017090e-01 -1.649147085845470428e-02 -2.904767990112304688e-01 1.980574280023574829e-01
2.481000000000000000e+03 2.990362644195556641e+00 -3.952593231201171875e+01 -4.165583755820989609e-03 -7.294592261314392090e-01 -2.200874388217926025e-01 -1.805007690563797951e-03
2.482000000000000000e+03 7.663967132568359375e+01 -3.987871170043945312e+01 -3.204060718417167664e-02 7.953309059143066406e+00 2.376380443572998047e+00 -9.227532893419265747e-02
2.483000000000000000e+03 7.729528808593750000e+01 -3.815076446533203125e+01 -4.950436297804117203e-03 8.169941902160644531e+00 2.449497461318969727e+00 -1.089146640151739120e-02
2.484000000000000000e+03 4.835476875305175781e+00 3.778970336914062500e+01 4.246048163622617722e-03 -2.826826646924018860e-02 -7.206665351986885071e-03 6.480743177235126495e-03
2.485000000000000000e+03 6.549068927764892578e+00 3.823477554321289062e+01 6.350772920995950699e-03 -3.211556747555732727e-02 -7.729438133537769318e-03 8.686740882694721222e-03
2.486000000000000000e+03 9.912425041198730469e+00 -4.624172687530517578e+00 3.749896958470344543e-02 -1.001362726092338562e-01 -1.879119127988815308e-02 3.857975825667381287e-02
2.487000000000000000e+03 1.057026576995849609e+01 -4.706252098083496094e+00 3.025247715413570404e-02 -1.097389385104179382e-01 -2.384593896567821503e-02 1.594354212284088135e-02
2.488000000000000000e+03 5.312914276123046875e+01 -5.785175800323486328e+00 -5.109145641326904297e-01 -5.320116132497787476e-02 -1.692347228527069092e-01 1.282378911972045898e+00
2.489000000000000000e+03 5.139995193481445312e+01 -6.172734260559082031e+00 -5.471782684326171875e-01 6.451572179794311523e-01 2.939368225634098053e-02 1.194640994071960449e+00
2.490000000000000000e+03 5.886341094970703125e+01 -7.587235450744628906e+00 -1.096706867218017578e+00 9.367487393319606781e-03 -3.262018263339996338e-01 6.754621863365173340e-01
2.491000000000000000e+03 5.862650299072265625e+01 -8.280307769775390625e+00 -1.385729432106018066e+00 -7.306680828332901001e-02 -4.376388788223266602e-01 7.660414576530456543e-01
2.492000000000000000e+03 3.312116861343383789e+00 4.017611980438232422e+00 1.405840012012049556e-04 1.318698487011715770e-04 8.173615060513839126e-05 -3.076081047765910625e-04
2.493000000000000000e+03 5.288243103027343750e+01 -1.439824104309082031e+00 -3.028405904769897461e-01 3.292840719223022461e-02 -8.097365498542785645e-02 8.211565613746643066e-01
2.494000000000000000e+03 2.057129859924316406e+01 -1.095614051818847656e+01 -3.366207480430603027e-01 1.705297678709030151e-01 -4.982729628682136536e-02 -3.594172298908233643e-01
2.495000000000000000e+03 6.984472656250000000e+01 -2.224015235900878906e+01 1.153832793235778809e+00 8.963825225830078125e+00 3.035297393798828125e+00 2.003289461135864258e-01
2.496000000000000000e+03 1.849012184143066406e+01 5.518779277801513672e+00 1.008065519272349775e-04 3.419338027015328407e-04 1.328221114818006754e-04 1.919228816404938698e-04
2.497000000000000000e+03 1.720921134948730469e+01 2.592925786972045898e+00 4.816894579562358558e-05 6.521236355183646083e-05 3.401439244044013321e-05 1.234055234817788005e-04
2.498000000000000000e+03 7.030622100830078125e+01 1.894524574279785156e+01 2.436325311660766602e+00 1.195601558685302734e+01 4.317702293395996094e+00 -2.045500129461288452e-01
2.499000000000000000e+03 4.657375335693359375e+01 8.248669624328613281e+00 2.727688290178775787e-03 -3.488044487312436104e-03 -2.281068445881828666e-04 2.735055284574627876e-03
2.500000000000000000e+03 3.348516845703125000e+01 -7.564624309539794922e+00 -1.407621145248413086e+00 -3.833799064159393311e-01 -5.373002886772155762e-01 -2.744213938713073730e-01
2.501000000000000000e+03 5.959262847900390625e+01 -7.840448856353759766e+00 -1.113774418830871582e+00 1.122753620147705078e-01 -3.004496991634368896e-01 6.377091407775878906e-01
2.502000000000000000e+03 6.152651596069335938e+01 -9.253420829772949219e+00 -1.434443473815917969e+00 2.290271520614624023e-01 -3.616248965263366699e-01 5.067074894905090332e-01
2.503000000000000000e+03 1.942455101013183594e+01 -1.132795906066894531e+01 -3.899671137332916260e-01 1.412327736616134644e-01 -7.462029904127120972e-02 -3.206128180027008057e-01
2.504000000000000000e+03 1.589654254913330078e+01 3.620020389556884766e+00 2.551405923441052437e-04 1.169414754258468747e-04 1.116246203309856355e-04 2.888344752136617899e-04
2.505000000000000000e+03 1.855610275268554688e+01 -1.048062515258789062e+01 -5.180072188377380371e-01 7.548494637012481689e-02 -1.327566802501678467e-01 -4.337229430675506592e-01
2.506000000000000000e+03 1.650135040283203125e+01 -5.842735767364501953e+00 -2.016288936138153076e-01 -7.554484903812408447e-02 -8.315212279558181763e-02 -3.075461089611053467e-01
2.507000000000000000e+03 1.779009056091308594e+01 3.223163366317749023e+00 -7.089151495165424421e-06 1.150686439359560609e-04 3.239384750486351550e-05 1.113785619963891804e-04
2.508000000000000000e+03 2.007227134704589844e+01 2.402571678161621094e+00 -4.687647015089169145e-05 4.153246482019312680e-05 -1.603201894795347471e-06 2.940134254458826035e-05
2.509000000000000000e+03 1.124065780639648438e+01 -4.805044174194335938e+00 1.818389073014259338e-02 -1.191562116146087646e-01 -3.029169701039791107e-02 -8.971152827143669128e-03
2.510000000000000000e+03 6.251920700073242188e+01 -8.789851188659667969e+00 -1.111905336380004883e+00 5.872052907943725586e-01 -1.574100255966186523e-01 1.917850226163864136e-01
2.511000000000000000e+03 6.178757476806640625e+01 -8.568133354187011719e+00 -1.117558479309082031e+00 4.237045943737030029e-01 -2.081561684608459473e-01 3.592400550842285156e-01
2.512000000000000000e+03 1.437707042694091797e+01 3.849956035614013672e+00 3.791364142671227455e-04 1.435174908692715690e-05 1.180464460048824549e-04 3.559247998055070639e-04
2.513000000000000000e+03 1.513287448883056641e+01 3.015142679214477539e+00 2.941763377748429775e-04 4.864811126026324928e-05 1.028473416226916015e-04 2.683180791791528463e-04
2.514000000000000000e+03 6.204026794433593750e+01 -7.882892131805419922e+00 -8.750953078269958496e-01 6.698765158653259277e-01 -6.156562641263008118e-02 2.274564355611801147e-01
2.515000000000000000e+03 2.493079185485839844e+01 -1.269517135620117188e+01 3.332009315490722656e-01 1.065834686160087585e-01 1.319353282451629639e-01 -4.067787826061248779e-01
2.516000000000000000e+03 2.504259490966796875e+01 -9.378376960754394531e+00 -4.619549214839935303e-01 2.217534631490707397e-01 -7.206043601036071777e-02 -5.099118351936340332e-01
2.517000000000000000e+03 6.160743331909179688e+01 1.904198646545410156e+00 6.053319573402404785e-01 1.389151453971862793e+00 5.983450412750244141e-01 6.781840920448303223e-01
2.518000000000000000e+03 3.115892601013183594e+01 -1.325357151031494141e+01 8.908911347389221191e-01 9.369717538356781006e-02 2.953764796257019043e-01 -3.720558881759643555e-01
2.519000000000000000e+03 6.061494827270507812e+01 2.711416780948638916e-01 5.936865806579589844e-01 1.003696680068969727e+00 4.792149662971496582e-01 5.021685957908630371e-01
2.520000000000000000e+03 2.614580917358398438e+01 -3.870064735412597656e+00 -7.000916004180908203e-01 7.346902787685394287e-02 -1.879867613315582275e-01 1.854031533002853394e-01
2.521000000000000000e+03 6.424807739257812500e+01 -3.008390045166015625e+01 -1.910545378923416138e-01 2.603532314300537109e+00 7.237433195114135742e-01 9.161317944526672363e-01
2.522000000000000000e+03 6.457744598388671875e+01 -2.930171394348144531e+01 -2.060906589031219482e-01 2.710556745529174805e+00 7.513398528099060059e-01 9.529511928558349609e-01
2.523000000000000000e+03 3.697047424316406250e+01 -6.850786209106445312e+00 -1.379507660865783691e+00 -3.822878897190093994e-01 -5.285386443138122559e-01 -4.318032562732696533e-01
2.524000000000000000e+03 3.768665695190429688e+01 -5.904685497283935547e+00 -1.660816669464111328e+00 -4.452738165855407715e-01 -6.318271756172180176e-01 -5.938829183578491211e-01
2.525000000000000000e+03 5.812985610961914062e+01 -6.017310619354248047e-01 5.373064875602722168e-01 4.078785777091979980e-01 2.835555076599121094e-01 4.468610882759094238e-01
2.526000000000000000e+03 6.225259399414062500e+01 2.420550346374511719e+00 5.548414587974548340e-01 1.695497512817382812e+00 6.751016974449157715e-01 7.776464819908142090e-01
2.527000000000000000e+03 6.744029998779296875e+01 6.824553489685058594e+00 -8.417189121246337891e-02 6.812051773071289062e+00 2.018363952636718750e+00 1.114364027976989746e+00
2.528000000000000000e+03 1.413184261322021484e+01 -5.362284660339355469e+00 -7.698971778154373169e-02 -1.296231895685195923e-01 -6.198387220501899719e-02 -1.646282672882080078e-01
2.529000000000000000e+03 3.785643005371093750e+01 -6.637807369232177734e+00 -1.317987799644470215e+00 -4.017853438854217529e-01 -5.159319639205932617e-01 -4.309148490428924561e-01
2.530000000000000000e+03 1.210116100311279297e+01 3.476483821868896484e+00 5.173148238100111485e-04 -1.236135140061378479e-04 1.181103943963535130e-04 2.310950803803279996e-04
2.531000000000000000e+03 7.646557617187500000e+01 -3.747890853881835938e+01 -2.107261680066585541e-02 7.864055633544921875e+00 2.352894783020019531e+00 -9.464857168495655060e-03
2.532000000000000000e+03 5.453495788574218750e+01 -6.190658569335937500e+00 -6.120843887329101562e-01 -4.088591933250427246e-01 -3.062830567359924316e-01 1.091075420379638672e+00
2.533000000000000000e+03 5.042456817626953125e+01 -2.548028469085693359e+00 -6.584556698799133301e-01 2.293328791856765747e-01 -1.287368386983871460e-01 6.902989149093627930e-01
2.534000000000000000e+03 1.192883491516113281e+01 -4.921135902404785156e+00 3.356201807036995888e-03 -1.263562142848968506e-01 -3.690000250935554504e-02 -4.070826619863510132e-02
2.535000000000000000e+03 1.264119243621826172e+01 -5.056843280792236328e+00 -1.856830343604087830e-02 -1.327014863491058350e-01 -4.538093507289886475e-02 -7.704656571149826050e-02
2.536000000000000000e+03 1.658665084838867188e+01 -5.133778095245361328e+00 -1.627655625343322754e-01 -4.387089237570762634e-02 -6.199093535542488098e-02 -2.752913534641265869e-01
2.537000000000000000e+03 4.239250946044921875e+01 -4.071330070495605469e+00 -1.466476917266845703e+00 2.354729622602462769e-01 -3.693011701107025146e-01 -3.237469494342803955e-01
2.538000000000000000e+03 6.557236480712890625e+01 5.215658664703369141e+00 1.849250048398971558e-01 4.468008995056152344e+00 1.395880103111267090e+00 1.287702679634094238e+00
2.539000000000000000e+03 7.999981403350830078e+00 4.519788742065429688e+00 6.025212351232767105e-04 -2.285914233652874827e-04 1.121789464377798140e-04 -2.222139155492186546e-04
2.540000000000000000e+03 9.684539794921875000e+00 3.740644693374633789e+00 5.339677445590496063e-04 -2.435156638966873288e-04 8.713562419870868325e-05 -1.129378870246000588e-05
2.541000000000000000e+03 4.774774074554443359e+00 5.366279125213623047e+00 3.004283062182366848e-04 1.131916815211297944e-05 9.352424240205436945e-05 -4.777362046297639608e-04
2.542000000000000000e+03 6.439310550689697266e+00 3.899931669235229492e+00 4.071432049386203289e-04 -1.208766625495627522e-04 8.587996126152575016e-05 -3.027891216333955526e-04
2.543000000000000000e+03 5.595852375030517578e+00 4.616493701934814453e+00 3.598165931180119514e-04 -7.782124157529324293e-05 8.459859964204952121e-05 -3.938816080335527658e-04
2.544000000000000000e+03 4.042801856994628906e+00 4.692230701446533203e+00 2.126390172634273767e-04 9.428767225472256541e-05 9.207800758304074407e-05 -4.000175395049154758e-04
2.545000000000000000e+03 2.524008750915527344e+00 4.812074184417724609e+00 7.428434764733538032e-05 2.471939660608768463e-04 9.644349484005942941e-05 -3.174569283146411180e-04
2.546000000000000000e+03 6.386801719665527344e+00 4.587486743927001953e+00 5.068635218776762486e-04 -1.143806657637469471e-04 1.177448502858169377e-04 -3.700468514580279589e-04
2.547000000000000000e+03 8.562322616577148438e+00 -3.944519758224487305e+00 7.220832258462905884e-02 -6.318140029907226562e-02 2.708077896386384964e-03 7.029063254594802856e-02
2.548000000000000000e+03 8.606872558593750000e+00 -4.576891899108886719e+00 4.007710516452789307e-02 -7.760842889547348022e-02 -1.125939656049013138e-02 7.288186252117156982e-02
2.549000000000000000e+03 3.196440696716308594e+01 -1.231433773040771484e+01 5.342792272567749023e-01 -2.004347043111920357e-03 1.596824526786804199e-01 -2.897194921970367432e-01
2.550000000000000000e+03 1.827676010131835938e+01 2.218557167053222656e+01 -5.913016572594642639e-02 7.026425097137689590e-03 -1.563112251460552216e-02 1.353148091584444046e-02
2.551000000000000000e+03 1.664033317565917969e+01 2.051668930053710938e+01 -2.379236370325088501e-02 1.164999557659029961e-03 -6.788209546357393265e-03 3.614360684878192842e-05
2.552000000000000000e+03 5.923118209838867188e+01 9.494799971580505371e-01 7.176841497421264648e-01 5.760721564292907715e-01 3.881268799304962158e-01 4.764886498451232910e-01
2.553000000000000000e+03 5.179056167602539062e+01 -2.307997941970825195e+00 -4.796024262905120850e-01 6.989954411983489990e-02 -1.229108646512031555e-01 8.811525702476501465e-01
2.554000000000000000e+03 1.050120735168457031e+01 3.665994167327880859e+00 5.808844580315053463e-04 -1.811926049413159490e-04 1.199075486510992050e-04 8.731715206522494555e-05
2.555000000000000000e+03 4.544963836669921875e+01 -2.567434310913085938e+00 -1.140030622482299805e+00 5.613512396812438965e-01 -1.736038029193878174e-01 -1.771213263273239136e-01
2.556000000000000000e+03 4.499652862548828125e+01 -1.709354400634765625e+00 -1.126511454582214355e+00 4.352038502693176270e-01 -2.073922753334045410e-01 -2.924942076206207275e-01
2.557000000000000000e+03 1.984794807434082031e+01 -6.310997009277343750e+00 -4.021088778972625732e-01 9.241414070129394531e-02 -9.290842711925506592e-02 -3.654017150402069092e-01
2.558000000000000000e+03 7.682263183593750000e+01 1.738717079162597656e+01 4.852577745914459229e-01 6.224802494049072266e+00 2.013018131256103516e+00 3.070505261421203613e-01
2.559000000000000000e+03 7.466682434082031250e+01 1.672847557067871094e+01 1.119213581085205078e+00 7.835405826568603516e+00 2.686385869979858398e+00 1.465997099876403809e-01
2.560000000000000000e+03 7.742170715332031250e+01 -2.906261825561523438e+01 -8.392769843339920044e-02 8.108101844787597656e+00 2.407252311706542969e+00 -3.061435222625732422e-01
2.561000000000000000e+03 7.670700836181640625e+01 -2.980216598510742188e+01 -1.342381834983825684e-01 8.009334564208984375e+00 2.362529039382934570e+00 -2.839433252811431885e-01
2.562000000000000000e+03 7.632680511474609375e+01 3.131818199157714844e+01 -2.038867175579071045e-01 7.749060630798339844e+00 2.263552188873291016e+00 2.898055315017700195e-01
2.563000000000000000e+03 7.638400268554687500e+01 2.960033035278320312e+01 -2.617372572422027588e-01 7.726900100708007812e+00 2.239548683166503906e+00 4.654369056224822998e-01
2.564000000000000000e+03 7.719886016845703125e+01 3.044908332824707031e+01 -1.604326665401458740e-01 7.863976955413818359e+00 2.311063289642333984e+00 3.478439152240753174e-01
2.565000000000000000e+03 2.627546310424804688e+00 2.943428230285644531e+01 -2.571740478742867708e-04 -7.149623706936836243e-03 -2.222039271146059036e-03 5.917977541685104370e-03
2.566000000000000000e+03 3.414009094238281250e+00 3.005371475219726562e+01 -3.970439429394900799e-04 -1.020193472504615784e-02 -3.179693594574928284e-03 7.883067242801189423e-03
2.567000000000000000e+03 1.361889076232910156e+01 3.954103469848632812e+00 3.581495839171111584e-04 -1.181885527330450714e-04 7.198831008281558752e-05 3.162514767609536648e-04
2.568000000000000000e+03 1.284969139099121094e+01 4.059068202972412109e+00 5.059001850895583630e-04 -1.153935736510902643e-04 1.171519761555828154e-04 3.206754918210208416e-04
2.569000000000000000e+03 6.952609252929687500e+01 -2.392934799194335938e+01 8.442891389131546021e-02 8.102890014648437500e+00 2.456195592880249023e+00 4.303357899188995361e-01
2.570000000000000000e+03 2.614313697814941406e+01 -4.676397800445556641e+00 -9.259014725685119629e-01 1.811862289905548096e-01 -2.234145700931549072e-01 5.497108027338981628e-02
2.571000000000000000e+03 1.348371124267578125e+01 -2.753775596618652344e+01 3.408080041408538818e-01 1.671565324068069458e-01 1.523893624544143677e-01 -2.405804246664047241e-01
2.572000000000000000e+03 3.821931076049804688e+01 1.811161422729492188e+01 -2.620796263217926025e-01 2.822249755263328552e-02 -7.015714049339294434e-02 8.749172836542129517e-02
2.573000000000000000e+03 2.596910095214843750e+01 -5.924997329711914062e+00 -1.013615846633911133e+00 2.436932921409606934e-01 -2.309767752885818481e-01 -1.586528122425079346e-01
2.574000000000000000e+03 7.606445312500000000e+01 -2.975167655944824219e+01 -1.742782294750213623e-01 7.887301921844482422e+00 2.313907146453857422e+00 -2.955938577651977539e-01
2.575000000000000000e+03 7.733880615234375000e+01 -3.136320304870605469e+01 -8.465405553579330444e-02 8.177171707153320312e+00 2.427755117416381836e+00 -1.834182590246200562e-01
2.576000000000000000e+03 4.232291221618652344e+00 -2.901873779296875000e+01 6.105828657746315002e-02 -5.737382769584655762e-01 -1.538040041923522949e-01 -1.024818271398544312e-01
2.577000000000000000e+03 2.985052108764648438e+00 -3.240160751342773438e+01 1.637473702430725098e-02 -7.246494293212890625e-01 -2.124823927879333496e-01 -2.515291981399059296e-02
2.578000000000000000e+03 7.747339630126953125e+01 -2.182645797729492188e+01 1.600528955459594727e-01 7.564793586730957031e+00 2.317454099655151367e+00 -2.257759720087051392e-01
2.579000000000000000e+03 7.668182373046875000e+01 -2.342450714111328125e+01 1.485558748245239258e-01 7.727556705474853516e+00 2.362833738327026367e+00 -4.136882126331329346e-01
2.580000000000000000e+03 7.661721801757812500e+01 2.462899017333984375e+01 -1.929989159107208252e-01 7.359339237213134766e+00 2.149902105331420898e+00 1.049663424491882324e+00
2.581000000000000000e+03 3.914790344238281250e+01 -2.094679832458496094e+01 2.038386464118957520e-01 3.888373672962188721e-01 1.778028011322021484e-01 9.750857949256896973e-03
2.582000000000000000e+03 4.137036323547363281e+00 2.986747741699218750e+01 -1.835680915974080563e-03 -1.114974450320005417e-02 -3.895627567544579506e-03 9.050009772181510925e-03
2.583000000000000000e+03 7.738722229003906250e+01 2.380543518066406250e+01 -7.230120897293090820e-02 6.941650867462158203e+00 2.060804843902587891e+00 9.737450480461120605e-01
2.584000000000000000e+03 1.557243061065673828e+01 -6.339076042175292969e+00 -1.889179795980453491e-01 -1.406569927930831909e-01 -9.887249022722244263e-02 -2.838954925537109375e-01
2.585000000000000000e+03 7.592607116699218750e+01 -2.252686500549316406e+01 3.013670742511749268e-01 7.752947330474853516e+00 2.416294336318969727e+00 -3.574179708957672119e-01
2.586000000000000000e+03 7.744208526611328125e+01 -2.426918220520019531e+01 5.734021216630935669e-02 7.733090400695800781e+00 2.337129116058349609e+00 -4.073891341686248779e-01
2.587000000000000000e+03 7.669407653808593750e+01 2.139566612243652344e+01 1.736643016338348389e-01 6.800489902496337891e+00 2.092246294021606445e+00 1.074388384819030762e+00
2.588000000000000000e+03 7.081156921386718750e+01 1.646622657775878906e+01 1.875762701034545898e+00 1.226061534881591797e+01 4.240913391113281250e+00 -8.333607017993927002e-02
2.589000000000000000e+03 7.681795501708984375e+01 1.501000308990478516e+01 4.521663784980773926e-01 6.258208751678466797e+00 2.013112545013427734e+00 -3.053698241710662842e-01
2.590000000000000000e+03 7.752259826660156250e+01 -1.461278152465820312e+01 5.288381502032279968e-02 8.132908821105957031e+00 2.455737829208374023e+00 6.326156258583068848e-01
2.591000000000000000e+03 7.683658599853515625e+01 -1.615482711791992188e+01 2.058934420347213745e-01 7.935911655426025391e+00 2.442541599273681641e+00 6.321898102760314941e-01
2.592000000000000000e+03 7.685134124755859375e+01 -1.772419738769531250e+01 2.861411869525909424e-01 7.763089179992675781e+00 2.414769172668457031e+00 4.151842594146728516e-01
2.593000000000000000e+03 7.683999633789062500e+01 1.019432544708251953e+01 1.296591013669967651e-01 6.847078800201416016e+00 2.093021392822265625e+00 -1.090837597846984863e+00
2.594000000000000000e+03 7.680239105224609375e+01 1.097641849517822266e+01 1.869647651910781860e-01 6.739596366882324219e+00 2.077968358993530273e+00 -1.017381072044372559e+00
2.595000000000000000e+03 7.689571380615234375e+01 7.864191055297851562e+00 -4.176630452275276184e-02 7.251652240753173828e+00 2.162965774536132812e+00 -1.112994432449340820e+00
2.596000000000000000e+03 7.756036376953125000e+01 9.400028228759765625e+00 4.572090134024620056e-02 6.652962684631347656e+00 2.009605169296264648e+00 -9.681033492088317871e-01
2.597000000000000000e+03 7.684444427490234375e+01 -1.054076766967773438e+01 -1.916743218898773193e-01 8.647625923156738281e+00 2.536785602569580078e+00 5.576077699661254883e-01
2.598000000000000000e+03 7.756996154785156250e+01 8.610985755920410156e+00 -1.190379611216485500e-03 6.849172592163085938e+00 2.054394721984863281e+00 -9.684908390045166016e-01
2.599000000000000000e+03 7.617169189453125000e+01 9.426699638366699219e+00 9.040693938732147217e-02 7.277502059936523438e+00 2.210372686386108398e+00 -1.218738794326782227e+00
2.600000000000000000e+03 7.683664703369140625e+01 -1.294196891784667969e+01 -6.609459966421127319e-02 8.379323959350585938e+00 2.493968963623046875e+00 7.442665100097656250e-01
2.601000000000000000e+03 7.754834747314453125e+01 -1.139994144439697266e+01 -1.004027873277664185e-01 8.672276496887207031e+00 2.571562051773071289e+00 5.530268549919128418e-01
2.602000000000000000e+03 7.685028076171875000e+01 3.126739740371704102e+00 -1.552349030971527100e-01 8.041017532348632812e+00 2.365734815597534180e+00 -8.265973925590515137e-01
2.603000000000000000e+03 7.686341094970703125e+01 1.525002956390380859e+00 -1.578730642795562744e-01 8.251962661743164062e+00 2.428226947784423828e+00 -6.930385828018188477e-01
2.604000000000000000e+03 7.612864685058593750e+01 3.202481031417846680e+00 -2.080771625041961670e-01 7.972319126129150391e+00 2.329272508621215820e+00 -9.188610911369323730e-01
2.605000000000000000e+03 7.687123870849609375e+01 7.198430895805358887e-01 -1.525105834007263184e-01 8.349604606628417969e+00 2.459128379821777344e+00 -6.256128549575805664e-01
2.606000000000000000e+03 7.679990386962890625e+01 -1.535583400726318359e+01 1.422359049320220947e-01 8.044730186462402344e+00 2.456089735031127930e+00 7.056246399879455566e-01
2.607000000000000000e+03 7.685266113281250000e+01 -3.297545909881591797e+00 -1.794943064451217651e-01 8.696244239807128906e+00 2.555024862289428711e+00 -2.708922326564788818e-01
2.608000000000000000e+03 7.684918975830078125e+01 -5.706723690032958984e+00 -2.090123742818832397e-01 8.797975540161132812e+00 2.576689004898071289e+00 -2.136356756091117859e-02
2.609000000000000000e+03 7.685005187988281250e+01 -7.309601783752441406e+00 -2.272600829601287842e-01 8.806599617004394531e+00 2.573801755905151367e+00 1.681557297706604004e-01
2.610000000000000000e+03 7.722293853759765625e+01 2.957169532775878906e+01 -1.522006541490554810e-01 7.815091609954833984e+00 2.298867225646972656e+00 4.208363890647888184e-01
2.611000000000000000e+03 7.657453155517578125e+01 2.789701271057128906e+01 -2.769940793514251709e-01 7.669117450714111328e+00 2.217637062072753906e+00 6.738826632499694824e-01
2.612000000000000000e+03 7.639255523681640625e+01 3.047681999206542969e+01 -2.189503759145736694e-01 7.756845474243164062e+00 2.261368513107299805e+00 3.740239441394805908e-01
2.613000000000000000e+03 7.687521362304687500e+01 -8.435225486755371094e-02 -1.601216048002243042e-01 8.435161590576171875e+00 2.482511997222900391e+00 -5.559213757514953613e-01
2.614000000000000000e+03 7.754895019531250000e+01 -4.973024845123291016e+00 -1.280616670846939087e-01 9.044589042663574219e+00 2.674958229064941406e+00 -8.067659288644790649e-02
2.615000000000000000e+03 7.684830474853515625e+01 -4.904400348663330078e+00 -2.009651660919189453e-01 8.773171424865722656e+00 2.571661949157714844e+00 -1.082552447915077209e-01
2.616000000000000000e+03 7.754652404785156250e+01 -1.220175647735595703e+01 -7.552305608987808228e-02 8.549004554748535156e+00 2.542044401168823242e+00 6.058370471000671387e-01
2.617000000000000000e+03 7.615080261230468750e+01 -1.128561592102050781e+01 -2.310927957296371460e-01 8.479780197143554688e+00 2.474606275558471680e+00 6.909274458885192871e-01
2.618000000000000000e+03 7.684908294677734375e+01 -4.101094245910644531e+00 -1.858086138963699341e-01 8.740733146667480469e+00 2.566477298736572266e+00 -1.936435699462890625e-01
2.619000000000000000e+03 7.688632965087890625e+01 7.079804897308349609e+00 -6.837126612663269043e-02 7.399744987487792969e+00 2.199412107467651367e+00 -1.092601180076599121e+00
2.620000000000000000e+03 7.684798431396484375e+01 -1.134074878692626953e+01 -1.626726239919662476e-01 8.570915222167968750e+00 2.522472858428955078e+00 6.370704174041748047e-01
2.621000000000000000e+03 7.685113525390625000e+01 3.920355081558227539e+00 -1.425308436155319214e-01 7.928760051727294922e+00 2.335868835449218750e+00 -8.930512666702270508e-01
2.622000000000000000e+03 7.686886596679687500e+01 9.421206474304199219e+00 4.969370365142822266e-02 6.976359844207763672e+00 2.107815980911254883e+00 -1.106108665466308594e+00
2.623000000000000000e+03 7.681587982177734375e+01 1.421818351745605469e+01 4.359094798564910889e-01 6.298822879791259766e+00 2.020419836044311523e+00 -4.710391759872436523e-01
2.624000000000000000e+03 7.682598114013671875e+01 -1.930214118957519531e+01 3.229043483734130859e-01 7.659029483795166016e+00 2.394580125808715820e+00 1.526889055967330933e-01
2.625000000000000000e+03 7.754959106445312500e+01 -1.779915237426757812e+01 1.953931301832199097e-01 7.663271903991699219e+00 2.357599496841430664e+00 3.348866999149322510e-01
2.626000000000000000e+03 7.669864654541015625e+01 -2.259054183959960938e+01 2.011484950780868530e-01 7.686596870422363281e+00 2.366323709487915039e+00 -3.420445919036865234e-01
2.627000000000000000e+03 7.751580810546875000e+01 -2.019766426086425781e+01 2.038749009370803833e-01 7.531279563903808594e+00 2.320546388626098633e+00 -1.249653566628694534e-02
2.628000000000000000e+03 7.680251312255859375e+01 -2.010708045959472656e+01 3.269259631633758545e-01 7.635055541992187500e+00 2.388594627380371094e+00 1.333907339721918106e-02
2.629000000000000000e+03 7.753028106689453125e+01 1.657558822631835938e+01 3.206552863121032715e-01 5.617527008056640625e+00 1.781454682350158691e+00 8.728694915771484375e-02
2.630000000000000000e+03 7.467120361328125000e+01 1.749834251403808594e+01 1.076409101486206055e+00 7.874574661254882812e+00 2.685295104980468750e+00 3.836193978786468506e-01
2.631000000000000000e+03 7.607854461669921875e+01 1.581652927398681641e+01 6.650819182395935059e-01 6.807486057281494141e+00 2.241770505905151367e+00 -1.232554912567138672e-01
2.632000000000000000e+03 7.682500457763671875e+01 1.818130111694335938e+01 4.351379275321960449e-01 6.284749507904052734e+00 2.015966176986694336e+00 5.028251409530639648e-01
2.633000000000000000e+03 7.685958862304687500e+01 -2.494408607482910156e+00 -1.664438396692276001e-01 8.646255493164062500e+00 2.543943643569946289e+00 -3.472888469696044922e-01
2.634000000000000000e+03 7.685613250732421875e+01 4.713513374328613281e+00 -1.427724808454513550e-01 7.803574085235595703e+00 2.298240423202514648e+00 -9.513368010520935059e-01
2.635000000000000000e+03 7.687401580810546875e+01 -8.883792757987976074e-01 -1.568692624568939209e-01 8.517014503479003906e+00 2.508043527603149414e+00 -4.879217445850372314e-01
2.636000000000000000e+03 7.686799621582031250e+01 -1.692028164863586426e+00 -1.651487052440643311e-01 8.583798408508300781e+00 2.525594711303710938e+00 -4.165003299713134766e-01
2.637000000000000000e+03 7.739874267578125000e+01 2.300001144409179688e+01 1.747790141962468624e-03 6.754716396331787109e+00 2.026939153671264648e+00 9.941242933273315430e-01
2.638000000000000000e+03 7.663090515136718750e+01 2.300425338745117188e+01 -2.619726024568080902e-02 7.099983692169189453e+00 2.122135877609252930e+00 1.142529726028442383e+00
2.639000000000000000e+03 7.663495635986328125e+01 2.381039237976074219e+01 -8.783839643001556396e-02 7.235870838165283203e+00 2.144409656524658203e+00 1.121256113052368164e+00
2.640000000000000000e+03 7.745050048828125000e+01 -2.586955451965332031e+01 -1.363833528012037277e-02 7.874778747558593750e+00 2.358342170715332031e+00 -4.270439445972442627e-01
2.641000000000000000e+03 7.672460937500000000e+01 -2.903975486755371094e+01 -1.272153556346893311e-01 7.994651317596435547e+00 2.360230922698974609e+00 -3.368567824363708496e-01
2.642000000000000000e+03 7.668347930908203125e+01 -2.425183105468750000e+01 8.219463378190994263e-02 7.771429061889648438e+00 2.356087207794189453e+00 -4.618976414203643799e-01
2.643000000000000000e+03 7.687413787841796875e+01 6.295267105102539062e+00 -1.085852757096290588e-01 7.536983966827392578e+00 2.228519678115844727e+00 -1.052579998970031738e+00
2.644000000000000000e+03 7.686446380615234375e+01 5.506058216094970703e+00 -1.184816509485244751e-01 7.676607608795166016e+00 2.267437696456909180e+00 -1.009245157241821289e+00
2.645000000000000000e+03 7.684765625000000000e+01 -8.115161895751953125e+00 -2.330897897481918335e-01 8.788970947265625000e+00 2.566764354705810547e+00 2.715461552143096924e-01
2.646000000000000000e+03 7.676293182373046875e+01 1.177183628082275391e+01 2.669204473495483398e-01 6.632875919342041016e+00 2.069938898086547852e+00 -9.495821595191955566e-01
2.647000000000000000e+03 7.672927093505859375e+01 -2.175736618041992188e+01 2.614242136478424072e-01 7.655403614044189453e+00 2.375048398971557617e+00 -2.415932267904281616e-01
2.648000000000000000e+03 7.679374694824218750e+01 1.340797328948974609e+01 3.992114067077636719e-01 6.414204597473144531e+00 2.044024944305419922e+00 -6.723738908767700195e-01
2.649000000000000000e+03 7.676149749755859375e+01 1.258524131774902344e+01 3.203511238098144531e-01 6.515738964080810547e+00 2.050827026367187500e+00 -8.083691000938415527e-01
2.650000000000000000e+03 7.604484558105468750e+01 -1.532675933837890625e+01 1.967664659023284912e-01 8.083612442016601562e+00 2.484113693237304688e+00 8.099976181983947754e-01
2.651000000000000000e+03 7.685395050048828125e+01 -1.694387626647949219e+01 2.584518790245056152e-01 7.837379455566406250e+00 2.428749322891235352e+00 5.248066186904907227e-01
2.652000000000000000e+03 7.669854736328125000e+01 3.867608642578125000e+01 1.046848366968333721e-03 7.834357261657714844e+00 2.350621223449707031e+00 -2.478270232677459717e-02
2.653000000000000000e+03 7.488071441650390625e+01 3.599625778198242188e+01 -1.288258135318756104e-01 7.287768840789794922e+00 2.147682905197143555e+00 2.947508543729782104e-02
2.654000000000000000e+03 7.649265289306640625e+01 -3.187085342407226562e+01 -1.416846066713333130e-01 7.962158679962158203e+00 2.346142292022705078e+00 -1.525256484746932983e-01
2.655000000000000000e+03 7.601741027832031250e+01 -3.342413330078125000e+01 -1.185800135135650635e-01 7.819332599639892578e+00 2.310225725173950195e+00 -7.068990916013717651e-02
2.656000000000000000e+03 7.593739318847656250e+01 -3.430020523071289062e+01 -8.585131168365478516e-02 7.749832630157470703e+00 2.299194335937500000e+00 -4.038521274924278259e-02
2.657000000000000000e+03 7.695284271240234375e+01 -3.443134307861328125e+01 -6.112180277705192566e-02 8.093296051025390625e+00 2.409652233123779297e+00 -5.057746917009353638e-02
2.658000000000000000e+03 7.679469299316406250e+01 1.977285385131835938e+01 3.374130725860595703e-01 6.486538887023925781e+00 2.047185659408569336e+00 8.434394598007202148e-01
2.659000000000000000e+03 7.681907653808593750e+01 1.897353553771972656e+01 4.039794206619262695e-01 6.358257770538330078e+00 2.028671264648437500e+00 6.786196231842041016e-01
2.660000000000000000e+03 7.674584197998046875e+01 2.058076095581054688e+01 2.669171690940856934e-01 6.636560440063476562e+00 2.071043252944946289e+00 9.762923121452331543e-01
2.661000000000000000e+03 7.671985626220703125e+01 -2.745297050476074219e+01 -1.004877090454101562e-01 7.941123008728027344e+00 2.352190494537353516e+00 -4.220421314239501953e-01
2.662000000000000000e+03 2.535147666931152344e+00 2.234094429016113281e+01 -1.199949649162590504e-03 2.473848639056086540e-03 3.821696736849844456e-04 8.726836531423032284e-04
2.663000000000000000e+03 3.269927263259887695e+00 2.304349327087402344e+01 -1.856473390944302082e-03 4.998139338567852974e-04 -4.069978313054889441e-04 1.841834280639886856e-03
2.664000000000000000e+03 3.289117336273193359e+00 -2.516064262390136719e+01 5.407853052020072937e-02 -5.360733270645141602e-01 -1.445984393358230591e-01 -1.857863515615463257e-01
2.665000000000000000e+03 2.561330795288085938e+00 -2.516951370239257812e+01 3.652421757578849792e-02 -5.759034156799316406e-01 -1.618137657642364502e-01 -1.536332517862319946e-01
2.666000000000000000e+03 3.301576614379882812e+00 2.463441085815429688e+01 -2.048285445198416710e-03 -9.888554923236370087e-04 -9.111423278227448463e-04 3.278719261288642883e-03
2.667000000000000000e+03 3.219217777252197266e+00 -2.203409767150878906e+01 3.271387517452239990e-02 -3.893917798995971680e-01 -1.070033684372901917e-01 -2.607030868530273438e-01
2.668000000000000000e+03 3.211273908615112305e+00 -2.282292366027832031e+01 4.153613746166229248e-02 -4.321323931217193604e-01 -1.171788722276687622e-01 -2.431594580411911011e-01
2.669000000000000000e+03 2.478156805038452148e+00 -7.630246162414550781e+00 -1.693546958267688751e-02 1.267630606889724731e-01 3.294827789068222046e-02 7.686659693717956543e-02
2.670000000000000000e+03 4.147870540618896484e+00 -5.443571567535400391e+00 1.704438473097980022e-03 3.165495023131370544e-02 1.000781729817390442e-02 1.109402179718017578e-01
2.671000000000000000e+03 2.434720993041992188e+00 -9.226143836975097656e+00 -2.848670631647109985e-02 1.491234749555587769e-01 3.619103133678436279e-02 4.975874349474906921e-02
2.672000000000000000e+03 3.161391019821166992e+00 -7.731353282928466797e+00 -2.724307775497436523e-02 9.173850715160369873e-02 1.934862881898880005e-02 8.380992710590362549e-02
2.673000000000000000e+03 2.487585306167602539e+00 1.509973526000976562e+01 2.075907541438937187e-04 2.448282437399029732e-03 7.967619458213448524e-04 -1.362602110020816326e-03
2.674000000000000000e+03 3.197647571563720703e+00 1.580960655212402344e+01 1.269123167730867863e-04 1.779298996552824974e-03 5.718633765354752541e-04 -1.510010450147092342e-03
2.675000000000000000e+03 1.295861053466796875e+01 -2.700407218933105469e+01 3.315219581127166748e-01 1.469096243381500244e-01 1.435294747352600098e-01 -2.381394952535629272e-01
2.676000000000000000e+03 3.216856002807617188e+00 1.823068428039550781e+01 -7.344272453337907791e-04 1.986200921237468719e-03 3.755321085918694735e-04 -1.022332813590764999e-03
2.677000000000000000e+03 2.493342638015747070e+00 8.670295715332031250e+00 2.573807141743600368e-04 7.900434429757297039e-04 3.142272471450269222e-04 -7.256135577335953712e-04
2.678000000000000000e+03 3.191396236419677734e+00 1.338325214385986328e+01 3.827511318377219141e-05 1.303829019889235497e-03 4.026312381029129028e-04 -1.392433536238968372e-03
2.679000000000000000e+03 3.170618295669555664e+00 -1.319912910461425781e+01 -8.034538477659225464e-02 6.633104383945465088e-02 -4.204302094876766205e-03 -8.840629458427429199e-02
2.680000000000000000e+03 2.506258964538574219e+00 -1.798875808715820312e+01 -2.303994446992874146e-02 -1.208025664091110229e-01 -4.315275326371192932e-02 -2.200799584388732910e-01
2.681000000000000000e+03 3.236785650253295898e+00 -1.640764427185058594e+01 -6.140675395727157593e-02 -6.052012369036674500e-02 -3.657806292176246643e-02 -2.228383868932723999e-01
2.682000000000000000e+03 2.485862493515014648e+00 -1.396828651428222656e+01 -5.266643315553665161e-02 9.275636076927185059e-02 1.202697772532701492e-02 -1.007111072540283203e-01
2.683000000000000000e+03 3.149268150329589844e+00 -1.241730785369873047e+01 -7.578828185796737671e-02 8.391547948122024536e-02 2.438159193843603134e-03 -5.553903430700302124e-02
2.684000000000000000e+03 3.803888559341430664e+00 -1.169351482391357422e+01 -9.928587079048156738e-02 5.098323523998260498e-02 -1.449079159647226334e-02 -3.302200883626937866e-02
2.685000000000000000e+03 2.441753864288330078e+00 -1.159307289123535156e+01 -4.473709315061569214e-02 1.481567770242691040e-01 3.102590329945087433e-02 -1.454147044569253922e-02
2.686000000000000000e+03 5.131221294403076172e+00 -4.912694931030273438e+00 1.766186021268367767e-02 1.951071782968938351e-03 5.883879493921995163e-03 1.126233786344528198e-01
2.687000000000000000e+03 3.213907241821289062e+00 -1.480116844177246094e+01 -7.916695624589920044e-02 1.275299023836851120e-02 -1.992418989539146423e-02 -1.615529805421829224e-01
2.688000000000000000e+03 3.233119726181030273e+00 -1.560214996337890625e+01 -7.172570377588272095e-02 -2.230141684412956238e-02 -2.820813469588756561e-02 -1.952223926782608032e-01
2.689000000000000000e+03 2.485563516616821289e+00 1.187853527069091797e+01 3.018357674591243267e-04 1.520266290754079819e-03 5.466305883601307869e-04 -1.122210524044930935e-03
2.690000000000000000e+03 3.195871829986572266e+00 1.258013248443603516e+01 3.764736757148057222e-04 1.181695144623517990e-03 4.674506490118801594e-04 -1.368328114040195942e-03
2.691000000000000000e+03 3.201810836791992188e+00 1.177830410003662109e+01 1.357905712211504579e-04 9.999296162277460098e-04 3.407160402275621891e-04 -1.219319412484765053e-03
2.692000000000000000e+03 3.126229524612426758e+00 -1.164103984832763672e+01 -7.026564329862594604e-02 9.716407209634780884e-02 8.069528266787528992e-03 -2.313509956002235413e-02
2.693000000000000000e+03 3.872672557830810547e+00 -1.323351955413818359e+01 -1.119207814335823059e-01 2.164771221578121185e-02 -2.708192169666290283e-02 -1.068272814154624939e-01
2.694000000000000000e+03 2.502718210220336914e+00 -1.880280494689941406e+01 -1.228158362209796906e-02 -1.770771443843841553e-01 -5.680761858820915222e-02 -2.298478335142135620e-01
2.695000000000000000e+03 3.906685590744018555e+00 -1.808433532714843750e+01 -4.720370098948478699e-02 -1.744970530271530151e-01 -6.651022285223007202e-02 -3.056401908397674561e-01
2.696000000000000000e+03 2.501897096633911133e+00 -1.961213493347167969e+01 -2.360499929636716843e-03 -2.344264835119247437e-01 -7.103609293699264526e-02 -2.341980785131454468e-01
2.697000000000000000e+03 9.129710197448730469e+00 -1.911362266540527344e+01 -2.981659024953842163e-02 -3.737523555755615234e-01 -1.210706830024719238e-01 -4.500030279159545898e-01
2.698000000000000000e+03 3.202946186065673828e+00 -1.884547233581542969e+01 -1.831209100782871246e-02 -1.992782056331634521e-01 -6.527709215879440308e-02 -2.767260372638702393e-01
2.699000000000000000e+03 3.237767696380615234e+00 2.064190101623535156e+01 -7.447011303156614304e-04 1.715924590826034546e-03 2.913670323323458433e-04 -1.312348831561394036e-05
2.700000000000000000e+03 3.211142063140869141e+00 1.742830848693847656e+01 -1.109007425839081407e-04 1.974976388737559319e-03 5.592227098532021046e-04 -1.304437755607068539e-03
2.701000000000000000e+03 3.480778932571411133e+00 -2.908395767211914062e+01 4.501367732882499695e-02 -6.339002251625061035e-01 -1.766659766435623169e-01 -8.689449727535247803e-02
2.702000000000000000e+03 3.315268993377685547e+00 2.850242614746093750e+01 -8.626921917311847210e-04 -6.862745154649019241e-03 -2.317631151527166367e-03 6.687254179269075394e-03
2.703000000000000000e+03 3.314590692520141602e+00 2.774326705932617188e+01 -1.952458405867218971e-03 -5.301110446453094482e-03 -2.176070585846900940e-03 6.015382241457700729e-03
2.704000000000000000e+03 2.534742116928100586e+00 -2.438210487365722656e+01 3.348353505134582520e-02 -5.381896495819091797e-01 -1.514118313789367676e-01 -1.721911132335662842e-01
2.705000000000000000e+03 4.597059249877929688e+00 -2.366155052185058594e+01 8.705347031354904175e-02 -4.348386228084564209e-01 -1.043355464935302734e-01 -2.765069901943206787e-01
2.706000000000000000e+03 3.341241121292114258e+00 -2.593583869934082031e+01 5.726293474435806274e-02 -5.616796612739562988e-01 -1.513250172138214111e-01 -1.642442643642425537e-01
2.707000000000000000e+03 3.209761142730712891e+00 1.017186546325683594e+01 1.735828991513699293e-04 7.365989731624722481e-04 2.730545529630035162e-04 -1.004007062874734402e-03
2.708000000000000000e+03 3.224048137664794922e+00 -2.124543380737304688e+01 2.268226630985736847e-02 -3.441506922245025635e-01 -9.644053131341934204e-02 -2.711608409881591797e-01
2.709000000000000000e+03 3.219707489013671875e+00 -2.045586013793945312e+01 1.172334887087345123e-02 -2.988384068012237549e-01 -8.613451570272445679e-02 -2.792167365550994873e-01
2.710000000000000000e+03 3.208736896514892578e+00 -1.965863037109375000e+01 -2.219828777015209198e-03 -2.498168945312500000e-01 -7.561101764440536499e-02 -2.810551226139068604e-01
2.711000000000000000e+03 3.247601032257080078e+00 2.144475936889648438e+01 -1.532258582301437855e-03 1.433241995982825756e-03 -2.970498098875395954e-05 5.941938143223524094e-04
2.712000000000000000e+03 2.527625322341918945e+00 2.154296493530273438e+01 -4.682618600782006979e-04 2.831738907843828201e-03 7.090431172400712967e-04 3.094304411206394434e-04
2.713000000000000000e+03 3.937474727630615234e+00 9.274188995361328125e+00 2.820278750732541084e-04 3.236460615880787373e-04 1.817021839087828994e-04 -9.495264384895563126e-04
2.714000000000000000e+03 3.217076063156127930e+00 8.571375846862792969e+00 1.738188439048826694e-04 5.208291113376617432e-04 2.083943836623802781e-04 -7.872193236835300922e-04
2.715000000000000000e+03 3.212984800338745117e+00 9.368744850158691406e+00 3.663807583507150412e-04 6.519515882246196270e-04 3.054997068829834461e-04 -9.324334678240120411e-04
2.716000000000000000e+03 3.204152584075927734e+00 1.662089347839355469e+01 -3.919682058040052652e-04 1.861335244029760361e-03 4.408101085573434830e-04 -1.366003067232668400e-03
2.717000000000000000e+03 2.918171405792236328e+00 -3.157626724243164062e+01 2.307724580168724060e-02 -7.200197577476501465e-01 -2.090827524662017822e-01 -3.436452522873878479e-02
2.718000000000000000e+03 3.560142278671264648e+00 -2.987481498718261719e+01 3.990599513053894043e-02 -6.408360600471496582e-01 -1.802790164947509766e-01 -7.252264767885208130e-02
2.719000000000000000e+03 3.843557357788085938e+00 3.443623352050781250e+01 9.000658756121993065e-04 -2.052527293562889099e-02 -5.887562409043312073e-03 8.251874707639217377e-03
2.720000000000000000e+03 3.638407468795776367e+00 3.167748641967773438e+01 2.023375127464532852e-04 -1.407217513769865036e-02 -4.160951357334852219e-03 8.874582126736640930e-03
2.721000000000000000e+03 3.847651004791259766e+00 3.345932388305664062e+01 1.065159332938492298e-03 -1.842928491532802582e-02 -5.209237802773714066e-03 9.347239509224891663e-03
2.722000000000000000e+03 3.238618612289428711e+00 6.240295410156250000e+00 2.713622234296053648e-04 3.139821346849203110e-04 1.756033016135916114e-04 -5.376216140575706959e-04
2.723000000000000000e+03 3.221734762191772461e+00 7.782969951629638672e+00 3.200614301022142172e-04 4.608824965544044971e-04 2.342831867281347513e-04 -7.196271326392889023e-04
2.724000000000000000e+03 7.656656646728515625e+01 2.708677482604980469e+01 -2.474768310785293579e-01 7.608122825622558594e+00 2.208193778991699219e+00 7.682465314865112305e-01
2.725000000000000000e+03 2.592631816864013672e+00 2.865016365051269531e+01 -1.311994739808142185e-03 -5.350046791136264801e-03 -1.998612424358725548e-03 5.336766131222248077e-03
2.726000000000000000e+03 3.998056173324584961e+00 2.294491577148437500e+01 -1.801765756681561470e-03 -8.162785670720040798e-04 -7.854133145883679390e-04 2.241814509034156799e-03
2.727000000000000000e+03 3.381225109100341797e+00 -2.671846389770507812e+01 5.237911641597747803e-02 -5.850467085838317871e-01 -1.598002761602401733e-01 -1.436532735824584961e-01
2.728000000000000000e+03 3.284477233886718750e+00 2.384321403503417969e+01 -1.241320394910871983e-03 -2.007938746828585863e-04 -4.326342896092683077e-04 2.504044445231556892e-03
2.729000000000000000e+03 1.490584373474121094e+01 -5.515192985534667969e+00 -1.110316291451454163e-01 -1.191874220967292786e-01 -6.906571239233016968e-02 -2.139476239681243896e-01
2.730000000000000000e+03 7.557608032226562500e+01 -3.665240097045898438e+01 -1.588696427643299103e-02 7.557431221008300781e+00 2.262463331222534180e+00 1.340198889374732971e-02
2.731000000000000000e+03 7.630944824218750000e+01 -3.617230987548828125e+01 -3.268340975046157837e-02 7.805033683776855469e+00 2.331705093383789062e+00 -1.167281903326511383e-02
2.732000000000000000e+03 3.416875123977661133e+00 -2.829371261596679688e+01 4.711038619279861450e-02 -6.193866729736328125e-01 -1.716828793287277222e-01 -1.047812700271606445e-01
2.733000000000000000e+03 3.396574974060058594e+00 -2.750340652465820312e+01 5.192632973194122314e-02 -6.036530733108520508e-01 -1.655180156230926514e-01 -1.224431917071342468e-01
2.734000000000000000e+03 7.664905548095703125e+01 -3.055919647216796875e+01 -1.144287362694740295e-01 8.016369819641113281e+00 2.370582342147827148e+00 -2.335901111364364624e-01
2.735000000000000000e+03 4.890702724456787109e+00 -3.219983291625976562e+01 4.408400878310203552e-02 -5.615147948265075684e-01 -1.552292257547378540e-01 -4.697730764746665955e-02
2.736000000000000000e+03 3.837876129150390625e+01 -2.210009956359863281e+01 9.548696875572204590e-02 1.940937340259552002e-01 8.687420934438705444e-02 9.433735907077789307e-02
2.737000000000000000e+03 3.559424400329589844e+00 3.547381210327148438e+01 1.201556180603802204e-03 -2.137242257595062256e-02 -6.051260046660900116e-03 7.574104703962802887e-03
2.738000000000000000e+03 4.297591400146484375e+01 -1.824613380432128906e+01 4.656234085559844971e-01 1.541017889976501465e+00 6.019923686981201172e-01 5.472475290298461914e-02
2.739000000000000000e+03 3.850206375122070312e+01 -1.744636344909667969e+01 6.531316041946411133e-01 7.507718354463577271e-02 2.184626460075378418e-01 -2.126082926988601685e-01
2.740000000000000000e+03 4.293938827514648438e+01 -1.621112704277038574e+00 -1.217893004417419434e+00 1.128234267234802246e-01 -3.315208852291107178e-01 -5.792542695999145508e-01
2.741000000000000000e+03 7.540743255615234375e+01 -1.988857269287109375e+01 5.997119545936584473e-01 7.799998283386230469e+00 2.519912958145141602e+00 8.211168646812438965e-02
2.742000000000000000e+03 4.706175231933593750e+01 -2.173905372619628906e+00 -1.031202912330627441e+00 5.325613617897033691e-01 -1.495924592018127441e-01 5.677464231848716736e-02
2.743000000000000000e+03 3.516934871673583984e+00 3.085223579406738281e+01 -1.144525827839970589e-03 -1.193844992667436600e-02 -3.924892749637365341e-03 8.210763335227966309e-03
2.744000000000000000e+03 7.633198547363281250e+01 3.492704391479492188e+01 -1.199794709682464600e-01 7.727937698364257812e+00 2.282387495040893555e+00 7.555234432220458984e-02
2.745000000000000000e+03 7.661260986328125000e+01 3.391863250732421875e+01 -1.078998148441314697e-01 7.818823337554931641e+00 2.313277006149291992e+00 1.207818016409873962e-01
2.746000000000000000e+03 7.642150878906250000e+01 3.271492767333984375e+01 -1.472509503364562988e-01 7.770437240600585938e+00 2.286955833435058594e+00 1.874305307865142822e-01
2.747000000000000000e+03 3.847503185272216797e+00 -3.565908050537109375e+01 1.010757498443126678e-02 -6.634227633476257324e-01 -1.959945559501647949e-01 -4.107588436454534531e-03
2.748000000000000000e+03 4.052935600280761719e+00 -3.323021697998046875e+01 2.158747613430023193e-02 -6.399239301681518555e-01 -1.855009347200393677e-01 -2.437208406627178192e-02
2.749000000000000000e+03 4.601650619506835938e+01 1.892127799987792969e+01 -4.039403796195983887e-01 1.148725599050521851e-01 -8.672034740447998047e-02 -4.528578370809555054e-02
2.750000000000000000e+03 3.762479400634765625e+01 1.865435600280761719e+01 -2.723973989486694336e-01 1.831337995827198029e-02 -7.622519880533218384e-02 9.762158989906311035e-02
2.751000000000000000e+03 1.990220069885253906e+01 -1.100994968414306641e+01 -3.619182109832763672e-01 1.456994563341140747e-01 -6.486562639474868774e-02 -3.354689180850982666e-01
2.752000000000000000e+03 3.586795425415039062e+01 1.919177627563476562e+01 -2.804338932037353516e-01 -2.757989801466464996e-02 -9.240413457155227661e-02 1.188092976808547974e-01
2.753000000000000000e+03 3.337505722045898438e+01 2.034722900390625000e+01 -3.022792935371398926e-01 -8.113321661949157715e-02 -1.150237470865249634e-01 1.395736634731292725e-01
2.754000000000000000e+03 4.668754959106445312e+01 -2.795707702636718750e+01 4.253105446696281433e-02 1.264813780784606934e+00 3.922034502029418945e-01 -2.699566185474395752e-01
2.755000000000000000e+03 1.629266166687011719e+01 1.124321556091308594e+01 7.708215271122753620e-04 1.158503582701086998e-03 5.787975387647747993e-04 1.716219587251543999e-03
2.756000000000000000e+03 1.643264579772949219e+01 1.037720775604248047e+01 2.036294463323429227e-04 1.072891987860202789e-03 3.829564375337213278e-04 1.276332535780966282e-03
2.757000000000000000e+03 4.431814193725585938e+01 -1.372163295745849609e+01 7.195735573768615723e-01 1.657467126846313477e+00 7.131122350692749023e-01 4.934591054916381836e-01
2.758000000000000000e+03 6.495236206054687500e+01 4.589984416961669922e+00 2.692967951297760010e-01 3.717399597167968750e+00 1.196008920669555664e+00 1.215637207031250000e+00
2.759000000000000000e+03 4.808100509643554688e+01 1.771900177001953125e+01 -3.201714754104614258e-01 1.531005930155515671e-02 -9.145842492580413818e-02 -1.476539224386215210e-01
2.760000000000000000e+03 1.156497192382812500e+01 -2.491790771484375000e+01 3.329603672027587891e-01 2.987104281783103943e-02 1.088494211435317993e-01 -2.460000663995742798e-01
2.761000000000000000e+03 1.181317138671875000e+01 -2.605192375183105469e+01 3.212665915489196777e-01 4.368774592876434326e-02 1.094863042235374451e-01 -2.291070818901062012e-01
2.762000000000000000e+03 4.868244171142578125e+01 -7.304376602172851562e+00 -2.881010472774505615e-01 1.451977849006652832e+00 3.491630256175994873e-01 7.020956873893737793e-01
2.763000000000000000e+03 5.632693290710449219e+00 -4.325927257537841797e+00 3.642198443412780762e-02 -7.740514352917671204e-03 8.604440838098526001e-03 1.083752140402793884e-01
2.764000000000000000e+03 6.731243610382080078e+00 -5.208715915679931641e+00 9.797720238566398621e-03 -4.190490767359733582e-02 -9.632157161831855774e-03 1.039218902587890625e-01
2.765000000000000000e+03 3.335211944580078125e+01 2.172484397888183594e+01 -2.542775273323059082e-01 -7.230705022811889648e-02 -9.797537326812744141e-02 1.241280958056449890e-01
2.766000000000000000e+03 3.412483692169189453e+00 -5.271913051605224609e+00 5.222186911851167679e-03 5.301932618021965027e-02 1.747245341539382935e-02 1.043873950839042664e-01
2.767000000000000000e+03 3.213820695877075195e+00 -6.923706054687500000e+00 -1.779270544648170471e-02 8.045803010463714600e-02 1.879959739744663239e-02 9.487207978963851929e-02
2.768000000000000000e+03 4.695398330688476562e+01 -2.980552291870117188e+01 -2.927434444427490234e-02 1.051333665847778320e+00 3.066177964210510254e-01 -2.608833909034729004e-01
2.769000000000000000e+03 5.775151729583740234e+00 -5.352517127990722656e+00 3.467271802946925163e-03 -1.928072050213813782e-02 -4.744034726172685623e-03 1.122430115938186646e-01
2.770000000000000000e+03 4.663401412963867188e+01 9.813342094421386719e+00 -1.756796496920287609e-03 -7.616179995238780975e-03 -2.811892889440059662e-03 2.759438240900635719e-03
2.771000000000000000e+03 4.425902175903320312e+01 7.643733978271484375e+00 6.893511861562728882e-03 -4.904749803245067596e-03 5.966285825707018375e-04 -3.164691850543022156e-03
2.772000000000000000e+03 7.289009094238281250e+00 -4.840959072113037109e+00 2.429718337953090668e-02 -5.070840194821357727e-02 -7.923365570604801178e-03 9.719968587160110474e-02
2.773000000000000000e+03 4.808338928222656250e+01 -3.289301395416259766e+00 -9.259536266326904297e-01 6.810603737831115723e-01 -7.346796244382858276e-02 3.345457315444946289e-01
2.774000000000000000e+03 1.439785861968994141e+01 -2.876982688903808594e+01 3.456256091594696045e-01 1.917873322963714600e-01 1.612238883972167969e-01 -2.231785356998443604e-01
2.775000000000000000e+03 5.777854919433593750e+01 2.589237403869628906e+01 -6.605575680732727051e-01 1.177150309085845947e-01 -1.628527641296386719e-01 -3.388317301869392395e-03
2.776000000000000000e+03 1.994583702087402344e+01 2.233917427062988281e+01 -8.950353413820266724e-02 6.796943023800849915e-03 -2.481197752058506012e-02 2.473379485309123993e-02
2.777000000000000000e+03 6.659555053710937500e+01 -2.602439880371093750e+01 1.105207670480012894e-02 4.567175865173339844e+00 1.373468279838562012e+00 1.433925986289978027e+00
2.778000000000000000e+03 6.832418060302734375e+01 -2.530516815185546875e+01 -2.284701913595199585e-01 6.629468441009521484e+00 1.920299410820007324e+00 1.069392323493957520e+00
2.779000000000000000e+03 1.904206085205078125e+01 -5.463084697723388672e+00 -3.164867758750915527e-01 4.416018724441528320e-02 -8.169797807931900024e-02 -3.281258344650268555e-01
2.780000000000000000e+03 5.114683151245117188e+01 -6.858366012573242188e+00 -4.941581189632415771e-01 8.737006187438964844e-01 1.138627454638481140e-01 1.178323984146118164e+00
2.781000000000000000e+03 2.906859970092773438e+01 -7.349526882171630859e+00 -1.287620782852172852e+00 -1.496707946062088013e-01 -4.311874508857727051e-01 -4.159949123859405518e-01
2.782000000000000000e+03 3.889935302734375000e+01 1.534753990173339844e+01 -1.635426133871078491e-01 1.360927242785692215e-03 -4.865450412034988403e-02 6.579855829477310181e-02
2.783000000000000000e+03 3.946269226074218750e+01 1.479456520080566406e+01 -1.415578275918960571e-01 9.060504846274852753e-03 -3.974919766187667847e-02 5.237902328372001648e-02
2.784000000000000000e+03 4.740625762939453125e+01 -1.041197872161865234e+01 8.291813135147094727e-01 2.128206729888916016e+00 8.872164487838745117e-01 9.187720417976379395e-01
2.785000000000000000e+03 4.510683441162109375e+01 -1.061290645599365234e+01 4.884126186370849609e-01 1.426542878150939941e+00 5.744866728782653809e-01 4.096519947052001953e-01
2.786000000000000000e+03 4.421895599365234375e+01 8.709823608398437500e+00 5.102315451949834824e-03 -7.750234566628932953e-03 -7.943756645545363426e-04 -2.933687530457973480e-03
2.787000000000000000e+03 6.469891357421875000e+01 2.613866424560546875e+01 -3.963102698326110840e-01 3.201997756958007812e+00 8.417062759399414062e-01 -1.847159504890441895e+00
2.788000000000000000e+03 6.358980560302734375e+01 2.536567878723144531e+01 -3.734021782875061035e-01 1.956380486488342285e+00 4.748934805393218994e-01 -1.589296460151672363e+00
2.789000000000000000e+03 1.371506500244140625e+01 -1.099506855010986328e+01 -6.120790243148803711e-01 -5.434147715568542480e-01 -3.466481566429138184e-01 -3.290354907512664795e-01
2.790000000000000000e+03 7.075843048095703125e+01 1.565400695800781250e+01 1.784723043441772461e+00 1.242770385742187500e+01 4.263728141784667969e+00 -9.976530075073242188e-02
2.791000000000000000e+03 1.677280807495117188e+01 1.557346343994140625e+01 1.746824826113879681e-03 2.553955418989062309e-03 1.290234038606286049e-03 3.186381421983242035e-03
2.792000000000000000e+03 1.613513946533203125e+01 1.470305442810058594e+01 1.594201894477009773e-03 1.009393832646310329e-03 7.810787064954638481e-04 2.864750567823648453e-03
2.793000000000000000e+03 5.474754714965820312e+01 -1.516428828239440918e+00 2.769916132092475891e-02 1.866723597049713135e-01 6.431145220994949341e-02 7.322193980216979980e-01
2.794000000000000000e+03 5.504965591430664062e+01 -6.561169624328613281e+00 -7.527791261672973633e-01 -5.049071907997131348e-01 -3.773058950901031494e-01 9.819492101669311523e-01
2.795000000000000000e+03 6.827105712890625000e+01 -2.654964637756347656e+01 -3.985037207603454590e-01 6.108100891113281250e+00 1.712879180908203125e+00 9.508475661277770996e-01
2.796000000000000000e+03 4.724414825439453125e+01 1.528047657012939453e+01 -1.271805614233016968e-01 -7.269916590303182602e-03 -4.033514484763145447e-02 -7.183156907558441162e-02
2.797000000000000000e+03 4.798813247680664062e+01 1.516068077087402344e+01 -1.086995154619216919e-01 -2.236003801226615906e-02 -3.931786492466926575e-02 -7.326465100049972534e-02
2.798000000000000000e+03 4.921361923217773438e+01 -1.822005987167358398e+00 -8.783587217330932617e-01 3.177858591079711914e-01 -1.681718677282333374e-01 3.712325394153594971e-01
2.799000000000000000e+03 7.005975341796875000e+01 -2.015648078918457031e+01 1.760718345642089844e+00 9.691071510314941406e+00 3.435536861419677734e+00 6.589230895042419434e-01
2.800000000000000000e+03 1.662115287780761719e+01 4.478937149047851562e+00 1.976129278773441911e-04 2.156126574845984578e-04 1.239676785189658403e-04 3.361415292602032423e-04
2.801000000000000000e+03 4.222296905517578125e+01 -3.292110919952392578e+00 -1.585964441299438477e+00 9.854717552661895752e-02 -4.462251663208007812e-01 -4.722752869129180908e-01
2.802000000000000000e+03 4.162210464477539062e+01 -4.278149127960205078e+00 -1.557632207870483398e+00 1.825009658932685852e-02 -4.618146121501922607e-01 -3.607451617717742920e-01
2.803000000000000000e+03 4.379014587402343750e+01 -1.769538688659667969e+01 4.348056912422180176e-01 1.874062657356262207e+00 6.926605105400085449e-01 1.367559880018234253e-01
2.804000000000000000e+03 6.788593292236328125e+01 6.238482952117919922e+00 -2.415271550416946411e-01 6.896483898162841797e+00 1.996487140655517578e+00 8.249984383583068848e-01
2.805000000000000000e+03 9.858089447021484375e+00 -5.226620197296142578e+00 2.777935937047004700e-03 -1.181202605366706848e-01 -3.460269793868064880e-02 3.819433227181434631e-02
2.806000000000000000e+03 3.702598571777343750e+01 1.921562194824218750e+01 -2.771550118923187256e-01 8.823299780488014221e-03 -8.049951493740081787e-02 1.042956113815307617e-01
2.807000000000000000e+03 6.713856506347656250e+01 -2.657819175720214844e+01 -2.088149636983871460e-01 5.043678760528564453e+00 1.450459122657775879e+00 1.242388129234313965e+00
2.808000000000000000e+03 2.804693412780761719e+01 -3.281917572021484375e+01 3.291245102882385254e-01 5.637810379266738892e-02 1.156507879495620728e-01 -6.434705108404159546e-02
2.809000000000000000e+03 6.291038894653320312e+01 2.934756278991699219e+00 4.981903135776519775e-01 2.107167482376098633e+00 7.816073298454284668e-01 8.714367747306823730e-01
2.810000000000000000e+03 6.359482955932617188e+01 3.453469276428222656e+00 4.291622340679168701e-01 2.571199893951416016e+00 9.001086354255676270e-01 9.861776828765869141e-01
2.811000000000000000e+03 4.787705612182617188e+01 -8.839507102966308594e+00 2.628853023052215576e-01 1.753728389739990234e+00 6.049841046333312988e-01 7.000222206115722656e-01
2.812000000000000000e+03 4.613807678222656250e+01 -2.698712825775146484e+00 -1.100212931632995605e+00 6.141592264175415039e-01 -1.458161026239395142e-01 -6.386276334524154663e-02
2.813000000000000000e+03 4.681204605102539062e+01 -2.855661153793334961e+00 -1.050883650779724121e+00 6.534102559089660645e-01 -1.192420348525047302e-01 6.735286116600036621e-02
2.814000000000000000e+03 4.337152099609375000e+01 -1.918166732788085938e+01 4.029739201068878174e-01 1.719595432281494141e+00 6.367707848548889160e-01 8.267630822956562042e-03
2.815000000000000000e+03 6.249984741210937500e+01 -3.127306556701660156e+01 -7.457212358713150024e-02 1.612912654876708984e+00 4.615021646022796631e-01 7.380900382995605469e-01
2.816000000000000000e+03 6.397681045532226562e+01 -3.106843376159667969e+01 -8.431351929903030396e-02 2.489227056503295898e+00 7.214740514755249023e-01 8.197218179702758789e-01
2.817000000000000000e+03 4.391874313354492188e+01 -1.692461967468261719e+01 4.725287854671478271e-01 1.884633064270019531e+00 7.071485519409179688e-01 2.265735864639282227e-01
2.818000000000000000e+03 4.155670166015625000e+01 -1.867995643615722656e+01 4.841322004795074463e-01 1.035955786705017090e+00 4.560264050960540771e-01 -1.811904087662696838e-02
2.819000000000000000e+03 5.958464431762695312e+01 3.701848685741424561e-01 6.566295027732849121e-01 6.722971200942993164e-01 3.986779749393463135e-01 4.761250019073486328e-01
2.820000000000000000e+03 4.295598602294921875e+01 1.139597988128662109e+01 -2.619118802249431610e-02 -9.800988482311367989e-04 -8.151385933160781860e-03 1.307272352278232574e-03
2.821000000000000000e+03 4.200536346435546875e+01 1.350122070312500000e+01 -9.696383774280548096e-02 1.583686098456382751e-02 -2.433809265494346619e-02 1.561301108449697495e-02
2.822000000000000000e+03 2.888311958312988281e+01 -1.295719242095947266e+01 7.142872810363769531e-01 7.643357664346694946e-02 2.372162491083145142e-01 -4.528632164001464844e-01
2.823000000000000000e+03 2.655224800109863281e+01 -1.263053989410400391e+01 4.550479352474212646e-01 1.039216294884681702e-01 1.676908731460571289e-01 -4.777452945709228516e-01
2.824000000000000000e+03 2.305201721191406250e+01 -3.397016143798828125e+01 3.117730915546417236e-01 1.697689741849899292e-01 1.444626301527023315e-01 -1.641750484704971313e-01
2.825000000000000000e+03 1.658386039733886719e+01 3.377613067626953125e+00 9.432291699340566993e-05 8.743659418541938066e-05 5.452785262605175376e-05 2.270870609208941460e-04
2.826000000000000000e+03 1.899070549011230469e+01 -6.198879241943359375e+00 -3.487340807914733887e-01 4.600800573825836182e-02 -9.081782400608062744e-02 -3.715597987174987793e-01
2.827000000000000000e+03 4.746328353881835938e+01 1.347691917419433594e+01 -5.289410427212715149e-02 -1.470793504267930984e-02 -2.028061076998710632e-02 -3.023053519427776337e-02
2.828000000000000000e+03 4.673404312133789062e+01 1.356319427490234375e+01 -6.079434975981712341e-02 -1.133031118661165237e-02 -2.163739874958992004e-02 -3.181539103388786316e-02
2.829000000000000000e+03 9.597021102905273438e+00 5.097691535949707031e+00 6.256409105844795704e-04 -4.252270155120640993e-04 6.012417361489497125e-05 -2.748569932009559125e-05
2.830000000000000000e+03 4.697467422485351562e+01 1.442982864379882812e+01 -9.803522378206253052e-02 -1.155137363821268082e-02 -3.287597745656967163e-02 -5.038809403777122498e-02
2.831000000000000000e+03 1.119672679901123047e+01 -2.565613365173339844e+01 3.149213790893554688e-01 -2.004995569586753845e-02 8.846142888069152832e-02 -2.277730554342269897e-01
2.832000000000000000e+03 6.542564392089843750e+01 -2.717840003967285156e+01 -5.390385538339614868e-02 3.283360958099365234e+00 9.688371419906616211e-01 1.178986668586730957e+00
2.833000000000000000e+03 5.412507629394531250e+01 2.434651756286621094e+01 -1.027244567871093750e+00 -6.833747029304504395e-02 -3.286746144294738770e-01 1.700202524662017822e-01
2.834000000000000000e+03 1.207055091857910156e+01 4.160891056060791016e+00 4.904318484477698803e-04 -2.437005605315789580e-04 7.401939365081489086e-05 2.437804505461826921e-04
2.835000000000000000e+03 1.127574348449707031e+01 4.255327224731445312e+00 6.015199469402432442e-04 -2.231108519481495023e-04 1.135227284976281226e-04 1.884272933239117265e-04
2.836000000000000000e+03 6.654697418212890625e+01 -2.717286682128906250e+01 -2.180585712194442749e-01 4.447391033172607422e+00 1.268799662590026855e+00 1.220899105072021484e+00
2.837000000000000000e+03 1.917735862731933594e+01 -3.300889968872070312e+01 2.684544324874877930e-01 2.352409809827804565e-01 1.511086225509643555e-01 -1.830564737319946289e-01
2.838000000000000000e+03 1.761383247375488281e+01 -3.104680442810058594e+01 3.450032472610473633e-01 2.665733695030212402e-01 1.834729909896850586e-01 -2.130966037511825562e-01
2.839000000000000000e+03 4.799621200561523438e+01 -7.043351650238037109e+00 -3.913199603557586670e-01 1.416412353515625000e+00 3.075277209281921387e-01 5.601320266723632812e-01
2.840000000000000000e+03 2.889813804626464844e+01 -1.146045303344726562e+01 1.441451162099838257e-01 3.677432984113693237e-02 5.427583307027816772e-02 -5.168084502220153809e-01
2.841000000000000000e+03 6.695980072021484375e+01 -1.092173099517822266e+01 -1.552025675773620605e+00 4.362541675567626953e+00 8.431547880172729492e-01 -1.030041337013244629e+00
2.842000000000000000e+03 6.612661743164062500e+01 -1.067933177947998047e+01 -1.487865567207336426e+00 3.096865892410278320e+00 4.827001392841339111e-01 -1.084150671958923340e+00
2.843000000000000000e+03 3.880405426025390625e+01 1.757952690124511719e+01 -2.519530057907104492e-01 3.431401774287223816e-02 -6.529169529676437378e-02 7.789272069931030273e-02
2.844000000000000000e+03 4.050085067749023438e+01 1.486205959320068359e+01 -1.516008228063583374e-01 2.699380554258823395e-02 -3.738210722804069519e-02 3.961942717432975769e-02
2.845000000000000000e+03 2.597233009338378906e+01 -6.566610813140869141e+00 -9.652935862541198730e-01 2.537730336189270020e-01 -2.134561538696289062e-01 -2.771245837211608887e-01
2.846000000000000000e+03 2.310448074340820312e+01 -5.702530384063720703e+00 -6.221923232078552246e-01 2.134298235177993774e-01 -1.226287558674812317e-01 -2.272626310586929321e-01
2.847000000000000000e+03 5.256830978393554688e+01 -6.159605503082275391e+00 -5.342086553573608398e-01 1.880242377519607544e-01 -1.038553193211555481e-01 1.317771553993225098e+00
2.848000000000000000e+03 2.745923233032226562e+01 -6.269515514373779297e+00 -1.296841621398925781e+00 1.572023332118988037e-01 -3.418917953968048096e-01 -2.287244796752929688e-01
2.849000000000000000e+03 6.450131225585937500e+01 2.514619064331054688e+01 -4.407862424850463867e-01 2.734434843063354492e+00 6.880945563316345215e-01 -1.856233596801757812e+00
2.850000000000000000e+03 6.262873458862304688e+01 2.552759933471679688e+01 -3.869289457798004150e-01 1.197207689285278320e+00 2.430836111307144165e-01 -1.200850367546081543e+00
2.851000000000000000e+03 1.847815704345703125e+01 3.230573892593383789e+00 1.181307961815036833e-04 1.392367412336170673e-04 7.721026486251503229e-05 1.088434655684977770e-04
2.852000000000000000e+03 3.883118820190429688e+01 -2.161423110961914062e+01 1.347021907567977905e-01 3.126479983329772949e-01 1.342050582170486450e-01 5.512867122888565063e-02
2.853000000000000000e+03 3.764980697631835938e+01 -2.444655609130859375e+01 3.452637791633605957e-02 4.454752802848815918e-02 2.372217178344726562e-02 1.939240396022796631e-01
2.854000000000000000e+03 3.397789001464843750e+01 2.098015022277832031e+01 -2.785974144935607910e-01 -6.093962490558624268e-02 -1.018611043691635132e-01 1.251230984926223755e-01
2.855000000000000000e+03 7.428354644775390625e+01 9.805890083312988281e+00 2.078965604305267334e-01 8.147315979003906250e+00 2.506563901901245117e+00 -1.305787444114685059e+00
2.856000000000000000e+03 7.067757415771484375e+01 1.262238216400146484e+01 1.456480860710144043e+00 1.118815135955810547e+01 3.793389797210693359e+00 -1.239372044801712036e-01
2.857000000000000000e+03 4.903811264038085938e+01 -2.956930398941040039e+00 -8.440152406692504883e-01 5.181416273117065430e-01 -9.776209294795989990e-02 4.720872342586517334e-01
2.858000000000000000e+03 4.644558334350585938e+01 6.787804603576660156e+00 2.247114665806293488e-03 -2.369763096794486046e-03 -3.679456494865007699e-05 1.484458800405263901e-03
2.859000000000000000e+03 4.654241561889648438e+01 7.528357028961181641e+00 5.100227892398834229e-03 -2.394217764958739281e-03 8.118030382320284843e-04 4.451442975550889969e-03
2.860000000000000000e+03 5.674074935913085938e+01 2.595823860168457031e+01 -6.494683623313903809e-01 1.378301437944173813e-02 -1.907056123018264771e-01 1.186001673340797424e-01
2.861000000000000000e+03 1.731910133361816406e+01 -6.001715183258056641e+00 -2.531457245349884033e-01 -3.706279024481773376e-02 -8.706255257129669189e-02 -3.417653441429138184e-01
2.862000000000000000e+03 1.814732933044433594e+01 -6.114480495452880859e+00 -3.005094826221466064e-01 5.828997818753123283e-04 -8.997797220945358276e-02 -3.604950308799743652e-01
2.863000000000000000e+03 3.186267471313476562e+01 -7.032530784606933594e+00 -1.736212849617004395e+00 -4.042639732360839844e-01 -6.421430706977844238e-01 -2.657062709331512451e-01
2.864000000000000000e+03 1.612899398803710938e+01 1.384767627716064453e+01 8.219155133701860905e-04 1.159974490292370319e-03 5.945669836364686489e-04 2.425861312076449394e-03
2.865000000000000000e+03 1.614362335205078125e+01 1.298722171783447266e+01 1.225189887918531895e-03 1.229508663527667522e-03 7.364095654338598251e-04 2.350148744881153107e-03
2.866000000000000000e+03 4.354156875610351562e+01 1.038591670989990234e+01 -1.089029852300882339e-02 -8.490207605063915253e-03 -5.814151838421821594e-03 -8.649270166642963886e-04
2.867000000000000000e+03 4.372270202636718750e+01 1.163153743743896484e+01 -3.204127401113510132e-02 -4.465668462216854095e-03 -1.095208246260881424e-02 -1.365296309813857079e-03
2.868000000000000000e+03 6.535990905761718750e+01 -2.820391464233398438e+01 -1.895711719989776611e-01 3.333948850631713867e+00 9.433133006095886230e-01 1.055656433105468750e+00
2.869000000000000000e+03 4.304111862182617188e+01 1.327307319641113281e+01 -8.867265284061431885e-02 1.053181663155555725e-02 -2.344225160777568817e-02 3.128685289993882179e-03
2.870000000000000000e+03 4.277450561523437500e+01 1.386140632629394531e+01 -1.140295788645744324e-01 1.803098060190677643e-02 -2.879957854747772217e-02 4.662390332669019699e-03
2.871000000000000000e+03 3.748245620727539062e+01 -1.754479980468750000e+01 6.302681565284729004e-01 -1.542826741933822632e-01 1.427956521511077881e-01 -2.756822407245635986e-01
2.872000000000000000e+03 1.743172264099121094e+01 8.745290756225585938e+00 2.336858888156712055e-04 1.036615227349102497e-03 3.810903290286660194e-04 7.148435106500983238e-04
2.873000000000000000e+03 1.752288436889648438e+01 6.226772308349609375e+00 1.428030518582090735e-04 4.600259708240628242e-04 1.808486995287239552e-04 3.878063580486923456e-04
2.874000000000000000e+03 4.911753082275390625e+01 1.837402725219726562e+01 -3.936384320259094238e-01 -1.447258051484823227e-02 -1.224333047866821289e-01 -2.031273692846298218e-01
2.875000000000000000e+03 4.731263351440429688e+01 1.785552406311035156e+01 -3.349073827266693115e-01 5.424956232309341431e-02 -8.419734984636306763e-02 -1.174440979957580566e-01
2.876000000000000000e+03 3.877086639404296875e+01 -6.429922103881835938e+00 -1.246499896049499512e+00 -3.765231370925903320e-01 -4.869069159030914307e-01 -3.859345912933349609e-01
2.877000000000000000e+03 5.085498428344726562e+01 -2.154436111450195312e+00 -6.099792718887329102e-01 1.018812060356140137e-01 -1.524294316768646240e-01 7.070792913436889648e-01
2.878000000000000000e+03 5.041328048706054688e+01 -1.661214351654052734e+00 -6.848335862159729004e-01 5.106293410062789917e-02 -1.901311874389648438e-01 5.444132089614868164e-01
2.879000000000000000e+03 1.692108154296875000e+01 1.729851913452148438e+01 1.426628907211124897e-03 1.649635145440697670e-03 9.228792041540145874e-04 2.287650713697075844e-03
2.880000000000000000e+03 1.614134216308593750e+01 1.556963348388671875e+01 1.008170540444552898e-03 5.067833117209374905e-04 4.544861440081149340e-04 2.584127942100167274e-03
2.881000000000000000e+03 1.611216545104980469e+01 -2.971233177185058594e+01 3.767836689949035645e-01 2.557801306247711182e-01 1.897691339254379272e-01 -2.254579663276672363e-01
2.882000000000000000e+03 7.087185668945312500e+01 1.727641296386718750e+01 1.987893581390380859e+00 1.216708755493164062e+01 4.246494293212890625e+00 -2.267638742923736572e-01
2.883000000000000000e+03 5.667267608642578125e+01 -3.262153387069702148e+00 9.992956183850765228e-03 8.109334111213684082e-02 2.732588909566402435e-02 7.089171409606933594e-01
2.884000000000000000e+03 1.702638816833496094e+01 7.854026317596435547e+00 2.379831421421840787e-04 7.139143999665975571e-04 2.855692582670599222e-04 6.929713999852538109e-04
2.885000000000000000e+03 1.994392776489257812e+01 2.451851272583007812e+01 -8.057594299316406250e-02 -1.436831057071685791e-02 -2.848327718675136566e-02 5.866933614015579224e-02
2.886000000000000000e+03 6.451337432861328125e+01 -1.014625549316406250e+01 -1.358319044113159180e+00 1.142230272293090820e+00 -6.482666730880737305e-02 -4.826353788375854492e-01
2.887000000000000000e+03 3.277006912231445312e+01 2.264549827575683594e+01 -2.225759625434875488e-01 -7.829491794109344482e-02 -9.026126563549041748e-02 1.277807503938674927e-01
2.888000000000000000e+03 2.806549835205078125e+01 -1.211134910583496094e+01 3.421757519245147705e-01 7.889428734779357910e-02 1.263210177421569824e-01 -5.137217044830322266e-01
2.889000000000000000e+03 4.979179382324218750e+01 -6.354582786560058594e+00 -5.173020958900451660e-01 1.141883254051208496e+00 1.873743385076522827e-01 8.879491686820983887e-01
2.890000000000000000e+03 2.586212348937988281e+01 -3.403363418579101562e+01 3.236324191093444824e-01 1.112810224294662476e-01 1.304740309715270996e-01 -1.175110638141632080e-01
2.891000000000000000e+03 5.639825820922851562e+01 -3.322792434692382812e+01 2.483502477407455444e-01 1.901389360427856445e-01 1.315467506647109985e-01 -2.412087470293045044e-01
2.892000000000000000e+03 6.938290405273437500e+01 2.127815818786621094e+01 1.512293219566345215e-01 1.132087516784667969e+01 3.441631555557250977e+00 -1.195628568530082703e-01
2.893000000000000000e+03 6.969485473632812500e+01 2.064472961425781250e+01 1.491997718811035156e+00 1.165253639221191406e+01 3.943360328674316406e+00 2.759094238281250000e-01
2.894000000000000000e+03 4.874391937255859375e+01 2.000244522094726562e+01 -6.073043346405029297e-01 1.061318069696426392e-01 -1.503517627716064453e-01 -1.236922964453697205e-01
2.895000000000000000e+03 9.279690742492675781e+00 -2.089595985412597656e+01 1.483484059572219849e-01 -3.123667240142822266e-01 -4.920549690723419189e-02 -4.081777334213256836e-01
2.896000000000000000e+03 6.999623870849609375e+01 1.487787246704101562e+01 1.759283065795898438e+00 1.348156642913818359e+01 4.572254657745361328e+00 3.032414317131042480e-01
2.897000000000000000e+03 6.989527130126953125e+01 1.330759811401367188e+01 1.633826494216918945e+00 1.259029960632324219e+01 4.267237663269042969e+00 3.727073669433593750e-01
2.898000000000000000e+03 1.660959625244140625e+01 9.524148941040039062e+00 4.395225842017680407e-04 9.766779839992523193e-04 4.248601617291569710e-04 1.133059966377913952e-03
2.899000000000000000e+03 8.469807624816894531e+00 -1.738355827331542969e+01 -2.105654776096343994e-01 -3.395410478115081787e-01 -1.650319546461105347e-01 -4.426577091217041016e-01
2.900000000000000000e+03 9.197034835815429688e+00 -2.000139427185058594e+01 6.625411659479141235e-02 -3.439450562000274658e-01 -8.330728113651275635e-02 -4.309348464012145996e-01
2.901000000000000000e+03 5.188375854492187500e+01 -3.344568252563476562e+01 1.541219651699066162e-01 4.320664405822753906e-01 1.758565157651901245e-01 -4.868780672550201416e-01
2.902000000000000000e+03 4.424378585815429688e+01 -1.453437328338623047e+01 6.653548479080200195e-01 1.761452198028564453e+00 7.280421257019042969e-01 4.654411673545837402e-01
2.903000000000000000e+03 4.414393997192382812e+01 -1.534366130828857422e+01 5.948202013969421387e-01 1.825845479965209961e+00 7.261996865272521973e-01 3.990538418292999268e-01
2.904000000000000000e+03 5.851823043823242188e+01 4.553430676460266113e-01 6.911725401878356934e-01 4.509130418300628662e-01 3.426256775856018066e-01 4.451708495616912842e-01
2.905000000000000000e+03 8.821849822998046875e+00 4.473389625549316406e+00 5.630442756228148937e-04 -3.149703843519091606e-04 7.442217611242085695e-05 -1.199062535306438804e-04
2.906000000000000000e+03 5.626092147827148438e+01 -8.580786585807800293e-01 3.665528893470764160e-01 2.843264937400817871e-01 1.952638179063796997e-01 5.226653218269348145e-01
2.907000000000000000e+03 3.266827774047851562e+01 -7.641949653625488281e+00 -1.384801983833312988e+00 -4.007262289524078369e-01 -5.356584787368774414e-01 -2.728423774242401123e-01
2.908000000000000000e+03 3.855987167358398438e+01 -2.281673622131347656e+01 7.857805490493774414e-02 2.566164135932922363e-01 1.005583405494689941e-01 1.347338408231735229e-01
2.909000000000000000e+03 3.695058822631835938e+01 -2.732477188110351562e+01 1.220572888851165771e-01 8.949413895606994629e-02 6.346543133258819580e-02 2.010548561811447144e-01
2.910000000000000000e+03 3.584766769409179688e+01 -2.902402305603027344e+01 1.665132492780685425e-01 7.329132407903671265e-02 7.194137573242187500e-02 1.439520120620727539e-01
2.911000000000000000e+03 5.031430816650390625e+01 -3.143558311462402344e+01 -2.911926992237567902e-02 6.594688892364501953e-01 1.891048848628997803e-01 -4.641741812229156494e-01
2.912000000000000000e+03 4.858982086181640625e+01 -2.993864250183105469e+01 -1.056416146457195282e-02 9.260369539260864258e-01 2.746418416500091553e-01 -3.864611685276031494e-01
2.913000000000000000e+03 9.750527381896972656e+00 -1.666061782836914062e+01 -3.227587640285491943e-01 -4.721857607364654541e-01 -2.384833544492721558e-01 -4.329982995986938477e-01
2.914000000000000000e+03 3.947902679443359375e+00 -1.727737808227539062e+01 -6.792569160461425781e-02 -1.355515420436859131e-01 -6.104316934943199158e-02 -2.874362170696258545e-01
2.915000000000000000e+03 5.737833404541015625e+01 -1.059616565704345703e+00 4.222911894321441650e-01 3.310410380363464355e-01 2.259996682405471802e-01 4.824449121952056885e-01
2.916000000000000000e+03 1.932398986816406250e+01 -3.408996582031250000e+01 2.326070070266723633e-01 2.252102494239807129e-01 1.373451799154281616e-01 -1.608444154262542725e-01
2.917000000000000000e+03 5.701696395874023438e+01 -3.277788925170898438e+01 1.891652345657348633e-01 1.713946461677551270e-01 1.081679686903953552e-01 -1.816490143537521362e-01
2.918000000000000000e+03 4.833918380737304688e+01 1.849361419677734375e+01 -4.112451672554016113e-01 4.537358880043029785e-02 -1.097614690661430359e-01 -1.583677530288696289e-01
2.919000000000000000e+03 4.368819808959960938e+01 -2.022565841674804688e+01 3.738991916179656982e-01 1.834008812904357910e+00 6.623724102973937988e-01 -4.506874457001686096e-02
2.920000000000000000e+03 4.340018463134765625e+01 -2.188031959533691406e+01 3.767824470996856689e-01 1.605858087539672852e+00 5.947921872138977051e-01 -2.555990964174270630e-02
2.921000000000000000e+03 2.158901977539062500e+01 -6.492450237274169922e+00 -5.115824341773986816e-01 1.766630262136459351e-01 -1.004758328199386597e-01 -3.371097445487976074e-01
2.922000000000000000e+03 4.554583358764648438e+01 -2.553598022460937500e+01 2.073172479867935181e-01 1.661451578140258789e+00 5.606306195259094238e-01 -1.717348843812942505e-01
2.923000000000000000e+03 4.491487884521484375e+01 -2.650459480285644531e+01 1.098565682768821716e-01 1.425900697708129883e+00 4.607271850109100342e-01 -5.391922593116760254e-02
2.924000000000000000e+03 5.550698089599609375e+01 -3.304319381713867188e+01 1.850701719522476196e-01 2.005405724048614502e-01 1.156832203269004822e-01 -3.572856187820434570e-01
2.925000000000000000e+03 2.432439994812011719e+01 -3.325575256347656250e+01 3.459420800209045410e-01 1.290550231933593750e-01 1.424991339445114136e-01 -1.454833596944808960e-01
2.926000000000000000e+03 5.418488311767578125e+01 -3.340232849121093750e+01 2.232016175985336304e-01 2.612714171409606934e-01 1.453419178724288940e-01 -4.392134249210357666e-01
2.927000000000000000e+03 2.874189376831054688e+01 2.473041534423828125e+01 -1.375329941511154175e-01 -9.554968774318695068e-02 -6.992480158805847168e-02 1.328942328691482544e-01
2.928000000000000000e+03 5.886850357055664062e+01 -1.228507533669471741e-01 6.184505224227905273e-01 5.349982380867004395e-01 3.460346162319183350e-01 4.393646121025085449e-01
2.929000000000000000e+03 6.339872741699218750e+01 -3.203990936279296875e+01 3.620252013206481934e-02 2.187980890274047852e+00 6.672550439834594727e-01 7.815774679183959961e-01
2.930000000000000000e+03 2.116248512268066406e+01 -3.361914443969726562e+01 2.841869294643402100e-01 2.017655521631240845e-01 1.457857489585876465e-01 -1.748578697443008423e-01
2.931000000000000000e+03 1.910361862182617188e+01 -1.006522083282470703e+01 -4.614497721195220947e-01 9.052309393882751465e-02 -1.112780049443244934e-01 -4.247298240661621094e-01
2.932000000000000000e+03 2.652692031860351562e+01 -5.848676204681396484e+00 -1.098425507545471191e+00 2.089302390813827515e-01 -2.668485939502716064e-01 -1.443400532007217407e-01
2.933000000000000000e+03 2.619814872741699219e+01 -5.462149143218994141e+00 -1.027560472488403320e+00 2.271087318658828735e-01 -2.401355206966400146e-01 -6.876149773597717285e-02
2.934000000000000000e+03 4.366722106933593750e+01 9.670268058776855469e+00 -1.373276929371058941e-03 -8.952476084232330322e-03 -3.097725799307227135e-03 -2.037822967395186424e-03
2.935000000000000000e+03 4.620862960815429688e+01 1.181412410736083984e+01 -1.992790959775447845e-02 -1.122623682022094727e-02 -9.346243925392627716e-03 -7.735733874142169952e-03
2.936000000000000000e+03 4.490272521972656250e+01 -2.314692497253417969e+01 4.077129662036895752e-01 1.990638732910156250e+00 7.195054888725280762e-01 -1.728219538927078247e-01
2.937000000000000000e+03 7.043027496337890625e+01 -1.539918804168701172e+01 6.294555664062500000e-01 8.760247230529785156e+00 2.816910743713378906e+00 5.869877338409423828e-01
2.938000000000000000e+03 4.556084823608398438e+01 9.220293998718261719e+00 -1.147828879766166210e-04 -1.011115033179521561e-02 -3.067779820412397385e-03 2.482600742951035500e-03
2.939000000000000000e+03 5.442490386962890625e+01 -2.427565336227416992e+00 -1.113344505429267883e-01 8.308126777410507202e-02 -8.475955575704574585e-03 9.018592238426208496e-01
2.940000000000000000e+03 5.149066925048828125e+01 2.395290184020996094e+01 -8.481739759445190430e-01 7.797379046678543091e-02 -2.310600578784942627e-01 2.184382081031799316e-01
2.941000000000000000e+03 1.530771827697753906e+01 -3.044531822204589844e+01 3.038898110389709473e-01 2.010262608528137207e-01 1.514748185873031616e-01 -1.788330972194671631e-01
2.942000000000000000e+03 7.083937072753906250e+01 1.184630107879638672e+01 1.045575857162475586e+00 1.063703060150146484e+01 3.504781961441040039e+00 -2.956944704055786133e-01
2.943000000000000000e+03 6.993549346923828125e+01 1.166422462463378906e+01 1.224424839019775391e+00 1.115417098999023438e+01 3.713578701019287109e+00 2.276221364736557007e-01
2.944000000000000000e+03 1.277751350402832031e+01 -1.083881282806396484e+01 -5.189577341079711914e-01 -4.977502822875976562e-01 -3.050124049186706543e-01 -2.466364353895187378e-01
2.945000000000000000e+03 1.759404945373535156e+01 3.902444839477539062e+00 1.540877128718420863e-04 1.908223348436877131e-04 1.034730157698504627e-04 2.142858720617368817e-04
2.946000000000000000e+03 2.072715187072753906e+01 -6.462805271148681641e+00 -4.540191292762756348e-01 1.389395445585250854e-01 -9.452386945486068726e-02 -3.573748171329498291e-01
2.947000000000000000e+03 1.734247016906738281e+01 4.603249073028564453e+00 -1.981257446459494531e-05 2.282840432599186897e-04 6.254143954720348120e-05 2.326399990124627948e-04
2.948000000000000000e+03 1.717087554931640625e+01 3.210004806518554688e+00 1.494664320489391685e-04 1.534142211312428117e-04 9.086419595405459404e-05 2.082165447063744068e-04
2.949000000000000000e+03 6.439146423339843750e+01 -3.333231353759765625e+01 1.016224771738052368e-01 2.815757036209106445e+00 8.752138018608093262e-01 6.924309134483337402e-01
2.950000000000000000e+03 7.063007354736328125e+01 1.411214256286621094e+01 1.715429186820983887e+00 1.205820369720458984e+01 4.132090091705322266e+00 -5.777026060968637466e-03
2.951000000000000000e+03 2.711082649230957031e+01 2.360021018981933594e+01 -1.832259446382522583e-01 -7.327850162982940674e-02 -7.695133239030838013e-02 1.189803853631019592e-01
2.952000000000000000e+03 3.774856567382812500e+01 -2.786902427673339844e+01 1.327575743198394775e-01 2.260056138038635254e-01 1.076289564371109009e-01 2.389500439167022705e-01
2.953000000000000000e+03 6.925049591064453125e+01 -2.273488616943359375e+01 7.063983678817749023e-01 8.899090766906738281e+00 2.881646633148193359e+00 6.140833497047424316e-01
2.954000000000000000e+03 5.603060150146484375e+01 -6.380789756774902344e+00 -7.432388663291931152e-01 -4.233215153217315674e-01 -3.499681055545806885e-01 8.519174456596374512e-01
2.955000000000000000e+03 3.390810775756835938e+01 -3.140229225158691406e+01 2.448233515024185181e-01 6.858132779598236084e-02 9.402140229940414429e-02 6.842122972011566162e-02
2.956000000000000000e+03 3.718029785156250000e+01 -3.191761779785156250e+01 2.073434591293334961e-01 2.698015570640563965e-01 1.431435048580169678e-01 1.493782550096511841e-01
2.957000000000000000e+03 6.859580230712890625e+01 2.365693664550781250e+01 -1.048119783401489258e+00 8.515351295471191406e+00 2.240169525146484375e+00 -1.269436836242675781e+00
2.958000000000000000e+03 1.708507919311523438e+01 1.810188293457031250e+01 -1.575456932187080383e-03 1.043956493958830833e-03 -1.594501372892409563e-04 3.564663056749850512e-04
2.959000000000000000e+03 1.550388908386230469e+01 1.551066875457763672e+01 1.427685492672026157e-03 -8.618285064585506916e-04 1.697570987744256854e-04 2.437973860651254654e-03
2.960000000000000000e+03 4.360923767089843750e+01 -1.374009704589843750e+01 7.035554051399230957e-01 1.347563743591308594e+00 6.153357625007629395e-01 3.734519779682159424e-01
2.961000000000000000e+03 4.430197906494140625e+01 -1.291630554199218750e+01 7.060251235961914062e-01 1.498886227607727051e+00 6.614733934402465820e-01 4.600238204002380371e-01
2.962000000000000000e+03 9.366771697998046875e+00 -2.270505714416503906e+01 2.531433999538421631e-01 -2.585598826408386230e-01 -1.624944852665066719e-03 -3.409914374351501465e-01
2.963000000000000000e+03 5.170751190185546875e+01 -3.383528470993041992e+00 -4.997238814830780029e-01 2.110711932182312012e-01 -8.659581094980239868e-02 1.010963082313537598e+00
2.964000000000000000e+03 5.475541305541992188e+01 -3.923702716827392578e+00 -2.014286667108535767e-01 -7.445268332958221436e-02 -8.276440203189849854e-02 1.004477024078369141e+00
2.965000000000000000e+03 4.531051635742187500e+01 1.025494766235351562e+01 -5.427626892924308777e-03 -1.227169018238782883e-02 -5.309795029461383820e-03 3.456860576989129186e-05
2.966000000000000000e+03 4.414083480834960938e+01 9.752275466918945312e+00 -2.737643430009484291e-03 -8.565685711801052094e-03 -3.390998812392354012e-03 -1.920277136377990246e-03
2.967000000000000000e+03 3.136874389648437500e+01 -3.233456039428710938e+01 2.843578457832336426e-01 3.681784123182296753e-02 9.635271131992340088e-02 2.660007914528250694e-03
2.968000000000000000e+03 3.269668197631835938e+01 -3.354764556884765625e+01 2.915033698081970215e-01 8.618488162755966187e-02 1.133064702153205872e-01 2.346156910061836243e-02
2.969000000000000000e+03 2.723289108276367188e+01 -1.349596500396728516e+01 7.979365587234497070e-01 8.425474166870117188e-02 2.646574079990386963e-01 -4.131684601306915283e-01
2.970000000000000000e+03 4.620294570922851562e+01 1.453620052337646484e+01 -1.103176027536392212e-01 4.120465891901403666e-04 -3.297166898846626282e-02 -4.635553807020187378e-02
2.971000000000000000e+03 4.186862564086914062e+01 1.432499122619628906e+01 -1.303121000528335571e-01 2.594074234366416931e-02 -3.131140768527984619e-02 1.866033673286437988e-02
2.972000000000000000e+03 1.083362293243408203e+01 -1.223696994781494141e+01 -5.204744338989257812e-01 -4.577578306198120117e-01 -2.934696674346923828e-01 -2.020614594221115112e-01
2.973000000000000000e+03 4.109967803955078125e+01 -5.248495578765869141e+00 -1.365215301513671875e+00 -5.335599929094314575e-02 -4.255713820457458496e-01 -2.707611620426177979e-01
2.974000000000000000e+03 3.039113426208496094e+01 -3.530598831176757812e+01 3.062299489974975586e-01 9.559043496847152710e-02 1.205461099743843079e-01 -2.992778830230236053e-02
2.975000000000000000e+03 1.072981262207031250e+01 -1.390620803833007812e+01 -5.825528502464294434e-01 -5.524091720581054688e-01 -3.404886126518249512e-01 -3.303635716438293457e-01
2.976000000000000000e+03 7.019715118408203125e+01 -1.229629135131835938e+01 -9.716331362724304199e-01 7.790853977203369141e+00 2.045766115188598633e+00 3.129309415817260742e-01
2.977000000000000000e+03 3.490360260009765625e+01 -3.193148040771484375e+01 2.479421943426132202e-01 1.190216019749641418e-01 1.100891381502151489e-01 8.782650530338287354e-02
2.978000000000000000e+03 6.912611389160156250e+01 8.944067955017089844e+00 1.308799833059310913e-01 9.152940750122070312e+00 2.785146236419677734e+00 4.615107476711273193e-01
2.979000000000000000e+03 6.965612792968750000e+01 9.938035964965820312e+00 5.650942921638488770e-01 9.953729629516601562e+00 3.155647039413452148e+00 2.826653420925140381e-01
2.980000000000000000e+03 1.112265014648437500e+01 -1.165456581115722656e+01 -4.996459782123565674e-01 -4.481901526451110840e-01 -2.843508422374725342e-01 -1.811912655830383301e-01
2.981000000000000000e+03 3.664229965209960938e+01 -2.961136436462402344e+01 1.797552108764648438e-01 1.670517027378082275e-01 1.040420755743980408e-01 1.783094406127929688e-01
2.982000000000000000e+03 3.826187515258789062e+01 -2.545100402832031250e+01 7.937608659267425537e-02 2.261657863855361938e-01 9.166256338357925415e-02 2.458138614892959595e-01
2.983000000000000000e+03 4.395441818237304688e+01 -3.029715061187744141e+00 -1.300562024116516113e+00 4.803616702556610107e-01 -2.460601180791854858e-01 -3.280278146266937256e-01
2.984000000000000000e+03 6.165473556518554688e+01 2.561491394042968750e+01 -4.322973787784576416e-01 7.967466115951538086e-01 1.093347594141960144e-01 -8.958405256271362305e-01
2.985000000000000000e+03 9.117156982421875000e+00 -1.825774574279785156e+01 -1.244586110115051270e-01 -3.917497396469116211e-01 -1.548625081777572632e-01 -4.565286338329315186e-01
2.986000000000000000e+03 5.974160385131835938e+01 2.574278831481933594e+01 -5.938179492950439453e-01 2.171316146850585938e-01 -1.130058988928794861e-01 -3.477753698825836182e-01
2.987000000000000000e+03 6.948383331298828125e+01 -1.428440856933593750e+01 6.483045406639575958e-03 8.468147277832031250e+00 2.542389154434204102e+00 2.482500076293945312e-01
2.988000000000000000e+03 6.939607238769531250e+01 -1.178415679931640625e+01 -1.266961216926574707e+00 7.220943927764892578e+00 1.786194801330566406e+00 -1.116105467081069946e-01
2.989000000000000000e+03 3.547492599487304688e+01 -1.432639598846435547e+01 1.096126556396484375e+00 -2.830738127231597900e-01 2.439158260822296143e-01 -5.639557540416717529e-02
2.990000000000000000e+03 5.960112762451171875e+01 -3.277618789672851562e+01 2.202969789505004883e-01 6.338689923286437988e-01 2.562497854232788086e-01 2.268541902303695679e-01
2.991000000000000000e+03 6.993685913085937500e+01 -1.319352626800537109e+01 -6.281014084815979004e-01 8.043828964233398438e+00 2.224718332290649414e+00 3.682180345058441162e-01
2.992000000000000000e+03 1.087676334381103516e+01 -2.457589149475097656e+01 3.234838247299194336e-01 -5.088432505726814270e-02 8.177985250949859619e-02 -2.485098838806152344e-01
2.993000000000000000e+03 6.784394073486328125e+01 -1.021466064453125000e+01 -1.499001502990722656e+00 5.245708942413330078e+00 1.124012231826782227e+00 -8.441596627235412598e-01
2.994000000000000000e+03 7.141889953613281250e+01 -1.682996749877929688e+01 1.046212792396545410e+00 8.804092407226562500e+00 2.955091476440429688e+00 6.972477436065673828e-01
2.995000000000000000e+03 7.110977172851562500e+01 -1.583325767517089844e+01 7.945296764373779297e-01 8.728950500488281250e+00 2.857043981552124023e+00 7.373058199882507324e-01
2.996000000000000000e+03 3.816060256958007812e+01 -2.638058280944824219e+01 1.005683243274688721e-01 2.385726124048233032e-01 1.017422825098037720e-01 2.556264996528625488e-01
2.997000000000000000e+03 4.338631820678710938e+01 -2.537943649291992188e+01 1.823050677776336670e-01 1.308480024337768555e+00 4.472355246543884277e-01 1.110026463866233826e-01
2.998000000000000000e+03 2.456780242919921875e+01 2.444854927062988281e+01 -1.312098950147628784e-01 -5.932340025901794434e-02 -5.715998634696006775e-02 9.935837239027023315e-02
2.999000000000000000e+03 2.440994644165039062e+01 2.566147422790527344e+01 -9.459000080823898315e-02 -6.990278512239456177e-02 -4.934783652424812317e-02 1.078154593706130981e-01
3.000000000000000000e+03 9.758931159973144531e+00 -1.507833480834960938e+01 -4.902153313159942627e-01 -4.573717713356018066e-01 -2.842761278152465820e-01 -3.643193244934082031e-01
3.001000000000000000e+03 1.587103462219238281e+01 1.949465560913085938e+01 -1.266561262309551239e-02 -1.592300133779644966e-03 -4.277373664081096649e-03 -9.025725303217768669e-04
3.002000000000000000e+03 4.562285995483398438e+01 -2.708737945556640625e+01 7.176017016172409058e-02 1.425929188728332520e+00 4.493068158626556396e-01 -1.572775095701217651e-01
3.003000000000000000e+03 4.482141876220703125e+01 -2.571769523620605469e+01 1.767214536666870117e-01 1.534242033958435059e+00 5.132890343666076660e-01 -4.590149968862533569e-02
3.004000000000000000e+03 4.425318908691406250e+01 -2.348471260070800781e+01 3.566765487194061279e-01 1.712985157966613770e+00 6.208984851837158203e-01 -4.440625756978988647e-02
3.005000000000000000e+03 4.468117141723632812e+01 -2.494170570373535156e+01 2.457486391067504883e-01 1.615014791488647461e+00 5.582290291786193848e-01 -4.199097305536270142e-02
3.006000000000000000e+03 4.627058792114257812e+01 -1.060727024078369141e+01 6.531413793563842773e-01 1.847571492195129395e+00 7.502138614654541016e-01 6.349878907203674316e-01
3.007000000000000000e+03 6.898822307586669922e+00 -2.311849021911621094e+01 1.631068289279937744e-01 -3.627141416072845459e-01 -5.988219752907752991e-02 -3.443461954593658447e-01
3.008000000000000000e+03 3.878999710083007812e+01 -2.000140190124511719e+01 2.479871213436126709e-01 2.662752866744995117e-01 1.542787253856658936e-01 -7.253327965736389160e-02
3.009000000000000000e+03 3.844010925292968750e+01 -1.903614997863769531e+01 3.413594961166381836e-01 1.498501598834991455e-01 1.473629027605056763e-01 -1.687936335802078247e-01
3.010000000000000000e+03 6.536517333984375000e+01 2.486897277832031250e+01 -5.288889408111572266e-01 3.810505628585815430e+00 9.844849705696105957e-01 -2.186492443084716797e+00
3.011000000000000000e+03 6.984851074218750000e+01 2.205243682861328125e+01 -1.916475147008895874e-01 1.061228847503662109e+01 3.126192092895507812e+00 1.981906220316886902e-02
3.012000000000000000e+03 5.811722564697265625e+01 -3.436355590820312500e+01 4.505330622196197510e-01 4.956316351890563965e-01 2.838494181632995605e-01 2.619484439492225647e-02
3.013000000000000000e+03 5.947983932495117188e+01 -3.419018554687500000e+01 4.498803913593292236e-01 7.497090101242065430e-01 3.598768115043640137e-01 1.637509167194366455e-01
3.014000000000000000e+03 6.530777740478515625e+01 -1.040788078308105469e+01 -1.399835467338562012e+00 1.904953360557556152e+00 1.515353769063949585e-01 -8.427379131317138672e-01
3.015000000000000000e+03 6.399292373657226562e+01 -9.232725143432617188e+00 -1.103765726089477539e+00 1.145897269248962402e+00 1.263945084065198898e-02 -3.115887939929962158e-01
3.016000000000000000e+03 9.515783309936523438e+00 -1.597940635681152344e+01 -3.751242458820343018e-01 -4.355628490447998047e-01 -2.432061284780502319e-01 -4.037272334098815918e-01
3.017000000000000000e+03 3.039332389831542969e+01 -7.167507648468017578e+00 -1.530707955360412598e+00 -3.386575281620025635e-01 -5.608096122741699219e-01 -3.165361285209655762e-01
3.018000000000000000e+03 3.043831634521484375e+01 -1.249137496948242188e+01 5.739437937736511230e-01 5.141891539096832275e-02 1.876088082790374756e-01 -4.151265323162078857e-01
3.019000000000000000e+03 3.711034011840820312e+01 -1.701507186889648438e+01 7.677623629570007324e-01 -2.159318029880523682e-01 1.655491739511489868e-01 -3.176970779895782471e-01
3.020000000000000000e+03 3.717078781127929688e+01 -1.515137100219726562e+01 9.914668202400207520e-01 -2.741765677928924561e-01 2.151870876550674438e-01 -1.519478261470794678e-01
3.021000000000000000e+03 4.878335952758789062e+01 2.077813911437988281e+01 -6.747879981994628906e-01 1.465370208024978638e-01 -1.584752947092056274e-01 -6.298243999481201172e-02
3.022000000000000000e+03 7.539493560791015625e+01 -3.911222076416015625e+01 2.046029828488826752e-02 7.270571708679199219e+00 2.187309503555297852e+00 3.285735473036766052e-02
3.023000000000000000e+03 5.277748489379882812e+01 -3.393900299072265625e+01 2.369722276926040649e-01 3.626613914966583252e-01 1.798900812864303589e-01 -4.610165655612945557e-01
3.024000000000000000e+03 2.069385337829589844e+01 2.559319114685058594e+01 -7.343830168247222900e-02 -3.173916414380073547e-02 -3.155323863029479980e-02 7.586919516324996948e-02
3.025000000000000000e+03 2.086409378051757812e+01 2.457415199279785156e+01 -9.018908441066741943e-02 -2.334488928318023682e-02 -3.406019136309623718e-02 6.839733570814132690e-02
3.026000000000000000e+03 4.754492568969726562e+01 -3.082448959350585938e+01 -3.449174389243125916e-02 9.429849386215209961e-01 2.725479602813720703e-01 -3.041195571422576904e-01
3.027000000000000000e+03 5.383028411865234375e+01 2.545631408691406250e+01 -7.063205838203430176e-01 1.552701555192470551e-02 -2.072380632162094116e-01 2.548603117465972900e-01
3.028000000000000000e+03 7.543613433837890625e+01 -4.024553680419921875e+01 -7.427246775478124619e-03 7.400274276733398438e+00 2.217854261398315430e+00 -2.687434665858745575e-02
3.029000000000000000e+03 6.798085021972656250e+01 2.476385116577148438e+01 -1.098247408866882324e+00 7.244407176971435547e+00 1.843847990036010742e+00 -1.588774561882019043e+00
3.030000000000000000e+03 4.361163616180419922e+00 4.170823287963867188e+01 3.151006763800978661e-03 -2.938033081591129303e-02 -7.868797518312931061e-03 9.990793187171220779e-04
3.031000000000000000e+03 2.693927288055419922e+00 4.144359207153320312e+01 1.606835285201668739e-03 -2.686281129717826843e-02 -7.576792966574430466e-03 1.291694701649248600e-03
3.032000000000000000e+03 2.945023155212402344e+01 2.240628623962402344e+01 -2.440393865108489990e-01 -9.378038346767425537e-02 -1.013459339737892151e-01 1.382062435150146484e-01
3.033000000000000000e+03 5.572470092773437500e+01 2.585949707031250000e+01 -6.899589896202087402e-01 1.945228129625320435e-02 -2.011520117521286011e-01 1.688893586397171021e-01
3.034000000000000000e+03 3.717880964279174805e+00 -3.835497283935546875e+01 2.646569337230175734e-04 -6.811772584915161133e-01 -2.042737752199172974e-01 1.478305086493492126e-03
3.035000000000000000e+03 4.409519672393798828e+00 -3.631645965576171875e+01 7.770302705466747284e-03 -6.216467618942260742e-01 -1.841629445552825928e-01 9.715273045003414154e-04
3.036000000000000000e+03 7.631394195556640625e+01 3.742607879638671875e+01 -1.859820261597633362e-02 7.773824691772460938e+00 2.326567888259887695e+00 -2.738138847053050995e-02
3.037000000000000000e+03 5.873509883880615234e+00 3.618701171875000000e+01 3.954547923058271408e-03 -2.809262089431285858e-02 -7.241422310471534729e-03 1.135297678411006927e-02
3.038000000000000000e+03 5.692082881927490234e+00 4.001447296142578125e+01 5.747126881033182144e-03 -3.218477591872215271e-02 -7.931294851005077362e-03 3.938572015613317490e-03
3.039000000000000000e+03 2.210972785949707031e+01 -3.373429107666015625e+01 3.077780306339263916e-01 1.866420507431030273e-01 1.483260244131088257e-01 -1.710628569126129150e-01
3.040000000000000000e+03 1.090445804595947266e+01 -6.643791675567626953e+00 -9.552412480115890503e-02 -1.923377811908721924e-01 -8.635856956243515015e-02 -1.836401037871837616e-02
3.041000000000000000e+03 1.048845481872558594e+01 -5.315317630767822266e+00 -6.990785244852304459e-03 -1.320698261260986328e-01 -4.171818122267723083e-02 1.493130903691053391e-02
3.042000000000000000e+03 5.909149932861328125e+01 -6.888185977935791016e+00 -8.247646093368530273e-01 1.087752282619476318e-01 -2.147968262434005737e-01 5.964047908782958984e-01
3.043000000000000000e+03 5.047996902465820312e+01 -6.607753276824951172e+00 -5.095637440681457520e-01 1.032158613204956055e+00 1.567784696817398071e-01 1.026492118835449219e+00
3.044000000000000000e+03 5.363285827636718750e+01 -5.352609157562255859e+00 -4.354662299156188965e-01 -1.519181728363037109e-01 -1.762153208255767822e-01 1.229147911071777344e+00
3.045000000000000000e+03 2.062115859985351562e+01 -9.493048667907714844e+00 -4.307940602302551270e-01 1.714392304420471191e-01 -7.780644297599792480e-02 -4.322989881038665771e-01
3.046000000000000000e+03 2.131678771972656250e+01 -1.108377933502197266e+01 -2.363181114196777344e-01 1.656694114208221436e-01 -2.119461074471473694e-02 -3.586113452911376953e-01
3.047000000000000000e+03 6.707994842529296875e+01 -1.009934902191162109e+01 -1.472698092460632324e+00 4.366022586822509766e+00 8.679972887039184570e-01 -9.805886149406433105e-01
3.048000000000000000e+03 2.671464729309082031e+01 -6.449187278747558594e+00 -1.132221221923828125e+00 2.075373381376266479e-01 -2.774051725864410400e-01 -2.383278906345367432e-01
3.049000000000000000e+03 2.742592048645019531e+01 -5.603368759155273438e+00 -1.329096436500549316e+00 1.209991872310638428e-01 -3.624291718006134033e-01 -3.674072027206420898e-02
3.050000000000000000e+03 2.726240921020507812e+01 -1.201451683044433594e+01 2.656611204147338867e-01 1.000288650393486023e-01 1.097069904208183289e-01 -5.210108757019042969e-01
3.051000000000000000e+03 6.130802154541015625e+01 -7.650576114654541016e+00 -8.705776929855346680e-01 4.945883750915527344e-01 -1.127967983484268188e-01 3.654202520847320557e-01
3.052000000000000000e+03 5.983754348754882812e+01 -7.146975040435791016e+00 -8.499431610107421875e-01 2.306840717792510986e-01 -1.857777237892150879e-01 5.434297919273376465e-01
3.053000000000000000e+03 6.032246780395507812e+01 -8.093367576599121094e+00 -1.122793674468994141e+00 2.060463428497314453e-01 -2.750241756439208984e-01 5.750296115875244141e-01
3.054000000000000000e+03 1.779200744628906250e+01 5.438030242919921875e+00 -8.116149547277018428e-05 3.371493367012590170e-04 7.679635018575936556e-05 2.367760753259062767e-04
3.055000000000000000e+03 5.337437057495117188e+01 -2.141839742660522461e+00 -2.410440295934677124e-01 8.355133235454559326e-02 -4.724781215190887451e-02 9.359996318817138672e-01
3.056000000000000000e+03 3.880062484741210938e+01 -1.839520072937011719e+01 4.766461253166198730e-01 2.190542519092559814e-01 2.087101191282272339e-01 -1.852385848760604858e-01
3.057000000000000000e+03 6.325271987915039062e+01 -9.009379386901855469e+00 -1.091920733451843262e+00 7.929195165634155273e-01 -8.970035612583160400e-02 -3.047235868871212006e-02
3.058000000000000000e+03 6.276960754394531250e+01 -8.105922698974609375e+00 -8.709318041801452637e-01 8.752446770668029785e-01 1.293850713409483433e-03 4.875109717249870300e-02
3.059000000000000000e+03 1.585594177246093750e+01 4.431853294372558594e+00 1.235624658875167370e-04 1.055819593602791429e-04 6.874332757433876395e-05 3.397176624275743961e-04
3.060000000000000000e+03 6.349780273437500000e+01 -8.324696540832519531e+00 -8.887956142425537109e-01 1.174378752708435059e+00 8.567494153976440430e-02 -1.717000007629394531e-01
3.061000000000000000e+03 1.507792472839355469e+01 4.503788948059082031e+00 3.403226728551089764e-04 8.830567821860313416e-05 1.285885082324966788e-04 4.127587017137557268e-04
3.062000000000000000e+03 1.113937854766845703e+01 -5.415676116943359375e+00 -1.942672953009605408e-02 -1.416914016008377075e-01 -4.833543673157691956e-02 -1.223546545952558517e-02
3.063000000000000000e+03 6.195909118652343750e+01 1.283611536026000977e+00 5.399296879768371582e-01 1.580869317054748535e+00 6.362397074699401855e-01 6.347575783729553223e-01
3.064000000000000000e+03 1.684803009033203125e+01 6.158044338226318359e+00 -2.650223223099601455e-06 3.707789874169975519e-04 1.104386319639161229e-04 4.191386396996676922e-04
3.065000000000000000e+03 6.565360260009765625e+01 -3.223538208007812500e+01 -9.145336598157882690e-02 3.554553270339965820e+00 1.038929939270019531e+00 7.907987236976623535e-01
3.066000000000000000e+03 6.529593658447265625e+01 -2.955399322509765625e+01 -2.362701743841171265e-01 3.301545143127441406e+00 9.195824861526489258e-01 9.553552865982055664e-01
3.067000000000000000e+03 6.261471176147460938e+01 1.788599371910095215e+00 4.850144684314727783e-01 1.957563757896423340e+00 7.327734827995300293e-01 7.089334130287170410e-01
3.068000000000000000e+03 3.720660018920898438e+01 -8.245547294616699219e+00 -7.650229930877685547e-01 -3.518727719783782959e-01 -3.350687325000762939e-01 -2.319438159465789795e-01
3.069000000000000000e+03 3.709623336791992188e+01 -7.547904968261718750e+00 -1.064699769020080566e+00 -3.723476529121398926e-01 -4.311142265796661377e-01 -3.209717273712158203e-01
3.070000000000000000e+03 2.063353919982910156e+01 -8.878184318542480469e+00 -4.448219239711761475e-01 1.653922647237777710e-01 -8.382889628410339355e-02 -4.410501420497894287e-01
3.071000000000000000e+03 1.956959152221679688e+01 -1.052291107177734375e+01 -4.298481941223144531e-01 1.408091336488723755e-01 -8.671171963214874268e-02 -4.048792123794555664e-01
3.072000000000000000e+03 1.432138538360595703e+01 4.584748744964599609e+00 3.091972030233591795e-04 -6.550807302119210362e-05 7.310674118343740702e-05 3.882888995576649904e-04
3.073000000000000000e+03 6.027671432495117188e+01 8.735800981521606445e-01 6.637870669364929199e-01 8.758935332298278809e-01 4.619041681289672852e-01 5.243968367576599121e-01
3.074000000000000000e+03 1.806851577758789062e+01 -9.943449020385742188e+00 -4.928415715694427490e-01 -9.419681504368782043e-03 -1.506783813238143921e-01 -4.644246995449066162e-01
3.075000000000000000e+03 2.360160636901855469e+01 -1.162631320953369141e+01 -1.792129129171371460e-02 1.559679806232452393e-01 4.141400754451751709e-02 -4.222979545593261719e-01
3.076000000000000000e+03 2.440171432495117188e+01 -1.179027843475341797e+01 5.397981777787208557e-02 1.464266926050186157e-01 6.012195348739624023e-02 -4.506995677947998047e-01
3.077000000000000000e+03 4.372775268554687500e+01 -1.629063248634338379e+00 -1.174281835556030273e+00 2.719480097293853760e-01 -2.707001566886901855e-01 -4.775132238864898682e-01
3.078000000000000000e+03 1.337670898437500000e+01 -5.208528041839599609e+00 -4.407053068280220032e-02 -1.318686604499816895e-01 -5.278175696730613708e-02 -1.203884929418563843e-01
3.079000000000000000e+03 3.314911270141601562e+01 -1.319624137878417969e+01 8.187071681022644043e-01 -2.209636848419904709e-03 2.449492514133453369e-01 -1.584299206733703613e-01
3.080000000000000000e+03 6.428979492187500000e+01 3.993605375289916992e+00 3.482907116413116455e-01 3.164980649948120117e+00 1.053981423377990723e+00 1.102309942245483398e+00
3.081000000000000000e+03 1.180985641479492188e+01 -5.528017997741699219e+00 -3.622275590896606445e-02 -1.550321877002716064e-01 -5.737648159265518188e-02 -4.246945679187774658e-02
3.082000000000000000e+03 1.251016426086425781e+01 -5.669507980346679688e+00 -5.596821382641792297e-02 -1.643932908773422241e-01 -6.610845029354095459e-02 -8.208575099706649780e-02
3.083000000000000000e+03 5.407025146484375000e+01 -5.784126758575439453e+00 -5.025035142898559570e-01 -2.807715833187103271e-01 -2.349825352430343628e-01 1.171979784965515137e+00
3.084000000000000000e+03 5.502510452270507812e+01 -4.501946926116943359e+00 -2.837151288986206055e-01 -1.892655193805694580e-01 -1.418941915035247803e-01 1.003434062004089355e+00
3.085000000000000000e+03 3.967261075973510742e+00 6.923042297363281250e+00 3.798232937697321177e-04 2.208997175330296159e-04 1.802168990252539515e-04 -6.657803896814584732e-04
3.086000000000000000e+03 7.044212341308593750e+01 2.070021629333496094e+01 1.255197644233703613e+00 1.100651073455810547e+01 3.678512573242187500e+00 5.383412241935729980e-01
3.087000000000000000e+03 5.548725128173828125e+00 5.322511672973632812e+00 4.754122055601328611e-04 -5.590877844952046871e-05 1.258510310435667634e-04 -4.802508919965475798e-04
3.088000000000000000e+03 2.497852802276611328e+00 6.325352191925048828e+00 7.480830390704795718e-05 4.096472985111176968e-04 1.453366858186200261e-04 -4.460653290152549744e-04
3.089000000000000000e+03 3.278751134872436523e+00 4.747068881988525391e+00 2.316370955668389797e-04 2.012207114603370428e-04 1.298573479289188981e-04 -3.876906121149659157e-04
3.090000000000000000e+03 7.187610626220703125e+00 4.556341171264648438e+00 4.864241927862167358e-04 -2.266187948407605290e-04 7.794162229401990771e-05 -2.955101663246750832e-04
3.091000000000000000e+03 6.335091590881347656e+00 5.285404682159423828e+00 4.541927773971110582e-04 -1.992296602111309767e-04 7.648894097656011581e-05 -4.154687921982258558e-04
3.092000000000000000e+03 7.134182929992675781e+00 5.247534275054931641e+00 6.046479684300720692e-04 -2.366397384321317077e-04 1.104024631786160171e-04 -3.626549441833049059e-04
3.093000000000000000e+03 7.529196166992187500e+01 -3.190992927551269531e+01 -1.834721863269805908e-01 7.665884971618652344e+00 2.244723796844482422e+00 -1.419590264558792114e-01
3.094000000000000000e+03 4.786161899566650391e+00 3.329628372192382812e+01 3.293651025160215795e-05 -1.977208070456981659e-02 -5.921743344515562057e-03 1.114111393690109253e-02
3.095000000000000000e+03 7.693604278564453125e+01 3.308486175537109375e+01 -1.003470271825790405e-01 7.904987812042236328e+00 2.341392278671264648e+00 1.548808515071868896e-01
3.096000000000000000e+03 7.572101593017578125e+01 3.086399841308593750e+01 -2.712664902210235596e-01 7.645412921905517578e+00 2.212243795394897461e+00 3.350751698017120361e-01
3.097000000000000000e+03 3.188843536376953125e+01 -1.317890930175781250e+01 8.328686356544494629e-01 7.886942476034164429e-02 2.735214233398437500e-01 -2.946778237819671631e-01
3.098000000000000000e+03 7.590133666992187500e+01 3.360030746459960938e+01 -1.493520140647888184e-01 7.641324520111083984e+00 2.247591733932495117e+00 1.242095008492469788e-01
3.099000000000000000e+03 1.356463241577148438e+01 4.672431468963623047e+00 4.868894757237285376e-04 -7.840188482077792287e-05 1.225462765432894230e-04 4.138887743465602398e-04
3.100000000000000000e+03 4.592238998413085938e+01 7.465990066528320312e+00 4.216547589749097824e-03 -5.009136162698268890e-03 -2.377765340497717261e-04 1.245485153049230576e-03
3.101000000000000000e+03 7.556195831298828125e+01 2.941516113281250000e+01 -3.387260437011718750e-01 7.665688037872314453e+00 2.198088645935058594e+00 4.903816282749176025e-01
3.102000000000000000e+03 1.569654178619384766e+01 -5.675261497497558594e+00 -1.554612964391708374e-01 -1.032462716102600098e-01 -7.761227339506149292e-02 -2.621945142745971680e-01
3.103000000000000000e+03 4.048189163208007812e+00 2.911849784851074219e+01 -1.162964850664138794e-03 -9.698702022433280945e-03 -3.258500015363097191e-03 8.681967854499816895e-03
3.104000000000000000e+03 5.848006057739257812e+01 -1.199805736541748047e+00 4.514967799186706543e-01 4.580318331718444824e-01 2.728585898876190186e-01 4.523745477199554443e-01
3.105000000000000000e+03 7.605171966552734375e+01 -2.906810379028320312e+01 -1.667843014001846313e-01 7.893702507019042969e+00 2.318075418472290039e+00 -3.423765301704406738e-01
3.106000000000000000e+03 7.332862854003906250e+01 3.251387786865234375e+01 -3.444099128246307373e-01 7.045736789703369141e+00 2.010397911071777344e+00 6.672194600105285645e-02
3.107000000000000000e+03 6.718773651123046875e+01 4.764039039611816406e+00 -2.401537299156188965e-01 5.795050144195556641e+00 1.666468858718872070e+00 7.931112647056579590e-01
3.108000000000000000e+03 1.324157524108886719e+01 -5.843448162078857422e+00 -8.497889339923858643e-02 -1.714157164096832275e-01 -7.691838592290878296e-02 -1.279069334268569946e-01
3.109000000000000000e+03 1.400228309631347656e+01 -6.010541439056396484e+00 -1.129801720380783081e-01 -1.668033152818679810e-01 -8.393504470586776733e-02 -1.763628870248794556e-01
3.110000000000000000e+03 7.603450012207031250e+01 -2.587605667114257812e+01 -3.705163300037384033e-02 7.856333255767822266e+00 2.345784425735473633e+00 -5.096136331558227539e-01
3.111000000000000000e+03 1.780231666564941406e+01 2.294227600097656250e+01 -5.754585936665534973e-02 2.895314479246735573e-03 -1.639516279101371765e-02 2.206904254853725433e-02
3.112000000000000000e+03 7.590948486328125000e+01 2.381364631652832031e+01 -1.701424419879913330e-01 7.521301269531250000e+00 2.205347537994384766e+00 1.197614789009094238e+00
3.113000000000000000e+03 7.585872650146484375e+01 2.219186782836914062e+01 9.483850002288818359e-02 7.384233474731445312e+00 2.243721723556518555e+00 1.238726735115051270e+00
3.114000000000000000e+03 3.986545085906982422e+00 6.166311264038085938e+00 2.322846848983317614e-04 1.520219957455992699e-04 1.152920012827962637e-04 -5.491142510436475277e-04
3.115000000000000000e+03 7.512635803222656250e+01 -3.369808578491210938e+01 -1.252992451190948486e-01 7.541733741760253906e+00 2.224930286407470703e+00 -3.798428922891616821e-02
3.116000000000000000e+03 7.598156738281250000e+01 -2.166826248168945312e+01 3.634813725948333740e-01 7.732256412506103516e+00 2.428721427917480469e+00 -2.461520135402679443e-01
3.117000000000000000e+03 7.603209686279296875e+01 2.053391647338867188e+01 3.700747191905975342e-01 7.076946258544921875e+00 2.234106302261352539e+00 1.072520494461059570e+00
3.118000000000000000e+03 3.258161067962646484e+00 2.224347496032714844e+01 -1.040040748193860054e-03 1.015253481455147266e-03 -7.436171927110990509e-06 1.118720392696559429e-03
3.119000000000000000e+03 4.089498996734619141e+00 2.529999542236328125e+01 -2.875449834391474724e-03 -3.271805122494697571e-03 -1.844176440499722958e-03 4.853705409914255142e-03
3.120000000000000000e+03 7.657320404052734375e+01 2.626930999755859375e+01 -2.676395177841186523e-01 7.546994686126708984e+00 2.183806657791137695e+00 8.742247223854064941e-01
3.121000000000000000e+03 7.522534942626953125e+01 2.446711730957031250e+01 -3.207260370254516602e-01 7.781415462493896484e+00 2.238206863403320312e+00 1.154994606971740723e+00
3.122000000000000000e+03 3.782343626022338867e+00 -3.150849533081054688e+01 3.262421116232872009e-02 -6.430453658103942871e-01 -1.831263452768325806e-01 -4.635691642761230469e-02
3.123000000000000000e+03 4.343271255493164062e+00 -2.979573440551757812e+01 6.066386029124259949e-02 -5.770241022109985352e-01 -1.549080759286880493e-01 -8.533992618322372437e-02
3.124000000000000000e+03 7.664997100830078125e+01 2.220660400390625000e+01 8.704946935176849365e-02 6.962437629699707031e+00 2.114846229553222656e+00 1.137300610542297363e+00
3.125000000000000000e+03 7.463294219970703125e+01 1.598412513732910156e+01 1.103879213333129883e+00 7.952455997467041016e+00 2.716900587081909180e+00 -9.782681614160537720e-02
3.126000000000000000e+03 7.609799957275390625e+01 1.424664592742919922e+01 5.982139706611633301e-01 6.871680736541748047e+00 2.240968465805053711e+00 -5.508217811584472656e-01
3.127000000000000000e+03 3.943542480468750000e+00 -2.210195922851562500e+01 4.745068773627281189e-02 -3.837094902992248535e-01 -1.008776426315307617e-01 -2.944160103797912598e-01
3.128000000000000000e+03 7.510243225097656250e+01 -2.430475425720214844e+01 1.359229981899261475e-01 7.842529296875000000e+00 2.393535614013671875e+00 -5.164883136749267578e-01
3.129000000000000000e+03 7.676829528808593750e+01 -2.092756080627441406e+01 2.941978871822357178e-01 7.637147903442382812e+00 2.379403829574584961e+00 -1.228606849908828735e-01
3.130000000000000000e+03 3.321169853210449219e+00 2.697674560546875000e+01 -1.150265452452003956e-03 -4.179665353149175644e-03 -1.598979230038821697e-03 5.416430998593568802e-03
3.131000000000000000e+03 7.681473541259765625e+01 1.579803466796875000e+01 4.860626459121704102e-01 6.208755493164062500e+00 2.008445501327514648e+00 -1.012455448508262634e-01
3.132000000000000000e+03 7.608364868164062500e+01 1.502840995788574219e+01 6.541665792465209961e-01 6.797169208526611328e+00 2.235400676727294922e+00 -3.199577629566192627e-01
3.133000000000000000e+03 7.681738281250000000e+01 1.659118270874023438e+01 4.797936677932739258e-01 6.216941833496093750e+00 2.009020566940307617e+00 9.744720906019210815e-02
3.134000000000000000e+03 7.613455963134765625e+01 1.896694946289062500e+01 5.468963980674743652e-01 6.844072341918945312e+00 2.217290639877319336e+00 7.498851418495178223e-01
3.135000000000000000e+03 7.546171569824218750e+01 -1.678179740905761719e+01 4.369005858898162842e-01 7.974010944366455078e+00 2.523273468017578125e+00 6.790553331375122070e-01
3.136000000000000000e+03 7.601249694824218750e+01 -1.449269485473632812e+01 9.382402151823043823e-02 8.173240661621093750e+00 2.480119466781616211e+00 8.496677279472351074e-01
3.137000000000000000e+03 7.612835693359375000e+01 -1.840924072265625000e+01 4.346584081649780273e-01 7.790678977966308594e+00 2.467601299285888672e+00 3.551048338413238525e-01
3.138000000000000000e+03 7.604899597167968750e+01 -2.082621192932128906e+01 4.292872548103332520e-01 7.718943119049072266e+00 2.444469213485717773e+00 -1.065197363495826721e-01
3.139000000000000000e+03 7.684054565429687500e+01 -1.850931739807128906e+01 3.191461265087127686e-01 7.698423862457275391e+00 2.405271053314208984e+00 2.869646251201629639e-01
3.140000000000000000e+03 7.518558502197265625e+01 1.156413936614990234e+01 4.679806530475616455e-01 7.626338958740234375e+00 2.428295850753784180e+00 -1.131538033485412598e+00
3.141000000000000000e+03 7.623743438720703125e+01 7.908630847930908203e+00 -3.869752213358879089e-02 7.454671859741210938e+00 2.224792480468750000e+00 -1.219777703285217285e+00
3.142000000000000000e+03 8.543499946594238281e+00 -2.263419151306152344e+01 2.219793200492858887e-01 -3.050583004951477051e-01 -2.492369338870048523e-02 -3.590539991855621338e-01
3.143000000000000000e+03 3.908802270889282227e+00 -2.363298606872558594e+01 6.687355786561965942e-02 -4.517325758934020996e-01 -1.154577061533927917e-01 -2.532401978969573975e-01
3.144000000000000000e+03 7.681270599365234375e+01 -1.374836826324462891e+01 4.179026931524276733e-03 8.268415451049804688e+00 2.481778144836425781e+00 7.623503208160400391e-01
3.145000000000000000e+03 7.620893859863281250e+01 7.141431331634521484e+00 -1.081326007843017578e-01 7.549287796020507812e+00 2.232346534729003906e+00 -1.191794633865356445e+00
3.146000000000000000e+03 7.614154815673828125e+01 -1.048392200469970703e+01 -2.775656580924987793e-01 8.525364875793457031e+00 2.474339962005615234e+00 6.004868745803833008e-01
3.147000000000000000e+03 7.613938140869140625e+01 -9.675579071044921875e+00 -3.021163344383239746e-01 8.557622909545898438e+00 2.476651906967163086e+00 4.957975745201110840e-01
3.148000000000000000e+03 7.540693664550781250e+01 1.014352130889892578e+01 2.148495018482208252e-01 7.574139118194580078e+00 2.336696624755859375e+00 -1.258518576622009277e+00
3.149000000000000000e+03 7.689050292968750000e+01 8.646886825561523438e+00 1.773757673799991608e-02 7.103657722473144531e+00 2.136418581008911133e+00 -1.122967004776000977e+00
3.150000000000000000e+03 7.609815216064453125e+01 -1.366776180267333984e+01 -1.611487008631229401e-02 8.263762474060058594e+00 2.474294424057006836e+00 8.513585925102233887e-01
3.151000000000000000e+03 7.620830535888671875e+01 -1.807094365358352661e-02 -2.129268944263458252e-01 8.249798774719238281e+00 2.411061525344848633e+00 -6.219077706336975098e-01
3.152000000000000000e+03 7.613043975830078125e+01 1.017712020874023438e+01 1.478600651025772095e-01 7.225152969360351562e+00 2.211903810501098633e+00 -1.180322170257568359e+00
3.153000000000000000e+03 7.613018798828125000e+01 3.999683141708374023e+00 -2.090906947851181030e-01 7.895721912384033203e+00 2.305989265441894531e+00 -9.843738079071044922e-01
3.154000000000000000e+03 7.619664764404296875e+01 7.836332917213439941e-01 -2.160320132970809937e-01 8.181340217590332031e+00 2.389592647552490234e+00 -6.944494843482971191e-01
3.155000000000000000e+03 7.546282958984375000e+01 -1.124579906463623047e+01 -3.184997439384460449e-01 8.391081809997558594e+00 2.421774864196777344e+00 7.257208228111267090e-01
3.156000000000000000e+03 7.684746551513671875e+01 -1.214049911499023438e+01 -1.170374229550361633e-01 8.482225418090820312e+00 2.509556293487548828e+00 6.976592540740966797e-01
3.157000000000000000e+03 7.615227508544921875e+01 -3.221869945526123047e+00 -2.436772137880325317e-01 8.443676948547363281e+00 2.459999799728393555e+00 -3.209568858146667480e-01
3.158000000000000000e+03 7.614446258544921875e+01 -4.835785865783691406e+00 -2.748452425003051758e-01 8.519165992736816406e+00 2.473296403884887695e+00 -1.433935612440109253e-01
3.159000000000000000e+03 7.685021972656250000e+01 -6.507732868194580078e+00 -2.217991203069686890e-01 8.807471275329589844e+00 2.575701475143432617e+00 7.350753992795944214e-02
3.160000000000000000e+03 7.615063476562500000e+01 -6.439659595489501953e+00 -3.057948648929595947e-01 8.574416160583496094e+00 2.480586528778076172e+00 5.324095115065574646e-02
3.161000000000000000e+03 7.614563751220703125e+01 -4.028911113739013672e+00 -2.628452777862548828e-01 8.482287406921386719e+00 2.465832471847534180e+00 -2.333188354969024658e-01
3.162000000000000000e+03 7.614688110351562500e+01 -5.639197349548339844e+00 -2.929196953773498535e-01 8.548010826110839844e+00 2.476527214050292969e+00 -4.659237340092658997e-02
3.163000000000000000e+03 7.685465240478515625e+01 2.328567028045654297e+00 -1.495564132928848267e-01 8.150922775268554688e+00 2.400409936904907227e+00 -7.625137567520141602e-01
3.164000000000000000e+03 7.538608551025390625e+01 3.272869586944580078e+00 -2.824480235576629639e-01 7.910409927368164062e+00 2.288388490676879883e+00 -9.707248806953430176e-01
3.165000000000000000e+03 7.607159423828125000e+01 1.344583988189697266e+01 5.481906533241271973e-01 6.934705257415771484e+00 2.244868755340576172e+00 -7.018432021141052246e-01
3.166000000000000000e+03 7.607125854492187500e+01 1.093890380859375000e+01 2.796466350555419922e-01 7.165984153747558594e+00 2.233689308166503906e+00 -1.137892007827758789e+00
3.167000000000000000e+03 7.614608001708984375e+01 4.792341709136962891e+00 -1.876114308834075928e-01 7.822747230529785156e+00 2.290540695190429688e+00 -1.051150679588317871e+00
3.168000000000000000e+03 7.652346038818359375e+01 2.871660804748535156e+01 -2.552854716777801514e-01 7.709726810455322266e+00 2.236332416534423828e+00 5.610575079917907715e-01
3.169000000000000000e+03 7.616661834716796875e+01 -2.418632507324218750e+00 -2.343658655881881714e-01 8.399626731872558594e+00 2.449578285217285156e+00 -3.978323638439178467e-01
3.170000000000000000e+03 7.620461273193359375e+01 -8.195371031761169434e-01 -2.209591418504714966e-01 8.304279327392578125e+00 2.424996137619018555e+00 -5.468289256095886230e-01
3.171000000000000000e+03 7.618028259277343750e+01 6.367807865142822266e+00 -1.311227679252624512e-01 7.646496772766113281e+00 2.254612207412719727e+00 -1.160558462142944336e+00
3.172000000000000000e+03 7.618716430664062500e+01 -1.619836449623107910e+00 -2.217537611722946167e-01 8.358407020568847656e+00 2.440995931625366211e+00 -4.745733439922332764e-01
3.173000000000000000e+03 7.684396362304687500e+01 -8.925261497497558594e+00 -2.258756607770919800e-01 8.756170272827148438e+00 2.559088230133056641e+00 3.701666891574859619e-01
3.174000000000000000e+03 7.616464233398437500e+01 5.582401275634765625e+00 -1.762291491031646729e-01 7.734766483306884766e+00 2.267561197280883789e+00 -1.109386563301086426e+00
3.175000000000000000e+03 7.583123016357421875e+01 2.301155662536621094e+01 -1.551044080406427383e-02 7.470309257507324219e+00 2.236439704895019531e+00 1.253982424736022949e+00
3.176000000000000000e+03 1.279926013946533203e+01 4.765000820159912109e+00 4.751884262077510357e-04 -2.432007604511454701e-04 6.959629536140710115e-05 3.434738900978118181e-04
3.177000000000000000e+03 7.670754241943359375e+01 -2.506183242797851562e+01 3.036306798458099365e-02 7.818835735321044922e+00 2.354759693145751953e+00 -4.819093346595764160e-01
3.178000000000000000e+03 7.508975982666015625e+01 -2.337339591979980469e+01 2.782727777957916260e-01 7.834239482879638672e+00 2.433753728866577148e+00 -4.652774930000305176e-01
3.179000000000000000e+03 7.615306854248046875e+01 -7.241353034973144531e+00 -3.182731568813323975e-01 8.586203575134277344e+00 2.480379104614257812e+00 1.625770479440689087e-01
3.180000000000000000e+03 7.615159606933593750e+01 -8.047985076904296875e+00 -3.232135474681854248e-01 8.590384483337402344e+00 2.480151176452636719e+00 2.705289125442504883e-01
3.181000000000000000e+03 7.598149108886718750e+01 1.260291004180908203e+01 4.783468544483184814e-01 7.081137180328369141e+00 2.267845153808593750e+00 -9.178574681282043457e-01
3.182000000000000000e+03 7.616362762451171875e+01 -1.687931442260742188e+01 3.430520296096801758e-01 7.909803867340087891e+00 2.475856781005859375e+00 6.086637973785400391e-01
3.183000000000000000e+03 7.615193176269531250e+01 -1.612322807312011719e+01 2.882988452911376953e-01 7.981779575347900391e+00 2.481023550033569336e+00 7.057096958160400391e-01
3.184000000000000000e+03 7.524257659912109375e+01 -1.428962039947509766e+01 8.547031134366989136e-02 8.193924903869628906e+00 2.483818531036376953e+00 9.262273311614990234e-01
3.185000000000000000e+03 7.670928955078125000e+01 -2.825946998596191406e+01 -1.059975773096084595e-01 7.972630500793457031e+00 2.359989881515502930e+00 -3.791777193546295166e-01
3.186000000000000000e+03 7.276196289062500000e+01 1.639839553833007812e+01 1.700015306472778320e+00 9.715053558349609375e+00 3.424520730972290039e+00 -2.794716507196426392e-02
3.187000000000000000e+03 3.897131204605102539e+00 -7.071322441101074219e+00 -2.732872776687145233e-02 5.131825804710388184e-02 7.196859456598758698e-03 9.878450632095336914e-02
3.188000000000000000e+03 3.978518009185791016e+00 2.214854812622070312e+01 -2.319257706403732300e-03 -1.959683722816407681e-04 -7.545678527094423771e-04 1.519652199931442738e-03
3.189000000000000000e+03 7.605944824218750000e+01 -2.663991165161132812e+01 -1.005298346281051636e-01 7.873931407928466797e+00 2.332020521163940430e+00 -4.802062511444091797e-01
3.190000000000000000e+03 7.613970184326171875e+01 -3.255644989013671875e+01 -1.158997416496276855e-01 7.875871181488037109e+00 2.327991485595703125e+00 -1.193312928080558777e-01
3.191000000000000000e+03 7.596662902832031250e+01 -3.135405731201171875e+01 -1.622782796621322632e-01 7.857254028320312500e+00 2.308492660522460938e+00 -1.826969832181930542e-01
3.192000000000000000e+03 7.515963745117187500e+01 -3.026768684387207031e+01 -2.260483950376510620e-01 7.693924427032470703e+00 2.240362882614135742e+00 -2.397263646125793457e-01
3.193000000000000000e+03 7.602307128906250000e+01 -2.743632507324218750e+01 -1.293119788169860840e-01 7.882012844085693359e+00 2.325810194015502930e+00 -4.392854869365692139e-01
3.194000000000000000e+03 3.995387554168701172e+00 -6.271567344665527344e+00 -1.376118138432502747e-02 4.227434843778610229e-02 8.553950116038322449e-03 1.070445179939270020e-01
3.195000000000000000e+03 3.297870397567749023e+00 -6.106265068054199219e+00 -7.381834089756011963e-03 6.735255569219589233e-02 1.799121685326099396e-02 1.013350933790206909e-01
3.196000000000000000e+03 7.611658477783203125e+01 1.974033164978027344e+01 4.752357602119445801e-01 6.924849987030029297e+00 2.220025777816772461e+00 9.162387847900390625e-01
3.197000000000000000e+03 3.193534612655639648e+00 1.500010395050048828e+01 -1.355461572529748082e-04 1.610281062312424183e-03 4.424204817041754723e-04 -1.466843183152377605e-03
3.198000000000000000e+03 3.903112888336181641e+00 1.571927928924560547e+01 -2.835996274370700121e-04 9.166540112346410751e-04 1.899163034977391362e-04 -1.533502130769193172e-03
3.199000000000000000e+03 7.587522888183593750e+01 2.461532211303710938e+01 -2.359372526407241821e-01 7.579357147216796875e+00 2.203026056289672852e+00 1.125168561935424805e+00
3.200000000000000000e+03 3.114588499069213867e+00 -9.304895401000976562e+00 -4.462311044335365295e-02 1.053139194846153259e-01 1.820724271237850189e-02 5.170498788356781006e-02
3.201000000000000000e+03 3.191012859344482422e+00 1.419102668762207031e+01 2.904466236941516399e-04 1.491166185587644577e-03 5.344838718883693218e-04 -1.507835695520043373e-03
3.202000000000000000e+03 3.898157596588134766e+00 1.490754413604736328e+01 2.333323209313675761e-04 8.858512155711650848e-04 3.357550594955682755e-04 -1.630845828913152218e-03
3.203000000000000000e+03 3.974361419677734375e+00 -1.564299869537353516e+01 -1.003077179193496704e-01 -6.224882975220680237e-02 -4.876696690917015076e-02 -2.271458208560943604e-01
3.204000000000000000e+03 4.562541007995605469e+00 -1.249215030670166016e+01 -1.446497142314910889e-01 -6.656833458691835403e-03 -4.539196193218231201e-02 -8.483447879552841187e-02
3.205000000000000000e+03 4.461249351501464844e+00 -1.173363018035888672e+01 -1.295795142650604248e-01 1.318698655813932419e-02 -3.491776064038276672e-02 -4.125393927097320557e-02
3.206000000000000000e+03 5.987738609313964844e+00 -1.717296600341796875e+01 -1.443068087100982666e-01 -2.077099829912185669e-01 -1.056050360202789307e-01 -3.751230835914611816e-01
3.207000000000000000e+03 3.227118253707885742e+00 -1.721594619750976562e+01 -5.008252710103988647e-02 -1.025483161211013794e-01 -4.578925296664237976e-02 -2.477717399597167969e-01
3.208000000000000000e+03 3.922873973846435547e+00 1.734061622619628906e+01 -6.941318279132246971e-04 9.698466747067868710e-04 8.271444676211103797e-05 -1.281520351767539978e-03
3.209000000000000000e+03 3.787641763687133789e+00 -1.016773319244384766e+01 -7.542790472507476807e-02 6.433249264955520630e-02 -3.328623715788125992e-03 2.629807405173778534e-02
3.210000000000000000e+03 3.842644453048706055e+00 -7.860401153564453125e+00 -4.067334532737731934e-02 5.815980955958366394e-02 5.245939362794160843e-03 8.706051856279373169e-02
3.211000000000000000e+03 3.190323591232299805e+00 -1.399759769439697266e+01 -8.187045156955718994e-02 4.291670769453048706e-02 -1.168612390756607056e-02 -1.254730373620986938e-01
3.212000000000000000e+03 3.887046337127685547e+00 -1.402389335632324219e+01 -1.166651844978332520e-01 -2.985403989441692829e-04 -3.508911654353141785e-02 -1.467574387788772583e-01
3.213000000000000000e+03 3.929502248764038086e+00 -1.483028888702392578e+01 -1.115578636527061462e-01 -2.992901578545570374e-02 -4.244606196880340576e-02 -1.911539584398269653e-01
3.214000000000000000e+03 3.222181081771850586e+00 1.903219795227050781e+01 -4.189844185020774603e-04 1.998454565182328224e-03 4.738410061690956354e-04 -8.220406598411500454e-04
3.215000000000000000e+03 3.944467067718505859e+00 1.975004768371582031e+01 -9.450393263250589371e-04 7.654188084416091442e-04 -5.388615318224765360e-05 -3.826461324933916330e-04
3.216000000000000000e+03 3.206578731536865234e+00 1.097537994384765625e+01 3.930062230210751295e-04 8.936372469179332256e-04 3.859930438920855522e-04 -1.159995910711586475e-03
3.217000000000000000e+03 3.916796207427978516e+00 1.248938274383544922e+01 1.867966639110818505e-04 5.983284791000187397e-04 2.355375472689047456e-04 -1.402561436407268047e-03
3.218000000000000000e+03 3.244084358215332031e+00 -2.438662910461425781e+01 5.318416282534599304e-02 -5.067420601844787598e-01 -1.360673755407333374e-01 -2.047595679759979248e-01
3.219000000000000000e+03 3.945519924163818359e+00 -2.438450241088867188e+01 7.242975383996963501e-02 -4.775264859199523926e-01 -1.215290203690528870e-01 -2.349916696548461914e-01
3.220000000000000000e+03 4.677271842956542969e+00 8.392447471618652344e+00 3.786587330978363752e-04 2.641178798512555659e-05 1.215211523231118917e-04 -8.449953747913241386e-04
3.221000000000000000e+03 4.887758731842041016e+00 -2.581807899475097656e+01 1.051336899399757385e-01 -4.767759144306182861e-01 -1.114926636219024658e-01 -2.106991112232208252e-01
3.222000000000000000e+03 3.108116388320922852e+00 -1.008337020874023438e+01 -5.316686630249023438e-02 1.066033989191055298e-01 1.603095978498458862e-02 3.076086193323135376e-02
3.223000000000000000e+03 4.482207298278808594e+00 -1.027217292785644531e+01 -1.028105169534683228e-01 2.404887974262237549e-02 -2.362849190831184387e-02 2.010325156152248383e-02
3.224000000000000000e+03 3.111202955245971680e+00 -1.086271953582763672e+01 -6.186316162347793579e-02 1.040639504790306091e-01 1.266023609787225723e-02 5.704677198082208633e-03
3.225000000000000000e+03 3.944223880767822266e+00 8.480136871337890625e+00 4.404319915920495987e-04 3.074287378694862127e-04 2.243582275696098804e-04 -8.759187767282128334e-04
3.226000000000000000e+03 3.953885078430175781e+00 -2.130826950073242188e+01 3.444458916783332825e-02 -3.468914031982421875e-01 -9.373404830694198608e-02 -3.110319077968597412e-01
3.227000000000000000e+03 4.658960819244384766e+00 1.967061233520507812e+01 -1.927754376083612442e-03 -2.569437492638826370e-04 -6.554094143211841583e-04 -1.817561715142801404e-04
3.228000000000000000e+03 3.930256843566894531e+00 1.814543724060058594e+01 -4.633911012206226587e-04 9.788993047550320625e-04 1.546524435980245471e-04 -1.129749696701765060e-03
3.229000000000000000e+03 4.598289966583251953e+00 -1.817785835266113281e+01 -5.556378886103630066e-02 -2.016559392213821411e-01 -7.716591656208038330e-02 -3.417640328407287598e-01
3.230000000000000000e+03 3.942748308181762695e+00 -2.050865936279296875e+01 1.730507984757423401e-02 -3.047235906124114990e-01 -8.622554689645767212e-02 -3.187104761600494385e-01
3.231000000000000000e+03 3.907407760620117188e+00 -1.970737457275390625e+01 -6.741558900102972984e-04 -2.648150026798248291e-01 -7.964674383401870728e-02 -3.206932246685028076e-01
3.232000000000000000e+03 7.589575195312500000e+01 -2.339756584167480469e+01 2.048742324113845825e-01 7.779215335845947266e+00 2.395226955413818359e+00 -4.481422007083892822e-01
3.233000000000000000e+03 3.906514883041381836e+00 1.329123592376708984e+01 4.167498263996094465e-04 7.216903613880276680e-04 3.415320534259080887e-04 -1.549473032355308533e-03
3.234000000000000000e+03 3.953801393508911133e+00 7.695531368255615234e+00 2.608308859635144472e-04 2.267589297844097018e-04 1.462769432691857219e-04 -7.322710589505732059e-04
3.235000000000000000e+03 3.227867126464843750e+00 7.003687381744384766e+00 1.581960241310298443e-04 3.536627627909183502e-04 1.535576448077335954e-04 -5.957546527497470379e-04
3.236000000000000000e+03 3.323115348815917969e+00 2.620042228698730469e+01 -2.081489190459251404e-03 -2.956616925075650215e-03 -1.511431881226599216e-03 4.718672949820756912e-03
3.237000000000000000e+03 4.042987823486328125e+00 2.838019752502441406e+01 -2.526880241930484772e-03 -7.813528180122375488e-03 -3.102122573181986809e-03 7.818532176315784454e-03
3.238000000000000000e+03 3.927496194839477539e+00 -3.235139846801757812e+01 3.213001787662506104e-02 -6.401994824409484863e-01 -1.824208498001098633e-01 -3.473055735230445862e-02
3.239000000000000000e+03 5.371154785156250000e+00 -2.923249626159667969e+01 8.845476806163787842e-02 -5.004343986511230469e-01 -1.235938966274261475e-01 -1.119725927710533142e-01
3.240000000000000000e+03 3.933337211608886719e+00 1.007591533660888672e+01 4.869373806286603212e-04 4.157848889008164406e-04 2.708166721276938915e-04 -1.114302431233227253e-03
3.241000000000000000e+03 3.930745363235473633e+00 1.088144493103027344e+01 2.682378108147531748e-04 4.457506001926958561e-04 2.141965233022347093e-04 -1.187166082672774792e-03
3.242000000000000000e+03 3.912950038909912109e+00 1.653131294250488281e+01 -6.370462506311014295e-05 9.931301465258002281e-04 2.788276760838925838e-04 -1.517331344075500965e-03
3.243000000000000000e+03 3.758159399032592773e+00 3.254196548461914062e+01 -4.161778488196432590e-04 -1.614705473184585571e-02 -4.968969617038965225e-03 8.941856212913990021e-03
3.244000000000000000e+03 5.178731441497802734e+00 -3.311034774780273438e+01 4.161845892667770386e-02 -5.442772507667541504e-01 -1.507976353168487549e-01 -3.355178609490394592e-02
3.245000000000000000e+03 3.316181182861328125e+00 2.541871833801269531e+01 -1.287601073272526264e-03 -1.969332806766033173e-03 -9.770801989361643791e-04 3.986663185060024261e-03
3.246000000000000000e+03 4.104055404663085938e+00 2.687030220031738281e+01 -2.799791749566793442e-03 -5.514723714441061020e-03 -2.494354499503970146e-03 6.523956079035997391e-03
3.247000000000000000e+03 4.082685947418212891e+00 2.763779258728027344e+01 -1.687563024461269379e-03 -6.841985043138265610e-03 -2.558864420279860497e-03 7.290611043572425842e-03
3.248000000000000000e+03 4.144745349884033203e+00 -2.750713729858398438e+01 7.052961736917495728e-02 -5.535931587219238281e-01 -1.449190676212310791e-01 -1.402378380298614502e-01
3.249000000000000000e+03 4.167316913604736328e+00 -2.670426559448242188e+01 8.048857003450393677e-02 -5.349388718605041504e-01 -1.363350898027420044e-01 -1.644286960363388062e-01
3.250000000000000000e+03 4.610029697418212891e+00 3.233103942871093750e+01 5.392562015913426876e-04 -1.743692904710769653e-02 -5.069301929324865341e-03 1.100983191281557083e-02
3.251000000000000000e+03 3.968030929565429688e+00 -3.410394668579101562e+01 1.536405365914106369e-02 -6.516898274421691895e-01 -1.908977329730987549e-01 -1.562325935810804367e-02
3.252000000000000000e+03 5.819296836853027344e+00 -3.189164733886718750e+01 6.244243681430816650e-02 -4.833301305770874023e-01 -1.262663006782531738e-01 -5.810431391000747681e-02
3.253000000000000000e+03 3.978236770629882812e+01 -2.122517013549804688e+01 2.391970753669738770e-01 5.687624812126159668e-01 2.423878610134124756e-01 3.411774337291717529e-02
3.254000000000000000e+03 4.726311683654785156e+00 2.283531379699707031e+01 -3.302235854789614677e-03 -1.838139141909778118e-03 -1.542112440802156925e-03 2.738461829721927643e-03
3.255000000000000000e+03 4.107691764831542969e+00 -2.826966476440429688e+01 6.378195434808731079e-02 -5.718194246292114258e-01 -1.524112522602081299e-01 -1.177259087562561035e-01
3.256000000000000000e+03 7.383408355712890625e+01 -3.629605484008789062e+01 -7.379176467657089233e-02 7.028233528137207031e+00 2.086332559585571289e+00 1.209214180707931519e-01
3.257000000000000000e+03 7.593975067138671875e+01 -3.524371337890625000e+01 -5.362552776932716370e-02 7.736231803894042969e+00 2.304781913757324219e+00 -1.849600113928318024e-02
3.258000000000000000e+03 7.584124755859375000e+01 2.862535667419433594e+01 -3.517376780509948730e-01 7.688279628753662109e+00 2.200962543487548828e+00 5.884479284286499023e-01
3.259000000000000000e+03 7.586268615722656250e+01 2.792090606689453125e+01 -3.515826165676116943e-01 7.696234703063964844e+00 2.203395605087280273e+00 6.874244809150695801e-01
3.260000000000000000e+03 4.026465892791748047e+00 2.373616409301757812e+01 -2.692839130759239197e-03 -1.486985245719552040e-03 -1.253947266377508640e-03 3.116364590823650360e-03
3.261000000000000000e+03 4.060507774353027344e+00 2.451816177368164062e+01 -2.027054550126194954e-03 -2.370838308706879616e-03 -1.319367904216051102e-03 3.944514784961938858e-03
3.262000000000000000e+03 7.622828674316406250e+01 3.611506652832031250e+01 -8.194949477910995483e-02 7.751818656921386719e+00 2.300960779190063477e+00 2.616208791732788086e-02
3.263000000000000000e+03 7.540599822998046875e+01 3.466977310180664062e+01 -1.515731364488601685e-01 7.488524436950683594e+00 2.201085329055786133e+00 6.756513565778732300e-02
3.264000000000000000e+03 7.582494354248046875e+01 2.544722938537597656e+01 -3.366137742996215820e-01 7.641513824462890625e+00 2.191469907760620117e+00 1.027564764022827148e+00
3.265000000000000000e+03 3.757591962814331055e+00 -3.490229415893554688e+01 3.845444181933999062e-03 -6.736084222793579102e-01 -2.009288817644119263e-01 -1.105342432856559753e-02
3.266000000000000000e+03 4.625487804412841797e+00 -3.137055206298828125e+01 4.968881234526634216e-02 -5.738176107406616211e-01 -1.572386324405670166e-01 -5.650710687041282654e-02
3.267000000000000000e+03 1.617826843261718750e+01 -7.204351902008056641e+00 -2.645540833473205566e-01 -1.544329673051834106e-01 -1.256961077451705933e-01 -3.534120321273803711e-01
3.268000000000000000e+03 4.469968795776367188e+01 1.246287727355957031e+01 -4.929722473025321960e-02 -6.415595766156911850e-03 -1.671384647488594055e-02 -9.376813657581806183e-03
3.269000000000000000e+03 4.445529174804687500e+01 1.172822952270507812e+01 -3.382891044020652771e-02 -7.957061752676963806e-03 -1.253579184412956238e-02 -3.107129829004406929e-03
3.270000000000000000e+03 1.371719169616699219e+01 -2.917289352416992188e+01 3.033887743949890137e-01 1.364891082048416138e-01 1.319633573293685913e-01 -1.899059414863586426e-01
3.271000000000000000e+03 4.630179405212402344e+00 3.576216888427734375e+01 2.324895467609167099e-03 -2.448110096156597137e-02 -6.646861787885427475e-03 8.953249081969261169e-03
3.272000000000000000e+03 7.588530731201171875e+01 -3.053864669799804688e+01 -1.745000183582305908e-01 7.853250503540039062e+00 2.303625106811523438e+00 -2.405314743518829346e-01
3.273000000000000000e+03 6.773164749145507812e+00 -3.519371414184570312e+01 3.407615050673484802e-02 -4.292792379856109619e-01 -1.185609325766563416e-01 -2.361545898020267487e-02
3.274000000000000000e+03 3.937046051025390625e+01 1.704864120483398438e+01 -2.352091819047927856e-01 3.981008753180503845e-02 -5.861973017454147339e-02 6.590647995471954346e-02
3.275000000000000000e+03 3.814929962158203125e+01 1.925100326538085938e+01 -2.802109420299530029e-01 3.997932001948356628e-02 -7.206948846578598022e-02 9.280617535114288330e-02
3.276000000000000000e+03 1.484729290008544922e+01 -1.018931770324707031e+01 -5.149818658828735352e-01 -4.558975100517272949e-01 -2.912638187408447266e-01 -3.676782250404357910e-01
3.277000000000000000e+03 4.274836540222167969e+00 3.063831329345703125e+01 -4.987530992366373539e-04 -1.309730578213930130e-02 -4.078817553818225861e-03 9.860767982900142670e-03
3.278000000000000000e+03 4.437290191650390625e+00 3.145548439025878906e+01 -1.173248747363686562e-03 -1.505750045180320740e-02 -4.869224503636360168e-03 1.039297692477703094e-02
3.279000000000000000e+03 4.780673980712890625e+01 1.692609024047851562e+01 -2.365781813859939575e-01 5.407506600022315979e-03 -6.935120373964309692e-02 -1.224125921726226807e-01
3.280000000000000000e+03 4.088111495971679688e+01 1.548992252349853516e+01 -1.813579350709915161e-01 3.669214621186256409e-02 -4.339973628520965576e-02 3.820013999938964844e-02
3.281000000000000000e+03 7.531604003906250000e+01 1.584511184692382812e+01 9.195151329040527344e-01 7.377635478973388672e+00 2.489145278930664062e+00 -1.268836557865142822e-01
3.282000000000000000e+03 1.198807334899902344e+01 -2.711396598815917969e+01 3.053224086761474609e-01 4.369866847991943359e-02 1.047063246369361877e-01 -2.101361155509948730e-01
3.283000000000000000e+03 1.250865173339843750e+01 -2.757205581665039062e+01 3.130926489830017090e-01 8.885221183300018311e-02 1.205834597349166870e-01 -2.081564217805862427e-01
3.284000000000000000e+03 6.950645446777343750e+01 -2.526127052307128906e+01 -2.972615361213684082e-01 7.396135807037353516e+00 2.129662275314331055e+00 5.203747153282165527e-01
3.285000000000000000e+03 3.630559539794921875e+01 -1.433900642395019531e+01 1.026665806770324707e+00 -3.127056360244750977e-01 2.141880691051483154e-01 -7.208145409822463989e-02
3.286000000000000000e+03 7.585031127929687500e+01 3.219384384155273438e+01 -1.979638934135437012e-01 7.663566589355468750e+00 2.239680767059326172e+00 2.194911688566207886e-01
3.287000000000000000e+03 3.394376373291015625e+01 -1.338883209228515625e+01 8.882424235343933105e-01 -8.250444382429122925e-02 2.417214065790176392e-01 -6.847941130399703979e-02
3.288000000000000000e+03 3.135059165954589844e+01 -1.018444347381591797e+01 -2.436075806617736816e-01 -1.771336048841476440e-01 -1.262223571538925171e-01 -3.640221953392028809e-01
3.289000000000000000e+03 4.452692413330078125e+01 -2.134298086166381836e+00 -1.193726181983947754e+00 4.412880539894104004e-01 -2.257314473390579224e-01 -3.382728993892669678e-01
3.290000000000000000e+03 4.590205764770507812e+01 -3.362339258193969727e+00 -1.115010142326354980e+00 7.188675403594970703e-01 -1.188427880406379700e-01 -4.078862443566322327e-02
3.291000000000000000e+03 2.593378448486328125e+01 -1.231801319122314453e+01 2.997005879878997803e-01 1.165908947587013245e-01 1.248874440789222717e-01 -4.792675673961639404e-01
3.292000000000000000e+03 2.523403167724609375e+01 -1.197268009185791016e+01 1.579919457435607910e-01 1.339030116796493530e-01 8.756849169731140137e-02 -4.798859655857086182e-01
3.293000000000000000e+03 2.639795875549316406e+01 -1.327988147735595703e+01 6.377462744712829590e-01 8.173242956399917603e-02 2.158436179161071777e-01 -4.106937944889068604e-01
3.294000000000000000e+03 5.226155471801757812e+01 -2.939750671386718750e+00 -4.108476638793945312e-01 1.105947196483612061e-01 -9.007588028907775879e-02 1.010547518730163574e+00
3.295000000000000000e+03 4.674353599548339844e+00 -6.480031013488769531e+00 -2.289028838276863098e-02 1.740564405918121338e-02 -1.645392854698002338e-03 1.079286336898803711e-01
3.296000000000000000e+03 4.655701446533203125e+01 8.981712341308593750e+00 5.324083380401134491e-03 -6.180528551340103149e-03 -2.569335920270532370e-04 5.180428735911846161e-03
3.297000000000000000e+03 4.599524307250976562e+01 1.053677845001220703e+01 -8.451296947896480560e-03 -1.106255874037742615e-02 -5.854156333953142166e-03 -6.870778161101043224e-04
3.298000000000000000e+03 6.170394420623779297e+00 -4.781904697418212891e+00 2.258212305605411530e-02 -2.417423576116561890e-02 -4.776339337695389986e-04 1.082705408334732056e-01
3.299000000000000000e+03 4.485836410522460938e+01 7.669304847717285156e+00 3.232440911233425140e-03 -6.238250527530908585e-03 -9.017428965307772160e-04 -4.257260297890752554e-04
3.300000000000000000e+03 4.345616912841796875e+01 1.420046138763427734e+01 -1.245973035693168640e-01 1.891021057963371277e-02 -3.170612826943397522e-02 -6.596445105969905853e-03
3.301000000000000000e+03 7.948090076446533203e+00 -4.660573959350585938e+00 3.447391092777252197e-02 -6.442482024431228638e-02 -8.985272608697414398e-03 8.555104583501815796e-02
3.302000000000000000e+03 4.139365386962890625e+01 1.524099826812744141e+01 -1.733580529689788818e-01 3.907245770096778870e-02 -4.028567671775817871e-02 2.637087740004062653e-02
3.303000000000000000e+03 4.046178436279296875e+01 1.715441322326660156e+01 -2.444306015968322754e-01 6.048491597175598145e-02 -5.518370494246482849e-02 4.952504485845565796e-02
3.304000000000000000e+03 3.990831375122070312e+01 1.651379013061523438e+01 -2.197777181863784790e-01 3.984766453504562378e-02 -5.397901684045791626e-02 5.729742348194122314e-02
3.305000000000000000e+03 9.254158020019531250e+00 -5.163082122802734375e+00 7.641547825187444687e-03 -1.036657914519309998e-01 -2.880727313458919525e-02 5.672246217727661133e-02
3.306000000000000000e+03 2.702883720397949219e+01 -8.054704666137695312e+00 -8.653170466423034668e-01 1.466466337442398071e-01 -2.156011164188385010e-01 -4.880811274051666260e-01
3.307000000000000000e+03 6.995838928222656250e+01 -2.095457649230957031e+01 1.781984210014343262e+00 9.360773086547851562e+00 3.342827081680297852e+00 4.915404319763183594e-01
3.308000000000000000e+03 7.080323028564453125e+01 -1.945816230773925781e+01 1.567951679229736328e+00 9.264809608459472656e+00 3.249828577041625977e+00 5.076095461845397949e-01
3.309000000000000000e+03 1.975061416625976562e+01 -7.037933349609375000e+00 -4.179486930370330811e-01 9.798341244459152222e-02 -9.598958492279052734e-02 -4.006680250167846680e-01
3.310000000000000000e+03 1.552966976165771484e+01 1.466567993164062500e+01 1.050947234034538269e-03 -4.006945528090000153e-04 1.950758160091936588e-04 2.336029428988695145e-03
3.311000000000000000e+03 3.642389297485351562e+01 1.979653739929199219e+01 -2.804990112781524658e-01 -3.834190312772989273e-03 -8.529996126890182495e-02 1.115333214402198792e-01
3.312000000000000000e+03 3.461246871948242188e+01 2.034622383117675781e+01 -2.848771214485168457e-01 -5.046720802783966064e-02 -1.006032973527908325e-01 1.249101087450981140e-01
3.313000000000000000e+03 1.046513748168945312e+01 4.340093135833740234e+00 5.653518019244074821e-04 -3.191416908521205187e-04 7.386303332168608904e-05 8.347314724233001471e-05
3.314000000000000000e+03 8.770534515380859375e+00 5.157405376434326172e+00 6.833616062067449093e-04 -3.450187505222856998e-04 1.015028537949547172e-04 -1.532261667307466269e-04
3.315000000000000000e+03 3.942398071289062500e+01 -2.030965423583984375e+01 2.581928074359893799e-01 4.606458544731140137e-01 2.156516015529632568e-01 -3.528870269656181335e-02
3.316000000000000000e+03 5.933462524414062500e+01 -6.179731369018554688e+00 -5.780605077743530273e-01 2.236921936273574829e-01 -1.063104942440986633e-01 5.320492982864379883e-01
3.317000000000000000e+03 5.669659423828125000e+01 -6.445742130279541016e+00 -7.547357678413391113e-01 -2.973173856735229492e-01 -3.156159520149230957e-01 7.738698720932006836e-01
3.318000000000000000e+03 4.403432083129882812e+01 -1.614167785644531250e+01 5.352951884269714355e-01 1.864273786544799805e+00 7.198706865310668945e-01 3.258225619792938232e-01
3.319000000000000000e+03 3.828975677490234375e+01 -1.660808563232421875e+01 7.840815782546997070e-01 -4.189060255885124207e-02 2.226572930812835693e-01 -2.001165896654129028e-01
3.320000000000000000e+03 3.758136367797851562e+01 1.981050872802734375e+01 -2.822698950767517090e-01 2.867304161190986633e-02 -7.607904821634292603e-02 1.013246551156044006e-01
3.321000000000000000e+03 4.736074447631835938e+01 -9.307046890258789062e+00 3.891659080982208252e-01 1.819355726242065430e+00 6.625564694404602051e-01 6.632575392723083496e-01
3.322000000000000000e+03 7.088997650146484375e+01 -1.804765701293945312e+01 1.323041677474975586e+00 9.268140792846679688e+00 3.177354812622070312e+00 6.007950901985168457e-01
3.323000000000000000e+03 7.540785217285156250e+01 -1.909110641479492188e+01 5.994661450386047363e-01 7.833304405212402344e+00 2.529831171035766602e+00 2.576273977756500244e-01
3.324000000000000000e+03 4.527517700195312500e+01 1.132450294494628906e+01 -1.733778230845928192e-02 -1.247210986912250519e-02 -8.942967280745506287e-03 -1.385625335387885571e-03
3.325000000000000000e+03 7.159180164337158203e+00 -5.748955726623535156e+00 -1.320626307278871536e-02 -6.095591560006141663e-02 -2.224865369498729706e-02 9.736942499876022339e-02
3.326000000000000000e+03 7.606912136077880859e+00 -5.465364933013916016e+00 -4.179456736892461777e-03 -6.947566568851470947e-02 -2.209653705358505249e-02 9.226426482200622559e-02
3.327000000000000000e+03 3.520848083496093750e+01 2.096712112426757812e+01 -2.724895477294921875e-01 -2.876449190080165863e-02 -9.037621319293975830e-02 1.179243102669715881e-01
3.328000000000000000e+03 3.460029602050781250e+01 2.157055854797363281e+01 -2.568751573562622070e-01 -4.318673163652420044e-02 -9.001857042312622070e-02 1.180291399359703064e-01
3.329000000000000000e+03 3.885033035278320312e+01 1.645304298400878906e+01 -2.124096751213073730e-01 1.754019223153591156e-02 -5.846084281802177429e-02 7.300357520580291748e-02
3.330000000000000000e+03 1.428864765167236328e+01 -1.060588836669921875e+01 -5.693240165710449219e-01 -5.006997585296630859e-01 -3.210071325302124023e-01 -3.317146003246307373e-01
3.331000000000000000e+03 2.145700073242187500e+01 -8.727125167846679688e+00 -4.541113674640655518e-01 2.004198431968688965e-01 -7.610745728015899658e-02 -4.340886473655700684e-01
3.332000000000000000e+03 3.886110687255859375e+01 -7.300606250762939453e+00 -9.209023714065551758e-01 -2.927689850330352783e-01 -3.641014099121093750e-01 -2.586480975151062012e-01
3.333000000000000000e+03 4.599030303955078125e+01 1.364340591430664062e+01 -8.499301970005035400e-02 -5.778290331363677979e-03 -2.723139338195323944e-02 -2.895656041800975800e-02
3.334000000000000000e+03 6.767085266113281250e+01 -2.717710494995117188e+01 -3.784662187099456787e-01 5.448387145996093750e+00 1.520976185798645020e+00 1.052925467491149902e+00
3.335000000000000000e+03 4.675804901123046875e+01 -4.939138889312744141e+00 -8.931335806846618652e-01 9.979362487792968750e-01 3.144079819321632385e-02 2.296195626258850098e-01
3.336000000000000000e+03 1.567314720153808594e+01 1.120503997802734375e+01 5.534883821383118629e-04 5.407723947428166866e-04 3.282782272435724735e-04 1.614045584574341774e-03
3.337000000000000000e+03 3.076050949096679688e+01 -1.111991119384765625e+01 7.797767221927642822e-02 -7.720027863979339600e-02 2.332178846700116992e-04 -3.979685902595520020e-01
3.338000000000000000e+03 4.572532653808593750e+01 -1.003888797760009766e+01 4.091442525386810303e-01 1.562442541122436523e+00 5.914760231971740723e-01 4.393862783908843994e-01
3.339000000000000000e+03 1.143208503723144531e+01 -2.671387481689453125e+01 3.006168603897094727e-01 -8.790204301476478577e-03 8.754799515008926392e-02 -2.090347707271575928e-01
3.340000000000000000e+03 3.947979354858398438e+01 -2.194049072265625000e+01 1.650428026914596558e-01 4.878983497619628906e-01 1.958823502063751221e-01 9.509418159723281860e-02
3.341000000000000000e+03 3.854077148437500000e+01 -2.368900489807128906e+01 6.789040565490722656e-02 2.530521154403686523e-01 9.628275781869888306e-02 1.893937289714813232e-01
3.342000000000000000e+03 5.818193435668945312e+01 2.821765899658203125e+01 -1.076433924026787281e-03 5.100161433219909668e-01 1.526819020509719849e-01 -1.924953311681747437e-01
3.343000000000000000e+03 6.707279205322265625e+01 -2.777345275878906250e+01 -3.536523580551147461e-01 4.807304859161376953e+00 1.336095690727233887e+00 1.080402493476867676e+00
3.344000000000000000e+03 6.610807800292968750e+01 4.670864105224609375e+00 -8.925592526793479919e-03 4.874270915985107422e+00 1.459603667259216309e+00 1.074382424354553223e+00
3.345000000000000000e+03 4.274798583984375000e+01 -1.890921401977539062e+01 4.408919215202331543e-01 1.479043245315551758e+00 5.759805440902709961e-01 2.394222654402256012e-02
3.346000000000000000e+03 4.361702346801757812e+01 -1.844955253601074219e+01 4.082174599170684814e-01 1.817912340164184570e+00 6.678389310836791992e-01 6.723658740520477295e-02
3.347000000000000000e+03 1.324053382873535156e+01 -2.975635719299316406e+01 2.741090357303619385e-01 9.090550243854522705e-02 1.095043569803237915e-01 -1.610790789127349854e-01
3.348000000000000000e+03 1.483998107910156250e+01 -2.952212333679199219e+01 3.275841474533081055e-01 1.915475726127624512e-01 1.557395160198211670e-01 -2.034109830856323242e-01
3.349000000000000000e+03 7.155520629882812500e+01 1.722217941284179688e+01 1.986264348030090332e+00 1.096034431457519531e+01 3.883982419967651367e+00 2.178255841135978699e-02
3.350000000000000000e+03 4.950434875488281250e+01 -2.437649488449096680e+00 -8.030031919479370117e-01 3.582325577735900879e-01 -1.334311813116073608e-01 4.902349710464477539e-01
3.351000000000000000e+03 3.581784057617187500e+01 2.038097190856933594e+01 -2.772156894207000732e-01 -1.590624079108238220e-02 -8.793658018112182617e-02 1.135150268673896790e-01
3.352000000000000000e+03 5.217494583129882812e+01 -3.995829105377197266e+00 -4.641133844852447510e-01 2.156063020229339600e-01 -7.455212622880935669e-02 1.123813271522521973e+00
3.353000000000000000e+03 5.206770324707031250e+01 -6.606946945190429688e+00 -5.785422325134277344e-01 4.729386568069458008e-01 -3.168107196688652039e-02 1.293513655662536621e+00
3.354000000000000000e+03 1.726662445068359375e+01 7.034984111785888672e+00 -7.581081445096060634e-05 5.700920592062175274e-04 1.482843654230237007e-04 4.540446680039167404e-04
3.355000000000000000e+03 1.619812393188476562e+01 1.211579132080078125e+01 5.105690797790884972e-04 1.215629745274782181e-03 5.178596475161612034e-04 1.867320272140204906e-03
3.356000000000000000e+03 1.556404304504394531e+01 1.209360408782958984e+01 1.149849616922438145e-03 4.222742572892457247e-04 4.716371768154203892e-04 2.057387260720133781e-03
3.357000000000000000e+03 8.940670013427734375e+00 -1.625541496276855469e+01 -3.321264982223510742e-01 -3.753509521484375000e-01 -2.122432291507720947e-01 -4.127810001373291016e-01
3.358000000000000000e+03 7.085823059082031250e+01 -1.479469585418701172e+01 2.733928561210632324e-01 8.505957603454589844e+00 2.633805036544799805e+00 7.567397952079772949e-01
3.359000000000000000e+03 7.018162536621093750e+01 -1.436547851562500000e+01 2.504529058933258057e-02 8.407385826110839844e+00 2.529729366302490234e+00 5.668394565582275391e-01
3.360000000000000000e+03 6.374136734008789062e+01 2.632052040100097656e+01 -2.998735606670379639e-01 2.382056713104248047e+00 6.246549487113952637e-01 -1.557884097099304199e+00
3.361000000000000000e+03 6.269944763183593750e+01 2.648826217651367188e+01 -1.964423656463623047e-01 1.601780891418457031e+00 4.216015636920928955e-01 -1.270866632461547852e+00
3.362000000000000000e+03 5.804161071777343750e+01 2.681632614135742188e+01 -3.405791223049163818e-01 2.102539837360382080e-01 -3.909753635525703430e-02 -9.153888374567031860e-02
3.363000000000000000e+03 6.595337677001953125e+01 -2.775259780883789062e+01 -1.992530524730682373e-01 3.831332206726074219e+00 1.089623689651489258e+00 1.131264567375183105e+00
3.364000000000000000e+03 6.649072265625000000e+01 -2.830113410949707031e+01 -3.270200192928314209e-01 4.323992729187011719e+00 1.199091792106628418e+00 1.057585597038269043e+00
3.365000000000000000e+03 1.551258659362792969e+01 1.383837318420410156e+01 1.538327196612954140e-03 5.077261084807105362e-05 4.767299396917223930e-04 2.513054525479674339e-03
3.366000000000000000e+03 4.181719970703125000e+01 -4.993296146392822266e+00 -1.354810833930969238e+00 1.444819420576095581e-01 -3.630986511707305908e-01 -2.382641881704330444e-01
3.367000000000000000e+03 4.351942443847656250e+01 -1.451197910308837891e+01 6.970126628875732422e-01 1.420599699020385742e+00 6.352837085723876953e-01 3.633020520210266113e-01
3.368000000000000000e+03 4.343769073486328125e+01 -1.529563426971435547e+01 6.508283615112304688e-01 1.478465437889099121e+00 6.387881636619567871e-01 3.156854212284088135e-01
3.369000000000000000e+03 1.008223152160644531e+01 -1.350169849395751953e+01 -5.213641524314880371e-01 -4.246249794960021973e-01 -2.837967276573181152e-01 -2.572029829025268555e-01
3.370000000000000000e+03 1.722143745422363281e+01 -6.784698009490966797e+00 -2.918722927570343018e-01 -6.604781001806259155e-02 -1.073760315775871277e-01 -3.782374560832977295e-01
3.371000000000000000e+03 6.328743743896484375e+01 2.287403345108032227e+00 4.117199480533599854e-01 2.359743595123291016e+00 8.314390778541564941e-01 7.971839904785156250e-01
3.372000000000000000e+03 6.400594329833984375e+01 2.784411430358886719e+00 3.171750009059906006e-01 2.896350145339965820e+00 9.640575647354125977e-01 8.662929534912109375e-01
3.373000000000000000e+03 6.551378631591796875e+01 3.953826904296875000e+00 7.621198147535324097e-02 4.233287811279296875e+00 1.292849898338317871e+00 9.977089166641235352e-01
3.374000000000000000e+03 2.843052101135253906e+01 -7.528770446777343750e+00 -1.146473526954650879e+00 -4.151433333754539490e-02 -3.563963472843170166e-01 -4.464052021503448486e-01
3.375000000000000000e+03 1.617493438720703125e+01 6.105928421020507812e+00 2.789428399410098791e-04 3.118914028163999319e-04 1.772502728272229433e-04 5.640467861667275429e-04
3.376000000000000000e+03 6.474758148193359375e+01 -9.464497566223144531e+00 -1.145762205123901367e+00 1.659886002540588379e+00 1.542371362447738647e-01 -6.107308864593505859e-01
3.377000000000000000e+03 6.551921844482421875e+01 -9.698461532592773438e+00 -1.246120095252990723e+00 2.447084665298461914e+00 3.602893948554992676e-01 -8.893501758575439453e-01
3.378000000000000000e+03 3.622980880737304688e+01 -7.756651878356933594e+00 -1.079254269599914551e+00 -3.700134158134460449e-01 -4.347802996635437012e-01 -3.014156818389892578e-01
3.379000000000000000e+03 3.438891983032226562e+01 -8.210283279418945312e+00 -1.026505827903747559e+00 -3.789552152156829834e-01 -4.216383099555969238e-01 -2.430439293384552002e-01
3.380000000000000000e+03 7.468490600585937500e+01 -2.053389358520507812e+01 6.958317160606384277e-01 7.860144615173339844e+00 2.566792964935302734e+00 -3.951028361916542053e-02
3.381000000000000000e+03 9.637210845947265625e+00 -1.412556457519531250e+01 -4.946157634258270264e-01 -3.945895433425903320e-01 -2.667615711688995361e-01 -2.915752828121185303e-01
3.382000000000000000e+03 3.780007171630859375e+01 -1.616497230529785156e+01 8.697876930236816406e-01 -1.486470550298690796e-01 2.163421958684921265e-01 -2.175187766551971436e-01
3.383000000000000000e+03 3.749543762207031250e+01 -1.668387413024902344e+01 8.178114295005798340e-01 -2.117101848125457764e-01 1.818303763866424561e-01 -2.489061802625656128e-01
3.384000000000000000e+03 3.434254455566406250e+01 -7.462601184844970703e+00 -1.423356890678405762e+00 -3.727747201919555664e-01 -5.388394594192504883e-01 -2.934572398662567139e-01
3.385000000000000000e+03 4.778684234619140625e+01 2.130799484252929688e+01 -6.173037290573120117e-01 1.885694563388824463e-01 -1.286202818155288696e-01 1.231149863451719284e-02
3.386000000000000000e+03 4.303391647338867188e+01 -1.989590835571289062e+01 3.909297883510589600e-01 1.585198998451232910e+00 5.928386449813842773e-01 -1.145524345338344574e-02
3.387000000000000000e+03 4.696284866333007812e+01 -4.352959632873535156e+00 -9.484060406684875488e-01 9.190406203269958496e-01 -8.809621445834636688e-03 2.222469002008438110e-01
3.388000000000000000e+03 4.868531799316406250e+01 -3.604677915573120117e+00 -8.617292642593383789e-01 6.922830939292907715e-01 -5.083386600017547607e-02 4.752936661243438721e-01
3.389000000000000000e+03 6.619447326660156250e+01 2.455175018310546875e+01 -7.615821361541748047e-01 4.924882888793945312e+00 1.248990178108215332e+00 -2.163511991500854492e+00
3.390000000000000000e+03 1.547249889373779297e+01 1.639419174194335938e+01 3.762566484510898590e-04 -1.793432282283902168e-03 -4.251526843290776014e-04 1.642760587856173515e-03
3.391000000000000000e+03 1.893395233154296875e+01 -6.913645744323730469e+00 -3.839489519596099854e-01 4.973201453685760498e-02 -1.002650856971740723e-01 -4.033189713954925537e-01
3.392000000000000000e+03 4.283279800415039062e+01 1.227796459197998047e+01 -4.946961626410484314e-02 2.923757070675492287e-03 -1.396375708281993866e-02 3.956913948059082031e-03
3.393000000000000000e+03 4.381502151489257812e+01 1.092589378356933594e+01 -1.400106586515903473e-02 -7.737718988209962845e-03 -6.521635223180055618e-03 -9.788154857233166695e-04
3.394000000000000000e+03 6.550586700439453125e+01 -2.882667732238769531e+01 -2.571059167385101318e-01 3.486726760864257812e+00 9.688862562179565430e-01 1.011548161506652832e+00
3.395000000000000000e+03 6.490504455566406250e+01 -2.865771675109863281e+01 -1.880008131265640259e-01 2.892249345779418945e+00 8.112745881080627441e-01 9.884540438652038574e-01
3.396000000000000000e+03 4.649760055541992188e+01 1.541424560546875000e+01 -1.601918041706085205e-01 5.326898768544197083e-03 -4.645947366952896118e-02 -6.595712900161743164e-02
3.397000000000000000e+03 1.779958534240722656e+01 -8.747778892517089844e+00 -4.343783259391784668e-01 -4.764027893543243408e-02 -1.446055769920349121e-01 -4.612021744251251221e-01
3.398000000000000000e+03 5.740711975097656250e+01 2.747975730895996094e+01 -2.114635556936264038e-01 2.507611215114593506e-01 1.178926788270473480e-02 2.991479262709617615e-02
3.399000000000000000e+03 3.402951049804687500e+01 2.227019691467285156e+01 -2.388844043016433716e-01 -5.352295935153961182e-02 -8.772221207618713379e-02 1.228373870253562927e-01
3.400000000000000000e+03 3.080725288391113281e+01 2.380884933471679688e+01 -1.768383532762527466e-01 -9.544350206851959229e-02 -8.168455958366394043e-02 1.339123547077178955e-01
3.401000000000000000e+03 4.661907958984375000e+01 -3.211282348632812500e+01 -7.664608769118785858e-03 8.767078518867492676e-01 2.607129812240600586e-01 -2.327910959720611572e-01
3.402000000000000000e+03 7.037898254394531250e+01 1.978283882141113281e+01 2.017122507095336914e+00 1.154779624938964844e+01 4.069475650787353516e+00 2.963329255580902100e-01
3.403000000000000000e+03 7.070052337646484375e+01 1.486376953125000000e+01 1.736568570137023926e+00 1.223828887939453125e+01 4.192457199096679688e+00 9.739150106906890869e-02
3.404000000000000000e+03 7.148953247070312500e+01 1.643587303161621094e+01 1.870390772819519043e+00 1.129440021514892578e+01 3.949437141418457031e+00 -1.383989751338958740e-01
3.405000000000000000e+03 1.680706405639648438e+01 8.683335304260253906e+00 5.270777364785317332e-06 8.396931225433945656e-04 2.534891827963292599e-04 7.938535418361425400e-04
3.406000000000000000e+03 4.821526336669921875e+01 -6.424059391021728516e+00 -5.601361989974975586e-01 1.298431038856506348e+00 2.214884608983993530e-01 5.699262619018554688e-01
3.407000000000000000e+03 1.661329841613769531e+01 6.971164226531982422e+00 2.528656623326241970e-04 4.816000000573694706e-04 2.203397016273811460e-04 6.354626384563744068e-04
3.408000000000000000e+03 1.940510940551757812e+01 -8.314887046813964844e+00 -4.440486431121826172e-01 9.134387224912643433e-02 -1.058114245533943176e-01 -4.552697837352752686e-01
3.409000000000000000e+03 1.901475334167480469e+01 -1.093617248535156250e+01 -4.688476026058197021e-01 1.127016767859458923e-01 -1.068437770009040833e-01 -3.437301218509674072e-01
3.410000000000000000e+03 5.370585632324218750e+01 -3.444614791870117188e+01 3.431538343429565430e-01 3.108913600444793701e-01 1.962135583162307739e-01 -4.332670867443084717e-01
3.411000000000000000e+03 5.100178527832031250e+01 -3.296838378906250000e+01 6.701332330703735352e-02 5.340827107429504395e-01 1.803288161754608154e-01 -4.922584593296051025e-01
3.412000000000000000e+03 6.819679260253906250e+01 8.210221290588378906e+00 7.314252853393554688e-02 8.428151130676269531e+00 2.550388097763061523e+00 1.007576823234558105e+00
3.413000000000000000e+03 6.944782257080078125e+01 8.205602645874023438e+00 -6.660746783018112183e-02 8.760622024536132812e+00 2.608204364776611328e+00 2.079887688159942627e-01
3.414000000000000000e+03 7.889850139617919922e+00 5.902796268463134766e+00 7.083822274580597878e-04 -3.870141517836600542e-04 9.641042561270296574e-05 -3.204182721674442291e-04
3.415000000000000000e+03 1.202058601379394531e+01 4.857961177825927734e+00 6.143279024399816990e-04 -2.415176568320021033e-04 1.118430664064362645e-04 3.013214736711233854e-04
3.416000000000000000e+03 1.122538471221923828e+01 4.945833206176757812e+00 5.905281286686658859e-04 -3.793964860960841179e-04 6.333948840619996190e-05 1.951484155142679811e-04
3.417000000000000000e+03 7.163096618652343750e+01 1.221358489990234375e+01 1.159319043159484863e+00 1.010650062561035156e+01 3.379745960235595703e+00 -6.471739411354064941e-01
3.418000000000000000e+03 4.573872375488281250e+01 8.663197517395019531e+00 3.891186323016881943e-03 -7.307644467800855637e-03 -1.024937490001320839e-03 1.759089413098990917e-03
3.419000000000000000e+03 7.097161102294921875e+01 -2.410691261291503906e+01 1.279417723417282104e-01 8.075914382934570312e+00 2.461156845092773438e+00 -6.881784647703170776e-02
3.420000000000000000e+03 4.856773757934570312e+01 1.925260543823242188e+01 -5.132011771202087402e-01 6.787701696157455444e-02 -1.335972398519515991e-01 -1.522897630929946899e-01
3.421000000000000000e+03 1.581602954864501953e+01 1.033176136016845703e+01 7.423837669193744659e-04 6.388688343577086926e-04 4.143757687415927649e-04 1.510599860921502113e-03
3.422000000000000000e+03 1.598779201507568359e+01 9.474530220031738281e+00 2.504358417354524136e-04 6.185268284752964973e-04 2.606888010632246733e-04 1.115591498091816902e-03
3.423000000000000000e+03 5.131273651123046875e+01 -2.718852519989013672e+00 -5.348493456840515137e-01 1.571830809116363525e-01 -1.132998913526535034e-01 8.524150848388671875e-01
3.424000000000000000e+03 5.548907852172851562e+01 -6.062247276306152344e+00 -6.139489412307739258e-01 -4.157209992408752441e-01 -3.089009821414947510e-01 9.380021691322326660e-01
3.425000000000000000e+03 1.792470550537109375e+01 -3.271669387817382812e+01 2.607480287551879883e-01 2.378944456577301025e-01 1.495927423238754272e-01 -1.691710650920867920e-01
3.426000000000000000e+03 1.690489768981933594e+01 2.124665260314941406e+01 -3.385987132787704468e-02 3.521901322528719902e-03 -9.101390838623046875e-03 2.384315710514783859e-03
3.427000000000000000e+03 1.601489067077636719e+01 1.868832397460937500e+01 -6.659445352852344513e-03 -1.360187307000160217e-03 -2.405889797955751419e-03 -6.565796793438494205e-04
3.428000000000000000e+03 2.309148597717285156e+01 -6.431670188903808594e+00 -6.232669353485107422e-01 2.320263832807540894e-01 -1.173721700906753540e-01 -2.951040267944335938e-01
3.429000000000000000e+03 2.237244796752929688e+01 -6.420166015625000000e+00 -5.641481280326843262e-01 2.077098935842514038e-01 -1.069314703345298767e-01 -3.115296959877014160e-01
3.430000000000000000e+03 7.171891784667968750e+01 -1.775392532348632812e+01 1.228011727333068848e+00 8.751571655273437500e+00 2.993875026702880859e+00 6.619048118591308594e-01
3.431000000000000000e+03 7.111119842529296875e+01 -1.741735649108886719e+01 1.169048190116882324e+00 9.065243721008300781e+00 3.070287466049194336e+00 5.990117788314819336e-01
3.432000000000000000e+03 8.421913146972656250e+00 -1.999159812927246094e+01 5.030503123998641968e-02 -3.396940529346466064e-01 -8.681670576333999634e-02 -4.490398466587066650e-01
3.433000000000000000e+03 4.704841232299804688e+01 1.706738471984863281e+01 -2.682681381702423096e-01 2.912283316254615784e-02 -7.174358516931533813e-02 -1.044449433684349060e-01
3.434000000000000000e+03 8.502342224121093750e+00 -2.087397575378417969e+01 1.247863918542861938e-01 -3.307099044322967529e-01 -6.177705526351928711e-02 -4.247344434261322021e-01
3.435000000000000000e+03 4.263004684448242188e+01 -2.060568809509277344e+01 3.812204599380493164e-01 1.424418568611145020e+00 5.416917204856872559e-01 -1.237475872039794922e-02
3.436000000000000000e+03 4.326208496093750000e+01 -2.093170356750488281e+01 3.901049196720123291e-01 1.641973733901977539e+00 6.096236109733581543e-01 -2.729665301740169525e-02
3.437000000000000000e+03 1.573602294921875000e+01 -3.235203552246093750e+01 2.284477949142456055e-01 1.845757514238357544e-01 1.239070668816566467e-01 -1.379968822002410889e-01
3.438000000000000000e+03 1.763316535949707031e+01 -3.412160110473632812e+01 1.966679543256759644e-01 2.088272571563720703e-01 1.216485649347305298e-01 -1.351601779460906982e-01
3.439000000000000000e+03 1.694297027587890625e+01 3.786426305770874023e+00 5.600508302450180054e-05 1.451416173949837685e-04 6.034400939824990928e-05 1.892689906526356936e-04
3.440000000000000000e+03 5.773853302001953125e+01 -1.675702691078186035e+00 3.339244127273559570e-01 3.266291916370391846e-01 1.981660872697830200e-01 5.100790858268737793e-01
3.441000000000000000e+03 5.661456680297851562e+01 -1.483477950096130371e+00 2.771623134613037109e-01 2.430254966020584106e-01 1.560563445091247559e-01 5.680721402168273926e-01
3.442000000000000000e+03 4.677646636962890625e+01 1.625401687622070312e+01 -2.021414935588836670e-01 1.839987188577651978e-02 -5.512248724699020386e-02 -8.672005683183670044e-02
3.443000000000000000e+03 4.261624526977539062e+01 1.453711891174316406e+01 -1.410762071609497070e-01 2.817185595631599426e-02 -3.387130424380302429e-02 7.793758064508438110e-03
3.444000000000000000e+03 9.140606880187988281e+00 -1.747050857543945312e+01 -2.213732153177261353e-01 -3.989632129669189453e-01 -1.861009299755096436e-01 -4.465874731540679932e-01
3.445000000000000000e+03 4.684674263000488281e+00 -1.737509727478027344e+01 -8.724258840084075928e-02 -1.678193807601928711e-01 -7.651858776807785034e-02 -3.279162049293518066e-01
3.446000000000000000e+03 4.452730560302734375e+01 1.053341293334960938e+01 -1.162697374820709229e-02 -1.150173135101795197e-02 -6.938611622899770737e-03 -2.697133822948671877e-05
3.447000000000000000e+03 3.593761825561523438e+01 -3.207404327392578125e+01 2.347790598869323730e-01 1.812743246555328369e-01 1.248160153627395630e-01 1.191394776105880737e-01
3.448000000000000000e+03 5.658517074584960938e+01 -3.440493011474609375e+01 4.449155330657958984e-01 3.616299629211425781e-01 2.419636398553848267e-01 -1.942608058452606201e-01
3.449000000000000000e+03 2.056796264648437500e+01 -7.263883590698242188e+00 -4.636006653308868408e-01 1.469180285930633545e-01 -9.500479698181152344e-02 -3.982737064361572266e-01
3.450000000000000000e+03 2.248250579833984375e+01 -7.121628284454345703e+00 -5.680735707283020020e-01 2.229393720626831055e-01 -1.035402566194534302e-01 -3.562517166137695312e-01
3.451000000000000000e+03 6.979742431640625000e+01 1.077220726013183594e+01 7.691150307655334473e-01 1.056820201873779297e+01 3.401195049285888672e+00 2.562875449657440186e-01
3.452000000000000000e+03 7.365877532958984375e+01 1.029121208190917969e+01 3.563014566898345947e-01 8.465088844299316406e+00 2.646417140960693359e+00 -1.202417016029357910e+00
3.453000000000000000e+03 4.800641250610351562e+01 2.004283332824707031e+01 -5.627578496932983398e-01 1.253802627325057983e-01 -1.312132775783538818e-01 -8.124007284641265869e-02
3.454000000000000000e+03 1.606189346313476562e+01 -3.123974609375000000e+01 2.858502864837646484e-01 2.150204330682754517e-01 1.502612233161926270e-01 -1.708166152238845825e-01
3.455000000000000000e+03 4.863226318359375000e+01 2.161539268493652344e+01 -6.969779729843139648e-01 1.645936369895935059e-01 -1.597153097391128540e-01 1.759100519120693207e-02
3.456000000000000000e+03 4.964123916625976562e+01 2.171365737915039062e+01 -8.055749535560607910e-01 1.531366854906082153e-01 -1.957314759492874146e-01 -2.090737456455826759e-03
3.457000000000000000e+03 1.878694725036621094e+01 2.535892295837402344e+01 -6.153326481580734253e-02 -1.636489480733871460e-02 -2.336944825947284698e-02 5.521245300769805908e-02
3.458000000000000000e+03 2.011041069030761719e+01 2.363952827453613281e+01 -9.179087728261947632e-02 -5.300980992615222931e-03 -2.912755869328975677e-02 4.842830449342727661e-02
3.459000000000000000e+03 6.991729736328125000e+01 -2.310028076171875000e+01 4.984113276004791260e-01 8.443637847900390625e+00 2.682614803314208984e+00 2.364840060472488403e-01
3.460000000000000000e+03 7.079383850097656250e+01 -2.025282859802246094e+01 1.660150051116943359e+00 9.079047203063964844e+00 3.221759080886840820e+00 3.834629058837890625e-01
3.461000000000000000e+03 4.010467147827148438e+01 -6.724941730499267578e+00 -9.921622872352600098e-01 -1.570086926221847534e-01 -3.447512984275817871e-01 -2.160505503416061401e-01
3.462000000000000000e+03 3.962841415405273438e+01 -6.068610191345214844e+00 -1.254415631294250488e+00 -3.163653910160064697e-01 -4.712343215942382812e-01 -3.298942148685455322e-01
3.463000000000000000e+03 1.620987892150878906e+01 1.740135574340820312e+01 -9.221518412232398987e-04 -1.034874236211180687e-03 -5.871078465133905411e-04 9.425454190932214260e-04
3.464000000000000000e+03 1.464931869506835938e+01 1.709116172790527344e+01 -1.790593960322439671e-03 -3.537066280841827393e-03 -1.598298083990812302e-03 5.485723959282040596e-04
3.465000000000000000e+03 2.398046684265136719e+01 -3.433507156372070312e+01 2.972762286663055420e-01 1.531226038932800293e-01 1.351196467876434326e-01 -1.416580528020858765e-01
3.466000000000000000e+03 3.842790985107421875e+01 -2.456634712219238281e+01 6.700766831636428833e-02 2.423561513423919678e-01 9.280914813280105591e-02 2.247438132762908936e-01
3.467000000000000000e+03 3.901601791381835938e+01 -2.555454444885253906e+01 9.581196308135986328e-02 3.957615196704864502e-01 1.474720388650894165e-01 2.610692679882049561e-01
3.468000000000000000e+03 4.400441360473632812e+01 -2.282918167114257812e+01 3.869305253028869629e-01 1.719493150711059570e+00 6.319270730018615723e-01 -5.046233907341957092e-02
3.469000000000000000e+03 4.011850738525390625e+01 -2.207104110717773438e+01 1.978483051061630249e-01 6.435874700546264648e-01 2.524307370185852051e-01 9.514248371124267578e-02
3.470000000000000000e+03 7.144841766357421875e+01 1.482182693481445312e+01 1.732487678527832031e+00 1.116969108581542969e+01 3.870653629302978516e+00 -2.445363849401473999e-01
3.471000000000000000e+03 7.060714721679687500e+01 1.337287139892578125e+01 1.509307503700256348e+00 1.167654514312744141e+01 3.955755949020385742e+00 3.064263798296451569e-02
3.472000000000000000e+03 4.495923995971679688e+01 8.351509094238281250e+00 6.290762219578027725e-03 -8.195383474230766296e-03 -5.713862483389675617e-04 -4.357614379841834307e-04
3.473000000000000000e+03 5.512142562866210938e+01 -2.154976606369018555e+00 5.454715341329574585e-03 1.281008422374725342e-01 4.006666690111160278e-02 7.884964942932128906e-01
3.474000000000000000e+03 5.622013092041015625e+01 -2.566813945770263672e+00 6.665177643299102783e-02 1.181154847145080566e-01 5.543017759919166565e-02 7.146934866905212402e-01
3.475000000000000000e+03 5.992521286010742188e+01 -2.259406596422195435e-01 5.796034336090087891e-01 7.965107560157775879e-01 4.128342568874359131e-01 4.561782777309417725e-01
3.476000000000000000e+03 6.810362243652343750e+01 7.242624759674072266e+00 -1.334460526704788208e-01 7.588816165924072266e+00 2.236611127853393555e+00 9.059976935386657715e-01
3.477000000000000000e+03 8.548127174377441406e+00 -2.174744987487792969e+01 1.804704815149307251e-01 -3.184750676155090332e-01 -4.140137508511543274e-02 -3.943278789520263672e-01
3.478000000000000000e+03 6.069537353515625000e+01 2.568416023254394531e+01 -5.233339071273803711e-01 3.735125064849853516e-01 -4.494641348719596863e-02 -5.442422628402709961e-01
3.479000000000000000e+03 7.145897674560546875e+01 1.563379478454589844e+01 1.802568197250366211e+00 1.120145702362060547e+01 3.901207685470581055e+00 -1.009470745921134949e-01
3.480000000000000000e+03 2.299473571777343750e+01 -1.078733539581298828e+01 -2.032829225063323975e-01 1.885144710540771484e-01 -4.430531989783048630e-03 -4.380242824554443359e-01
3.481000000000000000e+03 3.551271057128906250e+01 -1.347030162811279297e+01 8.849895000457763672e-01 -2.685181200504302979e-01 1.849413961172103882e-01 -1.276186574250459671e-02
3.482000000000000000e+03 2.577534866333007812e+01 2.524382400512695312e+01 -1.166814267635345459e-01 -7.645823806524276733e-02 -5.794189870357513428e-02 1.154908388853073120e-01
3.483000000000000000e+03 5.323278427124023438e+01 -3.103996992111206055e+00 -3.005623519420623779e-01 6.292646378278732300e-02 -7.129076868295669556e-02 1.056844115257263184e+00
3.484000000000000000e+03 7.019985198974609375e+01 8.586426734924316406e+00 -2.093869633972644806e-02 9.110307693481445312e+00 2.726810693740844727e+00 -1.960873156785964966e-01
3.485000000000000000e+03 5.482106399536132812e+01 -3.529159927368164062e+01 4.832857847213745117e-01 3.433582484722137451e-01 2.479932159185409546e-01 -3.350126147270202637e-01
3.486000000000000000e+03 5.524993133544921875e+01 -3.404939651489257812e+01 3.562594950199127197e-01 2.510828971862792969e-01 1.822027117013931274e-01 -3.542131781578063965e-01
3.487000000000000000e+03 2.357917022705078125e+01 2.560736846923828125e+01 -9.449723362922668457e-02 -5.718640238046646118e-02 -4.550509154796600342e-02 9.863279014825820923e-02
3.488000000000000000e+03 3.970495605468750000e+01 -1.969025039672851562e+01 3.504707217216491699e-01 5.001729726791381836e-01 2.551931142807006836e-01 -6.921841949224472046e-02
3.489000000000000000e+03 2.945535850524902344e+01 2.437743186950683594e+01 -1.552915424108505249e-01 -9.693517535924911499e-02 -7.566801458597183228e-02 1.378113776445388794e-01
3.490000000000000000e+03 2.943726730346679688e+01 2.534089469909667969e+01 -1.139884218573570251e-01 -9.824670106172561646e-02 -6.367053836584091187e-02 1.306266635656356812e-01
3.491000000000000000e+03 2.510963439941406250e+01 -3.511903762817382812e+01 2.985222637653350830e-01 1.392632871866226196e-01 1.313356608152389526e-01 -1.194346547126770020e-01
3.492000000000000000e+03 6.699530792236328125e+01 2.422733116149902344e+01 -8.524695634841918945e-01 6.270421504974365234e+00 1.625385642051696777e+00 -2.228728771209716797e+00
3.493000000000000000e+03 7.094290924072265625e+01 1.807798385620117188e+01 2.192731142044067383e+00 1.154055500030517578e+01 4.119985580444335938e+00 -5.593397468328475952e-02
3.494000000000000000e+03 7.186057281494140625e+01 1.957172775268554688e+01 1.538491129875183105e+00 1.004428482055664062e+01 3.474833011627197266e+00 7.706132531166076660e-01
3.495000000000000000e+03 3.841473388671875000e+01 -2.723747634887695312e+01 1.164411008358001709e-01 2.991991043090820312e-01 1.246920600533485413e-01 2.616654634475708008e-01
3.496000000000000000e+03 3.723601913452148438e+01 -2.880479049682617188e+01 1.579499542713165283e-01 1.870492398738861084e-01 1.034997552633285522e-01 2.079844325780868530e-01
3.497000000000000000e+03 1.805730056762695312e+01 4.680311679840087891e+00 1.240755373146384954e-04 2.621354069560766220e-04 1.158632876467891037e-04 2.053420321317389607e-04
3.498000000000000000e+03 9.139428138732910156e+00 -1.679312705993652344e+01 -2.892612218856811523e-01 -3.996651172637939453e-01 -2.066778987646102905e-01 -4.295606613159179688e-01
3.499000000000000000e+03 3.714675521850585938e+01 -1.354956054687500000e+01 8.490254878997802734e-01 -2.829020023345947266e-01 1.698370426893234253e-01 -2.797981724143028259e-02
3.500000000000000000e+03 3.906009292602539062e+01 -2.688906097412109375e+01 1.072551235556602478e-01 4.121111631393432617e-01 1.558098793029785156e-01 2.743846476078033447e-01
3.501000000000000000e+03 4.468790435791015625e+01 9.999857902526855469e+00 -2.162912860512733459e-03 -1.181698963046073914e-02 -4.193970933556556702e-03 -6.962374318391084671e-04
3.502000000000000000e+03 4.538844299316406250e+01 9.695405960083007812e+00 5.308561958372592926e-04 -1.333091780543327332e-02 -3.840018296614289284e-03 7.175670471042394638e-04
3.503000000000000000e+03 5.485937881469726562e+01 -3.493138790130615234e+00 -1.522447317838668823e-01 -1.128070056438446045e-02 -4.905762895941734314e-02 9.566879868507385254e-01
3.504000000000000000e+03 3.156584930419921875e+01 -1.257264328002929688e+01 5.932024121284484863e-01 1.091270055621862411e-02 1.812345236539840698e-01 -3.204571306705474854e-01
3.505000000000000000e+03 9.970924377441406250e+00 -2.498243904113769531e+01 2.938488721847534180e-01 -1.491474062204360962e-01 4.341043904423713684e-02 -2.406793385744094849e-01
3.506000000000000000e+03 4.478909301757812500e+01 9.454511642456054688e+00 -8.950504707172513008e-04 -9.159130044281482697e-03 -3.016253933310508728e-03 -3.880290896631777287e-04
3.507000000000000000e+03 4.488397979736328125e+01 8.917872428894042969e+00 3.343472955748438835e-03 -8.800875395536422729e-03 -1.637220615521073341e-03 -7.310775690712034702e-04
3.508000000000000000e+03 6.207287979125976562e+01 -3.337794876098632812e+01 2.454438060522079468e-01 1.677850365638732910e+00 5.769882798194885254e-01 6.127557158470153809e-01
3.509000000000000000e+03 7.478586578369140625e+01 -3.738270187377929688e+01 -7.662001735297963023e-05 7.217433929443359375e+00 2.165207147598266602e+00 9.555106610059738159e-02
3.510000000000000000e+03 4.805879592895507812e+01 2.065533065795898438e+01 -6.160842180252075195e-01 1.454991549253463745e-01 -1.411755234003067017e-01 -4.609743505716323853e-02
3.511000000000000000e+03 1.038836097717285156e+01 -5.906055450439453125e+00 -4.143146052956581116e-02 -1.542908251285552979e-01 -5.871668457984924316e-02 1.334531418979167938e-02
3.512000000000000000e+03 9.779954910278320312e+00 -5.804540634155273438e+00 -3.103341720998287201e-02 -1.361520439386367798e-01 -5.015563964843750000e-02 3.834440186619758606e-02
3.513000000000000000e+03 7.126891326904296875e+01 1.115735721588134766e+01 8.294777274131774902e-01 1.000117015838623047e+01 3.249194383621215820e+00 -5.541654825210571289e-01
3.514000000000000000e+03 7.006924438476562500e+01 -1.098590373992919922e+01 -1.269848585128784180e+00 7.282739162445068359e+00 1.803867220878601074e+00 -4.064506385475397110e-03
3.515000000000000000e+03 4.584557723999023438e+01 -2.881014633178710938e+01 -1.358310878276824951e-02 1.175614833831787109e+00 3.486095070838928223e-01 -1.605443507432937622e-01
3.516000000000000000e+03 4.603923416137695312e+01 -2.793073654174804688e+01 2.866737544536590576e-02 1.291669607162475586e+00 3.961011171340942383e-01 -1.880220472812652588e-01
3.517000000000000000e+03 7.178881835937500000e+01 -1.625616645812988281e+01 8.289946317672729492e-01 8.590376853942871094e+00 2.825811624526977539e+00 8.088393807411193848e-01
3.518000000000000000e+03 2.388023376464843750e+01 -1.030594825744628906e+01 -2.605985105037689209e-01 2.064495235681533813e-01 -1.624469272792339325e-02 -4.858545362949371338e-01
3.519000000000000000e+03 5.791418075561523438e+01 -3.301340484619140625e+01 2.729392349720001221e-01 2.527482509613037109e-01 1.577062457799911499e-01 -3.537728637456893921e-02
3.520000000000000000e+03 3.818012237548828125e+01 -3.030832672119140625e+01 1.637444347143173218e-01 3.332409262657165527e-01 1.490956097841262817e-01 2.038843482732772827e-01
3.521000000000000000e+03 3.808989715576171875e+01 -2.920238494873046875e+01 1.525906622409820557e-01 3.026084005832672119e-01 1.365597248077392578e-01 2.278178334236145020e-01
3.522000000000000000e+03 4.345575714111328125e+01 -1.248417949676513672e+01 6.559003591537475586e-01 1.134257674217224121e+00 5.370473861694335938e-01 3.354501128196716309e-01
3.523000000000000000e+03 4.296727752685546875e+01 -2.415798759460449219e+01 2.546784281730651855e-01 1.309358358383178711e+00 4.692110419273376465e-01 1.096170917153358459e-01
3.524000000000000000e+03 6.859398651123046875e+01 -1.026586437225341797e+01 -1.499920248985290527e+00 5.990066051483154297e+00 1.347043752670288086e+00 -6.435052156448364258e-01
3.525000000000000000e+03 4.421710968017578125e+01 -2.670433616638183594e+01 9.878201037645339966e-02 1.320410370826721191e+00 4.257577061653137207e-01 4.192047566175460815e-02
3.526000000000000000e+03 5.232495784759521484e+00 -8.152745246887207031e+00 -7.529516518115997314e-02 -7.531009614467620850e-03 -2.484785392880439758e-02 8.195522427558898926e-02
3.527000000000000000e+03 3.045402717590332031e+01 -7.834197521209716797e+00 -1.196147203445434570e+00 -3.074927031993865967e-01 -4.510919749736785889e-01 -3.827350437641143799e-01
3.528000000000000000e+03 3.190436744689941406e+01 -8.384400367736816406e+00 -1.003045678138732910e+00 -3.556918799877166748e-01 -4.076212644577026367e-01 -3.103339076042175293e-01
3.529000000000000000e+03 4.448501586914062500e+01 -2.419361114501953125e+01 3.120347261428833008e-01 1.684491753578186035e+00 5.989579558372497559e-01 -4.245300963521003723e-02
3.530000000000000000e+03 4.320890426635742188e+01 -2.248806762695312500e+01 3.571826815605163574e-01 1.485329031944274902e+00 5.527535080909729004e-01 1.508869323879480362e-02
3.531000000000000000e+03 1.420148277282714844e+01 -3.208615875244140625e+01 2.071458697319030762e-01 1.119609028100967407e-01 9.573203325271606445e-02 -1.190571039915084839e-01
3.532000000000000000e+03 4.676097488403320312e+01 -8.795188903808593750e+00 1.077452525496482849e-01 1.607279896736145020e+00 5.145075321197509766e-01 4.808698296546936035e-01
3.533000000000000000e+03 1.048902130126953125e+01 -1.131096458435058594e+01 -4.298678040504455566e-01 -3.802936077117919922e-01 -2.430484294891357422e-01 -1.284767538309097290e-01
3.534000000000000000e+03 1.048823356628417969e+01 -1.285970592498779297e+01 -5.318394303321838379e-01 -4.487428665161132812e-01 -2.941746711730957031e-01 -2.273671776056289673e-01
3.535000000000000000e+03 3.793338394165039062e+01 -1.431862258911132812e+01 8.966013193130493164e-01 -1.960453838109970093e-01 2.101667821407318115e-01 -7.108405977487564087e-02
3.536000000000000000e+03 4.769881820678710938e+01 -8.288261413574218750e+00 2.083637379109859467e-02 1.640689849853515625e+00 4.984578788280487061e-01 5.913447737693786621e-01
3.537000000000000000e+03 7.471553039550781250e+01 -9.569114685058593750e+00 -5.155199766159057617e-01 8.262756347656250000e+00 2.324170827865600586e+00 4.813641607761383057e-01
3.538000000000000000e+03 4.133823394775390625e+01 -5.880367279052734375e+00 -1.148635506629943848e+00 7.699067890644073486e-02 -3.214934766292572021e-01 -1.858157068490982056e-01
3.539000000000000000e+03 4.390002822875976562e+01 -8.688914299011230469e+00 -1.247034221887588501e-01 9.147554039955139160e-01 2.370155900716781616e-01 1.442719250917434692e-01
3.540000000000000000e+03 3.520149230957031250e+01 -3.492868041992187500e+01 2.741886377334594727e-01 1.960468739271163940e-01 1.410706490278244019e-01 6.202593445777893066e-02
3.541000000000000000e+03 3.271921157836914062e+01 -3.548190307617187500e+01 3.000254034996032715e-01 1.241183951497077942e-01 1.272431463003158569e-01 1.377632934600114822e-02
3.542000000000000000e+03 3.172704887390136719e+01 -3.451937103271484375e+01 3.009586036205291748e-01 9.335452318191528320e-02 1.182939410209655762e-01 -1.761120278388261795e-03
3.543000000000000000e+03 4.606702327728271484e+00 -2.297319602966308594e+01 8.034108579158782959e-02 -4.091354310512542725e-01 -9.863829612731933594e-02 -3.011021614074707031e-01
3.544000000000000000e+03 5.447252655029296875e+01 2.689553070068359375e+01 -3.762347102165222168e-01 6.917277723550796509e-02 -9.211858361959457397e-02 2.492966055870056152e-01
3.545000000000000000e+03 5.477714157104492188e+01 2.567718696594238281e+01 -7.073547244071960449e-01 -1.641647145152091980e-02 -2.171313613653182983e-01 2.370667010545730591e-01
3.546000000000000000e+03 6.168436050415039062e+01 2.651236534118652344e+01 -2.276952117681503296e-01 1.053661942481994629e+00 2.477900236845016479e-01 -9.395619034767150879e-01
3.547000000000000000e+03 5.960576248168945312e+01 2.770751380920410156e+01 -2.282235771417617798e-02 6.234299540519714355e-01 1.801822930574417114e-01 -4.426329731941223145e-01
3.548000000000000000e+03 3.186629486083984375e+01 -3.296505355834960938e+01 2.900449633598327637e-01 6.236420944333076477e-02 1.057227477431297302e-01 9.783223271369934082e-03
3.549000000000000000e+03 3.575259780883789062e+01 -3.340683746337890625e+01 2.565877139568328857e-01 1.959687769412994385e-01 1.357669383287429810e-01 9.285815805196762085e-02
3.550000000000000000e+03 3.446222686767578125e+01 -3.300727081298828125e+01 2.674248814582824707e-01 1.256395578384399414e-01 1.179193332791328430e-01 6.967543810606002808e-02
3.551000000000000000e+03 3.971401596069335938e+01 -2.580863571166992188e+01 1.092402562499046326e-01 5.355014801025390625e-01 1.934225261211395264e-01 2.686467766761779785e-01
3.552000000000000000e+03 6.080332565307617188e+01 -3.303353500366210938e+01 2.428937107324600220e-01 1.092358946800231934e+00 4.005757868289947510e-01 4.424397349357604980e-01
3.553000000000000000e+03 6.175449371337890625e+01 -3.630173873901367188e+01 5.227786898612976074e-01 1.758318901062011719e+00 6.843292713165283203e-01 3.708479106426239014e-01
3.554000000000000000e+03 7.505631256103515625e+01 2.318293190002441406e+01 -1.110492646694183350e-01 7.810517311096191406e+00 2.309840440750122070e+00 1.290993452072143555e+00
3.555000000000000000e+03 6.986817932128906250e+01 2.516264724731445312e+01 -1.247154712677001953e+00 8.166881561279296875e+00 2.075918197631835938e+00 -4.625504314899444580e-01
3.556000000000000000e+03 9.353453636169433594e+00 -2.364118003845214844e+01 2.773582637310028076e-01 -2.372368425130844116e-01 1.203642599284648895e-02 -3.021079003810882568e-01
3.557000000000000000e+03 1.018885231018066406e+01 -2.437666893005371094e+01 3.142961561679840088e-01 -1.368242651224136353e-01 5.324156582355499268e-02 -2.601904273033142090e-01
3.558000000000000000e+03 4.382939910888671875e+01 -2.447312355041503906e+01 2.609473764896392822e-01 1.484296679496765137e+00 5.235732197761535645e-01 4.957256466150283813e-02
3.559000000000000000e+03 1.574904632568359375e+01 2.038434219360351562e+01 -1.969064958393573761e-02 -3.507758956402540207e-04 -6.012427154928445816e-03 6.517395377159118652e-04
3.560000000000000000e+03 1.487705516815185547e+01 1.998469352722167969e+01 -1.519091706722974777e-02 -2.670727204531431198e-03 -5.358493421226739883e-03 8.854948682710528374e-04
3.561000000000000000e+03 4.776743698120117188e+01 -3.258884048461914062e+01 2.529072761535644531e-02 7.897888422012329102e-01 2.445238679647445679e-01 -3.192188441753387451e-01
3.562000000000000000e+03 4.844815063476562500e+01 -3.163525390625000000e+01 -1.978365890681743622e-02 8.102108836174011230e-01 2.371281683444976807e-01 -3.686877787113189697e-01
3.563000000000000000e+03 6.007569122314453125e+01 -3.559794998168945312e+01 5.768095850944519043e-01 1.209351658821105957e+00 5.358483791351318359e-01 2.167178243398666382e-01
3.564000000000000000e+03 6.185356903076171875e+01 -3.462796020507812500e+01 3.851411640644073486e-01 1.656258702278137207e+00 6.124199628829956055e-01 5.223339796066284180e-01
3.565000000000000000e+03 2.379049682617187500e+01 2.666909408569335938e+01 -6.434514373540878296e-02 -6.989423185586929321e-02 -4.027181491255760193e-02 1.057110726833343506e-01
3.566000000000000000e+03 2.166998100280761719e+01 2.570196342468261719e+01 -7.971656322479248047e-02 -4.198540747165679932e-02 -3.651059046387672424e-02 8.588495850563049316e-02
3.567000000000000000e+03 6.778987121582031250e+01 2.392144966125488281e+01 -1.178240895271301270e+00 7.590429306030273438e+00 1.923656463623046875e+00 -1.747938632965087891e+00
3.568000000000000000e+03 1.854311180114746094e+01 2.329615783691406250e+01 -6.759687513113021851e-02 1.603670883923768997e-03 -1.979796029627323151e-02 3.011110983788967133e-02
3.569000000000000000e+03 1.736759567260742188e+01 2.378142166137695312e+01 -5.496431514620780945e-02 -1.566015766002237797e-03 -1.695909909904003143e-02 2.895789779722690582e-02
3.570000000000000000e+03 2.014641189575195312e+01 -3.548743057250976562e+01 2.012489438056945801e-01 2.105304449796676636e-01 1.235338151454925537e-01 -1.399065554141998291e-01
3.571000000000000000e+03 6.644450378417968750e+01 2.547333526611328125e+01 -7.813020944595336914e-01 5.218358993530273438e+00 1.331117033958435059e+00 -2.015348672866821289e+00
3.572000000000000000e+03 6.722099304199218750e+01 2.508724975585937500e+01 -1.067544221878051758e+00 6.249995708465576172e+00 1.554735422134399414e+00 -1.774027228355407715e+00
3.573000000000000000e+03 2.147184944152832031e+01 2.690307807922363281e+01 -5.842778831720352173e-02 -4.915754869580268860e-02 -3.227560222148895264e-02 8.972429484128952026e-02
3.574000000000000000e+03 3.222085189819335938e+01 2.378561210632324219e+01 -1.764462143182754517e-01 -8.202703297138214111e-02 -7.754197716712951660e-02 1.309825628995895386e-01
3.575000000000000000e+03 2.164808654785156250e+01 -3.467273712158203125e+01 2.550032138824462891e-01 1.982889622449874878e-01 1.359876543283462524e-01 -1.562059372663497925e-01
3.576000000000000000e+03 5.108031082153320312e+01 -3.416336441040039062e+01 1.745779812335968018e-01 4.929652512073516846e-01 2.002629637718200684e-01 -4.512006640434265137e-01
3.577000000000000000e+03 4.994098663330078125e+01 -3.275239944458007812e+01 4.048716649413108826e-02 6.303045749664306641e-01 2.012375295162200928e-01 -4.512039422988891602e-01
3.578000000000000000e+03 2.456057929992675781e+01 2.329673576354980469e+01 -1.702770292758941650e-01 -4.646545648574829102e-02 -6.502274423837661743e-02 8.544790744781494141e-02
3.579000000000000000e+03 2.547979736328125000e+01 2.424344635009765625e+01 -1.447032541036605835e-01 -6.565999239683151245e-02 -6.310897320508956909e-02 1.086479127407073975e-01
3.580000000000000000e+03 5.322865295410156250e+01 2.413295936584472656e+01 -9.866975545883178711e-01 -1.697934791445732117e-02 -3.011030852794647217e-01 1.807731688022613525e-01
3.581000000000000000e+03 7.487396240234375000e+01 -3.558191299438476562e+01 -6.262306869029998779e-02 7.366128444671630859e+00 2.191051721572875977e+00 4.015291109681129456e-02
3.582000000000000000e+03 7.029438972473144531e+00 -4.157674026489257812e+01 -5.991296377032995224e-03 -4.061305820941925049e-01 -1.236365661025047302e-01 4.882016219198703766e-03
3.583000000000000000e+03 5.023557662963867188e+00 -3.707439041137695312e+01 8.526171557605266571e-03 -5.716614127159118652e-01 -1.689405590295791626e-01 6.054143421351909637e-03
3.584000000000000000e+03 5.440827369689941406e+00 -3.828911972045898438e+01 -2.833564765751361847e-03 -5.414728522300720215e-01 -1.632919162511825562e-01 1.998243853449821472e-03
3.585000000000000000e+03 7.066185474395751953e+00 -3.734600067138671875e+01 1.291974261403083801e-02 -4.141224026679992676e-01 -1.203607991337776184e-01 -7.351440843194723129e-03
3.586000000000000000e+03 2.712591552734375000e+01 -3.435982894897460938e+01 3.196275532245635986e-01 9.623149782419204712e-02 1.247577145695686340e-01 -9.195522964000701904e-02
3.587000000000000000e+03 3.116539192199707031e+01 -3.656497955322265625e+01 3.007192611694335938e-01 1.259392052888870239e-01 1.279975473880767822e-01 -1.630917191505432129e-02
3.588000000000000000e+03 7.444467163085937500e+01 4.040156936645507812e+01 4.339737072587013245e-02 7.140614032745361328e+00 2.155203342437744141e+00 -8.029772900044918060e-03
3.589000000000000000e+03 7.170172882080078125e+01 4.110190963745117188e+01 5.937052890658378601e-02 6.271842002868652344e+00 1.899363756179809570e+00 -2.161112613976001740e-02
3.590000000000000000e+03 8.724036216735839844e+00 -5.665046215057373047e+00 -1.809605769813060760e-02 -1.037095636129379272e-01 -3.654168546199798584e-02 6.696372479200363159e-02
3.591000000000000000e+03 9.157440185546875000e+00 -1.214479064941406250e+01 -4.053576588630676270e-01 -2.870769202709197998e-01 -2.077303677797317505e-01 -1.320061385631561279e-01
3.592000000000000000e+03 7.152656555175781250e+01 -1.523029518127441406e+01 4.550253748893737793e-01 8.505485534667968750e+00 2.688153266906738281e+00 8.761108517646789551e-01
3.593000000000000000e+03 1.623851966857910156e+01 -8.728902816772460938e+00 -3.839006423950195312e-01 -2.482720315456390381e-01 -1.896518021821975708e-01 -4.187750518321990967e-01
3.594000000000000000e+03 9.177402496337890625e+00 -1.536559963226318359e+01 -4.211393594741821289e-01 -3.801629841327667236e-01 -2.403907030820846558e-01 -3.678772449493408203e-01
3.595000000000000000e+03 8.605115890502929688e+00 -1.671246147155761719e+01 -2.823471724987030029e-01 -3.459399044513702393e-01 -1.884861290454864502e-01 -4.234460294246673584e-01
3.596000000000000000e+03 6.155675125122070312e+01 -6.959802150726318359e+00 -6.606358885765075684e-01 7.099620699882507324e-01 1.479783840477466583e-02 2.625582516193389893e-01
3.597000000000000000e+03 6.108726882934570312e+01 -6.004001140594482422e+00 -4.486023187637329102e-01 7.219151258468627930e-01 8.199384063482284546e-02 2.962047755718231201e-01
3.598000000000000000e+03 9.022975921630859375e+00 -1.375551509857177734e+01 -4.462822675704956055e-01 -3.183748424053192139e-01 -2.293971329927444458e-01 -2.414374500513076782e-01
3.599000000000000000e+03 2.065790367126464844e+01 -1.021211719512939453e+01 -3.683217763900756836e-01 1.680699139833450317e-01 -6.007555872201919556e-02 -4.057067930698394775e-01
3.600000000000000000e+03 2.145502662658691406e+01 -1.035436630249023438e+01 -3.376920521259307861e-01 1.891917139291763306e-01 -4.455010220408439636e-02 -4.076639413833618164e-01
3.601000000000000000e+03 1.478333473205566406e+01 -6.165576457977294922e+00 -1.499936878681182861e-01 -1.640492826700210571e-01 -9.421288967132568359e-02 -2.298242151737213135e-01
3.602000000000000000e+03 4.195072937011718750e+01 1.513542747497558594e+01 -1.715295463800430298e-01 3.757674247026443481e-02 -4.018583893775939941e-02 2.006104215979576111e-02
3.603000000000000000e+03 5.085400009155273438e+01 -3.040386676788330078e+00 -5.971401929855346680e-01 2.509078085422515869e-01 -1.038697138428688049e-01 8.366200327873229980e-01
3.604000000000000000e+03 5.099538421630859375e+01 -4.329725265502929688e+00 -5.998899340629577637e-01 4.643665850162506104e-01 -4.065701365470886230e-02 1.019081115722656250e+00
3.605000000000000000e+03 6.025751113891601562e+01 -8.409698009490966797e-01 4.903193712234497070e-01 8.899725079536437988e-01 4.140875637531280518e-01 4.358472228050231934e-01
3.606000000000000000e+03 6.294264984130859375e+01 1.128204464912414551e+00 4.050115048885345459e-01 2.138700962066650391e+00 7.631137967109680176e-01 6.236333847045898438e-01
3.607000000000000000e+03 6.129475402832031250e+01 7.752788066864013672e-01 5.784175395965576172e-01 1.287025213241577148e+00 5.596328377723693848e-01 5.570251345634460449e-01
3.608000000000000000e+03 1.051128959655761719e+01 -2.712873077392578125e+01 2.727836668491363525e-01 -9.687079489231109619e-02 5.277386680245399475e-02 -1.896585822105407715e-01
3.609000000000000000e+03 1.300991153717041016e+01 -2.801760292053222656e+01 3.176096081733703613e-01 1.170281767845153809e-01 1.303913295269012451e-01 -2.102806866168975830e-01
3.610000000000000000e+03 6.228293991088867188e+01 6.399955153465270996e-01 4.611424803733825684e-01 1.780116677284240723e+00 6.723777651786804199e-01 5.592695474624633789e-01
3.611000000000000000e+03 7.244054412841796875e+01 -3.120348548889160156e+01 -3.716871440410614014e-01 6.936376571655273438e+00 1.969406843185424805e+00 3.303920850157737732e-02
3.612000000000000000e+03 6.617821502685546875e+01 -2.894033432006835938e+01 -2.950704395771026611e-01 3.986303567886352539e+00 1.107369899749755859e+00 1.006256103515625000e+00
3.613000000000000000e+03 1.496108818054199219e+01 5.288352489471435547e+00 2.487734018359333277e-04 2.396263698756229132e-05 8.182081364793702960e-05 4.609746974892914295e-04
3.614000000000000000e+03 3.880494308471679688e+01 -8.136246681213378906e+00 -6.088597774505615234e-01 -2.344979643821716309e-01 -2.530073225498199463e-01 -1.721700727939605713e-01
3.615000000000000000e+03 1.870028305053710938e+01 -9.511733055114746094e+00 -4.888763725757598877e-01 4.927358776330947876e-02 -1.318808346986770630e-01 -4.565192162990570068e-01
3.616000000000000000e+03 1.637576293945312500e+01 -6.543219566345214844e+00 -2.384967058897018433e-01 -1.150208860635757446e-01 -1.060552746057510376e-01 -3.343026340007781982e-01
3.617000000000000000e+03 3.267210006713867188e+01 -8.332006454467773438e+00 -1.033612370491027832e+00 -3.778137564659118652e-01 -4.234278202056884766e-01 -2.693311870098114014e-01
3.618000000000000000e+03 3.558255004882812500e+01 -8.686740875244140625e+00 -7.310197353363037109e-01 -3.720651865005493164e-01 -3.309254646301269531e-01 -2.060848176479339600e-01
3.619000000000000000e+03 1.167685317993164062e+01 -6.113005638122558594e+00 -7.048919796943664551e-02 -1.778472512960433960e-01 -7.450093328952789307e-02 -4.419577866792678833e-02
3.620000000000000000e+03 7.507396221160888672e+00 -6.285452365875244141e+00 -3.804296255111694336e-02 -7.995463907718658447e-02 -3.539928048849105835e-02 8.969295769929885864e-02
3.621000000000000000e+03 1.193406200408935547e+01 -1.128980541229248047e+01 -5.228073000907897949e-01 -4.997445046901702881e-01 -3.067655563354492188e-01 -2.179545164108276367e-01
3.622000000000000000e+03 3.980905914306640625e+01 1.888101005554199219e+01 -2.891916632652282715e-01 7.167281210422515869e-02 -6.525565683841705322e-02 7.354995608329772949e-02
3.623000000000000000e+03 4.041136932373046875e+01 1.598042583465576172e+01 -1.995237916707992554e-01 4.189546033740043640e-02 -4.728849604725837708e-02 4.522601515054702759e-02
3.624000000000000000e+03 4.719129562377929688e+00 2.898450279235839844e+01 -2.597177401185035706e-03 -1.054008211940526962e-02 -3.941177856177091599e-03 9.562223218381404877e-03
3.625000000000000000e+03 7.516462707519531250e+01 3.165880966186523438e+01 -2.999116778373718262e-01 7.520594596862792969e+00 2.166204929351806641e+00 2.465582489967346191e-01
3.626000000000000000e+03 2.542373085021972656e+01 -7.398344039916992188e+00 -8.070200681686401367e-01 2.646825611591339111e-01 -1.627012640237808228e-01 -3.883665800094604492e-01
3.627000000000000000e+03 7.508656311035156250e+01 3.025545501708984375e+01 -3.805520832538604736e-01 7.576740264892578125e+00 2.158856391906738281e+00 3.747154772281646729e-01
3.628000000000000000e+03 2.375439834594726562e+01 -1.096175765991210938e+01 -1.325621902942657471e-01 1.790391206741333008e-01 1.394307892769575119e-02 -4.543234109878540039e-01
3.629000000000000000e+03 2.454463958740234375e+01 -1.109859180450439453e+01 -8.441266417503356934e-02 1.759671419858932495e-01 2.746633999049663544e-02 -4.796098470687866211e-01
3.630000000000000000e+03 1.235018730163574219e+01 -6.246968746185302734e+00 -9.287965297698974609e-02 -1.986190527677536011e-01 -8.744961023330688477e-02 -8.329134434461593628e-02
3.631000000000000000e+03 1.422585010528564453e+01 5.340573787689208984e+00 4.633927601389586926e-04 -1.412688652635551989e-05 1.347797660855576396e-04 5.126133328303694725e-04
3.632000000000000000e+03 6.888082885742187500e+01 -2.590549468994140625e+01 -3.540895879268646240e-01 6.761702060699462891e+00 1.922283768653869629e+00 8.108980059623718262e-01
3.633000000000000000e+03 7.501374053955078125e+01 -2.903606033325195312e+01 -2.321548759937286377e-01 7.730058193206787109e+00 2.249371051788330078e+00 -3.271953463554382324e-01
3.634000000000000000e+03 1.306807804107666016e+01 -6.473425865173339844e+00 -1.210794672369956970e-01 -2.077959328889846802e-01 -9.866262227296829224e-02 -1.314358264207839966e-01
3.635000000000000000e+03 4.847651004791259766e+00 -2.880874252319335938e+01 7.640919089317321777e-02 -5.283018350601196289e-01 -1.355677843093872070e-01 -1.141837388277053833e-01
3.636000000000000000e+03 6.422856903076171875e+01 -8.542284011840820312e+00 -9.245803356170654297e-01 1.564928770065307617e+00 1.921045482158660889e-01 -4.117561280727386475e-01
3.637000000000000000e+03 6.324557495117187500e+01 -6.723918914794921875e+00 -5.544226169586181641e-01 1.473401308059692383e+00 2.756935954093933105e-01 -1.170327365398406982e-01
3.638000000000000000e+03 4.714165210723876953e+00 6.851618766784667969e+00 3.383471339475363493e-04 1.827342930482700467e-05 1.069861682481132448e-04 -6.428783526644110680e-04
3.639000000000000000e+03 4.693067550659179688e+00 7.615580558776855469e+00 5.038657691329717636e-04 6.289001612458378077e-05 1.700267312116920948e-04 -7.751865196041762829e-04
3.640000000000000000e+03 4.011486530303955078e+00 5.422497272491455078e+00 3.245337575208395720e-04 1.524883700767531991e-04 1.431066339137032628e-04 -4.926088731735944748e-04
3.641000000000000000e+03 5.506494998931884766e+00 6.045602321624755859e+00 4.035941674374043941e-04 -1.196248558699153364e-04 8.519078983226791024e-05 -5.336680333130061626e-04
3.642000000000000000e+03 4.866624355316162109e+00 2.964958190917968750e+01 -1.440738909877836704e-03 -1.211525779217481613e-02 -4.066799301654100418e-03 1.048445515334606171e-02
3.643000000000000000e+03 6.285859107971191406e+00 5.997007846832275391e+00 5.876268842257559299e-04 -1.964219700312241912e-04 1.173614655272103846e-04 -5.079296533949673176e-04
3.644000000000000000e+03 7.080467700958251953e+00 5.950263023376464844e+00 5.594943650066852570e-04 -3.578465839382261038e-04 6.049433432053774595e-05 -4.051529685966670513e-04
3.645000000000000000e+03 4.475549316406250000e+01 -2.732702732086181641e+00 -1.209373116493225098e+00 5.507395863533020020e-01 -1.975900828838348389e-01 -2.566928267478942871e-01
3.646000000000000000e+03 4.378063964843750000e+01 -2.307732582092285156e+00 -1.269766211509704590e+00 3.665189743041992188e-01 -2.709741592407226562e-01 -4.194604456424713135e-01
3.647000000000000000e+03 7.400088500976562500e+01 -3.031037902832031250e+01 -3.111882805824279785e-01 7.435650825500488281e+00 2.137338638305664062e+00 -1.652860045433044434e-01
3.648000000000000000e+03 2.888516807556152344e+01 -1.221063899993896484e+01 4.238691329956054688e-01 6.338573992252349854e-02 1.461764574050903320e-01 -4.934187531471252441e-01
3.649000000000000000e+03 2.976168441772460938e+01 -1.160506439208984375e+01 2.127202153205871582e-01 7.117949426174163818e-03 6.595145165920257568e-02 -4.754181206226348877e-01
3.650000000000000000e+03 1.302183055877685547e+01 -3.065583229064941406e+01 2.303742915391921997e-01 5.636150762438774109e-02 8.602073788642883301e-02 -1.315058469772338867e-01
3.651000000000000000e+03 4.426249027252197266e+00 -3.058490562438964844e+01 5.190701037645339966e-02 -5.805040597915649414e-01 -1.585791110992431641e-01 -7.006342709064483643e-02
3.652000000000000000e+03 5.072774887084960938e+00 -2.983196830749511719e+01 7.327693700790405273e-02 -5.244494676589965820e-01 -1.353517621755599976e-01 -9.363838285207748413e-02
3.653000000000000000e+03 7.597556304931640625e+01 -2.828774833679199219e+01 -1.564469933509826660e-01 7.879683494567871094e+00 2.316970825195312500e+00 -3.910811543464660645e-01
3.654000000000000000e+03 7.553981781005859375e+01 -2.946560668945312500e+01 -2.019540816545486450e-01 7.817744731903076172e+00 2.284737110137939453e+00 -3.090613782405853271e-01
3.655000000000000000e+03 4.015882492065429688e+00 -2.513449096679687500e+01 7.863252609968185425e-02 -5.011384487152099609e-01 -1.267517805099487305e-01 -2.100191414356231689e-01
3.656000000000000000e+03 5.921363830566406250e+01 -7.161989212036132812e-01 5.317839384078979492e-01 6.026418805122375488e-01 3.403277397155761719e-01 4.416639506816864014e-01
3.657000000000000000e+03 7.522485351562500000e+01 -2.154072761535644531e+01 5.038108229637145996e-01 7.804440021514892578e+00 2.492475271224975586e+00 -2.283883988857269287e-01
3.658000000000000000e+03 6.479267120361328125e+01 3.296955108642578125e+00 1.899203658103942871e-01 3.542185783386230469e+00 1.119631886482238770e+00 9.341233968734741211e-01
3.659000000000000000e+03 7.363132476806640625e+01 -2.482545471191406250e+01 5.817554891109466553e-02 7.871216773986816406e+00 2.378817558288574219e+00 -4.857889711856842041e-01
3.660000000000000000e+03 4.695684909820556641e+00 2.205071830749511719e+01 -2.282665576785802841e-03 -1.324089709669351578e-03 -1.082026516087353230e-03 1.765622757375240326e-03
3.661000000000000000e+03 7.514084625244140625e+01 -2.243768882751464844e+01 4.093116223812103271e-01 7.816809654235839844e+00 2.467836380004882812e+00 -3.600378930568695068e-01
3.662000000000000000e+03 7.064630126953125000e+01 2.167584228515625000e+01 1.799679100513458252e-01 1.032803440093994141e+01 3.152400732040405273e+00 6.850542426109313965e-01
3.663000000000000000e+03 7.595413208007812500e+01 2.135960578918457031e+01 2.610995471477508545e-01 7.233012199401855469e+00 2.248233556747436523e+00 1.188649773597717285e+00
3.664000000000000000e+03 3.911036491394042969e+00 -2.287586021423339844e+01 5.902213603258132935e-02 -4.188407659530639648e-01 -1.079455912113189697e-01 -2.775651812553405762e-01
3.665000000000000000e+03 4.696157932281494141e+00 -2.138043594360351562e+01 5.056565627455711365e-02 -3.483873009681701660e-01 -8.934649080038070679e-02 -3.436952531337738037e-01
3.666000000000000000e+03 4.842114925384521484e+00 2.438027191162109375e+01 -3.703398862853646278e-03 -3.478949656710028648e-03 -2.154704649001359940e-03 4.659646190702915192e-03
3.667000000000000000e+03 7.485093688964843750e+01 2.895533752441406250e+01 -4.742197394371032715e-01 7.629139423370361328e+00 2.146475791931152344e+00 5.126399397850036621e-01
3.668000000000000000e+03 7.516676330566406250e+01 2.202402877807617188e+01 1.420300602912902832e-01 7.695053100585937500e+00 2.351125001907348633e+00 1.303703784942626953e+00
3.669000000000000000e+03 7.580921936035156250e+01 2.628386306762695312e+01 -3.359847664833068848e-01 7.660872459411621094e+00 2.197466373443603516e+00 9.109171628952026367e-01
3.670000000000000000e+03 7.031607818603515625e+01 2.456914520263671875e+01 -1.090367674827575684e+00 8.770148277282714844e+00 2.303934097290039062e+00 -1.082500815391540527e-01
3.671000000000000000e+03 5.456873321533203125e+01 -5.310591697692871094e+00 -4.012807905673980713e-01 -2.767210602760314941e-01 -2.034005522727966309e-01 1.092325091361999512e+00
3.672000000000000000e+03 5.566168975830078125e+01 -4.829500675201416016e+00 -2.929636240005493164e-01 -2.036207765340805054e-01 -1.489753276109695435e-01 9.026203751564025879e-01
3.673000000000000000e+03 7.531821441650390625e+01 1.502762985229492188e+01 8.572084903717041016e-01 7.437912464141845703e+00 2.488536357879638672e+00 -3.788586556911468506e-01
3.674000000000000000e+03 7.611430358886718750e+01 1.740760993957519531e+01 6.509758234024047852e-01 6.786132812500000000e+00 2.231132507324218750e+00 3.379282057285308838e-01
3.675000000000000000e+03 4.101057529449462891e+00 -2.590072631835937500e+01 7.738184928894042969e-02 -5.183943510055541992e-01 -1.323037594556808472e-01 -1.902298033237457275e-01
3.676000000000000000e+03 4.703686237335205078e+00 -2.221679687500000000e+01 6.782756745815277100e-02 -3.822601139545440674e-01 -9.432976692914962769e-02 -3.238357603549957275e-01
3.677000000000000000e+03 3.965261459350585938e+00 2.135298347473144531e+01 -1.405593007802963257e-03 1.989583834074437618e-04 -3.619903873186558485e-04 7.392912521027028561e-04
3.678000000000000000e+03 7.612825012207031250e+01 1.819142913818359375e+01 6.252642273902893066e-01 6.786979198455810547e+00 2.223673105239868164e+00 5.447126030921936035e-01
3.679000000000000000e+03 5.638268947601318359e+00 -3.014970207214355469e+01 8.452714979648590088e-02 -4.830494225025177002e-01 -1.195566803216934204e-01 -9.185269474983215332e-02
3.680000000000000000e+03 7.506325531005859375e+01 2.083082008361816406e+01 4.445318579673767090e-01 7.678082942962646484e+00 2.436784505844116211e+00 1.194479227066040039e+00
3.681000000000000000e+03 7.609634399414062500e+01 1.661459350585937500e+01 7.013058066368103027e-01 6.770318508148193359e+00 2.241487264633178711e+00 1.147730126976966858e-01
3.682000000000000000e+03 7.545217895507812500e+01 1.897201728820800781e+01 7.305331826210021973e-01 7.311778068542480469e+00 2.412693262100219727e+00 7.875829339027404785e-01
3.683000000000000000e+03 7.609512329101562500e+01 -2.000076675415039062e+01 4.478509724140167236e-01 7.726433277130126953e+00 2.452285289764404297e+00 4.666171222925186157e-02
3.684000000000000000e+03 7.329632568359375000e+01 -1.561150932312011719e+01 4.993691146373748779e-01 8.246906280517578125e+00 2.623882532119750977e+00 9.537103176116943359e-01
3.685000000000000000e+03 5.335291862487792969e+00 -6.702899932861328125e+00 -3.522180765867233276e-02 -7.887895219027996063e-03 -1.293291058391332626e-02 1.055171489715576172e-01
3.686000000000000000e+03 7.396528625488281250e+01 -1.737021255493164062e+01 7.467476725578308105e-01 8.099567413330078125e+00 2.653894662857055664e+00 6.866635680198669434e-01
3.687000000000000000e+03 7.195961761474609375e+01 1.163612461090087891e+01 8.731859922409057617e-01 9.767023086547851562e+00 3.192062616348266602e+00 -7.954885363578796387e-01
3.688000000000000000e+03 3.814794540405273438e+00 -8.638060569763183594e+00 -5.268196389079093933e-02 6.285221129655838013e-02 3.051075385883450508e-03 7.033809274435043335e-02
3.689000000000000000e+03 5.257321357727050781e+00 -7.419309616088867188e+00 -5.432814732193946838e-02 -6.888859439641237259e-03 -1.836510188877582550e-02 9.588182717561721802e-02
3.690000000000000000e+03 7.535258483886718750e+01 -2.070043563842773438e+01 5.507746934890747070e-01 7.797870635986328125e+00 2.504593610763549805e+00 -8.015793561935424805e-02
3.691000000000000000e+03 7.558635711669921875e+01 8.672006607055664062e+00 3.301263228058815002e-02 7.599019527435302734e+00 2.289609670639038086e+00 -1.292331099510192871e+00
3.692000000000000000e+03 7.216898345947265625e+01 -1.281332397460937500e+01 -4.847235083580017090e-01 8.155050277709960938e+00 2.301098108291625977e+00 8.082569241523742676e-01
3.693000000000000000e+03 7.540458679199218750e+01 -1.354240608215332031e+01 -4.923221468925476074e-02 8.260806083679199219e+00 2.463472127914428711e+00 9.051839113235473633e-01
3.694000000000000000e+03 7.552403259277343750e+01 7.234128952026367188e+00 -1.105419844388961792e-01 7.711671829223632812e+00 2.280339002609252930e+00 -1.261943817138671875e+00
3.695000000000000000e+03 7.622294616699218750e+01 8.673120498657226562e+00 9.013781324028968811e-03 7.363847732543945312e+00 2.211858510971069336e+00 -1.224424362182617188e+00
3.696000000000000000e+03 7.476177215576171875e+01 9.207818984985351562e+00 1.149373129010200500e-01 7.891373634338378906e+00 2.401893138885498047e+00 -1.319205880165100098e+00
3.697000000000000000e+03 7.614205932617187500e+01 -1.287211132049560547e+01 -9.973986446857452393e-02 8.346372604370117188e+00 2.473989725112915039e+00 8.159350156784057617e-01
3.698000000000000000e+03 7.597155761718750000e+01 1.174618721008300781e+01 3.510496318340301514e-01 7.148851394653320312e+00 2.249970197677612305e+00 -1.024041414260864258e+00
3.699000000000000000e+03 7.011017608642578125e+01 -1.167958068847656250e+01 -1.158447623252868652e+00 7.546982765197753906e+00 1.916560411453247070e+00 1.432015746831893921e-01
3.700000000000000000e+03 7.556673431396484375e+01 3.523089736700057983e-02 -2.765856683254241943e-01 8.073644638061523438e+00 2.339117765426635742e+00 -6.684080958366394043e-01
3.701000000000000000e+03 7.544083404541015625e+01 9.408594131469726562e+00 9.119865298271179199e-02 7.609805107116699219e+00 2.310301065444946289e+00 -1.278752446174621582e+00
3.702000000000000000e+03 7.617375946044921875e+01 1.589979529380798340e+00 -2.099365592002868652e-01 8.115053176879882812e+00 2.371535062789916992e+00 -7.680474519729614258e-01
3.703000000000000000e+03 7.549400329589843750e+01 1.627161264419555664e+00 -2.797134816646575928e-01 7.989882946014404297e+00 2.313050985336303711e+00 -8.098091483116149902e-01
3.704000000000000000e+03 7.480627441406250000e+01 -1.201502513885498047e+01 -3.047739863395690918e-01 8.306806564331054688e+00 2.400609970092773438e+00 8.363819718360900879e-01
3.705000000000000000e+03 7.615503692626953125e+01 -1.208232212066650391e+01 -1.734105795621871948e-01 8.416398048400878906e+00 2.472896099090576172e+00 7.668525576591491699e-01
3.706000000000000000e+03 7.547158050537109375e+01 -2.332560062408447266e+00 -2.958635091781616211e-01 8.167067527770996094e+00 2.361361265182495117e+00 -4.478602409362792969e-01
3.707000000000000000e+03 7.544014739990234375e+01 -3.956248044967651367e+00 -3.368492126464843750e-01 8.233267784118652344e+00 2.368925809860229492e+00 -2.749152481555938721e-01
3.708000000000000000e+03 7.538907623291015625e+01 4.092594623565673828e+00 -2.637735605239868164e-01 7.881016731262207031e+00 2.285172939300537109e+00 -1.045152425765991211e+00
3.709000000000000000e+03 7.554178619384765625e+01 8.239026665687561035e-01 -2.631661593914031982e-01 8.033036231994628906e+00 2.330960988998413086e+00 -7.368816733360290527e-01
3.710000000000000000e+03 7.614565277099609375e+01 -8.860843658447265625e+00 -3.207428157329559326e-01 8.580947875976562500e+00 2.478061437606811523e+00 3.881024122238159180e-01
3.711000000000000000e+03 7.543782806396484375e+01 -1.043756103515625000e+01 -3.697926998138427734e-01 8.408436775207519531e+00 2.411593198776245117e+00 6.137453317642211914e-01
3.712000000000000000e+03 7.543780517578125000e+01 -4.770511150360107422e+00 -3.580250144004821777e-01 8.269300460815429688e+00 2.373382568359375000e+00 -1.805037856101989746e-01
3.713000000000000000e+03 7.543131256103515625e+01 4.890203952789306641e+00 -2.536748647689819336e-01 7.839658260345458984e+00 2.275794982910156250e+00 -1.110383033752441406e+00
3.714000000000000000e+03 7.544140625000000000e+01 -5.577394485473632812e+00 -3.769949972629547119e-01 8.310923576354980469e+00 2.380178689956665039e+00 -8.306775987148284912e-02
3.715000000000000000e+03 7.614624023437500000e+01 2.398311376571655273e+00 -2.193797528743743896e-01 8.043653488159179688e+00 2.347281932830810547e+00 -8.427032828330993652e-01
3.716000000000000000e+03 7.545010375976562500e+01 -6.378582954406738281e+00 -4.001880586147308350e-01 8.345323562622070312e+00 2.383540868759155273e+00 2.482474967837333679e-02
3.717000000000000000e+03 7.473906707763671875e+01 -3.887354373931884766e+00 -4.147686660289764404e-01 7.985674858093261719e+00 2.271271944046020508e+00 -3.138968646526336670e-01
3.718000000000000000e+03 7.491200256347656250e+01 8.251869082450866699e-01 -3.246518969535827637e-01 7.897264480590820312e+00 2.271783828735351562e+00 -7.542698979377746582e-01
3.719000000000000000e+03 7.555541992187500000e+01 -7.515078186988830566e-01 -2.783244252204895020e-01 8.117089271545410156e+00 2.351629257202148438e+00 -5.915439128875732422e-01
3.720000000000000000e+03 7.614477539062500000e+01 -1.763349914550781250e+01 4.022098481655120850e-01 7.840806484222412109e+00 2.472904920578002930e+00 4.871384203433990479e-01
3.721000000000000000e+03 7.315183258056640625e+01 -2.066842842102050781e+01 1.013227701187133789e+00 8.095459938049316406e+00 2.732606410980224609e+00 -1.684042252600193024e-02
3.722000000000000000e+03 7.546931457519531250e+01 6.458114147186279297e+00 -1.854585856199264526e-01 7.761761188507080078e+00 2.272890806198120117e+00 -1.223826646804809570e+00
3.723000000000000000e+03 7.546372985839843750e+01 1.969807052612304688e+01 5.976926088333129883e-01 7.346755981445312500e+00 2.383334636688232422e+00 9.659978151321411133e-01
3.724000000000000000e+03 7.543433380126953125e+01 -9.619333267211914062e+00 -4.023327231407165527e-01 8.414496421813964844e+00 2.403649091720581055e+00 5.031879544258117676e-01
3.725000000000000000e+03 7.223804473876953125e+01 -1.816955947875976562e+01 1.214022994041442871e+00 8.503148078918457031e+00 2.915151357650756836e+00 5.871689319610595703e-01
3.726000000000000000e+03 7.523492431640625000e+01 1.276391315460205078e+01 6.510096192359924316e-01 7.561081409454345703e+00 2.463627338409423828e+00 -9.090746045112609863e-01
3.727000000000000000e+03 7.414347076416015625e+01 1.090337562561035156e+01 4.629398286342620850e-01 8.272453308105468750e+00 2.620618104934692383e+00 -1.219736099243164062e+00
3.728000000000000000e+03 7.545873260498046875e+01 -7.180079936981201172e+00 -4.143369197845458984e-01 8.379693984985351562e+00 2.389607191085815430e+00 1.375792473554611206e-01
3.729000000000000000e+03 7.520130920410156250e+01 -2.521290969848632812e+01 1.697068661451339722e-02 7.845627784729003906e+00 2.358779668807983398e+00 -5.251736640930175781e-01
3.730000000000000000e+03 7.596149444580078125e+01 -2.509572219848632812e+01 2.783552370965480804e-02 7.832229137420654297e+00 2.358019351959228516e+00 -5.160264968872070312e-01
3.731000000000000000e+03 7.539051818847656250e+01 1.425746440887451172e+01 7.737885713577270508e-01 7.370349407196044922e+00 2.443241357803344727e+00 -5.499867796897888184e-01
3.732000000000000000e+03 7.145245361328125000e+01 -1.825064659118652344e+01 1.333028078079223633e+00 8.890780448913574219e+00 3.067142724990844727e+00 5.727706551551818848e-01
3.733000000000000000e+03 7.590454864501953125e+01 -2.426179885864257812e+01 1.181290522217750549e-01 7.809406757354736328e+00 2.378260612487792969e+00 -4.965782761573791504e-01
3.734000000000000000e+03 6.689239978790283203e+00 -2.381991958618164062e+01 1.676305085420608521e-01 -3.748923242092132568e-01 -6.217854470014572144e-02 -3.127482533454895020e-01
3.735000000000000000e+03 7.577941131591796875e+01 2.713157653808593750e+01 -3.792445957660675049e-01 7.684935092926025391e+00 2.191707134246826172e+00 8.055145144462585449e-01
3.736000000000000000e+03 7.439519500732421875e+01 2.355570030212402344e+01 -2.086065560579299927e-01 8.124506950378417969e+00 2.374770164489746094e+00 1.261339306831359863e+00
3.737000000000000000e+03 4.602780342102050781e+00 1.482241725921630859e+01 -1.134208068833686411e-04 1.489620626671239734e-04 1.066237655322765931e-05 -1.601717085577547550e-03
3.738000000000000000e+03 8.473140716552734375e+00 -2.357609176635742188e+01 2.393362224102020264e-01 -2.969436347484588623e-01 -1.728222705423831940e-02 -3.195424675941467285e-01
3.739000000000000000e+03 6.664119243621826172e+00 -3.141109657287597656e+01 8.518821746110916138e-02 -4.188388884067535400e-01 -1.000951975584030151e-01 -7.275824248790740967e-02
3.740000000000000000e+03 3.799016952514648438e+00 -9.405045509338378906e+00 -6.480143219232559204e-02 6.464771926403045654e-02 -4.611429540091194212e-05 5.067652836441993713e-02
3.741000000000000000e+03 4.513302803039550781e+00 -8.767990112304687500e+00 -7.329429686069488525e-02 2.612247690558433533e-02 -1.415154710412025452e-02 6.857023388147354126e-02
3.742000000000000000e+03 7.540927886962890625e+01 2.038599014282226562e+01 4.915020465850830078e-01 7.433943271636962891e+00 2.377633571624755859e+00 1.093759775161743164e+00
3.743000000000000000e+03 7.542572784423828125e+01 1.821734428405761719e+01 8.029866218566894531e-01 7.310661792755126953e+00 2.434094429016113281e+00 5.906299948692321777e-01
3.744000000000000000e+03 7.459867095947265625e+01 -3.105051422119140625e+01 -2.560884952545166016e-01 7.533246040344238281e+00 2.183147192001342773e+00 -1.543138027191162109e-01
3.745000000000000000e+03 7.448122406005859375e+01 -3.265124511718750000e+01 -2.192223519086837769e-01 7.414617061614990234e+00 2.158618450164794922e+00 -5.144752562046051025e-02
3.746000000000000000e+03 7.350520324707031250e+01 -3.328256225585937500e+01 -2.305013090372085571e-01 7.062452316284179688e+00 2.049585342407226562e+00 3.437454625964164734e-02
3.747000000000000000e+03 1.348170375823974609e+01 5.408913612365722656e+00 4.493673623073846102e-04 -2.103754959534853697e-04 7.169756281655281782e-05 4.476360627450048923e-04
3.748000000000000000e+03 3.975338459014892578e+00 -1.646232223510742188e+01 -8.857939392328262329e-02 -9.641707688570022583e-02 -5.549894273281097412e-02 -2.612990736961364746e-01
3.749000000000000000e+03 4.629037857055664062e+00 -1.482887935638427734e+01 -1.482218950986862183e-01 -6.470754742622375488e-02 -6.387883424758911133e-02 -2.128607928752899170e-01
3.750000000000000000e+03 4.748240470886230469e+00 -1.567603397369384766e+01 -1.360450536012649536e-01 -1.001447290182113647e-01 -7.085693627595901489e-02 -2.606374323368072510e-01
3.751000000000000000e+03 3.881013154983520508e+00 -1.889632415771484375e+01 -2.289586141705513000e-02 -2.196450978517532349e-01 -7.276228815317153931e-02 -3.170906305313110352e-01
3.752000000000000000e+03 8.349046707153320312e+00 -1.817699813842773438e+01 -1.306713819503784180e-01 -3.372235000133514404e-01 -1.403684616088867188e-01 -4.573333263397216797e-01
3.753000000000000000e+03 3.845360755920410156e+00 -1.246273231506347656e+01 -1.077654287219047546e-01 3.855853900313377380e-02 -2.076206728816032410e-02 -6.941509991884231567e-02
3.754000000000000000e+03 4.601225852966308594e+00 -1.327000331878662109e+01 -1.509391218423843384e-01 -2.122837863862514496e-02 -5.165024846792221069e-02 -1.229389011859893799e-01
3.755000000000000000e+03 4.531286239624023438e+00 -8.007788658142089844e+00 -5.604772642254829407e-02 2.516925521194934845e-02 -9.263541549444198608e-03 8.563289791345596313e-02
3.756000000000000000e+03 3.784825086593627930e+00 -1.092816638946533203e+01 -8.703675121068954468e-02 6.007015705108642578e-02 -8.089978247880935669e-03 -4.917866899631917477e-04
3.757000000000000000e+03 4.553463935852050781e+00 -1.404286289215087891e+01 -1.501174271106719971e-01 -3.682633116841316223e-02 -5.608312785625457764e-02 -1.667687296867370605e-01
3.758000000000000000e+03 4.683129787445068359e+00 2.126538276672363281e+01 -2.644627355039119720e-03 -8.190564112737774849e-04 -1.039105118252336979e-03 1.094985753297805786e-03
3.759000000000000000e+03 3.936507463455200195e+00 1.894738006591796875e+01 -1.220137346535921097e-03 8.827455458231270313e-04 -1.012175489449873567e-04 -7.168992306105792522e-04
3.760000000000000000e+03 4.613421916961669922e+00 1.401376724243164062e+01 3.924808115698397160e-04 1.579492818564176559e-04 1.651290367590263486e-04 -1.650284626521170139e-03
3.761000000000000000e+03 5.060866355895996094e+00 -1.175500583648681641e+01 -1.563546210527420044e-01 -2.057993970811367035e-02 -5.308036878705024719e-02 -5.106225982308387756e-02
3.762000000000000000e+03 5.393331050872802734e+00 2.039603424072265625e+01 -2.901388099417090416e-03 -1.406632247380912304e-03 -1.292406115680932999e-03 5.925754085183143616e-04
3.763000000000000000e+03 3.954303264617919922e+00 2.055350494384765625e+01 -1.776324235834181309e-03 5.322266370058059692e-04 -3.732292680069804192e-04 2.305616944795474410e-04
3.764000000000000000e+03 4.596967697143554688e+00 -1.973040008544921875e+01 -6.147364038042724133e-04 -2.742731869220733643e-01 -8.246637880802154541e-02 -3.548216223716735840e-01
3.765000000000000000e+03 5.420183181762695312e+00 8.307321548461914062e+00 6.378298276104032993e-04 -1.602848205948248506e-04 1.432634890079498291e-04 -8.556676912121474743e-04
3.766000000000000000e+03 3.925809144973754883e+00 1.168679809570312500e+01 4.903452354483306408e-04 5.545607418753206730e-04 3.134717990178614855e-04 -1.354501233436167240e-03
3.767000000000000000e+03 4.607791900634765625e+00 1.563378143310546875e+01 6.794335058657452464e-05 1.852533314377069473e-04 7.595900387968868017e-05 -1.638640183955430984e-03
3.768000000000000000e+03 4.636261463165283203e+00 1.725845527648925781e+01 -4.096285847481340170e-04 1.249232154805213213e-04 -8.541161514585837722e-05 -1.372651197016239166e-03
3.769000000000000000e+03 4.633778095245361328e+00 1.320871639251708984e+01 1.903015800053253770e-04 9.434398089069873095e-05 8.539367263438180089e-05 -1.517727854661643505e-03
3.770000000000000000e+03 4.644123077392578125e+00 1.806656074523925781e+01 -1.180241117253899574e-03 1.527533822809346020e-05 -3.494897391647100449e-04 -1.013351720757782459e-03
3.771000000000000000e+03 7.542368316650390625e+01 -2.662905502319335938e+01 -1.247012913227081299e-01 7.836503028869628906e+00 2.313540697097778320e+00 -4.772722125053405762e-01
3.772000000000000000e+03 4.686031341552734375e+00 -2.055138397216796875e+01 2.389949001371860504e-02 -3.122526109218597412e-01 -8.650594204664230347e-02 -3.557253181934356689e-01
3.773000000000000000e+03 5.039621353149414062e+00 -1.898294639587402344e+01 -2.826230041682720184e-02 -2.474412173032760620e-01 -8.271105587482452393e-02 -3.689221739768981934e-01
3.774000000000000000e+03 4.667685031890869141e+00 9.182087898254394531e+00 5.696686566807329655e-04 7.350473606493324041e-05 1.929520221892744303e-04 -1.005807192996144295e-03
3.775000000000000000e+03 4.663013458251953125e+00 1.078956413269042969e+01 6.056911079213023186e-04 7.921015640022233129e-05 2.054703800240531564e-04 -1.258805394172668457e-03
3.776000000000000000e+03 4.663669586181640625e+00 9.982272148132324219e+00 3.966789226979017258e-04 3.606034442782402039e-05 1.298217830481007695e-04 -1.077305991202592850e-03
3.777000000000000000e+03 4.622834205627441406e+00 1.644669151306152344e+01 -5.619534058496356010e-04 1.252655492862686515e-04 -1.310063671553507447e-04 -1.466931891627609730e-03
3.778000000000000000e+03 5.311437606811523438e+00 1.555282115936279297e+01 -3.513311967253684998e-04 -5.561471916735172272e-04 -2.722435165196657181e-04 -1.560857286676764488e-03
3.779000000000000000e+03 4.741288661956787109e+00 6.100983619689941406e+00 4.325531772337853909e-04 5.286991290631704032e-05 1.456269237678498030e-04 -5.819199141114950180e-04
3.780000000000000000e+03 4.104685783386230469e+00 2.608650970458984375e+01 -2.044879132881760597e-03 -4.448544699698686600e-03 -1.948027173057198524e-03 5.730414763092994690e-03
3.781000000000000000e+03 4.783179759979248047e+00 2.833955001831054688e+01 -2.345248591154813766e-03 -9.555135853588581085e-03 -3.570115193724632263e-03 9.560637176036834717e-03
3.782000000000000000e+03 4.916859626770019531e+00 2.596649932861328125e+01 -3.881724551320075989e-03 -5.512830335646867752e-03 -2.818366512656211853e-03 6.746722850948572159e-03
3.783000000000000000e+03 2.223305511474609375e+01 -1.058739948272705078e+01 -2.563807964324951172e-01 1.885370910167694092e-01 -2.035311236977577209e-02 -4.159137606620788574e-01
3.784000000000000000e+03 5.787754058837890625e+00 2.665925598144531250e+01 -4.927165340632200241e-03 -7.857676595449447632e-03 -3.835452487692236900e-03 8.984747342765331268e-03
3.785000000000000000e+03 4.781538486480712891e+00 2.361127471923828125e+01 -2.737219911068677902e-03 -2.657189266756176949e-03 -1.618322799913585186e-03 3.647034289315342903e-03
3.786000000000000000e+03 5.446219921112060547e+00 2.270681762695312500e+01 -3.388073761016130447e-03 -2.867553848773241043e-03 -1.876688213087618351e-03 3.114221151918172836e-03
3.787000000000000000e+03 7.487955474853515625e+01 2.494115066528320312e+01 -3.953130543231964111e-01 7.847321510314941406e+00 2.235602617263793945e+00 1.120210647583007812e+00
3.788000000000000000e+03 4.929903030395507812e+00 -2.662454414367675781e+01 1.048833802342414856e-01 -4.899528622627258301e-01 -1.155208423733711243e-01 -1.842233240604400635e-01
3.789000000000000000e+03 3.796623992919921875e+01 -7.391980648040771484e+00 -1.008236408233642578e+00 -3.582395017147064209e-01 -4.099427759647369385e-01 -3.130946755409240723e-01
3.790000000000000000e+03 4.251138305664062500e+01 1.518333721160888672e+01 -1.705049276351928711e-01 3.897300362586975098e-02 -3.945957496762275696e-02 7.821589708328247070e-03
3.791000000000000000e+03 4.756034088134765625e+01 1.861753654479980469e+01 -4.145852029323577881e-01 7.349744439125061035e-02 -1.023263335227966309e-01 -1.180040463805198669e-01
3.792000000000000000e+03 5.760496139526367188e+00 3.293952941894531250e+01 1.107942429371178150e-03 -2.103079110383987427e-02 -5.976854357868432999e-03 1.316627580672502518e-02
3.793000000000000000e+03 6.646118164062500000e+01 -9.145606040954589844e+00 -1.239529252052307129e+00 3.610020637512207031e+00 7.111474275588989258e-01 -9.287970066070556641e-01
3.794000000000000000e+03 1.563547420501708984e+01 -8.403641700744628906e+00 -3.321820497512817383e-01 -2.671220898628234863e-01 -1.797912418842315674e-01 -3.672108948230743408e-01
3.795000000000000000e+03 4.686519145965576172e+00 -2.826175880432128906e+01 7.664693146944046021e-02 -5.359414815902709961e-01 -1.377883553504943848e-01 -1.281609684228897095e-01
3.796000000000000000e+03 4.778104782104492188e+00 -2.766940307617187500e+01 8.824107050895690918e-02 -5.192629098892211914e-01 -1.293065547943115234e-01 -1.471186578273773193e-01
3.797000000000000000e+03 4.804843425750732422e+00 -3.445628738403320312e+01 1.647960394620895386e-02 -5.814739465713500977e-01 -1.694983094930648804e-01 -1.481656543910503387e-02
3.798000000000000000e+03 5.602096080780029297e+00 -3.486958694458007812e+01 2.927775681018829346e-02 -5.307265520095825195e-01 -1.504346430301666260e-01 -1.531370356678962708e-02
3.799000000000000000e+03 7.475818634033203125e+01 2.778859519958496094e+01 -5.220764279365539551e-01 7.719177722930908203e+00 2.159130334854125977e+00 6.512579917907714844e-01
3.800000000000000000e+03 7.428165435791015625e+01 2.721342658996582031e+01 -6.067327260971069336e-01 7.801369667053222656e+00 2.158390998840332031e+00 7.156950235366821289e-01
3.801000000000000000e+03 3.058415794372558594e+01 -1.181957054138183594e+01 3.133182227611541748e-01 -1.166209392249584198e-02 9.049683809280395508e-02 -4.064938724040985107e-01
3.802000000000000000e+03 3.120479583740234375e+01 -1.211682415008544922e+01 4.175305068492889404e-01 -1.725856028497219086e-02 1.200815811753273010e-01 -3.558230996131896973e-01
3.803000000000000000e+03 7.057977294921875000e+01 3.255322647094726562e+01 -3.673831820487976074e-01 6.219374179840087891e+00 1.755597352981567383e+00 -3.363412618637084961e-01
3.804000000000000000e+03 2.919260597229003906e+01 -7.955807209014892578e+00 -1.077622890472412109e+00 -1.631672829389572144e-01 -3.722370564937591553e-01 -4.646736383438110352e-01
3.805000000000000000e+03 2.863100624084472656e+01 -9.959442138671875000e+00 -3.485043048858642578e-01 -8.109576068818569183e-03 -1.069841682910919189e-01 -5.476800799369812012e-01
3.806000000000000000e+03 5.045439243316650391e+00 3.038522338867187500e+01 -2.088875044137239456e-03 -1.396465208381414413e-02 -4.816058091819286346e-03 1.131733227521181107e-02
3.807000000000000000e+03 1.385354042053222656e+01 -6.658224105834960938e+00 -1.529543250799179077e-01 -2.159894257783889771e-01 -1.106831207871437073e-01 -1.849938333034515381e-01
3.808000000000000000e+03 1.538107395172119141e+01 -9.757254600524902344e+00 -4.763997495174407959e-01 -3.885414004325866699e-01 -2.594823539257049561e-01 -3.865335881710052490e-01
3.809000000000000000e+03 4.341565322875976562e+01 -6.311129570007324219e+00 -8.697143197059631348e-01 6.310772895812988281e-01 -7.159111648797988892e-02 -2.339854277670383453e-02
3.810000000000000000e+03 5.247313499450683594e+00 3.117730903625488281e+01 -5.190795054659247398e-04 -1.615643315017223358e-02 -5.002653691917657852e-03 1.209204923361539841e-02
3.811000000000000000e+03 9.537567138671875000e+00 5.792997360229492188e+00 7.632126798853278160e-04 -4.660910053644329309e-04 8.913649799069389701e-05 -5.189181683817878366e-05
3.812000000000000000e+03 4.448369979858398438e+01 1.362753486633300781e+01 -9.417725354433059692e-02 2.254333114251494408e-03 -2.757687680423259735e-02 -1.025442965328693390e-02
3.813000000000000000e+03 6.690942382812500000e+01 3.174434185028076172e+00 -2.349479496479034424e-01 5.203444957733154297e+00 1.490549087524414062e+00 5.586083531379699707e-01
3.814000000000000000e+03 6.668153381347656250e+01 5.269671440124511719e+00 -9.919620305299758911e-02 5.581963539123535156e+00 1.644830107688903809e+00 1.079268455505371094e+00
3.815000000000000000e+03 4.779877471923828125e+01 -3.957226276397705078e+00 -9.177344441413879395e-01 8.272023797035217285e-01 -2.715960890054702759e-02 3.388353586196899414e-01
3.816000000000000000e+03 7.427346801757812500e+01 2.047296714782714844e+01 6.672046780586242676e-01 8.168538093566894531e+00 2.650722980499267578e+00 1.152663707733154297e+00
3.817000000000000000e+03 3.471165847778320312e+01 -1.348314857482910156e+01 9.099608063697814941e-01 -1.924707889556884766e-01 2.152470052242279053e-01 -3.300771489739418030e-02
3.818000000000000000e+03 4.596028900146484375e+01 9.781587600708007812e+00 2.291752258315682411e-03 -8.769092150032520294e-03 -1.943202107213437557e-03 2.075091004371643066e-03
3.819000000000000000e+03 4.577573776245117188e+00 -7.245101451873779297e+00 -4.013171792030334473e-02 2.252451702952384949e-02 -5.282159894704818726e-03 9.927705675363540649e-02
3.820000000000000000e+03 5.495929241180419922e+00 -6.004417896270751953e+00 -1.513994485139846802e-02 -1.142589468508958817e-02 -7.969751954078674316e-03 1.100176796317100525e-01
3.821000000000000000e+03 7.069408416748046875e+01 -2.114044570922851562e+01 1.497915387153625488e+00 8.921636581420898438e+00 3.125865459442138672e+00 1.868135780096054077e-01
3.822000000000000000e+03 7.154616546630859375e+01 -1.945459556579589844e+01 1.482566952705383301e+00 8.739511489868164062e+00 3.066623449325561523e+00 3.959156274795532227e-01
3.823000000000000000e+03 6.337680339813232422e+00 -5.720885276794433594e+00 -9.705196134746074677e-03 -3.649443015456199646e-02 -1.385988853871822357e-02 1.071045696735382080e-01
3.824000000000000000e+03 4.662090682983398438e+01 -7.729865550994873047e+00 -2.711583971977233887e-01 1.411248922348022461e+00 3.420271575450897217e-01 3.645931184291839600e-01
3.825000000000000000e+03 4.783180999755859375e+01 -7.659312248229980469e+00 -2.376956343650817871e-01 1.515739202499389648e+00 3.834130764007568359e-01 5.611770749092102051e-01
3.826000000000000000e+03 6.790727615356445312e+00 -6.071777343750000000e+00 -2.268239483237266541e-02 -5.394000560045242310e-02 -2.298672124743461609e-02 1.010575145483016968e-01
3.827000000000000000e+03 2.445519447326660156e+01 -5.898665904998779297e+00 -7.904956936836242676e-01 2.597797513008117676e-01 -1.592147797346115112e-01 -1.989507675170898438e-01
3.828000000000000000e+03 2.311209869384765625e+01 -7.084550380706787109e+00 -6.104020476341247559e-01 2.427179515361785889e-01 -1.103052347898483276e-01 -3.491502702236175537e-01
3.829000000000000000e+03 3.934240722656250000e+01 -2.279826736450195312e+01 1.319626867771148682e-01 4.538971185684204102e-01 1.757579445838928223e-01 1.382672786712646484e-01
3.830000000000000000e+03 6.619516754150390625e+01 3.469565629959106445e+00 -8.591406792402267456e-02 4.664902210235595703e+00 1.373696446418762207e+00 7.884246110916137695e-01
3.831000000000000000e+03 5.379352951049804688e+01 -2.739473819732666016e+00 -2.137154787778854370e-01 4.713175445795059204e-02 -4.997511580586433411e-02 9.929751157760620117e-01
3.832000000000000000e+03 5.272280502319335938e+01 -4.464771270751953125e+00 -4.232636392116546631e-01 1.289816796779632568e-01 -8.828458189964294434e-02 1.220679283142089844e+00
3.833000000000000000e+03 1.370681667327880859e+01 -7.798046588897705078e+00 -2.317847013473510742e-01 -2.996652424335479736e-01 -1.594349741935729980e-01 -2.078480124473571777e-01
3.834000000000000000e+03 3.582512664794921875e+01 2.164275932312011719e+01 -2.568888366222381592e-01 -9.590092115104198456e-03 -7.994367927312850952e-02 1.134023889899253845e-01
3.835000000000000000e+03 4.234648513793945312e+01 -1.804718971252441406e+01 5.103806257247924805e-01 1.279205799102783203e+00 5.368759036064147949e-01 3.937848284840583801e-02
3.836000000000000000e+03 3.990373229980468750e+01 1.769233894348144531e+01 -2.618905007839202881e-01 5.850746482610702515e-02 -6.101490557193756104e-02 6.276229023933410645e-02
3.837000000000000000e+03 3.816380691528320312e+01 2.041370582580566406e+01 -2.841925919055938721e-01 4.885013028979301453e-02 -7.060273736715316772e-02 9.951928257942199707e-02
3.838000000000000000e+03 7.017972564697265625e+01 -2.460006713867187500e+01 -4.202052578330039978e-02 7.841025829315185547e+00 2.339701652526855469e+00 2.030848115682601929e-01
3.839000000000000000e+03 4.554346084594726562e+01 1.200779819488525391e+01 -3.769846260547637939e-02 -1.254257746040821075e-02 -1.507231127470731735e-02 -9.618028998374938965e-03
3.840000000000000000e+03 1.006361484527587891e+01 -6.991666793823242188e+00 -1.062143817543983459e-01 -1.882285028696060181e-01 -8.833286166191101074e-02 1.413315813988447189e-02
3.841000000000000000e+03 4.578395462036132812e+01 1.279542827606201172e+01 -4.801074042916297913e-02 -9.492747485637664795e-03 -1.725104637444019318e-02 -1.553259696811437607e-02
3.842000000000000000e+03 1.111552524566650391e+01 -2.736089515686035156e+01 2.784333229064941406e-01 -5.344143509864807129e-02 6.749756634235382080e-02 -1.918298602104187012e-01
3.843000000000000000e+03 4.322882461547851562e+01 -1.681958770751953125e+01 5.564370155334472656e-01 1.568656563758850098e+00 6.375280618667602539e-01 1.856830120086669922e-01
3.844000000000000000e+03 4.333821105957031250e+01 -1.606461715698242188e+01 5.920544266700744629e-01 1.537867307662963867e+00 6.389765143394470215e-01 2.466092854738235474e-01
3.845000000000000000e+03 1.930159950256347656e+01 -9.306706428527832031e+00 -4.384909868240356445e-01 9.491600096225738525e-02 -1.030724942684173584e-01 -4.532523751258850098e-01
3.846000000000000000e+03 4.678378295898437500e+01 1.875046539306640625e+01 -4.096951186656951904e-01 1.030206605792045593e-01 -9.200233966112136841e-02 -8.562204241752624512e-02
3.847000000000000000e+03 4.654310226440429688e+01 1.800570869445800781e+01 -3.466282784938812256e-01 7.346539944410324097e-02 -8.194886147975921631e-02 -8.518739789724349976e-02
3.848000000000000000e+03 8.116012573242187500e+00 -5.256598949432373047e+00 5.386736709624528885e-03 -7.978922873735427856e-02 -2.232074737548828125e-02 8.383213728666305542e-02
3.849000000000000000e+03 1.999131202697753906e+01 -1.007518863677978516e+01 -4.303719401359558105e-01 1.483108103275299072e-01 -8.461833745241165161e-02 -4.019149541854858398e-01
3.850000000000000000e+03 4.547074127197265625e+01 1.474585342407226562e+01 -1.378395855426788330e-01 8.134314790368080139e-03 -3.891158476471900940e-02 -3.758499771356582642e-02
3.851000000000000000e+03 1.494201374053955078e+01 1.459222888946533203e+01 1.520034973509609699e-03 -1.295886235311627388e-03 6.724463310092687607e-05 2.212474122643470764e-03
3.852000000000000000e+03 1.695977401733398438e+01 -7.509967327117919922e+00 -3.286606967449188232e-01 -1.083826199173927307e-01 -1.311129927635192871e-01 -4.037164449691772461e-01
3.853000000000000000e+03 1.809112739562988281e+01 -6.895641803741455078e+00 -3.372218906879425049e-01 -1.202224101871252060e-02 -1.047732457518577576e-01 -4.029608368873596191e-01
3.854000000000000000e+03 3.463222503662109375e+01 2.273264694213867188e+01 -2.226095348596572876e-01 -3.959164768457412720e-02 -7.866035401821136475e-02 1.209839805960655212e-01
3.855000000000000000e+03 4.520024490356445312e+01 -3.181474924087524414e+00 -1.183835029602050781e+00 6.419188976287841797e-01 -1.625748276710510254e-01 -1.591740548610687256e-01
3.856000000000000000e+03 4.568936157226562500e+01 -4.045943260192871094e+00 -1.084834933280944824e+00 8.009168505668640137e-01 -8.517543226480484009e-02 -9.871081449091434479e-03
3.857000000000000000e+03 3.428150177001953125e+01 -8.990826606750488281e+00 -6.919686198234558105e-01 -3.679775297641754150e-01 -3.179838359355926514e-01 -1.987738013267517090e-01
3.858000000000000000e+03 3.910443115234375000e+01 -1.937042999267578125e+01 3.394077420234680176e-01 3.489038944244384766e-01 2.064934968948364258e-01 -1.119261384010314941e-01
3.859000000000000000e+03 2.728189277648925781e+01 -1.275423908233642578e+01 5.302677154541015625e-01 9.076376259326934814e-02 1.863094568252563477e-01 -4.736093282699584961e-01
3.860000000000000000e+03 6.726665496826171875e+01 5.787646293640136719e+00 -1.803638786077499390e-01 6.216761112213134766e+00 1.810919165611267090e+00 9.640326499938964844e-01
3.861000000000000000e+03 3.713361740112304688e+01 -1.435147094726562500e+01 9.545441865921020508e-01 -2.939999699592590332e-01 1.981632709503173828e-01 -7.224640250205993652e-02
3.862000000000000000e+03 3.639646911621093750e+01 -8.414245605468750000e+00 -7.939931750297546387e-01 -3.709667325019836426e-01 -3.494879603385925293e-01 -2.254411131143569946e-01
3.863000000000000000e+03 6.434117889404296875e+01 2.048969984054565430e+00 2.264975160360336304e-01 3.083396196365356445e+00 9.929680824279785156e-01 7.353168725967407227e-01
3.864000000000000000e+03 6.514085388183593750e+01 2.453777074813842773e+00 8.249330520629882812e-02 3.762620925903320312e+00 1.153534293174743652e+00 7.447760701179504395e-01
3.865000000000000000e+03 1.550262451171875000e+01 1.298437213897705078e+01 9.328164742328226566e-04 2.227356162620708346e-04 3.466656198725104332e-04 2.113289199769496918e-03
3.866000000000000000e+03 3.701271820068359375e+01 2.041916084289550781e+01 -2.775119841098785400e-01 1.901710592210292816e-02 -7.754846662282943726e-02 1.058820262551307678e-01
3.867000000000000000e+03 2.578396797180175781e+01 -5.135233879089355469e+00 -9.527211785316467285e-01 2.137352079153060913e-01 -2.216957956552505493e-01 -2.032618969678878784e-02
3.868000000000000000e+03 2.506972885131835938e+01 -5.928481578826904297e+00 -8.509476184844970703e-01 2.544273138046264648e-01 -1.789560914039611816e-01 -1.918362677097320557e-01
3.869000000000000000e+03 4.551782989501953125e+01 1.740115165710449219e+01 -2.950799763202667236e-01 6.982477754354476929e-02 -6.757655739784240723e-02 -5.580910667777061462e-02
3.870000000000000000e+03 3.118259620666503906e+01 -8.427109718322753906e+00 -9.579819440841674805e-01 -3.158122301101684570e-01 -3.821382522583007812e-01 -3.619996905326843262e-01
3.871000000000000000e+03 3.872762680053710938e+01 1.872108268737792969e+01 -2.779366970062255859e-01 4.717670753598213196e-02 -6.922799348831176758e-02 8.475387096405029297e-02
3.872000000000000000e+03 5.671163940429687500e+01 2.816406631469726562e+01 -4.265989735722541809e-02 2.381148636341094971e-01 5.863648653030395508e-02 6.042870506644248962e-02
3.873000000000000000e+03 4.334114074707031250e+01 1.487661361694335938e+01 -1.575149446725845337e-01 3.177005797624588013e-02 -3.772346302866935730e-02 -5.770431365817785263e-03
3.874000000000000000e+03 3.711916732788085938e+01 2.177411651611328125e+01 -2.616668939590454102e-01 2.605819702148437500e-02 -7.068261504173278809e-02 1.115907728672027588e-01
3.875000000000000000e+03 6.879238891601562500e+01 -2.719307708740234375e+01 -4.771547913551330566e-01 6.253575325012207031e+00 1.732926130294799805e+00 7.730516791343688965e-01
3.876000000000000000e+03 1.382398414611816406e+01 -1.006068038940429688e+01 -4.562572836875915527e-01 -4.700267910957336426e-01 -2.778852283954620361e-01 -2.820298969745635986e-01
3.877000000000000000e+03 1.226604461669921875e+01 -1.036944866180419922e+01 -4.296380281448364258e-01 -4.481960535049438477e-01 -2.633502185344696045e-01 -1.765664517879486084e-01
3.878000000000000000e+03 3.802954864501953125e+01 -1.505979919433593750e+01 9.145342707633972168e-01 -1.650305837392807007e-01 2.248511165380477905e-01 -1.157745197415351868e-01
3.879000000000000000e+03 7.067937469482421875e+01 -2.210441970825195312e+01 1.184753537178039551e+00 8.707855224609375000e+00 2.967782497406005859e+00 -2.043424872681498528e-03
3.880000000000000000e+03 1.493309783935546875e+01 1.205809211730957031e+01 9.069856023415923119e-04 -3.052728134207427502e-04 1.805138454074040055e-04 1.749230897985398769e-03
3.881000000000000000e+03 1.506276035308837891e+01 1.116197681427001953e+01 1.089122728444635868e-03 3.621982614276930690e-05 3.376027743797749281e-04 1.759583363309502602e-03
3.882000000000000000e+03 6.630132293701171875e+01 -9.918142318725585938e+00 -1.376975536346435547e+00 3.403399944305419922e+00 6.079272627830505371e-01 -1.008201479911804199e+00
3.883000000000000000e+03 6.933477020263671875e+01 -1.103975963592529297e+01 -1.407810091972351074e+00 6.903811931610107422e+00 1.648800492286682129e+00 -2.672877907752990723e-01
3.884000000000000000e+03 7.427709197998046875e+01 1.548486804962158203e+01 1.173291683197021484e+00 8.205603599548339844e+00 2.813668489456176758e+00 -2.721861004829406738e-01
3.885000000000000000e+03 1.176535987854003906e+01 -7.173280239105224609e+00 -1.434436738491058350e-01 -2.316635698080062866e-01 -1.125321760773658752e-01 -6.493129581212997437e-02
3.886000000000000000e+03 4.070989990234375000e+01 -6.214967250823974609e+00 -1.111769795417785645e+00 -7.304152101278305054e-02 -3.554433882236480713e-01 -2.034048587083816528e-01
3.887000000000000000e+03 2.282839584350585938e+01 -1.145185756683349609e+01 -8.560562133789062500e-02 1.581363081932067871e-01 2.175920456647872925e-02 -3.940611481666564941e-01
3.888000000000000000e+03 5.277156829833984375e+01 -5.306623458862304688e+00 -4.656997025012969971e-01 8.905933052301406860e-02 -1.129921153187751770e-01 1.303676962852478027e+00
3.889000000000000000e+03 2.979694175720214844e+01 -7.894630908966064453e+00 -1.137265920639038086e+00 -2.276550084352493286e-01 -4.094762504100799561e-01 -4.249210655689239502e-01
3.890000000000000000e+03 4.655884170532226562e+01 -6.474002838134765625e+00 -6.200740933418273926e-01 1.224400997161865234e+00 1.812980920076370239e-01 2.868436574935913086e-01
3.891000000000000000e+03 4.683535385131835938e+01 -9.936372756958007812e+00 5.333532094955444336e-01 1.847869873046875000e+00 7.143669128417968750e-01 6.524934768676757812e-01
3.892000000000000000e+03 4.042619323730468750e+01 -7.775528907775878906e+00 -6.133521795272827148e-01 1.067928038537502289e-03 -1.836852729320526123e-01 -1.073114499449729919e-01
3.893000000000000000e+03 4.408454513549804688e+01 -1.217035675048828125e+01 6.490025520324707031e-01 1.308747887611389160e+00 5.873251557350158691e-01 4.048590958118438721e-01
3.894000000000000000e+03 6.933367156982421875e+01 -1.027153301239013672e+01 -1.435971140861511230e+00 6.603753089904785156e+00 1.550334572792053223e+00 -3.899895250797271729e-01
3.895000000000000000e+03 1.138129138946533203e+01 -1.112862300872802734e+01 -4.666392207145690918e-01 -4.472499191761016846e-01 -2.741667330265045166e-01 -1.639823764562606812e-01
3.896000000000000000e+03 1.015586662292480469e+01 -1.188248825073242188e+01 -4.560685157775878906e-01 -3.695237934589385986e-01 -2.476776838302612305e-01 -1.468515843152999878e-01
3.897000000000000000e+03 6.929900360107421875e+01 -2.788578224182128906e+01 -5.296855568885803223e-01 6.342925071716308594e+00 1.743971943855285645e+00 5.783742666244506836e-01
3.898000000000000000e+03 6.756349182128906250e+01 -2.848194122314453125e+01 -4.428781569004058838e-01 5.131843090057373047e+00 1.406689524650573730e+00 9.395148158073425293e-01
3.899000000000000000e+03 1.703606033325195312e+01 2.249213409423828125e+01 -4.724249243736267090e-02 3.237432567402720451e-03 -1.320151798427104950e-02 1.344845164567232132e-02
3.900000000000000000e+03 6.386916732788085938e+01 2.733913040161132812e+01 -2.248387187719345093e-01 2.697485446929931641e+00 7.417940497398376465e-01 -1.499212265014648438e+00
3.901000000000000000e+03 4.727709197998046875e+01 -5.217983722686767578e+00 -8.343833684921264648e-01 1.058555126190185547e+00 6.725151836872100830e-02 3.267010152339935303e-01
3.902000000000000000e+03 4.656862640380859375e+01 -3.524054765701293945e+00 -1.044777512550354004e+00 7.651104331016540527e-01 -8.390013873577117920e-02 7.855812460184097290e-02
3.903000000000000000e+03 3.643314743041992188e+01 2.104839515686035156e+01 -2.706878185272216797e-01 4.412684589624404907e-03 -7.988253980875015259e-02 1.124616414308547974e-01
3.904000000000000000e+03 3.794851303100585938e+01 -1.707682037353515625e+01 7.403138875961303711e-01 -7.760497182607650757e-02 1.988126784563064575e-01 -2.552904784679412842e-01
3.905000000000000000e+03 7.104619598388671875e+01 -1.314708137512207031e+01 -5.107275843620300293e-01 8.126967430114746094e+00 2.284871816635131836e+00 6.782664060592651367e-01
3.906000000000000000e+03 7.054869842529296875e+01 -1.374774265289306641e+01 -2.856518328189849854e-01 8.260958671569824219e+00 2.392591953277587891e+00 6.308238506317138672e-01
3.907000000000000000e+03 4.312047195434570312e+01 1.549575328826904297e+01 -1.804552674293518066e-01 4.238230735063552856e-02 -4.142188653349876404e-02 -2.886189147830009460e-03
3.908000000000000000e+03 4.405224990844726562e+01 1.442064476013183594e+01 -1.321738064289093018e-01 2.014317922294139862e-02 -3.360918536782264709e-02 -1.487441267818212509e-02
3.909000000000000000e+03 1.480897808074951172e+01 6.080603599548339844e+00 4.440820484887808561e-04 7.817227742634713650e-05 1.566762948641553521e-04 6.240469519980251789e-04
3.910000000000000000e+03 4.406077575683593750e+01 -4.650090217590332031e+00 -1.183191061019897461e+00 6.568349003791809082e-01 -1.579068452119827271e-01 -1.237931847572326660e-01
3.911000000000000000e+03 1.414542007446289062e+01 1.508469200134277344e+01 9.709589066915214062e-04 -2.600488485768437386e-03 -4.888588446192443371e-04 1.492102863267064095e-03
3.912000000000000000e+03 4.753944778442382812e+01 -4.598382949829101562e+00 -8.815329670906066895e-01 9.465190172195434570e-01 1.949581317603588104e-02 3.357228040695190430e-01
3.913000000000000000e+03 4.719863891601562500e+01 -3.716681241989135742e+00 -9.848792552947998047e-01 8.000309467315673828e-01 -5.545449629426002502e-02 2.072239667177200317e-01
3.914000000000000000e+03 1.904593276977539062e+01 2.438872146606445312e+01 -7.155887782573699951e-02 -7.410338148474693298e-03 -2.369076572358608246e-02 4.716268554329872131e-02
3.915000000000000000e+03 4.242625808715820312e+01 -1.956847763061523438e+01 4.198267757892608643e-01 1.356845617294311523e+00 5.330017209053039551e-01 -5.757717881351709366e-03
3.916000000000000000e+03 1.083289813995361328e+01 -2.637394142150878906e+01 2.956109344959259033e-01 -6.709809601306915283e-02 6.855385005474090576e-02 -2.095417231321334839e-01
3.917000000000000000e+03 7.004242706298828125e+01 -2.597808456420898438e+01 -3.627711832523345947e-01 7.311221122741699219e+00 2.084534883499145508e+00 3.307963609695434570e-01
3.918000000000000000e+03 7.396251678466796875e+01 -2.386194992065429688e+01 2.461163848638534546e-01 7.898243427276611328e+00 2.443307876586914062e+00 -4.870271384716033936e-01
3.919000000000000000e+03 6.559888458251953125e+01 2.584473800659179688e+01 -6.204472184181213379e-01 4.129684448242187500e+00 1.052771210670471191e+00 -1.886630535125732422e+00
3.920000000000000000e+03 6.490332031250000000e+01 2.728999710083007812e+01 -4.082034528255462646e-01 3.482857227325439453e+00 9.223961234092712402e-01 -1.612709641456604004e+00
3.921000000000000000e+03 3.916562271118164062e+01 -1.774798202514648438e+01 5.994716882705688477e-01 2.394021749496459961e-01 2.516621649265289307e-01 -1.815638244152069092e-01
3.922000000000000000e+03 4.248740005493164062e+01 -1.674275970458984375e+01 6.043623685836791992e-01 1.254553318023681641e+00 5.576747059822082520e-01 1.239971593022346497e-01
3.923000000000000000e+03 1.520032310485839844e+01 1.029212760925292969e+01 5.691617261618375778e-04 1.566311257192865014e-04 2.177378482883796096e-04 1.351612852886319160e-03
3.924000000000000000e+03 5.657446670532226562e+01 2.710500144958496094e+01 -3.145315647125244141e-01 1.689816117286682129e-01 -4.366498440504074097e-02 8.837724477052688599e-02
3.925000000000000000e+03 4.566597366333007812e+01 -2.999895286560058594e+01 -3.135193139314651489e-02 1.059532284736633301e+00 3.084540963172912598e-01 -1.474431008100509644e-01
3.926000000000000000e+03 1.873331260681152344e+01 -8.132388114929199219e+00 -4.218615591526031494e-01 2.775621227920055389e-02 -1.182316094636917114e-01 -4.480710029602050781e-01
3.927000000000000000e+03 1.481213092803955078e+01 1.301201629638671875e+01 1.502601196989417076e-03 -7.110575097613036633e-04 2.374631003476679325e-04 2.093509770929813385e-03
3.928000000000000000e+03 1.041650581359863281e+01 5.026377201080322266e+00 6.877791602164506912e-04 -3.450264921411871910e-04 1.028258047881536186e-04 9.340711403638124466e-05
3.929000000000000000e+03 1.035601615905761719e+01 5.725168704986572266e+00 6.836758111603558064e-04 -5.293303402140736580e-04 4.630363036994822323e-05 9.106551442528143525e-05
3.930000000000000000e+03 1.487829780578613281e+01 1.387089252471923828e+01 1.035725465044379234e-03 -9.766212897375226021e-04 1.773123767634388059e-05 2.048832830041646957e-03
3.931000000000000000e+03 4.838405227661132812e+01 -4.244792938232421875e+00 -8.523194193840026855e-01 8.422641754150390625e-01 -3.016572678461670876e-03 4.720160663127899170e-01
3.932000000000000000e+03 3.432750320434570312e+01 2.343875694274902344e+01 -1.994206309318542480e-01 -4.750633612275123596e-02 -7.407809048891067505e-02 1.274953037500381470e-01
3.933000000000000000e+03 3.357660293579101562e+01 2.317987632751464844e+01 -2.045235931873321533e-01 -6.225661560893058777e-02 -8.003406226634979248e-02 1.244486272335052490e-01
3.934000000000000000e+03 1.272535419464111328e+01 5.487218856811523438e+00 6.179260089993476868e-04 -2.322351647308096290e-04 1.157072620117105544e-04 4.256924439687281847e-04
3.935000000000000000e+03 1.116081619262695312e+01 5.649829387664794922e+00 7.301644654944539070e-04 -4.051834403071552515e-04 9.749431774253025651e-05 2.220507885795086622e-04
3.936000000000000000e+03 4.932578659057617188e+01 -5.463067531585693359e+00 -6.854617595672607422e-01 1.013131380081176758e+00 9.830087423324584961e-02 7.472249865531921387e-01
3.937000000000000000e+03 4.271978759765625000e+01 -1.527574443817138672e+01 6.878110170364379883e-01 1.178050875663757324e+00 5.597585439682006836e-01 2.289721071720123291e-01
3.938000000000000000e+03 4.262535858154296875e+01 -1.598927402496337891e+01 6.495900750160217285e-01 1.227318286895751953e+00 5.630725026130676270e-01 1.720772087574005127e-01
3.939000000000000000e+03 6.094187927246093750e+01 -3.507832288742065430e-01 5.080368518829345703e-01 1.150749802589416504e+00 4.976360201835632324e-01 4.573365747928619385e-01
3.940000000000000000e+03 3.245456314086914062e+01 -1.279754543304443359e+01 7.008876800537109375e-01 1.281160674989223480e-02 2.141097784042358398e-01 -2.365144491195678711e-01
3.941000000000000000e+03 3.406233596801757812e+01 -1.264562511444091797e+01 6.423841118812561035e-01 -1.553248763084411621e-01 1.461177617311477661e-01 -7.714832574129104614e-02
3.942000000000000000e+03 7.537516021728515625e+01 -1.548883247375488281e+01 2.669584453105926514e-01 8.096409797668457031e+00 2.509010314941406250e+00 8.538125157356262207e-01
3.943000000000000000e+03 4.395591735839843750e+01 1.323433113098144531e+01 -8.382412791252136230e-02 6.855989340692758560e-03 -2.309044264256954193e-02 -6.871727760881185532e-03
3.944000000000000000e+03 4.379204177856445312e+01 1.242028903961181641e+01 -5.291611701250076294e-02 -1.214352785609662533e-03 -1.623914018273353577e-02 -2.644226653501391411e-03
3.945000000000000000e+03 1.617993736267089844e+01 8.630043029785156250e+00 4.330744268372654915e-04 6.167828105390071869e-04 3.149571712128818035e-04 1.018499373458325863e-03
3.946000000000000000e+03 1.549877262115478516e+01 6.078996658325195312e+00 1.873734436230733991e-04 1.443918736185878515e-04 9.952959226211532950e-05 5.350291030481457710e-04
3.947000000000000000e+03 1.509575080871582031e+01 1.916889572143554688e+01 -1.029335614293813705e-02 -2.526121912524104118e-03 -3.845843486487865448e-03 -2.610884548630565405e-04
3.948000000000000000e+03 4.364978790283203125e+01 -1.304513645172119141e+01 6.919242143630981445e-01 1.274839282035827637e+00 5.900290608406066895e-01 3.714517951011657715e-01
3.949000000000000000e+03 4.276684188842773438e+01 -1.448752403259277344e+01 7.151907682418823242e-01 1.102664709091186523e+00 5.453566312789916992e-01 2.545252144336700439e-01
3.950000000000000000e+03 5.066819000244140625e+01 -5.904186725616455078e+00 -5.886402726173400879e-01 8.468906283378601074e-01 7.747510075569152832e-02 1.077243328094482422e+00
3.951000000000000000e+03 5.226415634155273438e+01 -5.530693054199218750e+00 -5.265303850173950195e-01 3.013420701026916504e-01 -6.755650788545608521e-02 1.287477254867553711e+00
3.952000000000000000e+03 5.832031631469726562e+01 -6.639689922332763672e+00 -7.804474830627441406e-01 -2.352935634553432465e-02 -2.411930412054061890e-01 6.485422253608703613e-01
3.953000000000000000e+03 6.094054794311523438e+01 -2.131065607070922852e+00 2.839429676532745361e-01 1.104357123374938965e+00 4.164900183677673340e-01 3.505921959877014160e-01
3.954000000000000000e+03 7.476517486572265625e+01 2.408823585510253906e+01 -3.067232370376586914e-01 7.946295261383056641e+00 2.291871547698974609e+00 1.232290625572204590e+00
3.955000000000000000e+03 1.960103988647460938e+01 -7.710525035858154297e+00 -4.341697692871093750e-01 9.486839920282363892e-02 -1.017904132604598999e-01 -4.289877414703369141e-01
3.956000000000000000e+03 6.793152618408203125e+01 -9.395853996276855469e+00 -1.399975419044494629e+00 5.147938251495361328e+00 1.124388813972473145e+00 -8.143426775932312012e-01
3.957000000000000000e+03 6.720154571533203125e+01 -9.293481826782226562e+00 -1.332814455032348633e+00 4.406651496887207031e+00 9.221510887145996094e-01 -9.124054312705993652e-01
3.958000000000000000e+03 1.709165573120117188e+01 5.362196922302246094e+00 1.702930458122864366e-04 3.232326707802712917e-04 1.480577193433418870e-04 3.675108309835195541e-04
3.959000000000000000e+03 4.777487945556640625e+01 1.936436271667480469e+01 -4.958551228046417236e-01 1.090271323919296265e-01 -1.160484030842781067e-01 -1.087838411331176758e-01
3.960000000000000000e+03 4.504314422607421875e+01 1.840239524841308594e+01 -3.492940664291381836e-01 1.043310835957527161e-01 -7.348889857530593872e-02 -2.720318548381328583e-02
3.961000000000000000e+03 1.274266242980957031e+01 -3.173070716857910156e+01 1.877576112747192383e-01 2.526394464075565338e-02 6.390646845102310181e-02 -1.058523729443550110e-01
3.962000000000000000e+03 1.421971988677978516e+01 -3.082629585266113281e+01 2.582995593547821045e-01 1.366051435470581055e-01 1.184714138507843018e-01 -1.497319638729095459e-01
3.963000000000000000e+03 3.349399185180664062e+01 -8.266462326049804688e+00 -1.044190645217895508e+00 -3.824489414691925049e-01 -4.279918968677520752e-01 -2.442692518234252930e-01
3.964000000000000000e+03 3.937300109863281250e+01 -2.375347328186035156e+01 1.095443069934844971e-01 4.679744243621826172e-01 1.732556223869323730e-01 2.006819695234298706e-01
3.965000000000000000e+03 4.196922302246093750e+01 -2.025162696838378906e+01 3.841151893138885498e-01 1.204574108123779297e+00 4.766067862510681152e-01 -6.620523985475301743e-03
3.966000000000000000e+03 4.602169799804687500e+01 1.641059494018554688e+01 -2.279686182737350464e-01 3.360555693507194519e-02 -5.830891430377960205e-02 -6.920926272869110107e-02
3.967000000000000000e+03 1.536401939392089844e+01 9.434391975402832031e+00 6.986973457969725132e-04 3.150629054289311171e-04 3.041280724573880434e-04 1.302965683862566948e-03
3.968000000000000000e+03 4.927974319458007812e+01 -3.990361452102661133e+00 -7.861570715904235840e-01 6.833325028419494629e-01 -3.084736503660678864e-02 6.344195008277893066e-01
3.969000000000000000e+03 1.574887180328369141e+01 7.748386859893798828e+00 4.302082234062254429e-04 3.691352030728012323e-04 2.398030337644740939e-04 8.845546399243175983e-04
3.970000000000000000e+03 1.554998779296875000e+01 8.586595535278320312e+00 2.976574760396033525e-04 3.081948962062597275e-04 1.817557058529928327e-04 9.556489530950784683e-04
3.971000000000000000e+03 8.711571693420410156e+00 5.851607322692871094e+00 6.646924884989857674e-04 -5.093013751320540905e-04 4.661732600652612746e-05 -1.790161040844395757e-04
3.972000000000000000e+03 4.415972518920898438e+01 1.206977653503417969e+01 -4.516268894076347351e-02 -7.232708856463432312e-03 -1.571862027049064636e-02 -2.093209419399499893e-03
3.973000000000000000e+03 4.492673492431640625e+01 1.199384212493896484e+01 -3.887017816305160522e-02 -9.438086301088333130e-03 -1.449247915297746658e-02 -5.244099069386720657e-03
3.974000000000000000e+03 6.126892089843750000e+01 2.730402755737304688e+01 -7.954823225736618042e-02 1.074348926544189453e+00 2.984401881694793701e-01 -8.410581350326538086e-01
3.975000000000000000e+03 5.913068771362304688e+01 2.877094841003417969e+01 1.198577135801315308e-01 7.455286383628845215e-01 2.596158981323242188e-01 -3.905003070831298828e-01
3.976000000000000000e+03 2.758383369445800781e+01 -7.014652252197265625e+00 -1.189229249954223633e+00 1.018005162477493286e-01 -3.262286186218261719e-01 -3.659356832504272461e-01
3.977000000000000000e+03 2.685276794433593750e+01 -7.203297615051269531e+00 -1.036852717399597168e+00 1.950644701719284058e-01 -2.525364756584167480e-01 -3.807891905307769775e-01
3.978000000000000000e+03 4.084474563598632812e+01 -2.005611038208007812e+01 3.781662285327911377e-01 8.672868013381958008e-01 3.736359179019927979e-01 -8.655027486383914948e-03
3.979000000000000000e+03 1.544193077087402344e+01 1.735153388977050781e+01 -1.424198038876056671e-03 -2.219118177890777588e-03 -1.092994934879243374e-03 8.514570072293281555e-04
3.980000000000000000e+03 5.990340805053710938e+01 -1.953408241271972656e+00 3.405048847198486328e-01 7.508350610733032227e-01 3.274019956588745117e-01 4.131560921669006348e-01
3.981000000000000000e+03 6.059324645996093750e+01 -1.477874040603637695e+00 3.869679272174835205e-01 9.999465942382812500e-01 4.160743355751037598e-01 3.964607715606689453e-01
3.982000000000000000e+03 6.205350112915039062e+01 2.792885971069335938e+01 -1.156935188919305801e-02 1.681071758270263672e+00 5.008507370948791504e-01 -1.050435185432434082e+00
3.983000000000000000e+03 4.955101776123046875e+01 2.267656517028808594e+01 -7.814289927482604980e-01 1.531236320734024048e-01 -1.884915977716445923e-01 1.019739210605621338e-01
3.984000000000000000e+03 6.878814697265625000e+01 2.456699943542480469e+01 -1.287549495697021484e+00 8.197771072387695312e+00 2.073066473007202148e+00 -1.122234225273132324e+00
3.985000000000000000e+03 6.496672058105468750e+01 -8.757919311523437500e+00 -1.004040598869323730e+00 2.124044895172119141e+00 3.360013067722320557e-01 -6.616618633270263672e-01
3.986000000000000000e+03 6.228541564941406250e+01 -7.193723678588867188e+00 -6.712380647659301758e-01 9.141269326210021973e-01 7.286665588617324829e-02 1.193787828087806702e-01
3.987000000000000000e+03 4.699812698364257812e+01 2.005896568298339844e+01 -5.060499310493469238e-01 1.395664364099502563e-01 -1.099450513720512390e-01 -4.470969364047050476e-02
3.988000000000000000e+03 6.991148376464843750e+01 7.524744987487792969e+00 -2.820905745029449463e-01 8.488046646118164062e+00 2.461786746978759766e+00 -1.064540222287178040e-01
3.989000000000000000e+03 6.875160217285156250e+01 7.723610877990722656e+00 -1.427205353975296021e-01 8.269544601440429688e+00 2.438047170639038086e+00 5.604833364486694336e-01
3.990000000000000000e+03 8.327486991882324219e+00 -1.907408905029296875e+01 -4.016011580824851990e-02 -3.400234580039978027e-01 -1.140550673007965088e-01 -4.609224498271942139e-01
3.991000000000000000e+03 7.740257740020751953e+00 -2.085181999206542969e+01 9.937238693237304688e-02 -3.364542722702026367e-01 -7.112456858158111572e-02 -4.291359484195709229e-01
3.992000000000000000e+03 7.070460510253906250e+01 1.049959850311279297e+01 6.204386353492736816e-01 9.994795799255371094e+00 3.184570312500000000e+00 -4.271380007266998291e-01
3.993000000000000000e+03 7.126599884033203125e+01 1.347507286071777344e+01 1.568370819091796875e+00 1.095737457275390625e+01 3.757723569869995117e+00 -3.028279542922973633e-01
3.994000000000000000e+03 7.215089416503906250e+01 1.565316390991210938e+01 1.755003690719604492e+00 1.041874694824218750e+01 3.652125358581542969e+00 -2.064627110958099365e-01
3.995000000000000000e+03 4.509529113769531250e+00 -1.894535446166992188e+01 -2.655879966914653778e-02 -2.359984815120697021e-01 -7.876718044281005859e-02 -3.476018607616424561e-01
3.996000000000000000e+03 7.209986114501953125e+01 1.314111518859863281e+01 1.316384673118591309e+00 9.951726913452148438e+00 3.380433559417724609e+00 -6.582381129264831543e-01
3.997000000000000000e+03 7.141742706298828125e+01 1.284608840942382812e+01 1.310928463935852051e+00 1.056955528259277344e+01 3.564145326614379883e+00 -4.150141179561614990e-01
3.998000000000000000e+03 4.225519943237304688e+01 -2.134897041320800781e+01 3.641102910041809082e-01 1.288995623588562012e+00 4.959317743778228760e-01 1.999449357390403748e-02
3.999000000000000000e+03 4.287477111816406250e+01 -2.162615585327148438e+01 3.769108057022094727e-01 1.468276739120483398e+00 5.535562634468078613e-01 2.814374747686088085e-04
4.000000000000000000e+03 4.698107528686523438e+01 1.945361518859863281e+01 -4.711210429668426514e-01 1.246922314167022705e-01 -1.039286404848098755e-01 -6.359598040580749512e-02
4.001000000000000000e+03 7.037428283691406250e+01 9.753273010253906250e+00 3.396093845367431641e-01 9.751581192016601562e+00 3.027357101440429688e+00 -2.612839043140411377e-01
4.002000000000000000e+03 1.778448486328125000e+01 -3.581238937377929688e+01 1.453269124031066895e-01 1.851625591516494751e-01 9.914683550596237183e-02 -1.017344966530799866e-01
4.003000000000000000e+03 2.181884384155273438e+01 -7.285934448242187500e+00 -5.185062289237976074e-01 2.016812711954116821e-01 -9.504748880863189697e-02 -3.800936639308929443e-01
4.004000000000000000e+03 4.752795410156250000e+01 2.034891891479492188e+01 -5.528452396392822266e-01 1.631972491741180420e-01 -1.168944016098976135e-01 -4.232660681009292603e-02
4.005000000000000000e+03 7.769438743591308594e+00 -2.167933273315429688e+01 1.496751606464385986e-01 -3.369104564189910889e-01 -5.617059394717216492e-02 -4.027464687824249268e-01
4.006000000000000000e+03 5.591226959228515625e+01 -5.564208984375000000e+00 -4.576796591281890869e-01 -3.002298772335052490e-01 -2.273728549480438232e-01 8.857041001319885254e-01
4.007000000000000000e+03 5.646206665039062500e+01 -5.906624794006347656e+00 -5.661253333091735840e-01 -2.690343856811523438e-01 -2.505479156970977783e-01 8.045634031295776367e-01
4.008000000000000000e+03 6.960194396972656250e+01 2.438237762451171875e+01 -1.151033401489257812e+00 8.553120613098144531e+00 2.220626354217529297e+00 -4.715673029422760010e-01
4.009000000000000000e+03 6.881109619140625000e+01 2.540125274658203125e+01 -1.195055484771728516e+00 7.525816440582275391e+00 1.899228334426879883e+00 -9.822764396667480469e-01
4.010000000000000000e+03 5.366517639160156250e+01 2.769800186157226562e+01 -2.239286452531814575e-01 1.055843904614448547e-01 -3.550327569246292114e-02 3.031145334243774414e-01
4.011000000000000000e+03 2.178445434570312500e+01 -8.256915092468261719e+00 -4.919125735759735107e-01 2.147495746612548828e-01 -8.314889669418334961e-02 -4.222904741764068604e-01
4.012000000000000000e+03 2.220052528381347656e+01 -7.927447795867919922e+00 -5.282657146453857422e-01 2.266453802585601807e-01 -9.048610180616378784e-02 -4.130480587482452393e-01
4.013000000000000000e+03 4.197827148437500000e+01 -2.211660385131835938e+01 3.122754395008087158e-01 1.169939041137695312e+00 4.446643292903900146e-01 7.136938720941543579e-02
4.014000000000000000e+03 4.259992980957031250e+01 -2.237458419799804688e+01 3.336501121520996094e-01 1.329819440841674805e+00 4.990408718585968018e-01 4.861669987440109253e-02
4.015000000000000000e+03 5.698745346069335938e+01 -2.133779525756835938e+00 2.063712030649185181e-01 2.287578284740447998e-01 1.305387020111083984e-01 5.919871330261230469e-01
4.016000000000000000e+03 4.542560195922851562e+01 -2.773100090026855469e+01 2.809467725455760956e-02 1.315869808197021484e+00 4.031893312931060791e-01 -1.238616704940795898e-01
4.017000000000000000e+03 7.159846496582031250e+01 -2.028456306457519531e+01 1.445622444152832031e+00 8.623201370239257812e+00 3.020647048950195312e+00 2.181690633296966553e-01
4.018000000000000000e+03 5.520399856567382812e+01 -4.054169178009033203e+00 -1.960957497358322144e-01 -1.068857014179229736e-01 -9.089443087577819824e-02 9.586359262466430664e-01
4.019000000000000000e+03 5.771740722656250000e+01 -5.651624202728271484e+00 -4.867542982101440430e-01 -7.098452746868133545e-02 -1.673216521739959717e-01 6.687723994255065918e-01
4.020000000000000000e+03 9.509682655334472656e+00 -2.446555328369140625e+01 2.881137132644653320e-01 -2.128396779298782349e-01 2.258221432566642761e-02 -2.700279057025909424e-01
4.021000000000000000e+03 7.174823760986328125e+01 1.877757453918457031e+01 1.910356163978576660e+00 1.032105064392089844e+01 3.669422149658203125e+00 4.100492894649505615e-01
4.022000000000000000e+03 7.102351379394531250e+01 1.888065338134765625e+01 2.052079677581787109e+00 1.124021816253662109e+01 3.987689495086669922e+00 2.189675420522689819e-01
4.023000000000000000e+03 7.243717956542968750e+01 1.412308692932128906e+01 1.500697970390319824e+00 9.873229980468750000e+00 3.412178516387939453e+00 -5.267214775085449219e-01
4.024000000000000000e+03 4.911125564575195312e+01 -6.085203647613525391e+00 -5.952708125114440918e-01 1.166288256645202637e+00 1.713052392005920410e-01 7.385287880897521973e-01
4.025000000000000000e+03 4.733905315399169922e+00 -1.653890991210937500e+01 -1.176490485668182373e-01 -1.312625855207443237e-01 -7.467348873615264893e-02 -2.962171435356140137e-01
4.026000000000000000e+03 7.205199432373046875e+01 -1.723574256896972656e+01 1.059134721755981445e+00 8.583491325378417969e+00 2.892787933349609375e+00 7.196485400199890137e-01
4.027000000000000000e+03 2.519201660156250000e+01 2.608068656921386719e+01 -9.037781506776809692e-02 -7.816050201654434204e-02 -5.056149512529373169e-02 1.145634576678276062e-01
4.028000000000000000e+03 2.739939880371093750e+01 2.438161468505859375e+01 -1.542768329381942749e-01 -8.355121314525604248e-02 -7.134841382503509521e-02 1.264720559120178223e-01
4.029000000000000000e+03 3.852242279052734375e+01 -3.169193840026855469e+01 1.713807731866836548e-01 3.813230991363525391e-01 1.658111661672592163e-01 1.709594875574111938e-01
4.030000000000000000e+03 3.886650848388671875e+01 -2.908680915832519531e+01 1.354743540287017822e-01 4.135315716266632080e-01 1.647017747163772583e-01 2.358100116252899170e-01
4.031000000000000000e+03 2.627258491516113281e+01 -3.741138458251953125e+01 2.595549523830413818e-01 1.550869792699813843e-01 1.243925765156745911e-01 -8.270194381475448608e-02
4.032000000000000000e+03 3.726068115234375000e+01 -3.355130386352539062e+01 2.249327450990676880e-01 2.972851991653442383e-01 1.566653847694396973e-01 1.086434274911880493e-01
4.033000000000000000e+03 7.430613708496093750e+01 7.885964870452880859e+00 -8.959908038377761841e-02 8.057307243347167969e+00 2.390312433242797852e+00 -1.310161352157592773e+00
4.034000000000000000e+03 4.191163635253906250e+01 -1.761654472351074219e+01 5.660781264305114746e-01 1.103857517242431641e+00 5.009806752204895020e-01 3.256224095821380615e-02
4.035000000000000000e+03 4.293730926513671875e+01 -1.367126274108886719e+01 6.991875171661376953e-01 1.057719349861145020e+00 5.270720720291137695e-01 2.920413911342620850e-01
4.036000000000000000e+03 5.472109222412109375e+01 -2.994082212448120117e+00 -1.305959522724151611e-01 2.090256661176681519e-02 -3.290801495313644409e-02 9.330041408538818359e-01
4.037000000000000000e+03 6.683830261230468750e+01 -3.470401382446289062e+01 2.202012762427330017e-02 4.176127433776855469e+00 1.259444236755371094e+00 5.510721802711486816e-01
4.038000000000000000e+03 4.710380935668945312e+01 -8.164532661437988281e+00 -7.115837931632995605e-02 1.568848371505737305e+00 4.493069946765899658e-01 4.846577942371368408e-01
4.039000000000000000e+03 4.574420166015625000e+01 -8.903751373291015625e+00 4.853135719895362854e-02 1.400163650512695312e+00 4.346085190773010254e-01 3.203625977039337158e-01
4.040000000000000000e+03 3.018156051635742188e+01 2.425086975097656250e+01 -1.608224809169769287e-01 -9.443821758031845093e-02 -7.657821476459503174e-02 1.355731487274169922e-01
4.041000000000000000e+03 5.413563156127929688e+01 -3.256649017333984375e+00 -2.065891772508621216e-01 1.255888957530260086e-02 -5.820908769965171814e-02 1.019525766372680664e+00
4.042000000000000000e+03 3.042728233337402344e+01 2.522614860534667969e+01 -1.176837235689163208e-01 -9.798856824636459351e-02 -6.470168381929397583e-02 1.362858563661575317e-01
4.043000000000000000e+03 7.053617095947265625e+01 7.911915302276611328e+00 -2.023857533931732178e-01 8.720377922058105469e+00 2.555397510528564453e+00 -3.990600705146789551e-01
4.044000000000000000e+03 6.008853530883789062e+01 -6.448817729949951172e+00 -6.165438890457153320e-01 3.738772273063659668e-01 -7.279999554157257080e-02 4.594606459140777588e-01
4.045000000000000000e+03 5.848900222778320312e+01 -3.623639678955078125e+01 6.721256375312805176e-01 8.629521131515502930e-01 4.605233371257781982e-01 5.947236344218254089e-02
4.046000000000000000e+03 4.333705902099609375e+01 -2.315828132629394531e+01 3.320749700069427490e-01 1.477464318275451660e+00 5.428617596626281738e-01 3.658255562186241150e-02
4.047000000000000000e+03 7.419446563720703125e+01 -3.440660858154296875e+01 -1.432719677686691284e-01 7.236177444458007812e+00 2.127871513366699219e+00 4.786753281950950623e-02
4.048000000000000000e+03 1.625936889648437500e+01 2.188273048400878906e+01 -3.610203042626380920e-02 1.820892561227083206e-03 -1.028434094041585922e-02 7.657242938876152039e-03
4.049000000000000000e+03 4.022101593017578125e+01 -2.362772941589355469e+01 1.553767919540405273e-01 6.757025122642517090e-01 2.493238002061843872e-01 1.938400864601135254e-01
4.050000000000000000e+03 5.474798679351806641e+00 -2.226013565063476562e+01 9.206085652112960815e-02 -3.759344220161437988e-01 -8.516206592321395874e-02 -3.476023375988006592e-01
4.051000000000000000e+03 1.390830993652343750e+01 -3.350253677368164062e+01 1.488552242517471313e-01 7.520209252834320068e-02 6.721719354391098022e-02 -8.909374475479125977e-02
4.052000000000000000e+03 7.164292144775390625e+01 -2.296763038635253906e+01 6.347190141677856445e-01 8.235743522644042969e+00 2.661138772964477539e+00 -2.821337878704071045e-01
4.053000000000000000e+03 7.369430541992187500e+01 3.522733688354492188e+01 -1.684475988149642944e-01 6.944833278656005859e+00 2.032915830612182617e+00 1.821157289668917656e-03
4.054000000000000000e+03 1.530581092834472656e+01 1.829999923706054688e+01 -5.322976037859916687e-03 -2.986239036545157433e-03 -2.492764499038457870e-03 -3.289290762040764093e-04
4.055000000000000000e+03 1.474688148498535156e+01 1.621104240417480469e+01 2.942083228845149279e-04 -2.640879247337579727e-03 -7.040012860670685768e-04 1.387939322739839554e-03
4.056000000000000000e+03 3.954402160644531250e+01 -2.744341850280761719e+01 1.054128408432006836e-01 4.918200075626373291e-01 1.791698634624481201e-01 2.711876332759857178e-01
4.057000000000000000e+03 3.888561248779296875e+01 -2.628882598876953125e+01 1.045105606317520142e-01 3.789236545562744141e-01 1.450302600860595703e-01 2.698205709457397461e-01
4.058000000000000000e+03 4.296749877929687500e+01 -2.585537719726562500e+01 1.462248265743255615e-01 1.196816205978393555e+00 4.029122889041900635e-01 1.501240879297256470e-01
4.059000000000000000e+03 5.126939296722412109e+00 -3.565845489501953125e+01 1.951717957854270935e-02 -5.589973330497741699e-01 -1.618440449237823486e-01 -2.746301703155040741e-03
4.060000000000000000e+03 5.290123748779296875e+01 -3.517638778686523438e+01 3.642165958881378174e-01 3.568010032176971436e-01 2.163052856922149658e-01 -4.111033082008361816e-01
4.061000000000000000e+03 6.076532363891601562e+01 2.658941841125488281e+01 -2.454408407211303711e-01 6.916950345039367676e-01 1.338762640953063965e-01 -6.646982431411743164e-01
4.062000000000000000e+03 7.271789550781250000e+01 -3.722072982788085938e+01 -1.689116656780242920e-02 6.553845882415771484e+00 1.961086392402648926e+00 1.599339842796325684e-01
4.063000000000000000e+03 7.400014495849609375e+01 -3.838297653198242188e+01 1.985124498605728149e-02 6.970555305480957031e+00 2.097121953964233398e+00 1.265111863613128662e-01
4.064000000000000000e+03 3.892807769775390625e+01 -3.336951065063476562e+01 1.797006875276565552e-01 4.122500419616699219e-01 1.775852143764495850e-01 1.230592206120491028e-01
4.065000000000000000e+03 1.411128044128417969e+01 2.139418601989746094e+01 -2.098787948489189148e-02 -2.557797590270638466e-03 -7.063703145831823349e-03 4.439906217157840729e-03
4.066000000000000000e+03 4.319235610961914062e+01 -2.475673294067382812e+01 2.202527225017547607e-01 1.318513751029968262e+00 4.616299271583557129e-01 1.098457425832748413e-01
4.067000000000000000e+03 3.925639343261718750e+01 -2.470095252990722656e+01 9.723963588476181030e-02 4.426129460334777832e-01 1.619557738304138184e-01 2.375673651695251465e-01
4.068000000000000000e+03 1.572255706787109375e+01 -3.386989212036132812e+01 1.691723167896270752e-01 1.575646847486495972e-01 9.802110493183135986e-02 -1.080978512763977051e-01
4.069000000000000000e+03 2.988036155700683594e+01 -3.906494522094726562e+01 2.856901288032531738e-01 1.541270464658737183e-01 1.319451481103897095e-01 -2.380539476871490479e-02
4.070000000000000000e+03 4.437458801269531250e+01 -2.765394783020019531e+01 3.843779116868972778e-02 1.233912944793701172e+00 3.817052245140075684e-01 1.092692557722330093e-02
4.071000000000000000e+03 4.414511871337890625e+01 -2.588993835449218750e+01 1.505137979984283447e-01 1.395085811614990234e+00 4.636798799037933350e-01 4.529170319437980652e-02
4.072000000000000000e+03 4.359949111938476562e+01 -2.381199455261230469e+01 3.012856543064117432e-01 1.489406347274780273e+00 5.372076034545898438e-01 4.206760227680206299e-02
4.073000000000000000e+03 6.308858489990234375e+01 -3.426890563964843750e+01 2.831344008445739746e-01 2.096713781356811523e+00 7.139545083045959473e-01 6.151453256607055664e-01
4.074000000000000000e+03 6.376923370361328125e+01 -3.595259857177734375e+01 3.394910097122192383e-01 2.554169654846191406e+00 8.680981993675231934e-01 5.324499607086181641e-01
4.075000000000000000e+03 3.378690338134765625e+01 -3.424651718139648438e+01 2.883678078651428223e-01 1.260257959365844727e-01 1.243180856108665466e-01 3.928082063794136047e-02
4.076000000000000000e+03 6.814408111572265625e+01 2.551921272277832031e+01 -1.231774091720581055e+00 7.170008182525634766e+00 1.781470298767089844e+00 -1.410859346389770508e+00
4.077000000000000000e+03 6.591180419921875000e+01 2.690089797973632812e+01 -5.866358876228332520e-01 4.446932315826416016e+00 1.158088803291320801e+00 -1.688625931739807129e+00
4.078000000000000000e+03 4.265364837646484375e+01 -3.030572891235351562e+01 3.243685141205787659e-02 8.471351861953735352e-01 2.638716101646423340e-01 8.918058872222900391e-02
4.079000000000000000e+03 5.355250549316406250e+01 2.657643890380859375e+01 -4.741913080215454102e-01 3.260378167033195496e-02 -1.324762552976608276e-01 3.126047551631927490e-01
4.080000000000000000e+03 4.850529861450195312e+01 2.253538513183593750e+01 -6.811670660972595215e-01 1.979057043790817261e-01 -1.449784040451049805e-01 9.612186998128890991e-02
4.081000000000000000e+03 7.276676177978515625e+01 -4.149618148803710938e+01 6.360036879777908325e-02 6.329270362854003906e+00 1.917861342430114746e+00 6.355825066566467285e-02
4.082000000000000000e+03 7.332666778564453125e+01 -3.972427368164062500e+01 5.464479327201843262e-02 6.573921680450439453e+00 1.988569855690002441e+00 1.361138373613357544e-01
4.083000000000000000e+03 2.268409347534179688e+01 2.705848693847656250e+01 -5.912801995873451233e-02 -6.216551735997200012e-02 -3.638806194067001343e-02 9.875060617923736572e-02
4.084000000000000000e+03 2.634636497497558594e+01 2.388578033447265625e+01 -1.707562953233718872e-01 -6.803864240646362305e-02 -7.163847982883453369e-02 1.133911088109016418e-01
4.085000000000000000e+03 4.881774139404296875e+01 -3.269113922119140625e+01 2.929080091416835785e-02 7.243638634681701660e-01 2.260964065790176392e-01 -3.951947987079620361e-01
4.086000000000000000e+03 4.971007537841796875e+01 -3.601892852783203125e+01 2.741510272026062012e-01 5.274419188499450684e-01 2.404778897762298584e-01 -3.290796875953674316e-01
4.087000000000000000e+03 4.615776062011718750e+01 -3.390609359741210938e+01 5.711885169148445129e-02 7.496291399002075195e-01 2.420243918895721436e-01 -1.923826187849044800e-01
4.088000000000000000e+03 4.808430862426757812e+01 -3.531846237182617188e+01 1.810646951198577881e-01 6.140846610069274902e-01 2.385448068380355835e-01 -2.944132685661315918e-01
4.089000000000000000e+03 6.146889209747314453e+00 3.396141433715820312e+01 1.376268453896045685e-03 -2.444591559469699860e-02 -6.920894142240285873e-03 1.376908924430608749e-02
4.090000000000000000e+03 4.939976215362548828e+00 3.442049789428710938e+01 2.305179601535201073e-03 -2.275971509516239166e-02 -6.136360578238964081e-03 1.126689650118350983e-02
4.091000000000000000e+03 2.903634071350097656e+01 -3.730542373657226562e+01 2.887419760227203369e-01 1.313341557979583740e-01 1.260228455066680908e-01 -4.613604024052619934e-02
4.092000000000000000e+03 7.244080352783203125e+01 -3.387871932983398438e+01 -2.083411216735839844e-01 6.676700115203857422e+00 1.940507769584655762e+00 1.350298076868057251e-01
4.093000000000000000e+03 6.502939605712890625e+01 -3.031299591064453125e+01 -2.167708575725555420e-01 3.060993671417236328e+00 8.532668352127075195e-01 9.197860956192016602e-01
4.094000000000000000e+03 7.455669403076171875e+01 3.410452651977539062e+01 -1.939774006605148315e-01 7.320765495300292969e+00 2.138036489486694336e+00 7.474423944950103760e-02
4.095000000000000000e+03 7.522602081298828125e+01 3.310956573486328125e+01 -2.136442810297012329e-01 7.488457679748535156e+00 2.182444095611572266e+00 1.398400962352752686e-01
4.096000000000000000e+03 3.325198745727539062e+01 2.439225196838378906e+01 -1.631449759006500244e-01 -6.832891702651977539e-02 -6.944216787815093994e-02 1.329015046358108521e-01
4.097000000000000000e+03 6.918919086456298828e+00 3.481991958618164062e+01 4.293696489185094833e-03 -2.864190936088562012e-02 -7.304463535547256470e-03 1.428040768951177597e-02
4.098000000000000000e+03 8.168961524963378906e+00 3.542037200927734375e+01 6.505234632641077042e-03 -3.374015912413597107e-02 -8.170478045940399170e-03 1.783635094761848450e-02
4.099000000000000000e+03 1.322939777374267578e+01 -4.136592483520507812e+01 1.882670447230339050e-02 -3.329997882246971130e-02 -4.341982770711183548e-03 -6.769658066332340240e-03
4.100000000000000000e+03 8.336869239807128906e+00 -3.868692016601562500e+01 9.539936669170856476e-03 -3.381219506263732910e-01 -9.857460856437683105e-02 -6.730474997311830521e-03
4.101000000000000000e+03 6.031597137451171875e+00 -3.633260345458984375e+01 1.711213216185569763e-02 -4.984135329723358154e-01 -1.443904191255569458e-01 -1.051880605518817902e-02
4.102000000000000000e+03 9.109448432922363281e+00 -6.258732318878173828e+00 -5.214391276240348816e-02 -1.276586651802062988e-01 -5.394077673554420471e-02 5.407383665442466736e-02
4.103000000000000000e+03 9.218300819396972656e+00 -5.722460269927978516e+00 -2.262984961271286011e-02 -1.167445257306098938e-01 -4.181231185793876648e-02 5.539682507514953613e-02
4.104000000000000000e+03 2.612042999267578125e+01 -7.322197437286376953e+00 -9.263394474983215332e-01 2.345430105924606323e-01 -2.075389325618743896e-01 -3.740688264369964600e-01
4.105000000000000000e+03 2.648212432861328125e+01 -1.197760486602783203e+01 2.229603230953216553e-01 1.208026483654975891e-01 1.031288877129554749e-01 -5.029622912406921387e-01
4.106000000000000000e+03 4.071443939208984375e+01 -7.173122882843017578e+00 -7.778016328811645508e-01 2.162088267505168915e-02 -2.268542200326919556e-01 -1.208400279283523560e-01
4.107000000000000000e+03 6.258924484252929688e+01 -2.356928028166294098e-02 3.740465342998504639e-01 1.920194268226623535e+00 6.882722377777099609e-01 4.710547029972076416e-01
4.108000000000000000e+03 3.049353408813476562e+01 -8.478063583374023438e+00 -9.155592322349548340e-01 -2.681143581867218018e-01 -3.551020920276641846e-01 -4.097173213958740234e-01
4.109000000000000000e+03 2.913419914245605469e+01 -9.145060539245605469e+00 -6.416051983833312988e-01 -8.077381551265716553e-02 -2.167136967182159424e-01 -5.168226957321166992e-01
4.110000000000000000e+03 1.278558349609375000e+01 -9.896081924438476562e+00 -4.000850617885589600e-01 -4.360715150833129883e-01 -2.508469820022583008e-01 -2.016734778881072998e-01
4.111000000000000000e+03 3.731246185302734375e+01 -8.956658363342285156e+00 -4.633625447750091553e-01 -3.338917791843414307e-01 -2.391763031482696533e-01 -1.509071439504623413e-01
4.112000000000000000e+03 4.266801452636718750e+01 -5.570679187774658203e+00 -1.122028112411499023e+00 4.073753058910369873e-01 -2.143958508968353271e-01 -1.244744211435317993e-01
4.113000000000000000e+03 6.873397827148437500e+01 -8.653161048889160156e+00 -1.293066143989562988e+00 5.687887668609619141e+00 1.318446397781372070e+00 -6.459451913833618164e-01
4.114000000000000000e+03 6.865428161621093750e+01 -9.458350181579589844e+00 -1.404099225997924805e+00 5.812481403350830078e+00 1.322514772415161133e+00 -6.490097045898437500e-01
4.115000000000000000e+03 3.832125091552734375e+01 -1.572798633575439453e+01 8.840881586074829102e-01 -9.203032404184341431e-02 2.376173585653305054e-01 -1.554285585880279541e-01
4.116000000000000000e+03 3.868292617797851562e+01 -1.424020576477050781e+01 8.417605161666870117e-01 -7.019122689962387085e-02 2.314707785844802856e-01 -4.764636233448982239e-02
4.117000000000000000e+03 7.048741912841796875e+01 -1.277313804626464844e+01 -7.317118644714355469e-01 7.962070941925048828e+00 2.169107675552368164e+00 4.890072643756866455e-01
4.118000000000000000e+03 7.266664123535156250e+01 -1.214899539947509766e+01 -5.686598420143127441e-01 8.118178367614746094e+00 2.264855623245239258e+00 7.657228708267211914e-01
4.119000000000000000e+03 4.424213409423828125e+01 -9.336393356323242188e+00 8.195693790912628174e-02 1.047325611114501953e+00 3.387847840785980225e-01 2.083364576101303101e-01
4.120000000000000000e+03 4.522878646850585938e+01 -9.464200973510742188e+00 1.966891884803771973e-01 1.318433046340942383e+00 4.545366764068603516e-01 3.151003122329711914e-01
4.121000000000000000e+03 5.235338211059570312e+00 -9.655095100402832031e+00 -1.180045008659362793e-01 -1.433108001947402954e-02 -3.970067203044891357e-02 3.916202485561370850e-02
4.122000000000000000e+03 6.373241806030273438e+01 -7.632746696472167969e+00 -7.335369586944580078e-01 1.517457604408264160e+00 2.351762056350708008e-01 -2.516050934791564941e-01
4.123000000000000000e+03 8.208397865295410156e+00 -2.449798202514648438e+01 2.391602098941802979e-01 -3.020331263542175293e-01 -1.886187680065631866e-02 -2.836367189884185791e-01
4.124000000000000000e+03 7.479820251464843750e+01 -1.124086189270019531e+01 -4.004008769989013672e-01 8.311039924621582031e+00 2.373191595077514648e+00 7.321642041206359863e-01
4.125000000000000000e+03 3.868428039550781250e+01 1.987468147277832031e+01 -2.892223894596099854e-01 5.586027354001998901e-02 -7.000862807035446167e-02 9.382794797420501709e-02
4.126000000000000000e+03 2.169500160217285156e+01 -9.678039550781250000e+00 -3.846738338470458984e-01 2.000590413808822632e-01 -5.538443475961685181e-02 -4.330323040485382080e-01
4.127000000000000000e+03 2.495385360717773438e+01 -7.755848884582519531e+00 -7.196540236473083496e-01 2.697822749614715576e-01 -1.349615305662155151e-01 -4.081911146640777588e-01
4.128000000000000000e+03 7.748249053955078125e+00 -2.250822067260742188e+01 1.835367232561111450e-01 -3.370070159435272217e-01 -4.604109004139900208e-02 -3.712915480136871338e-01
4.129000000000000000e+03 4.643558025360107422e+00 -2.436843490600585938e+01 9.450408071279525757e-02 -4.513578116893768311e-01 -1.070561185479164124e-01 -2.566239833831787109e-01
4.130000000000000000e+03 6.667760467529296875e+01 4.189412117004394531e+00 -1.652440577745437622e-01 5.261490821838378906e+00 1.528873920440673828e+00 8.400710821151733398e-01
4.131000000000000000e+03 7.483917236328125000e+01 1.618940591812133789e+00 -3.311604857444763184e-01 7.871142864227294922e+00 2.261994600296020508e+00 -8.267819285392761230e-01
4.132000000000000000e+03 6.324350738525390625e+01 4.422767460346221924e-01 3.158779740333557129e-01 2.327859401702880859e+00 7.931212186813354492e-01 5.186576247215270996e-01
4.133000000000000000e+03 6.161666488647460938e+01 1.438391208648681641e-01 4.977065026760101318e-01 1.429625153541564941e+00 5.781995058059692383e-01 5.041895508766174316e-01
4.134000000000000000e+03 1.568619251251220703e+01 5.264517784118652344e+00 3.097055887337774038e-04 1.842013734858483076e-04 1.481720828451216221e-04 4.829822282772511244e-04
4.135000000000000000e+03 1.406954097747802734e+01 1.955577659606933594e+01 -1.129442825913429260e-02 -3.389905439689755440e-03 -4.405300132930278778e-03 6.452240049839019775e-04
4.136000000000000000e+03 6.361786270141601562e+01 1.600125789642333984e+00 3.248588442802429199e-01 2.596374034881591797e+00 8.763698339462280273e-01 6.820080280303955078e-01
4.137000000000000000e+03 1.595841026306152344e+01 6.922567844390869141e+00 1.301692827837541699e-04 3.032029198948293924e-04 1.300116564380005002e-04 6.197203183546662331e-04
4.138000000000000000e+03 7.123898315429687500e+01 2.055630493164062500e+01 1.133830904960632324e+00 1.026420688629150391e+01 3.419411420822143555e+00 8.775010108947753906e-01
4.139000000000000000e+03 1.228980159759521484e+01 -8.337744712829589844e+00 -2.433555275201797485e-01 -3.266900777816772461e-01 -1.710136830806732178e-01 -1.266128569841384888e-01
4.140000000000000000e+03 1.102496051788330078e+01 -6.017324447631835938e+00 -5.699852481484413147e-02 -1.673356443643569946e-01 -6.730025261640548706e-02 -1.576102338731288910e-02
4.141000000000000000e+03 7.027381134033203125e+01 2.304143714904785156e+01 -7.498816251754760742e-01 9.564289093017578125e+00 2.644322156906127930e+00 1.835905313491821289e-01
4.142000000000000000e+03 6.224946212768554688e+01 -1.171594619750976562e+00 3.078894615173339844e-01 1.696373581886291504e+00 6.012789011001586914e-01 3.492944538593292236e-01
4.143000000000000000e+03 2.447989463806152344e+01 -6.656355381011962891e+00 -7.556123137474060059e-01 2.703179717063903809e-01 -1.455882936716079712e-01 -3.042128682136535645e-01
4.144000000000000000e+03 5.830631256103515625e+00 3.008768844604492188e+01 -1.731540076434612274e-03 -1.500062178820371628e-02 -5.019648466259241104e-03 1.283490005880594254e-02
4.145000000000000000e+03 5.318252086639404297e+00 2.867980194091796875e+01 -2.603165106847882271e-03 -1.097256969660520554e-02 -4.072720650583505630e-03 1.050555054098367691e-02
4.146000000000000000e+03 4.040105438232421875e+01 -2.148749160766601562e+01 2.598370611667633057e-01 7.391885519027709961e-01 2.997076809406280518e-01 5.556060001254081726e-02
4.147000000000000000e+03 1.890339469909667969e+01 -7.565641403198242188e+00 -3.994608819484710693e-01 5.169678851962089539e-02 -1.043292284011840820e-01 -4.284765720367431641e-01
4.148000000000000000e+03 7.457454681396484375e+01 -2.973509025573730469e+01 -2.767747342586517334e-01 7.601731300354003906e+00 2.197486877441406250e+00 -2.421193271875381470e-01
4.149000000000000000e+03 1.591864109039306641e+01 -7.823742389678955078e+00 -3.025183081626892090e-01 -2.144846916198730469e-01 -1.551008969545364380e-01 -3.658865988254547119e-01
4.150000000000000000e+03 1.541272354125976562e+01 -6.972810745239257812e+00 -2.230119109153747559e-01 -1.904847919940948486e-01 -1.240490153431892395e-01 -2.983866333961486816e-01
4.151000000000000000e+03 2.003881454467773438e+01 -8.587148666381835938e+00 -4.496623277664184570e-01 1.358924508094787598e-01 -9.413095563650131226e-02 -4.385889172554016113e-01
4.152000000000000000e+03 3.345918655395507812e+01 -8.970814704895019531e+00 -7.356358170509338379e-01 -3.651175796985626221e-01 -3.302260041236877441e-01 -2.310039699077606201e-01
4.153000000000000000e+03 5.169282913208007812e+00 -2.838721275329589844e+01 9.373582154512405396e-02 -4.956955015659332275e-01 -1.205879077315330505e-01 -1.324297636747360229e-01
4.154000000000000000e+03 6.460427093505859375e+01 1.263856887817382812e+00 1.372453123331069946e-01 3.266730546951293945e+00 1.021192789077758789e+00 5.812265872955322266e-01
4.155000000000000000e+03 5.363288497924804688e+01 -3.612483978271484375e+00 -2.813063859939575195e-01 3.876371076330542564e-03 -8.322900533676147461e-02 1.101644277572631836e+00
4.156000000000000000e+03 1.274021148681640625e+01 -7.057038307189941406e+00 -1.519084870815277100e-01 -2.474209815263748169e-01 -1.197988390922546387e-01 -1.240384057164192200e-01
4.157000000000000000e+03 5.312286853790283203e+00 -2.785361862182617188e+01 1.060870215296745300e-01 -4.825514256954193115e-01 -1.129393205046653748e-01 -1.498873680830001831e-01
4.158000000000000000e+03 7.446428680419921875e+01 -2.875054168701171875e+01 -2.667545378208160400e-01 7.653913974761962891e+00 2.216147899627685547e+00 -3.124449253082275391e-01
4.159000000000000000e+03 7.413925933837890625e+01 -2.924290466308593750e+01 -3.027945160865783691e-01 7.557459354400634766e+00 2.176399469375610352e+00 -2.518794536590576172e-01
4.160000000000000000e+03 3.805558395385742188e+01 -8.850495338439941406e+00 -4.377223849296569824e-01 -2.778282463550567627e-01 -2.146651893854141235e-01 -1.381309330463409424e-01
4.161000000000000000e+03 3.801615142822265625e+01 -8.141302108764648438e+00 -7.007594704627990723e-01 -3.200006186962127686e-01 -3.062280416488647461e-01 -2.084964364767074585e-01
4.162000000000000000e+03 3.119099617004394531e+01 -9.056647300720214844e+00 -6.929739117622375488e-01 -2.731988131999969482e-01 -2.898518145084381104e-01 -3.753154277801513672e-01
4.163000000000000000e+03 5.812218856811523438e+01 -2.293991565704345703e+00 2.510551214218139648e-01 3.406997621059417725e-01 1.775264739990234375e-01 5.160557627677917480e-01
4.164000000000000000e+03 6.812338256835937500e+01 -2.908633041381835938e+01 -4.874677360057830811e-01 5.374646663665771484e+00 1.466153740882873535e+00 8.232936859130859375e-01
4.165000000000000000e+03 5.442466259002685547e+00 7.539103984832763672e+00 4.589354794006794691e-04 -1.754623663146048784e-04 8.504193829139694571e-05 -7.097414345480501652e-04
4.166000000000000000e+03 7.027793407440185547e+00 6.665345191955566406e+00 7.081458461470901966e-04 -3.762369451578706503e-04 9.957268048310652375e-05 -5.021761753596365452e-04
4.167000000000000000e+03 4.922554492950439453e+00 2.759320449829101562e+01 -3.539879806339740753e-03 -8.160696364939212799e-03 -3.510172944515943527e-03 8.636062964797019958e-03
4.168000000000000000e+03 6.348743915557861328e+00 2.902014732360839844e+01 -3.084062598645687103e-03 -1.385160442441701889e-02 -5.080699920654296875e-03 1.316114421933889389e-02
4.169000000000000000e+03 5.417240142822265625e+00 -3.112079811096191406e+01 6.482130289077758789e-02 -5.119990706443786621e-01 -1.341533362865447998e-01 -6.895510852336883545e-02
4.170000000000000000e+03 6.771881103515625000e+01 5.253499031066894531e+00 -3.007586896419525146e-01 6.386561393737792969e+00 1.825740814208984375e+00 7.124751210212707520e-01
4.171000000000000000e+03 3.276435470581054688e+01 -1.219969177246093750e+01 4.759873449802398682e-01 -8.084659278392791748e-02 1.185422316193580627e-01 -1.921748667955398560e-01
4.172000000000000000e+03 3.002997016906738281e+01 -1.041542720794677734e+01 -1.823227554559707642e-01 -8.921145647764205933e-02 -8.146025985479354858e-02 -4.762869179248809814e-01
4.173000000000000000e+03 2.809601593017578125e+01 -8.509692192077636719e+00 -8.233246207237243652e-01 1.319418288767337799e-02 -2.430391311645507812e-01 -5.230126976966857910e-01
4.174000000000000000e+03 6.324563503265380859e+00 3.162346076965332031e+01 -3.657148336060345173e-04 -1.939238235354423523e-02 -5.927429068833589554e-03 1.454590726643800735e-02
4.175000000000000000e+03 7.309922027587890625e+01 -2.255870437622070312e+01 6.511419415473937988e-01 8.038244247436523438e+00 2.606816053390502930e+00 -3.578856289386749268e-01
4.176000000000000000e+03 2.328907203674316406e+01 -9.473877906799316406e+00 -4.140119552612304688e-01 2.347931414842605591e-01 -5.376564711332321167e-02 -4.672485888004302979e-01
4.177000000000000000e+03 2.241613578796386719e+01 -9.950215339660644531e+00 -3.525405824184417725e-01 2.131915688514709473e-01 -4.180470108985900879e-02 -4.417332112789154053e-01
4.178000000000000000e+03 7.451155090332031250e+01 -2.126269340515136719e+01 6.428990364074707031e-01 7.877269744873046875e+00 2.556050539016723633e+00 -1.865105330944061279e-01
4.179000000000000000e+03 1.337515258789062500e+01 6.161192417144775391e+00 6.153135327622294426e-04 -1.935153704835101962e-04 1.265394530491903424e-04 5.632217507809400558e-04
4.180000000000000000e+03 4.628423309326171875e+01 1.722219848632812500e+01 -2.805044949054718018e-01 5.648549273610115051e-02 -6.720570474863052368e-02 -8.257699757814407349e-02
4.181000000000000000e+03 7.533535766601562500e+01 -2.737452125549316406e+01 -1.597438603639602661e-01 7.825745105743408203e+00 2.299800395965576172e+00 -4.496660232543945312e-01
4.182000000000000000e+03 7.420040893554687500e+01 2.195321655273437500e+01 2.081106007099151611e-01 8.210182189941406250e+00 2.525487899780273438e+00 1.325255393981933594e+00
4.183000000000000000e+03 7.526582336425781250e+01 2.385370826721191406e+01 -1.850031316280364990e-01 7.733328342437744141e+00 2.264497518539428711e+00 1.232565760612487793e+00
4.184000000000000000e+03 5.653028488159179688e+00 2.421010017395019531e+01 -3.907965496182441711e-03 -4.416146315634250641e-03 -2.497233450412750244e-03 5.184496752917766571e-03
4.185000000000000000e+03 7.474072265625000000e+01 2.160637664794921875e+01 3.131529092788696289e-01 7.970466613769531250e+00 2.485085964202880859e+00 1.297693967819213867e+00
4.186000000000000000e+03 7.528295898437500000e+01 2.138344001770019531e+01 3.075926303863525391e-01 7.561266899108886719e+00 2.360657930374145508e+00 1.226201772689819336e+00
4.187000000000000000e+03 7.927640914916992188e+00 -6.019016742706298828e+00 -2.938173338770866394e-02 -8.911593258380889893e-02 -3.554929792881011963e-02 8.499816805124282837e-02
4.188000000000000000e+03 8.337869644165039062e+00 -6.524721145629882812e+00 -6.149142235517501831e-02 -1.164748668670654297e-01 -5.338988453149795532e-02 7.039263099431991577e-02
4.189000000000000000e+03 7.447710418701171875e+01 2.106659317016601562e+01 4.369280040264129639e-01 8.041567802429199219e+00 2.543548583984375000e+00 1.249063849449157715e+00
4.190000000000000000e+03 7.513596343994140625e+01 2.549558067321777344e+01 -3.893668055534362793e-01 7.786359786987304688e+00 2.219097852706909180e+00 1.027400374412536621e+00
4.191000000000000000e+03 7.465792846679687500e+01 2.254123115539550781e+01 5.968496575951576233e-02 7.975737571716308594e+00 2.410626888275146484e+00 1.320852518081665039e+00
4.192000000000000000e+03 5.450270175933837891e+00 -2.145107460021972656e+01 6.591828167438507080e-02 -3.500936627388000488e-01 -8.525262027978897095e-02 -3.691601157188415527e-01
4.193000000000000000e+03 5.409827709197998047e+00 2.118605232238769531e+01 -2.633507130667567253e-03 -1.763446722179651260e-03 -1.319086179137229919e-03 1.260109478607773781e-03
4.194000000000000000e+03 3.467972564697265625e+01 -9.912805557250976562e+00 -2.867718935012817383e-01 -3.514866828918457031e-01 -1.914775818586349487e-01 -1.390829235315322876e-01
4.195000000000000000e+03 7.385857391357421875e+01 2.646550941467285156e+01 -6.533903479576110840e-01 7.969084262847900391e+00 2.194708108901977539e+00 7.792807817459106445e-01
4.196000000000000000e+03 7.529760742187500000e+01 2.827129364013671875e+01 -4.219796061515808105e-01 7.693826675415039062e+00 2.181554079055786133e+00 6.368830204010009766e-01
4.197000000000000000e+03 5.456593513488769531e+00 -2.065509414672851562e+01 3.862002119421958923e-02 -3.216381371021270752e-01 -8.490543067455291748e-02 -3.846971988677978516e-01
4.198000000000000000e+03 7.439846038818359375e+01 -2.243554496765136719e+01 5.091609358787536621e-01 7.881823062896728516e+00 2.517295122146606445e+00 -3.573729395866394043e-01
4.199000000000000000e+03 7.503768920898437500e+01 2.625689315795898438e+01 -4.627909660339355469e-01 7.784780979156494141e+00 2.196597099304199219e+00 9.285441040992736816e-01
4.200000000000000000e+03 7.104328918457031250e+01 2.261236000061035156e+01 -3.240802288055419922e-01 9.749535560607910156e+00 2.827636718750000000e+00 6.699337363243103027e-01
4.201000000000000000e+03 7.164710235595703125e+01 1.799660301208496094e+01 1.946163296699523926e+00 1.077206611633300781e+01 3.815468788146972656e+00 1.808994263410568237e-01
4.202000000000000000e+03 7.415777587890625000e+01 -2.178672981262207031e+01 6.353462934494018555e-01 7.900853157043457031e+00 2.560859918594360352e+00 -2.656779587268829346e-01
4.203000000000000000e+03 5.279991149902343750e+00 -2.465550041198730469e+01 1.171311959624290466e-01 -4.356830418109893799e-01 -9.556555747985839844e-02 -2.619817256927490234e-01
4.204000000000000000e+03 5.714537620544433594e+00 -2.865234947204589844e+01 1.021153032779693604e-01 -4.688144922256469727e-01 -1.100097596645355225e-01 -1.329428702592849731e-01
4.205000000000000000e+03 7.470123291015625000e+01 1.419186496734619141e+01 9.222826361656188965e-01 7.889694213867187500e+00 2.643593072891235352e+00 -6.209490895271301270e-01
4.206000000000000000e+03 7.537585449218750000e+01 1.666055297851562500e+01 8.857632279396057129e-01 7.345502853393554688e+00 2.469379663467407227e+00 1.243364959955215454e-01
4.207000000000000000e+03 7.405390930175781250e+01 1.604058647155761719e+01 1.324253916740417480e+00 8.404432296752929688e+00 2.918605804443359375e+00 -8.444597572088241577e-02
4.208000000000000000e+03 6.980394840240478516e+00 -2.237171363830566406e+01 1.486929059028625488e-01 -3.548105061054229736e-01 -6.183527782559394836e-02 -3.736089468002319336e-01
4.209000000000000000e+03 4.888929367065429688e+00 2.516452217102050781e+01 -3.021255601197481155e-03 -4.528862889856100082e-03 -2.265035640448331833e-03 5.653416737914085388e-03
4.210000000000000000e+03 5.116864681243896484e+00 -3.045892143249511719e+01 6.733320653438568115e-02 -5.284582376480102539e-01 -1.383375078439712524e-01 -7.807233929634094238e-02
4.211000000000000000e+03 4.930148601531982422e+00 2.677470016479492188e+01 -2.895405748859047890e-03 -6.965730804949998856e-03 -2.958341035991907120e-03 7.843245752155780792e-03
4.212000000000000000e+03 6.010887622833251953e+00 2.828188705444335938e+01 -4.581231158226728439e-03 -1.127885002642869949e-02 -4.758024588227272034e-03 1.169860921800136566e-02
4.213000000000000000e+03 7.540032958984375000e+01 1.744550132751464844e+01 8.742685317993164062e-01 7.292029857635498047e+00 2.449889421463012695e+00 3.549266457557678223e-01
4.214000000000000000e+03 5.584310531616210938e+00 -2.655538558959960938e+01 1.261494308710098267e-01 -4.531665146350860596e-01 -9.810512512922286987e-02 -1.951888650655746460e-01
4.215000000000000000e+03 7.485599517822265625e+01 -1.494308948516845703e+01 2.097278684377670288e-01 8.161613464355468750e+00 2.511402606964111328e+00 9.277874231338500977e-01
4.216000000000000000e+03 5.933591842651367188e+00 -7.558903217315673828e+00 -6.976132839918136597e-02 -3.593345731496810913e-02 -3.170843794941902161e-02 9.051650762557983398e-02
4.217000000000000000e+03 7.540099334716796875e+01 -1.829734039306640625e+01 5.819194316864013672e-01 7.869703769683837891e+00 2.535486936569213867e+00 4.172163605690002441e-01
4.218000000000000000e+03 7.417067718505859375e+01 -1.971796607971191406e+01 8.677847385406494141e-01 7.943056583404541016e+00 2.643252372741699219e+00 1.476274579763412476e-01
4.219000000000000000e+03 4.671288490295410156e+00 2.047162437438964844e+01 -1.680927933193743229e-03 -4.964699037373065948e-04 -6.532193510793149471e-04 3.090487152803689241e-04
4.220000000000000000e+03 5.407792091369628906e+00 2.195295333862304688e+01 -3.751630196347832680e-03 -2.076008357107639313e-03 -1.748291542753577232e-03 2.180428244173526764e-03
4.221000000000000000e+03 7.546022796630859375e+01 -1.279865837097167969e+01 -1.449130326509475708e-01 8.311025619506835938e+00 2.449833631515502930e+00 8.670927286148071289e-01
4.222000000000000000e+03 7.541397094726562500e+01 -1.751251029968261719e+01 5.145937204360961914e-01 7.926195621490478516e+00 2.532236814498901367e+00 5.741752386093139648e-01
4.223000000000000000e+03 7.408554077148437500e+01 -1.912085533142089844e+01 8.876804113388061523e-01 8.000330924987792969e+00 2.666403532028198242e+00 3.189055323600769043e-01
4.224000000000000000e+03 7.472135925292968750e+01 -1.658679199218750000e+01 5.274615883827209473e-01 8.059876441955566406e+00 2.576201200485229492e+00 7.754498124122619629e-01
4.225000000000000000e+03 7.552321624755859375e+01 -1.611830520629882812e+01 3.532305359840393066e-01 8.029329299926757812e+00 2.514768123626708984e+00 7.708353996276855469e-01
4.226000000000000000e+03 7.291033172607421875e+01 1.161160659790039062e+01 7.478224039077758789e-01 9.052581787109375000e+00 2.940121173858642578e+00 -1.028577685356140137e+00
4.227000000000000000e+03 7.538527679443359375e+01 1.351446247100830078e+01 6.808098554611206055e-01 7.420377731323242188e+00 2.430356264114379883e+00 -7.561156153678894043e-01
4.228000000000000000e+03 7.533768463134765625e+01 1.083240604400634766e+01 3.003720939159393311e-01 7.586918354034423828e+00 2.366187095642089844e+00 -1.191314339637756348e+00
4.229000000000000000e+03 7.484295654296875000e+01 1.214791011810302734e+01 5.695325732231140137e-01 7.818360805511474609e+00 2.516368150711059570e+00 -1.042074084281921387e+00
4.230000000000000000e+03 7.370866394042968750e+01 1.307888698577880859e+01 9.508401155471801758e-01 8.666008949279785156e+00 2.885054588317871094e+00 -8.293104767799377441e-01
4.231000000000000000e+03 7.481063079833984375e+01 1.971133422851562500e+01 7.526360750198364258e-01 7.808967113494873047e+00 2.568480968475341797e+00 9.944978356361389160e-01
4.232000000000000000e+03 7.486959075927734375e+01 7.484759807586669922e+00 -1.321396231651306152e-01 7.857566356658935547e+00 2.317627906799316406e+00 -1.296933531761169434e+00
4.233000000000000000e+03 7.561584472656250000e+01 7.961360454559326172e+00 -6.922166794538497925e-02 7.638689994812011719e+00 2.270840406417846680e+00 -1.276283860206604004e+00
4.234000000000000000e+03 7.547381591796875000e+01 -1.203694248199462891e+01 -2.293495982885360718e-01 8.357783317565917969e+00 2.438530206680297852e+00 8.093586564064025879e-01
4.235000000000000000e+03 7.458385467529296875e+01 -1.394642639160156250e+01 2.470063418149948120e-02 8.228393554687500000e+00 2.475928068161010742e+00 9.770474433898925781e-01
4.236000000000000000e+03 7.481361389160156250e+01 6.456443309783935547e+00 -2.117879241704940796e-01 7.878118991851806641e+00 2.299899339675903320e+00 -1.246879339218139648e+00
4.237000000000000000e+03 7.089376831054687500e+01 8.763818740844726562e+00 -1.065055094659328461e-02 9.147536277770996094e+00 2.741065740585327148e+00 -5.378124713897705078e-01
4.238000000000000000e+03 7.495792388916015625e+01 6.795081496238708496e-02 -3.186421692371368408e-01 7.919618606567382812e+00 2.280292987823486328e+00 -6.896823644638061523e-01
4.239000000000000000e+03 7.545214843750000000e+01 -8.798971176147460938e+00 -4.219850599765777588e-01 8.410908699035644531e+00 2.396677017211914062e+00 3.769766688346862793e-01
4.240000000000000000e+03 7.344610595703125000e+01 -1.085388565063476562e+01 -6.321030259132385254e-01 8.107933044433593750e+00 2.242748975753784180e+00 6.299797892570495605e-01
4.241000000000000000e+03 7.405759429931640625e+01 -1.274782943725585938e+01 -2.474317401647567749e-01 8.251242637634277344e+00 2.401143312454223633e+00 9.234429001808166504e-01
4.242000000000000000e+03 7.551310729980468750e+01 -1.539663672447204590e+00 -2.869407236576080322e-01 8.136322021484375000e+00 2.354814529418945312e+00 -5.168482065200805664e-01
4.243000000000000000e+03 7.543351745605468750e+01 2.445546150207519531e+00 -2.794881463050842285e-01 7.948803424835205078e+00 2.300794601440429688e+00 -8.929376602172851562e-01
4.244000000000000000e+03 7.473064422607421875e+01 -4.712398052215576172e+00 -4.358105957508087158e-01 8.027868270874023438e+00 2.277617216110229492e+00 -2.230197489261627197e-01
4.245000000000000000e+03 7.544881439208984375e+01 -3.140241861343383789e+00 -3.203436136245727539e-01 8.198182106018066406e+00 2.363351583480834961e+00 -3.636183440685272217e-01
4.246000000000000000e+03 7.473165893554687500e+01 -5.526799678802490234e+00 -4.676350951194763184e-01 8.069941520690917969e+00 2.280691862106323242e+00 -1.236807480454444885e-01
4.247000000000000000e+03 7.474453735351562500e+01 -3.054904222488403320e+00 -3.913346529006958008e-01 7.950945377349853516e+00 2.267883062362670898e+00 -4.046352207660675049e-01
4.248000000000000000e+03 6.827362823486328125e+01 5.676209926605224609e+00 -3.796907365322113037e-01 6.937364101409912109e+00 1.967302083969116211e+00 5.422713160514831543e-01
4.249000000000000000e+03 7.473774719238281250e+01 2.443787336349487305e+00 -3.518919646739959717e-01 7.853693008422851562e+00 2.250540256500244141e+00 -9.004582166671752930e-01
4.250000000000000000e+03 7.546907806396484375e+01 5.668020725250244141e+00 -2.102788686752319336e-01 7.807108402252197266e+00 2.279048919677734375e+00 -1.169653058052062988e+00
4.251000000000000000e+03 7.438729095458984375e+01 5.996310710906982422e-02 -3.721655905246734619e-01 7.773286819458007812e+00 2.220336437225341797e+00 -6.930940151214599609e-01
4.252000000000000000e+03 7.474810791015625000e+01 -6.332628250122070312e+00 -4.944740235805511475e-01 8.123568534851074219e+00 2.288728475570678711e+00 -1.684696972370147705e-02
4.253000000000000000e+03 7.304177093505859375e+01 1.278141212463378906e+01 1.066371083259582520e+00 9.098742485046386719e+00 3.049534082412719727e+00 -8.608503937721252441e-01
4.254000000000000000e+03 7.493298339843750000e+01 -6.758302450180053711e-01 -3.440562188625335693e-01 7.922350883483886719e+00 2.273488521575927734e+00 -6.258169412612915039e-01
4.255000000000000000e+03 7.483559417724609375e+01 -1.434219002723693848e+00 -3.462104499340057373e-01 7.934900283813476562e+00 2.276606798171997070e+00 -5.549677014350891113e-01
4.256000000000000000e+03 7.546115875244140625e+01 -7.985999107360839844e+00 -4.215056598186492920e-01 8.398677825927734375e+00 2.393151760101318359e+00 2.589426636695861816e-01
4.257000000000000000e+03 7.478465270996093750e+01 5.762011528015136719e+00 -2.671774923801422119e-01 7.869142532348632812e+00 2.280589580535888672e+00 -1.194800257682800293e+00
4.258000000000000000e+03 7.476805114746093750e+01 -7.134933471679687500e+00 -5.183895826339721680e-01 8.170516967773437500e+00 2.295638322830200195e+00 1.036889627575874329e-01
4.259000000000000000e+03 7.477915954589843750e+01 -7.935943603515625000e+00 -5.241542458534240723e-01 8.216978073120117188e+00 2.307847261428833008e+00 2.272038012742996216e-01
4.260000000000000000e+03 7.425067901611328125e+01 1.343618297576904297e+01 9.680231213569641113e-01 8.233402252197265625e+00 2.760427713394165039e+00 -8.093619346618652344e-01
4.261000000000000000e+03 5.578042984008789062e+00 -1.999612236022949219e+01 1.062648743391036987e-02 -2.992649078369140625e-01 -8.659151941537857056e-02 -3.954101502895355225e-01
4.262000000000000000e+03 7.464888000488281250e+01 -1.736110877990722656e+01 6.423547267913818359e-01 8.019196510314941406e+00 2.598465204238891602e+00 6.524232625961303711e-01
4.263000000000000000e+03 5.336885452270507812e+00 1.636402130126953125e+01 -2.477379748597741127e-04 -5.849938606843352318e-04 -2.498195681255310774e-04 -1.523936865851283073e-03
4.264000000000000000e+03 5.331117153167724609e+00 1.394943046569824219e+01 1.033933149301446974e-04 -4.777987778652459383e-04 -1.123216352425515652e-04 -1.557684736326336861e-03
4.265000000000000000e+03 7.449195098876953125e+01 -2.529798698425292969e+01 -1.180643495172262192e-02 7.840358734130859375e+00 2.348565816879272461e+00 -5.181027054786682129e-01
4.266000000000000000e+03 7.535762786865234375e+01 -2.597284889221191406e+01 -7.252518087625503540e-02 7.844142436981201172e+00 2.331485271453857422e+00 -5.188354849815368652e-01
4.267000000000000000e+03 7.486297607421875000e+01 2.032772254943847656e+01 6.136313676834106445e-01 7.787543773651123047e+00 2.520352602005004883e+00 1.135050296783447266e+00
4.268000000000000000e+03 7.311652374267578125e+01 1.768420028686523438e+01 1.561746358871459961e+00 9.209184646606445312e+00 3.231279373168945312e+00 3.696768581867218018e-01
4.269000000000000000e+03 5.148367881774902344e+00 -2.339690208435058594e+01 1.008785367012023926e-01 -4.114914834499359131e-01 -9.318388998508453369e-02 -3.042838275432586670e-01
4.270000000000000000e+03 5.587078094482421875e+00 -1.509424018859863281e+01 -1.864612996578216553e-01 -1.159684062004089355e-01 -9.072890877723693848e-02 -2.554752528667449951e-01
4.271000000000000000e+03 4.501724720001220703e+00 -9.523664474487304688e+00 -8.812898397445678711e-02 2.608054690062999725e-02 -1.861453056335449219e-02 4.559226706624031067e-02
4.272000000000000000e+03 5.321179866790771484e+00 -1.345738315582275391e+01 -1.914667189121246338e-01 -6.201677396893501282e-02 -7.604504376649856567e-02 -1.479453146457672119e-01
4.273000000000000000e+03 5.305445194244384766e+00 1.475040531158447266e+01 2.762843214441090822e-04 -4.796916909981518984e-04 -6.102220868342556059e-05 -1.658189343288540840e-03
4.274000000000000000e+03 5.439272880554199219e+00 -1.564578151702880859e+01 -1.702563911676406860e-01 -1.263455897569656372e-01 -8.898059278726577759e-02 -2.812825441360473633e-01
4.275000000000000000e+03 4.649919986724853516e+00 1.886922836303710938e+01 -1.010838430374860764e-03 -7.244504377013072371e-05 -3.249850415159016848e-04 -7.546087726950645447e-04
4.276000000000000000e+03 8.843497276306152344e+00 -1.103011703491210938e+01 -3.333788514137268066e-01 -2.418105751276016235e-01 -1.725568324327468872e-01 -6.404524296522140503e-02
4.277000000000000000e+03 7.109325408935546875e+00 -1.697349739074707031e+01 -1.901642680168151855e-01 -2.493189424276351929e-01 -1.318449676036834717e-01 -4.026274085044860840e-01
4.278000000000000000e+03 5.193213462829589844e+00 -1.235270881652832031e+01 -1.738783866167068481e-01 -3.793884441256523132e-02 -6.354517489671707153e-02 -8.635337650775909424e-02
4.279000000000000000e+03 5.949753284454345703e+00 -8.267158508300781250e+00 -9.520156681537628174e-02 -4.159798845648765564e-02 -4.103986546397209167e-02 7.574949413537979126e-02
4.280000000000000000e+03 4.455984592437744141e+00 -1.100398826599121094e+01 -1.142139509320259094e-01 2.063406817615032196e-02 -2.807396464049816132e-02 -9.389569051563739777e-03
4.281000000000000000e+03 5.623440742492675781e+00 -1.430679702758789062e+01 -2.134246826171875000e-01 -9.792975336313247681e-02 -9.340632706880569458e-02 -2.095748037099838257e-01
4.282000000000000000e+03 7.384102630615234375e+01 2.401645088195800781e+01 -4.084529876708984375e-01 8.286734580993652344e+00 2.363484382629394531e+00 1.180269718170166016e+00
4.283000000000000000e+03 7.536111831665039062e+00 -1.913942146301269531e+01 -3.694856911897659302e-02 -3.146340847015380859e-01 -1.054747998714447021e-01 -4.534868001937866211e-01
4.284000000000000000e+03 5.137460708618164062e+00 -1.111932086944580078e+01 -1.489081829786300659e-01 -1.711167767643928528e-02 -4.980595782399177551e-02 -1.896008290350437164e-02
4.285000000000000000e+03 5.838492870330810547e+00 -1.134284305572509766e+01 -1.915023028850555420e-01 -6.351076811552047729e-02 -7.650391757488250732e-02 -4.126211628317832947e-02
4.286000000000000000e+03 5.359610080718994141e+00 1.799698448181152344e+01 -9.632332366891205311e-04 -7.811720715835690498e-04 -5.233215633779764175e-04 -1.061339629814028740e-03
4.287000000000000000e+03 5.401443481445312500e+00 9.887100219726562500e+00 6.986916996538639069e-04 -2.392052701907232404e-04 1.378459273837506771e-04 -1.100026420317590237e-03
4.288000000000000000e+03 5.024943161010742188e+01 -3.962745189666748047e+00 -6.866837739944458008e-01 5.489047765731811523e-01 -4.133370146155357361e-02 8.332632780075073242e-01
4.289000000000000000e+03 5.010456466674804688e+01 -5.017079353332519531e+00 -6.658198833465576172e-01 7.658239006996154785e-01 3.000121191143989563e-02 9.048368334770202637e-01
4.290000000000000000e+03 6.182896614074707031e+00 -1.939264297485351562e+01 -1.790818013250827789e-02 -2.891474664211273193e-01 -9.211669862270355225e-02 -4.201627373695373535e-01
4.291000000000000000e+03 4.661309719085693359e+00 1.159949493408203125e+01 3.488986403681337833e-04 5.034757850808091462e-05 1.197738674818538129e-04 -1.323122298344969749e-03
4.292000000000000000e+03 4.652390480041503906e+00 1.240604782104492188e+01 5.616355920210480690e-04 1.092495876946486533e-04 2.012655604630708694e-04 -1.493882620707154274e-03
4.293000000000000000e+03 5.405911445617675781e+00 9.089975357055664062e+00 5.058051319792866707e-04 -2.485828590579330921e-04 7.716668915236368775e-05 -9.240263025276362896e-04
4.294000000000000000e+03 5.363473892211914062e+00 1.880013656616210938e+01 -1.896580914035439491e-03 -9.582993807271122932e-04 -8.564640884287655354e-04 -5.397529457695782185e-04
4.295000000000000000e+03 5.354292869567871094e+00 1.718187141418457031e+01 -1.012393971905112267e-03 -7.279997225850820541e-04 -5.221181199885904789e-04 -1.250640838406980038e-03
4.296000000000000000e+03 5.404378414154052734e+00 1.069581794738769531e+01 5.059968098066747189e-04 -3.393980732653290033e-04 4.997961514163762331e-05 -1.156636979430913925e-03
4.297000000000000000e+03 5.470959663391113281e+00 6.784988403320312500e+00 5.535259260796010494e-04 -9.984922508010640740e-05 1.361030153930187225e-04 -6.485633202828466892e-04
4.298000000000000000e+03 5.410247325897216797e+00 1.151242733001708984e+01 7.099795620888471603e-04 -3.574365691747516394e-04 1.057628978742286563e-04 -1.353881089016795158e-03
4.299000000000000000e+03 7.394852447509765625e+01 -2.870427894592285156e+01 -3.072873055934906006e-01 7.555341720581054688e+00 2.174416303634643555e+00 -2.789218127727508545e-01
4.300000000000000000e+03 7.463165283203125000e+01 -2.724156570434570312e+01 -2.048818916082382202e-01 7.768440246582031250e+00 2.269067525863647461e+00 -4.264996051788330078e-01
4.301000000000000000e+03 7.458435058593750000e+01 -2.806130218505859375e+01 -2.490645200014114380e-01 7.700152873992919922e+00 2.235326528549194336e+00 -3.682957291603088379e-01
4.302000000000000000e+03 6.147140979766845703e+00 9.790239334106445312e+00 6.341097760014235973e-04 -5.973374354653060436e-04 1.103170143323950469e-05 -9.613102884031832218e-04
4.303000000000000000e+03 8.489706993103027344e+00 -2.578859901428222656e+01 2.398175895214080811e-01 -2.764210104942321777e-01 -1.098102796822786331e-02 -2.319660782814025879e-01
4.304000000000000000e+03 1.318382930755615234e+01 -8.946685791015625000e+00 -3.135515153408050537e-01 -3.708837926387786865e-01 -2.053305953741073608e-01 -1.941374391317367554e-01
4.305000000000000000e+03 5.554649353027343750e+00 2.345216178894042969e+01 -4.438770003616809845e-03 -3.592369612306356430e-03 -2.409341977909207344e-03 4.211366642266511917e-03
4.306000000000000000e+03 5.739056110382080078e+00 -2.710737228393554688e+01 1.246014982461929321e-01 -4.489976465702056885e-01 -9.731884300708770752e-02 -1.792228519916534424e-01
4.307000000000000000e+03 3.524840164184570312e+01 2.419909477233886719e+01 -1.780633777379989624e-01 -2.639677561819553375e-02 -6.133804470300674438e-02 1.333378255367279053e-01
4.308000000000000000e+03 3.519932556152343750e+01 2.218970489501953125e+01 -2.445457130670547485e-01 -2.353034168481826782e-02 -8.042281121015548706e-02 1.200890839099884033e-01
4.309000000000000000e+03 1.748173141479492188e+01 -9.474024772644042969e+00 -4.887025356292724609e-01 -9.005604684352874756e-02 -1.736275702714920044e-01 -4.768925309181213379e-01
4.310000000000000000e+03 3.589496994018554688e+01 -9.212053298950195312e+00 -4.725711941719055176e-01 -3.621758222579956055e-01 -2.504241168498992920e-01 -1.574102938175201416e-01
4.311000000000000000e+03 3.541822433471679688e+01 -1.273592376708984375e+01 6.962985992431640625e-01 -2.802206277847290039e-01 1.248233914375305176e-01 -1.433528773486614227e-02
4.312000000000000000e+03 7.422671508789062500e+01 2.838694953918457031e+01 -5.464020967483520508e-01 7.653997898101806641e+00 2.132278680801391602e+00 5.321201682090759277e-01
4.313000000000000000e+03 6.294136524200439453e+00 -3.279478073120117188e+01 6.158533319830894470e-02 -4.514960050582885742e-01 -1.169731989502906799e-01 -4.838269203901290894e-02
4.314000000000000000e+03 8.160638809204101562e+00 -3.156642532348632812e+01 1.105984300374984741e-01 -3.116546869277954102e-01 -6.031687930226325989e-02 -7.947507500648498535e-02
4.315000000000000000e+03 7.455988311767578125e+01 2.539018630981445312e+01 -4.972162842750549316e-01 7.933382511138916016e+00 2.230849981307983398e+00 1.022905707359313965e+00
4.316000000000000000e+03 1.464842224121093750e+01 -6.790397644042968750e+00 -1.829414367675781250e-01 -2.015105038881301880e-01 -1.153355836868286133e-01 -2.427301704883575439e-01
4.317000000000000000e+03 7.127208709716796875e+01 -1.418208503723144531e+01 -1.173818856477737427e-02 8.361127853393554688e+00 2.504817008972167969e+00 8.346577286720275879e-01
4.318000000000000000e+03 4.477996063232421875e+01 1.325550270080566406e+01 -8.240403980016708374e-02 3.423512680456042290e-03 -2.369415760040283203e-02 -1.327906921505928040e-02
4.319000000000000000e+03 4.575904464721679688e+01 1.557929515838623047e+01 -1.737003177404403687e-01 2.345912158489227295e-02 -4.507235810160636902e-02 -5.746158212423324585e-02
4.320000000000000000e+03 1.412345695495605469e+01 -8.599025726318359375e+00 -3.140872716903686523e-01 -3.557274937629699707e-01 -2.009444236755371094e-01 -2.621450722217559814e-01
4.321000000000000000e+03 3.532757949829101562e+01 -8.029238700866699219e+00 -1.045475602149963379e+00 -3.737153708934783936e-01 -4.257573187351226807e-01 -2.602257132530212402e-01
4.322000000000000000e+03 3.498147201538085938e+01 -9.217611312866210938e+00 -5.638324618339538574e-01 -3.712567687034606934e-01 -2.805267572402954102e-01 -1.725096255540847778e-01
4.323000000000000000e+03 3.931631469726562500e+01 1.820736503601074219e+01 -2.694220840930938721e-01 5.568794161081314087e-02 -6.412024050951004028e-02 7.364849001169204712e-02
4.324000000000000000e+03 9.820954322814941406e+00 -1.249451732635498047e+01 -4.649482965469360352e-01 -3.588361442089080811e-01 -2.471353262662887573e-01 -1.740260869264602661e-01
4.325000000000000000e+03 1.126535224914550781e+01 -1.028904247283935547e+01 -3.804079592227935791e-01 -3.898006975650787354e-01 -2.310626059770584106e-01 -1.134926527738571167e-01
4.326000000000000000e+03 6.726965332031250000e+01 3.765581607818603516e+00 -2.971758842468261719e-01 5.551192283630371094e+00 1.576205015182495117e+00 5.821046829223632812e-01
4.327000000000000000e+03 4.576946258544921875e+01 1.111010646820068359e+01 -1.788559369742870331e-02 -1.408367138355970383e-02 -9.590779431164264679e-03 -1.060338458046317101e-03
4.328000000000000000e+03 7.402988433837890625e+01 -2.032438468933105469e+01 8.476287722587585449e-01 7.961388587951660156e+00 2.642705202102661133e+00 1.946430653333663940e-02
4.329000000000000000e+03 7.223294830322265625e+01 1.714364051818847656e+01 1.794864892959594727e+00 1.021332931518554688e+01 3.602458238601684570e+00 1.033968627452850342e-01
4.330000000000000000e+03 4.006221008300781250e+01 -2.058096694946289062e+01 2.839254736900329590e-01 6.146278977394104004e-01 2.695659995079040527e-01 -1.509405090473592281e-03
4.331000000000000000e+03 6.665362358093261719e+00 3.241585540771484375e+01 -1.623678836040198803e-04 -2.231891825795173645e-02 -6.744385696947574615e-03 1.544542144984006882e-02
4.332000000000000000e+03 6.063896656036376953e+00 3.084535598754882812e+01 -2.163503086194396019e-03 -1.704812049865722656e-02 -5.763486959040164948e-03 1.376223191618919373e-02
4.333000000000000000e+03 2.782659339904785156e+01 -9.458786010742187500e+00 -5.159102082252502441e-01 5.852084234356880188e-02 -1.372168064117431641e-01 -5.589078664779663086e-01
4.334000000000000000e+03 6.597178649902343750e+01 2.593390941619873047e+00 -6.307597458362579346e-02 4.361617565155029297e+00 1.289562463760375977e+00 6.567861437797546387e-01
4.335000000000000000e+03 6.087266445159912109e+00 -6.278119087219238281e+00 -2.840575389564037323e-02 -3.398800641298294067e-02 -1.871812716126441956e-02 1.064651831984519958e-01
4.336000000000000000e+03 4.727752685546875000e+01 -6.821290969848632812e+00 -5.031837821006774902e-01 1.346635222434997559e+00 2.530354261398315430e-01 4.143016636371612549e-01
4.337000000000000000e+03 1.822966766357421875e+01 -7.670001983642578125e+00 -3.886355459690093994e-01 -9.260722436010837555e-03 -1.193688809871673584e-01 -4.313558042049407959e-01
4.338000000000000000e+03 5.542050933837890625e+01 -5.299597263336181641e+00 -3.945858478546142578e-01 -2.918954193592071533e-01 -2.059443891048431396e-01 9.573436379432678223e-01
4.339000000000000000e+03 5.661832046508789062e+01 -4.340433597564697266e+00 -1.950946301221847534e-01 -7.108078896999359131e-02 -7.985262572765350342e-02 7.701992392539978027e-01
4.340000000000000000e+03 4.094786071777343750e+01 1.656340980529785156e+01 -2.282079607248306274e-01 5.445001274347305298e-02 -5.212738364934921265e-02 4.167861863970756531e-02
4.341000000000000000e+03 4.227881622314453125e+01 1.570932197570800781e+01 -1.963488608598709106e-01 5.031983554363250732e-02 -4.380870610475540161e-02 1.421408355236053467e-02
4.342000000000000000e+03 1.957669639587402344e+01 -9.741592407226562500e+00 -4.610468149185180664e-01 1.238171756267547607e-01 -1.011688858270645142e-01 -4.337084293365478516e-01
4.343000000000000000e+03 1.973945236206054688e+01 -9.058624267578125000e+00 -4.507678151130676270e-01 1.315549612045288086e-01 -9.576385468244552612e-02 -4.492579996585845947e-01
4.344000000000000000e+03 4.525479507446289062e+01 1.658385276794433594e+01 -2.395388782024383545e-01 5.465698242187500000e-02 -5.546456575393676758e-02 -5.216296762228012085e-02
4.345000000000000000e+03 5.955498123168945312e+01 -1.323918938636779785e+00 4.391646981239318848e-01 6.903342008590698242e-01 3.388496637344360352e-01 4.308055937290191650e-01
4.346000000000000000e+03 5.883954238891601562e+01 -1.802936553955078125e+00 3.590550422668457031e-01 4.991376101970672607e-01 2.574577927589416504e-01 4.550318717956542969e-01
4.347000000000000000e+03 6.571292114257812500e+01 -8.963175773620605469e+00 -1.119454503059387207e+00 2.821250677108764648e+00 5.105388760566711426e-01 -8.380218148231506348e-01
4.348000000000000000e+03 3.829827499389648438e+01 2.155871200561523438e+01 -2.742984592914581299e-01 5.211461707949638367e-02 -6.665515899658203125e-02 1.100626215338706970e-01
4.349000000000000000e+03 3.608606338500976562e+01 2.377497673034667969e+01 -2.029681801795959473e-01 -3.399731591343879700e-03 -6.191037595272064209e-02 1.342071443796157837e-01
4.350000000000000000e+03 6.858100891113281250e+01 6.622171401977539062e+00 -3.306773602962493896e-01 7.555918693542480469e+00 2.167572498321533203e+00 5.108483433723449707e-01
4.351000000000000000e+03 9.668508529663085938e+00 -6.355172157287597656e+00 -6.096909567713737488e-02 -1.501023173332214355e-01 -6.332142651081085205e-02 3.831150755286216736e-02
4.352000000000000000e+03 4.997798538208007812e+01 -5.694466590881347656e+00 -6.302329897880554199e-01 9.489088654518127441e-01 9.560276567935943604e-02 9.248021841049194336e-01
4.353000000000000000e+03 5.176170730590820312e+01 -4.630041599273681641e+00 -5.236850380897521973e-01 3.373886644840240479e-01 -5.588892102241516113e-02 1.158412575721740723e+00
4.354000000000000000e+03 2.549517059326171875e+01 -5.641952037811279297e+00 -9.211109876632690430e-01 2.603714466094970703e-01 -1.982218623161315918e-01 -1.393871605396270752e-01
4.355000000000000000e+03 2.521937751770019531e+01 -6.652216911315917969e+00 -8.636047840118408203e-01 2.708064317703247070e-01 -1.778395026922225952e-01 -2.834416031837463379e-01
4.356000000000000000e+03 4.249978637695312500e+01 -1.745845985412597656e+01 5.549946427345275879e-01 1.307193756103515625e+00 5.586565136909484863e-01 8.547469973564147949e-02
4.357000000000000000e+03 4.054935073852539062e+01 -1.848298072814941406e+01 5.108315944671630859e-01 6.856575012207031250e-01 3.589467108249664307e-01 -7.078273594379425049e-02
4.358000000000000000e+03 2.437054252624511719e+01 -7.385900497436523438e+00 -7.032632231712341309e-01 2.660931646823883057e-01 -1.311510205268859863e-01 -3.680442869663238525e-01
4.359000000000000000e+03 2.268727684020996094e+01 -7.738749027252197266e+00 -5.547152161598205566e-01 2.349497079849243164e-01 -9.592965245246887207e-02 -3.971106708049774170e-01
4.360000000000000000e+03 1.483719539642333984e+01 1.536249732971191406e+01 8.832206949591636658e-04 -2.051400253549218178e-03 -3.504538908600807190e-04 1.825987012125551701e-03
4.361000000000000000e+03 1.376973628997802734e+01 1.383722400665283203e+01 1.347723766230046749e-03 -2.180929761379957199e-03 -2.499617694411426783e-04 1.596885733306407928e-03
4.362000000000000000e+03 7.068481445312500000e+01 -2.542794609069824219e+01 -2.623898983001708984e-01 7.631116867065429688e+00 2.210618019104003906e+00 8.040706813335418701e-02
4.363000000000000000e+03 6.940910339355468750e+01 -2.656925010681152344e+01 -4.619811773300170898e-01 6.820025444030761719e+00 1.907413244247436523e+00 5.561265945434570312e-01
4.364000000000000000e+03 5.898929214477539062e+01 -3.416732788085937500e+00 7.247912138700485229e-02 4.168250262737274170e-01 1.467912495136260986e-01 4.835167825222015381e-01
4.365000000000000000e+03 3.922449111938476562e+01 1.936053085327148438e+01 -2.888752520084381104e-01 6.706759333610534668e-02 -6.654230505228042603e-02 8.377800881862640381e-02
4.366000000000000000e+03 3.694765090942382812e+01 2.337697410583496094e+01 -2.228826880455017090e-01 1.976254396140575409e-02 -6.093604490160942078e-02 1.312165558338165283e-01
4.367000000000000000e+03 2.091525650024414062e+01 -8.305600166320800781e+00 -4.638301432132720947e-01 1.730732619762420654e-01 -8.722706139087677002e-02 -4.287280440330505371e-01
4.368000000000000000e+03 7.151815032958984375e+01 -2.206302261352539062e+01 1.010995745658874512e+00 8.373963356018066406e+00 2.815487623214721680e+00 -1.668047457933425903e-01
4.369000000000000000e+03 7.214852905273437500e+01 1.641157722473144531e+01 1.816200613975524902e+00 1.029042911529541016e+01 3.631989002227783203e+00 -3.908324986696243286e-02
4.370000000000000000e+03 8.627089500427246094e+00 -6.092143058776855469e+00 -3.983040899038314819e-02 -1.131360083818435669e-01 -4.588992521166801453e-02 6.675628572702407837e-02
4.371000000000000000e+03 6.673390388488769531e+00 -1.560477161407470703e+01 -2.468454986810684204e-01 -1.827234774827957153e-01 -1.288706958293914795e-01 -3.210888803005218506e-01
4.372000000000000000e+03 5.546111297607421875e+01 -3.517629384994506836e+00 -1.088853701949119568e-01 -2.092723920941352844e-02 -3.894378244876861572e-02 8.820286393165588379e-01
4.373000000000000000e+03 5.158265304565429688e+01 -5.415811061859130859e+00 -5.716453194618225098e-01 4.845090508460998535e-01 -2.614087238907814026e-02 1.202743887901306152e+00
4.374000000000000000e+03 5.363075256347656250e+01 -4.474443912506103516e+00 -3.409205973148345947e-01 -5.317729339003562927e-02 -1.182293668389320374e-01 1.180763006210327148e+00
4.375000000000000000e+03 4.441828155517578125e+01 -1.108674621582031250e+01 5.252596139907836914e-01 1.277798056602478027e+00 5.409172773361206055e-01 3.657590150833129883e-01
4.376000000000000000e+03 3.970260620117187500e+01 -7.447544097900390625e+00 -7.902641892433166504e-01 -1.711367070674896240e-01 -2.884202599525451660e-01 -1.859200894832611084e-01
4.377000000000000000e+03 7.234877777099609375e+01 8.680436134338378906e+00 1.571715995669364929e-02 8.728018760681152344e+00 2.623120784759521484e+00 -1.053298115730285645e+00
4.378000000000000000e+03 3.947406005859375000e+01 -1.872746467590332031e+01 4.500616788864135742e-01 4.031139016151428223e-01 2.559526860713958740e-01 -1.349003016948699951e-01
4.379000000000000000e+03 1.342902851104736328e+01 1.257765102386474609e+01 1.397167448885738850e-03 -1.776429358869791031e-03 -1.137786020990461111e-04 1.405000570230185986e-03
4.380000000000000000e+03 6.532257843017578125e+01 1.557245850563049316e+00 1.831813715398311615e-02 3.775505781173706055e+00 1.138147234916687012e+00 5.300800800323486328e-01
4.381000000000000000e+03 6.603556823730468750e+01 1.705734491348266602e+00 -1.005888506770133972e-01 4.255784988403320312e+00 1.246558904647827148e+00 4.789848625659942627e-01
4.382000000000000000e+03 4.095846176147460938e+01 -1.721033096313476562e+01 6.329602599143981934e-01 7.146345376968383789e-01 4.042784273624420166e-01 -2.664487995207309723e-02
4.383000000000000000e+03 7.055717468261718750e+01 -2.674528884887695312e+01 -4.480513334274291992e-01 7.215489387512207031e+00 2.030231475830078125e+00 1.874020397663116455e-01
4.384000000000000000e+03 7.270829010009765625e+01 -2.446305084228515625e+01 1.124807447195053101e-01 7.955656528472900391e+00 2.420441150665283203e+00 -4.237396121025085449e-01
4.385000000000000000e+03 3.634178543090820312e+01 -1.347939109802246094e+01 8.666300773620605469e-01 -3.128747940063476562e-01 1.661265790462493896e-01 -1.604397222399711609e-02
4.386000000000000000e+03 2.982789802551269531e+01 -8.519497871398925781e+00 -8.667599558830261230e-01 -1.967469453811645508e-01 -3.190520703792572021e-01 -4.541040360927581787e-01
4.387000000000000000e+03 3.764134597778320312e+01 2.102707672119140625e+01 -2.770712077617645264e-01 3.613907843828201294e-02 -7.227963954210281372e-02 1.080114692449569702e-01
4.388000000000000000e+03 1.335756969451904297e+01 -9.534099578857421875e+00 -3.741315901279449463e-01 -4.181001484394073486e-01 -2.376695275306701660e-01 -2.157057374715805054e-01
4.389000000000000000e+03 1.223097419738769531e+01 -9.437201499938964844e+00 -3.373408019542694092e-01 -3.815417885780334473e-01 -2.156647741794586182e-01 -1.417114883661270142e-01
4.390000000000000000e+03 4.190209197998046875e+01 -1.920228576660156250e+01 4.407578110694885254e-01 1.182288765907287598e+00 4.869139790534973145e-01 -1.331515796482563019e-02
4.391000000000000000e+03 4.122812271118164062e+01 -1.798585128784179688e+01 5.572421550750732422e-01 8.673517107963562012e-01 4.273781478404998779e-01 -1.848415844142436981e-02
4.392000000000000000e+03 4.006188583374023438e+01 -1.618284034729003906e+01 7.640426158905029297e-01 3.575029671192169189e-01 3.364636898040771484e-01 -5.483584851026535034e-02
4.393000000000000000e+03 3.872407913208007812e+01 -1.630480384826660156e+01 8.005237579345703125e-01 5.547567456960678101e-02 2.567998170852661133e-01 -1.675042510032653809e-01
4.394000000000000000e+03 4.492426300048828125e+01 -3.884199857711791992e+00 -1.172749757766723633e+00 7.050495147705078125e-01 -1.403100788593292236e-01 -1.270731538534164429e-01
4.395000000000000000e+03 4.756234359741210938e+01 -6.144585132598876953e+00 -6.588627696037292480e-01 1.231122851371765137e+00 1.716780066490173340e-01 4.291944205760955811e-01
4.396000000000000000e+03 4.319791793823242188e+01 -3.927711963653564453e+00 -1.385427832603454590e+00 4.157176017761230469e-01 -2.909130752086639404e-01 -2.842080891132354736e-01
4.397000000000000000e+03 1.195169639587402344e+01 5.569463253021240234e+00 6.064525223337113857e-04 -4.151875618845224380e-04 5.737947867601178586e-05 3.203580563422292471e-04
4.398000000000000000e+03 7.030519866943359375e+01 -2.788359451293945312e+01 -5.293511152267456055e-01 6.814734458923339844e+00 1.885614991188049316e+00 3.074080049991607666e-01
4.399000000000000000e+03 1.658448219299316406e+01 -8.137270927429199219e+00 -3.459378182888031006e-01 -1.685100495815277100e-01 -1.543343514204025269e-01 -4.204345047473907471e-01
4.400000000000000000e+03 1.854032897949218750e+01 -8.798785209655761719e+00 -4.394670426845550537e-01 2.284350246191024780e-02 -1.249870583415031433e-01 -4.705480933189392090e-01
4.401000000000000000e+03 5.642075347900390625e+01 3.018230056762695312e+01 2.744410634040832520e-01 4.185353517532348633e-01 2.078929245471954346e-01 2.262723632156848907e-02
4.402000000000000000e+03 3.928063583374023438e+01 -1.018226051330566406e+01 6.384775787591934204e-02 -8.724491298198699951e-02 -7.019147276878356934e-03 -1.203455030918121338e-02
4.403000000000000000e+03 4.199447631835937500e+01 -5.686805248260498047e+00 -1.156936287879943848e+00 2.336508035659790039e-01 -2.769856452941894531e-01 -1.592642515897750854e-01
4.404000000000000000e+03 4.406253433227539062e+01 -3.828657627105712891e+00 -1.274135947227478027e+00 5.836733579635620117e-01 -2.071387916803359985e-01 -2.207203954458236694e-01
4.405000000000000000e+03 6.623414516448974609e+00 -2.721428680419921875e+01 1.522577553987503052e-01 -3.967916071414947510e-01 -7.336015254259109497e-02 -1.830440014600753784e-01
4.406000000000000000e+03 9.568500518798828125e+00 -2.558664512634277344e+01 2.823299765586853027e-01 -1.825893223285675049e-01 2.992219664156436920e-02 -2.304383963346481323e-01
4.407000000000000000e+03 6.717434406280517578e+00 -3.010509681701660156e+01 1.086311861872673035e-01 -4.085404276847839355e-01 -8.997277170419692993e-02 -1.005982607603073120e-01
4.408000000000000000e+03 4.464472579956054688e+01 -9.963646888732910156e+00 2.859955728054046631e-01 1.213769674301147461e+00 4.499295949935913086e-01 2.962463796138763428e-01
4.409000000000000000e+03 8.512357711791992188e+00 8.005892753601074219e+00 9.530431125313043594e-04 -8.242582553066313267e-04 3.863545862259343266e-05 -3.715375205501914024e-04
4.410000000000000000e+03 1.445813655853271484e+01 1.111466884613037109e+01 8.868670556694269180e-04 -5.060121766291558743e-04 1.142564651672728360e-04 1.412156852893531322e-03
4.411000000000000000e+03 6.445140838623046875e+01 -7.840510368347167969e+00 -7.966387271881103516e-01 1.952757000923156738e+00 3.468354642391204834e-01 -4.623134434223175049e-01
4.412000000000000000e+03 6.954571247100830078e+00 1.210365486145019531e+01 6.838288973085582256e-04 -1.338661066256463528e-03 -1.964496477739885449e-04 -1.117043313570320606e-03
4.413000000000000000e+03 4.208876419067382812e+01 -1.560675525665283203e+01 6.997561454772949219e-01 9.800040721893310547e-01 5.039280652999877930e-01 1.383537203073501587e-01
4.414000000000000000e+03 6.403757476806640625e+01 2.908163261413574219e+01 -9.913226217031478882e-02 2.983054637908935547e+00 8.651766777038574219e-01 -1.209265589714050293e+00
4.415000000000000000e+03 6.291047286987304688e+01 2.741004943847656250e+01 -1.298276931047439575e-01 1.895525217056274414e+00 5.297092199325561523e-01 -1.259953141212463379e+00
4.416000000000000000e+03 7.172025299072265625e+01 -1.353831481933593750e+01 -2.712004184722900391e-01 8.242559432983398438e+00 2.391407728195190430e+00 8.504179120063781738e-01
4.417000000000000000e+03 4.502729797363281250e+01 1.407909297943115234e+01 -1.069297119975090027e-01 8.971394039690494537e-03 -2.938749454915523529e-02 -2.834568358957767487e-02
4.418000000000000000e+03 4.211351013183593750e+01 -6.380942821502685547e+00 -9.358198642730712891e-01 3.130307495594024658e-01 -1.868367344141006470e-01 -8.678473532199859619e-02
4.419000000000000000e+03 4.231831741333007812e+01 -1.350354099273681641e+01 6.964149475097656250e-01 8.427471518516540527e-01 4.617486298084259033e-01 2.153922617435455322e-01
4.420000000000000000e+03 4.159963226318359375e+01 1.713922882080078125e+01 -2.558591663837432861e-01 7.483472675085067749e-02 -5.430733039975166321e-02 3.233538568019866943e-02
4.421000000000000000e+03 7.280988216400146484e+00 -1.543799972534179688e+01 -2.929173707962036133e-01 -2.170313596725463867e-01 -1.529846191406250000e-01 -3.254056274890899658e-01
4.422000000000000000e+03 1.450437927246093750e+01 1.796204948425292969e+01 -4.223194438964128494e-03 -3.512879135087132454e-03 -2.320822095498442650e-03 1.130166056100279093e-04
4.423000000000000000e+03 2.028874969482421875e+01 -7.956501007080078125e+00 -4.569927155971527100e-01 1.437980085611343384e-01 -9.395840764045715332e-02 -4.329926967620849609e-01
4.424000000000000000e+03 7.220795440673828125e+01 -1.916358184814453125e+01 1.319588303565979004e+00 8.459835052490234375e+00 2.933827161788940430e+00 3.825770020484924316e-01
4.425000000000000000e+03 6.688125610351562500e+01 -2.895371246337890625e+01 -3.767729401588439941e-01 4.624851226806640625e+00 1.274423480033874512e+00 9.511942863464355469e-01
4.426000000000000000e+03 6.644852447509765625e+01 -3.107454681396484375e+01 -2.401583194732666016e-01 4.193577766418457031e+00 1.186025857925415039e+00 8.516153693199157715e-01
4.427000000000000000e+03 1.410433483123779297e+01 1.290191268920898438e+01 1.262770965695381165e-03 -1.486615627072751522e-03 -6.715341442031785846e-05 1.610707491636276245e-03
4.428000000000000000e+03 4.422710418701171875e+01 1.590180873870849609e+01 -2.042051255702972412e-01 4.824429750442504883e-02 -4.678824916481971741e-02 -2.478312700986862183e-02
4.429000000000000000e+03 1.510898113250732422e+01 7.715951442718505859e+00 3.347355523146688938e-04 1.007920218398794532e-04 1.306582707911729813e-04 8.034003549255430698e-04
4.430000000000000000e+03 3.143950271606445312e+01 2.474571037292480469e+01 -1.433252990245819092e-01 -9.074907004833221436e-02 -7.022231072187423706e-02 1.370494812726974487e-01
4.431000000000000000e+03 3.431921768188476562e+01 2.445719718933105469e+01 -1.662884503602981567e-01 -4.594229906797409058e-02 -6.366922706365585327e-02 1.323262602090835571e-01
4.432000000000000000e+03 4.455752563476562500e+01 1.437508583068847656e+01 -1.305013597011566162e-01 1.216518878936767578e-02 -3.550085052847862244e-02 -2.129236795008182526e-02
4.433000000000000000e+03 4.419047927856445312e+01 1.397968578338623047e+01 -1.077609807252883911e-01 1.168964803218841553e-02 -2.882139943540096283e-02 -1.681897975504398346e-02
4.434000000000000000e+03 1.455402278900146484e+01 2.072784042358398438e+01 -1.828599162399768829e-02 -2.510644029825925827e-03 -6.238990463316440582e-03 2.632741117849946022e-03
4.435000000000000000e+03 1.541973876953125000e+01 2.125310134887695312e+01 -2.589476108551025391e-02 -2.744696103036403656e-04 -7.850768975913524628e-03 3.667853539809584618e-03
4.436000000000000000e+03 3.926824569702148438e+01 -1.605095863342285156e+01 8.014256954193115234e-01 1.531958878040313721e-01 2.863864898681640625e-01 -1.136198937892913818e-01
4.437000000000000000e+03 7.398059082031250000e+01 2.295717430114746094e+01 -1.369290798902511597e-01 8.310193061828613281e+00 2.451979398727416992e+00 1.298574924468994141e+00
4.438000000000000000e+03 6.079513072967529297e+00 1.874439430236816406e+01 -1.717270351946353912e-03 -1.710824668407440186e-03 -1.028428436256945133e-03 -5.577728152275085449e-04
4.439000000000000000e+03 1.237671089172363281e+01 -2.933376502990722656e+01 2.574440836906433105e-01 3.350177407264709473e-02 8.728376030921936035e-02 -1.576914340257644653e-01
4.440000000000000000e+03 4.407444000244140625e+01 1.507107543945312500e+01 -1.647374480962753296e-01 2.896374277770519257e-02 -4.073211178183555603e-02 -1.703946292400360107e-02
4.441000000000000000e+03 6.266847991943359375e+01 2.861786460876464844e+01 4.849658533930778503e-02 2.144349098205566406e+00 6.578536629676818848e-01 -1.115295052528381348e+00
4.442000000000000000e+03 1.383825397491455078e+01 1.109578990936279297e+01 1.294814515858888626e-03 -8.617067942395806313e-04 1.299323193961754441e-04 1.497382647357881069e-03
4.443000000000000000e+03 7.221772766113281250e+01 1.487221145629882812e+01 1.608725190162658691e+00 1.018772697448730469e+01 3.538935661315917969e+00 -2.917346954345703125e-01
4.444000000000000000e+03 7.383788299560546875e+01 1.462214279174804688e+01 1.242614865303039551e+00 8.630506515502929688e+00 2.961936473846435547e+00 -5.109469890594482422e-01
4.445000000000000000e+03 6.868415069580078125e+01 -2.845051193237304688e+01 -4.977411031723022461e-01 5.872842311859130859e+00 1.612530350685119629e+00 7.256024479866027832e-01
4.446000000000000000e+03 6.818780517578125000e+01 -2.781041717529296875e+01 -4.736899435520172119e-01 5.741186141967773438e+00 1.580248832702636719e+00 8.598108887672424316e-01
4.447000000000000000e+03 1.186855125427246094e+01 6.295955181121826172e+00 7.628758903592824936e-04 -4.406107182148844004e-04 9.667955600889399648e-05 3.707716241478919983e-04
4.448000000000000000e+03 1.177227115631103516e+01 7.035862922668457031e+00 7.791395764797925949e-04 -6.832438521087169647e-04 2.876872349588666111e-05 3.945236385334283113e-04
4.449000000000000000e+03 1.464070224761962891e+01 6.881434440612792969e+00 3.743585257325321436e-04 -4.235284723108634353e-05 9.960170427802950144e-05 6.706271087750792503e-04
4.450000000000000000e+03 4.105457687377929688e+01 -2.492105674743652344e+01 1.511496603488922119e-01 8.301840424537658691e-01 2.944001257419586182e-01 2.222941815853118896e-01
4.451000000000000000e+03 4.784619140625000000e+01 -5.510190010070800781e+00 -7.569872736930847168e-01 1.118329048156738281e+00 1.084025427699089050e-01 4.507579803466796875e-01
4.452000000000000000e+03 6.277630996704101562e+01 -5.792227745056152344e+00 -3.793806135654449463e-01 1.429725408554077148e+00 3.151034712791442871e-01 -1.797356759198009968e-03
4.453000000000000000e+03 4.754651260375976562e+01 2.256147384643554688e+01 -6.017060279846191406e-01 1.954507082700729370e-01 -1.218766048550605774e-01 1.044065505266189575e-01
4.454000000000000000e+03 1.457185649871826172e+01 1.026494693756103516e+01 9.941945318132638931e-04 -1.799931342247873545e-04 2.442604454699903727e-04 1.486588618718087673e-03
4.455000000000000000e+03 1.473252868652343750e+01 9.404316902160644531e+00 5.978103145025670528e-04 -1.074689644156023860e-04 1.471024152124300599e-04 1.132535166107118130e-03
4.456000000000000000e+03 3.945411300659179688e+01 -2.644911003112792969e+01 1.086115688085556030e-01 4.865576326847076416e-01 1.785507649183273315e-01 2.736256420612335205e-01
4.457000000000000000e+03 4.352730941772460938e+01 -2.599814414978027344e+01 1.403811126947402954e-01 1.287605762481689453e+00 4.283960759639739990e-01 1.025034189224243164e-01
4.458000000000000000e+03 8.564727783203125000e+00 -1.440776157379150391e+01 -4.188212454319000244e-01 -2.926061451435089111e-01 -2.134282141923904419e-01 -2.831362485885620117e-01
4.459000000000000000e+03 9.208045959472656250e+00 -1.474354362487792969e+01 -4.474675655364990234e-01 -3.657779097557067871e-01 -2.439736425876617432e-01 -3.180797398090362549e-01
4.460000000000000000e+03 1.955754280090332031e+01 2.657186508178710938e+01 -5.300491303205490112e-02 -3.143277019262313843e-02 -2.533130347728729248e-02 7.006178796291351318e-02
4.461000000000000000e+03 6.126792907714843750e+01 -9.942322969436645508e-01 4.108874797821044922e-01 1.267329692840576172e+00 5.034651756286621094e-01 4.078878760337829590e-01
4.462000000000000000e+03 1.020893001556396484e+01 -2.602087974548339844e+01 2.868100106716156006e-01 -1.215418651700019836e-01 4.958044365048408508e-02 -2.159560471773147583e-01
4.463000000000000000e+03 1.029546260833740234e+01 -2.800090980529785156e+01 2.449269294738769531e-01 -1.208241581916809082e-01 3.723083063960075378e-02 -1.671841144561767578e-01
4.464000000000000000e+03 5.854727172851562500e+01 -5.908399105072021484e+00 -5.404452681541442871e-01 8.520957082509994507e-02 -1.365707218647003174e-01 5.947586894035339355e-01
4.465000000000000000e+03 5.993218612670898438e+01 -4.724419116973876953e+00 -1.834628432989120483e-01 5.220552682876586914e-01 1.015777215361595154e-01 4.154355227947235107e-01
4.466000000000000000e+03 7.322734069824218750e+01 1.847725677490234375e+01 1.448210358619689941e+00 8.980284690856933594e+00 3.128548383712768555e+00 6.096739172935485840e-01
4.467000000000000000e+03 7.438083648681640625e+01 -1.552838897705078125e+01 3.736207187175750732e-01 8.144556999206542969e+00 2.555453300476074219e+00 9.161015748977661133e-01
4.468000000000000000e+03 4.845876312255859375e+01 -5.799893856048583984e+00 -6.796629428863525391e-01 1.166185855865478516e+00 1.459568589925765991e-01 5.845951437950134277e-01
4.469000000000000000e+03 7.666203498840332031e+00 -2.001191139221191406e+01 3.784205392003059387e-02 -3.309977948665618896e-01 -8.794672042131423950e-02 -4.486053287982940674e-01
4.470000000000000000e+03 6.927259063720703125e+01 7.054669380187988281e+00 -3.137687444686889648e-01 8.087782859802246094e+00 2.332204341888427734e+00 1.966808885335922241e-01
4.471000000000000000e+03 1.269024276733398438e+01 -2.858755874633789062e+01 2.941460609436035156e-01 7.290125638246536255e-02 1.101142019033432007e-01 -1.845201700925827026e-01
4.472000000000000000e+03 5.961253738403320312e+01 -5.459088802337646484e+00 -3.684312701225280762e-01 3.690983057022094727e-01 2.001136745093390346e-04 4.670380949974060059e-01
4.473000000000000000e+03 7.151731872558593750e+01 -2.117458152770996094e+01 1.318805694580078125e+00 8.500659942626953125e+00 2.945839643478393555e+00 2.029182575643062592e-02
4.474000000000000000e+03 7.273326110839843750e+01 -1.969362449645996094e+01 1.230016589164733887e+00 8.270680427551269531e+00 2.850208997726440430e+00 2.509393692016601562e-01
4.475000000000000000e+03 4.309986877441406250e+01 -1.296632003784179688e+01 6.745110154151916504e-01 1.056859970092773438e+00 5.194113254547119141e-01 3.038579523563385010e-01
4.476000000000000000e+03 4.208031845092773438e+01 -1.432068157196044922e+01 7.235345840454101562e-01 8.543463349342346191e-01 4.733642637729644775e-01 1.767395734786987305e-01
4.477000000000000000e+03 4.141457366943359375e+01 -2.356719589233398438e+01 2.235139012336730957e-01 9.592351913452148438e-01 3.548247218132019043e-01 1.602542102336883545e-01
4.478000000000000000e+03 8.851013183593750000e+00 -1.278986167907714844e+01 -4.091516137123107910e-01 -2.785912454128265381e-01 -2.063228487968444824e-01 -1.683113873004913330e-01
4.479000000000000000e+03 9.449047088623046875e+00 -1.313104629516601562e+01 -4.654095470905303955e-01 -3.404243886470794678e-01 -2.417501807212829590e-01 -2.094806134700775146e-01
4.480000000000000000e+03 6.755001068115234375e+01 2.589805412292480469e+01 -1.000114202499389648e+00 6.364693641662597656e+00 1.609373807907104492e+00 -1.597242116928100586e+00
4.481000000000000000e+03 4.521949768066406250e+01 -3.159347534179687500e+01 -1.447269320487976074e-02 9.162266850471496582e-01 2.705262005329132080e-01 -1.222421824932098389e-01
4.482000000000000000e+03 7.314582824707031250e+01 1.437911415100097656e+01 1.342471361160278320e+00 9.202432632446289062e+00 3.163470983505249023e+00 -4.982256591320037842e-01
4.483000000000000000e+03 2.221057128906250000e+01 -8.679065704345703125e+00 -4.699687063694000244e-01 2.223759293556213379e-01 -7.427783310413360596e-02 -4.385490417480468750e-01
4.484000000000000000e+03 7.233359527587890625e+01 1.253938198089599609e+01 1.085718393325805664e+00 9.676942825317382812e+00 3.228798389434814453e+00 -7.469006180763244629e-01
4.485000000000000000e+03 5.804378509521484375e+01 -4.821564197540283203e+00 -2.416879385709762573e-01 9.053445607423782349e-02 -4.534604400396347046e-02 6.174216270446777344e-01
4.486000000000000000e+03 5.694003677368164062e+01 -5.336499214172363281e+00 -4.067996442317962646e-01 -1.370387673377990723e-01 -1.631515175104141235e-01 7.452251315116882324e-01
4.487000000000000000e+03 7.144817352294921875e+01 1.005513000488281250e+01 4.023765623569488525e-01 9.455643653869628906e+00 2.957406282424926758e+00 -7.462212443351745605e-01
4.488000000000000000e+03 7.814041137695312500e+00 -1.717251777648925781e+01 -2.048117071390151978e-01 -2.911427915096282959e-01 -1.487863510847091675e-01 -4.260070621967315674e-01
4.489000000000000000e+03 5.667037010192871094e+00 -1.806962203979492188e+01 -8.261109888553619385e-02 -2.247025072574615479e-01 -9.219408035278320312e-02 -3.841854333877563477e-01
4.490000000000000000e+03 4.002827453613281250e+01 -2.504822349548339844e+01 1.209899932146072388e-01 6.156955957412719727e-01 2.210056781768798828e-01 2.498686611652374268e-01
4.491000000000000000e+03 4.207077407836914062e+01 -2.373643112182617188e+01 2.411701828241348267e-01 1.106350421905517578e+00 4.042561948299407959e-01 1.400899440050125122e-01
4.492000000000000000e+03 2.804936790466308594e+01 -1.138407611846923828e+01 9.661085158586502075e-02 7.063118368387222290e-02 5.017260834574699402e-02 -5.445473790168762207e-01
4.493000000000000000e+03 2.472562980651855469e+01 -9.924042701721191406e+00 -3.611248135566711426e-01 2.158671021461486816e-01 -4.357730969786643982e-02 -5.195655822753906250e-01
4.494000000000000000e+03 6.589228057861328125e+01 -8.220276832580566406e+00 -9.974457025527954102e-01 3.105753898620605469e+00 6.324924230575561523e-01 -7.800129055976867676e-01
4.495000000000000000e+03 5.740287399291992188e+01 -2.786312818527221680e+00 1.234490722417831421e-01 2.074143439531326294e-01 9.925902634859085083e-02 6.045179367065429688e-01
4.496000000000000000e+03 3.062097358703613281e+01 2.654400253295898438e+01 -8.200673758983612061e-02 -9.805830568075180054e-02 -5.401951074600219727e-02 1.368568986654281616e-01
4.497000000000000000e+03 6.079948902130126953e+00 1.711535835266113281e+01 -7.800533203408122063e-04 -1.388658303767442703e-03 -6.506134523078799248e-04 -1.296208938583731651e-03
4.498000000000000000e+03 2.692610931396484375e+01 2.590124130249023438e+01 -9.443131834268569946e-02 -8.804415911436080933e-02 -5.474264174699783325e-02 1.229544430971145630e-01
4.499000000000000000e+03 2.789424705505371094e+01 2.535337638854980469e+01 -1.147420257329940796e-01 -9.254289418458938599e-02 -6.218547746539115906e-02 1.284964233636856079e-01
4.500000000000000000e+03 7.108706665039062500e+01 8.213679313659667969e+00 -1.346004158258438110e-01 8.850994110107421875e+00 2.614918231964111328e+00 -5.940825939178466797e-01
4.501000000000000000e+03 1.230819320678710938e+01 -3.294524765014648438e+01 1.447806805372238159e-01 -1.196084171533584595e-02 3.984595090150833130e-02 -8.253289014101028442e-02
4.502000000000000000e+03 4.120478439331054688e+01 -2.265679740905761719e+01 2.576071321964263916e-01 9.549911022186279297e-01 3.637794852256774902e-01 1.133192330598831177e-01
4.503000000000000000e+03 6.211754608154296875e+01 2.922056388854980469e+01 1.131749376654624939e-01 1.947514653205871582e+00 6.182069182395935059e-01 -9.996463060379028320e-01
4.504000000000000000e+03 7.140298843383789062e+00 3.316677856445312500e+01 2.092108130455017090e-03 -2.536359056830406189e-02 -6.981444545090198517e-03 1.636886596679687500e-02
4.505000000000000000e+03 1.649254035949707031e+01 2.332727813720703125e+01 -4.453085362911224365e-02 -8.769384003244340420e-04 -1.362233702093362808e-02 2.059145644307136536e-02
4.506000000000000000e+03 1.818755149841308594e+01 2.415018463134765625e+01 -6.270730495452880859e-02 -3.763526678085327148e-03 -1.994124986231327057e-02 3.733466193079948425e-02
4.507000000000000000e+03 7.076010894775390625e+01 -2.311859130859375000e+01 5.060597062110900879e-01 8.358918190002441406e+00 2.659493446350097656e+00 -9.179504960775375366e-02
4.508000000000000000e+03 6.802035331726074219e+00 -3.391297531127929688e+01 5.099285393953323364e-02 -4.166603088378906250e-01 -1.097002401947975159e-01 -3.470800444483757019e-02
4.509000000000000000e+03 7.305421829223632812e+00 -3.228914260864257812e+01 8.090586215257644653e-02 -3.756517469882965088e-01 -8.842376619577407837e-02 -6.036904826760292053e-02
4.510000000000000000e+03 2.102958869934082031e+01 2.814453125000000000e+01 -3.564482927322387695e-02 -5.575682595372200012e-02 -2.742049656808376312e-02 8.733594417572021484e-02
4.511000000000000000e+03 2.047894477844238281e+01 2.662326240539550781e+01 -5.808139219880104065e-02 -3.933254629373550415e-02 -2.922418154776096344e-02 8.058294653892517090e-02
4.512000000000000000e+03 3.923482894897460938e+01 -3.002080726623535156e+01 1.343712508678436279e-01 4.584422111511230469e-01 1.778440475463867188e-01 2.189159393310546875e-01
4.513000000000000000e+03 5.228665161132812500e+01 2.784145545959472656e+01 -2.148920595645904541e-01 9.234310686588287354e-02 -3.676468878984451294e-02 3.523716330528259277e-01
4.514000000000000000e+03 5.045300674438476562e+01 2.399413490295410156e+01 -7.567842602729797363e-01 1.046769618988037109e-01 -1.956321895122528076e-01 2.334472388029098511e-01
4.515000000000000000e+03 3.246198654174804688e+01 -3.803808975219726562e+01 2.971996665000915527e-01 1.587189137935638428e-01 1.367755681276321411e-01 1.126729883253574371e-03
4.516000000000000000e+03 7.296427917480468750e+01 3.398779296875000000e+01 -2.566583156585693359e-01 6.783387660980224609e+00 1.958018898963928223e+00 -3.166418522596359253e-02
4.517000000000000000e+03 4.382867050170898438e+01 -3.102796745300292969e+01 2.698530675843358040e-03 8.985530138015747070e-01 2.703754603862762451e-01 -7.427160162478685379e-04
4.518000000000000000e+03 5.545460224151611328e+00 -3.402300262451171875e+01 3.045459464192390442e-02 -5.334886908531188965e-01 -1.509102135896682739e-01 -2.676407434046268463e-02
4.519000000000000000e+03 8.078248023986816406e+00 -3.341582870483398438e+01 7.396806776523590088e-02 -3.286751806735992432e-01 -7.641213387250900269e-02 -4.909016564488410950e-02
4.520000000000000000e+03 4.207470703125000000e+01 -2.634444427490234375e+01 1.188849955797195435e-01 9.815691113471984863e-01 3.301362395286560059e-01 2.034674137830734253e-01
4.521000000000000000e+03 1.440167140960693359e+01 -3.924076461791992188e+01 4.361366480588912964e-02 3.850964084267616272e-02 2.463699132204055786e-02 -2.650881558656692505e-02
4.522000000000000000e+03 5.548498916625976562e+01 2.715732574462890625e+01 -3.290306925773620605e-01 6.256651878356933594e-02 -7.993925362825393677e-02 2.247623056173324585e-01
4.523000000000000000e+03 6.056716156005859375e+01 2.812761116027832031e+01 3.987237066030502319e-02 1.048421263694763184e+00 3.264880776405334473e-01 -6.426868438720703125e-01
4.524000000000000000e+03 6.724483489990234375e+01 2.742520904541015625e+01 -8.176671862602233887e-01 5.650582313537597656e+00 1.449874520301818848e+00 -1.404694795608520508e+00
4.525000000000000000e+03 4.070822143554687500e+01 -2.554341697692871094e+01 1.342981308698654175e-01 7.607620954513549805e-01 2.685180604457855225e-01 2.422580271959304810e-01
4.526000000000000000e+03 4.001085662841796875e+01 -2.687512016296386719e+01 1.056400090456008911e-01 5.860243439674377441e-01 2.074992954730987549e-01 2.700985372066497803e-01
4.527000000000000000e+03 4.193930816650390625e+01 -2.447862052917480469e+01 1.929651200771331787e-01 1.053239107131958008e+00 3.738612830638885498e-01 1.732517331838607788e-01
4.528000000000000000e+03 4.011967468261718750e+01 -2.946737098693847656e+01 1.101225763559341431e-01 5.723405480384826660e-01 2.047389447689056396e-01 2.234163135290145874e-01
4.529000000000000000e+03 4.049851608276367188e+01 -3.268651199340820312e+01 1.302271187305450439e-01 5.384888648986816406e-01 2.006147950887680054e-01 1.185751482844352722e-01
4.530000000000000000e+03 1.548299694061279297e+01 -3.555390167236328125e+01 1.150473058223724365e-01 1.233304291963577271e-01 7.151331752538681030e-02 -7.698705792427062988e-02
4.531000000000000000e+03 6.532333374023437500e+01 -3.503587341308593750e+01 1.877411901950836182e-01 3.289693593978881836e+00 1.043230414390563965e+00 5.639021396636962891e-01
4.532000000000000000e+03 3.704277801513671875e+01 -3.543455886840820312e+01 2.509106099605560303e-01 2.858458459377288818e-01 1.610269248485565186e-01 7.149486988782882690e-02
4.533000000000000000e+03 7.177904510498046875e+01 3.438897323608398438e+01 -2.334274053573608398e-01 6.338186264038085938e+00 1.831427574157714844e+00 -1.568314433097839355e-01
4.534000000000000000e+03 7.236401367187500000e+01 3.609186172485351562e+01 -1.034752875566482544e-01 6.460957050323486328e+00 1.907244563102722168e+00 -7.146838307380676270e-02
4.535000000000000000e+03 7.125152587890625000e+01 -3.442658233642578125e+01 -2.303725630044937134e-01 6.229454994201660156e+00 1.799724698066711426e+00 1.881619840860366821e-01
4.536000000000000000e+03 4.223486709594726562e+01 -2.854097557067871094e+01 5.357824638485908508e-02 8.978347182273864746e-01 2.854238748550415039e-01 1.696455925703048706e-01
4.537000000000000000e+03 2.678023719787597656e+01 -3.576010513305664062e+01 2.948942184448242188e-01 1.249324530363082886e-01 1.259479969739913940e-01 -9.714204818010330200e-02
4.538000000000000000e+03 7.448632049560546875e+01 3.105025100708007812e+01 -3.788067996501922607e-01 7.437823295593261719e+00 2.117704868316650391e+00 2.548287808895111084e-01
4.539000000000000000e+03 3.326740264892578125e+01 2.597224617004394531e+01 -1.069788560271263123e-01 -6.734538078308105469e-02 -5.229727178812026978e-02 1.439471840858459473e-01
4.540000000000000000e+03 5.399460983276367188e+01 -3.653998947143554688e+01 5.561121702194213867e-01 3.865069448947906494e-01 2.827857136726379395e-01 -3.101741969585418701e-01
4.541000000000000000e+03 7.979226589202880859e+00 4.169411849975585938e+01 1.063478644937276840e-02 -3.866166621446609497e-02 -8.408063091337680817e-03 2.037072321400046349e-03
4.542000000000000000e+03 4.626218414306640625e+01 -3.602598953247070312e+01 1.785737574100494385e-01 6.171591877937316895e-01 2.387198805809020996e-01 -1.987936794757843018e-01
4.543000000000000000e+03 4.839571762084960938e+01 2.351150321960449219e+01 -6.256290674209594727e-01 1.892047375440597534e-01 -1.309272944927215576e-01 1.852479875087738037e-01
4.544000000000000000e+03 7.306520080566406250e+01 -3.509092712402343750e+01 -1.382261663675308228e-01 6.810465812683105469e+00 2.001671791076660156e+00 1.009568572044372559e-01
4.545000000000000000e+03 7.182989501953125000e+01 -2.829059791564941406e+01 -4.587461054325103760e-01 7.167121887207031250e+00 2.012512683868408203e+00 -7.471702992916107178e-03
4.546000000000000000e+03 6.082553863525390625e+01 2.957291412353515625e+01 2.085222005844116211e-01 1.498731732368469238e+00 5.121762156486511230e-01 -7.126339077949523926e-01
4.547000000000000000e+03 4.867037582397460938e+01 -3.402908325195312500e+01 1.253230124711990356e-01 6.415230035781860352e-01 2.300538122653961182e-01 -3.782693743705749512e-01
4.548000000000000000e+03 6.685764312744140625e+01 -2.993582153320312500e+01 -3.683018386363983154e-01 4.504452705383300781e+00 1.240845322608947754e+00 9.116814136505126953e-01
4.549000000000000000e+03 5.586195373535156250e+01 -3.781704330444335938e+01 7.300912141799926758e-01 5.567384958267211914e-01 3.860489130020141602e-01 -1.532473266124725342e-01
4.550000000000000000e+03 6.180859375000000000e+01 -6.257802009582519531e+00 -4.756823182106018066e-01 9.234371781349182129e-01 1.343264579772949219e-01 1.816411316394805908e-01
4.551000000000000000e+03 6.252825927734375000e+01 -6.497611045837402344e+00 -5.142408013343811035e-01 1.179615259170532227e+00 1.996123492717742920e-01 4.245617240667343140e-02
4.552000000000000000e+03 7.414437103271484375e+01 -1.345186424255371094e+01 -1.090098842978477478e-01 8.242854118347167969e+00 2.440153360366821289e+00 9.647585153579711914e-01
4.553000000000000000e+03 3.183687782287597656e+01 -1.057334136962890625e+01 -1.194282919168472290e-01 -1.784066110849380493e-01 -8.935046941041946411e-02 -3.197231292724609375e-01
4.554000000000000000e+03 1.173753833770751953e+01 -9.857851028442382812e+00 -3.619273602962493896e-01 -3.923951983451843262e-01 -2.262967675924301147e-01 -1.310486644506454468e-01
4.555000000000000000e+03 6.813256072998046875e+01 -7.802436828613281250e+00 -1.136026740074157715e+00 5.076545238494873047e+00 1.182155489921569824e+00 -7.140644192695617676e-01
4.556000000000000000e+03 3.791194152832031250e+01 -1.357139205932617188e+01 8.187744021415710449e-01 -2.123925834894180298e-01 1.819145530462265015e-01 -2.692532353103160858e-02
4.557000000000000000e+03 3.880269241333007812e+01 -1.487726402282714844e+01 8.612651824951171875e-01 -2.161167003214359283e-02 2.518960535526275635e-01 -8.250708878040313721e-02
4.558000000000000000e+03 1.340752410888671875e+01 -8.335351943969726562e+00 -2.582389116287231445e-01 -3.332526385784149170e-01 -1.774474680423736572e-01 -1.932484805583953857e-01
4.559000000000000000e+03 5.607097244262695312e+01 -3.846771240234375000e+00 -1.311316192150115967e-01 -4.959109798073768616e-02 -5.421681702136993408e-02 8.239327669143676758e-01
4.560000000000000000e+03 3.876409912109375000e+01 -8.871599197387695312e+00 -3.822500705718994141e-01 -2.132237255573272705e-01 -1.786421388387680054e-01 -1.057103946805000305e-01
4.561000000000000000e+03 3.872866439819335938e+01 -9.531173706054687500e+00 -1.632448136806488037e-01 -1.874202042818069458e-01 -1.051995083689689636e-01 -6.548635661602020264e-02
4.562000000000000000e+03 7.212746429443359375e+01 9.636271476745605469e+00 2.509831786155700684e-01 9.019939422607421875e+00 2.781276941299438477e+00 -9.944088459014892578e-01
4.563000000000000000e+03 5.441581344604492188e+01 -3.676306486129760742e+00 -2.061858922243118286e-01 -5.440440401434898376e-02 -7.817708700895309448e-02 1.030089259147644043e+00
4.564000000000000000e+03 4.619110488891601562e+01 -8.312551498413085938e+00 -1.215635463595390320e-01 1.397738218307495117e+00 3.828524053096771240e-01 3.416453003883361816e-01
4.565000000000000000e+03 4.006263732910156250e+01 -1.909160614013671875e+01 4.310831129550933838e-01 5.823172926902770996e-01 3.040201067924499512e-01 -8.437606692314147949e-02
4.566000000000000000e+03 4.077495193481445312e+01 -2.081222915649414062e+01 3.100499510765075684e-01 8.510491251945495605e-01 3.483297228813171387e-01 1.969058252871036530e-02
4.567000000000000000e+03 4.172570800781250000e+01 -1.688357162475585938e+01 6.349850296974182129e-01 9.664524197578430176e-01 4.804312288761138916e-01 5.233367905020713806e-02
4.568000000000000000e+03 3.879399490356445312e+01 -1.687070274353027344e+01 7.389174699783325195e-01 9.775265306234359741e-02 2.510010302066802979e-01 -1.807086616754531860e-01
4.569000000000000000e+03 1.923482894897460938e+01 -8.840146064758300781e+00 -4.546326100826263428e-01 8.898421376943588257e-02 -1.096945181488990784e-01 -4.514452517032623291e-01
4.570000000000000000e+03 1.156045436859130859e+01 -6.692420959472656250e+00 -1.081376597285270691e-01 -2.094131708145141602e-01 -9.526524692773818970e-02 -4.936079680919647217e-02
4.571000000000000000e+03 7.435279846191406250e+01 2.451726913452148438e+01 -4.203053414821624756e-01 8.072771072387695312e+00 2.295739650726318359e+00 1.131468057632446289e+00
4.572000000000000000e+03 7.083096313476562500e+01 2.393634986877441406e+01 -9.314060211181640625e-01 9.094435691833496094e+00 2.448908805847167969e+00 2.679187059402465820e-01
4.573000000000000000e+03 6.395845031738281250e+01 -6.933240890502929688e+00 -6.143280267715454102e-01 1.848012566566467285e+00 3.701053559780120850e-01 -2.922434806823730469e-01
4.574000000000000000e+03 6.381004714965820312e+01 -9.595553874969482422e-01 1.343727558851242065e-01 2.580881595611572266e+00 8.145763278007507324e-01 2.922138273715972900e-01
4.575000000000000000e+03 2.198086357116699219e+01 -9.118927955627441406e+00 -4.413776099681854248e-01 2.162758260965347290e-01 -6.753054261207580566e-02 -4.381332397460937500e-01
4.576000000000000000e+03 1.585273170471191406e+01 -9.276361465454101562e+00 -4.106171727180480957e-01 -3.056636452674865723e-01 -2.148842513561248779e-01 -4.050751328468322754e-01
4.577000000000000000e+03 6.352965164184570312e+01 -2.565945982933044434e-01 2.268039733171463013e-01 2.450424671173095703e+00 8.031685352325439453e-01 4.037820100784301758e-01
4.578000000000000000e+03 6.193070220947265625e+01 -5.072724819183349609e-01 4.058618843555450439e-01 1.583438515663146973e+00 5.967901349067687988e-01 4.351478517055511475e-01
4.579000000000000000e+03 5.596978187561035156e+00 2.936056518554687500e+01 -3.265871200710535049e-03 -1.290509384125471115e-02 -4.851289559155702591e-03 1.194333843886852264e-02
4.580000000000000000e+03 6.894546985626220703e+00 3.049514007568359375e+01 -2.052703406661748886e-03 -1.786554232239723206e-02 -5.975473672151565552e-03 1.551900897175073624e-02
4.581000000000000000e+03 4.268441390991210938e+01 -2.355198097229003906e+01 2.766530811786651611e-01 1.284241437911987305e+00 4.682683348655700684e-01 1.009322926402091980e-01
4.582000000000000000e+03 4.172611999511718750e+01 -2.285239601135253906e+01 2.758919000625610352e-01 1.072605013847351074e+00 4.045490622520446777e-01 1.125613078474998474e-01
4.583000000000000000e+03 6.417382049560546875e+01 1.444929391145706177e-01 1.554341614246368408e-01 2.886794805526733398e+00 9.126686453819274902e-01 4.268877506256103516e-01
4.584000000000000000e+03 6.390858459472656250e+01 8.775346875190734863e-01 2.433889806270599365e-01 2.737339019775390625e+00 8.942183852195739746e-01 5.556192398071289062e-01
4.585000000000000000e+03 7.299728393554687500e+01 -2.195816230773925781e+01 7.887086868286132812e-01 8.070607185363769531e+00 2.657794713973999023e+00 -2.782055139541625977e-01
4.586000000000000000e+03 4.177401733398437500e+01 -2.715289306640625000e+01 9.005609154701232910e-02 8.931999802589416504e-01 2.949768304824829102e-01 2.148123532533645630e-01
4.587000000000000000e+03 2.945330810546875000e+01 -1.054500865936279297e+01 -1.367150843143463135e-01 -3.067266754806041718e-02 -5.021632462739944458e-02 -5.089020133018493652e-01
4.588000000000000000e+03 7.111211395263671875e+01 -2.844472122192382812e+01 -5.045226216316223145e-01 6.947808265686035156e+00 1.932985663414001465e+00 1.441399008035659790e-01
4.589000000000000000e+03 6.483280181884765625e+01 4.872935116291046143e-01 6.259941309690475464e-02 3.325744628906250000e+00 1.016503214836120605e+00 4.040697813034057617e-01
4.590000000000000000e+03 7.429654693603515625e+01 7.723708748817443848e-01 -3.731335401535034180e-01 7.759985446929931641e+00 2.216055631637573242e+00 -7.489738464355468750e-01
4.591000000000000000e+03 3.955035781860351562e+01 -8.259320259094238281e+00 -5.150522589683532715e-01 -1.435961425304412842e-01 -1.975945234298706055e-01 -1.212524548172950745e-01
4.592000000000000000e+03 4.107485580444335938e+01 -8.055664062500000000e+00 -4.810099899768829346e-01 1.650947183370590210e-01 -9.477458149194717407e-02 -5.209171026945114136e-02
4.593000000000000000e+03 5.876689434051513672e+00 -2.804459762573242188e+01 1.179524958133697510e-01 -4.550312459468841553e-01 -1.011236235499382019e-01 -1.477495729923248291e-01
4.594000000000000000e+03 6.119798660278320312e+00 -3.070313835144042969e+01 8.511176705360412598e-02 -4.516276121139526367e-01 -1.099547520279884338e-01 -8.388610929250717163e-02
4.595000000000000000e+03 1.017632579803466797e+01 -7.833371639251708984e+00 -1.616812050342559814e-01 -2.214280813932418823e-01 -1.149327829480171204e-01 -2.328475704416632652e-03
4.596000000000000000e+03 3.655963897705078125e+01 -9.082279205322265625e+00 -4.749470353126525879e-01 -3.562594652175903320e-01 -2.493619471788406372e-01 -1.538975983858108521e-01
4.597000000000000000e+03 2.523260688781738281e+01 -1.038174247741699219e+01 -2.278115600347518921e-01 1.867370456457138062e-01 -1.232235785573720932e-02 -5.329586863517761230e-01
4.598000000000000000e+03 1.025936412811279297e+01 -6.473472118377685547e+00 -7.728825509548187256e-02 -1.774135380983352661e-01 -7.641053944826126099e-02 1.174784358590841293e-02
4.599000000000000000e+03 3.722760772705078125e+01 -1.276842975616455078e+01 6.977698802947998047e-01 -2.778455317020416260e-01 1.259772926568984985e-01 -1.332549378275871277e-03
4.600000000000000000e+03 1.718022727966308594e+01 -8.511520385742187500e+00 -4.016199409961700439e-01 -1.314522773027420044e-01 -1.599216610193252563e-01 -4.441445171833038330e-01
4.601000000000000000e+03 1.761028480529785156e+01 -8.019962310791015625e+00 -3.703123629093170166e-01 -5.720784515142440796e-02 -1.282560676336288452e-01 -4.434037804603576660e-01
4.602000000000000000e+03 3.265532684326171875e+01 -9.034888267517089844e+00 -7.088059782981872559e-01 -3.413000404834747314e-01 -3.150317966938018799e-01 -2.684057354927062988e-01
4.603000000000000000e+03 3.406375503540039062e+01 -9.744278907775878906e+00 -3.666797280311584473e-01 -3.325510323047637939e-01 -2.097692340612411499e-01 -1.672621369361877441e-01
4.604000000000000000e+03 7.335899353027343750e+01 -2.886635971069335938e+01 -3.638879060745239258e-01 7.452813625335693359e+00 2.126677751541137695e+00 -2.033165842294692993e-01
4.605000000000000000e+03 2.541172790527343750e+01 -1.114226055145263672e+01 -4.878799989819526672e-02 1.606384962797164917e-01 3.355514630675315857e-02 -5.127131342887878418e-01
4.606000000000000000e+03 2.634182357788085938e+01 -1.116861820220947266e+01 -1.561938785016536713e-02 1.419123560190200806e-01 3.788789361715316772e-02 -5.475112199783325195e-01
4.607000000000000000e+03 2.315156173706054688e+01 -1.013696193695068359e+01 -2.987920343875885010e-01 2.092331200838088989e-01 -2.686767280101776123e-02 -4.592674076557159424e-01
4.608000000000000000e+03 1.396028327941894531e+01 6.890810489654541016e+00 6.138600874692201614e-04 -1.222348510054871440e-04 1.474875607527792454e-04 7.197030354291200638e-04
4.609000000000000000e+03 1.410139656066894531e+01 6.109748840332031250e+00 4.144856648053973913e-04 -1.433855213690549135e-04 8.133005030686035752e-05 5.561369471251964569e-04
4.610000000000000000e+03 5.962314128875732422e+00 -2.515772819519042969e+01 1.487170606851577759e-01 -4.173568487167358398e-01 -8.059193938970565796e-02 -2.522916793823242188e-01
4.611000000000000000e+03 6.241720676422119141e+00 6.723109245300292969e+00 5.197953432798385620e-04 -2.988646156154572964e-04 6.627920811297371984e-05 -5.596186965703964233e-04
4.612000000000000000e+03 6.776359558105468750e+01 -3.014047813415527344e+01 -3.974624276161193848e-01 5.064702510833740234e+00 1.400171995162963867e+00 7.904638051986694336e-01
4.613000000000000000e+03 7.328597259521484375e+01 -3.078239059448242188e+01 -3.376978635787963867e-01 7.214300155639648438e+00 2.062980651855468750e+00 -6.437122821807861328e-02
4.614000000000000000e+03 8.028186798095703125e+00 -3.000681686401367188e+01 1.432232111692428589e-01 -3.113277256488800049e-01 -5.043135210871696472e-02 -1.098365634679794312e-01
4.615000000000000000e+03 3.474060058593750000e+01 -1.274461460113525391e+01 6.951705813407897949e-01 -2.157264798879623413e-01 1.438332200050354004e-01 -3.381295874714851379e-02
4.616000000000000000e+03 5.815549373626708984e+00 2.748658943176269531e+01 -3.653054358437657356e-03 -9.627630934119224548e-03 -3.984205424785614014e-03 1.016218867152929306e-02
4.617000000000000000e+03 7.181593322753906250e+01 -2.386282730102539062e+01 2.657780647277832031e-01 8.093267440795898438e+00 2.507713794708251953e+00 -3.149978518486022949e-01
4.618000000000000000e+03 7.386927032470703125e+01 2.133062934875488281e+01 4.615105688571929932e-01 8.432878494262695312e+00 2.668316602706909180e+00 1.290861248970031738e+00
4.619000000000000000e+03 2.994879722595214844e+01 -1.097701263427734375e+01 9.754458442330360413e-03 -3.998439013957977295e-02 -9.068979881703853607e-03 -4.654750227928161621e-01
4.620000000000000000e+03 3.052434539794921875e+01 -9.102911949157714844e+00 -6.673488020896911621e-01 -2.285363823175430298e-01 -2.687655389308929443e-01 -4.230324029922485352e-01
4.621000000000000000e+03 6.115216255187988281e+00 2.189668464660644531e+01 -3.886562772095203400e-03 -3.079283982515335083e-03 -2.089753979817032814e-03 2.585352398455142975e-03
4.622000000000000000e+03 6.229188919067382812e+00 -2.077755737304687500e+01 5.683844909071922302e-02 -3.319149315357208252e-01 -8.252294361591339111e-02 -4.089454412460327148e-01
4.623000000000000000e+03 7.345915222167968750e+01 1.997339439392089844e+01 9.929589033126831055e-01 8.723558425903320312e+00 2.914955139160156250e+00 1.035524487495422363e+00
4.624000000000000000e+03 4.870594024658203125e+01 -5.176676273345947266e+00 -7.534385323524475098e-01 1.018028736114501953e+00 7.937706261873245239e-02 6.068525910377502441e-01
4.625000000000000000e+03 7.289117431640625000e+01 2.268556785583496094e+01 -1.332484334707260132e-01 8.839460372924804688e+00 2.611863613128662109e+00 1.215243697166442871e+00
4.626000000000000000e+03 6.228639125823974609e+00 -2.226831054687500000e+01 1.180994063615798950e-01 -3.651043772697448730e-01 -7.410149276256561279e-02 -3.670542836189270020e-01
4.627000000000000000e+03 6.117753505706787109e+00 2.255125617980957031e+01 -4.784104414284229279e-03 -3.427936695516109467e-03 -2.463612239807844162e-03 3.463855711743235588e-03
4.628000000000000000e+03 7.373710632324218750e+01 -2.249340629577636719e+01 5.892184972763061523e-01 7.947125434875488281e+00 2.560903310775756836e+00 -3.681954741477966309e-01
4.629000000000000000e+03 3.594992446899414062e+01 -9.721599578857421875e+00 -2.817186713218688965e-01 -3.531133532524108887e-01 -1.904496103525161743e-01 -1.256603300571441650e-01
4.630000000000000000e+03 3.220050430297851562e+01 -1.191746234893798828e+01 3.631677925586700439e-01 -6.508829444646835327e-02 8.942384272813796997e-02 -2.569587230682373047e-01
4.631000000000000000e+03 3.327935409545898438e+01 -1.032727622985839844e+01 -1.579250991344451904e-01 -2.702542841434478760e-01 -1.284538209438323975e-01 -1.926157623529434204e-01
4.632000000000000000e+03 6.987005233764648438e+00 -2.082743072509765625e+01 7.840756326913833618e-02 -3.359622061252593994e-01 -7.726639509201049805e-02 -4.229538440704345703e-01
4.633000000000000000e+03 7.483503723144531250e+01 -2.642634963989257812e+01 -1.349491477012634277e-01 7.810433387756347656e+00 2.302645444869995117e+00 -4.841801226139068604e-01
4.634000000000000000e+03 7.135805511474609375e+01 -2.496909141540527344e+01 -9.755840152502059937e-02 7.812778949737548828e+00 2.314566135406494141e+00 -1.389257311820983887e-01
4.635000000000000000e+03 7.432961273193359375e+01 -2.450251579284667969e+01 1.338572502136230469e-01 7.865940570831298828e+00 2.399939298629760742e+00 -5.137627720832824707e-01
4.636000000000000000e+03 7.363124084472656250e+01 1.524273395538330078e+01 1.319941163063049316e+00 8.757205963134765625e+00 3.023144006729125977e+00 -3.054893314838409424e-01
4.637000000000000000e+03 3.164836692810058594e+01 -1.184249019622802734e+01 3.340359628200531006e-01 -5.677056685090065002e-02 8.317961543798446655e-02 -3.240556120872497559e-01
4.638000000000000000e+03 2.992319488525390625e+01 -9.789870262145996094e+00 -4.089938104152679443e-01 -1.225615963339805603e-01 -1.594666242599487305e-01 -4.723815917968750000e-01
4.639000000000000000e+03 7.475611877441406250e+01 -1.979107475280761719e+01 7.337082624435424805e-01 7.880680084228515625e+00 2.584316492080688477e+00 1.178635358810424805e-01
4.640000000000000000e+03 7.384237670898437500e+01 -2.092477607727050781e+01 8.488541841506958008e-01 7.963387966156005859e+00 2.643672704696655273e+00 -9.987451136112213135e-02
4.641000000000000000e+03 2.322391891479492188e+01 -8.828649520874023438e+00 -4.872860014438629150e-01 2.434985637664794922e-01 -7.313623279333114624e-02 -4.501343369483947754e-01
4.642000000000000000e+03 7.415134429931640625e+00 -2.414343833923339844e+01 2.000828534364700317e-01 -3.479925692081451416e-01 -4.437291994690895081e-02 -3.037436008453369141e-01
4.643000000000000000e+03 7.470653533935546875e+01 1.826805877685546875e+01 1.035547494888305664e+00 7.831278324127197266e+00 2.660047769546508789e+00 6.127733588218688965e-01
4.644000000000000000e+03 5.679347991943359375e+00 -2.588498687744140625e+01 1.311900764703750610e-01 -4.382665753364562988e-01 -9.212294965982437134e-02 -2.225996553897857666e-01
4.645000000000000000e+03 7.394589996337890625e+01 1.674346733093261719e+01 1.342011570930480957e+00 8.547751426696777344e+00 2.966928958892822266e+00 1.155678853392601013e-01
4.646000000000000000e+03 7.339963531494140625e+01 1.372948074340820312e+01 1.238240480422973633e+00 8.970849990844726562e+00 3.062726974487304688e+00 -7.092955708503723145e-01
4.647000000000000000e+03 5.638060569763183594e+00 -2.299600219726562500e+01 1.137082055211067200e-01 -3.913255631923675537e-01 -8.328520506620407104e-02 -3.296132683753967285e-01
4.648000000000000000e+03 5.673016071319580078e+00 -2.401744842529296875e+01 1.337418258190155029e-01 -4.106772840023040771e-01 -8.308064192533493042e-02 -2.933476567268371582e-01
4.649000000000000000e+03 6.549972534179687500e+01 7.412442564964294434e-01 -3.457429632544517517e-02 3.792875528335571289e+00 1.127490401268005371e+00 3.792927861213684082e-01
4.650000000000000000e+03 6.794598102569580078e+00 2.800128555297851562e+01 -4.492251202464103699e-03 -1.234250236302614212e-02 -5.050426349043846130e-03 1.294254977256059647e-02
4.651000000000000000e+03 7.373394775390625000e+01 -1.502278614044189453e+01 2.865766882896423340e-01 8.218218803405761719e+00 2.551438570022583008e+00 9.825516939163208008e-01
4.652000000000000000e+03 7.434938049316406250e+01 2.600429725646972656e+01 -5.352643132209777832e-01 7.911063194274902344e+00 2.212739706039428711e+00 9.064096808433532715e-01
4.653000000000000000e+03 7.399206542968750000e+01 2.504171752929687500e+01 -5.334928035736083984e-01 8.088884353637695312e+00 2.266617536544799805e+00 1.017414450645446777e+00
4.654000000000000000e+03 7.331427764892578125e+01 1.655807495117187500e+01 1.567913055419921875e+00 9.013597488403320312e+00 3.174453258514404297e+00 6.251837313175201416e-02
4.655000000000000000e+03 7.398616027832031250e+01 -1.616696548461914062e+01 5.469010472297668457e-01 8.149659156799316406e+00 2.608968019485473633e+00 8.652870655059814453e-01
4.656000000000000000e+03 7.496271514892578125e+01 -1.594448757171630859e+01 3.850571215152740479e-01 8.087423324584960938e+00 2.541743993759155273e+00 8.446404337882995605e-01
4.657000000000000000e+03 7.470139312744140625e+01 -1.901576423645019531e+01 7.635769844055175781e-01 7.916808605194091797e+00 2.604115724563598633e+00 3.071942627429962158e-01
4.658000000000000000e+03 7.367205047607421875e+01 -1.950526618957519531e+01 1.015103220939636230e+00 8.061389923095703125e+00 2.722947835922241211e+00 2.461156845092773438e-01
4.659000000000000000e+03 7.475988769531250000e+01 -1.339978885650634766e+01 -9.602453559637069702e-02 8.250979423522949219e+00 2.446486473083496094e+00 9.378551840782165527e-01
4.660000000000000000e+03 7.418414306640625000e+01 -1.445452308654785156e+01 1.363291889429092407e-01 8.216005325317382812e+00 2.505700349807739258e+00 9.841609001159667969e-01
4.661000000000000000e+03 7.466200256347656250e+01 -1.820019721984863281e+01 7.274067401885986328e-01 7.971169471740722656e+00 2.609572887420654297e+00 4.815983474254608154e-01
4.662000000000000000e+03 6.013364315032958984e+00 1.547142410278320312e+01 1.980757133424049243e-06 -1.160193234682083130e-03 -3.474637342151254416e-04 -1.561897341161966324e-03
4.663000000000000000e+03 5.969914436340332031e+00 -6.895157337188720703e+00 -4.794854298233985901e-02 -3.252986446022987366e-02 -2.414352260529994965e-02 9.957271814346313477e-02
4.664000000000000000e+03 5.235293865203857422e+00 -8.900150299072265625e+00 -9.525230526924133301e-02 -1.075326371937990189e-02 -3.180167078971862793e-02 6.261956691741943359e-02
4.665000000000000000e+03 7.475688171386718750e+01 1.901383590698242188e+01 8.886819481849670410e-01 7.823715686798095703e+00 2.613719224929809570e+00 8.404672741889953613e-01
4.666000000000000000e+03 7.390283966064453125e+01 1.754651069641113281e+01 1.356711149215698242e+00 8.486215591430664062e+00 2.952878236770629883e+00 3.689129650592803955e-01
4.667000000000000000e+03 7.477792358398437500e+01 -1.274244594573974609e+01 -1.868426650762557983e-01 8.280179977416992188e+00 2.428001165390014648e+00 9.006235003471374512e-01
4.668000000000000000e+03 7.477087402343750000e+01 1.041386222839355469e+01 3.031770884990692139e-01 7.884704113006591797e+00 2.456364393234252930e+00 -1.256410956382751465e+00
4.669000000000000000e+03 7.447890472412109375e+01 1.157213401794433594e+01 5.539420247077941895e-01 8.039876937866210938e+00 2.578145742416381836e+00 -1.112640500068664551e+00
4.670000000000000000e+03 7.506433868408203125e+01 8.057122230529785156e+00 -4.276016354560852051e-02 7.791008472442626953e+00 2.324474334716796875e+00 -1.310620427131652832e+00
4.671000000000000000e+03 7.423293304443359375e+01 6.532111167907714844e+00 -2.577408850193023682e-01 7.980079650878906250e+00 2.316701650619506836e+00 -1.225201010704040527e+00
4.672000000000000000e+03 7.195602416992187500e+01 8.171307563781738281e+00 -1.103668361902236938e-01 8.688241958618164062e+00 2.573362350463867188e+00 -9.325619339942932129e-01
4.673000000000000000e+03 7.342007446289062500e+01 7.803365707397460938e+00 -1.299484819173812866e-01 8.286142349243164062e+00 2.446858167648315430e+00 -1.227735877037048340e+00
4.674000000000000000e+03 7.462834167480468750e+01 8.333868980407714844e+00 -3.007980622351169586e-02 7.943483352661132812e+00 2.374021053314208984e+00 -1.325010180473327637e+00
4.675000000000000000e+03 7.399449157714843750e+01 -1.804619216918945312e+01 8.357318639755249023e-01 8.055283546447753906e+00 2.667304515838623047e+00 5.285292267799377441e-01
4.676000000000000000e+03 7.472483062744140625e+01 -1.042077732086181641e+01 -4.788062572479248047e-01 8.284783363342285156e+00 2.341793298721313477e+00 6.112538576126098633e-01
4.677000000000000000e+03 7.081235504150390625e+01 -1.164242458343505859e+01 -9.994422197341918945e-01 7.755056381225585938e+00 2.026684284210205078e+00 3.735382258892059326e-01
4.678000000000000000e+03 7.347353363037109375e+01 1.128425121307373047e+01 6.531131863594055176e-01 8.672878265380859375e+00 2.797797441482543945e+00 -1.101429104804992676e+00
4.679000000000000000e+03 7.316758728027343750e+01 -1.032361984252929688e+01 -7.263834476470947266e-01 8.024140357971191406e+00 2.189327001571655273e+00 5.186821818351745605e-01
4.680000000000000000e+03 7.503339385986328125e+01 8.599768638610839844e+00 -8.546185679733753204e-03 7.790407180786132812e+00 2.334558248519897461e+00 -1.318372368812561035e+00
4.681000000000000000e+03 7.375316619873046875e+01 9.282804489135742188e+00 1.297668516635894775e-01 8.324560165405273438e+00 2.536298036575317383e+00 -1.256036281585693359e+00
4.682000000000000000e+03 7.365803527832031250e+01 -1.860591316223144531e+01 9.458919167518615723e-01 8.093380928039550781e+00 2.711781978607177734e+00 4.450660943984985352e-01
4.683000000000000000e+03 7.436141204833984375e+01 -5.665886402130126953e-01 -3.748713731765747070e-01 7.770508289337158203e+00 2.218691110610961914e+00 -6.427893042564392090e-01
4.684000000000000000e+03 7.462595367431640625e+01 1.304450035095214844e+01 7.911035418510437012e-01 8.001340866088867188e+00 2.637733221054077148e+00 -8.921371698379516602e-01
4.685000000000000000e+03 7.403904724121093750e+01 1.400247001647949219e+01 1.074355006217956543e+00 8.429906845092773438e+00 2.851278543472290039e+00 -6.248716711997985840e-01
4.686000000000000000e+03 7.462308502197265625e+01 3.320959806442260742e+00 -3.464611470699310303e-01 7.852540493011474609e+00 2.251823902130126953e+00 -9.850016236305236816e-01
4.687000000000000000e+03 7.422215270996093750e+01 1.560321927070617676e+00 -3.916096985340118408e-01 7.756782054901123047e+00 2.209551811218261719e+00 -8.193975090980529785e-01
4.688000000000000000e+03 7.405543518066406250e+01 -2.984729528427124023e+00 -4.532188475131988525e-01 7.707580089569091797e+00 2.176308393478393555e+00 -4.308741688728332520e-01
4.689000000000000000e+03 7.401147460937500000e+01 -5.491802692413330078e+00 -5.505468249320983887e-01 7.828790187835693359e+00 2.183472871780395508e+00 -1.713724583387374878e-01
4.690000000000000000e+03 7.476319122314453125e+01 -2.226984024047851562e+00 -3.629290759563446045e-01 7.932208061218261719e+00 2.270783662796020508e+00 -4.831922650337219238e-01
4.691000000000000000e+03 7.341188049316406250e+01 -3.763272285461425781e+00 -5.331543684005737305e-01 7.519935131072998047e+00 2.096034288406372070e+00 -3.808892965316772461e-01
4.692000000000000000e+03 7.462556457519531250e+01 4.208484649658203125e+00 -3.418358266353607178e-01 7.862596035003662109e+00 2.256227970123291016e+00 -1.060705661773681641e+00
4.693000000000000000e+03 7.260115814208984375e+01 1.052975654602050781e+00 -5.151550173759460449e-01 7.340024948120117188e+00 2.047461032867431641e+00 -7.056136727333068848e-01
4.694000000000000000e+03 7.404444122314453125e+01 -6.311430454254150391e+00 -5.974813103675842285e-01 7.887885570526123047e+00 2.187121152877807617e+00 -6.164449080824851990e-02
4.695000000000000000e+03 7.477028656005859375e+01 -8.738689422607421875e+00 -5.229635834693908691e-01 8.247261047363281250e+00 2.317289113998413086e+00 3.533810973167419434e-01
4.696000000000000000e+03 7.078409576416015625e+01 -1.093866157531738281e+01 -1.131857395172119141e+00 7.563405036926269531e+00 1.929464221000671387e+00 2.099064588546752930e-01
4.697000000000000000e+03 7.185285186767578125e+01 -4.232322692871093750e+00 -6.750479340553283691e-01 6.911561012268066406e+00 1.870953917503356934e+00 -4.113234579563140869e-01
4.698000000000000000e+03 7.471942901611328125e+01 5.024028778076171875e+00 -2.948452830314636230e-01 7.882885456085205078e+00 2.276412010192871094e+00 -1.138911843299865723e+00
4.699000000000000000e+03 6.770745849609375000e+01 4.279914855957031250e+00 -3.473010659217834473e-01 6.030914783477783203e+00 1.705084085464477539e+00 5.488232374191284180e-01
4.700000000000000000e+03 7.412535095214843750e+01 -1.257163643836975098e+00 -4.175455570220947266e-01 7.694751739501953125e+00 2.183161735534667969e+00 -5.871078968048095703e-01
4.701000000000000000e+03 7.400480651855468750e+01 5.214167118072509766e+00 -3.516975045204162598e-01 7.915401935577392578e+00 2.269111394882202148e+00 -1.125285983085632324e+00
4.702000000000000000e+03 7.398438930511474609e+00 -3.076509666442871094e+01 1.111178845167160034e-01 -3.598993718624114990e-01 -7.463444769382476807e-02 -8.991739153861999512e-02
4.703000000000000000e+03 7.409083557128906250e+01 5.921578884124755859e+00 -3.018748164176940918e-01 7.966379642486572266e+00 2.299351453781127930e+00 -1.184174537658691406e+00
4.704000000000000000e+03 6.887400054931640625e+01 6.004538059234619141e+00 -4.091302752494812012e-01 7.416682720184326172e+00 2.102265834808349609e+00 2.996131777763366699e-01
4.705000000000000000e+03 7.408214569091796875e+01 -7.116229057312011719e+00 -6.161096692085266113e-01 7.961353302001953125e+00 2.203573226928710938e+00 5.599240213632583618e-02
4.706000000000000000e+03 7.420325469970703125e+01 1.254326629638671875e+01 7.976564168930053711e-01 8.239845275878906250e+00 2.711250543594360352e+00 -9.430652856826782227e-01
4.707000000000000000e+03 7.404399108886718750e+01 -1.056408882141113281e+01 -5.648725628852844238e-01 8.187109947204589844e+00 2.286671400070190430e+00 6.118289232254028320e-01
4.708000000000000000e+03 7.410401916503906250e+01 -7.905682086944580078e+00 -6.342440247535705566e-01 8.029936790466308594e+00 2.218708038330078125e+00 1.804763972759246826e-01
4.709000000000000000e+03 7.404846191406250000e+01 -9.421574592590332031e+00 -6.217371225357055664e-01 8.128923416137695312e+00 2.252156019210815430e+00 4.331123828887939453e-01
4.710000000000000000e+03 1.305859947204589844e+01 1.644297981262207031e+01 -1.225207000970840454e-03 -4.282263107597827911e-03 -1.652240986004471779e-03 2.762034418992698193e-04
4.711000000000000000e+03 7.304475402832031250e+01 -2.689344787597656250e+01 -2.798228561878204346e-01 7.626306533813476562e+00 2.203945159912109375e+00 -2.980074584484100342e-01
4.712000000000000000e+03 7.427396392822265625e+01 -2.601300621032714844e+01 -1.137371584773063660e-01 7.808383941650390625e+00 2.308394193649291992e+00 -4.822653830051422119e-01
4.713000000000000000e+03 5.374164581298828125e+00 1.959738349914550781e+01 -1.777957193553447723e-03 -1.154916943050920963e-03 -8.798622293397784233e-04 -1.680527639109641314e-04
4.714000000000000000e+03 6.175750732421875000e+00 2.113899040222167969e+01 -4.219218622893095016e-03 -2.588674426078796387e-03 -2.042367821559309959e-03 1.690020668320357800e-03
4.715000000000000000e+03 5.377622604370117188e+00 1.314212703704833984e+01 5.815503536723554134e-04 -4.269444034434854984e-04 4.638177779270336032e-05 -1.567144296132028103e-03
4.716000000000000000e+03 5.999997138977050781e+00 1.469731140136718750e+01 -8.109994814731180668e-05 -1.078986446373164654e-03 -3.480259038042277098e-04 -1.541785546578466892e-03
4.717000000000000000e+03 6.030759811401367188e+00 -1.469104576110839844e+01 -2.323970198631286621e-01 -1.260843724012374878e-01 -1.075444146990776062e-01 -2.408212274312973022e-01
4.718000000000000000e+03 6.234423160552978516e+00 -1.585565948486328125e+01 -2.076039165258407593e-01 -1.689303219318389893e-01 -1.129602715373039246e-01 -3.160172700881958008e-01
4.719000000000000000e+03 5.993033409118652344e+00 -1.872113609313964844e+01 -5.521421879529953003e-02 -2.639121413230895996e-01 -9.573790431022644043e-02 -4.123380184173583984e-01
4.720000000000000000e+03 5.629720687866210938e+00 -1.945522117614746094e+01 -1.467025279998779297e-02 -2.789750397205352783e-01 -8.809358626604080200e-02 -4.036437869071960449e-01
4.721000000000000000e+03 7.236437988281250000e+01 1.787516975402832031e+01 1.831886529922485352e+00 9.888772964477539062e+00 3.516197681427001953e+00 2.994365990161895752e-01
4.722000000000000000e+03 7.414308166503906250e+01 1.981449890136718750e+01 8.817141056060791016e-01 8.245718002319335938e+00 2.738229751586914062e+00 1.050220370292663574e+00
4.723000000000000000e+03 7.260214996337890625e+01 1.940709877014160156e+01 1.418118834495544434e+00 9.413077354431152344e+00 3.249358892440795898e+00 8.060173988342285156e-01
4.724000000000000000e+03 5.209589481353759766e+00 -1.040938091278076172e+01 -1.334374248981475830e-01 -1.660736463963985443e-02 -4.501343891024589539e-02 9.673477150499820709e-03
4.725000000000000000e+03 6.583493709564208984e+00 -7.018079280853271484e+00 -6.084143742918968201e-02 -5.661398917436599731e-02 -3.523662686347961426e-02 9.341025352478027344e-02
4.726000000000000000e+03 6.111840248107910156e+00 -1.235188198089599609e+01 -2.237548679113388062e-01 -8.515127003192901611e-02 -9.267184138298034668e-02 -9.540995955467224121e-02
4.727000000000000000e+03 5.147058010101318359e+00 -1.408539485931396484e+01 -1.773981153964996338e-01 -6.657810509204864502e-02 -7.319287210702896118e-02 -1.812088489532470703e-01
4.728000000000000000e+03 6.736320972442626953e+00 -1.281732368469238281e+01 -2.677772641181945801e-01 -1.301039159297943115e-01 -1.193643584847450256e-01 -1.327018439769744873e-01
4.729000000000000000e+03 5.683661937713623047e+00 -1.287635993957519531e+01 -2.045599520206451416e-01 -7.066346704959869385e-02 -8.256702870130538940e-02 -1.197895780205726624e-01
4.730000000000000000e+03 5.392942905426025391e+00 -1.739940834045410156e+01 -1.052611470222473145e-01 -1.913819909095764160e-01 -8.899293839931488037e-02 -3.558180928230285645e-01
4.731000000000000000e+03 6.417631626129150391e+00 -1.668689537048339844e+01 -1.831426620483398438e-01 -2.082697749137878418e-01 -1.174237281084060669e-01 -3.695768117904663086e-01
4.732000000000000000e+03 6.470093727111816406e+00 -1.427973842620849609e+01 -2.672745287418365479e-01 -1.415647566318511963e-01 -1.226517781615257263e-01 -2.239301204681396484e-01
4.733000000000000000e+03 5.491991519927978516e+00 -1.890189552307128906e+01 -4.088190570473670959e-02 -2.568444609642028809e-01 -8.931791037321090698e-02 -3.951524496078491211e-01
4.734000000000000000e+03 7.009022712707519531e+00 -1.770162010192871094e+01 -1.441862434148788452e-01 -2.610565423965454102e-01 -1.215728372335433960e-01 -4.187862873077392578e-01
4.735000000000000000e+03 6.686068534851074219e+00 2.653609466552734375e+01 -5.256836302578449249e-03 -9.256554767489433289e-03 -4.354017321020364761e-03 1.044545788317918777e-02
4.736000000000000000e+03 9.869050979614257812e+00 -1.092459583282470703e+01 -3.780977427959442139e-01 -3.103950023651123047e-01 -2.065478265285491943e-01 -8.484341204166412354e-02
4.737000000000000000e+03 6.469215393066406250e+00 -1.178614330291748047e+01 -2.328823953866958618e-01 -1.000346168875694275e-01 -9.987509995698928833e-02 -6.880749762058258057e-02
4.738000000000000000e+03 6.120440959930419922e+00 2.032417106628417969e+01 -2.859735628589987755e-03 -2.225385978817939758e-03 -1.525536528788506985e-03 6.510779494419693947e-04
4.739000000000000000e+03 6.332495689392089844e+00 -1.782662963867187500e+01 -1.206622570753097534e-01 -2.400826662778854370e-01 -1.082234755158424377e-01 -4.039376080036163330e-01
4.740000000000000000e+03 6.090906143188476562e+00 1.953062438964843750e+01 -2.850122284144163132e-03 -1.909064012579619884e-03 -1.427755923941731453e-03 1.117188294301740825e-04
4.741000000000000000e+03 7.327018737792968750e+01 -2.579374504089355469e+01 -1.346850246191024780e-01 7.790270328521728516e+00 2.296675443649291992e+00 -4.124400317668914795e-01
4.742000000000000000e+03 5.409133911132812500e+00 1.232963275909423828e+01 3.921334282495081425e-04 -4.441034107003360987e-04 -1.559099473524838686e-05 -1.401892746798694134e-03
4.743000000000000000e+03 6.039380073547363281e+00 1.392406845092773438e+01 5.086133023723959923e-04 -1.018029171973466873e-03 -1.528247667010873556e-04 -1.560428529046475887e-03
4.744000000000000000e+03 7.829730987548828125e+00 6.610251903533935547e+00 6.719318917021155357e-04 -5.468218587338924408e-04 3.753302007680758834e-05 -3.584457444958388805e-04
4.745000000000000000e+03 5.158862113952636719e+00 -1.960273933410644531e+01 -5.677675828337669373e-03 -2.775323390960693359e-01 -8.496300876140594482e-02 -3.803246319293975830e-01
4.746000000000000000e+03 6.242662429809570312e+00 -2.007249259948730469e+01 2.310594543814659119e-02 -3.118896484375000000e-01 -8.663510531187057495e-02 -4.166364371776580811e-01
4.747000000000000000e+03 8.454691886901855469e+00 8.752705574035644531e+00 9.050810476765036583e-04 -1.073401188477873802e-03 -5.049602987128309906e-05 -4.122829122934490442e-04
4.748000000000000000e+03 9.242819786071777344e+00 8.695511817932128906e+00 1.068134792149066925e-03 -1.075277687050402164e-03 -2.142878201993880793e-06 -2.400610101176425815e-04
4.749000000000000000e+03 6.120326042175292969e+00 -2.675436973571777344e+01 1.413066983222961426e-01 -4.191950261592864990e-01 -8.336649835109710693e-02 -1.946407556533813477e-01
4.750000000000000000e+03 1.320294666290283203e+01 1.556398582458496094e+01 2.176126290578395128e-04 -3.560682758688926697e-03 -1.002921024337410927e-03 7.561990641988813877e-04
4.751000000000000000e+03 6.064078807830810547e+00 1.627746200561523438e+01 -7.089129067026078701e-04 -1.357696484774351120e-03 -6.199828349053859711e-04 -1.398506923578679562e-03
4.752000000000000000e+03 6.701266479492187500e+01 -3.295590972900390625e+01 -1.514675915241241455e-01 4.274170875549316406e+00 1.236811041831970215e+00 6.752451658248901367e-01
4.753000000000000000e+03 7.292100524902343750e+01 -3.221469879150390625e+01 -3.115893006324768066e-01 6.976078510284423828e+00 1.999346733093261719e+00 4.811925813555717468e-02
4.754000000000000000e+03 6.205173969268798828e+00 7.465903282165527344e+00 6.836703396402299404e-04 -3.048699581995606422e-04 1.136401042458601296e-04 -6.832686485722661018e-04
4.755000000000000000e+03 6.154102325439453125e+00 8.998554229736328125e+00 7.750009535811841488e-04 -4.456538008525967598e-04 9.880415018415078521e-05 -8.986983448266983032e-04
4.756000000000000000e+03 6.142411231994628906e+00 1.311367988586425781e+01 3.360575356055051088e-04 -9.923925390467047691e-04 -1.969005097635090351e-04 -1.416639192029833794e-03
4.757000000000000000e+03 6.152923583984375000e+00 1.059878635406494141e+01 8.131851209327578545e-04 -6.232858868315815926e-04 5.696976950275711715e-05 -1.152036013081669807e-03
4.758000000000000000e+03 6.198131084442138672e+00 1.226267337799072266e+01 7.849478279240429401e-04 -8.897477528080344200e-04 -3.143998765153810382e-05 -1.391705241985619068e-03
4.759000000000000000e+03 7.257820892333984375e+01 -2.655625534057617188e+01 -3.017812073230743408e-01 7.629531860351562500e+00 2.198325157165527344e+00 -2.699032127857208252e-01
4.760000000000000000e+03 7.394155883789062500e+01 -2.803745079040527344e+01 -2.917096912860870361e-01 7.621820926666259766e+00 2.199033260345458984e+00 -3.187855482101440430e-01
4.761000000000000000e+03 6.692609786987304688e+00 2.732669258117675781e+01 -6.197878159582614899e-03 -1.026358362287282944e-02 -4.938438534736633301e-03 1.156151015311479568e-02
4.762000000000000000e+03 5.173241615295410156e+00 -2.729500579833984375e+01 1.052259951829910278e-01 -4.871339499950408936e-01 -1.145723834633827209e-01 -1.642614006996154785e-01
4.763000000000000000e+03 5.449627304077148438e+01 -4.384724140167236328e+00 -2.812237143516540527e-01 -1.426042467355728149e-01 -1.271483898162841797e-01 1.073659777641296387e+00
4.764000000000000000e+03 6.362132072448730469e+00 2.321985244750976562e+01 -4.748280160129070282e-03 -4.187737125903367996e-03 -2.680805278941988945e-03 4.465940408408641815e-03
4.765000000000000000e+03 6.541677951812744141e+00 2.484832000732421875e+01 -5.409900099039077759e-03 -6.331223994493484497e-03 -3.522337181493639946e-03 7.263474632054567337e-03
4.766000000000000000e+03 6.584896087646484375e+00 2.568792724609375000e+01 -6.516716443002223969e-03 -7.299284450709819794e-03 -4.144800361245870590e-03 8.866877295076847076e-03
4.767000000000000000e+03 6.720152378082275391e+00 -2.557757759094238281e+01 1.750007420778274536e-01 -3.835944235324859619e-01 -6.257810443639755249e-02 -2.414431273937225342e-01
4.768000000000000000e+03 4.477514648437500000e+01 -6.200597763061523438e+00 -7.909725308418273926e-01 9.243646264076232910e-01 4.001762345433235168e-02 6.659428030252456665e-02
4.769000000000000000e+03 7.317821502685546875e+00 -7.614412307739257812e+00 -9.712899476289749146e-02 -9.309168159961700439e-02 -5.706620216369628906e-02 7.481798529624938965e-02
4.770000000000000000e+03 1.194430160522460938e+01 -3.019874000549316406e+01 2.224057465791702271e-01 -1.149541605263948441e-02 6.327309459447860718e-02 -1.287886798381805420e-01
4.771000000000000000e+03 7.498608398437500000e+01 2.707891273498535156e+01 -4.765038192272186279e-01 7.779367923736572266e+00 2.190859317779541016e+00 8.017309904098510742e-01
4.772000000000000000e+03 7.371851348876953125e+01 2.571210289001464844e+01 -6.673341393470764160e-01 8.078016281127929688e+00 2.223204612731933594e+00 8.856968283653259277e-01
4.773000000000000000e+03 1.280172061920166016e+01 -7.963858604431152344e+00 -2.231681644916534424e-01 -2.994686067104339600e-01 -1.567910313606262207e-01 -1.447004079818725586e-01
4.774000000000000000e+03 7.365486145019531250e+01 2.770278167724609375e+01 -6.874362230300903320e-01 7.752591133117675781e+00 2.119546413421630859e+00 5.460026860237121582e-01
4.775000000000000000e+03 8.702497482299804688e+00 2.656436729431152344e+01 -9.876550175249576569e-03 -1.121894922107458115e-02 -6.328649818897247314e-03 1.459148246794939041e-02
4.776000000000000000e+03 8.540170669555664062e+00 3.210653686523437500e+01 1.105128787457942963e-03 -2.633788064122200012e-02 -7.569825742393732071e-03 2.061271481215953827e-02
4.777000000000000000e+03 2.916664123535156250e+01 -8.509268760681152344e+00 -8.525363802909851074e-01 -1.146155074238777161e-01 -2.901455760002136230e-01 -4.926745295524597168e-01
4.778000000000000000e+03 1.342225360870361328e+01 1.470100212097167969e+01 8.315629675053060055e-04 -3.201321931555867195e-03 -7.109276484698057175e-04 1.042520161718130112e-03
4.779000000000000000e+03 4.025641632080078125e+01 1.962127113342285156e+01 -3.005552291870117188e-01 8.698020875453948975e-02 -6.407250463962554932e-02 7.616519927978515625e-02
4.780000000000000000e+03 3.638836669921875000e+01 -1.042810535430908203e+01 1.245718263089656830e-02 -3.257051110267639160e-01 -9.397438168525695801e-02 -6.737376004457473755e-02
4.781000000000000000e+03 1.521839523315429688e+01 -7.580485820770263672e+00 -2.509397268295288086e-01 -2.353368550539016724e-01 -1.458829790353775024e-01 -3.066896796226501465e-01
4.782000000000000000e+03 1.451199913024902344e+01 -7.392171859741210938e+00 -2.200571447610855103e-01 -2.481498718261718750e-01 -1.404621005058288574e-01 -2.512479424476623535e-01
4.783000000000000000e+03 4.082927703857421875e+01 -9.302610397338867188e+00 -1.013870909810066223e-01 1.752752214670181274e-01 2.216643840074539185e-02 7.661997806280851364e-03
4.784000000000000000e+03 1.263188743591308594e+01 6.225183963775634766e+00 6.130964611656963825e-04 -4.222000134177505970e-04 5.726894232793711126e-05 4.568051372189074755e-04
4.785000000000000000e+03 3.899129104614257812e+01 -1.546990776062011719e+01 8.504630327224731445e-01 4.434866085648536682e-02 2.684434950351715088e-01 -9.455564618110656738e-02
4.786000000000000000e+03 6.517076873779296875e+01 -8.038825988769531250e+00 -8.881043195724487305e-01 2.480379104614257812e+00 4.776824414730072021e-01 -6.404877305030822754e-01
4.787000000000000000e+03 6.417878723144531250e+01 -6.225543498992919922e+00 -5.117288231849670410e-01 2.127161026000976562e+00 4.846296906471252441e-01 -2.967003583908081055e-01
4.788000000000000000e+03 5.270755004882812500e+01 -3.519031763076782227e+00 -3.791215419769287109e-01 9.817907214164733887e-02 -8.428274095058441162e-02 1.107835412025451660e+00
4.789000000000000000e+03 6.469659423828125000e+01 -1.265056729316711426e+00 -1.258200313895940781e-02 3.090596199035644531e+00 9.234042763710021973e-01 1.624031513929367065e-01
4.790000000000000000e+03 8.026358604431152344e+00 -1.639735794067382812e+01 -2.724585533142089844e-01 -2.882226705551147461e-01 -1.682043820619583130e-01 -3.961333334445953369e-01
4.791000000000000000e+03 8.498630523681640625e+00 -1.571044445037841797e+01 -3.571970164775848389e-01 -3.134146332740783691e-01 -2.011834979057312012e-01 -3.676471710205078125e-01
4.792000000000000000e+03 7.185989379882812500e+01 -1.859427070617675781e+01 1.348185420036315918e+00 8.664691925048828125e+00 3.003863096237182617e+00 5.453536510467529297e-01
4.793000000000000000e+03 7.241094207763671875e+01 -2.041563224792480469e+01 1.257937431335449219e+00 8.290627479553222656e+00 2.864569425582885742e+00 9.797946363687515259e-02
4.794000000000000000e+03 3.501208496093750000e+01 2.332826614379882812e+01 -2.081373333930969238e-01 -2.792797423899173737e-02 -7.081959396600723267e-02 1.265458464622497559e-01
4.795000000000000000e+03 4.577887725830078125e+01 1.818577957153320312e+01 -3.466230332851409912e-01 9.646632522344589233e-02 -7.504700869321823120e-02 -5.914886295795440674e-02
4.796000000000000000e+03 4.133730697631835938e+01 1.593362045288085938e+01 -2.054479718208312988e-01 5.142216756939888000e-02 -4.620774090290069580e-02 3.011691942811012268e-02
4.797000000000000000e+03 2.867634773254394531e+01 -8.177309989929199219e+00 -9.476064443588256836e-01 -5.611303076148033142e-02 -3.011158406734466553e-01 -5.043999552726745605e-01
4.798000000000000000e+03 2.776953315734863281e+01 -7.773341178894042969e+00 -1.011448979377746582e+00 6.568448990583419800e-02 -2.837293446063995361e-01 -4.799055159091949463e-01
4.799000000000000000e+03 4.500752258300781250e+01 1.575569629669189453e+01 -1.939894556999206543e-01 3.262715786695480347e-02 -4.840868711471557617e-02 -4.023003578186035156e-02
4.800000000000000000e+03 5.080432891845703125e+01 -5.132305622100830078e+00 -6.197441816329956055e-01 6.679567098617553711e-01 1.446376461535692215e-02 1.056468367576599121e+00
4.801000000000000000e+03 6.871174621582031250e+01 1.114755749702453613e+00 -4.616558551788330078e-01 5.802611351013183594e+00 1.602286577224731445e+00 -8.488170057535171509e-02
4.802000000000000000e+03 7.200653839111328125e+01 2.036924362182617188e+01 1.151117086410522461e+00 9.764477729797363281e+00 3.274678468704223633e+00 9.585046768188476562e-01
4.803000000000000000e+03 7.111586761474609375e+01 1.970417594909667969e+01 1.826913237571716309e+00 1.068218612670898438e+01 3.752729892730712891e+00 5.018671751022338867e-01
4.804000000000000000e+03 3.749275588989257812e+01 -9.578791618347167969e+00 -2.219487726688385010e-01 -3.014608323574066162e-01 -1.570228785276412964e-01 -9.218669682741165161e-02
4.805000000000000000e+03 3.814616012573242188e+01 -1.014140987396240234e+01 2.298081479966640472e-02 -2.345234304666519165e-01 -6.346278637647628784e-02 -4.698285833001136780e-02
4.806000000000000000e+03 1.436966514587402344e+01 -9.638272285461425781e+00 -4.201326966285705566e-01 -4.239603877067565918e-01 -2.532279193401336670e-01 -3.038491904735565186e-01
4.807000000000000000e+03 1.534584236145019531e+01 -8.917929649353027344e+00 -3.754849731922149658e-01 -3.294139504432678223e-01 -2.114696800708770752e-01 -3.668262958526611328e-01
4.808000000000000000e+03 9.468784332275390625e+00 6.499737262725830078e+00 7.543516694568097591e-04 -6.656464538536965847e-04 2.661155849636998028e-05 -6.887877680128440261e-05
4.809000000000000000e+03 1.108455848693847656e+01 6.367867469787597656e+00 7.349338266067206860e-04 -6.175197195261716843e-04 3.522422775859013200e-05 2.321664651390165091e-04
4.810000000000000000e+03 1.431071949005126953e+01 1.879310417175292969e+01 -8.005660027265548706e-03 -3.829508787021040916e-03 -3.550550667569041252e-03 -1.014780864352360368e-04
4.811000000000000000e+03 6.614209651947021484e+00 -7.632162570953369141e+00 -8.372423797845840454e-02 -6.377816200256347656e-02 -4.425071924924850464e-02 8.254987001419067383e-02
4.812000000000000000e+03 8.947820663452148438e+00 -8.161732673645019531e+00 -1.584143638610839844e-01 -1.806382387876510620e-01 -1.017157807946205139e-01 3.049742430448532104e-02
4.813000000000000000e+03 3.188925170898437500e+01 -9.062065124511718750e+00 -6.944662928581237793e-01 -3.030126988887786865e-01 -2.992436885833740234e-01 -3.184265494346618652e-01
4.814000000000000000e+03 4.064627838134765625e+01 -2.739848899841308594e+01 9.447430074214935303e-02 6.907477378845214844e-01 2.355666011571884155e-01 2.562851011753082275e-01
4.815000000000000000e+03 7.117726898193359375e+01 -2.620541381835937500e+01 -3.337143063545227051e-01 7.485608100891113281e+00 2.145568132400512695e+00 6.369641050696372986e-03
4.816000000000000000e+03 4.026058197021484375e+01 -1.997713851928710938e+01 3.509247601032257080e-01 6.640573143959045410e-01 3.044946193695068359e-01 -3.281198814511299133e-02
4.817000000000000000e+03 8.931360244750976562e+00 -6.823801040649414062e+00 -7.880204170942306519e-02 -1.387114226818084717e-01 -6.525404006242752075e-02 5.386444926261901855e-02
4.818000000000000000e+03 4.368362808227539062e+01 -1.148948097229003906e+01 5.424062013626098633e-01 1.085041165351867676e+00 4.882341921329498291e-01 3.146849870681762695e-01
4.819000000000000000e+03 6.616410827636718750e+01 8.980126380920410156e-01 -1.315219402313232422e-01 4.233127593994140625e+00 1.230481743812561035e+00 3.177023530006408691e-01
4.820000000000000000e+03 7.293537139892578125e+01 3.740162372589111328e+00 -4.775888323783874512e-01 7.695912361145019531e+00 2.165497064590454102e+00 -8.883786201477050781e-01
4.821000000000000000e+03 7.076975250244140625e+01 -1.227454090118408203e+01 -8.601505756378173828e-01 7.873585224151611328e+00 2.104030370712280273e+00 4.681982100009918213e-01
4.822000000000000000e+03 7.349566650390625000e+01 -1.768713569641113281e+01 9.184246063232421875e-01 8.173053741455078125e+00 2.727443456649780273e+00 6.482401490211486816e-01
4.823000000000000000e+03 5.627004623413085938e+01 -4.979729175567626953e+00 -3.107440471649169922e-01 -1.691728979349136353e-01 -1.439750790596008301e-01 8.309011459350585938e-01
4.824000000000000000e+03 7.229080963134765625e+01 -2.200126266479492188e+01 9.101440310478210449e-01 8.206947326660156250e+00 2.735127210617065430e+00 -2.324229776859283447e-01
4.825000000000000000e+03 9.473013877868652344e+00 -1.150088405609130859e+01 -3.885389566421508789e-01 -2.982944846153259277e-01 -2.060500234365463257e-01 -1.036912724375724792e-01
4.826000000000000000e+03 3.791308212280273438e+01 2.229566574096679688e+01 -2.601293325424194336e-01 4.015282168984413147e-02 -6.599295139312744141e-02 1.179467067122459412e-01
4.827000000000000000e+03 3.809765625000000000e+01 2.431044387817382812e+01 -2.175448834896087646e-01 4.214192554354667664e-02 -5.262088775634765625e-02 1.509934514760971069e-01
4.828000000000000000e+03 4.043107604980468750e+01 1.839332199096679688e+01 -2.821763455867767334e-01 7.809871435165405273e-02 -6.122328713536262512e-02 6.110832840204238892e-02
4.829000000000000000e+03 6.803125000000000000e+01 -8.592735290527343750e+00 -1.260084748268127441e+00 5.099514007568359375e+00 1.151828765869140625e+00 -7.635406851768493652e-01
4.830000000000000000e+03 6.732518005371093750e+01 -8.502240180969238281e+00 -1.205040812492370605e+00 4.456354618072509766e+00 9.753941297531127930e-01 -8.363398313522338867e-01
4.831000000000000000e+03 5.847710037231445312e+01 -4.044582843780517578e+00 -5.852202698588371277e-02 2.433204799890518188e-01 5.543953552842140198e-02 5.520018339157104492e-01
4.832000000000000000e+03 7.191678619384765625e+01 1.063179874420166016e+01 5.371398329734802246e-01 9.406715393066406250e+00 2.983156681060791016e+00 -8.862862586975097656e-01
4.833000000000000000e+03 7.243203639984130859e+00 -1.837673187255859375e+01 -9.408115595579147339e-02 -2.918227016925811768e-01 -1.157711595296859741e-01 -4.430378973484039307e-01
4.834000000000000000e+03 7.145281982421875000e+01 2.141630172729492188e+01 5.660256743431091309e-01 9.978420257568359375e+00 3.163333654403686523e+00 9.879035949707031250e-01
4.835000000000000000e+03 6.672735595703125000e+01 2.485051393508911133e+00 -2.159984707832336426e-01 4.923895359039306641e+00 1.412369012832641602e+00 5.048719048500061035e-01
4.836000000000000000e+03 5.236358261108398438e+01 -4.949579238891601562e+00 -4.893083274364471436e-01 2.390892952680587769e-01 -7.506570965051651001e-02 1.238457798957824707e+00
4.837000000000000000e+03 5.403739547729492188e+01 -4.046491622924804688e+00 -2.753703892230987549e-01 -5.554107204079627991e-02 -9.927343577146530151e-02 1.104992866516113281e+00
4.838000000000000000e+03 4.016959381103515625e+01 -1.729601097106933594e+01 6.454908251762390137e-01 4.999207258224487305e-01 3.436234593391418457e-01 -9.083797037601470947e-02
4.839000000000000000e+03 6.990077972412109375e+01 -2.725131797790527344e+01 -4.936770796775817871e-01 6.834155559539794922e+00 1.902143478393554688e+00 4.110057353973388672e-01
4.840000000000000000e+03 5.921123123168945312e+01 -2.406078815460205078e+00 2.691758871078491211e-01 5.626649856567382812e-01 2.495522499084472656e-01 4.488907158374786377e-01
4.841000000000000000e+03 6.035799026489257812e+01 -5.737266540527343750e+00 -4.068723022937774658e-01 5.272265672683715820e-01 3.610628843307495117e-02 3.923016190528869629e-01
4.842000000000000000e+03 2.316496276855468750e+01 -7.633965969085693359e+00 -5.931313037872314453e-01 2.477798908948898315e-01 -1.036054268479347229e-01 -3.858806490898132324e-01
4.843000000000000000e+03 2.266109085083007812e+01 -8.866674423217773438e+00 -4.692387580871582031e-01 2.359031736850738525e-01 -7.000067085027694702e-02 -4.476615786552429199e-01
4.844000000000000000e+03 4.233675384521484375e+01 1.748881721496582031e+01 -2.717717289924621582e-01 8.188108354806900024e-02 -5.696719139814376831e-02 2.280891872942447662e-02
4.845000000000000000e+03 5.316603851318359375e+01 -4.020425796508789062e+00 -3.556749522686004639e-01 5.383794754743576050e-02 -9.055110067129135132e-02 1.159772276878356934e+00
4.846000000000000000e+03 4.953014755249023438e+01 -4.880534648895263672e+00 -7.305989861488342285e-01 8.688695430755615234e-01 4.148115590214729309e-02 7.672812342643737793e-01
4.847000000000000000e+03 3.570582580566406250e+01 2.292173004150390625e+01 -2.207996398210525513e-01 -1.174882054328918457e-02 -6.976453959941864014e-02 1.234979480504989624e-01
4.848000000000000000e+03 6.997992038726806641e+00 -2.160183525085449219e+01 1.184104084968566895e-01 -3.467063307762145996e-01 -6.848877668380737305e-02 -4.012673497200012207e-01
4.849000000000000000e+03 8.932208061218261719e+00 -2.501404190063476562e+01 2.642815709114074707e-01 -2.483510375022888184e-01 4.779158625751733780e-03 -2.572068572044372559e-01
4.850000000000000000e+03 1.435712051391601562e+01 2.417025756835937500e+01 -3.070229850709438324e-02 -6.352370139211416245e-03 -1.111640036106109619e-02 1.947078108787536621e-02
4.851000000000000000e+03 4.331159973144531250e+01 1.827409934997558594e+01 -3.146713674068450928e-01 1.083318218588829041e-01 -6.190186366438865662e-02 9.078110568225383759e-03
4.852000000000000000e+03 4.476473999023437500e+01 1.761359596252441406e+01 -2.989292442798614502e-01 8.777108788490295410e-02 -6.334745138883590698e-02 -3.565583005547523499e-02
4.853000000000000000e+03 1.562955760955810547e+01 2.271592140197753906e+01 -3.575534746050834656e-02 -4.739229916594922543e-04 -1.086878124624490738e-02 1.283038500696420670e-02
4.854000000000000000e+03 6.319294357299804688e+01 -1.357541203498840332e+00 1.830390840768814087e-01 2.203653812408447266e+00 7.160078287124633789e-01 2.756267786026000977e-01
4.855000000000000000e+03 1.106044197082519531e+01 -2.807142448425292969e+01 2.582843601703643799e-01 -6.225546076893806458e-02 5.880866572260856628e-02 -1.702388375997543335e-01
4.856000000000000000e+03 1.253711795806884766e+01 1.876189994812011719e+01 -6.671114359050989151e-03 -4.473263397812843323e-03 -3.343313233926892281e-03 4.081607621628791094e-04
4.857000000000000000e+03 3.953548812866210938e+01 -1.474019622802734375e+01 8.186788558959960938e-01 1.389676928520202637e-01 2.872939705848693848e-01 -2.537898160517215729e-02
4.858000000000000000e+03 3.969567871093750000e+01 2.002114868164062500e+01 -3.023686408996582031e-01 8.068444579839706421e-02 -6.650525331497192383e-02 8.450728654861450195e-02
4.859000000000000000e+03 1.432158470153808594e+01 1.197202396392822266e+01 1.358376117423176765e-03 -7.793903932906687260e-04 1.736957347020506859e-04 1.806498039513826370e-03
4.860000000000000000e+03 4.107894897460937500e+01 -6.696641921997070312e+00 -9.213986992835998535e-01 6.229031458497047424e-02 -2.577325105667114258e-01 -1.300077736377716064e-01
4.861000000000000000e+03 3.967683029174804688e+01 -1.650984382629394531e+01 7.471796870231628418e-01 2.907938659191131592e-01 3.113920688629150391e-01 -1.176709756255149841e-01
4.862000000000000000e+03 1.261912155151367188e+01 1.424516201019287109e+01 1.016020425595343113e-03 -3.135807113721966743e-03 -6.359359831549227238e-04 7.895758026279509068e-04
4.863000000000000000e+03 6.913644790649414062e+00 8.909955978393554688e+00 7.219516555778682232e-04 -7.318253046832978725e-04 -2.962086909974459559e-06 -7.308312924578785896e-04
4.864000000000000000e+03 4.557527160644531250e+01 -4.795399665832519531e+00 -1.015281915664672852e+00 8.832396864891052246e-01 -3.961266204714775085e-02 3.974310308694839478e-02
4.865000000000000000e+03 4.622751235961914062e+01 -4.836895942687988281e+00 -9.548382163047790527e-01 9.738951921463012695e-01 5.717086605727672577e-03 1.289556622505187988e-01
4.866000000000000000e+03 4.069801330566406250e+01 -2.198417282104492188e+01 2.506013512611389160e-01 8.174074292182922363e-01 3.204026520252227783e-01 8.752061426639556885e-02
4.867000000000000000e+03 1.371016502380371094e+01 1.761973381042480469e+01 -3.678449196740984917e-03 -4.326100461184978485e-03 -2.401364734396338463e-03 1.064673924702219665e-04
4.868000000000000000e+03 1.226895618438720703e+01 1.614736366271972656e+01 -7.782541215419769287e-04 -4.150768276304006577e-03 -1.478706719353795052e-03 1.428546529496088624e-04
4.869000000000000000e+03 4.059716796875000000e+01 -1.503558540344238281e+01 7.799195051193237305e-01 4.378910958766937256e-01 3.653431832790374756e-01 3.669177740812301636e-02
4.870000000000000000e+03 4.142950057983398438e+01 -1.972407531738281250e+01 4.033853411674499512e-01 1.037806272506713867e+00 4.323574900627136230e-01 -1.611467078328132629e-02
4.871000000000000000e+03 4.101612472534179688e+01 -1.908415603637695312e+01 4.549173116683959961e-01 8.668818473815917969e-01 3.965397477149963379e-01 -2.154267579317092896e-02
4.872000000000000000e+03 2.648573493957519531e+01 -1.027786636352539062e+01 -2.535643577575683594e-01 1.522690057754516602e-01 -3.038861043751239777e-02 -5.532126426696777344e-01
4.873000000000000000e+03 7.282580566406250000e+01 1.573502635955810547e+01 1.612650752067565918e+00 9.567788124084472656e+00 3.354131698608398438e+00 -1.584989875555038452e-01
4.874000000000000000e+03 7.294852447509765625e+01 1.504717922210693359e+01 1.495507717132568359e+00 9.438714027404785156e+00 3.280266523361206055e+00 -4.002774655818939209e-01
4.875000000000000000e+03 4.441316223144531250e+01 -8.385841369628906250e+00 -1.905654966831207275e-01 1.010685563087463379e+00 2.460360378026962280e-01 1.696367263793945312e-01
4.876000000000000000e+03 3.963050079345703125e+01 -1.529786777496337891e+01 8.176680803298950195e-01 2.010731399059295654e-01 3.056223690509796143e-01 -5.260498821735382080e-02
4.877000000000000000e+03 4.146979522705078125e+01 -1.614714050292968750e+01 6.946583390235900879e-01 8.051034808158874512e-01 4.499285519123077393e-01 5.417616292834281921e-02
4.878000000000000000e+03 4.441172027587890625e+01 -2.956152343750000000e+01 -9.516235440969467163e-03 1.048346638679504395e+00 3.116491138935089111e-01 -1.941096223890781403e-02
4.879000000000000000e+03 4.349845123291015625e+01 -2.781551361083984375e+01 4.282127693295478821e-02 1.122060418128967285e+00 3.494645059108734131e-01 9.372320026159286499e-02
4.880000000000000000e+03 1.028406906127929688e+01 6.436616897583007812e+00 8.376728510484099388e-04 -5.799752543680369854e-04 7.730929064564406872e-05 7.907461986178532243e-05
4.881000000000000000e+03 8.416336059570312500e+00 9.513624191284179688e+00 1.059166039340198040e-03 -1.150212134234607220e-03 -2.731384665821678936e-05 -5.505766021087765694e-04
4.882000000000000000e+03 1.384091663360595703e+01 -9.161667823791503906e+00 -3.436903357505798340e-01 -3.936082124710083008e-01 -2.211895585060119629e-01 -2.525372803211212158e-01
4.883000000000000000e+03 1.252400779724121094e+01 6.976263523101806641e+00 7.873587892390787601e-04 -4.470043350011110306e-04 1.021063508233055472e-04 5.394166219048202038e-04
4.884000000000000000e+03 1.389618396759033203e+01 1.027025699615478516e+01 9.362544515170156956e-04 -7.228316972032189369e-04 6.402681901818141341e-05 1.187712652608752251e-03
4.885000000000000000e+03 6.576765441894531250e+01 3.020180130004882812e+01 -3.013614416122436523e-01 4.199647903442382812e+00 1.169485926628112793e+00 -1.069132328033447266e+00
4.886000000000000000e+03 6.415844726562500000e+01 3.202425384521484375e+01 9.662386775016784668e-02 3.227918624877929688e+00 9.973627328872680664e-01 -8.938249945640563965e-01
4.887000000000000000e+03 4.336027526855468750e+01 -5.494171142578125000e+00 -1.085526823997497559e+00 5.666529536247253418e-01 -1.556621491909027100e-01 -9.010400623083114624e-02
4.888000000000000000e+03 2.623855018615722656e+01 -8.162995338439941406e+00 -7.641577124595642090e-01 2.144494652748107910e-01 -1.649124771356582642e-01 -4.834365844726562500e-01
4.889000000000000000e+03 3.565018844604492188e+01 2.524225807189941406e+01 -1.523585617542266846e-01 -2.110994793474674225e-02 -5.204055458307266235e-02 1.471977084875106812e-01
4.890000000000000000e+03 1.428613662719726562e+01 8.524594306945800781e+00 5.998524138703942299e-04 -2.476139343343675137e-04 1.056715482263825834e-04 9.255261975340545177e-04
4.891000000000000000e+03 4.037432479858398438e+01 -2.622251129150390625e+01 1.122804209589958191e-01 6.717382669448852539e-01 2.352056056261062622e-01 2.658613026142120361e-01
4.892000000000000000e+03 1.375688076019287109e+01 2.023812675476074219e+01 -1.429044920951128006e-02 -3.500479971989989281e-03 -5.337278824299573898e-03 1.790565904229879379e-03
4.893000000000000000e+03 1.329147148132324219e+01 1.914076805114746094e+01 -8.841986767947673798e-03 -4.296173807233572006e-03 -3.941447939723730087e-03 4.913322045467793941e-04
4.894000000000000000e+03 4.695944595336914062e+01 -5.822618007659912109e+00 -7.495524883270263672e-01 1.153074026107788086e+00 1.210564672946929932e-01 3.160483539104461670e-01
4.895000000000000000e+03 6.025974273681640625e+01 -2.633596420288085938e+00 2.174681425094604492e-01 8.225282430648803711e-01 3.119989335536956787e-01 3.821984231472015381e-01
4.896000000000000000e+03 7.195462036132812500e+01 -1.462206077575683594e+01 1.955877989530563354e-01 8.363279342651367188e+00 2.567660093307495117e+00 9.351214170455932617e-01
4.897000000000000000e+03 7.240964508056640625e+01 -1.398402118682861328e+01 -4.212442040443420410e-02 8.275294303894042969e+00 2.469950914382934570e+00 9.623367786407470703e-01
4.898000000000000000e+03 7.404903411865234375e+01 1.910542297363281250e+01 1.075490355491638184e+00 8.326337814331054688e+00 2.820548534393310547e+00 8.427924513816833496e-01
4.899000000000000000e+03 4.717130279541015625e+01 2.184908676147460938e+01 -5.929129719734191895e-01 1.896738260984420776e-01 -1.209717392921447754e-01 6.592886894941329956e-02
4.900000000000000000e+03 1.779828262329101562e+01 2.515116500854492188e+01 -5.452080443501472473e-02 -1.062541455030441284e-02 -1.954386569559574127e-02 4.390829056501388550e-02
4.901000000000000000e+03 1.613710403442382812e+01 2.428135871887207031e+01 -4.341083019971847534e-02 -4.102338571101427078e-03 -1.425395067781209946e-02 2.571197971701622009e-02
4.902000000000000000e+03 1.099742889404296875e+01 7.099516391754150391e+00 9.044501930475234985e-04 -6.785120931454002857e-04 6.778143142582848668e-05 2.371792506892234087e-04
4.903000000000000000e+03 1.409669303894042969e+01 9.375377655029296875e+00 9.158241446129977703e-04 -3.210602735634893179e-04 1.784291671356186271e-04 1.199886435642838478e-03
4.904000000000000000e+03 9.842075347900390625e+00 -2.676963043212890625e+01 2.646558582782745361e-01 -1.548050642013549805e-01 3.295524045825004578e-02 -1.982521563768386841e-01
4.905000000000000000e+03 6.161849975585937500e+00 -2.759162139892578125e+01 1.334381848573684692e-01 -4.263929724693298340e-01 -8.788643032312393188e-02 -1.662036031484603882e-01
4.906000000000000000e+03 9.068725585937500000e+00 -3.247968673706054688e+01 1.069248095154762268e-01 -2.401235252618789673e-01 -3.995961695909500122e-02 -7.282084971666336060e-02
4.907000000000000000e+03 4.470159149169921875e+01 2.175882148742675781e+01 -4.405212700366973877e-01 1.824764460325241089e-01 -7.741344720125198364e-02 8.800159394741058350e-02
4.908000000000000000e+03 4.896846008300781250e+01 -4.563747406005859375e+00 -7.848987579345703125e-01 8.627024888992309570e-01 2.334111928939819336e-02 6.209490299224853516e-01
4.909000000000000000e+03 1.491782569885253906e+01 8.553178787231445312e+00 6.614980520680546761e-04 1.027584803523495793e-04 2.292769640916958451e-04 1.090314821340143681e-03
4.910000000000000000e+03 8.445692062377929688e+00 3.287833404541015625e+01 1.127330469898879528e-03 -2.742815576493740082e-02 -7.890247739851474762e-03 1.938409171998500824e-02
4.911000000000000000e+03 3.389148712158203125e+01 -1.044324207305908203e+01 -1.110072433948516846e-01 -2.979262471199035645e-01 -1.226800531148910522e-01 -1.518507003784179688e-01
4.912000000000000000e+03 3.588912200927734375e+01 -1.236690330505371094e+01 6.031684279441833496e-01 -3.012574613094329834e-01 9.057329595088958740e-02 -6.094093900173902512e-03
4.913000000000000000e+03 7.312102508544921875e+01 -1.815513610839843750e+01 1.027973294258117676e+00 8.233568191528320312e+00 2.778462409973144531e+00 5.611489415168762207e-01
4.914000000000000000e+03 4.250793075561523438e+01 -1.265689468383789062e+01 6.353974938392639160e-01 8.189290761947631836e-01 4.362979829311370850e-01 2.345778346061706543e-01
4.915000000000000000e+03 4.174625778198242188e+01 -1.335117435455322266e+01 6.988487243652343750e-01 6.696137189865112305e-01 4.105387330055236816e-01 1.631027162075042725e-01
4.916000000000000000e+03 7.338410186767578125e+01 -2.005427551269531250e+01 1.051363706588745117e+00 8.071057319641113281e+00 2.736726284027099609e+00 1.060211658477783203e-01
4.917000000000000000e+03 7.219716644287109375e+01 -1.568126392364501953e+01 6.208049654960632324e-01 8.420831680297851562e+00 2.712491035461425781e+00 9.150445461273193359e-01
4.918000000000000000e+03 7.262539672851562500e+01 -1.509628391265869141e+01 3.563273549079895020e-01 8.325336456298828125e+00 2.604499340057373047e+00 9.792131781578063965e-01
4.919000000000000000e+03 5.884197235107421875e+01 -5.160210609436035156e+00 -3.122353851795196533e-01 2.145953476428985596e-01 -2.929200977087020874e-02 5.397322773933410645e-01
4.920000000000000000e+03 4.131482315063476562e+01 -7.495653152465820312e+00 -6.437299251556396484e-01 1.841034740209579468e-01 -1.378879398107528687e-01 -6.492945551872253418e-02
4.921000000000000000e+03 5.868503189086914062e+01 3.011465263366699219e+01 2.834496796131134033e-01 9.632890224456787109e-01 3.740216195583343506e-01 -3.078767657279968262e-01
4.922000000000000000e+03 7.231573486328125000e+01 3.054805755615234375e+01 -6.125438809394836426e-01 7.052514076232910156e+00 1.931991100311279297e+00 3.203957574442028999e-03
4.923000000000000000e+03 7.302147674560546875e+01 2.974632072448730469e+01 -6.173065900802612305e-01 7.359471321105957031e+00 2.022649526596069336e+00 1.965111941099166870e-01
4.924000000000000000e+03 6.175368785858154297e+00 8.224602699279785156e+00 5.890525062568485737e-04 -4.275685641914606094e-04 4.844518844038248062e-05 -7.415963918901979923e-04
4.925000000000000000e+03 4.350278472900390625e+01 -2.678812599182128906e+01 9.342641383409500122e-02 1.225038409233093262e+00 3.955394327640533447e-01 1.052639931440353394e-01
4.926000000000000000e+03 4.104862976074218750e+01 -2.669086074829101562e+01 1.064897701144218445e-01 7.861122488975524902e-01 2.677806019783020020e-01 2.426957339048385620e-01
4.927000000000000000e+03 4.526006317138671875e+01 -8.409734725952148438e+00 -1.467372775077819824e-01 1.222652673721313477e+00 3.227746486663818359e-01 2.441855669021606445e-01
4.928000000000000000e+03 4.275675964355468750e+01 -7.178699016571044922e+00 -6.520066261291503906e-01 5.183621644973754883e-01 -4.009333625435829163e-02 4.741867072880268097e-03
4.929000000000000000e+03 1.164554214477539062e+01 -8.440948486328125000e+00 -2.350710630416870117e-01 -3.099794387817382812e-01 -1.635151505470275879e-01 -8.445611596107482910e-02
4.930000000000000000e+03 1.092428779602050781e+01 -8.233294486999511719e+00 -2.068734318017959595e-01 -2.708381712436676025e-01 -1.433134824037551880e-01 -4.267389699816703796e-02
4.931000000000000000e+03 4.287215805053710938e+01 1.608600616455078125e+01 -2.184761166572570801e-01 5.674689635634422302e-02 -4.851876571774482727e-02 5.876627285033464432e-03
4.932000000000000000e+03 3.072277069091796875e+01 -1.040324878692626953e+01 -1.916407495737075806e-01 -1.397641450166702271e-01 -9.942147135734558105e-02 -4.150679409503936768e-01
4.933000000000000000e+03 6.943226623535156250e+01 -8.684247016906738281e+00 -1.277594089508056641e+00 6.203305244445800781e+00 1.477713346481323242e+00 -4.869855046272277832e-01
4.934000000000000000e+03 6.937083435058593750e+01 -9.484878540039062500e+00 -1.378772735595703125e+00 6.370234966278076172e+00 1.497438669204711914e+00 -4.609258472919464111e-01
4.935000000000000000e+03 6.160390090942382812e+01 -1.661169290542602539e+00 3.040343225002288818e-01 1.388201475143432617e+00 5.076707601547241211e-01 3.523819148540496826e-01
4.936000000000000000e+03 6.941072463989257812e+00 -2.005586051940917969e+01 2.694082632660865784e-02 -3.206775784492492676e-01 -8.812102675437927246e-02 -4.369218647480010986e-01
4.937000000000000000e+03 6.820198535919189453e+00 -1.929041099548339844e+01 -2.212738804519176483e-02 -2.998953759670257568e-01 -9.660682827234268188e-02 -4.365445375442504883e-01
4.938000000000000000e+03 4.682147598266601562e+01 2.295609664916992188e+01 -5.391283631324768066e-01 1.920060962438583374e-01 -1.041366755962371826e-01 1.419185996055603027e-01
4.939000000000000000e+03 4.535924148559570312e+01 2.105816459655761719e+01 -4.669369757175445557e-01 1.690627187490463257e-01 -8.936227113008499146e-02 5.462560430169105530e-02
4.940000000000000000e+03 6.070259857177734375e+01 -3.219998121261596680e+00 1.110534965991973877e-01 8.918037414550781250e-01 3.008571863174438477e-01 3.364132642745971680e-01
4.941000000000000000e+03 6.200370025634765625e+01 -3.720902204513549805e+00 -8.831086568534374237e-03 1.377849221229553223e+00 4.107054471969604492e-01 1.856312900781631470e-01
4.942000000000000000e+03 6.881785583496093750e+01 -7.853576183319091797e+00 -1.164262771606445312e+00 5.604374885559082031e+00 1.332033514976501465e+00 -6.181191205978393555e-01
4.943000000000000000e+03 6.138630676269531250e+01 2.869908523559570312e+01 1.163645982742309570e-01 1.498023986816406250e+00 4.843165874481201172e-01 -8.501598238945007324e-01
4.944000000000000000e+03 5.072671127319335938e+01 2.756421089172363281e+01 -2.592211961746215820e-01 1.181905195116996765e-01 -4.230920597910881042e-02 3.626363873481750488e-01
4.945000000000000000e+03 7.226503753662109375e+01 -1.150582981109619141e+01 -7.587611079216003418e-01 8.005983352661132812e+00 2.174166679382324219e+00 6.175325512886047363e-01
4.946000000000000000e+03 7.154840850830078125e+01 -1.166450881958007812e+01 -8.481005430221557617e-01 7.905756950378417969e+00 2.117296934127807617e+00 5.365066528320312500e-01
4.947000000000000000e+03 5.997367477416992188e+01 3.026653861999511719e+01 2.871930897235870361e-01 1.282847166061401367e+00 4.710120558738708496e-01 -5.153490304946899414e-01
4.948000000000000000e+03 6.821964263916015625e+01 2.717880058288574219e+01 -1.019961118698120117e+00 6.361418724060058594e+00 1.602437376976013184e+00 -1.133687019348144531e+00
4.949000000000000000e+03 7.255236053466796875e+01 1.200432205200195312e+01 9.639275670051574707e-01 9.396196365356445312e+00 3.108037233352661133e+00 -8.836132287979125977e-01
4.950000000000000000e+03 2.938123893737792969e+01 2.855500602722167969e+01 -2.198860608041286469e-02 -1.063006296753883362e-01 -3.848677128553390503e-02 1.315242797136306763e-01
4.951000000000000000e+03 2.822845077514648438e+01 2.674370765686035156e+01 -7.216139882802963257e-02 -1.005708873271942139e-01 -5.181968584656715393e-02 1.313807964324951172e-01
4.952000000000000000e+03 7.356404876708984375e+01 2.231013679504394531e+01 1.125552430748939514e-01 8.549811363220214844e+00 2.598710060119628906e+00 1.305460691452026367e+00
4.953000000000000000e+03 7.042844390869140625e+01 6.898369789123535156e+00 -3.721803724765777588e-01 8.275228500366210938e+00 2.370914459228515625e+00 -3.533498942852020264e-01
4.954000000000000000e+03 7.352290344238281250e+01 -2.345395278930664062e+01 3.597663938999176025e-01 7.961344242095947266e+00 2.496333122253417969e+00 -4.537695944309234619e-01
4.955000000000000000e+03 7.182752990722656250e+01 3.160128593444824219e+01 -5.097736716270446777e-01 6.777139663696289062e+00 1.880209684371948242e+00 -1.437909603118896484e-01
4.956000000000000000e+03 7.645951271057128906e+00 -2.334049415588378906e+01 1.995089501142501831e-01 -3.387848436832427979e-01 -4.178276658058166504e-02 -3.358041644096374512e-01
4.957000000000000000e+03 6.356040000915527344e+00 -2.448184394836425781e+01 1.600449532270431519e-01 -3.934565782546997070e-01 -7.002349197864532471e-02 -2.848744690418243408e-01
4.958000000000000000e+03 1.800333404541015625e+01 2.742301750183105469e+01 -3.814703971147537231e-02 -3.099276497960090637e-02 -2.074194140732288361e-02 6.092952936887741089e-02
4.959000000000000000e+03 1.973950576782226562e+01 2.549474334716796875e+01 -6.821233779191970825e-02 -2.230249159038066864e-02 -2.715444937348365784e-02 6.504250317811965942e-02
4.960000000000000000e+03 9.829190254211425781e+00 -3.716389083862304688e+01 3.467161953449249268e-02 -2.097146958112716675e-01 -5.251292511820793152e-02 -3.131945803761482239e-02
4.961000000000000000e+03 1.088337898254394531e+01 -3.566338348388671875e+01 6.084861233830451965e-02 -1.232488676905632019e-01 -1.872007735073566437e-02 -4.212538897991180420e-02
4.962000000000000000e+03 2.707207107543945312e+01 -4.148263168334960938e+01 2.428851276636123657e-01 1.699222475290298462e-01 1.238422170281410217e-01 -1.643010042607784271e-02
4.963000000000000000e+03 3.953759765625000000e+01 -2.863137817382812500e+01 1.166360378265380859e-01 4.953676760196685791e-01 1.836011111736297607e-01 2.508654594421386719e-01
4.964000000000000000e+03 4.054896926879882812e+01 -2.441224288940429688e+01 1.465829312801361084e-01 7.320161461830139160e-01 2.635797262191772461e-01 2.160810828208923340e-01
4.965000000000000000e+03 8.946776390075683594e+00 3.425654220581054688e+01 5.172392353415489197e-03 -3.350246325135231018e-02 -8.499021641910076141e-03 1.981365308165550232e-02
4.966000000000000000e+03 7.859519958496093750e+00 3.377270507812500000e+01 2.587369643151760101e-03 -2.838062867522239685e-02 -7.737977430224418640e-03 1.886629499495029449e-02
4.967000000000000000e+03 1.760008049011230469e+01 2.630954170227050781e+01 -4.375802353024482727e-02 -1.916732266545295715e-02 -1.887760311365127563e-02 4.944843053817749023e-02
4.968000000000000000e+03 3.189488983154296875e+01 2.613185882568359375e+01 -9.236335754394531250e-02 -9.014464914798736572e-02 -5.475240200757980347e-02 1.382986158132553101e-01
4.969000000000000000e+03 3.085694503784179688e+01 2.814098930358886719e+01 -2.828893065452575684e-02 -1.038809269666671753e-01 -3.965095803141593933e-02 1.383889168500900269e-01
4.970000000000000000e+03 3.459702682495117188e+01 2.580815315246582031e+01 -1.222783327102661133e-01 -4.511361569166183472e-02 -5.021758377552032471e-02 1.463794559240341187e-01
4.971000000000000000e+03 2.474374771118164062e+01 2.753244972229003906e+01 -5.321709439158439636e-02 -8.303642272949218750e-02 -4.087605327367782593e-02 1.141796931624412537e-01
4.972000000000000000e+03 2.351127624511718750e+01 3.062537193298339844e+01 9.362247772514820099e-03 -9.173457324504852295e-02 -2.471169829368591309e-02 1.014447137713432312e-01
4.973000000000000000e+03 4.446241760253906250e+01 -3.351200103759765625e+01 5.311757326126098633e-02 7.541593909263610840e-01 2.421830892562866211e-01 -9.413959830999374390e-02
4.974000000000000000e+03 1.042554664611816406e+01 -3.052680397033691406e+01 1.785761266946792603e-01 -1.306926161050796509e-01 1.436505280435085297e-02 -1.106903254985809326e-01
4.975000000000000000e+03 6.814757537841796875e+01 2.625267791748046875e+01 -1.081187844276428223e+00 6.629209041595458984e+00 1.664406418800354004e+00 -1.233173012733459473e+00
4.976000000000000000e+03 3.976518630981445312e+01 -3.121990585327148438e+01 1.314513236284255981e-01 5.029940605163574219e-01 1.903336048126220703e-01 1.785624027252197266e-01
4.977000000000000000e+03 6.913378906250000000e+01 2.689831733703613281e+01 -1.084873676300048828e+00 7.054981231689453125e+00 1.791032195091247559e+00 -7.980154156684875488e-01
4.978000000000000000e+03 7.318038940429687500e+01 3.117959594726562500e+01 -4.631639719009399414e-01 7.144825935363769531e+00 2.004498720169067383e+00 1.027263998985290527e-01
4.979000000000000000e+03 4.902168655395507812e+01 2.480251312255859375e+01 -5.603754520416259766e-01 1.676380038261413574e-01 -1.178212314844131470e-01 2.791684567928314209e-01
4.980000000000000000e+03 4.718115997314453125e+01 2.427005767822265625e+01 -5.228965878486633301e-01 1.892313212156295776e-01 -1.000995784997940063e-01 2.217871695756912231e-01
4.981000000000000000e+03 7.365641784667968750e+01 2.903268051147460938e+01 -6.127514243125915527e-01 7.545043945312500000e+00 2.079687833786010742e+00 3.869058787822723389e-01
4.982000000000000000e+03 7.434220123291015625e+01 2.967605781555175781e+01 -4.785206019878387451e-01 7.533104419708251953e+00 2.116375207901000977e+00 3.876928687095642090e-01
4.983000000000000000e+03 6.992712402343750000e+01 -3.481082534790039062e+01 -1.458657383918762207e-01 5.469235420227050781e+00 1.597010850906372070e+00 3.039091229438781738e-01
4.984000000000000000e+03 7.038529968261718750e+01 -3.217491912841796875e+01 -3.519769608974456787e-01 6.013831138610839844e+00 1.698556184768676758e+00 3.425051569938659668e-01
4.985000000000000000e+03 1.344505023956298828e+01 -3.499344253540039062e+01 1.043513938784599304e-01 3.736986219882965088e-02 4.251637682318687439e-02 -6.538462638854980469e-02
4.986000000000000000e+03 9.822972297668457031e+00 -3.150590705871582031e+01 1.402681320905685425e-01 -1.779750436544418335e-01 -1.131207495927810669e-02 -8.828331530094146729e-02
4.987000000000000000e+03 7.037137603759765625e+01 -3.655515670776367188e+01 -6.695979833602905273e-02 5.743573188781738281e+00 1.702984094619750977e+00 1.840461045503616333e-01
4.988000000000000000e+03 7.071720123291015625e+01 3.852781677246093750e+01 2.369025535881519318e-02 5.793248653411865234e+00 1.745081663131713867e+00 -1.103464215993881226e-01
4.989000000000000000e+03 4.720602035522460938e+01 2.086061477661132812e+01 -5.507190227508544922e-01 1.602081507444381714e-01 -1.171532571315765381e-01 5.591953173279762268e-03
4.990000000000000000e+03 3.815691757202148438e+01 -4.103245925903320312e+01 2.678633630275726318e-01 3.265664875507354736e-01 1.783289611339569092e-01 9.033596143126487732e-03
4.991000000000000000e+03 6.166268157958984375e+01 3.018124008178710938e+01 2.445601373910903931e-01 1.859488010406494141e+00 6.312144398689270020e-01 -8.459891676902770996e-01
4.992000000000000000e+03 6.984632873535156250e+01 2.640042686462402344e+01 -1.198570489883422852e+00 7.609554767608642578e+00 1.923295259475708008e+00 -4.929448962211608887e-01
4.993000000000000000e+03 6.639742279052734375e+01 2.800278854370117188e+01 -6.066668033599853516e-01 4.757081031799316406e+00 1.245124220848083496e+00 -1.393658280372619629e+00
4.994000000000000000e+03 2.936919021606445312e+01 2.669777297973632812e+01 -7.671356946229934692e-02 -1.026376783847808838e-01 -5.380537360906600952e-02 1.364238560199737549e-01
4.995000000000000000e+03 2.724354934692382812e+01 2.715563583374023438e+01 -5.708665028214454651e-02 -9.777621924877166748e-02 -4.645885899662971497e-02 1.245701313018798828e-01
4.996000000000000000e+03 7.089649200439453125e+01 -3.317135620117187500e+01 -2.466077506542205811e-01 6.112405776977539062e+00 1.759739518165588379e+00 2.174242138862609863e-01
4.997000000000000000e+03 3.210868835449218750e+01 2.764774513244628906e+01 -4.729984328150749207e-02 -9.087031334638595581e-02 -4.145104810595512390e-02 1.450410485267639160e-01
4.998000000000000000e+03 4.356567382812500000e+01 -3.576699829101562500e+01 1.643965095281600952e-01 5.896985530853271484e-01 2.262285053730010986e-01 -5.948564410209655762e-02
4.999000000000000000e+03 6.746020507812500000e+01 -3.145698547363281250e+01 -2.894437015056610107e-01 4.651973724365234375e+00 1.308759093284606934e+00 7.573477625846862793e-01
5.000000000000000000e+03 7.117718505859375000e+01 -2.938137626647949219e+01 -4.806718528270721436e-01 6.783769607543945312e+00 1.890929222106933594e+00 1.640884131193161011e-01
5.001000000000000000e+03 7.182087707519531250e+01 -3.582346725463867188e+01 -1.249137893319129944e-01 6.354370117187500000e+00 1.868836879730224609e+00 2.238471359014511108e-01
5.002000000000000000e+03 8.999570846557617188e+00 3.647778320312500000e+01 1.080026570707559586e-02 -3.882397338747978210e-02 -8.407113142311573029e-03 1.652212999761104584e-02
5.003000000000000000e+03 4.914711380004882812e+01 2.676410102844238281e+01 -3.501196503639221191e-01 1.449178606271743774e-01 -6.156053021550178528e-02 3.642055690288543701e-01
5.004000000000000000e+03 5.126470947265625000e+01 2.597735023498535156e+01 -5.386097431182861328e-01 9.054421633481979370e-02 -1.344196647405624390e-01 3.430055379867553711e-01
5.005000000000000000e+03 5.454053497314453125e+01 -3.984644699096679688e+01 7.425131797790527344e-01 5.195703506469726562e-01 3.786250650882720947e-01 -1.187697350978851318e-01
5.006000000000000000e+03 5.003805923461914062e+01 2.536689186096191406e+01 -5.694370269775390625e-01 1.324145346879959106e-01 -1.311067491769790649e-01 3.103650510311126709e-01
5.007000000000000000e+03 4.819881057739257812e+01 2.560614204406738281e+01 -4.324293136596679688e-01 1.726208478212356567e-01 -7.794253528118133545e-02 3.025368452072143555e-01
5.008000000000000000e+03 3.148877525329589844e+01 -4.126114654541015625e+01 2.892411947250366211e-01 1.838275939226150513e-01 1.419206410646438599e-01 -5.793775431811809540e-03
5.009000000000000000e+03 3.463616561889648438e+01 -3.988330078125000000e+01 2.862829267978668213e-01 2.252640128135681152e-01 1.534640789031982422e-01 1.092964597046375275e-02
5.010000000000000000e+03 5.241741943359375000e+01 2.956766891479492188e+01 6.081563234329223633e-02 1.653461605310440063e-01 6.784853339195251465e-02 3.085792958736419678e-01
5.011000000000000000e+03 5.416565704345703125e+01 2.915980148315429688e+01 3.606459125876426697e-02 1.610215306282043457e-01 5.912583693861961365e-02 2.496453672647476196e-01
5.012000000000000000e+03 5.783467864990234375e+01 3.170084953308105469e+01 4.416393041610717773e-01 9.207543134689331055e-01 4.087180793285369873e-01 -1.419922113418579102e-01
5.013000000000000000e+03 4.329057693481445312e+01 -4.703706264495849609e+00 -1.248385190963745117e+00 5.003609061241149902e-01 -2.244072854518890381e-01 -1.781374812126159668e-01
5.014000000000000000e+03 4.545323181152343750e+01 -5.521229267120361328e+00 -9.103195667266845703e-01 9.542151093482971191e-01 1.316865906119346619e-02 8.502288907766342163e-02
5.015000000000000000e+03 6.661250305175781250e+01 -8.376576423645019531e+00 -1.106772899627685547e+00 3.780512809753417969e+00 8.021219968795776367e-01 -8.421818614006042480e-01
5.016000000000000000e+03 6.606169891357421875e+01 -7.480427742004394531e+00 -8.853170871734619141e-01 3.331352710723876953e+00 7.338106632232666016e-01 -7.055584192276000977e-01
5.017000000000000000e+03 5.853846359252929688e+01 -2.893870830535888672e+00 1.574941426515579224e-01 3.649427294731140137e-01 1.567310690879821777e-01 5.072049498558044434e-01
5.018000000000000000e+03 5.787237548828125000e+01 -3.463052272796630859e+00 1.936610788106918335e-02 2.040630429983139038e-01 6.702874600887298584e-02 5.923466682434082031e-01
5.019000000000000000e+03 6.442894744873046875e+01 -5.770499706268310547e-01 6.996837258338928223e-02 2.964375972747802734e+00 9.103032946586608887e-01 2.793502211570739746e-01
5.020000000000000000e+03 6.289045333862304688e+01 -6.963720321655273438e-01 2.751526832580566406e-01 2.082791328430175781e+00 7.073832154273986816e-01 3.756775259971618652e-01
5.021000000000000000e+03 2.738537216186523438e+01 -8.851449012756347656e+00 -6.656824946403503418e-01 1.041642278432846069e-01 -1.684554815292358398e-01 -5.449000597000122070e-01
5.022000000000000000e+03 8.072924613952636719e+00 -7.513009548187255859e+00 -1.048925444483757019e-01 -1.245309188961982727e-01 -6.882704049348831177e-02 6.517366319894790649e-02
5.023000000000000000e+03 6.504928588867187500e+01 -2.497868239879608154e-01 -2.511657308787107468e-03 3.399178743362426758e+00 1.019000172615051270e+00 2.725736200809478760e-01
5.024000000000000000e+03 7.407825469970703125e+01 2.357828617095947266e+00 -3.975014686584472656e-01 7.753942966461181641e+00 2.206932544708251953e+00 -8.810375332832336426e-01
5.025000000000000000e+03 3.418902587890625000e+01 -1.193860435485839844e+01 4.114957749843597412e-01 -2.197708189487457275e-01 5.751748383045196533e-02 -8.977063745260238647e-02
5.026000000000000000e+03 4.643338775634765625e+01 -5.406610965728759766e+00 -8.527539372444152832e-01 1.061941385269165039e+00 6.275622546672821045e-02 2.054949253797531128e-01
5.027000000000000000e+03 4.083206176757812500e+01 -2.875240707397460938e+01 8.749947696924209595e-02 6.848752498626708984e-01 2.317124307155609131e-01 2.266066968441009521e-01
5.028000000000000000e+03 4.137556457519531250e+01 -2.796783256530761719e+01 8.056162297725677490e-02 7.943677902221679688e-01 2.624788284301757812e-01 2.213753908872604370e-01
5.029000000000000000e+03 2.258596801757812500e+01 -9.370960235595703125e+00 -4.120232164859771729e-01 2.230292856693267822e-01 -5.669818073511123657e-02 -4.469311237335205078e-01
5.030000000000000000e+03 8.040713310241699219e+00 -1.213061714172363281e+01 -3.289203047752380371e-01 -1.989665180444717407e-01 -1.583660393953323364e-01 -1.101072058081626892e-01
5.031000000000000000e+03 8.343704223632812500e+00 -1.248972606658935547e+01 -3.786769807338714600e-01 -2.332561314105987549e-01 -1.835799366235733032e-01 -1.411825418472290039e-01
5.032000000000000000e+03 2.880762481689453125e+01 -1.070284175872802734e+01 -9.421457350254058838e-02 1.132993679493665695e-02 -2.486539259552955627e-02 -5.331748723983764648e-01
5.033000000000000000e+03 3.936738586425781250e+01 -1.414435005187988281e+01 8.025344014167785645e-01 6.639263778924942017e-02 2.606781125068664551e-01 -1.491837296634912491e-02
5.034000000000000000e+03 4.138595199584960938e+01 -2.596998214721679688e+01 1.296070814132690430e-01 8.701673746109008789e-01 2.999323308467864990e-01 2.284152656793594360e-01
5.035000000000000000e+03 1.228766632080078125e+01 -7.539343833923339844e+00 -1.738547235727310181e-01 -2.732697427272796631e-01 -1.341373324394226074e-01 -1.033240258693695068e-01
5.036000000000000000e+03 6.347845840454101562e+01 -6.021563529968261719e+00 -4.446423649787902832e-01 1.760541081428527832e+00 3.947696089744567871e-01 -1.499200761318206787e-01
5.037000000000000000e+03 1.119051837921142578e+01 -9.340974807739257812e+00 -2.895250320434570312e-01 -3.337234854698181152e-01 -1.869745552539825439e-01 -7.826928794384002686e-02
5.038000000000000000e+03 6.567726898193359375e+01 -1.073318719863891602e-02 -8.780971169471740723e-02 3.809701681137084961e+00 1.116567611694335938e+00 2.347934246063232422e-01
5.039000000000000000e+03 5.982367992401123047e+00 -1.058802795410156250e+01 -1.774813681840896606e-01 -6.175251677632331848e-02 -7.177016139030456543e-02 -5.416305735707283020e-03
5.040000000000000000e+03 8.540998458862304688e+00 -1.198632907867431641e+01 -3.592509329319000244e-01 -2.401938140392303467e-01 -1.798334121704101562e-01 -1.114436984062194824e-01
5.041000000000000000e+03 7.362642669677734375e+01 -2.194779777526855469e+01 6.989686489105224609e-01 7.975076198577880859e+00 2.602213382720947266e+00 -2.907119095325469971e-01
5.042000000000000000e+03 7.325212097167968750e+01 -2.306307411193847656e+01 5.207619667053222656e-01 7.997211933135986328e+00 2.555392026901245117e+00 -4.175414741039276123e-01
5.043000000000000000e+03 3.946427917480468750e+01 -9.014548301696777344e+00 -2.730509936809539795e-01 -1.112700626254081726e-01 -1.152963191270828247e-01 -6.744890660047531128e-02
5.044000000000000000e+03 6.736896514892578125e+01 2.380875825881958008e+00 -3.072785735130310059e-01 5.298971652984619141e+00 1.497507929801940918e+00 3.269508183002471924e-01
5.045000000000000000e+03 7.373769378662109375e+01 7.655017375946044922e-01 -4.188512265682220459e-01 7.630197525024414062e+00 2.163403987884521484e+00 -7.438496947288513184e-01
5.046000000000000000e+03 1.530406951904296875e+01 6.893164634704589844e+00 4.349681839812546968e-04 2.002841210924088955e-04 1.905756944324821234e-04 7.509904680773615837e-04
5.047000000000000000e+03 8.430816650390625000e+00 -1.335598182678222656e+01 -4.011317789554595947e-01 -2.582623660564422607e-01 -1.978182345628738403e-01 -2.020247429609298706e-01
5.048000000000000000e+03 6.957117080688476562e+00 2.100729560852050781e+01 -4.332927986979484558e-03 -3.310506697744131088e-03 -2.293030265718698502e-03 1.751054427586495876e-03
5.049000000000000000e+03 7.369860649108886719e+00 2.553619003295898438e+01 -6.648842245340347290e-03 -8.217056281864643097e-03 -4.459769465029239655e-03 9.540185332298278809e-03
5.050000000000000000e+03 3.058548927307128906e+01 -9.735417366027832031e+00 -4.467874169349670410e-01 -1.948895901441574097e-01 -1.925030946731567383e-01 -4.311539530754089355e-01
5.051000000000000000e+03 7.321398925781250000e+01 2.162227821350097656e+01 3.557645976543426514e-01 8.763091087341308594e+00 2.735656738281250000e+00 1.272380352020263672e+00
5.052000000000000000e+03 3.546984863281250000e+01 -9.561210632324218750e+00 -3.799528479576110840e-01 -3.640238940715789795e-01 -2.231930345296859741e-01 -1.444402784109115601e-01
5.053000000000000000e+03 7.648637771606445312e+00 -2.723284339904785156e+01 1.880745887756347656e-01 -3.296522796154022217e-01 -4.247330874204635620e-02 -1.857857555150985718e-01
5.054000000000000000e+03 7.334204101562500000e+01 2.339841079711914062e+01 -2.869110703468322754e-01 8.555974006652832031e+00 2.480718851089477539e+00 1.189863085746765137e+00
5.055000000000000000e+03 7.120642852783203125e+01 -3.046755599975585938e+01 -4.353147745132446289e-01 6.622912883758544922e+00 1.856279492378234863e+00 2.031188160181045532e-01
5.056000000000000000e+03 7.274775695800781250e+01 2.016538238525390625e+01 1.056626915931701660e+00 9.201304435729980469e+00 3.077379465103149414e+00 1.058053493499755859e+00
5.057000000000000000e+03 6.064373970031738281e+00 -2.349189376831054688e+01 1.374392062425613403e-01 -3.904457986354827881e-01 -7.590197771787643433e-02 -3.183000683784484863e-01
5.058000000000000000e+03 2.609832191467285156e+01 -9.042210578918457031e+00 -5.676969885826110840e-01 1.922338604927062988e-01 -1.126389503479003906e-01 -5.294525027275085449e-01
5.059000000000000000e+03 6.520623207092285156e+00 2.400357627868652344e+01 -6.052429787814617157e-03 -5.130593199282884598e-03 -3.354906802996993065e-03 5.979246459901332855e-03
5.060000000000000000e+03 7.273200988769531250e+01 2.389891052246093750e+01 -5.613006949424743652e-01 8.662405967712402344e+00 2.430331707000732422e+00 1.005752086639404297e+00
5.061000000000000000e+03 3.231833648681640625e+01 -1.138111400604248047e+01 1.825594753026962280e-01 -1.294458359479904175e-01 1.593408919870853424e-02 -2.571815550327301025e-01
5.062000000000000000e+03 3.810975646972656250e+01 -9.505554199218750000e+00 -2.199523299932479858e-01 -2.547048926353454590e-01 -1.423971652984619141e-01 -8.269686251878738403e-02
5.063000000000000000e+03 4.016352462768554688e+01 -9.165745735168457031e+00 -1.757749468088150024e-01 5.771712400019168854e-03 -5.100097134709358215e-02 -2.411522157490253448e-02
5.064000000000000000e+03 6.232896804809570312e+00 -2.294370460510253906e+01 1.345079839229583740e-01 -3.754132091999053955e-01 -7.227156311273574829e-02 -3.436666131019592285e-01
5.065000000000000000e+03 7.175521850585937500e+01 -2.568422126770019531e+01 -2.279138416051864624e-01 7.704908370971679688e+00 2.243098497390747070e+00 -1.628330349922180176e-01
5.066000000000000000e+03 6.690776824951171875e+00 1.466279220581054688e+01 3.168753755744546652e-04 -1.576916547492146492e-03 -3.780123661272227764e-04 -1.497386139817535877e-03
5.067000000000000000e+03 7.307782745361328125e+01 -1.448840045928955078e+01 1.466681212186813354e-01 8.268095970153808594e+00 2.524429321289062500e+00 1.002383589744567871e+00
5.068000000000000000e+03 6.707946777343750000e+00 1.536142539978027344e+01 -3.927208599634468555e-04 -1.779574318788945675e-03 -6.516885478049516678e-04 -1.422266243025660515e-03
5.069000000000000000e+03 7.397082519531250000e+01 1.834896659851074219e+01 1.226632475852966309e+00 8.431309700012207031e+00 2.897382497787475586e+00 6.436738967895507812e-01
5.070000000000000000e+03 7.302280426025390625e+01 -1.719144821166992188e+01 9.110842347145080566e-01 8.282401084899902344e+00 2.758045673370361328e+00 7.379297614097595215e-01
5.071000000000000000e+03 7.319033813476562500e+01 -1.911152458190917969e+01 1.098867893218994141e+00 8.171853065490722656e+00 2.781216144561767578e+00 3.458019793033599854e-01
5.072000000000000000e+03 6.397483825683593750e+00 -2.621598434448242188e+01 1.603774428367614746e-01 -4.017144739627838135e-01 -7.240110635757446289e-02 -2.161110639572143555e-01
5.073000000000000000e+03 7.079495906829833984e+00 -2.488733482360839844e+01 1.938708126544952393e-01 -3.637742102146148682e-01 -5.097102001309394836e-02 -2.701774835586547852e-01
5.074000000000000000e+03 7.290693664550781250e+01 -1.330616474151611328e+01 -2.246985435485839844e-01 8.233118057250976562e+00 2.402525901794433594e+00 9.423337578773498535e-01
5.075000000000000000e+03 7.357332611083984375e+01 -1.387302780151367188e+01 -3.186306729912757874e-02 8.245864868164062500e+00 2.464200735092163086e+00 9.936346411705017090e-01
5.076000000000000000e+03 7.106484985351562500e+01 9.410111427307128906e+00 2.256526947021484375e-01 9.384601593017578125e+00 2.883076190948486328e+00 -6.281849145889282227e-01
5.077000000000000000e+03 7.363520050048828125e+01 6.835482120513916016e+00 -2.510721981525421143e-01 8.119462966918945312e+00 2.360517263412475586e+00 -1.204682111740112305e+00
5.078000000000000000e+03 7.423281097412109375e+01 8.795552253723144531e+00 3.303653374314308167e-02 8.138793945312500000e+00 2.451549053192138672e+00 -1.316851496696472168e+00
5.079000000000000000e+03 7.381253814697265625e+01 1.193217182159423828e+01 7.107485532760620117e-01 8.539418220520019531e+00 2.775050163269042969e+00 -1.068014979362487793e+00
5.080000000000000000e+03 7.244188690185546875e+01 1.114409351348876953e+01 7.123282551765441895e-01 9.263993263244628906e+00 2.992896556854248047e+00 -9.570846557617187500e-01
5.081000000000000000e+03 5.989384651184082031e+00 -9.012148857116699219e+00 -1.215289682149887085e-01 -4.806794598698616028e-02 -5.087907239794731140e-02 5.492702871561050415e-02
5.082000000000000000e+03 6.002845287322998047e+00 -9.778982162475585938e+00 -1.478212922811508179e-01 -5.434544011950492859e-02 -6.065002083778381348e-02 3.024026378989219666e-02
5.083000000000000000e+03 7.256169128417968750e+01 1.017786026000976562e+01 3.856782913208007812e-01 8.969090461730957031e+00 2.806430578231811523e+00 -1.048049092292785645e+00
5.084000000000000000e+03 7.396622467041015625e+01 7.391414165496826172e+00 -1.775040328502655029e-01 8.094519615173339844e+00 2.375104665756225586e+00 -1.257716774940490723e+00
5.085000000000000000e+03 7.380715942382812500e+01 8.319009780883789062e+00 -4.200137034058570862e-02 8.221546173095703125e+00 2.453863620758056641e+00 -1.271136164665222168e+00
5.086000000000000000e+03 7.417669677734375000e+01 -1.129408359527587891e+01 -4.738712906837463379e-01 8.233073234558105469e+00 2.327760457992553711e+00 7.276208400726318359e-01
5.087000000000000000e+03 7.391315460205078125e+01 -2.341118156909942627e-01 -4.066450297832489014e-01 7.650091171264648438e+00 2.173033952713012695e+00 -6.727459430694580078e-01
5.088000000000000000e+03 7.401676177978515625e+01 -2.098385572433471680e+00 -4.328874945640563965e-01 7.678701400756835938e+00 2.173744201660156250e+00 -5.164994001388549805e-01
5.089000000000000000e+03 7.368929290771484375e+01 -9.947358131408691406e+00 -6.585750579833984375e-01 8.088600158691406250e+00 2.229007482528686523e+00 4.949429631233215332e-01
5.090000000000000000e+03 7.352718353271484375e+01 2.139594107866287231e-01 -4.329388737678527832e-01 7.561734199523925781e+00 2.138638496398925781e+00 -6.921318769454956055e-01
5.091000000000000000e+03 7.315129089355468750e+01 1.214287281036376953e+01 8.561609387397766113e-01 8.955138206481933594e+00 2.943389892578125000e+00 -9.348857998847961426e-01
5.092000000000000000e+03 7.151629638671875000e+01 6.732055664062500000e+00 -3.843598663806915283e-01 8.306520462036132812e+00 2.376648187637329102e+00 -7.474238872528076172e-01
5.093000000000000000e+03 7.326161956787109375e+01 -5.477044582366943359e+00 -6.422313451766967773e-01 7.549096584320068359e+00 2.072059631347656250e+00 -2.240859419107437134e-01
5.094000000000000000e+03 7.348234558105468750e+01 -8.217961788177490234e-01 -4.566372632980346680e-01 7.503835201263427734e+00 2.114159345626831055e+00 -6.117219924926757812e-01
5.095000000000000000e+03 7.291610717773437500e+01 -1.314375281333923340e+00 -4.999225437641143799e-01 7.314611911773681641e+00 2.044406890869140625e+00 -5.714601278305053711e-01
5.096000000000000000e+03 7.309822082519531250e+01 1.285408496856689453e+00 -4.654137790203094482e-01 7.480025291442871094e+00 2.104383468627929688e+00 -7.449514269828796387e-01
5.097000000000000000e+03 7.341057586669921875e+01 -2.968289375305175781e+00 -5.056415200233459473e-01 7.511354923248291016e+00 2.101714134216308594e+00 -4.500696659088134766e-01
5.098000000000000000e+03 7.329537963867187500e+01 -2.130283355712890625e+00 -4.902117252349853516e-01 7.433240890502929688e+00 2.082908630371093750e+00 -5.239247679710388184e-01
5.099000000000000000e+03 6.749954986572265625e+01 1.044173121452331543e+00 -3.366278111934661865e-01 5.137308120727539062e+00 1.440204143524169922e+00 1.406675577163696289e-01
5.100000000000000000e+03 7.340898895263671875e+01 -7.129062652587890625e+00 -7.187100648880004883e-01 7.749707698822021484e+00 2.109299421310424805e+00 3.637692192569375038e-03
5.101000000000000000e+03 7.262347412109375000e+01 6.618684291839599609e+00 -3.440250158309936523e-01 8.216215133666992188e+00 2.361656904220581055e+00 -1.029700875282287598e+00
5.102000000000000000e+03 7.331949615478515625e+01 4.620023250579833984e+00 -4.463444054126739502e-01 7.846666336059570312e+00 2.220096588134765625e+00 -9.979310631752014160e-01
5.103000000000000000e+03 7.318845367431640625e+01 2.946210861206054688e+00 -4.711947441101074219e-01 7.648489952087402344e+00 2.153188467025756836e+00 -8.643661141395568848e-01
5.104000000000000000e+03 7.388105010986328125e+01 3.203009128570556641e+00 -4.186289310455322266e-01 7.775491237640380859e+00 2.207058668136596680e+00 -9.443094730377197266e-01
5.105000000000000000e+03 7.410223388671875000e+01 -8.674878120422363281e+00 -6.277373433113098145e-01 8.092086791992187500e+00 2.239304780960083008e+00 3.077107369899749756e-01
5.106000000000000000e+03 7.208882904052734375e+01 -9.400609016418457031e+00 -9.861925840377807617e-01 7.625032901763916016e+00 1.991652131080627441e+00 1.895113438367843628e-01
5.107000000000000000e+03 7.352056121826171875e+01 -1.672241020202636719e+01 7.341554164886474609e-01 8.188091278076171875e+00 2.676674127578735352e+00 8.090233206748962402e-01
5.108000000000000000e+03 7.007537841796875000e+01 -9.479043006896972656e+00 -1.306441307067871094e+00 6.813828945159912109e+00 1.652216315269470215e+00 -2.558492124080657959e-01
5.109000000000000000e+03 7.343621826171875000e+01 -7.902850151062011719e+00 -7.341588735580444336e-01 7.832227230072021484e+00 2.129420518875122070e+00 1.210144311189651489e-01
5.110000000000000000e+03 5.809317588806152344e+00 -1.623263740539550781e+01 -1.635927855968475342e-01 -1.607572138309478760e-01 -9.730499982833862305e-02 -3.187350034713745117e-01
5.111000000000000000e+03 5.942025184631347656e+00 -1.544051074981689453e+01 -2.071351557970046997e-01 -1.465166211128234863e-01 -1.060955375432968140e-01 -2.933806180953979492e-01
5.112000000000000000e+03 7.492160320281982422e+00 1.790545272827148438e+01 -2.397492760792374611e-03 -2.861990593373775482e-03 -1.577844959683716297e-03 -6.413497612811625004e-04
5.113000000000000000e+03 7.396815776824951172e+00 2.758301544189453125e+01 -6.786808837205171585e-03 -1.190891303122043610e-02 -5.608716513961553574e-03 1.371913030743598938e-02
5.114000000000000000e+03 3.753051757812500000e+01 -1.070838642120361328e+01 1.514557003974914551e-01 -2.764367461204528809e-01 -3.749431669712066650e-02 -3.031829930841922760e-02
5.115000000000000000e+03 4.124441909790039062e+01 -1.330148696899414062e+01 7.012502551078796387e-01 4.965788722038269043e-01 3.593487441539764404e-01 1.293870061635971069e-01
5.116000000000000000e+03 5.582752704620361328e+00 -1.194110298156738281e+01 -1.907967776060104370e-01 -5.738517269492149353e-02 -7.445458322763442993e-02 -6.981349736452102661e-02
5.117000000000000000e+03 6.749355792999267578e+00 -1.066228294372558594e+01 -2.135333269834518433e-01 -1.050988659262657166e-01 -9.558966010808944702e-02 -1.650038547813892365e-02
5.118000000000000000e+03 8.149007797241210938e+00 -8.159886360168457031e+00 -1.421854794025421143e-01 -1.412814408540725708e-01 -8.504007756710052490e-02 4.940460249781608582e-02
5.119000000000000000e+03 1.027117347717285156e+01 -1.037178897857666016e+01 -3.493280708789825439e-01 -3.244257271289825439e-01 -2.021261453628540039e-01 -7.162743806838989258e-02
5.120000000000000000e+03 6.327456951141357422e+00 -1.333580493927001953e+01 -2.556800544261932373e-01 -1.152452230453491211e-01 -1.112775802612304688e-01 -1.625932455062866211e-01
5.121000000000000000e+03 7.877989768981933594e+00 -1.289164638519287109e+01 -3.484911024570465088e-01 -1.997420936822891235e-01 -1.644699573516845703e-01 -1.567228138446807861e-01
5.122000000000000000e+03 7.333229827880859375e+01 1.924142265319824219e+01 1.232647776603698730e+00 8.860275268554687500e+00 3.027877092361450195e+00 8.758684992790222168e-01
5.123000000000000000e+03 6.594793796539306641e+00 -1.855572128295898438e+01 -7.037670165300369263e-02 -2.747855484485626221e-01 -1.035486757755279541e-01 -4.302864670753479004e-01
5.124000000000000000e+03 6.945787906646728516e+00 -1.138049602508544922e+01 -2.493655234575271606e-01 -1.228673011064529419e-01 -1.116698458790779114e-01 -5.490576103329658508e-02
5.125000000000000000e+03 6.840324878692626953e+00 2.023672103881835938e+01 -4.153230693191289902e-03 -2.789510181173682213e-03 -2.082822145894169807e-03 9.813549695536494255e-04
5.126000000000000000e+03 6.075680255889892578e+00 1.794461059570312500e+01 -1.749737770296633244e-03 -1.582618337124586105e-03 -9.997067973017692566e-04 -8.372772135771811008e-04
5.127000000000000000e+03 6.808604240417480469e+00 1.870430564880371094e+01 -2.667139749974012375e-03 -2.411934081465005875e-03 -1.523722195997834206e-03 -2.709708933252841234e-04
5.128000000000000000e+03 1.151492500305175781e+01 1.503664779663085938e+01 3.740828251466155052e-04 -3.695443039759993553e-03 -9.964080527424812317e-04 3.440690488787367940e-05
5.129000000000000000e+03 6.830718517303466797e+00 1.616636085510253906e+01 -4.058325430378317833e-04 -1.883821561932563782e-03 -6.868962082080543041e-04 -1.382716465741395950e-03
5.130000000000000000e+03 1.280673122406005859e+01 1.213273143768310547e+01 1.353660016320645809e-03 -2.022662898525595665e-03 -2.007009024964645505e-04 1.006750040687620640e-03
5.131000000000000000e+03 7.265029144287109375e+01 -2.598196220397949219e+01 -1.999918669462203979e-01 7.728819370269775391e+00 2.258648157119750977e+00 -3.126337528228759766e-01
5.132000000000000000e+03 7.388121795654296875e+01 -2.546969795227050781e+01 -5.824649706482887268e-02 7.835116386413574219e+00 2.333060979843139648e+00 -4.776398241519927979e-01
5.133000000000000000e+03 7.770992279052734375e+00 7.331581115722656250e+00 8.311504498124122620e-04 -5.881383549422025681e-04 7.290364010259509087e-05 -4.575405910145491362e-04
5.134000000000000000e+03 6.165850639343261719e+00 1.141968631744384766e+01 5.930518382228910923e-04 -7.933881133794784546e-04 -6.010088327457197011e-05 -1.171317999251186848e-03
5.135000000000000000e+03 6.734460830688476562e+00 1.395432567596435547e+01 1.798215380404144526e-04 -1.536869443953037262e-03 -4.071143630426377058e-04 -1.448179944418370724e-03
5.136000000000000000e+03 7.679997920989990234e+00 8.826063156127929688e+00 9.470851509831845760e-04 -8.409144938923418522e-04 3.185119567206129432e-05 -6.374799995683133602e-04
5.137000000000000000e+03 1.304178524017333984e+01 1.340238475799560547e+01 1.253016525879502296e-03 -2.531903097406029701e-03 -3.836659598164260387e-04 1.043198746629059315e-03
5.138000000000000000e+03 1.236171531677246094e+01 1.518479061126708984e+01 1.703376037767156959e-04 -3.894721856340765953e-03 -1.117315259762108326e-03 3.057507856283336878e-04
5.139000000000000000e+03 8.870574951171875000e+00 -3.073360443115234375e+01 1.420978605747222900e-01 -2.480182200670242310e-01 -3.177610412240028381e-02 -1.014447957277297974e-01
5.140000000000000000e+03 7.016844749450683594e+00 2.279023361206054688e+01 -6.049283314496278763e-03 -4.807844758033752441e-03 -3.257138421759009361e-03 4.612126853317022324e-03
5.141000000000000000e+03 7.364698791503906250e+01 -2.649971961975097656e+01 -2.128595262765884399e-01 7.736308574676513672e+00 2.257034778594970703e+00 -3.966271579265594482e-01
5.142000000000000000e+03 7.236201477050781250e+01 -2.535041809082031250e+01 -1.105482056736946106e-01 7.809492111206054688e+00 2.309683084487915039e+00 -3.193971812725067139e-01
5.143000000000000000e+03 7.298567962646484375e+01 -2.510320281982421875e+01 -2.994622103869915009e-02 7.877785682678222656e+00 2.354351758956909180e+00 -4.120307266712188721e-01
5.144000000000000000e+03 6.466567230224609375e+01 -7.129896640777587891e+00 -6.934792399406433105e-01 2.275636911392211914e+00 4.746473133563995361e-01 -4.614270925521850586e-01
5.145000000000000000e+03 6.487606811523437500e+01 -6.411063671112060547e+00 -5.968989133834838867e-01 2.572812557220458984e+00 5.927740335464477539e-01 -4.383973181247711182e-01
5.146000000000000000e+03 7.418085575103759766e+00 -2.603456306457519531e+01 1.992241144180297852e-01 -3.449786603450775146e-01 -4.372636601328849792e-02 -2.261626422405242920e-01
5.147000000000000000e+03 9.162287712097167969e+00 -2.630223846435546875e+01 2.534681260585784912e-01 -2.178989946842193604e-01 1.067073456943035126e-02 -2.112827599048614502e-01
5.148000000000000000e+03 7.309986877441406250e+01 2.686040687561035156e+01 -7.785640954971313477e-01 7.905623435974121094e+00 2.138117790222167969e+00 5.664751529693603516e-01
5.149000000000000000e+03 7.239569091796875000e+01 2.517334556579589844e+01 -8.567234873771667480e-01 8.416387557983398438e+00 2.267899036407470703e+00 7.058275938034057617e-01
5.150000000000000000e+03 7.423921585083007812e+00 2.390198898315429688e+01 -6.800356786698102951e-03 -5.932639352977275848e-03 -3.819898702204227448e-03 6.639167200773954391e-03
5.151000000000000000e+03 1.499711418151855469e+01 -8.169298171997070312e+00 -2.952354550361633301e-01 -2.942898869514465332e-01 -1.768576055765151978e-01 -3.139650225639343262e-01
5.152000000000000000e+03 4.482899475097656250e+01 -4.683082580566406250e+00 -1.107671022415161133e+00 7.826283574104309082e-01 -9.751278162002563477e-02 -5.345822870731353760e-02
5.153000000000000000e+03 7.566878318786621094e+00 -1.238333129882812500e+01 -3.117103278636932373e-01 -1.717716157436370850e-01 -1.450445801019668579e-01 -1.179084181785583496e-01
5.154000000000000000e+03 7.218768310546875000e+01 -2.711515045166015625e+01 -3.570456206798553467e-01 7.457767009735107422e+00 2.130216360092163086e+00 -1.522895842790603638e-01
5.155000000000000000e+03 7.286079883575439453e+00 1.268257141113281250e+01 6.438681739382445812e-04 -1.515733660198748112e-03 -2.615596458781510592e-04 -1.302463584579527378e-03
5.156000000000000000e+03 6.938185119628906250e+01 2.569334983825683594e+01 -1.192893385887145996e+00 7.756746292114257812e+00 1.969155788421630859e+00 -7.251750826835632324e-01
5.157000000000000000e+03 7.229140472412109375e+01 -2.122242355346679688e+01 1.119516491889953613e+00 8.271639823913574219e+00 2.817347049713134766e+00 -9.110475331544876099e-02
5.158000000000000000e+03 7.288928985595703125e+01 8.241540908813476562e+00 -7.365301996469497681e-02 8.469209671020507812e+00 2.518666982650756836e+00 -1.150606751441955566e+00
5.159000000000000000e+03 2.252161979675292969e+01 -8.421324729919433594e+00 -5.049309134483337402e-01 2.351389229297637939e-01 -8.093760162591934204e-02 -4.316101372241973877e-01
5.160000000000000000e+03 3.357344818115234375e+01 -1.178125286102294922e+01 3.466664850711822510e-01 -1.854373067617416382e-01 4.836875572800636292e-02 -1.357601284980773926e-01
5.161000000000000000e+03 1.323534870147705078e+01 -7.464909553527832031e+00 -1.896415799856185913e-01 -2.694625854492187500e-01 -1.377312541007995605e-01 -1.609885394573211670e-01
5.162000000000000000e+03 9.654716491699218750e+00 -7.374994277954101562e+00 -1.256123334169387817e-01 -1.858635544776916504e-01 -9.344276785850524902e-02 2.437940984964370728e-02
5.163000000000000000e+03 7.843351364135742188e+00 -6.867353916168212891e+00 -7.251837104558944702e-02 -1.061959192156791687e-01 -5.361428484320640564e-02 7.695410400629043579e-02
5.164000000000000000e+03 1.523522567749023438e+01 2.426378250122070312e+01 -3.671984374523162842e-02 -5.016207229346036911e-03 -1.252081524580717087e-02 2.302884124219417572e-02
5.165000000000000000e+03 4.546440124511718750e+01 -6.874571800231933594e+00 -5.939207673072814941e-01 1.109003782272338867e+00 1.545249074697494507e-01 1.716070622205734253e-01
5.166000000000000000e+03 6.673239135742187500e+01 1.738912701606750488e+00 -2.192441821098327637e-01 4.746728897094726562e+00 1.358245491981506348e+00 3.773771822452545166e-01
5.167000000000000000e+03 7.152953338623046875e+01 2.347818946838378906e+01 -6.682313680648803711e-01 9.185637474060058594e+00 2.555221796035766602e+00 7.403079271316528320e-01
5.168000000000000000e+03 7.178695678710937500e+01 2.225956153869628906e+01 -5.778713896870613098e-02 9.501402854919433594e+00 2.833084821701049805e+00 1.037409782409667969e+00
5.169000000000000000e+03 3.795365524291992188e+01 -1.283009910583496094e+01 6.943061947822570801e-01 -2.126249521970748901e-01 1.445043683052062988e-01 -1.277878298424184322e-03
5.170000000000000000e+03 4.179706954956054688e+01 -1.252698326110839844e+01 6.184139847755432129e-01 6.030879616737365723e-01 3.664505779743194580e-01 1.712010800838470459e-01
5.171000000000000000e+03 3.863308334350585938e+01 -1.355946826934814453e+01 7.841886281967163086e-01 -9.734157472848892212e-02 2.060541212558746338e-01 -1.497395336627960205e-02
5.172000000000000000e+03 9.510421752929687500e+00 3.182885169982910156e+01 -1.971810590475797653e-03 -2.679663710296154022e-02 -8.630534633994102478e-03 2.339855395257472992e-02
5.173000000000000000e+03 7.205361843109130859e+00 -7.015175819396972656e+00 -7.008801400661468506e-02 -8.145235478878021240e-02 -4.546210914850234985e-02 8.600715547800064087e-02
5.174000000000000000e+03 6.536564636230468750e+01 -7.313817024230957031e+00 -7.824226617813110352e-01 2.776397943496704102e+00 5.981925725936889648e-01 -6.086559891700744629e-01
5.175000000000000000e+03 4.121808624267578125e+01 1.999769973754882812e+01 -3.202822506427764893e-01 1.081899106502532959e-01 -6.362769752740859985e-02 6.961247324943542480e-02
5.176000000000000000e+03 4.088681793212890625e+01 1.917739868164062500e+01 -3.053312003612518311e-01 9.282274544239044189e-02 -6.375253945589065552e-02 6.567189842462539673e-02
5.177000000000000000e+03 4.154117202758789062e+01 -2.106225585937500000e+01 3.393200039863586426e-01 1.060412645339965820e+00 4.199197888374328613e-01 2.430307306349277496e-02
5.178000000000000000e+03 6.866860961914062500e+01 5.149455547332763672e+00 -4.446495473384857178e-01 6.939489841461181641e+00 1.948452115058898926e+00 2.808011472225189209e-01
5.179000000000000000e+03 3.866419601440429688e+01 -1.286171150207519531e+01 6.843996047973632812e-01 -1.147006154060363770e-01 1.709097027778625488e-01 1.039866264909505844e-02
5.180000000000000000e+03 7.149622440338134766e+00 2.866985130310058594e+01 -5.506778135895729065e-03 -1.388464402407407761e-02 -5.817426834255456924e-03 1.441898196935653687e-02
5.181000000000000000e+03 6.027590560913085938e+01 -3.940941572189331055e+00 -4.237728659063577652e-03 7.175603508949279785e-01 2.139967828989028931e-01 3.680025339126586914e-01
5.182000000000000000e+03 7.275360870361328125e+01 1.344346809387207031e+01 1.219574809074401855e+00 9.438099861145019531e+00 3.197302341461181641e+00 -6.444565057754516602e-01
5.183000000000000000e+03 4.483823776245117188e+01 -6.912683010101318359e+00 -6.165047883987426758e-01 9.861174225807189941e-01 1.108837798237800598e-01 1.090472415089607239e-01
5.184000000000000000e+03 4.152845764160156250e+01 -6.965292453765869141e+00 -7.778545022010803223e-01 2.006815522909164429e-01 -1.731518805027008057e-01 -7.400465756654739380e-02
5.185000000000000000e+03 3.649379348754882812e+01 -1.264400196075439453e+01 6.711319088935852051e-01 -3.036055564880371094e-01 1.102579087018966675e-01 -1.267942483536899090e-03
5.186000000000000000e+03 4.296072769165039062e+01 -1.195242309570312500e+01 5.702683925628662109e-01 8.971838951110839844e-01 4.402356743812561035e-01 2.610019743442535400e-01
5.187000000000000000e+03 7.163986206054687500e+01 -2.741931152343750000e+01 -4.358722567558288574e-01 7.323716163635253906e+00 2.066353082656860352e+00 -1.824484393000602722e-02
5.188000000000000000e+03 4.403368377685546875e+01 1.788894653320312500e+01 -3.109467029571533203e-01 9.401527792215347290e-02 -6.507942825555801392e-02 -1.029060967266559601e-02
5.189000000000000000e+03 4.527458953857421875e+01 1.915353202819824219e+01 -3.914621174335479736e-01 1.304074823856353760e-01 -7.831639051437377930e-02 -2.153439261019229889e-02
5.190000000000000000e+03 7.204788208007812500e+01 -2.466463088989257812e+01 1.638313569128513336e-02 7.938068389892578125e+00 2.386335372924804688e+00 -2.914931476116180420e-01
5.191000000000000000e+03 7.980902194976806641e+00 -1.504654407501220703e+01 -3.526777625083923340e-01 -2.577945291996002197e-01 -1.831416785717010498e-01 -3.179239034652709961e-01
5.192000000000000000e+03 7.301588439941406250e+01 -1.946932971477508545e-01 -4.780861139297485352e-01 7.380729675292968750e+00 2.070792913436889648e+00 -6.489873528480529785e-01
5.193000000000000000e+03 1.128929805755615234e+01 -7.623779773712158203e+00 -1.623357534408569336e-01 -2.496214956045150757e-01 -1.235871762037277222e-01 -5.056735128164291382e-02
5.194000000000000000e+03 1.245919418334960938e+01 -8.905517578125000000e+00 -2.824282348155975342e-01 -3.567768633365631104e-01 -1.917615234851837158e-01 -1.450812220573425293e-01
5.195000000000000000e+03 4.372829437255859375e+01 1.700731086730957031e+01 -2.610912024974822998e-01 7.757925242185592651e-02 -5.505358427762985229e-02 -1.266627758741378784e-02
5.196000000000000000e+03 4.448933410644531250e+01 1.677762413024902344e+01 -2.549300789833068848e-01 6.328577548265457153e-02 -5.749328806996345520e-02 -2.979303523898124695e-02
5.197000000000000000e+03 4.054900360107421875e+01 -1.950484085083007812e+01 4.176433980464935303e-01 7.547654509544372559e-01 3.517226576805114746e-01 -4.774080589413642883e-02
5.198000000000000000e+03 7.286360168457031250e+01 -1.616932296752929688e+01 6.749019026756286621e-01 8.318801879882812500e+00 2.698111057281494141e+00 8.906056880950927734e-01
5.199000000000000000e+03 7.005752563476562500e+01 -1.024651908874511719e+01 -1.326251029968261719e+00 7.042670726776123047e+00 1.714925885200500488e+00 -1.445760726928710938e-01
5.200000000000000000e+03 7.075773620605468750e+01 -1.020545959472656250e+01 -1.198750853538513184e+00 7.340446949005126953e+00 1.842508792877197266e+00 5.646334215998649597e-02
5.201000000000000000e+03 7.318401336669921875e+01 9.739613533020019531e+00 2.358863353729248047e-01 8.608556747436523438e+00 2.653332948684692383e+00 -1.205268740653991699e+00
5.202000000000000000e+03 7.248356628417968750e+01 1.863690948486328125e+01 1.623991608619689941e+00 9.684130668640136719e+00 3.392436742782592773e+00 5.920562744140625000e-01
5.203000000000000000e+03 7.334703063964843750e+01 -6.331762313842773438e+00 -6.892144680023193359e-01 7.654450893402099609e+00 2.089570999145507812e+00 -1.167868822813034058e-01
5.204000000000000000e+03 6.631343841552734375e+01 1.448680758476257324e-01 -1.802209615707397461e-01 4.238779544830322266e+00 1.217567563056945801e+00 1.875829100608825684e-01
5.205000000000000000e+03 6.683101654052734375e+01 9.850521087646484375e-01 -2.370406687259674072e-01 4.684153556823730469e+00 1.334133982658386230e+00 2.446983754634857178e-01
5.206000000000000000e+03 3.904109573364257812e+01 2.185830879211425781e+01 -2.777436375617980957e-01 6.761820614337921143e-02 -6.303762644529342651e-02 1.146526634693145752e-01
5.207000000000000000e+03 4.274990844726562500e+01 -6.351647377014160156e+00 -9.061542749404907227e-01 4.712570309638977051e-01 -1.304691731929779053e-01 -5.712928995490074158e-02
5.208000000000000000e+03 4.210016250610351562e+01 -7.076862812042236328e+00 -7.255324125289916992e-01 3.462620377540588379e-01 -1.137811094522476196e-01 -4.130247980356216431e-02
5.209000000000000000e+03 2.801867866516113281e+01 -1.003014469146728516e+01 -3.217306733131408691e-01 4.498751088976860046e-02 -8.302294462919235229e-02 -5.640546083450317383e-01
5.210000000000000000e+03 7.653285026550292969e+00 -1.791123199462890625e+01 -1.385072767734527588e-01 -2.974181771278381348e-01 -1.307776272296905518e-01 -4.429089128971099854e-01
5.211000000000000000e+03 6.683628082275390625e+00 -1.612056159973144531e+01 -2.183021008968353271e-01 -2.004436850547790527e-01 -1.256237328052520752e-01 -3.450207412242889404e-01
5.212000000000000000e+03 4.399620437622070312e+01 -1.039467430114746094e+01 3.466976881027221680e-01 1.070606827735900879e+00 4.251913726329803467e-01 2.651866674423217773e-01
5.213000000000000000e+03 6.986529541015625000e+01 6.433147430419921875e+00 -4.411978721618652344e-01 7.945929527282714844e+00 2.251419544219970703e+00 -1.141702160239219666e-01
5.214000000000000000e+03 4.350976562500000000e+01 1.611443519592285156e+01 -2.173716872930526733e-01 5.294343084096908569e-02 -4.932847619056701660e-02 -5.408328026533126831e-03
5.215000000000000000e+03 6.221921920776367188e+00 -2.152326202392578125e+01 9.031825512647628784e-02 -3.496231436729431152e-01 -7.779146730899810791e-02 -3.894689083099365234e-01
5.216000000000000000e+03 4.258518981933593750e+01 -2.473758125305175781e+01 2.067412734031677246e-01 1.185513257980346680e+00 4.176763594150543213e-01 1.537820994853973389e-01
5.217000000000000000e+03 1.486148071289062500e+01 2.200950050354003906e+01 -2.832536771893501282e-02 -1.488409005105495453e-03 -8.944133296608924866e-03 8.179425261914730072e-03
5.218000000000000000e+03 3.990383148193359375e+01 -1.803952789306640625e+01 5.552536249160766602e-01 4.854175746440887451e-01 3.122013807296752930e-01 -1.145265847444534302e-01
5.219000000000000000e+03 2.295318603515625000e+01 -8.272551536560058594e+00 -5.423728227615356445e-01 2.450796514749526978e-01 -8.918794989585876465e-02 -4.273129999637603760e-01
5.220000000000000000e+03 1.352681922912597656e+01 1.841852760314941406e+01 -6.029778625816106796e-03 -4.120342899113893509e-03 -3.045036457479000092e-03 1.353580009890720248e-04
5.221000000000000000e+03 6.785081863403320312e+00 1.792009735107421875e+01 -1.603370066732168198e-03 -2.210799604654312134e-03 -1.144250971265137196e-03 -8.522082353010773659e-04
5.222000000000000000e+03 2.411037254333496094e+01 -8.012714385986328125e+00 -6.184260845184326172e-01 2.640611529350280762e-01 -1.063094735145568848e-01 -4.215738773345947266e-01
5.223000000000000000e+03 3.118878173828125000e+01 -9.647301673889160156e+00 -4.824205338954925537e-01 -2.237315326929092407e-01 -2.118456214666366577e-01 -3.855397403240203857e-01
5.224000000000000000e+03 8.649388313293457031e+00 -1.006042289733886719e+01 -2.682932913303375244e-01 -2.097716629505157471e-01 -1.434194892644882202e-01 -1.983935013413429260e-02
5.225000000000000000e+03 8.918138504028320312e+00 -7.481091022491455078e+00 -1.209366470575332642e-01 -1.614298075437545776e-01 -8.470993489027023315e-02 4.352244734764099121e-02
5.226000000000000000e+03 7.391462707519531250e+01 -2.725802612304687500e+01 -2.540054023265838623e-01 7.675953388214111328e+00 2.226584434509277344e+00 -3.791401386260986328e-01
5.227000000000000000e+03 7.094019317626953125e+01 -2.757175445556640625e+01 -4.703351855278015137e-01 7.080027103424072266e+00 1.982907533645629883e+00 1.368559002876281738e-01
5.228000000000000000e+03 7.221808624267578125e+01 2.115816688537597656e+01 6.371712088584899902e-01 9.428771018981933594e+00 3.019782781600952148e+00 1.136145234107971191e+00
5.229000000000000000e+03 3.537757110595703125e+01 -1.213799667358398438e+01 5.067757368087768555e-01 -2.893994748592376709e-01 6.521288305521011353e-02 -1.839922368526458740e-02
5.230000000000000000e+03 3.480017471313476562e+01 -1.205575180053710938e+01 4.640120863914489746e-01 -2.583108246326446533e-01 6.171038001775741577e-02 -4.662552103400230408e-02
5.231000000000000000e+03 7.666594028472900391e+00 1.040292739868164062e+01 1.029851613566279411e-03 -1.180785708129405975e-03 -4.528021599981002510e-05 -8.366419933736324310e-04
5.232000000000000000e+03 7.362368774414062500e+01 -1.139570045471191406e+01 -5.466018319129943848e-01 8.161879539489746094e+00 2.284583568572998047e+00 7.167960405349731445e-01
5.233000000000000000e+03 1.177351856231689453e+01 -8.992952346801757812e+00 -2.726936638355255127e-01 -3.366965949535369873e-01 -1.828170865774154663e-01 -9.974378347396850586e-02
5.234000000000000000e+03 1.020299625396728516e+01 7.161277770996093750e+00 8.384477114304900169e-04 -8.172341622412204742e-04 6.364064120134571567e-06 7.212734635686501861e-05
5.235000000000000000e+03 1.281185913085937500e+01 1.094668865203857422e+01 1.308609498664736748e-03 -1.511164009571075439e-03 -6.076634963392280042e-05 9.678237256594002247e-04
5.236000000000000000e+03 1.292350101470947266e+01 1.728868293762207031e+01 -2.763191238045692444e-03 -4.316408652812242508e-03 -2.123879967257380486e-03 1.230055058840662241e-04
5.237000000000000000e+03 7.277359771728515625e+01 -9.405443191528320312e+00 -8.547466993331909180e-01 7.825595378875732422e+00 2.091254472732543945e+00 3.017470240592956543e-01
5.238000000000000000e+03 4.054212188720703125e+01 -1.591908550262451172e+01 7.556089758872985840e-01 4.946683347225189209e-01 3.750831782817840576e-01 -1.680035493336617947e-03
5.239000000000000000e+03 3.943143081665039062e+01 -1.707600212097167969e+01 6.876504421234130859e-01 2.608046829700469971e-01 2.845365405082702637e-01 -1.478177011013031006e-01
5.240000000000000000e+03 3.926516723632812500e+01 2.053589820861816406e+01 -2.969034910202026367e-01 7.822768390178680420e-02 -6.560274213552474976e-02 9.705494344234466553e-02
5.241000000000000000e+03 3.870545196533203125e+01 2.277202224731445312e+01 -2.628678977489471436e-01 6.553487479686737061e-02 -5.919990688562393188e-02 1.227443069219589233e-01
5.242000000000000000e+03 3.879002380371093750e+01 2.104697608947753906e+01 -2.893283367156982422e-01 6.629633903503417969e-02 -6.690959632396697998e-02 1.071964278817176819e-01
5.243000000000000000e+03 6.818018341064453125e+01 4.742762565612792969e+00 -4.093456566333770752e-01 6.478123664855957031e+00 1.820633411407470703e+00 4.344455301761627197e-01
5.244000000000000000e+03 6.750772094726562500e+01 2.889683008193969727e+00 -3.305666744709014893e-01 5.526814937591552734e+00 1.558874368667602539e+00 3.792015910148620605e-01
5.245000000000000000e+03 6.867811584472656250e+01 -3.032148933410644531e+01 -4.436322748661041260e-01 5.540576457977294922e+00 1.529083251953125000e+00 6.509741544723510742e-01
5.246000000000000000e+03 1.312476062774658203e+01 7.701999187469482422e+00 8.055432117544114590e-04 -4.203676362521946430e-04 1.155526697402819991e-04 7.345816702581942081e-04
5.247000000000000000e+03 8.578697204589843750e+00 7.273932933807373047e+00 7.874968578107655048e-04 -7.578639197163283825e-04 8.889874152373522520e-06 -2.733137807808816433e-04
5.248000000000000000e+03 4.258246994018554688e+01 -2.755684471130371094e+01 6.889415532350540161e-02 1.001956105232238770e+00 3.212550580501556396e-01 1.669565439224243164e-01
5.249000000000000000e+03 6.908603668212890625e+00 1.050016021728515625e+01 7.572270114906132221e-04 -1.022685202769935131e-03 -7.963747339090332389e-05 -9.525100467726588249e-04
5.250000000000000000e+03 1.374416160583496094e+01 1.181416893005371094e+01 1.219137455336749554e-03 -1.283772173337638378e-03 -1.939041612786240876e-05 1.405880670063197613e-03
5.251000000000000000e+03 8.412926673889160156e+00 1.028840065002441406e+01 9.767216397449374199e-04 -1.464806613512337208e-03 -1.464254892198368907e-04 -5.627101636491715908e-04
5.252000000000000000e+03 7.847823143005371094e+00 3.249858856201171875e+01 1.810594112612307072e-04 -2.529211714863777161e-02 -7.533316966146230698e-03 1.854702457785606384e-02
5.253000000000000000e+03 4.083117294311523438e+01 -3.046244239807128906e+01 9.256580471992492676e-02 6.356629133224487305e-01 2.184686064720153809e-01 1.760191768407821655e-01
5.254000000000000000e+03 4.083689880371093750e+01 -1.344964981079101562e+01 7.078132629394531250e-01 3.736074268817901611e-01 3.244262039661407471e-01 9.611680358648300171e-02
5.255000000000000000e+03 4.019990158081054688e+01 -1.452268981933593750e+01 7.899127006530761719e-01 2.816129326820373535e-01 3.214576840400695801e-01 2.318633161485195160e-02
5.256000000000000000e+03 4.235959625244140625e+01 -2.553733444213867188e+01 1.501903682947158813e-01 1.088382720947265625e+00 3.715719282627105713e-01 1.825156360864639282e-01
5.257000000000000000e+03 4.168983078002929688e+01 -2.523997306823730469e+01 1.548932492733001709e-01 9.547436237335205078e-01 3.328910768032073975e-01 2.140361368656158447e-01
5.258000000000000000e+03 9.484892845153808594e+00 -2.757210731506347656e+01 2.342429459095001221e-01 -1.918144226074218750e-01 1.272855978459119797e-02 -1.755313873291015625e-01
5.259000000000000000e+03 6.941549301147460938e+00 8.144472122192382812e+00 8.175966213457286358e-04 -5.543793085962533951e-04 7.896519673522561789e-05 -6.811654311604797840e-04
5.260000000000000000e+03 4.552045822143554688e+01 1.987119102478027344e+01 -4.366709589958190918e-01 1.437182426452636719e-01 -8.788581192493438721e-02 -6.318221567198634148e-04
5.261000000000000000e+03 4.161254882812500000e+01 1.875249099731445312e+01 -3.006148338317871094e-01 9.749095886945724487e-02 -6.093716621398925781e-02 4.741580784320831299e-02
5.262000000000000000e+03 6.065446472167968750e+01 -5.008215427398681641e+00 -2.339499294757843018e-01 7.219699621200561523e-01 1.464060097932815552e-01 3.316216468811035156e-01
5.263000000000000000e+03 6.167281723022460938e+01 -4.528295040130615234e+00 -1.394596099853515625e-01 1.142852067947387695e+00 3.010177314281463623e-01 1.952481716871261597e-01
5.264000000000000000e+03 9.262677192687988281e+00 -3.461290359497070312e+01 6.779685616493225098e-02 -2.432297766208648682e-01 -5.262987688183784485e-02 -4.568404704332351685e-02
5.265000000000000000e+03 3.158915519714355469e+01 -1.122286701202392578e+01 1.190279945731163025e-01 -1.033404767513275146e-01 4.706255160272121429e-03 -3.358520865440368652e-01
5.266000000000000000e+03 3.295883178710937500e+01 -1.158718109130859375e+01 2.655032575130462646e-01 -1.542420983314514160e-01 3.337834402918815613e-02 -1.855247020721435547e-01
5.267000000000000000e+03 4.326340866088867188e+01 -2.903444290161132812e+01 1.756218820810317993e-02 1.002127647399902344e+00 3.059069514274597168e-01 8.751942962408065796e-02
5.268000000000000000e+03 1.063946056365966797e+01 -7.270405292510986328e+00 -1.337943077087402344e-01 -2.146226465702056885e-01 -1.045250818133354187e-01 -1.409754808992147446e-02
5.269000000000000000e+03 1.347583484649658203e+01 9.322943687438964844e+00 9.008284541778266430e-04 -7.243319414556026459e-04 5.294894799590110779e-05 9.576635784469544888e-04
5.270000000000000000e+03 1.228921890258789062e+01 8.506299972534179688e+00 1.007783343084156513e-03 -8.056877995841205120e-04 6.062867396394722164e-05 6.322413682937622070e-04
5.271000000000000000e+03 1.144990444183349609e+01 1.019044971466064453e+01 1.178867882117629051e-03 -1.637767767533659935e-03 -1.376699947286397219e-04 4.449940170161426067e-04
5.272000000000000000e+03 4.021518707275390625e+01 -1.331933689117431641e+01 6.988599896430969238e-01 1.990894377231597900e-01 2.693848311901092529e-01 6.075668707489967346e-02
5.273000000000000000e+03 7.152901458740234375e+01 2.968673706054687500e+01 -7.315436005592346191e-01 7.054246425628662109e+00 1.896810889244079590e+00 -1.252224892377853394e-01
5.274000000000000000e+03 1.284987735748291016e+01 9.261840820312500000e+00 1.037003472447395325e-03 -8.116033859550952911e-04 6.762004340998828411e-05 8.998212288133800030e-04
5.275000000000000000e+03 7.242461395263671875e+01 -2.275650405883789062e+01 6.448458433151245117e-01 8.119630813598632812e+00 2.629342794418334961e+00 -3.425439298152923584e-01
5.276000000000000000e+03 1.275436687469482422e+01 1.806761932373046875e+01 -4.989850334823131561e-03 -4.666130058467388153e-03 -2.896794350817799568e-03 1.075393593055196106e-04
5.277000000000000000e+03 6.807942867279052734e+00 1.707652664184570312e+01 -1.410043565556406975e-03 -2.147856866940855980e-03 -1.067370176315307617e-03 -1.075979089364409447e-03
5.278000000000000000e+03 1.300203132629394531e+01 1.979071807861328125e+01 -1.075712032616138458e-02 -4.137024283409118652e-03 -4.468243569135665894e-03 1.352856750600039959e-03
5.279000000000000000e+03 1.224249458312988281e+01 1.159634590148925781e+01 1.309864688664674759e-03 -1.950044883415102959e-03 -1.920540235005319118e-04 8.106513414531946182e-04
5.280000000000000000e+03 6.927107334136962891e+00 1.131446361541748047e+01 8.904134156182408333e-04 -1.060987589880824089e-03 -5.117225373396649957e-05 -1.163413864560425282e-03
5.281000000000000000e+03 1.380919170379638672e+01 7.687448978424072266e+00 6.076992722228169441e-04 -3.412276564631611109e-04 7.994148472789674997e-05 7.565619889646768570e-04
5.282000000000000000e+03 1.446612453460693359e+01 7.695104598999023438e+00 6.275335326790809631e-04 -2.618966391310095787e-05 1.804031635401770473e-04 8.983277366496622562e-04
5.283000000000000000e+03 4.478780364990234375e+01 -8.911694526672363281e+00 -1.396859344094991684e-02 1.146013140678405762e+00 3.396133780479431152e-01 2.248823344707489014e-01
5.284000000000000000e+03 1.645667266845703125e+01 2.651672744750976562e+01 -3.941970691084861755e-02 -1.673833094537258148e-02 -1.684741117060184479e-02 4.305071383714675903e-02
5.285000000000000000e+03 1.694082260131835938e+01 2.471406555175781250e+01 -4.874190688133239746e-02 -7.347017992287874222e-03 -1.682667806744575500e-02 3.484453260898590088e-02
5.286000000000000000e+03 5.957259750366210938e+01 -3.023076057434082031e+00 1.594658046960830688e-01 5.945129990577697754e-01 2.261936366558074951e-01 4.242552220821380615e-01
5.287000000000000000e+03 6.303865432739257812e+01 -3.344443321228027344e+00 -3.092860803008079529e-02 1.926180362701416016e+00 5.685755014419555664e-01 8.142044395208358765e-02
5.288000000000000000e+03 6.258623123168945312e+01 -1.815554380416870117e+00 1.974276304244995117e-01 1.848138809204101562e+00 6.136699318885803223e-01 2.657561302185058594e-01
5.289000000000000000e+03 4.515055847167968750e+01 -7.442035198211669922e+00 -4.232081472873687744e-01 1.101938724517822266e+00 2.036191821098327637e-01 1.741639673709869385e-01
5.290000000000000000e+03 4.478610610961914062e+01 -7.952928066253662109e+00 -3.180207610130310059e-01 1.071346044540405273e+00 2.259975820779800415e-01 1.697060614824295044e-01
5.291000000000000000e+03 7.334138488769531250e+01 -2.423323631286621094e+01 1.896288990974426270e-01 7.923671245574951172e+00 2.433990001678466797e+00 -4.648908972740173340e-01
5.292000000000000000e+03 7.088888549804687500e+01 2.519474983215332031e+01 -1.109558701515197754e+00 8.495155334472656250e+00 2.215678930282592773e+00 1.390350162982940674e-01
5.293000000000000000e+03 7.221483612060546875e+01 2.307806205749511719e+01 -3.418020308017730713e-01 9.104781150817871094e+00 2.628893852233886719e+00 9.970763921737670898e-01
5.294000000000000000e+03 2.722431945800781250e+01 -1.127060508728027344e+01 3.952448070049285889e-02 1.016130521893501282e-01 4.234125837683677673e-02 -5.548347234725952148e-01
5.295000000000000000e+03 5.920327377319335938e+01 -4.425323486328125000e+00 -1.272088289260864258e-01 3.766319453716278076e-01 7.482694089412689209e-02 4.861368238925933838e-01
5.296000000000000000e+03 6.433532238006591797e+00 -2.891459274291992188e+01 1.219442784786224365e-01 -4.191897213459014893e-01 -8.917363733053207397e-02 -1.297596842050552368e-01
5.297000000000000000e+03 4.545370101928710938e+01 -6.191182613372802734e+00 -7.484087347984313965e-01 1.046750783920288086e+00 8.950260281562805176e-02 1.343064308166503906e-01
5.298000000000000000e+03 6.421916198730468750e+01 3.043876647949218750e+01 -4.077306017279624939e-03 3.150586366653442383e+00 9.439527392387390137e-01 -1.085181474685668945e+00
5.299000000000000000e+03 6.248627090454101562e+01 3.201062774658203125e+01 2.851785421371459961e-01 2.420986175537109375e+00 8.118494153022766113e-01 -7.943465113639831543e-01
5.300000000000000000e+03 7.365110778808593750e+01 -2.145327186584472656e+01 7.767610549926757812e-01 7.983718872070312500e+00 2.628144025802612305e+00 -1.896319687366485596e-01
5.301000000000000000e+03 6.235548782348632812e+01 -4.807706832885742188e+00 -1.991229802370071411e-01 1.395927429199218750e+00 3.590413331985473633e-01 9.727203100919723511e-02
5.302000000000000000e+03 8.159674644470214844e+00 2.032702064514160156e+01 -5.511545110493898392e-03 -3.813530318439006805e-03 -2.797522582113742828e-03 1.433138852007687092e-03
5.303000000000000000e+03 6.207231140136718750e+01 -5.540750026702880859e+00 -3.282812237739562988e-01 1.159847497940063477e+00 2.494698911905288696e-01 1.244008839130401611e-01
5.304000000000000000e+03 6.303640365600585938e+01 -5.075403690338134766e+00 -2.747192978858947754e-01 1.696582198143005371e+00 4.265588819980621338e-01 -2.741212211549282074e-02
5.305000000000000000e+03 7.802513122558593750e+00 -2.530899620056152344e+01 2.181825190782546997e-01 -3.222172856330871582e-01 -3.121042810380458832e-02 -2.522621154785156250e-01
5.306000000000000000e+03 7.034172058105468750e+00 -2.668107223510742188e+01 1.751294732093811035e-01 -3.703525066375732422e-01 -5.856690928339958191e-02 -2.032146453857421875e-01
5.307000000000000000e+03 3.339085388183593750e+01 -9.662139892578125000e+00 -4.438343346118927002e-01 -3.311893641948699951e-01 -2.325070947408676147e-01 -2.097622603178024292e-01
5.308000000000000000e+03 2.403594970703125000e+01 -9.635171890258789062e+00 -3.929567635059356689e-01 2.300490736961364746e-01 -4.887231066823005676e-02 -4.887951016426086426e-01
5.309000000000000000e+03 2.683049011230468750e+01 -9.454000473022460938e+00 -5.018902420997619629e-01 1.469907760620117188e-01 -1.064698398113250732e-01 -5.573676824569702148e-01
5.310000000000000000e+03 4.193648910522460938e+01 1.632237815856933594e+01 -2.216056734323501587e-01 5.685271322727203369e-02 -4.942588880658149719e-02 2.180802449584007263e-02
5.311000000000000000e+03 6.862941741943359375e+01 -3.159652519226074219e+01 -3.476595580577850342e-01 5.303797245025634766e+00 1.486841320991516113e+00 5.787661671638488770e-01
5.312000000000000000e+03 7.163641357421875000e+01 3.290680694580078125e+01 -3.589290976524353027e-01 6.444510459899902344e+00 1.825674414634704590e+00 -1.898594647645950317e-01
5.313000000000000000e+03 6.985328674316406250e+01 3.344026184082031250e+01 -3.087147772312164307e-01 5.889667987823486328e+00 1.674286007881164551e+00 -3.881579935550689697e-01
5.314000000000000000e+03 3.645992279052734375e+01 2.631455230712890625e+01 -1.207328364253044128e-01 -9.624606929719448090e-03 -3.910723328590393066e-02 1.628469824790954590e-01
5.315000000000000000e+03 4.460813522338867188e+01 2.354727935791015625e+01 -4.034577608108520508e-01 1.833940595388412476e-01 -6.601911038160324097e-02 1.662561893463134766e-01
5.316000000000000000e+03 4.108957672119140625e+01 1.785734558105468750e+01 -2.768537700176239014e-01 7.777683436870574951e-02 -5.972308292984962463e-02 4.809113591909408569e-02
5.317000000000000000e+03 4.303027725219726562e+01 1.733684539794921875e+01 -2.715051770210266113e-01 7.916273176670074463e-02 -5.770273134112358093e-02 1.037517376244068146e-02
5.318000000000000000e+03 6.845546722412109375e+01 -3.492078781127929688e+01 -5.291324481368064880e-02 4.867878437042236328e+00 1.444489479064941406e+00 4.856370687484741211e-01
5.319000000000000000e+03 6.962067413330078125e+01 -2.929723739624023438e+01 -4.903719723224639893e-01 6.135921001434326172e+00 1.693664789199829102e+00 4.866965413093566895e-01
5.320000000000000000e+03 6.883753967285156250e+01 -2.925519561767578125e+01 -5.126988887786865234e-01 5.790171146392822266e+00 1.583241701126098633e+00 6.736125349998474121e-01
5.321000000000000000e+03 4.629075241088867188e+01 2.221507644653320312e+01 -5.195582509040832520e-01 1.983937174081802368e-01 -9.634937345981597900e-02 9.791588783264160156e-02
5.322000000000000000e+03 7.290548706054687500e+01 -2.991783905029296875e+01 -3.872306942939758301e-01 7.215857982635498047e+00 2.048588037490844727e+00 -7.634380459785461426e-02
5.323000000000000000e+03 7.257689666748046875e+01 -2.820056915283203125e+01 -4.064695537090301514e-01 7.375398159027099609e+00 2.090678453445434570e+00 -1.369162350893020630e-01
5.324000000000000000e+03 6.731227111816406250e+01 2.850342559814453125e+01 -7.429159283638000488e-01 5.382197380065917969e+00 1.391784429550170898e+00 -1.182162404060363770e+00
5.325000000000000000e+03 2.989162063598632812e+01 3.070719909667968750e+01 3.694084286689758301e-02 -1.175686269998550415e-01 -2.418833412230014801e-02 1.305697709321975708e-01
5.326000000000000000e+03 6.642175674438476562e+00 2.975540351867675781e+01 -3.598866984248161316e-03 -1.572675630450248718e-02 -5.797687452286481857e-03 1.432755123823881149e-02
5.327000000000000000e+03 7.930830955505371094e+00 2.826564407348632812e+01 -6.006270181387662888e-03 -1.429792307317256927e-02 -6.091258022934198380e-03 1.563393138349056244e-02
5.328000000000000000e+03 1.169618034362792969e+01 -3.426440429687500000e+01 9.926072508096694946e-02 -6.739629805088043213e-02 9.559325873851776123e-03 -5.995662882924079895e-02
5.329000000000000000e+03 1.095065212249755859e+01 -2.956404495239257812e+01 2.186231017112731934e-01 -8.090116083621978760e-02 4.131658002734184265e-02 -1.356339603662490845e-01
5.330000000000000000e+03 1.993705940246582031e+01 2.751048088073730469e+01 -4.448973760008811951e-02 -4.222032427787780762e-02 -2.601301856338977814e-02 7.762900739908218384e-02
5.331000000000000000e+03 2.026622009277343750e+01 2.949398422241210938e+01 -1.698664203286170959e-02 -6.092877313494682312e-02 -2.337462455034255981e-02 8.307386934757232666e-02
5.332000000000000000e+03 5.979410171508789062e+01 3.317895126342773438e+01 4.859527051448822021e-01 1.697669386863708496e+00 6.550866365432739258e-01 -4.072202146053314209e-01
5.333000000000000000e+03 2.610643768310546875e+01 2.769269943237304688e+01 -5.059780552983283997e-02 -9.189907461404800415e-02 -4.274906218051910400e-02 1.178399622440338135e-01
5.334000000000000000e+03 2.400893592834472656e+01 2.905646324157714844e+01 -2.016242034733295441e-02 -8.661964535713195801e-02 -3.203462064266204834e-02 1.093793511390686035e-01
5.335000000000000000e+03 5.494432067871093750e+01 3.107304000854492188e+01 3.267186284065246582e-01 3.905892074108123779e-01 2.151923477649688721e-01 1.249829009175300598e-01
5.336000000000000000e+03 4.207691955566406250e+01 2.073354148864746094e+01 -3.420810103416442871e-01 1.271333098411560059e-01 -6.448431313037872314e-02 7.836958765983581543e-02
5.337000000000000000e+03 4.477637863159179688e+01 2.023278999328613281e+01 -4.173320531845092773e-01 1.578917056322097778e-01 -7.783211022615432739e-02 2.353180386126041412e-02
5.338000000000000000e+03 7.302597045898437500e+01 2.830597305297851562e+01 -7.017637491226196289e-01 7.615713119506835938e+00 2.074184656143188477e+00 3.609688878059387207e-01
5.339000000000000000e+03 1.152774333953857422e+01 -2.878729057312011719e+01 2.531127929687500000e-01 -3.031828999519348145e-02 6.683835387229919434e-02 -1.575119495391845703e-01
5.340000000000000000e+03 9.982475280761718750e+00 -2.894198799133300781e+01 2.121954411268234253e-01 -1.527318656444549561e-01 1.783907040953636169e-02 -1.431129425764083862e-01
5.341000000000000000e+03 6.571994018554687500e+01 3.184506607055664062e+01 -9.988578408956527710e-02 4.060170650482177734e+00 1.188085556030273438e+00 -8.145310282707214355e-01
5.342000000000000000e+03 1.896137619018554688e+01 2.849760055541992188e+01 -2.802767790853977203e-02 -4.399348795413970947e-02 -2.160635031759738922e-02 7.122747600078582764e-02
5.343000000000000000e+03 2.631224060058593750e+01 -3.938785552978515625e+01 2.430300265550613403e-01 1.687008887529373169e-01 1.235192716121673584e-01 -5.480877682566642761e-02
5.344000000000000000e+03 2.386966323852539062e+01 -3.641302490234375000e+01 2.426107674837112427e-01 1.773151010274887085e-01 1.259777694940567017e-01 -1.156709417700767517e-01
5.345000000000000000e+03 1.149699974060058594e+01 -3.118070411682128906e+01 1.805830299854278564e-01 -5.218484997749328613e-02 3.851945325732231140e-02 -1.054344847798347473e-01
5.346000000000000000e+03 3.269441986083984375e+01 2.884743881225585938e+01 -2.096514683216810226e-03 -9.082952886819839478e-02 -2.787781320512294769e-02 1.487119495868682861e-01
5.347000000000000000e+03 7.455232143402099609e+00 3.189846992492675781e+01 1.670980418566614389e-04 -2.303808368742465973e-02 -6.861296016722917557e-03 1.765275932848453522e-02
5.348000000000000000e+03 4.841287612915039062e+01 3.468608093261718750e+01 4.631895720958709717e-01 1.360188871622085571e-01 1.797625422477722168e-01 2.632508873939514160e-01
5.349000000000000000e+03 6.982151031494140625e+01 -3.327747344970703125e+01 -2.415044307708740234e-01 5.639906406402587891e+00 1.619520664215087891e+00 4.167113602161407471e-01
5.350000000000000000e+03 6.969603729248046875e+01 -3.980521774291992188e+01 1.823960244655609131e-01 5.243860721588134766e+00 1.627876996994018555e+00 1.216537877917289734e-01
5.351000000000000000e+03 2.237494850158691406e+01 -4.155896759033203125e+01 1.572726666927337646e-01 1.944553554058074951e-01 1.055184081196784973e-01 -1.719583570957183838e-02
5.352000000000000000e+03 2.130445098876953125e+01 -3.738605117797851562e+01 1.765826046466827393e-01 1.987507194280624390e-01 1.125999987125396729e-01 -1.049316450953483582e-01
5.353000000000000000e+03 4.155546188354492188e+01 -3.445674514770507812e+01 1.457191854715347290e-01 5.574815273284912109e-01 2.109602242708206177e-01 3.591002151370048523e-02
5.354000000000000000e+03 1.509246158599853516e+01 -3.732882308959960938e+01 7.651703059673309326e-02 8.936008810997009277e-02 4.976313561201095581e-02 -5.232279375195503235e-02
5.355000000000000000e+03 7.192743682861328125e+01 -3.270784759521484375e+01 -3.173939883708953857e-01 6.567296981811523438e+00 1.874970912933349609e+00 1.482757925987243652e-01
5.356000000000000000e+03 7.145352172851562500e+01 -3.159707450866699219e+01 -3.901664316654205322e-01 6.512808322906494141e+00 1.836792469024658203e+00 1.953492760658264160e-01
5.357000000000000000e+03 7.042019653320312500e+01 3.465270996093750000e+01 -1.736777722835540771e-01 5.917117595672607422e+00 1.723031997680664062e+00 -2.975093126296997070e-01
5.358000000000000000e+03 3.717964935302734375e+01 2.434115600585937500e+01 -2.041295319795608521e-01 2.399022690951824188e-02 -5.404179170727729797e-02 1.441860198974609375e-01
5.359000000000000000e+03 3.704215240478515625e+01 2.526385879516601562e+01 -1.696690768003463745e-01 1.241771038621664047e-02 -4.717540740966796875e-02 1.597072184085845947e-01
5.360000000000000000e+03 4.175118255615234375e+01 -3.156694221496582031e+01 7.787314802408218384e-02 6.888694763183593750e-01 2.300227880477905273e-01 1.021181419491767883e-01
5.361000000000000000e+03 4.815621948242187500e+01 2.450002479553222656e+01 -5.484157204627990723e-01 1.991390734910964966e-01 -1.047829985618591309e-01 2.307111322879791260e-01
5.362000000000000000e+03 4.272487258911132812e+01 2.516405677795410156e+01 -2.729661464691162109e-01 1.324153989553451538e-01 -4.216522723436355591e-02 2.057186663150787354e-01
5.363000000000000000e+03 7.049888610839843750e+01 3.638610839843750000e+01 -5.802178382873535156e-02 5.762603759765625000e+00 1.711374640464782715e+00 -2.160091698169708252e-01
5.364000000000000000e+03 6.681230163574218750e+01 3.482988357543945312e+01 5.553031805902719498e-03 4.623259067535400391e+00 1.388643622398376465e+00 -5.496189594268798828e-01
5.365000000000000000e+03 6.006829452514648438e+01 2.911037635803222656e+01 1.606546640396118164e-01 1.032802343368530273e+00 3.580370843410491943e-01 -5.240815877914428711e-01
5.366000000000000000e+03 7.332338714599609375e+01 -1.259354114532470703e+01 -3.659429848194122314e-01 8.215272903442382812e+00 2.354799032211303711e+00 8.887919187545776367e-01
5.367000000000000000e+03 7.345381164550781250e+01 2.185066461563110352e+00 -4.488757550716400146e-01 7.635879993438720703e+00 2.156101226806640625e+00 -8.360024690628051758e-01
5.368000000000000000e+03 7.028206348419189453e+00 -1.229105186462402344e+01 -2.843104600906372070e-01 -1.415280848741531372e-01 -1.277515590190887451e-01 -1.069009304046630859e-01
5.369000000000000000e+03 2.926463317871093750e+01 -9.859765052795410156e+00 -3.699352443218231201e-01 -4.759452491998672485e-02 -1.252589374780654907e-01 -5.189381241798400879e-01
5.370000000000000000e+03 2.984969329833984375e+01 -9.142468452453613281e+00 -6.525691151618957520e-01 -1.595170348882675171e-01 -2.436258494853973389e-01 -4.721087515354156494e-01
5.371000000000000000e+03 2.843038177490234375e+01 -9.231825828552246094e+00 -5.884367823600769043e-01 -7.466668263077735901e-03 -1.787710338830947876e-01 -5.439588427543640137e-01
5.372000000000000000e+03 7.333405494689941406e+00 -1.619923019409179688e+01 -2.566272020339965820e-01 -2.389162033796310425e-01 -1.486630141735076904e-01 -3.703294694423675537e-01
5.373000000000000000e+03 4.210469055175781250e+01 -9.461431503295898438e+00 -1.250750105828046799e-02 4.757515192031860352e-01 1.389732062816619873e-01 7.844956964254379272e-02
5.374000000000000000e+03 4.363706970214843750e+01 -9.709449768066406250e+00 1.467083543539047241e-01 9.144282341003417969e-01 3.183409869670867920e-01 1.930583268404006958e-01
5.375000000000000000e+03 3.565956497192382812e+01 -1.090416145324707031e+01 1.263366192579269409e-01 -3.293013274669647217e-01 -6.088941171765327454e-02 -5.595303699374198914e-02
5.376000000000000000e+03 7.303114318847656250e+01 1.071700000762939453e+01 4.936309754848480225e-01 8.834439277648925781e+00 2.798421144485473633e+00 -1.127347707748413086e+00
5.377000000000000000e+03 6.362919998168945312e+01 -3.645122766494750977e+00 -1.177101358771324158e-01 2.198520421981811523e+00 6.242430806159973145e-01 -9.429791942238807678e-03
5.378000000000000000e+03 6.526976013183593750e+01 -9.259648323059082031e-01 -7.155200839042663574e-02 3.441471099853515625e+00 1.010975718498229980e+00 1.446313261985778809e-01
5.379000000000000000e+03 6.980579853057861328e+00 7.396268844604492188e+00 6.452835514210164547e-04 -5.223937332630157471e-04 3.686694981297478080e-05 -5.498606478795409203e-04
5.380000000000000000e+03 3.173933792114257812e+01 -9.696840286254882812e+00 -4.454568326473236084e-01 -2.510246038436889648e-01 -2.089444249868392944e-01 -3.237286210060119629e-01
5.381000000000000000e+03 7.457642555236816406e+00 -1.439668560028076172e+01 -3.332027792930603027e-01 -2.008484005928039551e-01 -1.602153480052947998e-01 -2.537641227245330811e-01
5.382000000000000000e+03 7.963957786560058594e+00 -1.389399433135986328e+01 -3.668904900550842285e-01 -2.275037914514541626e-01 -1.783182919025421143e-01 -2.302200794219970703e-01
5.383000000000000000e+03 7.363026428222656250e+01 2.067187118530273438e+01 6.922146677970886230e-01 8.562645912170410156e+00 2.776458263397216797e+00 1.200663685798645020e+00
5.384000000000000000e+03 7.303258514404296875e+01 7.238218307495117188e+00 -2.431072443723678589e-01 8.268585205078125000e+00 2.407643318176269531e+00 -1.135917782783508301e+00
5.385000000000000000e+03 7.330098724365234375e+01 8.766067504882812500e+00 3.664213046431541443e-02 8.441834449768066406e+00 2.543542861938476562e+00 -1.230204343795776367e+00
5.386000000000000000e+03 7.343908691406250000e+01 -8.650555610656738281e+00 -7.500269412994384766e-01 7.908240318298339844e+00 2.147464036941528320e+00 2.423292398452758789e-01
5.387000000000000000e+03 7.266150665283203125e+01 -6.432655811309814453e+00 -7.764635086059570312e-01 7.417090892791748047e+00 1.992188215255737305e+00 -1.623975485563278198e-01
5.388000000000000000e+03 6.439434814453125000e+01 -5.514838218688964844e+00 -4.288153350353240967e-01 2.395868778228759766e+00 5.901160240173339844e-01 -2.819661200046539307e-01
5.389000000000000000e+03 6.577862548828125000e+01 -5.839145183563232422e+00 -6.088173985481262207e-01 3.291698694229125977e+00 8.048643469810485840e-01 -5.043094754219055176e-01
5.390000000000000000e+03 7.251440429687500000e+01 2.193337440490722656e+01 2.577592134475708008e-01 9.183225631713867188e+00 2.832295417785644531e+00 1.200153350830078125e+00
5.391000000000000000e+03 4.020792007446289062e+01 -1.665020751953125000e+01 7.107197642326354980e-01 4.548352956771850586e-01 3.496665060520172119e-01 -6.511966139078140259e-02
5.392000000000000000e+03 2.727518653869628906e+01 -1.053618717193603516e+01 -1.769427657127380371e-01 1.028446778655052185e-01 -2.222942560911178589e-02 -5.663776397705078125e-01
5.393000000000000000e+03 6.584771728515625000e+01 -6.926783323287963867e-01 -1.449420452117919922e-01 3.854179859161376953e+00 1.112771391868591309e+00 1.154061332345008850e-01
5.394000000000000000e+03 7.346388816833496094e+00 1.371343135833740234e+01 4.559499211609363556e-04 -1.838579308241605759e-03 -4.147888103034347296e-04 -1.332127023488283157e-03
5.395000000000000000e+03 6.918902397155761719e+00 -1.480016708374023438e+01 -2.943109869956970215e-01 -1.786548346281051636e-01 -1.418897509574890137e-01 -2.724104523658752441e-01
5.396000000000000000e+03 6.400085926055908203e+00 -1.512417793273925781e+01 -2.443163841962814331e-01 -1.601749360561370850e-01 -1.213473975658416748e-01 -2.850660085678100586e-01
5.397000000000000000e+03 9.446801185607910156e+00 -9.022770881652832031e+00 -2.237316817045211792e-01 -2.281977385282516479e-01 -1.355788260698318481e-01 -2.885807305574417114e-03
5.398000000000000000e+03 3.744890213012695312e+01 -1.134909915924072266e+01 3.354825675487518311e-01 -2.751469910144805908e-01 1.810067147016525269e-02 -1.018680632114410400e-02
5.399000000000000000e+03 4.193585586547851562e+01 -7.754580974578857422e+00 -5.175979137420654297e-01 3.454307019710540771e-01 -5.165016278624534607e-02 -1.307259593158960342e-02
5.400000000000000000e+03 7.541191101074218750e+00 2.632018089294433594e+01 -8.003123104572296143e-03 -9.610408917069435120e-03 -5.284059792757034302e-03 1.182206347584724426e-02
5.401000000000000000e+03 8.436755180358886719e+00 2.908538436889648438e+01 -7.022737059742212296e-03 -1.687733456492424011e-02 -7.170021533966064453e-03 1.834926940500736237e-02
5.402000000000000000e+03 7.356216430664062500e+01 3.953749656677246094e+00 -4.249165654182434082e-01 7.792958259582519531e+00 2.210412502288818359e+00 -9.728313088417053223e-01
5.403000000000000000e+03 6.505244731903076172e+00 -2.817442321777343750e+01 1.368222832679748535e-01 -4.075030982494354248e-01 -8.120423555374145508e-02 -1.505977511405944824e-01
5.404000000000000000e+03 7.131974697113037109e+00 -2.785826492309570312e+01 1.564764231443405151e-01 -3.669098615646362305e-01 -6.313002854585647583e-02 -1.628874242305755615e-01
5.405000000000000000e+03 3.492072296142578125e+01 -1.139197921752929688e+01 2.581207156181335449e-01 -2.980832755565643311e-01 -1.198877207934856415e-02 -6.505813449621200562e-02
5.406000000000000000e+03 7.274177551269531250e+01 -2.331402969360351562e+01 4.625233113765716553e-01 8.041184425354003906e+00 2.551112413406372070e+00 -3.982419371604919434e-01
5.407000000000000000e+03 3.695329284667968750e+01 -1.057850551605224609e+01 8.297096937894821167e-02 -3.177652955055236816e-01 -7.043830305337905884e-02 -4.878631234169006348e-02
5.408000000000000000e+03 2.552331161499023438e+01 -8.058867454528808594e+00 -7.227991223335266113e-01 2.471573799848556519e-01 -1.426925361156463623e-01 -4.512536525726318359e-01
5.409000000000000000e+03 4.080762481689453125e+01 -1.649020195007324219e+01 7.006279826164245605e-01 6.080839633941650391e-01 3.926135897636413574e-01 -1.641047187149524689e-02
5.410000000000000000e+03 3.709931182861328125e+01 -9.955945968627929688e+00 -1.191335767507553101e-01 -3.228490352630615234e-01 -1.325947791337966919e-01 -8.438143134117126465e-02
5.411000000000000000e+03 3.581111145019531250e+01 -1.029139328002929688e+01 -7.619678229093551636e-02 -3.471378684043884277e-01 -1.270003914833068848e-01 -8.940077573060989380e-02
5.412000000000000000e+03 9.166860580444335938e+00 2.413148117065429688e+01 -1.067650038748979568e-02 -7.437763735651969910e-03 -5.434279330074787140e-03 9.553592652082443237e-03
5.413000000000000000e+03 2.432991409301757812e+01 -8.993631362915039062e+00 -5.126749873161315918e-01 2.481209486722946167e-01 -7.936621457338333130e-02 -4.750082492828369141e-01
5.414000000000000000e+03 8.312933921813964844e+00 -2.781576156616210938e+01 1.954214721918106079e-01 -2.823193371295928955e-01 -2.606936171650886536e-02 -1.685601919889450073e-01
5.415000000000000000e+03 7.598325729370117188e+00 -1.010157966613769531e+01 -2.233055233955383301e-01 -1.443490386009216309e-01 -1.102963685989379883e-01 -2.042432781308889389e-03
5.416000000000000000e+03 7.332865238189697266e+00 -1.191206169128417969e+01 -2.803022265434265137e-01 -1.512832343578338623e-01 -1.294756382703781128e-01 -8.811941742897033691e-02
5.417000000000000000e+03 7.335437774658203125e+01 2.458450889587402344e+01 -5.969548821449279785e-01 8.362797737121582031e+00 2.329752922058105469e+00 9.929848909378051758e-01
5.418000000000000000e+03 7.206958007812500000e+01 2.432597732543945312e+01 -7.638046741485595703e-01 8.739097595214843750e+00 2.392587900161743164e+00 7.029116153717041016e-01
5.419000000000000000e+03 6.556026458740234375e+01 -6.584278106689453125e+00 -6.958341598510742188e-01 3.027273654937744141e+00 6.994318366050720215e-01 -5.606631636619567871e-01
5.420000000000000000e+03 7.307202911376953125e+01 -2.373087501525878906e+01 2.975433766841888428e-01 7.958552837371826172e+00 2.476828813552856445e+00 -4.350839257240295410e-01
5.421000000000000000e+03 1.433595275878906250e+01 -7.986619472503662109e+00 -2.532935738563537598e-01 -2.953733205795288086e-01 -1.646000593900680542e-01 -2.530044317245483398e-01
5.422000000000000000e+03 3.955006027221679688e+01 -1.150906467437744141e+01 4.321470558643341064e-01 -1.564268372021615505e-03 1.291748285293579102e-01 3.973738104104995728e-02
5.423000000000000000e+03 7.781121730804443359e+00 1.537923049926757812e+01 -1.986878050956875086e-04 -2.506437012925744057e-03 -8.115374366752803326e-04 -1.284248544834554195e-03
5.424000000000000000e+03 8.142741203308105469e+00 2.473733329772949219e+01 -8.261787705123424530e-03 -7.735332474112510681e-03 -4.799135960638523102e-03 9.288439527153968811e-03
5.425000000000000000e+03 7.358771324157714844e+00 2.474043083190917969e+01 -7.743170019239187241e-03 -6.748570129275321960e-03 -4.347521811723709106e-03 8.323945105075836182e-03
5.426000000000000000e+03 2.573753166198730469e+01 -9.852112770080566406e+00 -3.561988770961761475e-01 1.907518059015274048e-01 -4.963412135839462280e-02 -5.426378846168518066e-01
5.427000000000000000e+03 7.358483886718750000e+01 -1.194425106048583984e+01 -4.761562049388885498e-01 8.192225456237792969e+00 2.314820766448974609e+00 8.031377792358398438e-01
5.428000000000000000e+03 7.334316253662109375e+01 6.175392627716064453e+00 -3.517113626003265381e-01 8.058465003967285156e+00 2.312026023864746094e+00 -1.112441420555114746e+00
5.429000000000000000e+03 7.288356781005859375e+01 -1.116729354858398438e+01 -6.909311413764953613e-01 8.052348136901855469e+00 2.208425045013427734e+00 6.330806016921997070e-01
5.430000000000000000e+03 7.343621826171875000e+01 -9.359559059143066406e+00 -7.529098987579345703e-01 7.980963706970214844e+00 2.168416023254394531e+00 3.633718788623809814e-01
5.431000000000000000e+03 7.147010803222656250e+01 -1.088477993011474609e+01 -9.954747557640075684e-01 7.727559566497802734e+00 2.019625425338745117e+00 3.674594759941101074e-01
5.432000000000000000e+03 7.315730285644531250e+01 -1.166270828247070312e+01 -5.834608078002929688e-01 8.124236106872558594e+00 2.262232542037963867e+00 7.309771180152893066e-01
5.433000000000000000e+03 7.325409698486328125e+01 6.821649074554443359e-01 -4.672526717185974121e-01 7.488269329071044922e+00 2.106305122375488281e+00 -7.238878011703491211e-01
5.434000000000000000e+03 7.330700683593750000e+01 -4.593820095062255859e+00 -5.899134278297424316e-01 7.512262344360351562e+00 2.076704740524291992e+00 -3.111344575881958008e-01
5.435000000000000000e+03 7.219739532470703125e+01 -4.862152576446533203e+00 -6.976978182792663574e-01 7.125012397766113281e+00 1.928194284439086914e+00 -3.464345335960388184e-01
5.436000000000000000e+03 7.280775451660156250e+01 -2.990647792816162109e+00 -5.530787110328674316e-01 7.271466732025146484e+00 2.015516281127929688e+00 -4.614649116992950439e-01
5.437000000000000000e+03 6.784819030761718750e+01 3.339312076568603516e+00 -3.809466063976287842e-01 5.844636917114257812e+00 1.639107108116149902e+00 3.687463104724884033e-01
5.438000000000000000e+03 7.324506378173828125e+01 5.397067070007324219e+00 -3.983234465122222900e-01 7.969085693359375000e+00 2.271228790283203125e+00 -1.047075510025024414e+00
5.439000000000000000e+03 7.238174438476562500e+01 -5.529751777648925781e-01 -5.189090371131896973e-01 7.152995586395263672e+00 1.990225911140441895e+00 -5.898665785789489746e-01
5.440000000000000000e+03 7.228926849365234375e+01 -3.839439392089843750e+00 -6.399250030517578125e-01 7.081161022186279297e+00 1.932370781898498535e+00 -4.167422652244567871e-01
5.441000000000000000e+03 7.212989044189453125e+01 -7.950423717498779297e+00 -9.383556246757507324e-01 7.415992736816406250e+00 1.943291187286376953e+00 -3.207500278949737549e-02
5.442000000000000000e+03 7.284611511230468750e+01 1.930498480796813965e+00 -4.934287071228027344e-01 7.475079059600830078e+00 2.094495058059692383e+00 -7.687959671020507812e-01
5.443000000000000000e+03 7.148814392089843750e+01 5.709774017333984375e+00 -4.854469001293182373e-01 7.978907585144042969e+00 2.248038291931152344e+00 -6.996297240257263184e-01
5.444000000000000000e+03 6.947850036621093750e+01 5.917048931121826172e+00 -4.642532169818878174e-01 7.647813796997070312e+00 2.155068159103393555e+00 3.918068110942840576e-02
5.445000000000000000e+03 6.815719604492187500e+00 1.947483062744140625e+01 -2.745503094047307968e-03 -2.590162213891744614e-03 -1.600699615664780140e-03 8.672854164615273476e-05
5.446000000000000000e+03 7.144760131835937500e+01 -8.686348915100097656e+00 -1.073165059089660645e+00 7.263223171234130859e+00 1.857017397880554199e+00 -4.339537397027015686e-02
5.447000000000000000e+03 8.343022346496582031e+00 -1.142246627807617188e+01 -3.241987228393554688e-01 -2.159430533647537231e-01 -1.620425283908843994e-01 -7.604286819696426392e-02
5.448000000000000000e+03 7.455530548095703125e+01 1.488147449493408203e+01 1.058500170707702637e+00 7.982220649719238281e+00 2.712216377258300781e+00 -3.864105641841888428e-01
5.449000000000000000e+03 7.594048023223876953e+00 1.866841125488281250e+01 -2.704550977796316147e-03 -2.996880561113357544e-03 -1.710429554805159569e-03 -2.820603840518742800e-04
5.450000000000000000e+03 5.947902202606201172e+00 -1.383361721038818359e+01 -2.336579412221908569e-01 -1.057640910148620605e-01 -1.018266081809997559e-01 -1.865892559289932251e-01
5.451000000000000000e+03 6.917900085449218750e+00 -1.383343219757080078e+01 -2.934181690216064453e-01 -1.579202562570571899e-01 -1.354015320539474487e-01 -2.055565118789672852e-01
5.452000000000000000e+03 6.801239490509033203e+00 -9.075912475585937500e+00 -1.495033055543899536e-01 -8.898848295211791992e-02 -7.154753804206848145e-02 4.485706612467765808e-02
5.453000000000000000e+03 6.814281463623046875e+00 -9.869678497314453125e+00 -1.820529103279113770e-01 -9.800602495670318604e-02 -8.401767909526824951e-02 1.926827989518642426e-02
5.454000000000000000e+03 7.922605037689208984e+00 -1.094208240509033203e+01 -2.822233140468597412e-01 -1.738785356283187866e-01 -1.368305534124374390e-01 -4.070442914962768555e-02
5.455000000000000000e+03 7.567276954650878906e+00 1.946226310729980469e+01 -3.968785051256418228e-03 -3.229129128158092499e-03 -2.159374067559838295e-03 5.232384428381919861e-04
5.456000000000000000e+03 6.901597499847412109e+00 9.694189071655273438e+00 9.088009246625006199e-04 -7.889030384831130505e-04 3.596936585381627083e-05 -8.953449432738125324e-04
5.457000000000000000e+03 7.477711677551269531e+00 1.720170402526855469e+01 -1.221722457557916641e-03 -2.648155670613050461e-03 -1.160963438451290131e-03 -1.022122218273580074e-03
5.458000000000000000e+03 1.141697788238525391e+01 1.676670265197753906e+01 -1.739627216011285782e-03 -4.353872034698724747e-03 -1.828049658797681332e-03 -2.047575253527611494e-04
5.459000000000000000e+03 7.781709671020507812e+00 1.666425895690917969e+01 -1.156320562586188316e-03 -2.633485244587063789e-03 -1.136941718868911266e-03 -1.102408044971525669e-03
5.460000000000000000e+03 7.719588279724121094e+00 8.070155143737792969e+00 7.748648058623075485e-04 -7.824285421520471573e-04 -2.269124252052279189e-06 -5.010912427678704262e-04
5.461000000000000000e+03 1.234696769714355469e+01 1.286432647705078125e+01 1.287874882109463215e-03 -2.491489052772521973e-03 -3.610842977650463581e-04 8.130206842906773090e-04
5.462000000000000000e+03 7.263394927978515625e+01 2.599465560913085938e+01 -8.484345674514770508e-01 8.133084297180175781e+00 2.185395002365112305e+00 5.656499266624450684e-01
5.463000000000000000e+03 1.185064220428466797e+01 1.359840202331542969e+01 1.075849169865250587e-03 -3.103038063272833824e-03 -6.081566680222749710e-04 4.068337148055434227e-04
5.464000000000000000e+03 8.218624114990234375e+00 2.600350379943847656e+01 -8.324765600264072418e-03 -9.767289273440837860e-03 -5.427616182714700699e-03 1.193795260041952133e-02
5.465000000000000000e+03 8.009593963623046875e+00 2.705517578125000000e+01 -7.256451528519392014e-03 -1.160334702581167221e-02 -5.657939705997705460e-03 1.343127619475126266e-02
5.466000000000000000e+03 6.741475677490234375e+01 1.748497605323791504e+00 -3.264142274856567383e-01 5.207260608673095703e+00 1.464253902435302734e+00 2.598145604133605957e-01
5.467000000000000000e+03 1.342865562438964844e+01 2.393554496765136719e+01 -2.601786144077777863e-02 -6.165008060634136200e-03 -9.654860943555831909e-03 1.662659272551536560e-02
5.468000000000000000e+03 3.996139144897460938e+01 -1.399456691741943359e+01 7.675836682319641113e-01 1.785355061292648315e-01 2.838357388973236084e-01 2.816921472549438477e-02
5.469000000000000000e+03 7.213761901855468750e+01 -2.622705268859863281e+01 -2.730351686477661133e-01 7.611946105957031250e+00 2.201673269271850586e+00 -2.017025649547576904e-01
5.470000000000000000e+03 7.267789459228515625e+01 -2.744971275329589844e+01 -3.633969128131866455e-01 7.483750820159912109e+00 2.136106252670288086e+00 -2.081278115510940552e-01
5.471000000000000000e+03 8.081652641296386719e+00 -2.653468322753906250e+01 2.136430293321609497e-01 -3.004666864871978760e-01 -2.604709751904010773e-02 -2.085008919239044189e-01
5.472000000000000000e+03 1.337261009216308594e+01 2.085971069335937500e+01 -1.587031967937946320e-02 -3.744985209777951241e-03 -5.884591490030288696e-03 3.477242309600114822e-03
5.473000000000000000e+03 2.533809471130371094e+01 -8.731363296508789062e+00 -6.014789342880249023e-01 2.401694357395172119e-01 -1.083928495645523071e-01 -4.882628619670867920e-01
5.474000000000000000e+03 7.239760589599609375e+01 2.751706504821777344e+01 -8.746947646141052246e-01 7.745853424072265625e+00 2.061347484588623047e+00 3.256334066390991211e-01
5.475000000000000000e+03 4.406721878051757812e+01 -5.453111648559570312e+00 -1.028038382530212402e+00 7.193810343742370605e-01 -9.259719401597976685e-02 -5.249925702810287476e-02
5.476000000000000000e+03 1.156282806396484375e+01 1.902580261230468750e+01 -6.679023150354623795e-03 -4.652468487620353699e-03 -3.399447537958621979e-03 6.600916385650634766e-04
5.477000000000000000e+03 3.220479965209960938e+01 -9.991906166076660156e+00 -3.539223670959472656e-01 -2.609933316707611084e-01 -1.844747215509414673e-01 -2.975552380084991455e-01
5.478000000000000000e+03 6.744716644287109375e+01 -7.724697589874267578e+00 -1.070937514305114746e+00 4.517180919647216797e+00 1.033872961997985840e+00 -7.616870403289794922e-01
5.479000000000000000e+03 6.950357055664062500e+01 -7.877220630645751953e+00 -1.168731808662414551e+00 6.079427719116210938e+00 1.473208785057067871e+00 -5.089533329010009766e-01
5.480000000000000000e+03 7.328491973876953125e+01 -2.813364982604980469e+01 -3.368690013885498047e-01 7.506916522979736328e+00 2.151014328002929688e+00 -2.523466944694519043e-01
5.481000000000000000e+03 3.432832336425781250e+01 -1.125741672515869141e+01 1.930011212825775146e-01 -2.762042582035064697e-01 -2.496093697845935822e-02 -1.002325117588043213e-01
5.482000000000000000e+03 7.773568153381347656e+00 -2.855952835083007812e+01 1.647072583436965942e-01 -3.266959786415100098e-01 -4.859662055969238281e-02 -1.456594467163085938e-01
5.483000000000000000e+03 4.059772491455078125e+01 -1.298291110992431641e+01 6.611803174018859863e-01 2.852198779582977295e-01 2.839200794696807861e-01 7.875682413578033447e-02
5.484000000000000000e+03 1.487492656707763672e+01 2.340683937072753906e+01 -3.423782810568809509e-02 -3.159195883199572563e-03 -1.121910754591226578e-02 1.673842780292034149e-02
5.485000000000000000e+03 6.696517181396484375e+01 2.408964186906814575e-01 -2.640647292137145996e-01 4.655139446258544922e+00 1.317322492599487305e+00 1.144157201051712036e-01
5.486000000000000000e+03 4.436651611328125000e+01 1.865167427062988281e+01 -3.421666026115417480e-01 1.148281767964363098e-01 -6.820152699947357178e-02 -1.084750611335039139e-02
5.487000000000000000e+03 7.170993804931640625e+01 -2.672599983215332031e+01 -3.800415396690368652e-01 7.449622154235839844e+00 2.120874166488647461e+00 -8.725128322839736938e-02
5.488000000000000000e+03 3.551416397094726562e+01 -1.152964401245117188e+01 3.334519863128662109e-01 -3.091903626918792725e-01 7.278492208570241928e-03 -3.789796680212020874e-02
5.489000000000000000e+03 4.326795196533203125e+01 -1.078952884674072266e+01 3.870062828063964844e-01 8.981479406356811523e-01 3.855462670326232910e-01 2.275222688913345337e-01
5.490000000000000000e+03 7.099100494384765625e+01 7.312152862548828125e+00 -3.211058676242828369e-01 8.476543426513671875e+00 2.446631431579589844e+00 -5.527203083038330078e-01
5.491000000000000000e+03 7.202291107177734375e+01 7.191009521484375000e+00 -3.062057495117187500e-01 8.400885581970214844e+00 2.428404092788696289e+00 -8.979434370994567871e-01
5.492000000000000000e+03 6.622671508789062500e+01 -6.753890514373779297e+00 -7.856940627098083496e-01 3.514849424362182617e+00 8.187466263771057129e-01 -6.353154182434082031e-01
5.493000000000000000e+03 3.928120040893554688e+01 -1.353570938110351562e+01 7.509434819221496582e-01 1.852183230221271515e-02 2.308395951986312866e-01 6.276411004364490509e-03
5.494000000000000000e+03 1.011833190917968750e+01 7.899338722229003906e+00 1.012437860481441021e-03 -9.026931948028504848e-04 3.292338806204497814e-05 3.029229628737084568e-05
5.495000000000000000e+03 1.156022262573242188e+01 8.553999900817871094e+00 9.879025164991617203e-04 -1.084373565390706062e-03 -2.894132740038912743e-05 4.365651693660765886e-04
5.496000000000000000e+03 4.025214004516601562e+01 -8.459056854248046875e+00 -4.073545336723327637e-01 -6.891473196446895599e-03 -1.242737993597984314e-01 -7.068184763193130493e-02
5.497000000000000000e+03 3.932744979858398438e+01 -9.637248992919921875e+00 -9.491510689258575439e-02 -1.055425405502319336e-01 -6.013729423284530640e-02 -3.285063058137893677e-02
5.498000000000000000e+03 7.724003791809082031e+00 1.124815559387207031e+01 8.561933063901960850e-04 -1.543715479783713818e-03 -2.062566345557570457e-04 -8.834230829961597919e-04
5.499000000000000000e+03 7.046143341064453125e+01 5.876422405242919922e+00 -4.850121736526489258e-01 7.876455783843994141e+00 2.217432975769042969e+00 -3.793180286884307861e-01
5.500000000000000000e+03 7.209051513671875000e+01 6.098285198211669922e+00 -4.315379858016967773e-01 8.105658531188964844e+00 2.302236318588256836e+00 -8.705182075500488281e-01
5.501000000000000000e+03 7.416345596313476562e+00 -8.258946418762207031e+00 -1.252022683620452881e-01 -1.054508388042449951e-01 -6.919593364000320435e-02 6.127045303583145142e-02
5.502000000000000000e+03 8.521821022033691406e+00 -9.192748069763183594e+00 -2.101622074842453003e-01 -1.822546124458312988e-01 -1.177250444889068604e-01 1.486413553357124329e-02
5.503000000000000000e+03 1.240791034698486328e+01 7.737799167633056641e+00 8.209371007978916168e-04 -7.260586717166006565e-04 2.846352617780212313e-05 5.734152509830892086e-04
5.504000000000000000e+03 6.371417617797851562e+01 -5.310660362243652344e+00 -3.433538675308227539e-01 2.012883186340332031e+00 5.008588433265686035e-01 -1.510052680969238281e-01
5.505000000000000000e+03 6.267039871215820312e+01 -4.062169551849365234e+00 -1.005719825625419617e-01 1.669242143630981445e+00 4.706010520458221436e-01 8.147446066141128540e-02
5.506000000000000000e+03 7.252649688720703125e+01 -2.381122016906738281e+01 3.200711309909820557e-01 8.034221649169921875e+00 2.506287813186645508e+00 -3.981954753398895264e-01
5.507000000000000000e+03 7.032837677001953125e+01 -3.041789817810058594e+01 -4.514609873294830322e-01 6.288294792175292969e+00 1.751050114631652832e+00 3.212483823299407959e-01
5.508000000000000000e+03 7.194011688232421875e+01 -2.924138259887695312e+01 -4.508471786975860596e-01 7.038319110870361328e+00 1.976241588592529297e+00 3.481635451316833496e-02
5.509000000000000000e+03 8.757324218750000000e+00 -2.706046867370605469e+01 2.266444563865661621e-01 -2.501782476902008057e-01 -7.060137111693620682e-03 -1.896149069070816040e-01
5.510000000000000000e+03 7.231017303466796875e+01 3.690459489822387695e+00 -5.200191736221313477e-01 7.617321491241455078e+00 2.129190683364868164e+00 -7.852280139923095703e-01
5.511000000000000000e+03 7.273587036132812500e+01 4.535201072692871094e+00 -4.751639962196350098e-01 7.814854145050048828e+00 2.201907157897949219e+00 -9.128351211547851562e-01
5.512000000000000000e+03 4.453784179687500000e+01 1.938193702697753906e+01 -3.848423063755035400e-01 1.346663236618041992e-01 -7.505279779434204102e-02 1.339716929942369461e-02
5.513000000000000000e+03 7.798843860626220703e+00 3.020916748046875000e+01 -3.784189932048320770e-03 -1.904477924108505249e-02 -6.848691031336784363e-03 1.735934987664222717e-02
5.514000000000000000e+03 1.034302330017089844e+01 3.392404556274414062e+01 5.960059352219104767e-03 -3.599459305405616760e-02 -9.010359644889831543e-03 2.437648549675941467e-02
5.515000000000000000e+03 1.023000335693359375e+01 -3.341327285766601562e+01 1.026290282607078552e-01 -1.578560322523117065e-01 -1.656809821724891663e-02 -6.110998988151550293e-02
5.516000000000000000e+03 7.141461181640625000e+01 2.469168853759765625e+01 -9.319436550140380859e-01 8.643772125244140625e+00 2.313548564910888672e+00 4.464007914066314697e-01
5.517000000000000000e+03 4.417697906494140625e+01 -7.060371875762939453e+00 -6.011873483657836914e-01 8.625722527503967285e-01 7.841547578573226929e-02 7.598395645618438721e-02
5.518000000000000000e+03 7.275772857666015625e+01 -7.179069519042968750e+00 -8.125804662704467773e-01 7.531333923339843750e+00 2.015625953674316406e+00 -5.925693362951278687e-02
5.519000000000000000e+03 4.016267776489257812e+01 -1.544937610626220703e+01 7.933014035224914551e-01 3.382620215415954590e-01 3.394690454006195068e-01 -3.701874753460288048e-03
5.520000000000000000e+03 4.477312088012695312e+01 -5.456054687500000000e+00 -9.738321900367736816e-01 8.472495675086975098e-01 -3.797478973865509033e-02 4.474128130823373795e-03
5.521000000000000000e+03 2.744351768493652344e+01 -9.883187294006347656e+00 -3.728660941123962402e-01 9.844139218330383301e-02 -8.232741057872772217e-02 -5.684191584587097168e-01
5.522000000000000000e+03 4.478777313232421875e+01 1.498706817626953125e+01 -1.545705795288085938e-01 2.546768262982368469e-02 -3.873086720705032349e-02 -3.204789385199546814e-02
5.523000000000000000e+03 6.975565338134765625e+01 -3.127738189697265625e+01 -4.013380110263824463e-01 5.891560554504394531e+00 1.647066712379455566e+00 4.421955645084381104e-01
5.524000000000000000e+03 9.315700531005859375e+00 7.951020717620849609e+00 9.005853207781910896e-04 -9.801326086744666100e-04 -2.386418964306358248e-05 -1.499857462476938963e-04
5.525000000000000000e+03 1.090364170074462891e+01 7.844277858734130859e+00 9.150645928457379341e-04 -9.577314485795795918e-04 -1.280006745218997821e-05 2.419565425952896476e-04
5.526000000000000000e+03 1.521490669250488281e+01 2.535424995422363281e+01 -3.663710504770278931e-02 -9.913064539432525635e-03 -1.396505068987607956e-02 3.027592413127422333e-02
5.527000000000000000e+03 6.684016704559326172e+00 -8.313112258911132812e+00 -1.133770570158958435e-01 -7.448749244213104248e-02 -5.635936185717582703e-02 6.860283762216567993e-02
5.528000000000000000e+03 7.668576240539550781e+00 1.206159782409667969e+01 9.587665554136037827e-04 -1.631398568861186504e-03 -2.017896331381052732e-04 -1.035218592733144760e-03
5.529000000000000000e+03 6.675702667236328125e+01 -7.618731021881103516e+00 -9.912717938423156738e-01 3.925871372222900391e+00 8.803798556327819824e-01 -7.610581517219543457e-01
5.530000000000000000e+03 1.324435520172119141e+01 1.017379760742187500e+01 1.108625903725624084e-03 -8.754910668358206749e-04 6.994043360464274883e-05 1.155228586867451668e-03
5.531000000000000000e+03 1.171723842620849609e+01 1.097634410858154297e+01 1.345208380371332169e-03 -1.843151985667645931e-03 -1.493830786785110831e-04 5.263737984932959080e-04
5.532000000000000000e+03 4.007453536987304688e+01 2.206298446655273438e+01 -3.004032075405120850e-01 9.930744767189025879e-02 -6.032872572541236877e-02 1.172379329800605774e-01
5.533000000000000000e+03 3.910654449462890625e+01 2.450263404846191406e+01 -2.272592484951019287e-01 6.516759097576141357e-02 -4.862749576568603516e-02 1.552675813436508179e-01
5.534000000000000000e+03 6.129872512817382812e+01 -2.784507513046264648e+00 1.726397573947906494e-01 1.199408888816833496e+00 4.116145968437194824e-01 2.886205911636352539e-01
5.535000000000000000e+03 6.097992324829101562e+01 -4.257078647613525391e+00 -7.146837562322616577e-02 9.255781173706054688e-01 2.562329173088073730e-01 2.897241413593292236e-01
5.536000000000000000e+03 7.346409606933593750e+01 1.588332176208496094e+01 1.429756164550781250e+00 8.917519569396972656e+00 3.104182720184326172e+00 -1.610122174024581909e-01
5.537000000000000000e+03 1.215541839599609375e+01 1.699873352050781250e+01 -2.452073618769645691e-03 -4.618990235030651093e-03 -2.121319063007831573e-03 -5.201750900596380234e-05
5.538000000000000000e+03 8.342898368835449219e+00 1.702895164489746094e+01 -1.524591702036559582e-03 -3.336506662890315056e-03 -1.458329497836530209e-03 -8.517626556567847729e-04
5.539000000000000000e+03 7.274636840820312500e+01 9.206634521484375000e+00 1.198072060942649841e-01 8.689560890197753906e+00 2.642810583114624023e+00 -1.127018332481384277e+00
5.540000000000000000e+03 7.233100891113281250e+00 -2.934774398803710938e+01 1.350193470716476440e-01 -3.651440441608428955e-01 -6.903740763664245605e-02 -1.234703436493873596e-01
5.541000000000000000e+03 1.049968719482421875e+01 1.440809917449951172e+01 5.906918086111545563e-04 -3.448086557909846306e-03 -8.572184597142040730e-04 -3.244214458391070366e-04
5.542000000000000000e+03 1.109335041046142578e+01 1.158812427520751953e+01 1.284936559386551380e-03 -2.139594638720154762e-03 -2.563974121585488319e-04 2.622595638968050480e-04
5.543000000000000000e+03 7.142813110351562500e+01 -1.015138339996337891e+01 -1.076673269271850586e+00 7.564958572387695312e+00 1.946485519409179688e+00 2.049510776996612549e-01
5.544000000000000000e+03 7.268988037109375000e+01 -1.062212657928466797e+01 -8.051546812057495117e-01 7.973515510559082031e+00 2.150508165359497070e+00 5.191723704338073730e-01
5.545000000000000000e+03 1.298933792114257812e+01 8.487090110778808594e+00 8.633642573840916157e-04 -7.406005170196294785e-04 3.682911847135983407e-05 7.688827463425695896e-04
5.546000000000000000e+03 1.218215084075927734e+01 9.267386436462402344e+00 1.075303531251847744e-03 -1.208019559271633625e-03 -3.981481495429761708e-05 6.574346916750073433e-04
5.547000000000000000e+03 6.196437454223632812e+01 -2.366428136825561523e+00 1.807119399309158325e-01 1.483531832695007324e+00 4.992731213569641113e-01 2.696271836757659912e-01
5.548000000000000000e+03 1.186912059783935547e+01 -7.958081245422363281e+00 -1.977387815713882446e-01 -2.825540900230407715e-01 -1.440878659486770630e-01 -8.567750453948974609e-02
5.549000000000000000e+03 2.803533744812011719e+01 -1.068097305297851562e+01 -1.176693066954612732e-01 5.794363468885421753e-02 -1.791770197451114655e-02 -5.607531070709228516e-01
5.550000000000000000e+03 6.956015777587890625e+01 2.785441589355468750e+01 -1.041272163391113281e+00 6.959447383880615234e+00 1.775452613830566406e+00 -6.033892631530761719e-01
5.551000000000000000e+03 4.622561645507812500e+01 2.367218971252441406e+01 -4.865981638431549072e-01 2.081420868635177612e-01 -8.353682607412338257e-02 1.796237826347351074e-01
5.552000000000000000e+03 4.263849639892578125e+01 1.956961059570312500e+01 -3.362648785114288330e-01 1.184978857636451721e-01 -6.533009558916091919e-02 4.338536411523818970e-02
5.553000000000000000e+03 9.767996788024902344e+00 -8.413364410400390625e+00 -1.900632530450820923e-01 -2.236757427453994751e-01 -1.241216957569122314e-01 2.591350814327597618e-03
5.554000000000000000e+03 1.054000854492187500e+01 -8.838097572326660156e+00 -2.364894598722457886e-01 -2.807195186614990234e-01 -1.551626920700073242e-01 -4.067933931946754456e-02
5.555000000000000000e+03 6.552581787109375000e+01 -1.517993330955505371e+00 -1.398747116327285767e-01 3.548023223876953125e+00 1.022444486618041992e+00 3.840255364775657654e-02
5.556000000000000000e+03 7.270445251464843750e+01 -1.865137100219726562e+01 1.158498406410217285e+00 8.315658569335937500e+00 2.842247247695922852e+00 4.759110808372497559e-01
5.557000000000000000e+03 1.166605949401855469e+01 7.787874221801757812e+00 9.621043573133647442e-04 -7.546912529505789280e-04 6.222393858479335904e-05 4.201474075671285391e-04
5.558000000000000000e+03 5.717923355102539062e+01 -3.898571252822875977e+00 -7.702014595270156860e-02 5.442648753523826599e-02 -6.778098177164793015e-03 6.759628057479858398e-01
5.559000000000000000e+03 7.517473697662353516e+00 2.942170143127441406e+01 -3.909772727638483047e-03 -1.666669175028800964e-02 -6.172939203679561615e-03 1.644731499254703522e-02
5.560000000000000000e+03 8.662533760070800781e+00 2.778223800659179688e+01 -8.966456167399883270e-03 -1.390749309211969376e-02 -6.862184964120388031e-03 1.701911911368370056e-02
5.561000000000000000e+03 7.040731048583984375e+01 -2.940340995788574219e+01 -4.976490437984466553e-01 6.532477855682373047e+00 1.810448646545410156e+00 2.922866046428680420e-01
5.562000000000000000e+03 1.672925376892089844e+01 2.812575531005859375e+01 -2.606904320418834686e-02 -3.047937713563442230e-02 -1.696452684700489044e-02 5.288882553577423096e-02
5.563000000000000000e+03 1.224023246765136719e+01 2.097815895080566406e+01 -1.381542347371578217e-02 -4.452003166079521179e-03 -5.480227991938591003e-03 3.839875571429729462e-03
5.564000000000000000e+03 7.522085666656494141e+00 2.015919685363769531e+01 -3.991692792624235153e-03 -3.478440688923001289e-03 -2.241040114313364029e-03 8.801984949968755245e-04
5.565000000000000000e+03 6.853276062011718750e+01 -3.313692092895507812e+01 -2.237014025449752808e-01 5.096619606018066406e+00 1.461875438690185547e+00 5.325753092765808105e-01
5.566000000000000000e+03 6.885951232910156250e+01 2.611432266235351562e+01 -1.201404809951782227e+00 7.155953407287597656e+00 1.786364555358886719e+00 -9.724973440170288086e-01
5.567000000000000000e+03 7.040270996093750000e+01 2.579594230651855469e+01 -1.145627498626708984e+00 8.080231666564941406e+00 2.080381155014038086e+00 -2.418131828308105469e-01
5.568000000000000000e+03 6.848735046386718750e+01 2.827600669860839844e+01 -8.549519181251525879e-01 6.148324966430664062e+00 1.588011980056762695e+00 -9.036415815353393555e-01
5.569000000000000000e+03 7.211555480957031250e+01 -3.021730613708496094e+01 -4.041097164154052734e-01 6.929844856262207031e+00 1.957720518112182617e+00 4.107915237545967102e-02
5.570000000000000000e+03 8.855640411376953125e+00 3.008604621887207031e+01 -4.226189106702804565e-03 -2.081657946109771729e-02 -7.512830197811126709e-03 2.115377783775329590e-02
5.571000000000000000e+03 7.267829895019531250e+01 -2.905618476867675781e+01 -4.079406857490539551e-01 7.249514579772949219e+00 2.052472114562988281e+00 -9.442240744829177856e-02
5.572000000000000000e+03 3.772472000122070312e+01 2.697079467773437500e+01 -1.108420416712760925e-01 6.524640135467052460e-03 -3.129522129893302917e-02 1.838790774345397949e-01
5.573000000000000000e+03 4.165715789794921875e+01 -2.953221321105957031e+01 6.542586535215377808e-02 7.724449038505554199e-01 2.513612210750579834e-01 1.712277978658676147e-01
5.574000000000000000e+03 1.419802665710449219e+01 2.267426109313964844e+01 -2.702534198760986328e-02 -3.008728614076972008e-03 -9.010220877826213837e-03 1.076694577932357788e-02
5.575000000000000000e+03 4.543286514282226562e+01 2.276150321960449219e+01 -4.651105701923370361e-01 1.882854700088500977e-01 -8.304753154516220093e-02 1.389773637056350708e-01
5.576000000000000000e+03 3.999629592895507812e+01 2.082522201538085938e+01 -3.052412867546081543e-01 9.079231321811676025e-02 -6.433469057083129883e-02 9.474006295204162598e-02
5.577000000000000000e+03 7.138145446777343750e+01 2.577912902832031250e+01 -1.012201189994812012e+00 8.224840164184570312e+00 2.163791656494140625e+00 1.940342038869857788e-01
5.578000000000000000e+03 9.081439018249511719e+00 -2.839233398437500000e+01 2.022731900215148926e-01 -2.261321246623992920e-01 -7.157682906836271286e-03 -1.533649861812591553e-01
5.579000000000000000e+03 6.426392364501953125e+01 3.396537780761718750e+01 2.342628538608551025e-01 3.239897727966308594e+00 1.042248129844665527e+00 -6.196864843368530273e-01
5.580000000000000000e+03 6.210200119018554688e+01 3.407365417480468750e+01 4.057397544384002686e-01 2.449383497238159180e+00 8.565369248390197754e-01 -6.359369754791259766e-01
5.581000000000000000e+03 9.435325622558593750e+00 3.307860565185546875e+01 1.869345782324671745e-03 -3.075081110000610352e-02 -8.664439432322978973e-03 2.463364973664283752e-02
5.582000000000000000e+03 4.479530334472656250e+01 2.566288566589355469e+01 -3.101135790348052979e-01 1.627341657876968384e-01 -4.421382397413253784e-02 2.481105178594589233e-01
5.583000000000000000e+03 9.041619300842285156e+00 3.815352249145507812e+01 1.197672076523303986e-02 -4.148213192820549011e-02 -8.851624093949794769e-03 1.137034874409437180e-02
5.584000000000000000e+03 6.926454925537109375e+01 3.064416885375976562e+01 -6.180649399757385254e-01 6.075102329254150391e+00 1.637111186981201172e+00 -6.236393451690673828e-01
5.585000000000000000e+03 3.941189575195312500e+01 2.880878257751464844e+01 -3.891566768288612366e-02 1.237364206463098526e-02 -7.962607778608798981e-03 2.234265208244323730e-01
5.586000000000000000e+03 3.454732894897460938e+01 2.824628448486328125e+01 -3.352503478527069092e-02 -6.141570210456848145e-02 -2.848222106695175171e-02 1.607773154973983765e-01
5.587000000000000000e+03 1.094875049591064453e+01 -3.226316070556640625e+01 1.419158726930618286e-01 -1.039359867572784424e-01 1.139396615326404572e-02 -8.256251364946365356e-02
5.588000000000000000e+03 3.796746063232421875e+01 2.554605674743652344e+01 -1.734012812376022339e-01 3.206580504775047302e-02 -4.240064322948455811e-02 1.665508747100830078e-01
5.589000000000000000e+03 6.844507598876953125e+01 3.598871612548828125e+01 -1.029481738805770874e-02 5.083157539367675781e+00 1.521858811378479004e+00 -4.369028508663177490e-01
5.590000000000000000e+03 6.888805389404296875e+01 3.246823883056640625e+01 -3.478577136993408203e-01 5.669960021972656250e+00 1.596630692481994629e+00 -5.529463291168212891e-01
5.591000000000000000e+03 4.181992340087890625e+01 2.366430854797363281e+01 -3.093245029449462891e-01 1.279324442148208618e-01 -5.441761389374732971e-02 1.622022837400436401e-01
5.592000000000000000e+03 3.792439651489257812e+01 2.320431327819824219e+01 -2.483212649822235107e-01 4.702780395746231079e-02 -6.038803607225418091e-02 1.299329400062561035e-01
5.593000000000000000e+03 3.969354629516601562e+01 2.340787887573242188e+01 -2.696878015995025635e-01 8.294169604778289795e-02 -5.602383241057395935e-02 1.451752632856369019e-01
5.594000000000000000e+03 2.513474082946777344e+01 3.032814598083496094e+01 5.300315562635660172e-03 -1.011087819933891296e-01 -2.874254062771797180e-02 1.113647446036338806e-01
5.595000000000000000e+03 6.086030578613281250e+01 3.141402053833007812e+01 3.418670594692230225e-01 1.706156015396118164e+00 6.144068837165832520e-01 -6.558562517166137695e-01
5.596000000000000000e+03 1.927949142456054688e+01 3.104207992553710938e+01 4.334750119596719742e-03 -6.636904180049896240e-02 -1.861028932034969330e-02 7.207548618316650391e-02
5.597000000000000000e+03 2.183786582946777344e+01 3.020297241210937500e+01 -2.647406945470720530e-04 -7.936763018369674683e-02 -2.388971112668514252e-02 9.335788339376449585e-02
5.598000000000000000e+03 6.737580108642578125e+01 2.987163734436035156e+01 -5.175923109054565430e-01 5.171837329864501953e+00 1.396273493766784668e+00 -9.916293621063232422e-01
5.599000000000000000e+03 2.680120086669921875e+01 2.946360397338867188e+01 -3.442327724769711494e-03 -1.072861030697822571e-01 -3.321852907538414001e-02 1.232997253537178040e-01
5.600000000000000000e+03 5.847192764282226562e+01 3.553575515747070312e+01 6.535599827766418457e-01 1.449874639511108398e+00 6.310303807258605957e-01 -1.536650806665420532e-01
5.601000000000000000e+03 3.923393249511718750e+01 -3.813009643554687500e+01 2.399334460496902466e-01 3.824114501476287842e-01 1.867034733295440674e-01 2.987197972834110260e-02
5.602000000000000000e+03 5.629719543457031250e+01 3.319326400756835938e+01 5.540413260459899902e-01 7.015555500984191895e-01 3.766790628433227539e-01 -1.796117983758449554e-02
5.603000000000000000e+03 6.227891159057617188e+01 -4.119800186157226562e+01 6.879565119743347168e-01 2.133481025695800781e+00 8.464313149452209473e-01 6.922955065965652466e-02
5.604000000000000000e+03 2.800027847290039062e+01 2.826217651367187500e+01 -3.022780269384384155e-02 -1.071004420518875122e-01 -4.119847342371940613e-02 1.308935731649398804e-01
5.605000000000000000e+03 5.299160766601562500e+01 3.173355102539062500e+01 3.281872868537902832e-01 2.618947029113769531e-01 1.770245879888534546e-01 2.349424362182617188e-01
5.606000000000000000e+03 5.055332565307617188e+01 3.197795677185058594e+01 2.741632759571075439e-01 1.870436519384384155e-01 1.383620798587799072e-01 3.010576367378234863e-01
5.607000000000000000e+03 5.011811065673828125e+01 -3.831526565551757812e+01 4.297843873500823975e-01 4.714574515819549561e-01 2.703725397586822510e-01 -2.400069087743759155e-01
5.608000000000000000e+03 6.657888031005859375e+01 -3.661747741699218750e+01 2.119451761245727539e-01 3.892512559890747070e+00 1.231337308883666992e+00 4.128722846508026123e-01
5.609000000000000000e+03 4.262709808349609375e+01 -4.121013259887695312e+01 2.657123506069183350e-01 4.484888613224029541e-01 2.142603546380996704e-01 -1.039030589163303375e-02
5.610000000000000000e+03 4.361304473876953125e+01 -7.979270935058593750e+00 -3.671204745769500732e-01 7.740164995193481445e-01 1.220688074827194214e-01 8.509000390768051147e-02
5.611000000000000000e+03 4.273343658447265625e+01 -9.293581962585449219e+00 -2.879437431693077087e-02 6.209322214126586914e-01 1.776413619518280029e-01 9.820498526096343994e-02
5.612000000000000000e+03 6.756060791015625000e+01 -6.962359905242919922e+00 -9.570492506027221680e-01 4.566926479339599609e+00 1.082963109016418457e+00 -6.981464624404907227e-01
5.613000000000000000e+03 6.599308776855468750e+01 -1.288102030754089355e+00 -1.906430274248123169e-01 3.874465942382812500e+00 1.105146884918212891e+00 2.752242982387542725e-02
5.614000000000000000e+03 3.609994506835937500e+01 -1.170870494842529297e+01 4.059580266475677490e-01 -3.107798993587493896e-01 2.855344116687774658e-02 -1.617059856653213501e-02
5.615000000000000000e+03 3.624881362915039062e+01 -1.106450557708740234e+01 2.070440649986267090e-01 -3.226205706596374512e-01 -3.467294946312904358e-02 -3.570339083671569824e-02
5.616000000000000000e+03 6.501850891113281250e+01 -1.883778691291809082e+00 -1.079076752066612244e-01 3.218854665756225586e+00 9.332840442657470703e-01 4.241726920008659363e-02
5.617000000000000000e+03 6.408839416503906250e+01 -1.684320688247680664e+00 3.579691424965858459e-02 2.666561841964721680e+00 8.107076287269592285e-01 1.603582948446273804e-01
5.618000000000000000e+03 3.524361038208007812e+01 -1.012217712402343750e+01 -1.913873553276062012e-01 -3.563114702701568604e-01 -1.643096506595611572e-01 -1.127492040395736694e-01
5.619000000000000000e+03 7.413122653961181641e+00 -1.068573379516601562e+01 -2.450224459171295166e-01 -1.415839642286300659e-01 -1.159819215536117554e-01 -2.398864924907684326e-02
5.620000000000000000e+03 7.268338775634765625e+01 -4.353529453277587891e+00 -6.287912726402282715e-01 7.282433032989501953e+00 1.996092557907104492e+00 -3.584636747837066650e-01
5.621000000000000000e+03 2.467356300354003906e+01 -8.379939079284667969e+00 -6.113090515136718750e-01 2.521901428699493408e-01 -1.077356785535812378e-01 -4.478007555007934570e-01
5.622000000000000000e+03 1.009549140930175781e+01 -9.404850006103515625e+00 -2.667811512947082520e-01 -2.791693508625030518e-01 -1.637851595878601074e-01 -3.285152465105056763e-02
5.623000000000000000e+03 8.640480995178222656e+00 2.555815696716308594e+01 -9.744081646203994751e-03 -9.419979527592658997e-03 -5.749218165874481201e-03 1.212828233838081360e-02
5.624000000000000000e+03 3.872949600219726562e+01 -1.017045116424560547e+01 4.807028919458389282e-02 -1.618926227092742920e-01 -3.414670005440711975e-02 -2.508703060448169708e-02
5.625000000000000000e+03 4.146961975097656250e+01 -9.453516960144042969e+00 -4.530886933207511902e-02 3.277526199817657471e-01 8.473312854766845703e-02 4.614982008934020996e-02
5.626000000000000000e+03 6.645447540283203125e+01 -5.605085492134094238e-01 -2.198842316865921021e-01 4.235837459564208984e+00 1.204786062240600586e+00 7.243178784847259521e-02
5.627000000000000000e+03 3.248577880859375000e+01 -1.080008411407470703e+01 -5.711208563297986984e-03 -1.912319064140319824e-01 -5.908293649554252625e-02 -2.420840263366699219e-01
5.628000000000000000e+03 8.225637435913085938e+00 -8.737900733947753906e+00 -1.750143915414810181e-01 -1.559315472841262817e-01 -9.928378462791442871e-02 3.466762229800224304e-02
5.629000000000000000e+03 4.165839004516601562e+01 -8.309550285339355469e+00 -3.578106164932250977e-01 3.240513503551483154e-01 -1.012778002768754959e-02 -3.446470946073532104e-03
5.630000000000000000e+03 9.322137832641601562e+00 2.864286613464355469e+01 -7.601255085319280624e-03 -1.696906797587871552e-02 -7.371096871793270111e-03 1.950971223413944244e-02
5.631000000000000000e+03 7.601217746734619141e+00 2.309593772888183594e+01 -7.329218555241823196e-03 -5.081246141344308853e-03 -3.723139408975839615e-03 5.387424491345882416e-03
5.632000000000000000e+03 7.604856967926025391e+00 2.240487480163574219e+01 -6.401683203876018524e-03 -4.637972451746463776e-03 -3.311896696686744690e-03 4.367774352431297302e-03
5.633000000000000000e+03 6.443959045410156250e+01 -2.307098388671875000e+00 -6.304821372032165527e-02 2.799207925796508789e+00 8.208478689193725586e-01 4.178007692098617554e-02
5.634000000000000000e+03 3.734503173828125000e+01 -1.203347969055175781e+01 5.150217413902282715e-01 -2.698055207729339600e-01 7.356486469507217407e-02 3.450843738391995430e-03
5.635000000000000000e+03 4.599971389770507812e+01 -5.901388645172119141e+00 -7.874872684478759766e-01 1.086681127548217773e+00 8.975815027952194214e-02 1.734682470560073853e-01
5.636000000000000000e+03 7.528004646301269531e+00 1.608878135681152344e+01 -7.473798468708992004e-04 -2.608762821182608604e-03 -1.006842823699116707e-03 -1.142304507084190845e-03
5.637000000000000000e+03 7.373244285583496094e+00 -1.333962821960449219e+01 -3.255813717842102051e-01 -1.763199865818023682e-01 -1.505704075098037720e-01 -1.797976344823837280e-01
5.638000000000000000e+03 7.211191558837890625e+01 -1.077703285217285156e+01 -8.920470476150512695e-01 7.861676216125488281e+00 2.090888738632202148e+00 4.578307271003723145e-01
5.639000000000000000e+03 7.269259643554687500e+01 -1.006469345092773438e+01 -8.322238326072692871e-01 7.895524978637695312e+00 2.118990421295166016e+00 4.040437638759613037e-01
5.640000000000000000e+03 7.234611511230468750e+01 1.538903236389160156e+00 -5.095793008804321289e-01 7.322336196899414062e+00 2.043827056884765625e+00 -6.807744503021240234e-01
5.641000000000000000e+03 7.200280761718750000e+01 2.490935087203979492e+00 -5.310904979705810547e-01 7.358716011047363281e+00 2.048287630081176758e+00 -6.824380159378051758e-01
5.642000000000000000e+03 6.689183807373046875e+01 -6.881981372833251953e+00 -8.787636160850524902e-01 4.068453311920166016e+00 9.569069147109985352e-01 -6.832855939865112305e-01
5.643000000000000000e+03 7.270024108886718750e+01 -2.350830316543579102e+00 -5.413150787353515625e-01 7.221744537353515625e+00 2.004128932952880859e+00 -5.117501020431518555e-01
5.644000000000000000e+03 7.228501892089843750e+01 -2.749386548995971680e+00 -5.841521620750427246e-01 7.068787574768066406e+00 1.945390701293945312e+00 -4.891119599342346191e-01
5.645000000000000000e+03 7.214917755126953125e+01 -7.254110336303710938e+00 -8.755577206611633301e-01 7.336860656738281250e+00 1.938390970230102539e+00 -1.166355460882186890e-01
5.646000000000000000e+03 7.249726104736328125e+01 -5.629973411560058594e+00 -7.274941205978393555e-01 7.291872501373291016e+00 1.969313502311706543e+00 -2.637425363063812256e-01
5.647000000000000000e+03 6.526637268066406250e+01 -2.437454223632812500e+00 -1.800057440996170044e-01 3.307671546936035156e+00 9.382997155189514160e-01 -5.179911851882934570e-02
5.648000000000000000e+03 7.230325317382812500e+01 -1.717968583106994629e+00 -5.393543243408203125e-01 7.099172115325927734e+00 1.967945337295532227e+00 -5.378865003585815430e-01
5.649000000000000000e+03 7.056840515136718750e+01 -3.844132184982299805e+00 -6.895388960838317871e-01 6.329081535339355469e+00 1.691862821578979492e+00 -4.561534523963928223e-01
5.650000000000000000e+03 7.217775726318359375e+01 4.407142639160156250e+00 -5.113365650177001953e-01 7.746877670288085938e+00 2.170662403106689453e+00 -8.151828646659851074e-01
5.651000000000000000e+03 7.251300811767578125e+01 5.342208385467529297e+00 -4.595578610897064209e-01 7.959820747375488281e+00 2.250078916549682617e+00 -9.287987947463989258e-01
5.652000000000000000e+03 6.865272521972656250e+01 4.258949756622314453e+00 -4.701189398765563965e-01 6.591492176055908203e+00 1.836412072181701660e+00 2.022440731525421143e-01
5.653000000000000000e+03 7.257678222656250000e+01 2.614550352096557617e+00 -5.050791501998901367e-01 7.499145507812500000e+00 2.098219871520996094e+00 -7.668812274932861328e-01
5.654000000000000000e+03 7.189909362792968750e+01 5.077957630157470703e+00 -5.059220194816589355e-01 7.862998485565185547e+00 2.207122802734375000e+00 -7.729250788688659668e-01
5.655000000000000000e+03 6.901990509033203125e+01 2.394863128662109375e+00 -4.944651722908020020e-01 6.250107765197753906e+00 1.726692676544189453e+00 -5.543584376573562622e-02
5.656000000000000000e+03 7.277490997314453125e+01 -8.667367935180664062e+00 -8.657354116439819336e-01 7.728621482849121094e+00 2.058865785598754883e+00 1.696486324071884155e-01
5.657000000000000000e+03 7.277980804443359375e+01 -7.926179409027099609e+00 -8.300295472145080566e-01 7.635340213775634766e+00 2.041593313217163086e+00 5.173978954553604126e-02
5.658000000000000000e+03 7.247402191162109375e+01 7.706357955932617188e+00 -1.869306564331054688e-01 8.478791236877441406e+00 2.487558126449584961e+00 -1.058275580406188965e+00
5.659000000000000000e+03 8.263025283813476562e+00 -1.052802753448486328e+01 -2.773353159427642822e-01 -1.922168731689453125e-01 -1.408656537532806396e-01 -2.922769449651241302e-02
5.660000000000000000e+03 1.053307151794433594e+01 1.723193931579589844e+01 -2.295570913702249527e-03 -4.315199796110391617e-03 -1.983231399208307266e-03 -3.817362885456532240e-04
5.661000000000000000e+03 9.388965606689453125e+00 1.823964881896972656e+01 -3.819723613560199738e-03 -4.055363126099109650e-03 -2.362526021897792816e-03 -6.582253263331949711e-05
5.662000000000000000e+03 7.658035755157470703e+00 9.600473403930664062e+00 8.505901205353438854e-04 -1.081365859135985374e-03 -6.923273031134158373e-05 -6.718445802107453346e-04
5.663000000000000000e+03 8.607082366943359375e+00 1.647820091247558594e+01 -1.209191512316465378e-03 -3.363206749781966209e-03 -1.371719525195658207e-03 -8.895848877727985382e-04
5.664000000000000000e+03 1.199754524230957031e+01 1.775464057922363281e+01 -3.730025142431259155e-03 -4.548917058855295181e-03 -2.483682706952095032e-03 1.562531724630389363e-05
5.665000000000000000e+03 8.503678321838378906e+00 1.108524322509765625e+01 1.095533836632966995e-03 -1.614450360648334026e-03 -1.556749630253762007e-04 -7.057921029627323151e-04
5.666000000000000000e+03 1.120451164245605469e+01 1.286715888977050781e+01 1.150923315435647964e-03 -2.745008794590830803e-03 -4.782256437465548515e-04 1.965815172297880054e-04
5.667000000000000000e+03 8.053805351257324219e+00 2.542531394958496094e+01 -9.075430221855640411e-03 -8.440449833869934082e-03 -5.254764109849929810e-03 1.075867749750614166e-02
5.668000000000000000e+03 9.147697448730468750e+00 1.018142700195312500e+01 1.145342830568552017e-03 -1.472391071729362011e-03 -9.811447671381756663e-05 -4.082725499756634235e-04
5.669000000000000000e+03 1.121753311157226562e+01 1.411923503875732422e+01 6.222206866368651390e-04 -3.371547674760222435e-03 -8.247981313616037369e-04 3.993363498011603951e-05
5.670000000000000000e+03 1.139255332946777344e+01 2.637990951538085938e+01 -1.614642329514026642e-02 -1.310616545379161835e-02 -8.775777183473110199e-03 2.033439651131629944e-02
5.671000000000000000e+03 8.900480270385742188e+00 2.490331077575683594e+01 -1.067839097231626511e-02 -8.281652815639972687e-03 -5.688013043254613876e-03 1.090634148567914963e-02
5.672000000000000000e+03 6.840004730224609375e+01 2.840681076049804688e+00 -4.399065971374511719e-01 6.009713649749755859e+00 1.670942068099975586e+00 1.305351704359054565e-01
5.673000000000000000e+03 7.181446075439453125e+01 2.538396263122558594e+01 -9.320808053016662598e-01 8.452133178710937500e+00 2.256015777587890625e+00 4.694206416606903076e-01
5.674000000000000000e+03 1.070589542388916016e+01 -9.841741561889648438e+00 -3.239391148090362549e-01 -3.299977779388427734e-01 -1.961810588836669922e-01 -7.352373003959655762e-02
5.675000000000000000e+03 6.889550018310546875e+01 -7.066351413726806641e+00 -1.051665306091308594e+00 5.555353641510009766e+00 1.351106524467468262e+00 -5.955306291580200195e-01
5.676000000000000000e+03 7.018664550781250000e+01 -7.881852626800537109e+00 -1.134238839149475098e+00 6.498429298400878906e+00 1.609257102012634277e+00 -3.760900199413299561e-01
5.677000000000000000e+03 7.097486877441406250e+01 6.308476924896240234e+00 -4.566503465175628662e-01 8.098522186279296875e+00 2.292561531066894531e+00 -5.425282120704650879e-01
5.678000000000000000e+03 6.793426513671875000e+01 2.456981658935546875e+00 -3.966152966022491455e-01 5.709830284118652344e+00 1.593964576721191406e+00 2.128119319677352905e-01
5.679000000000000000e+03 3.981490325927734375e+01 -1.350006008148193359e+01 7.352558970451354980e-01 1.223688274621963501e-01 2.572874128818511963e-01 2.618912048637866974e-02
5.680000000000000000e+03 6.592257690429687500e+01 -5.089619159698486328e+00 -5.271652340888977051e-01 3.461532592773437500e+00 8.803102374076843262e-01 -4.389300942420959473e-01
5.681000000000000000e+03 6.347650146484375000e+01 -2.002324581146240234e+00 8.485764265060424805e-02 2.311902046203613281e+00 7.190278768539428711e-01 1.686136126518249512e-01
5.682000000000000000e+03 6.914076995849609375e+01 5.493075370788574219e+00 -4.760762453079223633e-01 7.242685794830322266e+00 2.029982805252075195e+00 1.396486610174179077e-01
5.683000000000000000e+03 4.346080017089843750e+01 -7.166306495666503906e+00 -6.158371567726135254e-01 6.882344484329223633e-01 2.171918749809265137e-02 3.484795242547988892e-02
5.684000000000000000e+03 7.273998260498046875e+01 4.385869801044464111e-01 -4.901389777660369873e-01 7.344868183135986328e+00 2.056418895721435547e+00 -6.678552031517028809e-01
5.685000000000000000e+03 7.182585144042968750e+01 1.839276075363159180e+00 -5.444661378860473633e-01 7.215289592742919922e+00 2.001247167587280273e+00 -6.340410113334655762e-01
5.686000000000000000e+03 7.012065887451171875e+01 -8.689953804016113281e+00 -1.237808585166931152e+00 6.632946968078613281e+00 1.618541598320007324e+00 -3.337610363960266113e-01
5.687000000000000000e+03 7.075954437255859375e+01 -9.456253051757812500e+00 -1.207448363304138184e+00 7.148053169250488281e+00 1.782181501388549805e+00 -7.676276564598083496e-02
5.688000000000000000e+03 6.828116607666015625e+01 3.968167901039123535e-01 -4.263621568679809570e-01 5.470014572143554688e+00 1.513095736503601074e+00 -7.817116379737854004e-02
5.689000000000000000e+03 7.190017700195312500e+01 -3.278382301330566406e+00 -6.276851296424865723e-01 6.896953582763671875e+00 1.880780458450317383e+00 -4.628298282623291016e-01
5.690000000000000000e+03 7.580687046051025391e+00 -8.958831787109375000e+00 -1.693149507045745850e-01 -1.260364204645156860e-01 -8.860541135072708130e-02 3.885564208030700684e-02
5.691000000000000000e+03 7.079053497314453125e+01 -8.687482833862304688e+00 -1.164239525794982910e+00 6.976824760437011719e+00 1.743775486946105957e+00 -1.794681996107101440e-01
5.692000000000000000e+03 7.000881195068359375e+01 2.897916412353515625e+01 -8.493417501449584961e-01 6.767100334167480469e+00 1.775327563285827637e+00 -4.678871333599090576e-01
5.693000000000000000e+03 7.102447509765625000e+01 2.864814758300781250e+01 -9.060264825820922852e-01 7.218241691589355469e+00 1.893664598464965820e+00 -1.878132969141006470e-01
5.694000000000000000e+03 1.151500892639160156e+01 1.595964336395263672e+01 -9.387606405653059483e-04 -4.268070217221975327e-03 -1.562049263156950474e-03 -1.456130266888067126e-04
5.695000000000000000e+03 8.857213973999023438e+00 1.440709877014160156e+01 2.468437014613300562e-04 -2.921332139521837234e-03 -8.023465052247047424e-04 -9.270798182114958763e-04
5.696000000000000000e+03 6.969226837158203125e+01 2.058780193328857422e+00 -5.306662917137145996e-01 6.471002101898193359e+00 1.782100796699523926e+00 -2.463710457086563110e-01
5.697000000000000000e+03 3.669892120361328125e+01 -1.189827251434326172e+01 4.670855998992919922e-01 -3.077024519443511963e-01 4.781494662165641785e-02 -5.797372199594974518e-03
5.698000000000000000e+03 4.111659240722656250e+01 -1.269138240814208984e+01 6.295563578605651855e-01 4.003847539424896240e-01 3.089823126792907715e-01 1.133614331483840942e-01
5.699000000000000000e+03 4.243680191040039062e+01 -1.120020866394042969e+01 4.362425804138183594e-01 6.686592698097229004e-01 3.314705491065979004e-01 1.807387918233871460e-01
5.700000000000000000e+03 1.292133617401123047e+01 2.144187164306640625e+01 -1.720290258526802063e-02 -3.935538232326507568e-03 -6.341532338410615921e-03 4.509232472628355026e-03
5.701000000000000000e+03 1.344395542144775391e+01 2.306627273559570312e+01 -2.582737617194652557e-02 -4.577995743602514267e-03 -9.121611714363098145e-03 1.215719711035490036e-02
5.702000000000000000e+03 7.264099597930908203e+00 1.493264102935791016e+01 -1.904433884192258120e-05 -2.035256009548902512e-03 -6.162901408970355988e-04 -1.336758141405880451e-03
5.703000000000000000e+03 9.256040573120117188e+00 1.502510452270507812e+01 -2.833259895851369947e-05 -3.238238161429762840e-03 -9.799712570384144783e-04 -8.375362958759069443e-04
5.704000000000000000e+03 3.802910995483398438e+01 -1.211778545379638672e+01 5.414406061172485352e-01 -2.126129865646362305e-01 9.864828735589981079e-02 9.035967290401458740e-03
5.705000000000000000e+03 7.099181365966796875e+01 -3.373407602310180664e+00 -6.612239480018615723e-01 6.510995388031005859e+00 1.754931449890136719e+00 -4.582785367965698242e-01
5.706000000000000000e+03 7.211835479736328125e+01 9.796990752220153809e-01 -5.359030961990356445e-01 7.170209407806396484e+00 1.990291953086853027e+00 -6.266198754310607910e-01
5.707000000000000000e+03 3.373233032226562500e+01 -1.111531734466552734e+01 1.276878416538238525e-01 -2.434965819120407104e-01 -3.474262356758117676e-02 -1.445861011743545532e-01
5.708000000000000000e+03 7.149087524414062500e+01 -7.930437088012695312e+00 -1.023761510848999023e+00 7.132828235626220703e+00 1.832720041275024414e+00 -1.351180672645568848e-01
5.709000000000000000e+03 7.167200469970703125e+01 2.691371726989746094e+01 -9.566493630409240723e-01 7.858698844909667969e+00 2.070614814758300781e+00 1.639284640550613403e-01
5.710000000000000000e+03 6.244640731811523438e+01 -2.959994316101074219e+00 7.336556911468505859e-02 1.668632268905639648e+00 5.225993394851684570e-01 1.840080916881561279e-01
5.711000000000000000e+03 6.331709289550781250e+01 -4.354485988616943359e+00 -1.788117140531539917e-01 1.940231680870056152e+00 5.284259915351867676e-01 -2.740143612027168274e-02
5.712000000000000000e+03 8.587574958801269531e+00 -2.920538520812988281e+01 1.724277287721633911e-01 -2.643907666206359863e-01 -2.758891507983207703e-02 -1.324384361505508423e-01
5.713000000000000000e+03 7.091587829589843750e+01 4.395430088043212891e+00 -5.651246905326843262e-01 7.503452777862548828e+00 2.081498384475708008e+00 -4.952411949634552002e-01
5.714000000000000000e+03 6.910487365722656250e+01 4.647221088409423828e+00 -4.986786842346191406e-01 6.929637432098388672e+00 1.929287672042846680e+00 8.158224821090698242e-02
5.715000000000000000e+03 4.295508956909179688e+01 -1.004062557220458984e+01 2.002681344747543335e-01 7.550281286239624023e-01 2.865888774394989014e-01 1.593155562877655029e-01
5.716000000000000000e+03 1.013296127319335938e+01 1.525184631347656250e+01 -9.803799912333488464e-06 -3.635724540799856186e-03 -1.093658502213656902e-03 -5.482068518176674843e-04
5.717000000000000000e+03 7.262557506561279297e+00 2.174270057678222656e+01 -6.122392602264881134e-03 -4.045536741614341736e-03 -3.050378756597638130e-03 3.178872866556048393e-03
5.718000000000000000e+03 8.076786041259765625e+00 1.621699523925781250e+01 -8.438067743554711342e-04 -2.816100837662816048e-03 -1.097972271963953972e-03 -1.193348201923072338e-03
5.719000000000000000e+03 4.199658966064453125e+01 -8.762926101684570312e+00 -2.140595018863677979e-01 4.239397048950195312e-01 6.296406686305999756e-02 4.096775129437446594e-02
5.720000000000000000e+03 4.382305145263671875e+01 1.913073921203613281e+01 -3.540038764476776123e-01 1.191705763339996338e-01 -7.044998556375503540e-02 1.766995340585708618e-02
5.721000000000000000e+03 4.247410202026367188e+01 1.852124404907226562e+01 -3.096331954002380371e-01 1.019747704267501831e-01 -6.229752674698829651e-02 3.449513390660285950e-02
5.722000000000000000e+03 1.003708648681640625e+01 8.650455474853515625e+00 1.004083780571818352e-03 -1.201436622068285942e-03 -5.920586045249365270e-05 1.127347150031710044e-05
5.723000000000000000e+03 1.066918754577636719e+01 1.025899219512939453e+01 1.284420257434248924e-03 -1.604062621481716633e-03 -9.589271212462335825e-05 1.759377628332003951e-04
5.724000000000000000e+03 1.265623664855957031e+01 2.039320945739746094e+01 -1.268762070685625076e-02 -4.197717178612947464e-03 -5.065601319074630737e-03 2.203381620347499847e-03
5.725000000000000000e+03 7.294505310058593750e+01 2.090562820434570312e+01 7.259130477905273438e-01 9.029289245605468750e+00 2.926560640335083008e+00 1.185781121253967285e+00
5.726000000000000000e+03 9.466645240783691406e+00 -2.985503387451171875e+01 1.769008487462997437e-01 -1.983241736888885498e-01 -6.426996085792779922e-03 -1.190309077501296997e-01
5.727000000000000000e+03 1.170930862426757812e+01 1.224178600311279297e+01 1.297092763707041740e-03 -2.453062450513243675e-03 -3.467908827587962151e-04 4.948258865624666214e-04
5.728000000000000000e+03 6.951840972900390625e+01 4.126860141754150391e+00 -5.341722965240478516e-01 6.961848258972167969e+00 1.928302884101867676e+00 -8.530171215534210205e-02
5.729000000000000000e+03 7.000959777832031250e+01 5.430179595947265625e+00 -5.295443534851074219e-01 7.607760429382324219e+00 2.123464822769165039e+00 -2.068996131420135498e-01
5.730000000000000000e+03 1.057059383392333984e+01 1.226783180236816406e+01 1.167294569313526154e-03 -2.494987333193421364e-03 -3.983078640885651112e-04 -7.372579420916736126e-05
5.731000000000000000e+03 4.189149856567382812e+01 1.975314140319824219e+01 -3.328585922718048096e-01 1.156989187002182007e-01 -6.514790654182434082e-02 6.010659039020538330e-02
5.732000000000000000e+03 9.990550041198730469e+00 2.975803375244140625e+01 -7.877962663769721985e-03 -2.101601101458072662e-02 -8.668191730976104736e-03 2.368761785328388214e-02
5.733000000000000000e+03 8.787232398986816406e+00 3.098247909545898438e+01 -2.841883804649114609e-03 -2.342163771390914917e-02 -7.879056967794895172e-03 2.114031463861465454e-02
5.734000000000000000e+03 1.081270217895507812e+01 8.605696678161621094e+00 1.102170441299676895e-03 -1.061654533259570599e-03 1.215477459481917322e-05 2.150326472474262118e-04
5.735000000000000000e+03 7.151059722900390625e+01 7.717350006103515625e+00 -2.364502847194671631e-01 8.652585029602050781e+00 2.524840593338012695e+00 -7.803123593330383301e-01
5.736000000000000000e+03 7.906665802001953125e+00 1.314224338531494141e+01 7.087874109856784344e-04 -2.115742070600390434e-03 -4.220864211674779654e-04 -1.079354900866746902e-03
5.737000000000000000e+03 8.425822257995605469e+00 1.874963378906250000e+01 -3.805749816820025444e-03 -3.663201117888092995e-03 -2.240685280412435532e-03 2.963227234431542456e-05
5.738000000000000000e+03 9.949617385864257812e+00 2.242158317565917969e+01 -1.146193966269493103e-02 -5.672095343470573425e-03 -5.140210501849651337e-03 6.356114055961370468e-03
5.739000000000000000e+03 1.196229934692382812e+01 1.997175788879394531e+01 -9.933346882462501526e-03 -4.561301786452531815e-03 -4.348394460976123810e-03 1.790171023458242416e-03
5.740000000000000000e+03 1.089615917205810547e+01 2.495722961425781250e+01 -1.584596559405326843e-02 -9.215874597430229187e-03 -7.518552243709564209e-03 1.465090177953243256e-02
5.741000000000000000e+03 6.342385482788085938e+01 -2.661849498748779297e+00 9.940517134964466095e-03 2.221456050872802734e+00 6.694189906120300293e-01 1.090931892395019531e-01
5.742000000000000000e+03 7.078420257568359375e+01 3.140801239013671875e+01 -5.606750249862670898e-01 6.516738891601562500e+00 1.786819219589233398e+00 -2.901862263679504395e-01
5.743000000000000000e+03 7.111759948730468750e+01 2.772919654846191406e+01 -9.944680333137512207e-01 7.453838825225830078e+00 1.937811255455017090e+00 -7.345347851514816284e-02
5.744000000000000000e+03 4.065996170043945312e+01 2.044504547119140625e+01 -3.169767558574676514e-01 1.007134243845939636e-01 -6.487900018692016602e-02 8.832892030477523804e-02
5.745000000000000000e+03 4.090641784667968750e+01 -8.660039901733398438e+00 -2.900126576423645020e-01 1.658349186182022095e-01 -3.725332394242286682e-02 -1.808168552815914154e-02
5.746000000000000000e+03 3.973913955688476562e+01 -1.002274322509765625e+01 2.335920184850692749e-02 -3.032797761261463165e-02 -2.090632915496826172e-03 5.068357568234205246e-03
5.747000000000000000e+03 1.521510505676269531e+01 2.662849998474121094e+01 -3.124782070517539978e-02 -1.644596457481384277e-02 -1.430813595652580261e-02 3.790198639035224915e-02
5.748000000000000000e+03 1.622297668457031250e+01 2.528415107727050781e+01 -4.124824330210685730e-02 -9.950846433639526367e-03 -1.535972673445940018e-02 3.526173159480094910e-02
5.749000000000000000e+03 4.128785324096679688e+01 2.211734008789062500e+01 -3.190818130970001221e-01 1.183796823024749756e-01 -6.021063774824142456e-02 1.168725714087486267e-01
5.750000000000000000e+03 6.294837951660156250e+01 -2.357688665390014648e+00 1.028281673789024353e-01 1.958357930183410645e+00 6.183558702468872070e-01 1.921412795782089233e-01
5.751000000000000000e+03 7.301084899902343750e+01 -2.131513786315917969e+01 9.563328027725219727e-01 8.089376449584960938e+00 2.713712692260742188e+00 -1.453854888677597046e-01
5.752000000000000000e+03 4.338328552246093750e+01 1.987973022460937500e+01 -3.646894991397857666e-01 1.396917402744293213e-01 -6.749932467937469482e-02 4.193045198917388916e-02
5.753000000000000000e+03 4.281705474853515625e+01 2.044642448425292969e+01 -3.660328686237335205e-01 1.379766017198562622e-01 -6.841687858104705811e-02 7.036460191011428833e-02
5.754000000000000000e+03 4.675197601318359375e+01 3.015634155273437500e+01 4.902757704257965088e-02 1.187000498175621033e-01 5.031828582286834717e-02 3.535899221897125244e-01
5.755000000000000000e+03 1.179703044891357422e+01 1.842258071899414062e+01 -5.584777798503637314e-03 -4.737809766083955765e-03 -3.096776315942406654e-03 2.863441768568009138e-04
5.756000000000000000e+03 8.637793540954589844e+00 1.799365234375000000e+01 -2.605448709800839424e-03 -3.644353011623024940e-03 -1.874940469861030579e-03 -4.220477130729705095e-04
5.757000000000000000e+03 1.767193984985351562e+01 2.972766113281250000e+01 -1.461107749491930008e-02 -4.582263156771659851e-02 -1.813011243939399719e-02 6.165369600057601929e-02
5.758000000000000000e+03 1.080353736877441406e+01 3.118925666809082031e+01 -2.631413983181118965e-03 -2.815459668636322021e-02 -9.235803037881851196e-03 2.711913362145423889e-02
5.759000000000000000e+03 7.096721649169921875e+01 2.641581916809082031e+01 -1.125517964363098145e+00 7.987233638763427734e+00 2.058514595031738281e+00 1.200789120048284531e-02
5.760000000000000000e+03 7.195605468750000000e+01 2.611235809326171875e+01 -9.639886021614074707e-01 8.099702835083007812e+00 2.140714168548583984e+00 4.251390099525451660e-01
5.761000000000000000e+03 3.988937377929687500e+01 2.528040122985839844e+01 -2.153704911470413208e-01 7.472227513790130615e-02 -4.219446331262588501e-02 1.806654334068298340e-01
5.762000000000000000e+03 6.909867095947265625e+01 3.443017959594726562e+01 -1.443424224853515625e-01 5.494482040405273438e+00 1.605041980743408203e+00 -4.308794438838958740e-01
5.763000000000000000e+03 6.799595642089843750e+01 3.130647277832031250e+01 -4.506805241107940674e-01 5.319869995117187500e+00 1.460756778717041016e+00 -7.273222804069519043e-01
5.764000000000000000e+03 3.914146804809570312e+01 2.701461219787597656e+01 -1.274700909852981567e-01 3.851813077926635742e-02 -2.668558992445468903e-02 1.984703242778778076e-01
5.765000000000000000e+03 3.897712707519531250e+01 2.562702369689941406e+01 -1.814578175544738770e-01 4.733742401003837585e-02 -4.023611918091773987e-02 1.789387017488479614e-01
5.766000000000000000e+03 4.252896881103515625e+01 2.761293983459472656e+01 -1.402272582054138184e-01 9.212179481983184814e-02 -1.443163957446813583e-02 2.605560719966888428e-01
5.767000000000000000e+03 1.079442596435546875e+01 2.292428207397460938e+01 -1.444039121270179749e-02 -6.123946513980627060e-03 -6.169301457703113556e-03 8.284538052976131439e-03
5.768000000000000000e+03 2.572582244873046875e+01 3.244147109985351562e+01 4.850200191140174866e-02 -1.152972131967544556e-01 -2.003856375813484192e-02 1.055747866630554199e-01
5.769000000000000000e+03 2.338351440429687500e+01 3.258660125732421875e+01 3.939014300704002380e-02 -1.023554727435112000e-01 -1.888959854841232300e-02 9.182919561862945557e-02
5.770000000000000000e+03 1.108452987670898438e+01 3.559520339965820312e+01 1.114205550402402878e-02 -4.384572058916091919e-02 -9.811098687350749969e-03 2.438651211559772491e-02
5.771000000000000000e+03 6.749537658691406250e+01 3.810809707641601562e+01 1.986287236213684082e-01 4.629542350769042969e+00 1.448451280593872070e+00 -2.902825474739074707e-01
5.772000000000000000e+03 1.276883602142333984e+01 -3.659054946899414062e+01 6.317114084959030151e-02 -1.667685247957706451e-02 1.394828595221042633e-02 -4.104360565543174744e-02
5.773000000000000000e+03 7.039550018310546875e+01 2.718537902832031250e+01 -1.048354506492614746e+00 7.500042915344238281e+00 1.935506463050842285e+00 -3.229180574417114258e-01
5.774000000000000000e+03 2.793272590637207031e+01 3.164819335937500000e+01 4.303996264934539795e-02 -1.178451478481292725e-01 -2.244155667722225189e-02 1.161397248506546021e-01
5.775000000000000000e+03 6.794638061523437500e+01 3.350933456420898438e+01 -1.869012117385864258e-01 5.139970302581787109e+00 1.485920667648315430e+00 -5.806360840797424316e-01
5.776000000000000000e+03 6.183921813964843750e+01 -3.858759307861328125e+01 6.862562894821166992e-01 1.970640182495117188e+00 7.970689535140991211e-01 2.158659845590591431e-01
5.777000000000000000e+03 3.285666275024414062e+01 3.147181892395019531e+01 7.485599815845489502e-02 -1.076157391071319580e-01 -9.827922098338603973e-03 1.431902348995208740e-01
5.778000000000000000e+03 3.561909484863281250e+01 3.068483161926269531e+01 5.340997129678726196e-02 -6.614258885383605957e-02 -3.819785779342055321e-03 1.757722347974777222e-01
5.779000000000000000e+03 1.184539985656738281e+01 3.752426910400390625e+01 2.147275023162364960e-02 -5.343540012836456299e-02 -9.588794782757759094e-03 1.988397166132926941e-02
5.780000000000000000e+03 1.236844730377197266e+01 3.956593322753906250e+01 2.531663142144680023e-02 -5.827060341835021973e-02 -9.886192157864570618e-03 1.015392411500215530e-02
5.781000000000000000e+03 2.031952285766601562e+01 3.415691757202148438e+01 4.202507436275482178e-02 -9.156880527734756470e-02 -1.486311946064233780e-02 6.422359496355056763e-02
5.782000000000000000e+03 1.339000320434570312e+01 3.145601272583007812e+01 -1.611642539501190186e-03 -3.725853934884071350e-02 -1.166105456650257111e-02 3.743693605065345764e-02
5.783000000000000000e+03 6.694755554199218750e+01 3.235966110229492188e+01 -2.413137853145599365e-01 4.815396785736083984e+00 1.372224807739257812e+00 -7.530136108398437500e-01
5.784000000000000000e+03 3.932674789428710938e+01 -1.290533638000488281e+01 6.790369153022766113e-01 9.488992393016815186e-03 2.065577805042266846e-01 2.576280571520328522e-02
5.785000000000000000e+03 7.047113037109375000e+01 -2.886228561401367188e+00 -6.451280713081359863e-01 6.255596637725830078e+00 1.683140516281127930e+00 -4.619801938533782959e-01
5.786000000000000000e+03 3.813793945312500000e+01 -1.078674125671386719e+01 2.078372091054916382e-01 -2.170512527227401733e-01 -2.764213364571332932e-03 -1.961483247578144073e-02
5.787000000000000000e+03 4.423966598510742188e+01 -7.798130512237548828e+00 -3.920862972736358643e-01 9.188854098320007324e-01 1.580397337675094604e-01 1.173560172319412231e-01
5.788000000000000000e+03 4.409605407714843750e+01 -6.253577709197998047e+00 -8.391630053520202637e-01 7.771867513656616211e-01 -1.859288103878498077e-02 1.729292236268520355e-02
5.789000000000000000e+03 7.147288513183593750e+01 -3.793056964874267578e+00 -6.862598061561584473e-01 6.720345497131347656e+00 1.810225725173950195e+00 -4.458231627941131592e-01
5.790000000000000000e+03 6.655217742919921875e+01 -1.234825730323791504e+00 -2.609803378582000732e-01 4.201619625091552734e+00 1.182191848754882812e+00 -3.345226123929023743e-02
5.791000000000000000e+03 6.653812408447265625e+01 -4.430696010589599609e+00 -5.145739316940307617e-01 3.859423160552978516e+00 1.003454804420471191e+00 -4.074657559394836426e-01
5.792000000000000000e+03 6.508010101318359375e+01 -5.689939022064208984e+00 -5.147433876991271973e-01 2.808381080627441406e+00 6.880912780761718750e-01 -3.959095478057861328e-01
5.793000000000000000e+03 7.791254520416259766e+00 1.429142856597900391e+01 2.717133320402354002e-04 -2.320239087566733360e-03 -6.145577062852680683e-04 -1.254357863217592239e-03
5.794000000000000000e+03 8.374479293823242188e+00 1.241455078125000000e+01 8.668849477544426918e-04 -2.072751754894852638e-03 -3.617600596044212580e-04 -8.957196841947734356e-04
5.795000000000000000e+03 9.260273933410644531e+00 -1.050387859344482422e+01 -3.200249969959259033e-01 -2.589226663112640381e-01 -1.736842989921569824e-01 -4.812984168529510498e-02
5.796000000000000000e+03 9.672664642333984375e+00 -9.963251113891601562e+00 -2.993472218513488770e-01 -2.695553600788116455e-01 -1.706707775592803955e-01 -4.065352305769920349e-02
5.797000000000000000e+03 7.173930358886718750e+01 -5.958512306213378906e+00 -8.282223343849182129e-01 6.982752323150634766e+00 1.846359014511108398e+00 -2.942523956298828125e-01
5.798000000000000000e+03 3.876801681518554688e+01 -1.082799243927001953e+01 2.430902272462844849e-01 -1.396312862634658813e-01 3.103768453001976013e-02 -5.297710653394460678e-03
5.799000000000000000e+03 4.257937240600585938e+01 -7.934834480285644531e+00 -4.306184053421020508e-01 5.199568271636962891e-01 2.680152840912342072e-02 2.351238578557968140e-02
5.800000000000000000e+03 3.271084213256835938e+01 -9.672707557678222656e+00 -4.575007557868957520e-01 -3.009041845798492432e-01 -2.275214791297912598e-01 -2.585558593273162842e-01
5.801000000000000000e+03 8.817555427551269531e+00 -8.749105453491210938e+00 -1.928656101226806641e-01 -1.902669817209243774e-01 -1.149397790431976318e-01 2.208464406430721283e-02
5.802000000000000000e+03 3.683642959594726562e+01 -1.122037029266357422e+01 2.806710004806518555e-01 -3.063591122627258301e-01 -7.706433068960905075e-03 -2.360918745398521423e-02
5.803000000000000000e+03 4.075123977661132812e+01 -1.201997280120849609e+01 5.263556241989135742e-01 2.645133733749389648e-01 2.372606992721557617e-01 8.863737434148788452e-02
5.804000000000000000e+03 3.809735107421875000e+01 -1.144055461883544922e+01 3.753896057605743408e-01 -2.106518149375915527e-01 4.942134022712707520e-02 5.036615300923585892e-03
5.805000000000000000e+03 6.640959930419921875e+01 -6.058343887329101562e+00 -7.035839557647705078e-01 3.699096202850341797e+00 8.986536264419555664e-01 -5.719996094703674316e-01
5.806000000000000000e+03 7.135257720947265625e+01 -4.421185016632080078e+00 -7.049894332885742188e-01 6.695008754730224609e+00 1.797005772590637207e+00 -4.201112091541290283e-01
5.807000000000000000e+03 6.822766113281250000e+01 -7.026959419250488281e+00 -1.010522127151489258e+00 5.069243431091308594e+00 1.217616319656372070e+00 -6.528090238571166992e-01
5.808000000000000000e+03 8.308293342590332031e+00 2.395043563842773438e+01 -9.455271065235137939e-03 -6.555194966495037079e-03 -4.803139716386795044e-03 8.015004917979240417e-03
5.809000000000000000e+03 8.503865242004394531e+00 2.307375335693359375e+01 -8.527345024049282074e-03 -5.848022177815437317e-03 -4.312610253691673279e-03 6.296622566878795624e-03
5.810000000000000000e+03 3.506951904296875000e+01 -1.074715137481689453e+01 4.895879700779914856e-02 -3.339380025863647461e-01 -8.549376577138900757e-02 -9.021675586700439453e-02
5.811000000000000000e+03 7.207022857666015625e+01 -1.008980083465576172e+01 -9.485064744949340820e-01 7.725820064544677734e+00 2.033194065093994141e+00 3.174730241298675537e-01
5.812000000000000000e+03 7.138773345947265625e+01 -2.778160333633422852e+00 -6.229870319366455078e-01 6.691971302032470703e+00 1.820695281028747559e+00 -4.734767079353332520e-01
5.813000000000000000e+03 6.956790161132812500e+01 -7.075603008270263672e+00 -1.053909182548522949e+00 5.990204811096191406e+00 1.480888605117797852e+00 -5.097133517265319824e-01
5.814000000000000000e+03 7.153958129882812500e+01 -5.162963867187500000e+00 -7.779956459999084473e-01 6.818270206451416016e+00 1.812082409858703613e+00 -3.725651502609252930e-01
5.815000000000000000e+03 6.718087005615234375e+01 -1.208258509635925293e+00 -3.424479365348815918e-01 4.594517707824707031e+00 1.275620937347412109e+00 -1.068884357810020447e-01
5.816000000000000000e+03 7.217842864990234375e+01 3.062127113342285156e+00 -5.328842997550964355e-01 7.493319988250732422e+00 2.088130712509155273e+00 -7.473803162574768066e-01
5.817000000000000000e+03 7.180601501464843750e+01 -2.217139720916748047e+00 -5.834439992904663086e-01 6.862259387969970703e+00 1.883644580841064453e+00 -5.041045546531677246e-01
5.818000000000000000e+03 6.709563446044921875e+01 -4.866028726100921631e-01 -3.051860928535461426e-01 4.629629611968994141e+00 1.297333121299743652e+00 3.692146947287255898e-06
5.819000000000000000e+03 7.137076568603515625e+01 4.775979995727539062e+00 -5.330864191055297852e-01 7.714931964874267578e+00 2.154553651809692383e+00 -6.371505260467529297e-01
5.820000000000000000e+03 7.175991058349609375e+01 3.768252611160278320e+00 -5.566486716270446777e-01 7.532995700836181641e+00 2.092904090881347656e+00 -6.927501559257507324e-01
5.821000000000000000e+03 6.910225677490234375e+01 3.818728685379028320e+00 -5.120859146118164062e-01 6.631439685821533203e+00 1.835806012153625488e+00 3.358553349971771240e-02
5.822000000000000000e+03 8.945806503295898438e+00 1.734421539306640625e+01 -2.305989852175116539e-03 -3.654237836599349976e-03 -1.788068329915404320e-03 -6.038970313966274261e-04
5.823000000000000000e+03 8.020835876464843750e+00 1.759529876708984375e+01 -2.195026492699980736e-03 -3.069794503971934319e-03 -1.579446368850767612e-03 -6.638701306656002998e-04
5.824000000000000000e+03 9.184366226196289062e+00 9.446882247924804688e+00 1.033654320053756237e-03 -1.392348553054034710e-03 -1.076082699000835419e-04 -2.860667300410568714e-04
5.825000000000000000e+03 9.893934249877929688e+00 1.017056655883789062e+01 1.138822524808347225e-03 -1.717760809697210789e-03 -1.736814883770421147e-04 -1.190087350551038980e-04
5.826000000000000000e+03 1.069354343414306641e+01 1.337846660614013672e+01 1.077674329280853271e-03 -2.973117632791399956e-03 -5.686330259777605534e-04 -1.185345900012180209e-04
5.827000000000000000e+03 7.095646667480468750e+01 5.318670749664306641e+00 -5.275241732597351074e-01 7.784241199493408203e+00 2.177015066146850586e+00 -5.280678272247314453e-01
5.828000000000000000e+03 1.227600479125976562e+01 1.938725090026855469e+01 -8.707460947334766388e-03 -4.559614695608615875e-03 -3.980122506618499756e-03 9.211977012455463409e-04
5.829000000000000000e+03 1.157663917541503906e+01 2.054203987121582031e+01 -1.097753271460533142e-02 -4.684466402977705002e-03 -4.698599688708782196e-03 2.486712066456675529e-03
5.830000000000000000e+03 1.184004116058349609e+01 2.547727012634277344e+01 -1.885879039764404297e-02 -1.070799957960844040e-02 -8.870037272572517395e-03 1.881481334567070007e-02
5.831000000000000000e+03 9.248454093933105469e+00 2.597454071044921875e+01 -1.101800613105297089e-02 -1.022859010845422745e-02 -6.373978685587644577e-03 1.384115871042013168e-02
5.832000000000000000e+03 6.876929473876953125e+01 3.354243516921997070e+00 -4.843612015247344971e-01 6.393985271453857422e+00 1.772887229919433594e+00 8.761041611433029175e-02
5.833000000000000000e+03 6.879395294189453125e+01 1.746649146080017090e+00 -4.664779901504516602e-01 5.966383934020996094e+00 1.649971842765808105e+00 -4.832413047552108765e-02
5.834000000000000000e+03 4.017234802246093750e+01 -1.250213909149169922e+01 5.987910032272338867e-01 1.579404026269912720e-01 2.270194143056869507e-01 6.338455528020858765e-02
5.835000000000000000e+03 4.156216430664062500e+01 -1.162082195281982422e+01 4.675937891006469727e-01 4.681519269943237305e-01 2.807237207889556885e-01 1.369654387235641479e-01
5.836000000000000000e+03 6.450318145751953125e+01 -3.269543409347534180e+00 -1.602992117404937744e-01 2.766581296920776367e+00 7.818846106529235840e-01 -7.113415002822875977e-02
5.837000000000000000e+03 7.801960945129394531e+00 -1.167165565490722656e+01 -2.961477637290954590e-01 -1.751054674386978149e-01 -1.413759738206863403e-01 -8.096525818109512329e-02
5.838000000000000000e+03 6.809748077392578125e+01 1.809606790542602539e+00 -4.123339056968688965e-01 5.652076721191406250e+00 1.571922898292541504e+00 1.019822657108306885e-01
5.839000000000000000e+03 7.156962585449218750e+01 1.137654423713684082e+00 -5.366767048835754395e-01 7.053189277648925781e+00 1.954953789710998535e+00 -5.765261054039001465e-01
5.840000000000000000e+03 7.210760498046875000e+01 2.471172511577606201e-01 -5.264136791229248047e-01 7.108746528625488281e+00 1.974699854850769043e+00 -6.101514101028442383e-01
5.841000000000000000e+03 6.763487243652343750e+01 3.091420829296112061e-01 -3.523786962032318115e-01 5.084768295288085938e+00 1.419716835021972656e+00 1.328740920871496201e-02
5.842000000000000000e+03 6.395875549316406250e+01 -4.604032993316650391e+00 -2.664961814880371094e-01 2.267468214035034180e+00 6.002916097640991211e-01 -1.369886100292205811e-01
5.843000000000000000e+03 4.333771896362304688e+01 -9.011214256286621094e+00 -7.190094143152236938e-02 7.839201092720031738e-01 2.136057615280151367e-01 1.282009631395339966e-01
5.844000000000000000e+03 6.854930114746093750e+01 -2.032019376754760742e+00 -5.105850696563720703e-01 5.292811870574951172e+00 1.434667944908142090e+00 -3.276882171630859375e-01
5.845000000000000000e+03 7.142622375488281250e+01 -9.426671981811523438e+00 -1.095545649528503418e+00 7.405025005340576172e+00 1.892843842506408691e+00 7.375601679086685181e-02
5.846000000000000000e+03 7.210880279541015625e+01 -8.680986404418945312e+00 -9.678632020950317383e-01 7.514106273651123047e+00 1.963872909545898438e+00 7.955046743154525757e-02
5.847000000000000000e+03 1.003466320037841797e+01 1.636944007873535156e+01 -1.113028847612440586e-03 -3.902417141944169998e-03 -1.504633808508515358e-03 -6.563118658959865570e-04
5.848000000000000000e+03 4.325919342041015625e+01 2.137411117553710938e+01 -3.800521194934844971e-01 1.550276726484298706e-01 -6.750733405351638794e-02 8.706775307655334473e-02
5.849000000000000000e+03 4.127026748657226562e+01 2.086749839782714844e+01 -3.321639895439147949e-01 1.191325485706329346e-01 -6.390943378210067749e-02 8.748415112495422363e-02
5.850000000000000000e+03 1.125588798522949219e+01 1.748008728027343750e+01 -3.297185990959405899e-03 -4.631331190466880798e-03 -2.378555014729499817e-03 -1.137205181294120848e-04
5.851000000000000000e+03 7.085163116455078125e+01 -7.892565250396728516e+00 -1.089251279830932617e+00 6.847720146179199219e+00 1.727540612220764160e+00 -2.573660612106323242e-01
5.852000000000000000e+03 1.213508319854736328e+01 9.976163864135742188e+00 1.208761008456349373e-03 -1.283435500226914883e-03 -2.240235698991455138e-05 6.989014800637960434e-04
5.853000000000000000e+03 1.147159957885742188e+01 9.343000411987304688e+00 1.175937126390635967e-03 -1.204916392453014851e-03 -8.693777090229559690e-06 4.081453953403979540e-04
5.854000000000000000e+03 8.417457580566406250e+00 2.218100547790527344e+01 -8.343454450368881226e-03 -4.972606897354125977e-03 -3.994818311184644699e-03 4.565996117889881134e-03
5.855000000000000000e+03 8.365407943725585938e+00 1.959306907653808594e+01 -4.517415538430213928e-03 -3.799097845330834389e-03 -2.494954038411378860e-03 7.941953954286873341e-04
5.856000000000000000e+03 9.615832328796386719e+00 1.760823440551757812e+01 -2.516507869586348534e-03 -4.077077377587556839e-03 -1.978075597435235977e-03 -4.515645559877157211e-04
5.857000000000000000e+03 7.160581970214843750e+01 3.257279157638549805e+00 -5.458866953849792480e-01 7.421440601348876953e+00 2.062666177749633789e+00 -6.428914666175842285e-01
5.858000000000000000e+03 1.076019859313964844e+01 1.512874984741210938e+01 -1.144643174484372139e-04 -3.813526593148708344e-03 -1.178397214971482754e-03 -3.560827462933957577e-04
5.859000000000000000e+03 1.081273174285888672e+01 1.586844921112060547e+01 -5.549839697778224945e-04 -3.952052909880876541e-03 -1.352111110463738441e-03 -3.995629376731812954e-04
5.860000000000000000e+03 7.168233489990234375e+01 4.264954566955566406e+00 -5.406280159950256348e-01 7.634633541107177734e+00 2.128201723098754883e+00 -6.869105100631713867e-01
5.861000000000000000e+03 4.218121337890625000e+01 -1.028588867187500000e+01 2.097227573394775391e-01 5.342074632644653320e-01 2.231790572404861450e-01 1.217579767107963562e-01
5.862000000000000000e+03 1.358628654479980469e+01 2.197972869873046875e+01 -2.186660654842853546e-02 -3.363231662660837173e-03 -7.568951696157455444e-03 7.235965691506862640e-03
5.863000000000000000e+03 9.360353469848632812e+00 2.722123718261718750e+01 -9.892508387565612793e-03 -1.313694193959236145e-02 -6.908835377544164658e-03 1.671221666038036346e-02
5.864000000000000000e+03 6.584609222412109375e+01 -2.422290802001953125e+00 -2.492541372776031494e-01 3.645940542221069336e+00 1.019005894660949707e+00 -1.063523218035697937e-01
5.865000000000000000e+03 7.017079162597656250e+01 -3.435642719268798828e+00 -6.620096564292907715e-01 6.109460353851318359e+00 1.634235262870788574e+00 -4.580419063568115234e-01
5.866000000000000000e+03 9.966620445251464844e+00 9.414599418640136719e+00 1.174101606011390686e-03 -1.335609820671379566e-03 -4.845246439799666405e-05 -4.884360896539874375e-05
5.867000000000000000e+03 1.011248302459716797e+01 1.375937080383300781e+01 6.290003657341003418e-04 -3.061858704313635826e-03 -7.298574782907962799e-04 -4.328617360442876816e-04
5.868000000000000000e+03 6.397763824462890625e+01 -2.927109479904174805e+00 -6.730086356401443481e-02 2.472395896911621094e+00 7.215285301208496094e-01 2.007801458239555359e-02
5.869000000000000000e+03 4.403102111816406250e+01 2.076216125488281250e+01 -4.018556773662567139e-01 1.511605232954025269e-01 -7.520855218172073364e-02 6.112444773316383362e-02
5.870000000000000000e+03 1.176606082916259766e+01 2.157557296752929688e+01 -1.437520049512386322e-02 -4.825591575354337692e-03 -5.760237574577331543e-03 4.762484692037105560e-03
5.871000000000000000e+03 1.270670986175537109e+01 2.300168609619140625e+01 -2.161012776196002960e-02 -5.156660918146371841e-03 -8.030036464333534241e-03 1.137064583599567413e-02
5.872000000000000000e+03 1.073440742492675781e+01 9.398396492004394531e+00 1.082328846678137779e-03 -1.408488373272120953e-03 -9.784787107491865754e-05 2.102233993355184793e-04
5.873000000000000000e+03 7.657301425933837891e+00 2.075828170776367188e+01 -5.786758381873369217e-03 -3.771423595026135445e-03 -2.867454662919044495e-03 2.045983215793967247e-03
5.874000000000000000e+03 6.959936523437500000e+01 3.560484647750854492e+00 -5.472902655601501465e-01 6.851179599761962891e+00 1.891166806221008301e+00 -1.339994370937347412e-01
5.875000000000000000e+03 7.001082611083984375e+01 4.447660923004150391e+00 -5.636995434761047363e-01 7.246578216552734375e+00 2.004863500595092773e+00 -2.241339236497879028e-01
5.876000000000000000e+03 1.418941402435302734e+01 2.521859931945800781e+01 -2.985134534537792206e-02 -9.311557747423648834e-03 -1.174887083470821381e-02 2.531459182500839233e-02
5.877000000000000000e+03 9.660773277282714844e+00 2.526312828063964844e+01 -1.223167777061462402e-02 -9.428300894796848297e-03 -6.497993599623441696e-03 1.314488891512155533e-02
5.878000000000000000e+03 4.140480804443359375e+01 -1.021390914916992188e+01 1.659509837627410889e-01 3.490070998668670654e-01 1.544874161481857300e-01 8.126261830329895020e-02
5.879000000000000000e+03 4.148542022705078125e+01 -8.819216728210449219e+00 -2.151648104190826416e-01 2.983830869197845459e-01 2.496548742055892944e-02 2.114237658679485321e-02
5.880000000000000000e+03 7.177848052978515625e+01 2.822898292541503906e+01 -8.466981053352355957e-01 7.478122711181640625e+00 1.989427328109741211e+00 7.430419325828552246e-02
5.881000000000000000e+03 9.114740371704101562e+00 1.341489219665527344e+01 6.293039768934249878e-04 -2.666738815605640411e-03 -6.112304399721324444e-04 -7.572707254439592361e-04
5.882000000000000000e+03 9.635028839111328125e+00 1.270196819305419922e+01 9.050414664670825005e-04 -2.629072172567248344e-03 -5.172092351131141186e-04 -3.758190723601728678e-04
5.883000000000000000e+03 6.880030822753906250e+01 2.944822311401367188e+01 -7.611517906188964844e-01 6.155844688415527344e+00 1.618407845497131348e+00 -7.267801165580749512e-01
5.884000000000000000e+03 7.047752380371093750e+01 3.019777679443359375e+01 -6.929284930229187012e-01 6.647417545318603516e+00 1.786346793174743652e+00 -3.289706707000732422e-01
5.885000000000000000e+03 7.047614288330078125e+01 4.896003723144531250e+00 -5.449702143669128418e-01 7.555657386779785156e+00 2.103206157684326172e+00 -3.759907484054565430e-01
5.886000000000000000e+03 7.159186553955078125e+01 -7.168444156646728516e+00 -9.404756426811218262e-01 7.059898853302001953e+00 1.835826992988586426e+00 -2.074881941080093384e-01
5.887000000000000000e+03 7.138371276855468750e+01 3.462966382503509521e-01 -5.473978519439697266e-01 6.874647617340087891e+00 1.898174881935119629e+00 -5.358011722564697266e-01
5.888000000000000000e+03 7.175113677978515625e+01 -1.031545519828796387e+00 -5.439434051513671875e-01 6.895200252532958984e+00 1.905377030372619629e+00 -5.419512391090393066e-01
5.889000000000000000e+03 8.301738739013671875e+00 1.570706844329833984e+01 -5.815271870233118534e-04 -2.994198352098464966e-03 -1.072717597708106041e-03 -9.724440751597285271e-04
5.890000000000000000e+03 1.101453685760498047e+01 2.900447845458984375e+01 -9.713149629533290863e-03 -2.051089145243167877e-02 -9.067212231457233429e-03 2.488875761628150940e-02
5.891000000000000000e+03 1.105990028381347656e+01 1.812106704711914062e+01 -4.117228556424379349e-03 -4.593139514327049255e-03 -2.613110467791557312e-03 2.425408820272423327e-05
5.892000000000000000e+03 9.838279724121093750e+00 1.698622894287109375e+01 -2.119080862030386925e-03 -4.063576459884643555e-03 -1.854797126725316048e-03 -5.120403366163372993e-04
5.893000000000000000e+03 4.077220153808593750e+01 2.443583679199218750e+01 -2.574660778045654297e-01 1.018812432885169983e-01 -4.667545482516288757e-02 1.664195358753204346e-01
5.894000000000000000e+03 4.235798645019531250e+01 2.183717918395996094e+01 -3.571741878986358643e-01 1.432985812425613403e-01 -6.416268646717071533e-02 1.143387481570243835e-01
5.895000000000000000e+03 1.190740203857421875e+01 3.275670242309570312e+01 2.236525993794202805e-03 -3.737109526991844177e-02 -1.054037082940340042e-02 3.132429718971252441e-02
5.896000000000000000e+03 4.627306747436523438e+01 2.696715545654296875e+01 -2.601172327995300293e-01 1.546112895011901855e-01 -3.165178745985031128e-02 3.238540589809417725e-01
5.897000000000000000e+03 4.045216369628906250e+01 2.663447570800781250e+01 -1.619028598070144653e-01 6.762297451496124268e-02 -2.828396670520305634e-02 2.089907974004745483e-01
5.898000000000000000e+03 1.515992450714111328e+01 2.822706031799316406e+01 -2.223963476717472076e-02 -2.644121833145618439e-02 -1.460425555706024170e-02 4.321525618433952332e-02
5.899000000000000000e+03 4.384913635253906250e+01 2.244169998168945312e+01 -3.991020619869232178e-01 1.669346988201141357e-01 -6.965021044015884399e-02 1.295201778411865234e-01
5.900000000000000000e+03 1.458675861358642578e+01 2.993893241882324219e+01 -1.149842422455549240e-02 -3.393134847283363342e-02 -1.362893171608448029e-02 4.352702945470809937e-02
5.901000000000000000e+03 4.289920043945312500e+01 2.308248710632324219e+01 -3.515293300151824951e-01 1.532110869884490967e-01 -5.949547141790390015e-02 1.430256366729736328e-01
5.902000000000000000e+03 2.251195716857910156e+01 3.782780075073242188e+01 8.491625636816024780e-02 -1.176819875836372375e-01 -9.829719550907611847e-03 4.316025972366333008e-02
5.903000000000000000e+03 2.310087394714355469e+01 3.499935531616210938e+01 6.899465620517730713e-02 -1.133291497826576233e-01 -1.330034807324409485e-02 7.392444461584091187e-02
5.904000000000000000e+03 1.008388328552246094e+01 -4.030810546875000000e+01 5.077566020190715790e-03 -2.032199054956436157e-01 -5.944270268082618713e-02 -1.375352684408426285e-02
5.905000000000000000e+03 2.911575317382812500e+01 3.427401351928710938e+01 1.065783277153968811e-01 -1.340166628360748291e-01 -8.231500163674354553e-03 1.062782555818557739e-01
5.906000000000000000e+03 1.766467094421386719e+01 -4.156678009033203125e+01 7.038210332393646240e-02 1.542251557111740112e-01 6.738217920064926147e-02 -1.414370629936456680e-02
5.907000000000000000e+03 7.088652801513671875e+01 -5.342931747436523438e+00 -8.137135505676269531e-01 6.539733409881591797e+00 1.717805981636047363e+00 -4.055297076702117920e-01
5.908000000000000000e+03 7.025498962402343750e+01 -7.062753200531005859e+00 -1.037036299705505371e+00 6.388290882110595703e+00 1.605376362800598145e+00 -4.159750938415527344e-01
5.909000000000000000e+03 6.655470275878906250e+01 -1.889633059501647949e+00 -3.014679253101348877e-01 4.134779930114746094e+00 1.149993538856506348e+00 -1.271604150533676147e-01
5.910000000000000000e+03 6.595807647705078125e+01 -1.829624176025390625e+00 -2.203409224748611450e-01 3.762792110443115234e+00 1.062735319137573242e+00 -4.967667534947395325e-02
5.911000000000000000e+03 7.077188110351562500e+01 -4.533329486846923828e+00 -7.468014359474182129e-01 6.436148166656494141e+00 1.706803917884826660e+00 -4.448649585247039795e-01
5.912000000000000000e+03 9.172161102294921875e+00 1.083975219726562500e+01 1.080547925084829330e-03 -1.814211020246148109e-03 -2.200989256380125880e-04 -3.794995427597314119e-04
5.913000000000000000e+03 1.042446136474609375e+01 1.109727096557617188e+01 1.190420356579124928e-03 -2.017414895817637444e-03 -2.480983384884893894e-04 9.010664143715985119e-06
5.914000000000000000e+03 6.895599365234375000e+01 -6.298639297485351562e+00 -9.360100030899047852e-01 5.516780853271484375e+00 1.374231219291687012e+00 -5.645636916160583496e-01
5.915000000000000000e+03 8.869428634643554688e+00 1.175717067718505859e+01 1.042436575517058372e-03 -1.987130846828222275e-03 -2.834082988556474447e-04 -5.443476838991045952e-04
5.916000000000000000e+03 3.941007614135742188e+01 -1.080499458312988281e+01 2.497362941503524780e-01 -5.300079658627510071e-02 5.902064964175224304e-02 1.270866766571998596e-02
5.917000000000000000e+03 3.878673553466796875e+01 -1.149515914916992188e+01 4.079752266407012939e-01 -1.309790760278701782e-01 8.309884369373321533e-02 1.307773962616920471e-02
5.918000000000000000e+03 9.249657630920410156e+00 2.173650932312011719e+01 -8.828082121908664703e-03 -4.958958365023136139e-03 -4.136112052947282791e-03 4.145165905356407166e-03
5.919000000000000000e+03 8.025974273681640625e+00 2.139638710021972656e+01 -6.150785367935895920e-03 -4.217579960823059082e-03 -3.110509598627686501e-03 2.827205695211887360e-03
5.920000000000000000e+03 6.831267547607421875e+01 -6.275478839874267578e+00 -9.085308909416198730e-01 5.093257904052734375e+00 1.255418062210083008e+00 -6.040853261947631836e-01
5.921000000000000000e+03 6.923108673095703125e+01 -2.204375267028808594e+00 -5.613054037094116211e-01 5.665696620941162109e+00 1.531317353248596191e+00 -3.888061344623565674e-01
5.922000000000000000e+03 7.132534790039062500e+01 3.984198570251464844e+00 -5.606938600540161133e-01 7.502205371856689453e+00 2.082453489303588867e+00 -5.915882587432861328e-01
5.923000000000000000e+03 7.080722808837890625e+01 2.982447385787963867e+00 -5.667386054992675781e-01 7.141385078430175781e+00 1.972393870353698730e+00 -4.642747938632965088e-01
5.924000000000000000e+03 7.051017761230468750e+01 3.922348260879516602e+00 -5.660486817359924316e-01 7.262816429138183594e+00 2.009030342102050781e+00 -3.737306296825408936e-01
5.925000000000000000e+03 7.019474029541015625e+01 3.325749158859252930e+00 -5.629467964172363281e-01 6.977422237396240234e+00 1.924342632293701172e+00 -3.096746802330017090e-01
5.926000000000000000e+03 1.001747417449951172e+01 2.448814964294433594e+01 -1.327136904001235962e-02 -8.097260259091854095e-03 -6.410588975995779037e-03 1.166227739304304123e-02
5.927000000000000000e+03 1.084940433502197266e+01 1.871187019348144531e+01 -5.659632850438356400e-03 -4.654814954847097397e-03 -3.094334388151764870e-03 4.786232311744242907e-04
5.928000000000000000e+03 8.711484909057617188e+00 1.534357833862304688e+01 -3.195317694917321205e-04 -3.177364123985171318e-03 -1.049068756401538849e-03 -9.922977769747376442e-04
5.929000000000000000e+03 9.412397384643554688e+00 1.222879600524902344e+01 1.082259346731007099e-03 -2.283234614878892899e-03 -3.602925571613013744e-04 -6.004394963383674622e-04
5.930000000000000000e+03 3.874236297607421875e+01 -1.217169952392578125e+01 5.516685247421264648e-01 -1.233556866645812988e-01 1.284938454627990723e-01 2.141294814646244049e-02
5.931000000000000000e+03 9.221734046936035156e+00 1.891130256652832031e+01 -4.123532678931951523e-03 -4.115438554435968399e-03 -2.471691463142633438e-03 2.097442338708788157e-04
5.932000000000000000e+03 1.047729778289794922e+01 2.577029800415039062e+01 -1.435028761625289917e-02 -1.059371605515480042e-02 -7.483201101422309875e-03 1.610793359577655792e-02
5.933000000000000000e+03 6.525783538818359375e+01 -4.977864742279052734e+00 -4.426735043525695801e-01 3.022953510284423828e+00 7.740840315818786621e-01 -3.542132377624511719e-01
5.934000000000000000e+03 7.105178833007812500e+01 -4.407921135425567627e-01 -5.500230193138122559e-01 6.673786640167236328e+00 1.837129116058349609e+00 -4.980677962303161621e-01
5.935000000000000000e+03 7.058426666259765625e+01 -1.138633966445922852e+00 -5.635073184967041016e-01 6.395802974700927734e+00 1.749688744544982910e+00 -4.579326510429382324e-01
5.936000000000000000e+03 6.853705596923828125e+01 -3.638530373573303223e-01 -4.556501209735870361e-01 5.491030216217041016e+00 1.510613918304443359e+00 -1.936650723218917847e-01
5.937000000000000000e+03 7.119493103027343750e+01 2.074564218521118164e+00 -5.602403283119201660e-01 7.084587097167968750e+00 1.957304120063781738e+00 -5.358750224113464355e-01
5.938000000000000000e+03 6.813812255859375000e+01 1.100925445556640625e+00 -4.120360910892486572e-01 5.519665241241455078e+00 1.532288789749145508e+00 1.940436847507953644e-02
5.939000000000000000e+03 7.032057189941406250e+01 1.803299784660339355e-02 -5.481573343276977539e-01 6.407589912414550781e+00 1.757829785346984863e+00 -4.021904468536376953e-01
5.940000000000000000e+03 7.096358489990234375e+01 -7.047970294952392578e+00 -9.909816384315490723e-01 6.763205051422119141e+00 1.731667041778564453e+00 -3.102001845836639404e-01
5.941000000000000000e+03 9.170388221740722656e+00 1.967258644104003906e+01 -5.893083289265632629e-03 -4.287233110517263412e-03 -3.054094966500997543e-03 1.135142636485397816e-03
5.942000000000000000e+03 1.082821941375732422e+01 2.724718093872070312e+01 -1.347222551703453064e-02 -1.452301815152168274e-02 -8.398572914302349091e-03 2.072931081056594849e-02
5.943000000000000000e+03 1.070941162109375000e+01 1.657371902465820312e+01 -1.753867603838443756e-03 -4.308303352445363998e-03 -1.818651333451271057e-03 -3.669300058390945196e-04
5.944000000000000000e+03 3.950229644775390625e+01 -1.223269748687744141e+01 5.604937672615051270e-01 1.551057305186986923e-02 1.728013008832931519e-01 4.189881309866905212e-02
5.945000000000000000e+03 3.448524475097656250e+01 -1.058814620971679688e+01 -3.875473514199256897e-02 -3.139477968215942383e-01 -1.058107540011405945e-01 -1.213953718543052673e-01
5.946000000000000000e+03 6.482678222656250000e+01 -2.737051248550415039e+00 -1.489213556051254272e-01 2.987072944641113281e+00 8.514454960823059082e-01 -4.507900774478912354e-02
5.947000000000000000e+03 4.050219726562500000e+01 -1.036703872680664062e+01 1.629331558942794800e-01 1.314494758844375610e-01 8.831478655338287354e-02 4.058986157178878784e-02
5.948000000000000000e+03 4.021288299560546875e+01 -9.826612472534179688e+00 1.933211227878928185e-03 4.579321295022964478e-02 1.431792695075273514e-02 6.278765853494405746e-03
5.949000000000000000e+03 4.102319335937500000e+01 -1.088345813751220703e+01 3.206333518028259277e-01 2.911652028560638428e-01 1.835395693778991699e-01 8.217474818229675293e-02
5.950000000000000000e+03 9.067970275878906250e+00 -9.569140434265136719e+00 -2.464164793491363525e-01 -2.237045466899871826e-01 -1.410363018512725830e-01 -7.670539431273937225e-03
5.951000000000000000e+03 6.933818817138671875e+01 2.981435060501098633e+00 -5.228281021118164062e-01 6.540472030639648438e+00 1.805293083190917969e+00 -1.022519320249557495e-01
5.952000000000000000e+03 7.199304199218750000e+01 -6.648691177368164062e+00 -8.702942728996276855e-01 7.161342620849609375e+00 1.887314558029174805e+00 -2.209801375865936279e-01
5.953000000000000000e+03 7.068227386474609375e+01 7.037197947502136230e-01 -5.468603968620300293e-01 6.658338546752929688e+00 1.833443403244018555e+00 -4.498237073421478271e-01
5.954000000000000000e+03 8.285010337829589844e+00 1.482625007629394531e+01 8.026377327041700482e-05 -2.688650740310549736e-03 -7.825160864740610123e-04 -1.132888370193541050e-03
5.955000000000000000e+03 8.430683135986328125e+00 1.375465106964111328e+01 6.057666614651679993e-04 -2.432982670143246651e-03 -5.481648258864879608e-04 -1.029992476105690002e-03
5.956000000000000000e+03 1.129450035095214844e+01 1.958850097656250000e+01 -8.116297423839569092e-03 -4.675590433180332184e-03 -3.837566357105970383e-03 1.201801584102213383e-03
5.957000000000000000e+03 1.037912750244140625e+01 2.369271659851074219e+01 -1.393900439143180847e-02 -7.036572787910699844e-03 -6.292672827839851379e-03 1.010779198259115219e-02
5.958000000000000000e+03 1.243810272216796875e+01 2.201870918273925781e+01 -1.808739267289638519e-02 -4.466141574084758759e-03 -6.766060367226600647e-03 6.966147571802139282e-03
5.959000000000000000e+03 1.317661762237548828e+01 2.493867111206054688e+01 -2.483337372541427612e-02 -9.510603733360767365e-03 -1.030319370329380035e-02 2.055692486464977264e-02
5.960000000000000000e+03 9.841764450073242188e+00 1.468131446838378906e+01 8.739650365896522999e-05 -3.381363349035382271e-03 -9.881900623440742493e-04 -6.650336435995995998e-04
5.961000000000000000e+03 9.674455642700195312e+00 1.554371643066406250e+01 -4.257070540916174650e-04 -3.561466699466109276e-03 -1.196152181364595890e-03 -7.713538361713290215e-04
5.962000000000000000e+03 6.421874237060546875e+01 -3.915146827697753906e+00 -2.032239735126495361e-01 2.505887031555175781e+00 6.907989382743835449e-01 -1.026230007410049438e-01
5.963000000000000000e+03 7.105770111083984375e+01 3.532619714736938477e+00 -5.713292360305786133e-01 7.310822963714599609e+00 2.021848201751708984e+00 -5.311300158500671387e-01
5.964000000000000000e+03 1.017558097839355469e+01 1.283404445648193359e+01 1.057019457221031189e-03 -2.685307757928967476e-03 -4.884864902123808861e-04 -2.446639700792729855e-04
5.965000000000000000e+03 9.955225944519042969e+00 1.176661968231201172e+01 1.205676700919866562e-03 -2.239752328023314476e-03 -3.102226473856717348e-04 -1.900743518490344286e-04
5.966000000000000000e+03 7.057198333740234375e+01 2.362988710403442383e+00 -5.646526217460632324e-01 6.902465343475341797e+00 1.901343822479248047e+00 -4.166078269481658936e-01
5.967000000000000000e+03 7.124729919433593750e+01 -1.658414125442504883e+00 -5.770373344421386719e-01 6.658000946044921875e+00 1.824289083480834961e+00 -4.900076985359191895e-01
5.968000000000000000e+03 8.813347816467285156e+00 1.590059566497802734e+01 -6.457627168856561184e-04 -3.173721255734562874e-03 -1.145845162682235241e-03 -1.031520776450634003e-03
5.969000000000000000e+03 1.063708114624023438e+01 1.926445960998535156e+01 -6.408425513654947281e-03 -4.636246245354413986e-03 -3.313401481136679649e-03 8.243732154369354248e-04
5.970000000000000000e+03 6.542101287841796875e+01 -4.289819717407226562e+00 -3.730178475379943848e-01 3.217370986938476562e+00 8.533059358596801758e-01 -2.971886694431304932e-01
5.971000000000000000e+03 1.183397006988525391e+01 2.807233428955078125e+01 -1.400896720588207245e-02 -1.923806965351104736e-02 -9.974110871553421021e-03 2.671588398516178131e-02
5.972000000000000000e+03 1.013012790679931641e+01 2.802078056335449219e+01 -1.108517497777938843e-02 -1.632697135210037231e-02 -8.223643526434898376e-03 2.122957073152065277e-02
5.973000000000000000e+03 4.076321792602539062e+01 -9.918272018432617188e+00 5.029478296637535095e-02 1.645736694335937500e-01 6.446053087711334229e-02 3.370690718293190002e-02
5.974000000000000000e+03 9.467898368835449219e+00 2.326135444641113281e+01 -1.126266364008188248e-02 -6.309566088020801544e-03 -5.271669011563062668e-03 7.642030715942382812e-03
5.975000000000000000e+03 9.413962364196777344e+00 2.046123123168945312e+01 -7.008777465671300888e-03 -4.461040720343589783e-03 -3.440945409238338470e-03 1.991769531741738319e-03
5.976000000000000000e+03 1.248768615722656250e+01 2.372918510437011719e+01 -2.111114561557769775e-02 -6.827545352280139923e-03 -8.381607010960578918e-03 1.335005927830934525e-02
5.977000000000000000e+03 4.510549926757812500e+01 2.831299209594726562e+01 -1.239417791366577148e-01 1.192771866917610168e-01 -1.399378059431910515e-03 3.231433928012847900e-01
5.978000000000000000e+03 4.371589279174804688e+01 2.436733627319335938e+01 -3.408847153186798096e-01 1.575131863355636597e-01 -5.501146242022514343e-02 1.990742385387420654e-01
5.979000000000000000e+03 4.378043365478515625e+01 2.667904281616210938e+01 -2.288659363985061646e-01 1.309619843959808350e-01 -2.937118336558341980e-02 2.694974243640899658e-01
5.980000000000000000e+03 9.974967956542968750e+00 2.654496002197265625e+01 -1.236059516668319702e-02 -1.241661142557859421e-02 -7.433161605149507523e-03 1.721643656492233276e-02
5.981000000000000000e+03 4.163932800292968750e+01 2.594742393493652344e+01 -2.229392081499099731e-01 1.046714410185813904e-01 -3.548032790422439575e-02 2.179274559020996094e-01
5.982000000000000000e+03 1.366752624511718750e+01 2.768161010742187500e+01 -1.953587494790554047e-02 -2.046017348766326904e-02 -1.199881453067064285e-02 3.303570300340652466e-02
5.983000000000000000e+03 1.208301353454589844e+01 3.017091178894042969e+01 -8.595229126513004303e-03 -2.746322564780712128e-02 -1.081753615289926529e-02 3.202470019459724426e-02
5.984000000000000000e+03 1.629322624206542969e+01 3.122964286804199219e+01 -1.621691160835325718e-03 -4.776190593838691711e-02 -1.481507904827594757e-02 5.209489911794662476e-02
5.985000000000000000e+03 1.489651012420654297e+01 3.291837310791015625e+01 7.428883574903011322e-03 -5.027117952704429626e-02 -1.285268925130367279e-02 4.270194843411445618e-02
5.986000000000000000e+03 1.666863632202148438e+01 3.463702392578125000e+01 2.356643974781036377e-02 -6.645200401544570923e-02 -1.286567002534866333e-02 4.460172355175018311e-02
5.987000000000000000e+03 2.675727844238281250e+01 3.792202377319335938e+01 1.361771225929260254e-01 -1.436164528131484985e-01 -2.231797669082880020e-03 5.336083844304084778e-02
5.988000000000000000e+03 3.357722473144531250e+01 3.539276504516601562e+01 1.847756356000900269e-01 -1.344880461692810059e-01 1.508627925068140030e-02 1.119474843144416809e-01
5.989000000000000000e+03 6.559741210937500000e+01 -3.651944398880004883e+00 -3.275472223758697510e-01 3.397247552871704102e+00 9.209100604057312012e-01 -2.400992512702941895e-01
5.990000000000000000e+03 6.778729248046875000e+01 -4.371179938316345215e-01 -3.814721405506134033e-01 5.037405967712402344e+00 1.396780133247375488e+00 -9.649664908647537231e-02
5.991000000000000000e+03 6.961863708496093750e+01 -3.205140829086303711e+00 -6.307929754257202148e-01 5.804742813110351562e+00 1.552184939384460449e+00 -4.471677839756011963e-01
5.992000000000000000e+03 7.023761749267578125e+01 -5.448782444000244141e+00 -8.387631773948669434e-01 6.206722259521484375e+00 1.610387682914733887e+00 -4.570082128047943115e-01
5.993000000000000000e+03 7.095461273193359375e+01 1.402381181716918945e+00 -5.503421425819396973e-01 6.872577190399169922e+00 1.896670460700988770e+00 -4.938012957572937012e-01
5.994000000000000000e+03 9.037161827087402344e+00 1.273888206481933594e+01 1.047121593728661537e-03 -2.360379323363304138e-03 -3.939773305319249630e-04 -7.169412565417587757e-04
5.995000000000000000e+03 4.032802200317382812e+01 -1.132273387908935547e+01 4.104760289192199707e-01 1.528161615133285522e-01 1.689876616001129150e-01 6.245775893330574036e-02
5.996000000000000000e+03 4.000704956054687500e+01 -1.064709568023681641e+01 2.255514860153198242e-01 5.274660885334014893e-02 8.348942548036575317e-02 2.887439914047718048e-02
5.997000000000000000e+03 4.252835083007812500e+01 -8.596859931945800781e+00 -2.294965833425521851e-01 5.288872718811035156e-01 8.981721103191375732e-02 5.512542650103569031e-02
5.998000000000000000e+03 4.305351257324218750e+01 -8.322325706481933594e+00 -3.002991080284118652e-01 6.538998484611511230e-01 1.060802116990089417e-01 6.692344695329666138e-02
5.999000000000000000e+03 9.953545570373535156e+00 1.904697990417480469e+01 -5.593763664364814758e-03 -4.497602581977844238e-03 -3.027409780770540237e-03 7.038890616968274117e-04
6.000000000000000000e+03 9.193607330322265625e+00 1.672985458374023438e+01 -1.397323445416986942e-03 -3.652868559584021568e-03 -1.515057636424899101e-03 -7.916261092759668827e-04
6.001000000000000000e+03 9.400624275207519531e+00 1.609325981140136719e+01 -9.563930798321962357e-04 -3.703407710418105125e-03 -1.397940213792026043e-03 -7.583359256386756897e-04
6.002000000000000000e+03 6.731061553955078125e+01 -5.265501499176025391e+00 -7.039187550544738770e-01 4.392320156097412109e+00 1.106520414352416992e+00 -5.407582521438598633e-01
6.003000000000000000e+03 7.083060455322265625e+01 -2.279406070709228516e+00 -6.034703254699707031e-01 6.439199924468994141e+00 1.750718951225280762e+00 -4.747826159000396729e-01
6.004000000000000000e+03 6.787118530273437500e+01 -1.197968363761901855e+00 -4.162802696228027344e-01 4.987511157989501953e+00 1.371369242668151855e+00 -1.743169724941253662e-01
6.005000000000000000e+03 6.944890594482421875e+01 1.457435846328735352e+00 -5.189781188964843750e-01 6.277636051177978516e+00 1.727597355842590332e+00 -2.280479073524475098e-01
6.006000000000000000e+03 1.243886852264404297e+01 2.703775978088378906e+01 -1.845321990549564362e-02 -1.573388651013374329e-02 -1.025613211095333099e-02 2.593380771577358246e-02
6.007000000000000000e+03 1.127055263519287109e+01 2.414627838134765625e+01 -1.690525189042091370e-02 -7.835563272237777710e-03 -7.422244176268577576e-03 1.280052028596401215e-02
6.008000000000000000e+03 1.018870449066162109e+01 1.579254055023193359e+01 -7.992984028533101082e-04 -3.932292107492685318e-03 -1.419477164745330811e-03 -5.325679085217416286e-04
6.009000000000000000e+03 6.700096893310546875e+01 -6.180494308471679688e+00 -7.879861593246459961e-01 4.162977695465087891e+00 1.012497544288635254e+00 -6.243148446083068848e-01
6.010000000000000000e+03 6.576056671142578125e+01 -3.048377275466918945e+00 -2.901695072650909424e-01 3.521770715713500977e+00 9.694803357124328613e-01 -1.852335482835769653e-01
6.011000000000000000e+03 1.056047344207763672e+01 2.173070144653320312e+01 -1.161667238920927048e-02 -5.158714484423398972e-03 -5.032616201788187027e-03 4.688322544097900391e-03
6.012000000000000000e+03 1.162649726867675781e+01 2.336886024475097656e+01 -1.775102131068706512e-02 -6.393092684447765350e-03 -7.243233732879161835e-03 1.104393601417541504e-02
6.013000000000000000e+03 1.012524509429931641e+01 1.845744705200195312e+01 -4.146439023315906525e-03 -4.453271627426147461e-03 -2.579913241788744926e-03 5.457242150441743433e-05
6.014000000000000000e+03 6.682376098632812500e+01 -5.603159904479980469e+00 -6.866669654846191406e-01 4.041832447052001953e+00 1.006549596786499023e+00 -5.527988672256469727e-01
6.015000000000000000e+03 6.701444244384765625e+01 -4.305415630340576172e+00 -5.545874238014221191e-01 4.241086959838867188e+00 1.105949878692626953e+00 -4.339523315429687500e-01
6.016000000000000000e+03 8.725319862365722656e+00 2.091951751708984375e+01 -7.000919431447982788e-03 -4.466206766664981842e-03 -3.440137952566146851e-03 2.563657239079475403e-03
6.017000000000000000e+03 9.862326622009277344e+00 1.962335395812988281e+01 -6.138026248663663864e-03 -4.478778224438428879e-03 -3.185041248798370361e-03 1.013552420772612095e-03
6.018000000000000000e+03 7.032669830322265625e+01 1.723378896713256836e+00 -5.479927659034729004e-01 6.692404270172119141e+00 1.843323469161987305e+00 -3.785854578018188477e-01
6.019000000000000000e+03 6.920722961425781250e+01 9.104786515235900879e-01 -4.981780350208282471e-01 6.011476516723632812e+00 1.653989553451538086e+00 -1.997667253017425537e-01
6.020000000000000000e+03 6.987662506103515625e+01 -2.505007266998291016e+00 -6.030042767524719238e-01 5.977234840393066406e+00 1.612269163131713867e+00 -4.161139726638793945e-01
6.021000000000000000e+03 7.099153900146484375e+01 -6.177342414855957031e+00 -9.010676741600036621e-01 6.670270442962646484e+00 1.730760812759399414e+00 -3.645065128803253174e-01
6.022000000000000000e+03 9.474597930908203125e+00 1.406895351409912109e+01 6.308984011411666870e-04 -3.057579742744565010e-03 -7.280043791979551315e-04 -7.160130189731717110e-04
6.023000000000000000e+03 9.753434181213378906e+00 1.321353149414062500e+01 1.045443117618560791e-03 -2.823850139975547791e-03 -5.335221067070960999e-04 -4.859835316892713308e-04
6.024000000000000000e+03 6.524128723144531250e+01 -2.957569122314453125e+00 -2.269260883331298828e-01 3.256670475006103516e+00 9.089233279228210449e-01 -1.202446743845939636e-01
6.025000000000000000e+03 7.007927703857421875e+01 -3.994848966598510742e+00 -7.001346945762634277e-01 6.057609081268310547e+00 1.607242345809936523e+00 -4.593766331672668457e-01
6.026000000000000000e+03 1.032899284362792969e+01 1.785604858398437500e+01 -3.657910972833633423e-03 -4.418751224875450134e-03 -2.422998659312725067e-03 -1.005729427561163902e-04
6.027000000000000000e+03 1.041645050048828125e+01 1.977334594726562500e+01 -7.446449249982833862e-03 -4.648721776902675629e-03 -3.628551261499524117e-03 1.416931976564228535e-03
6.028000000000000000e+03 1.051283550262451172e+01 2.064851760864257812e+01 -9.182818233966827393e-03 -4.785158205777406693e-03 -4.190392792224884033e-03 2.589598763734102249e-03
6.029000000000000000e+03 1.399738979339599609e+01 2.639129447937011719e+01 -2.618446387350559235e-02 -1.507212314754724503e-02 -1.237697619944810867e-02 3.046000748872756958e-02
6.030000000000000000e+03 1.286619472503662109e+01 2.597256088256835938e+01 -2.199041470885276794e-02 -1.241764239966869354e-02 -1.032241713255643845e-02 2.376916818320751190e-02
6.031000000000000000e+03 4.359851074218750000e+01 2.947670364379882812e+01 -1.980933174490928650e-02 7.283247262239456177e-02 1.590694300830364227e-02 3.087672889232635498e-01
6.032000000000000000e+03 1.220021247863769531e+01 2.458096122741699219e+01 -2.069313451647758484e-02 -8.276687003672122955e-03 -8.690946735441684723e-03 1.635782420635223389e-02
6.033000000000000000e+03 1.317706203460693359e+01 3.440672302246093750e+01 1.245603617280721664e-02 -4.862505942583084106e-02 -1.085070706903934479e-02 3.278174623847007751e-02
6.034000000000000000e+03 3.939785385131835938e+01 -3.549927902221679688e+01 2.035327553749084473e-01 4.195795655250549316e-01 1.869336962699890137e-01 6.449101865291595459e-02
6.035000000000000000e+03 3.767383193969726562e+01 3.111639595031738281e+01 7.040223479270935059e-02 -4.723766446113586426e-02 6.949371192604303360e-03 1.993205696344375610e-01
6.036000000000000000e+03 3.488311767578125000e+01 3.291139602661132812e+01 1.345824450254440308e-01 -1.032821908593177795e-01 9.390076622366905212e-03 1.583395898342132568e-01
6.037000000000000000e+03 3.983177947998046875e+01 3.102842330932617188e+01 7.008947432041168213e-02 -1.545548811554908752e-02 1.639019511640071869e-02 2.254557013511657715e-01
6.038000000000000000e+03 6.708248138427734375e+01 -4.838856697082519531e+00 -6.188788414001464844e-01 4.268132209777832031e+00 1.094776034355163574e+00 -4.860157072544097900e-01
6.039000000000000000e+03 6.893701934814453125e+01 -4.768019676208496094e+00 -7.397519350051879883e-01 5.438629150390625000e+00 1.409663081169128418e+00 -5.061936378479003906e-01
6.040000000000000000e+03 6.647571563720703125e+01 -2.534670352935791016e+00 -3.326044678688049316e-01 4.025768756866455078e+00 1.107949256896972656e+00 -1.910922676324844360e-01
6.041000000000000000e+03 6.719070434570312500e+01 -1.930433034896850586e+00 -3.764953017234802246e-01 4.523713111877441406e+00 1.244165420532226562e+00 -1.919205039739608765e-01
6.042000000000000000e+03 6.846527862548828125e+01 -2.790690898895263672e+00 -5.474225282669067383e-01 5.199506759643554688e+00 1.395625233650207520e+00 -3.792869150638580322e-01
6.043000000000000000e+03 9.438774108886718750e+00 1.133625793457031250e+01 1.134868594817817211e-03 -1.920543261803686619e-03 -2.357023768126964569e-04 -4.436760791577398777e-04
6.044000000000000000e+03 6.960391235351562500e+01 -6.288100719451904297e+00 -9.528731703758239746e-01 5.918402671813964844e+00 1.489658951759338379e+00 -5.080192685127258301e-01
6.045000000000000000e+03 7.027748107910156250e+01 -6.248696327209472656e+00 -9.406694173812866211e-01 6.296356678009033203e+00 1.606706261634826660e+00 -4.369342923164367676e-01
6.046000000000000000e+03 7.018952941894531250e+01 -1.818786263465881348e+00 -5.806695222854614258e-01 6.190802574157714844e+00 1.683039903640747070e+00 -4.310373067855834961e-01
6.047000000000000000e+03 6.831792449951171875e+01 -3.834918022155761719e+00 -6.195099353790283203e-01 5.075238227844238281e+00 1.336718440055847168e+00 -4.406519830226898193e-01
6.048000000000000000e+03 6.883577728271484375e+01 5.574444532394409180e-01 -4.677349627017974854e-01 5.757580280303955078e+00 1.586953639984130859e+00 -1.524813026189804077e-01
6.049000000000000000e+03 6.921936035156250000e+01 -6.128521636128425598e-02 -5.039197206497192383e-01 5.860930442810058594e+00 1.607103228569030762e+00 -2.596801817417144775e-01
6.050000000000000000e+03 7.016271209716796875e+01 -4.677418708801269531e+00 -7.698470354080200195e-01 6.110102653503417969e+00 1.602076649665832520e+00 -4.634890258312225342e-01
6.051000000000000000e+03 6.951085662841796875e+01 -3.953731298446655273e+00 -6.884770989418029785e-01 5.745028495788574219e+00 1.516965508460998535e+00 -4.679932594299316406e-01
6.052000000000000000e+03 6.984088134765625000e+01 -6.532437205314636230e-01 -5.298437476158142090e-01 6.102408885955810547e+00 1.671769618988037109e+00 -3.650589883327484131e-01
6.053000000000000000e+03 9.769862174987792969e+00 1.084325504302978516e+01 1.223578234203159809e-03 -1.773109310306608677e-03 -1.648593170102685690e-04 -2.306042006239295006e-04
6.054000000000000000e+03 9.934423446655273438e+00 2.115807914733886719e+01 -9.738477878272533417e-03 -4.958014003932476044e-03 -4.408947657793760300e-03 3.631872357800602913e-03
6.055000000000000000e+03 6.616399383544921875e+01 -3.765880346298217773e+00 -3.935412764549255371e-01 3.721202373504638672e+00 9.982983469963073730e-01 -2.971284985542297363e-01
6.056000000000000000e+03 6.780101013183593750e+01 -5.500505924224853516e+00 -7.598473429679870605e-01 4.677020549774169922e+00 1.175151944160461426e+00 -5.642552971839904785e-01
6.057000000000000000e+03 6.838950347900390625e+01 -5.559546470642089844e+00 -8.164514303207397461e-01 5.117986202239990234e+00 1.290460467338562012e+00 -5.522128343582153320e-01
6.058000000000000000e+03 1.004067707061767578e+01 2.015616607666015625e+01 -7.900069467723369598e-03 -4.684974905103445053e-03 -3.775513265281915665e-03 1.895545283332467079e-03
6.059000000000000000e+03 4.487545013427734375e+01 3.151228523254394531e+01 1.651146709918975830e-01 6.428121030330657959e-02 6.881876289844512939e-02 3.056406378746032715e-01
6.060000000000000000e+03 4.106220626831054688e+01 2.836892318725585938e+01 -8.343210816383361816e-02 5.406614765524864197e-02 -8.809787221252918243e-03 2.484318763017654419e-01
6.061000000000000000e+03 1.305116271972656250e+01 2.898203277587890625e+01 -1.388555858284235001e-02 -2.397692576050758362e-02 -1.135874539613723755e-02 3.293966501951217651e-02
6.062000000000000000e+03 4.454631042480468750e+01 3.549938583374023438e+01 3.883968293666839600e-01 3.531850408762693405e-03 1.175786033272743225e-01 2.163877189159393311e-01
6.063000000000000000e+03 1.623246383666992188e+01 3.854500579833984375e+01 4.453161358833312988e-02 -7.972314208745956421e-02 -1.055745780467987061e-02 2.489372342824935913e-02
6.064000000000000000e+03 1.457375812530517578e+01 3.631169509887695312e+01 2.383115887641906738e-02 -6.201553717255592346e-02 -1.145531330257654190e-02 3.273551911115646362e-02
6.065000000000000000e+03 4.042115020751953125e+01 3.368111801147460938e+01 2.011587768793106079e-01 -4.769880697131156921e-02 4.603799059987068176e-02 2.148427814245223999e-01
6.066000000000000000e+03 6.955117034912109375e+01 -4.732513904571533203e+00 -7.633018493652343750e-01 5.781769752502441406e+00 1.505540370941162109e+00 -4.930377900600433350e-01
6.067000000000000000e+03 6.600672149658203125e+01 -4.387993335723876953e+00 -4.548631012439727783e-01 3.591409444808959961e+00 9.409638643264770508e-01 -3.585157096385955811e-01
6.068000000000000000e+03 6.864297485351562500e+01 -1.204022884368896484e+00 -4.796982705593109131e-01 5.445377826690673828e+00 1.489703774452209473e+00 -2.699747383594512939e-01
6.069000000000000000e+03 6.786143493652343750e+01 -1.972197294235229492e+00 -4.458188414573669434e-01 4.932936668395996094e+00 1.346135377883911133e+00 -2.497839182615280151e-01
6.070000000000000000e+03 6.839348602294921875e+01 -4.876790523529052734e+00 -7.260646224021911621e-01 5.094906806945800781e+00 1.310652732849121094e+00 -5.042840838432312012e-01
6.071000000000000000e+03 6.904179382324218750e+01 -2.928915023803710938e+00 -5.916755199432373047e-01 5.529873371124267578e+00 1.481459379196166992e+00 -4.064493775367736816e-01
6.072000000000000000e+03 6.867604827880859375e+01 -3.380384683609008789e+00 -5.926285386085510254e-01 5.299409866333007812e+00 1.412034273147583008e+00 -4.228017330169677734e-01
6.073000000000000000e+03 6.959681701660156250e+01 -5.509110450744628906e+00 -8.507083058357238770e-01 5.840824127197265625e+00 1.497034788131713867e+00 -5.023933053016662598e-01
6.074000000000000000e+03 6.634365844726562500e+01 -3.166023969650268555e+00 -3.687805533409118652e-01 3.880168914794921875e+00 1.053416490554809570e+00 -2.415701150894165039e-01
6.075000000000000000e+03 6.898210144042968750e+01 -5.544287681579589844e+00 -8.515801429748535156e-01 5.487057209014892578e+00 1.390643119812011719e+00 -5.419067144393920898e-01
6.076000000000000000e+03 6.945162200927734375e+01 -1.408038139343261719e+00 -5.420005321502685547e-01 5.833212375640869141e+00 1.587363600730895996e+00 -3.550939559936523438e-01
6.077000000000000000e+03 6.712479400634765625e+01 -2.649153470993041992e+00 -4.112648367881774902e-01 4.420158386230468750e+00 1.202667951583862305e+00 -2.653228044509887695e-01
6.078000000000000000e+03 7.005385589599609375e+01 1.089501976966857910e+00 -5.376935601234436035e-01 6.456675052642822266e+00 1.775694489479064941e+00 -3.431116640567779541e-01
6.079000000000000000e+03 4.633331298828125000e+01 3.352813720703125000e+01 3.182823359966278076e-01 7.222061604261398315e-02 1.171508803963661194e-01 2.948906123638153076e-01
6.080000000000000000e+03 4.288090133666992188e+01 3.280834960937500000e+01 1.895922422409057617e-01 2.113414695486426353e-03 5.751169845461845398e-02 2.562945485115051270e-01
6.081000000000000000e+03 4.814625549316406250e+01 3.232016754150390625e+01 2.620386779308319092e-01 1.310646831989288330e-01 1.179310083389282227e-01 3.268326222896575928e-01
6.082000000000000000e+03 6.781040191650390625e+01 -2.766699790954589844e+00 -4.936686456203460693e-01 4.837225437164306641e+00 1.303067088127136230e+00 -3.304940164089202881e-01
6.083000000000000000e+03 6.697567749023437500e+01 -3.349979400634765625e+00 -4.568116962909698486e-01 4.263699531555175781e+00 1.142066359519958496e+00 -3.259439170360565186e-01
6.084000000000000000e+03 6.503851318359375000e+01 -3.506698846817016602e+00 -2.478547692298889160e-01 3.062489271163940430e+00 8.443903326988220215e-01 -1.662158668041229248e-01
6.085000000000000000e+03 6.766801452636718750e+01 -3.542482137680053711e+00 -5.400513410568237305e-01 4.693849563598632812e+00 1.246139526367187500e+00 -3.961160182952880859e-01
6.086000000000000000e+03 6.793578338623046875e+01 -4.902778625488281250e+00 -6.964856386184692383e-01 4.780063152313232422e+00 1.225073218345642090e+00 -5.113126039505004883e-01
6.087000000000000000e+03 4.815015792846679688e+01 2.847785949707031250e+01 -1.171166673302650452e-01 1.420136988162994385e-01 7.469110190868377686e-03 3.611233830451965332e-01
6.088000000000000000e+03 6.671411895751953125e+01 -3.923094749450683594e+00 -4.679797887802124023e-01 4.071833610534667969e+00 1.081156134605407715e+00 -3.669349551200866699e-01
6.089000000000000000e+03 6.753976440429687500e+01 -4.220932006835937500e+00 -5.933519005775451660e-01 4.584212779998779297e+00 1.197258234024047852e+00 -4.538189172744750977e-01
6.090000000000000000e+03 6.890430450439453125e+01 -3.986535549163818359e+00 -6.683937311172485352e-01 5.408717632293701172e+00 1.422097206115722656e+00 -4.706511795520782471e-01
6.091000000000000000e+03 6.809745788574218750e+01 -4.405552864074707031e+00 -6.506100296974182129e-01 4.938525199890136719e+00 1.286374568939208984e+00 -4.668632745742797852e-01
6.092000000000000000e+03 5.123085403442382812e+01 3.478325271606445312e+01 5.445086956024169922e-01 3.080211877822875977e-01 2.557589709758758545e-01 2.093858569860458374e-01
6.093000000000000000e+03 5.407553100585937500e+01 3.428218460083007812e+01 5.713796615600585938e-01 5.256636738777160645e-01 3.291130065917968750e-01 7.875158637762069702e-02
6.094000000000000000e+03 6.191771316528320312e+01 3.695437240600585938e+01 5.330861210823059082e-01 2.556999683380126953e+00 9.270257353782653809e-01 -3.726412355899810791e-01
6.095000000000000000e+03 4.721519470214843750e+01 -4.123563385009765625e+01 3.807983994483947754e-01 4.640836417675018311e-01 2.534646093845367432e-01 -4.504871368408203125e-02
6.096000000000000000e+03 4.766800689697265625e+01 3.736495971679687500e+01 5.680632591247558594e-01 8.855777233839035034e-02 1.969863027334213257e-01 1.724352687597274780e-01
6.097000000000000000e+03 3.714604949951171875e+01 3.688515472412109375e+01 2.722238004207611084e-01 -1.225938722491264343e-01 4.488898068666458130e-02 1.207406148314476013e-01
6.098000000000000000e+03 6.657280731201171875e+01 -4.086756896972656250e+01 3.611626625061035156e-01 3.979300260543823242e+00 1.302138924598693848e+00 1.015617996454238892e-01
6.099000000000000000e+03 4.182609939575195312e+01 1.368660628795623779e-01 -2.864200174808502197e-01 -2.984071075916290283e-01 -1.754481345415115356e-01 -3.017862141132354736e-01
6.100000000000000000e+03 3.695323228836059570e+00 -4.055171585083007812e+01 6.092854891903698444e-04 -6.846557855606079102e-01 -2.052139490842819214e-01 -2.356829354539513588e-03
6.101000000000000000e+03 2.644704055786132812e+01 -3.406047582626342773e+00 -5.578041076660156250e-01 -6.667035631835460663e-03 -1.693413406610488892e-01 2.158209085464477539e-01
6.102000000000000000e+03 1.802528858184814453e+00 -4.013537979125976562e+01 3.541460027918219566e-03 -8.502651453018188477e-01 -2.540171146392822266e-01 -4.835234489291906357e-03
6.103000000000000000e+03 5.307139587402343750e+01 -6.724369049072265625e+00 -6.682746410369873047e-01 -9.684903919696807861e-02 -2.295371145009994507e-01 1.247186183929443359e+00
6.104000000000000000e+03 5.357197189331054688e+01 -6.259636878967285156e+00 -5.876972079277038574e-01 -2.367635816335678101e-01 -2.473382502794265747e-01 1.242101788520812988e+00
6.105000000000000000e+03 2.190993309020996094e+00 4.093634796142578125e+01 4.914428573101758957e-04 -2.602595277130603790e-02 -7.660352624952793121e-03 1.929095597006380558e-03
6.106000000000000000e+03 6.782321166992187500e+01 1.071537113189697266e+01 1.664098143577575684e+00 1.047536277770996094e+01 3.641838073730468750e+00 2.324133872985839844e+00
6.107000000000000000e+03 6.904655456542968750e+01 2.061171722412109375e+01 1.718932867050170898e+00 1.284741973876953125e+01 4.369905948638916016e+00 -6.662036776542663574e-01
6.108000000000000000e+03 1.330145359039306641e+00 3.999597549438476562e+01 2.685721665329765528e-05 -2.531276643276214600e-02 -7.585772778838872910e-03 1.239806995727121830e-03
6.109000000000000000e+03 3.674569702148437500e+01 -1.902020263671875000e+01 1.406196504831314087e-01 -2.432070374488830566e-01 -3.077621571719646454e-02 -1.724004447460174561e-01
6.110000000000000000e+03 2.828564643859863281e+01 -6.825310707092285156e+00 -1.365872621536254883e+00 -3.226965432986617088e-03 -4.107298552989959717e-01 -3.615270555019378662e-01
6.111000000000000000e+03 2.672446966171264648e+00 3.826253128051757812e+01 1.469326089136302471e-03 -2.460230886936187744e-02 -6.939894519746303558e-03 3.849528264254331589e-03
6.112000000000000000e+03 2.086470031738281250e+01 2.957643508911132812e+00 -2.523365219531115144e-05 7.532973995694192126e-06 -5.310203505359822884e-06 3.650053986348211765e-05
6.113000000000000000e+03 6.735314178466796875e+01 2.221749496459960938e+01 -4.998597800731658936e-01 8.066019058227539062e+00 2.269847869873046875e+00 -2.425600528717041016e+00
6.114000000000000000e+03 4.305443954467773438e+01 1.057733726501464844e+01 -7.708689663559198380e-03 -3.065312048420310020e-03 -3.232200397178530693e-03 -1.123299356549978256e-03
6.115000000000000000e+03 2.651685714721679688e+01 -1.431777572631835938e+01 9.959005117416381836e-01 4.198423400521278381e-02 3.113654255867004395e-01 -2.887223362922668457e-01
6.116000000000000000e+03 7.842120361328125000e+01 -3.994976806640625000e+01 -1.538900751620531082e-02 8.603355407714843750e+00 2.576389789581298828e+00 1.039425656199455261e-02
6.117000000000000000e+03 2.475509071350097656e+01 -4.380122184753417969e+00 -7.010380029678344727e-01 1.786201298236846924e-01 -1.567253619432449341e-01 1.067797467112541199e-02
6.118000000000000000e+03 2.693152809143066406e+01 -5.466644287109375000e+00 -1.200606346130371094e+00 2.098715007305145264e-01 -2.972204685211181641e-01 -5.442210286855697632e-02
6.119000000000000000e+03 4.425908660888671875e+01 8.179246902465820312e+00 3.501715371385216713e-03 -5.798435304313898087e-03 -6.890160148032009602e-04 -1.139024738222360611e-03
6.120000000000000000e+03 4.418379974365234375e+01 9.245108604431152344e+00 2.073841402307152748e-03 -9.719532914459705353e-03 -2.293707570061087608e-03 -1.501078018918633461e-03
6.121000000000000000e+03 4.999992370605468750e+01 -2.047422409057617188e+00 -7.472706437110900879e-01 1.961537152528762817e-01 -1.653350740671157837e-01 5.263411998748779297e-01
6.122000000000000000e+03 7.612608337402343750e+01 -4.171290206909179688e+01 -2.160608535632491112e-03 7.865588188171386719e+00 2.359028339385986328e+00 -4.881056770682334900e-02
6.123000000000000000e+03 1.998601722717285156e+01 2.131709671020507812e+01 -7.232628762722015381e-02 1.115041319280862808e-02 -1.835276186466217041e-02 -7.627597660757601261e-04
6.124000000000000000e+03 4.985575485229492188e+01 -3.425487518310546875e+01 1.504691541194915771e-01 5.809867382049560547e-01 2.194367647171020508e-01 -4.260264933109283447e-01
6.125000000000000000e+03 6.833842468261718750e+01 2.277646446228027344e+01 -1.006166815757751465e+00 9.246838569641113281e+00 2.472201585769653320e+00 -1.480606198310852051e+00
6.126000000000000000e+03 2.623206901550292969e+01 3.501658630371093750e+01 9.471977502107620239e-02 -1.284925341606140137e-01 -1.013182476162910461e-02 8.607814460992813110e-02
6.127000000000000000e+03 4.293422317504882812e+01 -3.267226791381835938e+01 6.431800127029418945e-02 7.354260683059692383e-01 2.399232238531112671e-01 4.256006795912981033e-03
6.128000000000000000e+03 4.966201400756835938e+01 -1.550036072731018066e+00 -8.324280977249145508e-01 1.859412640333175659e-01 -1.939460486173629761e-01 4.047439694404602051e-01
6.129000000000000000e+03 3.709624862670898438e+01 -2.271347427368164062e+01 -3.312529064714908600e-03 -2.173791378736495972e-01 -6.620749831199645996e-02 8.311003446578979492e-02
6.130000000000000000e+03 7.821366119384765625e+01 3.840951156616210938e+01 1.037521008402109146e-02 8.312595367431640625e+00 2.496891260147094727e+00 -7.137972861528396606e-04
6.131000000000000000e+03 6.587901306152343750e+01 3.336190032958984375e+01 -8.985353633761405945e-03 4.135627269744873047e+00 1.237992525100708008e+00 -5.944928526878356934e-01
6.132000000000000000e+03 2.971979713439941406e+01 -7.242670536041259766e+00 -1.404244303703308105e+00 -2.755574285984039307e-01 -5.039405226707458496e-01 -3.788689374923706055e-01
6.133000000000000000e+03 1.015438175201416016e+01 -2.181515693664550781e+01 2.421807646751403809e-01 -2.168428450822830200e-01 7.601376157253980637e-03 -3.476268649101257324e-01
6.134000000000000000e+03 3.780331039428710938e+01 -2.283331680297851562e+01 2.609120123088359833e-02 1.084105949848890305e-02 1.107967831194400787e-02 1.237621903419494629e-01
6.135000000000000000e+03 1.809659194946289062e+01 2.108711242675781250e+01 -4.056340828537940979e-02 7.015891373157501221e-03 -1.006425451487302780e-02 -9.939883602783083916e-04
6.136000000000000000e+03 3.807838821411132812e+01 -1.803218460083007812e+01 5.387725830078125000e-01 -2.792746061459183693e-03 1.607939451932907104e-01 -2.525175511837005615e-01
6.137000000000000000e+03 4.562548828125000000e+01 -2.634933090209960938e+01 1.335287094116210938e-01 1.548891186714172363e+00 5.047259330749511719e-01 -1.669438481330871582e-01
6.138000000000000000e+03 5.319778442382812500e+01 -4.907403945922851562e+00 -4.118812680244445801e-01 -1.838508178479969501e-03 -1.241159364581108093e-01 1.240126252174377441e+00
6.139000000000000000e+03 4.756156921386718750e+01 -3.392143630981445312e+01 7.819873094558715820e-02 7.246807217597961426e-01 2.408638447523117065e-01 -2.854257822036743164e-01
6.140000000000000000e+03 2.996058464050292969e+00 -3.580744171142578125e+01 4.420758225023746490e-03 -7.317656874656677246e-01 -2.182034850120544434e-01 -6.389643531292676926e-03
6.141000000000000000e+03 5.585633087158203125e+01 -1.854492545127868652e+00 1.343317180871963501e-01 1.954358220100402832e-01 9.893026202917098999e-02 6.749020814895629883e-01
6.142000000000000000e+03 6.888722229003906250e+01 9.706348419189453125e+00 5.410909652709960938e-01 9.778767585754394531e+00 3.095957756042480469e+00 7.421003580093383789e-01
6.143000000000000000e+03 6.841429901123046875e+01 8.805012702941894531e+00 1.857198923826217651e-01 8.822599411010742188e+00 2.702495813369750977e+00 9.206665158271789551e-01
6.144000000000000000e+03 6.987319183349609375e+01 9.252023696899414062e+00 1.774351149797439575e-01 9.417880058288574219e+00 2.878594398498535156e+00 -8.363774046301841736e-03
6.145000000000000000e+03 4.395895767211914062e+01 1.014471721649169922e+01 -3.185108071193099022e-03 -8.581080473959445953e-03 -3.529856679961085320e-03 -1.383702969178557396e-03
6.146000000000000000e+03 3.102952957153320312e+01 -3.365021514892578125e+01 3.025405108928680420e-01 6.533829867839813232e-02 1.103636473417282104e-01 -1.220949366688728333e-02
6.147000000000000000e+03 7.386756134033203125e+01 3.330681228637695312e+01 -2.726681828498840332e-01 7.133998870849609375e+00 2.058399200439453125e+00 8.814688026905059814e-02
6.148000000000000000e+03 7.261305236816406250e+01 3.289110565185546875e+01 -3.566211760044097900e-01 6.784774780273437500e+00 1.928446173667907715e+00 -4.319867119193077087e-02
6.149000000000000000e+03 2.295209693908691406e+01 -3.500135803222656250e+01 2.579005360603332520e-01 1.828061640262603760e-01 1.322120130062103271e-01 -1.482008695602416992e-01
6.150000000000000000e+03 4.458549880981445312e+01 6.965934276580810547e+00 6.316559854894876480e-03 -2.758279675617814064e-03 1.067484146915376186e-03 -1.494203344918787479e-03
6.151000000000000000e+03 6.061825942993164062e+01 -3.433633804321289062e+01 4.039085209369659424e-01 1.322843909263610840e+00 5.180257558822631836e-01 3.746639788150787354e-01
6.152000000000000000e+03 1.875902533531188965e+00 3.903633117675781250e+01 2.522073045838624239e-04 -2.475085854530334473e-02 -7.349595427513122559e-03 2.167507540434598923e-03
6.153000000000000000e+03 4.407323837280273438e+01 1.135494327545166016e+01 -3.023806773126125336e-02 -8.695430122315883636e-03 -1.168004889041185379e-02 -2.409284003078937531e-03
6.154000000000000000e+03 4.504845809936523438e+01 -2.724214744567871094e+01 5.988510698080062866e-02 1.362096667289733887e+00 4.265945255756378174e-01 -7.061726599931716919e-02
6.155000000000000000e+03 4.587471389770507812e+01 8.045754432678222656e+00 4.206050187349319458e-03 -6.562019698321819305e-03 -7.067908300086855888e-04 3.559431293979287148e-03
6.156000000000000000e+03 3.392142105102539062e+01 2.985051727294921875e+01 2.513557299971580505e-02 -8.524333685636520386e-02 -1.803232915699481964e-02 1.600359976291656494e-01
6.157000000000000000e+03 3.706524276733398438e+01 -3.053851699829101562e+01 1.904858946800231934e-01 2.264060825109481812e-01 1.250675916671752930e-01 1.776427030563354492e-01
6.158000000000000000e+03 4.433304977416992188e+01 1.101046657562255859e+01 -1.513078156858682632e-02 -1.170609239488840103e-02 -8.051062002778053284e-03 -2.416671952232718468e-03
6.159000000000000000e+03 2.992580413818359375e+01 -3.419531250000000000e+01 3.074814379215240479e-01 7.500740885734558105e-02 1.147466525435447693e-01 -3.695904836058616638e-02
6.160000000000000000e+03 1.777769851684570312e+01 2.009000778198242188e+01 -2.070550993084907532e-02 4.280113149434328079e-03 -4.927618894726037979e-03 -2.829961478710174561e-03
6.161000000000000000e+03 2.660548591613769531e+01 2.484768867492675781e+01 -1.303347498178482056e-01 -8.038256317377090454e-02 -6.321519613265991211e-02 1.224462762475013733e-01
6.162000000000000000e+03 4.938182449340820312e+01 2.373408889770507812e+01 -6.921617984771728516e-01 1.803229451179504395e-01 -1.535516530275344849e-01 1.971431821584701538e-01
6.163000000000000000e+03 4.986014175415039062e+01 -4.433596611022949219e+00 -7.102695703506469727e-01 6.980531215667724609e-01 -3.664925461634993553e-03 8.107286691665649414e-01
6.164000000000000000e+03 6.982844543457031250e+01 -1.491054534912109375e+01 4.229799211025238037e-01 8.760131835937500000e+00 2.754933595657348633e+00 3.796544075012207031e-01
6.165000000000000000e+03 7.271166992187500000e+01 3.197894287109375000e+01 -4.360525012016296387e-01 6.916323184967041016e+00 1.944081306457519531e+00 1.683342643082141876e-02
6.166000000000000000e+03 7.390770721435546875e+01 3.181855964660644531e+01 -3.789024651050567627e-01 7.241141319274902344e+00 2.058671712875366211e+00 1.708995848894119263e-01
6.167000000000000000e+03 5.499436569213867188e+01 -5.722924232482910156e+00 -4.927371740341186523e-01 -3.656891882419586182e-01 -2.575279176235198975e-01 1.027411937713623047e+00
6.168000000000000000e+03 8.671597480773925781e+00 -5.157410144805908203e+00 9.606679901480674744e-03 -9.220903366804122925e-02 -2.478070557117462158e-02 7.004158198833465576e-02
6.169000000000000000e+03 5.543518829345703125e+01 -2.835381984710693359e+00 -3.766900673508644104e-02 6.265000998973846436e-02 7.494300603866577148e-03 8.297150135040283203e-01
6.170000000000000000e+03 4.717751312255859375e+01 -7.511366367340087891e+00 -3.121964335441589355e-01 1.442687869071960449e+00 3.391474485397338867e-01 4.437565803527832031e-01
6.171000000000000000e+03 4.313244247436523438e+01 -1.755332946777343750e+01 4.987536370754241943e-01 1.564423680305480957e+00 6.189532279968261719e-01 1.160159558057785034e-01
6.172000000000000000e+03 4.627404785156250000e+01 -9.420640945434570312e+00 2.912929058074951172e-01 1.608689069747924805e+00 5.699945688247680664e-01 4.663196802139282227e-01
6.173000000000000000e+03 1.930138397216796875e+01 2.354459381103515625e+01 -7.783800363540649414e-02 -7.116225315257906914e-04 -2.356488816440105438e-02 3.844559192657470703e-02
6.174000000000000000e+03 6.569847869873046875e+01 -3.059758377075195312e+01 -2.317654341459274292e-01 3.679420232772827148e+00 1.034296393394470215e+00 8.543066978454589844e-01
6.175000000000000000e+03 4.478286361694335938e+01 1.145135402679443359e+01 -2.846513874828815460e-02 -1.136942394077777863e-02 -1.195036899298429489e-02 -5.751060321927070618e-03
6.176000000000000000e+03 3.329899597167968750e+01 2.760251998901367188e+01 -4.733092710375785828e-02 -7.658565044403076172e-02 -3.717497363686561584e-02 1.526996195316314697e-01
6.177000000000000000e+03 4.339746856689453125e+01 1.280589485168457031e+01 -7.114260643720626831e-02 1.795411924831569195e-03 -2.080415934324264526e-02 1.895138993859291077e-03
6.178000000000000000e+03 5.668859481811523438e+01 -7.070621967315673828e+00 -1.008451938629150391e+00 -3.602305948734283447e-01 -4.106047749519348145e-01 7.729122638702392578e-01
6.179000000000000000e+03 2.601800537109375000e+01 2.624933815002441406e+01 -8.493151515722274780e-02 -8.572255820035934448e-02 -5.119622126221656799e-02 1.204294189810752869e-01
6.180000000000000000e+03 6.603434753417968750e+01 -2.976545906066894531e+01 -3.232529759407043457e-01 3.891507625579833984e+00 1.070476412773132324e+00 9.339998364448547363e-01
6.181000000000000000e+03 2.019731903076171875e+01 -3.337580871582031250e+01 2.765118479728698730e-01 2.230504304170608521e-01 1.498686820268630981e-01 -1.796489655971527100e-01
6.182000000000000000e+03 1.176012420654296875e+01 -1.074448776245117188e+01 -4.624932706356048584e-01 -4.500909745693206787e-01 -2.737752795219421387e-01 -1.679234653711318970e-01
6.183000000000000000e+03 1.666687011718750000e+01 1.966652488708496094e+01 -1.380244269967079163e-02 7.397442823275923729e-04 -3.918809350579977036e-03 -1.443841145373880863e-03
6.184000000000000000e+03 5.109906005859375000e+01 -3.613226890563964844e+00 -5.704292058944702148e-01 3.242631554603576660e-01 -7.384981960058212280e-02 9.554430842399597168e-01
6.185000000000000000e+03 4.229772949218750000e+01 -2.307851219177246094e+01 2.865899801254272461e-01 1.212461471557617188e+00 4.497154057025909424e-01 9.742379933595657349e-02
6.186000000000000000e+03 4.401932525634765625e+01 -2.516188049316406250e+01 2.125545293092727661e-01 1.460815906524658203e+00 5.020111203193664551e-01 4.499085247516632080e-02
6.187000000000000000e+03 4.419971942901611328e+00 -3.515146636962890625e+01 1.218945719301700592e-02 -6.194275021553039551e-01 -1.821714043617248535e-01 -8.071569725871086121e-03
6.188000000000000000e+03 2.377985191345214844e+01 -6.522007465362548828e+00 -6.889744400978088379e-01 2.543528378009796143e-01 -1.303864717483520508e-01 -2.910740971565246582e-01
6.189000000000000000e+03 5.191698074340820312e+01 2.481497383117675781e+01 -7.420848608016967773e-01 4.861982166767120361e-02 -2.080395221710205078e-01 2.688601016998291016e-01
6.190000000000000000e+03 1.084766864776611328e+01 -1.077167034149169922e+01 -4.174976050853729248e-01 -3.818875551223754883e-01 -2.398155480623245239e-01 -1.178324148058891296e-01
6.191000000000000000e+03 8.311332702636718750e+00 -5.759179115295410156e+00 -2.099134959280490875e-02 -9.856316447257995605e-02 -3.586635366082191467e-02 7.730397582054138184e-02
6.192000000000000000e+03 4.962978744506835938e+01 -3.456665277481079102e+00 -7.592427134513854980e-01 5.368062853813171387e-01 -6.673093885183334351e-02 6.489728689193725586e-01
6.193000000000000000e+03 3.312220001220703125e+01 -1.096737670898437500e+01 5.913919582962989807e-02 -2.130608111619949341e-01 -4.617648571729660034e-02 -1.936665773391723633e-01
6.194000000000000000e+03 2.113338661193847656e+01 -9.251655578613281250e+00 -4.279485940933227539e-01 1.890365034341812134e-01 -7.167362421751022339e-02 -4.312748014926910400e-01
6.195000000000000000e+03 1.057325267791748047e+01 -2.531360054016113281e+01 3.078476190567016602e-01 -8.991466462612152100e-02 6.537988781929016113e-02 -2.330872714519500732e-01
6.196000000000000000e+03 7.182454681396484375e+01 1.376093006134033203e+01 1.473125338554382324e+00 1.041305923461914062e+01 3.565855503082275391e+00 -4.148917198181152344e-01
6.197000000000000000e+03 7.132425689697265625e+01 1.409573173522949219e+01 1.613281726837158203e+00 1.104932022094726562e+01 3.798780679702758789e+00 -1.852047890424728394e-01
6.198000000000000000e+03 4.366015243530273438e+01 1.366640758514404297e+01 -1.023519486188888550e-01 9.849971160292625427e-03 -2.775059454143047333e-02 -4.279699176549911499e-03
6.199000000000000000e+03 1.662599945068359375e+01 1.890403938293457031e+01 -7.884645834565162659e-03 -2.851156750693917274e-04 -2.450928324833512306e-03 -1.272665220312774181e-03
6.200000000000000000e+03 5.509664154052734375e+01 -4.959553241729736328e+00 -3.314292728900909424e-01 -2.385684549808502197e-01 -1.709993183612823486e-01 1.008556008338928223e+00
6.201000000000000000e+03 5.557220077514648438e+01 -4.337803840637207031e+00 -2.350739389657974243e-01 -1.549988538026809692e-01 -1.170218363404273987e-01 9.093065261840820312e-01
6.202000000000000000e+03 6.682832336425781250e+01 2.642878723144531250e+01 -9.004115462303161621e-01 5.502060413360595703e+00 1.380494594573974609e+00 -1.612447261810302734e+00
6.203000000000000000e+03 3.542249679565429688e+01 2.718236160278320312e+01 -8.273735642433166504e-02 -3.691854700446128845e-02 -3.589677065610885620e-02 1.636315435171127319e-01
6.204000000000000000e+03 5.000632095336914062e+01 -2.969200611114501953e+00 -7.238003611564636230e-01 3.969922363758087158e-01 -9.804243594408035278e-02 6.708061099052429199e-01
6.205000000000000000e+03 3.594052505493164062e+01 2.871082305908203125e+01 -2.581190131604671478e-02 -4.299673065543174744e-02 -2.064258977770805359e-02 1.764387935400009155e-01
6.206000000000000000e+03 5.885669708251953125e+01 2.662587928771972656e+01 -3.626222908496856689e-01 2.753809690475463867e-01 -2.617239207029342651e-02 -2.182797342538833618e-01
6.207000000000000000e+03 4.635636138916015625e+01 -4.178384780883789062e+00 -1.026511192321777344e+00 8.657273054122924805e-01 -4.823515191674232483e-02 9.630458056926727295e-02
6.208000000000000000e+03 4.153697967529296875e+01 -6.445601940155029297e+00 -9.756483435630798340e-01 1.647311598062515259e-01 -2.432751506567001343e-01 -1.201803162693977356e-01
6.209000000000000000e+03 6.980747222900390625e+01 3.173542022705078125e+01 -5.106976032257080078e-01 6.037168502807617188e+00 1.657941222190856934e+00 -4.722332358360290527e-01
6.210000000000000000e+03 5.052035522460937500e+01 -3.419832706451416016e+00 -6.503004431724548340e-01 3.934973776340484619e-01 -7.704093307256698608e-02 8.341664671897888184e-01
6.211000000000000000e+03 7.146187591552734375e+01 8.576951980590820312e+00 -2.357165515422821045e-02 8.992281913757324219e+00 2.690613031387329102e+00 -8.175528645515441895e-01
6.212000000000000000e+03 7.175763702392578125e+01 9.088064193725585938e+00 9.560087323188781738e-02 8.980411529541015625e+00 2.722803831100463867e+00 -8.959276080131530762e-01
6.213000000000000000e+03 4.811371994018554688e+01 -4.881275177001953125e+00 -8.203597068786621094e-01 9.915828108787536621e-01 5.136694014072418213e-02 4.632497429847717285e-01
6.214000000000000000e+03 5.247023773193359375e+01 2.642403411865234375e+01 -4.838163554668426514e-01 6.739267706871032715e-02 -1.249271035194396973e-01 3.268787264823913574e-01
6.215000000000000000e+03 3.841334533691406250e+01 -2.845372390747070312e+01 1.344159692525863647e-01 3.344885408878326416e-01 1.406713575124740601e-01 2.468611001968383789e-01
6.216000000000000000e+03 4.278086853027343750e+01 -2.664886093139648438e+01 1.015200689435005188e-01 1.099903583526611328e+00 3.604271113872528076e-01 1.632528901100158691e-01
6.217000000000000000e+03 2.564833641052246094e+01 -1.296237277984619141e+01 4.478206038475036621e-01 9.587328881025314331e-02 1.631081700325012207e-01 -4.141604304313659668e-01
6.218000000000000000e+03 3.897629928588867188e+01 -2.793524742126464844e+01 1.200254335999488831e-01 4.051626026630401611e-01 1.575564146041870117e-01 2.596484720706939697e-01
6.219000000000000000e+03 4.014250946044921875e+01 -2.805540084838867188e+01 1.022101268172264099e-01 5.927212238311767578e-01 2.084794044494628906e-01 2.561613619327545166e-01
6.220000000000000000e+03 4.430473327636718750e+01 1.284464740753173828e+01 -7.062128931283950806e-02 -2.401599893346428871e-03 -2.190686576068401337e-02 -7.238124962896108627e-03
6.221000000000000000e+03 1.643502235412597656e+01 1.822485542297363281e+01 -2.978876465931534767e-03 -8.112002979032695293e-04 -1.137022976763546467e-03 7.691052815061993897e-06
6.222000000000000000e+03 6.603072643280029297e+00 -6.482132434844970703e+00 -4.140252619981765747e-02 -5.177276581525802612e-02 -2.795258723199367523e-02 1.000930890440940857e-01
6.223000000000000000e+03 1.859743118286132812e+01 2.646604728698730469e+01 -4.974632710218429565e-02 -2.572922036051750183e-02 -2.264266461133956909e-02 6.165467947721481323e-02
6.224000000000000000e+03 1.491735839843750000e+01 -9.280735969543457031e+00 -3.886590898036956787e-01 -3.799132704734802246e-01 -2.305717021226882935e-01 -3.380440175533294678e-01
6.225000000000000000e+03 1.479218578338623047e+01 -8.747268676757812500e+00 -3.345630764961242676e-01 -3.415620923042297363e-01 -2.028375566005706787e-01 -3.068200051784515381e-01
6.226000000000000000e+03 2.003161430358886719e+01 -9.530570030212402344e+00 -4.184073507785797119e-01 1.417154669761657715e-01 -8.300756663084030151e-02 -4.385180473327636719e-01
6.227000000000000000e+03 5.285713958740234375e+01 2.522011947631835938e+01 -7.202353477478027344e-01 8.971496485173702240e-03 -2.133791595697402954e-01 2.838525176048278809e-01
6.228000000000000000e+03 2.373046684265136719e+01 -7.176025390625000000e+00 -6.574566960334777832e-01 2.611828148365020752e-01 -1.188821643590927124e-01 -3.517000079154968262e-01
6.229000000000000000e+03 2.362122154235839844e+01 -7.717001438140869141e+00 -6.165420413017272949e-01 2.589223086833953857e-01 -1.072859168052673340e-01 -3.945512473583221436e-01
6.230000000000000000e+03 4.088142013549804688e+01 -2.322415161132812500e+01 2.114955633878707886e-01 8.506243228912353516e-01 3.186359703540802002e-01 1.560722589492797852e-01
6.231000000000000000e+03 4.568185043334960938e+01 -7.843895912170410156e+00 -2.857527732849121094e-01 1.271842241287231445e+00 2.958268225193023682e-01 2.468582987785339355e-01
6.232000000000000000e+03 5.980086135864257812e+01 2.670288848876953125e+01 -2.791711390018463135e-01 4.363757967948913574e-01 4.716139659285545349e-02 -4.242451190948486328e-01
6.233000000000000000e+03 5.868978500366210938e+01 2.739005279541015625e+01 -1.505675464868545532e-01 3.872369825839996338e-01 7.100083678960800171e-02 -2.286207973957061768e-01
6.234000000000000000e+03 4.750574874877929688e+01 2.335321998596191406e+01 -5.768180489540100098e-01 2.050687223672866821e-01 -1.115248054265975952e-01 1.602658480405807495e-01
6.235000000000000000e+03 3.977136611938476562e+01 -1.576931095123291016e+01 7.949765920639038086e-01 2.815381884574890137e-01 3.229544460773468018e-01 -6.502164900302886963e-02
6.236000000000000000e+03 3.986912155151367188e+01 -1.302558231353759766e+01 6.738319993019104004e-01 1.038819923996925354e-01 2.333142012357711792e-01 4.364420846104621887e-02
6.237000000000000000e+03 8.188291549682617188e+00 3.149239349365234375e+01 -2.059393795207142830e-03 -2.371112629771232605e-02 -7.731155958026647568e-03 2.006920240819454193e-02
6.238000000000000000e+03 4.214456176757812500e+01 -1.863999748229980469e+01 4.776827394962310791e-01 1.233849406242370605e+00 5.134596228599548340e-01 8.172503672540187836e-03
6.239000000000000000e+03 3.268500900268554688e+01 -1.022948360443115234e+01 -2.259950041770935059e-01 -2.464494556188583374e-01 -1.417333334684371948e-01 -2.454276531934738159e-01
6.240000000000000000e+03 7.139251708984375000e+01 -1.878210830688476562e+01 1.411495089530944824e+00 8.921496391296386719e+00 3.099897384643554688e+00 5.266624689102172852e-01
6.241000000000000000e+03 5.727030563354492188e+01 -4.594446182250976562e+00 -2.094358354806900024e-01 -9.359580464661121368e-03 -6.563862413167953491e-02 6.937679052352905273e-01
6.242000000000000000e+03 7.939120292663574219e+00 3.091790962219238281e+01 -2.398826414719223976e-03 -2.078013680875301361e-02 -6.953688804060220718e-03 1.867323927581310272e-02
6.243000000000000000e+03 4.069441223144531250e+01 -2.265969467163085938e+01 2.197991013526916504e-01 8.055751323699951172e-01 3.076122701168060303e-01 1.237196102738380432e-01
6.244000000000000000e+03 2.457900047302246094e+01 -1.046109008789062500e+01 -2.025339603424072266e-01 1.934299021959304810e-01 -2.731219399720430374e-03 -5.046560168266296387e-01
6.245000000000000000e+03 6.953605651855468750e+01 -3.030409431457519531e+01 -4.821192026138305664e-01 5.870635509490966797e+00 1.616554975509643555e+00 5.153915882110595703e-01
6.246000000000000000e+03 6.984317016601562500e+01 -2.841945838928222656e+01 -5.354302525520324707e-01 6.459826946258544922e+00 1.777318954467773438e+00 4.509794712066650391e-01
6.247000000000000000e+03 1.405497741699218750e+01 -2.985976219177246094e+01 2.945418953895568848e-01 1.454784721136093140e-01 1.320061087608337402e-01 -1.750179082155227661e-01
6.248000000000000000e+03 7.234336090087890625e+01 2.899370765686035156e+01 -7.582579851150512695e-01 7.422053813934326172e+00 1.999138712882995605e+00 1.579772531986236572e-01
6.249000000000000000e+03 1.380684661865234375e+01 -7.265192508697509766e+00 -1.870300024747848511e-01 -2.524574398994445801e-01 -1.318462342023849487e-01 -1.983296424150466919e-01
6.250000000000000000e+03 2.336743164062500000e+01 -8.075828552246093750e+00 -5.685455203056335449e-01 2.513173818588256836e-01 -9.516843408346176147e-02 -4.186958968639373779e-01
6.251000000000000000e+03 6.347840118408203125e+01 2.814087295532226562e+01 -8.573549240827560425e-02 2.597085714340209961e+00 7.534050345420837402e-01 -1.340723156929016113e+00
6.252000000000000000e+03 6.296132659912109375e+01 2.938722038269042969e+01 8.256488293409347534e-02 2.373246669769287109e+00 7.367434501647949219e-01 -1.112416744232177734e+00
6.253000000000000000e+03 1.335396289825439453e+01 -2.855623626708984375e+01 3.107372820377349854e-01 1.275722235441207886e-01 1.314928531646728516e-01 -2.021868526935577393e-01
6.254000000000000000e+03 4.106579589843750000e+01 -1.554477977752685547e+01 7.506462931632995605e-01 6.171261668205261230e-01 4.103317558765411377e-01 5.140545219182968140e-02
6.255000000000000000e+03 4.611467742919921875e+01 -7.188161373138427734e+00 -4.754514098167419434e-01 1.257428884506225586e+00 2.345932573080062866e-01 2.634616196155548096e-01
6.256000000000000000e+03 4.674301147460937500e+01 2.050513076782226562e+01 -5.131949186325073242e-01 1.665668189525604248e-01 -1.039884388446807861e-01 -1.209147647023200989e-02
6.257000000000000000e+03 4.258883666992187500e+01 1.673566246032714844e+01 -2.397219389677047729e-01 6.905023753643035889e-02 -5.120151117444038391e-02 1.094871480017900467e-02
6.258000000000000000e+03 2.375484657287597656e+01 -8.540754318237304688e+00 -5.364839434623718262e-01 2.522276341915130615e-01 -8.527689427137374878e-02 -4.459975063800811768e-01
6.259000000000000000e+03 7.063003540039062500e+00 -6.484044075012207031e+00 -4.561574384570121765e-02 -7.020011544227600098e-02 -3.474475815892219543e-02 9.403718262910842896e-02
6.260000000000000000e+03 6.823513031005859375e+01 3.808196306228637695e+00 -4.331635832786560059e-01 6.172589778900146484e+00 1.721827864646911621e+00 2.923290431499481201e-01
6.261000000000000000e+03 4.072433471679687500e+01 -1.417553424835205078e+01 7.517775297164916992e-01 4.128783643245697021e-01 3.493967652320861816e-01 7.913676649332046509e-02
6.262000000000000000e+03 7.243746948242187500e+01 -1.670523834228515625e+01 8.923076391220092773e-01 8.425495147705078125e+00 2.795340776443481445e+00 8.082414269447326660e-01
6.263000000000000000e+03 7.261357879638671875e+01 -1.768448448181152344e+01 1.086838722229003906e+00 8.377966880798339844e+00 2.839441537857055664e+00 6.736783385276794434e-01
6.264000000000000000e+03 7.304868316650390625e+01 2.535620498657226562e+01 -7.201150059700012207e-01 8.255805969238281250e+00 2.260707378387451172e+00 8.067300915718078613e-01
6.265000000000000000e+03 4.007802200317382812e+01 -2.279279327392578125e+01 1.768960952758789062e-01 6.397872567176818848e-01 2.450049966573715210e-01 1.458301246166229248e-01
6.266000000000000000e+03 4.622746658325195312e+01 1.958560752868652344e+01 -4.443602561950683594e-01 1.389949023723602295e-01 -9.160960465669631958e-02 -3.814518079161643982e-02
6.267000000000000000e+03 7.045311737060546875e+01 -2.855333518981933594e+01 -5.154501795768737793e-01 6.682633876800537109e+00 1.850155115127563477e+00 2.828842401504516602e-01
6.268000000000000000e+03 1.206915283203125000e+01 -2.817276763916015625e+01 2.896560430526733398e-01 2.967727370560169220e-02 9.579998999834060669e-02 -1.829378902912139893e-01
6.269000000000000000e+03 6.136748123168945312e+01 -5.278464794158935547e+00 -2.747640907764434814e-01 9.225391745567321777e-01 1.943325251340866089e-01 2.355466485023498535e-01
6.270000000000000000e+03 4.674631881713867188e+01 2.128262329101562500e+01 -5.396215319633483887e-01 1.828664392232894897e-01 -1.070265322923660278e-01 2.919396385550498962e-02
6.271000000000000000e+03 4.634782791137695312e+01 2.089249229431152344e+01 -5.049531459808349609e-01 1.668040007352828979e-01 -1.014447435736656189e-01 2.315588295459747314e-02
6.272000000000000000e+03 4.163675308227539062e+01 -1.503007698059082031e+01 7.351099848747253418e-01 7.592081427574157715e-01 4.482954442501068115e-01 1.146370619535446167e-01
6.273000000000000000e+03 1.638941574096679688e+01 7.795494556427001953e+00 6.886473420308902860e-05 5.274203722365200520e-04 1.788855297490954399e-04 7.113093743100762367e-04
6.274000000000000000e+03 1.305434322357177734e+01 2.246612167358398438e+01 -2.136129140853881836e-02 -4.245710093528032303e-03 -7.682100404053926468e-03 8.282110095024108887e-03
6.275000000000000000e+03 4.153122711181640625e+01 -1.403355503082275391e+01 7.274602651596069336e-01 6.331725120544433594e-01 4.081898331642150879e-01 1.314699798822402954e-01
6.276000000000000000e+03 4.530528259277343750e+01 1.357338142395019531e+01 -8.550298959016799927e-02 -2.668675268068909645e-03 -2.645149827003479004e-02 -2.321215532720088959e-02
6.277000000000000000e+03 4.517218017578125000e+01 1.295120334625244141e+01 -6.692402809858322144e-02 -7.778447587043046951e-03 -2.241074293851852417e-02 -1.634992286562919617e-02
6.278000000000000000e+03 4.123772430419921875e+01 -2.428221130371093750e+01 1.666454821825027466e-01 8.941469788551330566e-01 3.182377517223358154e-01 1.968151628971099854e-01
6.279000000000000000e+03 4.608630752563476562e+01 2.144478607177734375e+01 -5.114907026290893555e-01 1.915202438831329346e-01 -9.599112719297409058e-02 5.868160724639892578e-02
6.280000000000000000e+03 1.214623641967773438e+01 -6.768481731414794922e+00 -1.200180053710937500e-01 -2.153238356113433838e-01 -1.006025522947311401e-01 -7.966958731412887573e-02
6.281000000000000000e+03 3.759308624267578125e+01 -1.011884593963623047e+01 -1.340488810092210770e-02 -2.769197821617126465e-01 -8.709739893674850464e-02 -6.428031623363494873e-02
6.282000000000000000e+03 6.956941223144531250e+01 5.012780189514160156e+00 -5.185970664024353027e-01 7.284484863281250000e+00 2.029766321182250977e+00 -2.835428342223167419e-02
6.283000000000000000e+03 4.642352676391601562e+01 2.012841606140136719e+01 -4.824255108833312988e-01 1.510491371154785156e-01 -9.941291809082031250e-02 -1.684564538300037384e-02
6.284000000000000000e+03 7.502660274505615234e+00 -1.119570541381835938e+01 -2.729196548461914062e-01 -1.507306993007659912e-01 -1.270951032638549805e-01 -5.050503835082054138e-02
6.285000000000000000e+03 4.044364547729492188e+01 -1.374644756317138672e+01 7.392080426216125488e-01 2.893596589565277100e-01 3.085702955722808838e-01 6.378491967916488647e-02
6.286000000000000000e+03 7.143521118164062500e+01 -1.245358657836914062e+01 -6.885369420051574707e-01 8.030700683593750000e+00 2.202649116516113281e+00 6.484841108322143555e-01
6.287000000000000000e+03 1.200033283233642578e+01 2.265198135375976562e+01 -1.795097254216670990e-02 -5.456584505736827850e-03 -7.022267207503318787e-03 8.569806814193725586e-03
6.288000000000000000e+03 7.289865112304687500e+01 1.699775886535644531e+01 1.671949863433837891e+00 9.428027153015136719e+00 3.329993247985839844e+00 1.329610347747802734e-01
6.289000000000000000e+03 4.110464859008789062e+01 -1.378221416473388672e+01 7.336080074310302734e-01 4.960259497165679932e-01 3.688901960849761963e-01 1.215272098779678345e-01
6.290000000000000000e+03 7.525312805175781250e+01 -2.821818351745605469e+01 -2.051875144243240356e-01 7.806848049163818359e+00 2.280498266220092773e+00 -3.862100541591644287e-01
6.291000000000000000e+03 1.325412940979003906e+01 6.925426006317138672e+00 6.135132280178368092e-04 -3.983390924986451864e-04 6.455223046941682696e-05 6.023863679729402065e-04
6.292000000000000000e+03 1.127155780792236328e+01 2.221673583984375000e+01 -1.472456008195877075e-02 -5.315496586263179779e-03 -6.012016907334327698e-03 6.887243594974279404e-03
6.293000000000000000e+03 1.110661411285400391e+01 2.112230110168457031e+01 -1.184459682554006577e-02 -4.825411830097436905e-03 -5.001002456992864609e-03 3.938328940421342850e-03
6.294000000000000000e+03 5.957341384887695312e+01 -3.702703952789306641e+00 3.072012215852737427e-02 5.407452583312988281e-01 1.714396029710769653e-01 4.332911372184753418e-01
6.295000000000000000e+03 4.112749099731445312e+01 -1.458891582489013672e+01 7.593730688095092773e-01 5.538034439086914062e-01 3.939529359340667725e-01 9.969253838062286377e-02
6.296000000000000000e+03 7.477501678466796875e+01 1.357389640808105469e+01 8.365585803985595703e-01 7.851700782775878906e+00 2.606477975845336914e+00 -7.307279109954833984e-01
6.297000000000000000e+03 5.442313671112060547e+00 -1.673864364624023438e+01 -1.416796147823333740e-01 -1.631250977516174316e-01 -9.144141525030136108e-02 -3.290521800518035889e-01
6.298000000000000000e+03 4.744479656219482422e+00 -2.506064987182617188e+01 1.029379889369010925e-01 -4.675843119621276855e-01 -1.093938946723937988e-01 -2.337286323308944702e-01
6.299000000000000000e+03 7.326309204101562500e+01 -2.744820022583007812e+01 -3.221886456012725830e-01 7.588473320007324219e+00 2.179885387420654297e+00 -2.900050282478332520e-01
6.300000000000000000e+03 1.096299934387207031e+01 2.013075637817382812e+01 -8.998987264931201935e-03 -4.683149978518486023e-03 -4.104641266167163849e-03 1.955101499333977699e-03
6.301000000000000000e+03 8.014685630798339844e+00 -9.581353187561035156e+00 -2.121876627206802368e-01 -1.585893779993057251e-01 -1.112331151962280273e-01 1.283449865877628326e-02
6.302000000000000000e+03 1.439445972442626953e+01 1.429028320312500000e+01 1.304584904573857784e-03 -1.949337776750326157e-03 -1.934258471010252833e-04 1.799110090360045433e-03
6.303000000000000000e+03 4.588540267944335938e+01 2.048308181762695312e+01 -4.716546237468719482e-01 1.648462861776351929e-01 -9.204250574111938477e-02 3.698079613968729973e-03
6.304000000000000000e+03 9.555702209472656250e+00 -6.872781276702880859e+00 -9.125852584838867188e-02 -1.661764830350875854e-01 -7.723049819469451904e-02 3.321874141693115234e-02
6.305000000000000000e+03 5.178460121154785156e+00 -1.843236160278320312e+01 -5.873417109251022339e-02 -2.262596487998962402e-01 -8.549814671277999878e-02 -3.705165386199951172e-01
6.306000000000000000e+03 5.222070693969726562e+00 -1.467389965057373047e+01 -1.803244054317474365e-01 -8.532968908548355103e-02 -7.969623059034347534e-02 -2.226392626762390137e-01
6.307000000000000000e+03 7.434745788574218750e+01 -2.323417854309082031e+01 3.519762754440307617e-01 7.881322860717773438e+00 2.469989776611328125e+00 -4.612701237201690674e-01
6.308000000000000000e+03 7.375531768798828125e+01 -2.304027557373046875e+01 4.739632904529571533e-01 7.942818641662597656e+00 2.525034666061401367e+00 -4.237609207630157471e-01
6.309000000000000000e+03 1.364984989166259766e+01 8.499043464660644531e+00 8.373623131774365902e-04 -3.661770024336874485e-04 1.413556019542738795e-04 9.633263107389211655e-04
6.310000000000000000e+03 6.994859313964843750e+01 2.673442840576171875e+00 -5.473994016647338867e-01 6.725236892700195312e+00 1.853351235389709473e+00 -2.663219273090362549e-01
6.311000000000000000e+03 7.416333770751953125e+01 -1.200922679901123047e+01 -3.966119289398193359e-01 8.255863189697265625e+00 2.357775211334228516e+00 8.336926102638244629e-01
6.312000000000000000e+03 6.460549163818359375e+01 -4.812924861907958984e+00 -3.528289496898651123e-01 2.625628709793090820e+00 6.818399429321289062e-01 -2.426007241010665894e-01
6.313000000000000000e+03 6.131444549560546875e+01 -3.492297410964965820e+00 4.415967687964439392e-02 1.141066551208496094e+00 3.555678725242614746e-01 2.670421600341796875e-01
6.314000000000000000e+03 7.452883911132812500e+01 6.996272563934326172e+00 -1.808697879314422607e-01 7.939931869506835938e+00 2.327718734741210938e+00 -1.276673316955566406e+00
6.315000000000000000e+03 6.970867156982421875e+01 4.835806488990783691e-01 -5.287358760833740234e-01 6.233848094940185547e+00 1.711533665657043457e+00 -3.125676214694976807e-01
6.316000000000000000e+03 5.750782012939453125e+00 2.583321762084960938e+01 -4.167552571743726730e-03 -6.772579159587621689e-03 -3.282039659097790718e-03 7.810760755091905594e-03
6.317000000000000000e+03 6.765260314941406250e+01 -6.203848361968994141e+00 -8.439278006553649902e-01 4.600711345672607422e+00 1.127035021781921387e+00 -6.226366162300109863e-01
6.318000000000000000e+03 7.140550231933593750e+01 2.698422670364379883e+00 -5.576778650283813477e-01 7.231979846954345703e+00 2.002290725708007812e+00 -5.883523225784301758e-01
6.319000000000000000e+03 1.269175243377685547e+01 9.976035118103027344e+00 1.153378165327012539e-03 -1.260277349501848221e-03 -3.206973633496090770e-05 8.658809820190072060e-04
6.320000000000000000e+03 6.656325531005859375e+01 -5.037321090698242188e+00 -5.843644738197326660e-01 3.884188652038574219e+00 9.899471998214721680e-01 -4.652488529682159424e-01
6.321000000000000000e+03 6.481875610351562500e+01 -4.134221076965332031e+00 -2.924962341785430908e-01 2.857033252716064453e+00 7.693610787391662598e-01 -2.071918547153472900e-01
6.322000000000000000e+03 7.392711639404296875e+01 4.456752777099609375e+00 -3.906357884407043457e-01 7.876765251159667969e+00 2.245838880538940430e+00 -1.053083419799804688e+00
6.323000000000000000e+03 1.327560806274414062e+01 1.143659210205078125e+01 1.236720010638237000e-03 -1.387283322401344776e-03 -4.516898479778319597e-05 1.222619088366627693e-03
6.324000000000000000e+03 6.750463104248046875e+01 -4.787305355072021484e+00 -6.553058028221130371e-01 4.568965435028076172e+00 1.174097895622253418e+00 -5.114862322807312012e-01
6.325000000000000000e+03 1.233718299865722656e+01 1.052406120300292969e+01 1.193723990581929684e-03 -1.423015375621616840e-03 -6.878741260152310133e-05 8.208405342884361744e-04
6.326000000000000000e+03 7.364277648925781250e+01 1.458412289619445801e+00 -4.329462945461273193e-01 7.632530212402343750e+00 2.159875154495239258e+00 -7.935759425163269043e-01
6.327000000000000000e+03 6.846171855926513672e+00 1.326472949981689453e+01 7.045074598863720894e-04 -1.497617689892649651e-03 -2.379330544499680400e-04 -1.321001327596604824e-03
6.328000000000000000e+03 7.280329132080078125e+01 -3.678456068038940430e+00 -5.831550359725952148e-01 7.309087753295898438e+00 2.017779827117919922e+00 -4.161576032638549805e-01
6.329000000000000000e+03 1.771456718444824219e+01 -1.730482935905456543e+00 8.943910151720046997e-02 1.384821254760026932e-02 3.098619356751441956e-02 -5.757700279355049133e-02
6.330000000000000000e+03 1.610380172729492188e+01 -2.246368169784545898e+00 1.317955404520034790e-01 1.524875219911336899e-02 4.411328583955764771e-02 -1.102337613701820374e-01
6.331000000000000000e+03 1.839386558532714844e+01 -2.573463201522827148e+00 -7.874353229999542236e-02 2.229726314544677734e-02 -1.693388074636459351e-02 -1.325954496860504150e-01
6.332000000000000000e+03 1.696483802795410156e+01 -1.623387813568115234e+00 1.727456003427505493e-01 9.217070415616035461e-03 5.458880215883255005e-02 -6.376980990171432495e-02
6.333000000000000000e+03 1.846432685852050781e+01 -1.836017131805419922e+00 -8.838023990392684937e-03 7.448737975209951401e-03 -4.167857405263930559e-04 -5.260106176137924194e-02
6.334000000000000000e+03 1.763043975830078125e+01 -2.465977191925048828e+00 -1.347615267150104046e-03 1.886720955371856689e-02 5.255877971649169922e-03 -1.262422949075698853e-01
6.335000000000000000e+03 1.621526145935058594e+01 -1.514777898788452148e+00 2.454763352870941162e-01 1.585007458925247192e-02 7.839792221784591675e-02 -6.902474164962768555e-02
6.336000000000000000e+03 1.686704444885253906e+01 -2.356930017471313477e+00 7.157959043979644775e-02 2.077247947454452515e-02 2.770562283694744110e-02 -1.192549839615821838e-01
6.337000000000000000e+03 1.922108840942382812e+01 -1.901556968688964844e+00 -1.129750907421112061e-01 7.748995441943407059e-03 -3.156783059239387512e-02 -4.632767289876937866e-02
6.338000000000000000e+03 2.075429344177246094e+01 -2.688717842102050781e+00 -3.041885793209075928e-01 1.148064807057380676e-02 -8.781237900257110596e-02 -1.073324605822563171e-01
6.339000000000000000e+03 1.917129516601562500e+01 -2.640394687652587891e+00 -1.557014435529708862e-01 1.580600813031196594e-02 -4.196862876415252686e-02 -1.301584988832473755e-01
6.340000000000000000e+03 2.154723358154296875e+01 -2.711827993392944336e+00 -3.474222719669342041e-01 1.003168988972902298e-02 -1.012171730399131775e-01 -8.471522480249404907e-02
6.341000000000000000e+03 2.151402282714843750e+01 -1.970406651496887207e+00 -3.842430412769317627e-01 -8.417826145887374878e-03 -1.177982613444328308e-01 -3.480169549584388733e-02
6.342000000000000000e+03 1.998429870605468750e+01 -1.925167441368103027e+00 -2.086923122406005859e-01 1.858202274888753891e-03 -6.205023080110549927e-02 -3.945530951023101807e-02
6.343000000000000000e+03 1.996217155456542969e+01 -2.664836645126342773e+00 -2.305858880281448364e-01 1.830898970365524292e-02 -6.368307024240493774e-02 -1.171587631106376648e-01
6.344000000000000000e+03 2.074875450134277344e+01 -1.948217391967773438e+00 -2.964781522750854492e-01 7.415188010782003403e-03 -8.671888709068298340e-02 -3.232753649353981018e-02
6.345000000000000000e+03 2.599559402465820312e+01 -1.565289378166198730e+00 -5.850184708833694458e-02 -2.723254822194576263e-02 -2.572031877934932709e-02 5.290289968252182007e-02
6.346000000000000000e+03 2.647139739990234375e+01 -1.981183648109436035e+00 -1.068698167800903320e-01 -8.834767341613769531e-02 -5.856524780392646790e-02 8.694181591272354126e-02
6.347000000000000000e+03 2.619397926330566406e+01 -2.111383676528930664e+00 -1.854344159364700317e-01 -4.585308209061622620e-02 -6.938625127077102661e-02 9.931753575801849365e-02
6.348000000000000000e+03 2.563897132873535156e+01 -2.181031227111816406e+00 -2.812632620334625244e-01 -2.818198117893189192e-04 -8.446352928876876831e-02 1.134649142622947693e-01
6.349000000000000000e+03 2.465613555908203125e+01 -1.561793804168701172e+00 -1.924165487289428711e-01 1.439054124057292938e-02 -5.340780317783355713e-02 2.357721328735351562e-02
6.350000000000000000e+03 2.387401390075683594e+01 -1.677321195602416992e+00 -2.827968001365661621e-01 1.586808450520038605e-02 -8.007860928773880005e-02 -4.101427271962165833e-03
6.351000000000000000e+03 2.308360862731933594e+01 -1.799807786941528320e+00 -3.507985770702362061e-01 4.516579676419496536e-03 -1.038845926523208618e-01 -2.779942192137241364e-02
6.352000000000000000e+03 2.229205894470214844e+01 -1.920661091804504395e+00 -4.043955802917480469e-01 -2.424642676487565041e-03 -1.220460683107376099e-01 -4.056445881724357605e-02
6.353000000000000000e+03 2.236020088195800781e+01 -2.660181283950805664e+00 -3.833028078079223633e-01 1.791305653750896454e-02 -1.096169203519821167e-01 -3.917205333709716797e-02
6.354000000000000000e+03 2.485083580017089844e+01 -2.286876916885375977e+00 -3.283744156360626221e-01 5.020495876669883728e-02 -8.345083147287368774e-02 7.833959162235260010e-02
6.355000000000000000e+03 2.402652740478515625e+01 -2.407216548919677734e+00 -3.680218458175659180e-01 4.858897998929023743e-02 -9.582985937595367432e-02 4.655562713742256165e-02
6.356000000000000000e+03 2.540208625793457031e+01 -1.460760474205017090e+00 -9.442504495382308960e-02 2.730826614424586296e-03 -2.750826627016067505e-02 3.369080647826194763e-02
6.357000000000000000e+03 2.319393539428710938e+01 -2.534515619277954102e+00 -4.017604589462280273e-01 4.434530436992645264e-02 -1.072245538234710693e-01 5.369029007852077484e-03
6.358000000000000000e+03 2.371788406372070312e+01 -1.034829497337341309e+00 -5.993762442813022062e-06 -8.903451089281588793e-06 -4.469164196052588522e-06 1.995717866520863026e-06
6.359000000000000000e+03 2.290890312194824219e+01 -6.706237792968750000e-01 -2.116154610121157020e-05 -5.000077180739026517e-06 -7.848487257433589548e-06 -5.485055680765071884e-06
6.360000000000000000e+03 2.298635482788085938e+01 -1.157213449478149414e+00 4.084998636244563386e-06 6.072410542401485145e-06 3.047222662644344382e-06 -3.819763605861226097e-06
6.361000000000000000e+03 2.215120697021484375e+01 -2.782767117023468018e-01 -2.844962546078022569e-05 -1.705985050648450851e-05 -1.365284333587624133e-05 -1.365194566460559145e-05
6.362000000000000000e+03 2.285777664184570312e+01 -1.680052876472473145e-01 2.768987178569659591e-05 7.519232894992455840e-06 1.056273140420671552e-05 5.889190560992574319e-06
6.363000000000000000e+03 2.223422241210937500e+01 -1.267524600028991699e+00 -1.441136009816545993e-05 -5.748544936068356037e-06 -6.047971510270144790e-06 -2.148557996406452730e-06
6.364000000000000000e+03 2.441258430480957031e+01 -8.829056024551391602e-01 2.052035597444046289e-06 7.431599442497827113e-06 2.845090421033091843e-06 -5.404654075391590595e-07
6.365000000000000000e+03 2.508922195434570312e+01 -7.265396118164062500e-01 -3.476366146060172468e-06 -2.818343318722327240e-06 -1.888412839434749912e-06 -1.220928879774874076e-06
6.366000000000000000e+03 2.403813362121582031e+01 -3.115713298320770264e-01 9.274858143726305570e-07 -6.893992122058989480e-06 -1.789951966202352196e-06 -3.662493099909625016e-06
6.367000000000000000e+03 2.219159698486328125e+01 -7.760061621665954590e-01 1.333567161054816097e-05 4.974498096999013796e-06 5.493051048688357696e-06 -3.277561972936382517e-06
6.368000000000000000e+03 2.355065155029296875e+01 -5.588377714157104492e-01 1.628054997127037495e-05 -8.125855401885928586e-07 4.640389306587167084e-06 -2.332823441975051537e-06
6.369000000000000000e+03 2.350938415527343750e+01 -6.331801414489746094e-02 -3.594007284846156836e-05 -5.395515472628176212e-06 -1.240067649632692337e-05 -1.250844343303469941e-05
6.370000000000000000e+03 2.455982017517089844e+01 -5.249218642711639404e-02 1.132524994318373501e-05 1.321314925917249639e-06 3.793969653997919522e-06 5.717564363294513896e-06
6.371000000000000000e+03 2.060691452026367188e+01 -8.924546837806701660e-01 9.501845852355472744e-06 2.243629751319531351e-06 3.523642590153031051e-06 -4.429606178746325895e-06
6.372000000000000000e+03 2.141465187072753906e+01 -8.284914493560791016e-01 -2.785070137178990990e-05 -4.896701739198761061e-06 -9.824220796872396022e-06 -5.198923190619098023e-06
6.373000000000000000e+03 2.010277366638183594e+01 -1.234057188034057617e+00 -2.982280784635804594e-05 6.308404408628121018e-06 -7.054321031318977475e-06 -9.817238151299534366e-07
6.374000000000000000e+03 2.134324264526367188e+01 -3.273400664329528809e-01 1.984601658477913588e-05 1.201690520247211680e-05 9.558876627124845982e-06 -1.005766080197645351e-05
6.375000000000000000e+03 1.946084213256835938e+01 -3.835231065750122070e-01 1.078432705980958417e-05 1.492680257797474042e-05 7.713339073234237731e-06 -6.486968231911305338e-06
6.376000000000000000e+03 1.935324859619140625e+01 -1.120623826980590820e+00 -3.398705666768364608e-05 7.437405429300270043e-07 -9.972995030693709850e-06 2.785508968372596428e-06
6.377000000000000000e+03 2.075156402587890625e+01 -1.323369979858398438e+00 -3.092985571129247546e-05 -6.323688921838765964e-06 -1.117606279876781628e-05 -5.025448444939684123e-06
6.378000000000000000e+03 2.147612190246582031e+01 -1.315930008888244629e+00 -7.262797225848771632e-06 5.015554506826447323e-06 -6.741727816006459761e-07 -2.251266096209292300e-06
6.379000000000000000e+03 2.042321777343750000e+01 -3.587145507335662842e-01 -2.915340883191674948e-05 -7.549249858129769564e-06 -1.101079760701395571e-05 -2.746074414972099476e-06
6.380000000000000000e+03 1.706781387329101562e+01 -8.498843908309936523e-01 -1.447955582989379764e-06 -6.023839887348003685e-06 -2.241538595626479946e-06 1.106129911931930110e-05
6.381000000000000000e+03 1.780313491821289062e+01 -9.543285965919494629e-01 -2.542430411267559975e-05 5.480961590365041047e-06 -5.983002665743697435e-06 9.191162462229840457e-06
6.382000000000000000e+03 1.633273124694824219e+01 -7.435764670372009277e-01 1.787047040124889463e-05 3.479794486338505521e-06 6.405079147953074425e-06 1.230281577591085806e-05
6.383000000000000000e+03 1.853857803344726562e+01 -1.058050036430358887e+00 -2.462888551235664636e-05 -1.447390104658552445e-06 -7.822882253094576299e-06 3.440416548983193934e-06
6.384000000000000000e+03 1.860903930664062500e+01 -3.206039965152740479e-01 -1.207789318868890405e-05 -8.197650203101147781e-08 -3.647960738817346282e-06 1.181769948743749410e-05
6.385000000000000000e+03 1.644419097900390625e+01 -1.198618113994598389e-02 8.086725574685260653e-05 1.904894702420278918e-06 2.483164462319109589e-05 4.218067260808311403e-05
6.386000000000000000e+03 1.788726234436035156e+01 -2.188344895839691162e-01 2.839310946001205593e-05 8.980915481515694410e-06 1.121220702771097422e-05 1.655369123909622431e-05
6.387000000000000000e+03 1.716560745239257812e+01 -1.163421869277954102e-01 2.566291004768572748e-05 3.098902197962161154e-06 8.628543582744896412e-06 2.634029260661918670e-05
6.388000000000000000e+03 1.425216674804687500e+01 3.718594610691070557e-01 2.102030557580292225e-04 -2.121991019521374255e-05 5.669494566973298788e-05 5.699852408724837005e-05
6.389000000000000000e+03 1.486107063293457031e+01 -4.904564023017883301e-01 1.101488014683127403e-04 -1.893879471026593819e-06 3.247647691750898957e-05 7.980187547218520194e-06
6.390000000000000000e+03 1.338883495330810547e+01 -2.235203832387924194e-01 2.500591799616813660e-04 -6.438906893890816718e-06 7.308607746381312609e-05 -8.188138053810689598e-06
6.391000000000000000e+03 1.498471641540527344e+01 2.391885817050933838e-01 1.748447102727368474e-04 -8.207794053305406123e-06 4.999107477487996221e-05 6.231123552424833179e-05
6.392000000000000000e+03 1.559718132019042969e+01 -6.234676241874694824e-01 6.489681254606693983e-05 -6.432240752474172041e-06 1.753937249304726720e-05 1.280955802940297872e-05
6.393000000000000000e+03 1.571725749969482422e+01 1.068236008286476135e-01 9.844591841101646423e-05 -6.418162683985428885e-06 2.760832649073563516e-05 4.562977846944704652e-05
6.394000000000000000e+03 1.351961708068847656e+01 5.048320889472961426e-01 2.998402342200279236e-04 -1.751072704792022705e-05 8.469885506201535463e-05 6.724227569065988064e-05
6.395000000000000000e+03 1.412495326995849609e+01 -3.571392297744750977e-01 1.833166897995397449e-04 -4.238132987666176632e-06 5.372356827137991786e-05 4.674828232964500785e-06
6.396000000000000000e+03 1.115447902679443359e+01 1.927391290664672852e-01 5.180916050449013710e-04 6.902282621013000607e-06 1.574981724843382835e-04 -4.462315337150357664e-05
6.397000000000000000e+03 1.124617767333984375e+01 9.282501339912414551e-01 4.917552578262984753e-04 -3.462822132860310376e-05 1.371381076751276851e-04 3.410566205275245011e-05
6.398000000000000000e+03 1.040858840942382812e+01 3.243718445301055908e-01 6.238677888177335262e-04 6.176535862323362380e-06 1.890132989501580596e-04 -4.982325117453001440e-05
6.399000000000000000e+03 1.190096187591552734e+01 5.598175525665283203e-02 4.208290774840861559e-04 -7.188631570897996426e-06 1.240921264979988337e-04 -3.319393726997077465e-05
6.400000000000000000e+03 1.277217197418212891e+01 6.438671946525573730e-01 3.474875411484390497e-04 -3.401533831492997706e-05 9.404165757587179542e-05 5.141089422977529466e-05
6.401000000000000000e+03 1.264777946472167969e+01 -8.565847575664520264e-02 3.404691233299672604e-04 9.740221003085025586e-07 1.024329467327333987e-04 -1.579586933075916022e-05
6.402000000000000000e+03 1.048394012451171875e+01 1.062875509262084961e+00 5.380986840464174747e-04 3.989473043475300074e-06 1.626264420337975025e-04 2.804935502354055643e-05
6.403000000000000000e+03 1.200900745391845703e+01 7.885000705718994141e-01 4.405813524499535561e-04 -2.165306977985892445e-05 1.256784889847040176e-04 5.135168248671106994e-05
6.404000000000000000e+03 8.878479003906250000e+00 3.908094167709350586e-01 6.194625166244804859e-04 -1.717163468129001558e-05 1.806872751330956817e-04 -2.053985735983587801e-05
6.405000000000000000e+03 9.649624824523925781e+00 3.904530405998229980e-01 6.719992961734533310e-04 2.497611421858891845e-05 2.090926282107830048e-04 -2.414183109067380428e-05
6.406000000000000000e+03 7.383328437805175781e+00 1.131017208099365234e+00 4.892108845524489880e-04 -1.802743213374924380e-06 1.462224463466554880e-04 -8.970689668785780668e-05
6.407000000000000000e+03 7.334236621856689453e+00 3.910171389579772949e-01 5.102280410937964916e-04 -1.576761133037507534e-05 1.483381347497925162e-04 -3.378295514266937971e-05
6.408000000000000000e+03 5.016752243041992188e+00 3.915317654609680176e-01 2.723744255490601063e-04 9.781225344340782613e-06 8.464669372187927365e-05 -4.193728454993106425e-05
6.409000000000000000e+03 2.718189001083374023e+00 1.131889939308166504e+00 1.041814612108282745e-04 2.791945553326513618e-05 3.963027484132908285e-05 -7.271703361766412854e-05
6.410000000000000000e+03 3.472350120544433594e+00 3.917863070964813232e-01 1.148813826148398221e-04 9.640006283007096499e-06 3.735641803359612823e-05 -3.316678703413344920e-05
6.411000000000000000e+03 2.700102567672729492e+00 3.918899297714233398e-01 5.017397415940649807e-05 7.631015250808559358e-07 1.528112261439673603e-05 -2.324202432646416128e-05
6.412000000000000000e+03 1.941753506660461426e+00 1.131839513778686523e+00 4.063548476551659405e-05 2.149502688553184271e-05 1.863915349531453103e-05 -4.195369547232985497e-05
6.413000000000000000e+03 1.928834557533264160e+00 3.918395042419433594e-01 1.936840635607950389e-05 8.299483852169942111e-06 8.300366971525363624e-06 -1.309281924477545545e-05
6.414000000000000000e+03 1.157405972480773926e+00 3.914729654788970947e-01 -2.961058498840429820e-06 2.924658929259749129e-06 -1.091992363200233740e-08 -2.166696958738612011e-06
6.415000000000000000e+03 3.884848952293395996e-01 1.130593895912170410e+00 -6.661784027528483421e-06 -5.408373908721841872e-07 -2.160786380045465194e-06 -1.584171513968612999e-06
6.416000000000000000e+03 3.859011232852935791e-01 3.905938863754272461e-01 2.459867118886904791e-06 -5.566891445596411359e-07 5.709533752451534383e-07 9.013613748720672447e-07
6.417000000000000000e+03 4.244657516479492188e+00 3.916697502136230469e-01 1.825313520384952426e-04 -5.430660166894085705e-06 5.313020665198564529e-05 -3.869234933517873287e-05
6.418000000000000000e+03 3.495604276657104492e+00 1.131786346435546875e+00 1.398691820213571191e-04 9.804549335967749357e-06 4.490212086238898337e-05 -9.309432061854749918e-05
6.419000000000000000e+03 4.273078918457031250e+00 1.131669759750366211e+00 2.235145366284996271e-04 1.842802885221317410e-05 7.258277037180960178e-05 -1.114914048230275512e-04
6.420000000000000000e+03 5.789580821990966797e+00 3.914089500904083252e-01 3.527248627506196499e-04 -1.148337833001278341e-05 1.023724398692138493e-04 -4.191130574326962233e-05
6.421000000000000000e+03 5.828337669372558594e+00 1.131408929824829102e+00 3.638193884398788214e-04 6.750160991941811517e-06 1.111708625103347003e-04 -1.162628250312991440e-04
6.422000000000000000e+03 6.606027126312255859e+00 1.131122112274169922e+00 4.123063990846276283e-04 -2.341670369787607342e-05 1.166669098893180490e-04 -1.068007259164005518e-04
6.423000000000000000e+03 6.562102794647216797e+00 3.911220729351043701e-01 4.420943150762468576e-04 9.466883966524619609e-06 1.354683627141639590e-04 -3.789240145124495029e-05
6.424000000000000000e+03 8.106598854064941406e+00 3.909416198730468750e-01 5.783032393082976341e-04 9.888824024528730661e-06 1.764576300047338009e-04 -2.503361429262440652e-05
6.425000000000000000e+03 8.937906265258789062e+00 1.130809426307678223e+00 5.689333775080740452e-04 1.186923782370286062e-06 1.710360811557620764e-04 -4.905106106889434159e-05
6.426000000000000000e+03 9.714219093322753906e+00 1.130452990531921387e+00 5.366385448724031448e-04 -1.129103293351363391e-05 1.576042559463530779e-04 -2.589027826616074890e-05
6.427000000000000000e+03 8.160858154296875000e+00 1.130941629409790039e+00 5.169016076251864433e-04 -3.179045961587689817e-05 1.455333549529314041e-04 -7.115811604307964444e-05
6.428000000000000000e+03 5.050341606140136719e+00 1.131531715393066406e+00 2.746624813880771399e-04 -7.751847988402005285e-06 8.007318683667108417e-05 -1.167454392998479307e-04
6.429000000000000000e+03 1.165157318115234375e+00 1.131472945213317871e+00 3.077592555200681090e-05 2.236092041130177677e-05 1.594105378899257630e-05 -1.739955587254371494e-05
6.430000000000000000e+03 1.473077964782714844e+01 -1.259489893913269043e+00 3.338405787944793701e-01 1.479881629347801208e-02 1.045918241143226624e-01 -7.432877272367477417e-02
6.431000000000000000e+03 1.399090099334716797e+01 -1.125491499900817871e+00 3.562571108341217041e-01 9.159372188150882721e-03 1.096249446272850037e-01 -7.255060970783233643e-02
6.432000000000000000e+03 1.312020874023437500e+01 -1.719582676887512207e+00 2.692935168743133545e-01 -3.793824231252074242e-03 7.964991033077239990e-02 -5.660865455865859985e-02
6.433000000000000000e+03 1.535054302215576172e+01 -2.123512268066406250e+00 1.831448972225189209e-01 1.437990553677082062e-02 5.925744026899337769e-02 -9.663590788841247559e-02
6.434000000000000000e+03 1.547062015533447266e+01 -1.393221139907836914e+00 2.994801998138427734e-01 1.237224601209163666e-02 9.355573356151580811e-02 -7.445118576288223267e-02
6.435000000000000000e+03 1.460713481903076172e+01 -1.989134907722473145e+00 2.248574346303939819e-01 5.356220528483390808e-03 6.906409561634063721e-02 -8.427049219608306885e-02
6.436000000000000000e+03 1.325099086761474609e+01 -9.912301898002624512e-01 3.664830327033996582e-01 1.176840811967849731e-02 1.134754344820976257e-01 -6.762751936912536621e-02
6.437000000000000000e+03 1.386368751525878906e+01 -1.854490160942077637e+00 2.522890865802764893e-01 3.255568211898207664e-03 7.666339725255966187e-02 -7.042824476957321167e-02
6.438000000000000000e+03 4.974968719482421875e+01 6.135250329971313477e-01 -1.082071304321289062e+00 5.347695201635360718e-02 -3.085782825946807861e-01 2.821009755134582520e-01
6.439000000000000000e+03 4.901140213012695312e+01 1.282631158828735352e+00 -6.781249046325683594e-01 4.792552813887596130e-02 -1.890598088502883911e-01 1.822818219661712646e-01
6.440000000000000000e+03 4.978162384033203125e+01 1.065497040748596191e+00 -6.078198552131652832e-01 -1.081304922699928284e-01 -2.147850990295410156e-01 3.780229985713958740e-01
6.441000000000000000e+03 5.040945053100585938e+01 6.835607886314392090e-01 -1.197427153587341309e+00 -4.604690074920654297e-01 -4.973688423633575439e-01 6.557895541191101074e-01
6.442000000000000000e+03 4.794509887695312500e+01 6.084127426147460938e-01 -9.275518059730529785e-01 8.738096058368682861e-02 -2.520512640476226807e-01 1.704272031784057617e-01
6.443000000000000000e+03 4.723731231689453125e+01 1.378266572952270508e+00 -1.080202460289001465e+00 3.540718927979469299e-03 -3.229985237121582031e-01 4.854693636298179626e-02
6.444000000000000000e+03 4.713964462280273438e+01 6.398035287857055664e-01 -9.531220197677612305e-01 6.795337051153182983e-02 -2.655505836009979248e-01 4.147979617118835449e-02
6.445000000000000000e+03 4.944421386718750000e+01 4.038022458553314209e-01 -1.101390242576599121e+00 1.058075875043869019e-01 -2.986747920513153076e-01 2.885237038135528564e-01
6.446000000000000000e+03 4.875239181518554688e+01 5.439907908439636230e-01 -9.891400337219238281e-01 1.310683786869049072e-01 -2.574214935302734375e-01 2.970852255821228027e-01
6.447000000000000000e+03 4.989886474609375000e+01 3.266886174678802490e-01 -1.080419421195983887e+00 -2.980446675792336464e-03 -3.250199556350708008e-01 3.345401883125305176e-01
6.448000000000000000e+03 4.812343597412109375e+01 1.346964478492736816e+00 -9.773325324058532715e-01 1.795138791203498840e-02 -2.878143489360809326e-01 8.330829441547393799e-02
6.449000000000000000e+03 5.017858886718750000e+01 4.406909644603729248e-01 -1.035624623298645020e+00 -1.026016399264335632e-01 -3.414678871631622314e-01 2.979430556297302246e-01
6.450000000000000000e+03 1.105858802795410156e+01 -5.865809917449951172e-01 3.282575011253356934e-01 1.523477840237319469e-03 9.893429279327392578e-02 -4.551047459244728088e-02
6.451000000000000000e+03 1.167972469329833984e+01 -1.452614903450012207e+00 2.763624191284179688e-01 -1.211579330265522003e-02 7.927399128675460815e-02 -2.819353528320789337e-02
6.452000000000000000e+03 1.025387477874755859e+01 -1.193646550178527832e+00 2.656131386756896973e-01 -2.599205449223518372e-02 7.188633084297180176e-02 -2.573106437921524048e-03
6.453000000000000000e+03 1.239226341247558594e+01 -1.585148334503173828e+00 2.769568860530853271e-01 -5.905377212911844254e-03 8.131545037031173706e-02 -4.123010486364364624e-02
6.454000000000000000e+03 1.251665687561035156e+01 -8.556226491928100586e-01 3.646495938301086426e-01 6.225816439837217331e-03 1.112626269459724426e-01 -6.277148425579071045e-02
6.455000000000000000e+03 1.178777027130126953e+01 -7.200965881347656250e-01 3.518371582031250000e-01 7.209537550806999207e-03 1.077140122652053833e-01 -5.448922142386436462e-02
6.456000000000000000e+03 1.096688938140869141e+01 -1.322091937065124512e+00 2.686434090137481689e-01 -1.747801527380943298e-02 7.534961402416229248e-02 -1.192058995366096497e-02
6.457000000000000000e+03 1.032922649383544922e+01 -4.551429152488708496e-01 2.905709445476531982e-01 -5.756178870797157288e-03 8.544442802667617798e-02 -2.844493463635444641e-02
6.458000000000000000e+03 8.661221504211425781e+00 -1.128501772880554199e+00 2.231267541646957397e-01 -1.421360764652490616e-02 6.267394870519638062e-02 1.969354599714279175e-02
6.459000000000000000e+03 8.720003128051757812e+00 -3.885017633438110352e-01 2.769512832164764404e-01 -1.902651973068714142e-03 8.251459151506423950e-02 6.854035425931215286e-03
6.460000000000000000e+03 9.549606323242187500e+00 -3.893687427043914795e-01 2.757551670074462891e-01 -9.725081734359264374e-03 7.980902493000030518e-02 -6.908677052706480026e-03
6.461000000000000000e+03 7.889697074890136719e+00 -3.882405161857604980e-01 2.564213275909423828e-01 -2.422717167064547539e-03 7.619958370923995972e-02 1.173326373100280762e-02
6.462000000000000000e+03 7.058670520782470703e+00 -3.882131278514862061e-01 2.263559401035308838e-01 -4.265911702532321215e-04 6.777880340814590454e-02 1.508078631013631821e-02
6.463000000000000000e+03 6.228112220764160156e+00 -3.882330358028411865e-01 1.906982213258743286e-01 -9.642219520173966885e-04 5.692019686102867126e-02 1.664316281676292419e-02
6.464000000000000000e+03 5.397459506988525391e+00 -3.882989287376403809e-01 1.522712856531143188e-01 3.592256107367575169e-04 4.578915238380432129e-02 1.739277690649032593e-02
6.465000000000000000e+03 4.566254138946533203e+00 -3.882672786712646484e-01 1.136643514037132263e-01 1.558135700179263949e-04 3.414604812860488892e-02 1.681940443813800812e-02
6.466000000000000000e+03 3.735541105270385742e+00 -3.881431519985198975e-01 7.710605859756469727e-02 1.088795950636267662e-03 2.345845662057399750e-02 1.544743590056896210e-02
6.467000000000000000e+03 2.905454397201538086e+00 -3.881077766418457031e-01 4.520886763930320740e-02 1.335956854745745659e-03 1.396344788372516632e-02 1.272605732083320618e-02
6.468000000000000000e+03 2.075164079666137695e+00 -3.881983160972595215e-01 2.063076570630073547e-02 2.068526577204465866e-03 6.809787824749946594e-03 8.886458352208137512e-03
6.469000000000000000e+03 1.245145082473754883e+00 -3.885309398174285889e-01 6.053919438272714615e-03 2.290874719619750977e-03 2.503438154235482216e-03 3.968159202486276627e-03
6.470000000000000000e+03 4.151333570480346680e-01 -3.893930315971374512e-01 7.395729771815240383e-04 6.042582681402564049e-04 4.031493735965341330e-04 6.747714360244572163e-04
6.471000000000000000e+03 4.123342633247375488e-01 -1.129392981529235840e+00 2.734942128881812096e-03 4.570709075778722763e-03 2.191695384681224823e-03 3.753434866666793823e-03
6.472000000000000000e+03 9.485227584838867188e+00 -1.129368782043457031e+00 2.489806562662124634e-01 -2.193720266222953796e-02 6.811303645372390747e-02 4.807957448065280914e-03
6.473000000000000000e+03 7.836514472961425781e+00 -1.128240466117858887e+00 2.058808207511901855e-01 -6.802449002861976624e-03 5.972351506352424622e-02 3.391275182366371155e-02
6.474000000000000000e+03 7.011085987091064453e+00 -1.128213167190551758e+00 1.826133430004119873e-01 -5.326456390321254730e-03 5.318606644868850708e-02 4.121316224336624146e-02
6.475000000000000000e+03 6.186125755310058594e+00 -1.128233075141906738e+00 1.562095433473587036e-01 -1.764523098245263100e-03 4.633350297808647156e-02 4.618687927722930908e-02
6.476000000000000000e+03 5.361071109771728516e+00 -1.128298878669738770e+00 1.280861496925354004e-01 -4.499420174397528172e-04 3.829086199402809143e-02 4.742405936121940613e-02
6.477000000000000000e+03 4.535463809967041016e+00 -1.128267288208007812e+00 9.941104054450988770e-02 2.260781358927488327e-03 3.050154633820056915e-02 4.664333164691925049e-02
6.478000000000000000e+03 3.710349321365356445e+00 -1.128143191337585449e+00 7.222273200750350952e-02 4.090075381100177765e-03 2.289384230971336365e-02 4.243088513612747192e-02
6.479000000000000000e+03 2.885860681533813477e+00 -1.128107786178588867e+00 4.780699312686920166e-02 6.805582903325557709e-03 1.638377271592617035e-02 3.577663376927375793e-02
6.480000000000000000e+03 2.061168670654296875e+00 -1.128198385238647461e+00 2.752640284597873688e-02 9.119676426053047180e-03 1.099382434040307999e-02 2.574922516942024231e-02
6.481000000000000000e+03 1.236747741699218750e+00 -1.128530979156494141e+00 1.189374271780252457e-02 1.033262908458709717e-02 6.667911540716886520e-03 1.386628113687038422e-02
