# el_label, x, y, sXX, sYY, sZZ, sXY
1.000000000000000000e+00 5.478465270996093750e+01 -1.901573562622070312e+01 -3.149808883666992188e+00 -3.025678873062133789e+00 -1.852646350860595703e+00 -2.425506114959716797e+00
2.000000000000000000e+00 5.459444046020507812e+01 -1.907435226440429688e+01 -3.910157978534698486e-01 1.015395522117614746e+00 1.873138993978500366e-01 2.545535266399383545e-01
3.000000000000000000e+00 5.440422439575195312e+01 -1.913296699523925781e+01 -9.395731687545776367e-01 -4.832951724529266357e-01 -4.268605113029479980e-01 -1.499221622943878174e-01
4.000000000000000000e+00 5.421401214599609375e+01 -1.919158363342285156e+01 -1.149184465408325195e+00 2.367989569902420044e-01 -2.737156748771667480e-01 -1.391492635011672974e-01
5.000000000000000000e+00 5.480722808837890625e+01 -1.906960105895996094e+01 6.579950809478759766e+00 -1.059472084045410156e+00 1.656143546104431152e+00 2.612696409225463867e+00
6.000000000000000000e+00 5.463206863403320312e+01 -1.916412734985351562e+01 1.992358088493347168e+00 2.934380173683166504e-01 6.857388019561767578e-01 1.075462579727172852e+00
7.000000000000000000e+00 5.445690536499023438e+01 -1.925865173339843750e+01 1.731240868568420410e+00 1.281248807907104492e+00 9.037469029426574707e-01 1.603120088577270508e+00
8.000000000000000000e+00 5.428173828125000000e+01 -1.935317802429199219e+01 9.847198128700256348e-01 3.322764337062835693e-01 3.950988650321960449e-01 1.106176853179931641e+00
9.000000000000000000e+00 5.483986282348632812e+01 -1.911804008483886719e+01 8.401006698608398438e+00 3.946788072586059570e+00 3.704338312149047852e+00 7.303535938262939453e+00
1.000000000000000000e+01 5.468645095825195312e+01 -1.924485778808593750e+01 5.029304504394531250e+00 2.575917243957519531e+00 2.281566619873046875e+00 4.184006690979003906e+00
1.100000000000000000e+01 5.453304290771484375e+01 -1.937167549133300781e+01 3.015972375869750977e+00 2.244699001312255859e+00 1.578201413154602051e+00 3.066286325454711914e+00
1.200000000000000000e+01 5.437963104248046875e+01 -1.949849319458007812e+01 2.333615541458129883e+00 2.448549747467041016e+00 1.434649586677551270e+00 2.896846294403076172e+00
1.300000000000000000e+01 5.488129806518554688e+01 -1.915919876098632812e+01 8.356244087219238281e+00 1.062438201904296875e+01 5.694187641143798828e+00 1.007101726531982422e+01
1.400000000000000000e+01 5.475551605224609375e+01 -1.931345748901367188e+01 5.017445564270019531e+00 6.221694469451904297e+00 3.371742010116577148e+00 6.604463100433349609e+00
1.500000000000000000e+01 5.462973022460937500e+01 -1.946771430969238281e+01 3.798530340194702148e+00 5.371250629425048828e+00 2.750934362411499023e+00 5.010698318481445312e+00
1.600000000000000000e+01 5.450394439697265625e+01 -1.962197113037109375e+01 2.626465559005737305e+00 4.226722240447998047e+00 2.055956363677978516e+00 4.245951175689697266e+00
1.700000000000000000e+01 5.492995452880859375e+01 -1.919150352478027344e+01 6.146956920623779297e+00 1.700324630737304688e+01 6.945060729980468750e+00 1.102681159973144531e+01
1.800000000000000000e+01 5.483660888671875000e+01 -1.936729812622070312e+01 4.456520557403564453e+00 1.145184326171875000e+01 4.772509098052978516e+00 7.547349452972412109e+00
1.900000000000000000e+01 5.474326324462890625e+01 -1.954309272766113281e+01 2.989326238632202148e+00 8.560198783874511719e+00 3.464857578277587891e+00 6.155230998992919922e+00
2.000000000000000000e+01 5.464991378784179688e+01 -1.971888542175292969e+01 2.343735456466674805e+00 7.760095119476318359e+00 3.031149148941040039e+00 5.091295719146728516e+00
2.100000000000000000e+01 5.498397064208984375e+01 -1.921371841430664062e+01 4.527369022369384766e+00 2.370522499084472656e+01 8.469778060913085938e+00 9.537056922912597656e+00
2.200000000000000000e+01 5.492663192749023438e+01 -1.940432167053222656e+01 2.695640087127685547e+00 1.585810947418212891e+01 5.566124916076660156e+00 7.343350410461425781e+00
2.300000000000000000e+01 5.486929702758789062e+01 -1.959492492675781250e+01 2.291836977005004883e+00 1.287341976165771484e+01 4.549577236175537109e+00 5.765794277191162109e+00
2.400000000000000000e+01 5.481195831298828125e+01 -1.978553009033203125e+01 1.338078379631042480e+00 1.050933647155761719e+01 3.554224252700805664e+00 5.309678554534912109e+00
2.500000000000000000e+01 5.504127502441406250e+01 -1.922499084472656250e+01 2.521088123321533203e+00 2.844557571411132812e+01 9.289999008178710938e+00 6.732412815093994141e+00
2.600000000000000000e+01 5.502214431762695312e+01 -1.942311096191406250e+01 2.226089239120483398e+00 2.019913673400878906e+01 6.727568149566650391e+00 5.353278160095214844e+00
2.700000000000000000e+01 5.500300979614257812e+01 -1.962123107910156250e+01 8.217426538467407227e-01 1.610138511657714844e+01 5.076938152313232422e+00 4.780110836029052734e+00
2.800000000000000000e+01 5.498387527465820312e+01 -1.981934928894042969e+01 1.014552235603332520e+00 1.384378814697265625e+01 4.457501888275146484e+00 3.794870376586914062e+00
2.900000000000000000e+01 5.509968185424804688e+01 -1.922489166259765625e+01 2.973039388656616211e+00 3.180436897277832031e+01 1.043322277069091797e+01 2.675407171249389648e+00
3.000000000000000000e+01 5.511948394775390625e+01 -1.942294692993164062e+01 1.387265920639038086e+00 2.302448654174804688e+01 7.323525428771972656e+00 2.744603157043457031e+00
3.100000000000000000e+01 5.513928604125976562e+01 -1.962100028991699219e+01 1.141085386276245117e+00 1.868526077270507812e+01 5.947904109954833984e+00 2.447273254394531250e+00
3.200000000000000000e+01 5.515908813476562500e+01 -1.981905364990234375e+01 -7.125104218721389771e-02 1.605391120910644531e+01 4.794797897338867188e+00 2.263986825942993164e+00
3.300000000000000000e+01 5.515694808959960938e+01 -1.921342468261718750e+01 4.169619560241699219e+00 3.286430358886718750e+01 1.111017704010009766e+01 -1.533930063247680664e+00
3.400000000000000000e+01 5.521493148803710938e+01 -1.940383529663085938e+01 2.453129529953002930e+00 2.456374931335449219e+01 8.105063438415527344e+00 -3.126982152462005615e-01
3.500000000000000000e+01 5.527291107177734375e+01 -1.959424400329589844e+01 1.350291013717651367e+00 2.014388465881347656e+01 6.448252677917480469e+00 -1.841811388731002808e-01
3.600000000000000000e+01 5.533089447021484375e+01 -1.978465080261230469e+01 9.083849787712097168e-01 1.708050346374511719e+01 5.396666526794433594e+00 -3.130067884922027588e-02
3.700000000000000000e+01 5.521088790893554688e+01 -1.919102859497070312e+01 7.099524021148681641e+00 3.227840805053710938e+01 1.181338024139404297e+01 -5.085738658905029297e+00
3.800000000000000000e+01 5.530482864379882812e+01 -1.936650657653808594e+01 4.215219497680664062e+00 2.462723922729492188e+01 8.652737617492675781e+00 -3.222677469253540039e+00
3.900000000000000000e+01 5.539876937866210938e+01 -1.954198455810546875e+01 2.857394218444824219e+00 2.018789482116699219e+01 6.913587093353271484e+00 -2.645308732986450195e+00
4.000000000000000000e+01 5.549271011352539062e+01 -1.971746063232421875e+01 2.153610706329345703e+00 1.779010391235351562e+01 5.983114719390869141e+00 -2.301594257354736328e+00
4.100000000000000000e+01 5.525943374633789062e+01 -1.915855979919433594e+01 1.080240345001220703e+01 3.036297035217285156e+01 1.234961223602294922e+01 -7.500624656677246094e+00
4.200000000000000000e+01 5.538574218750000000e+01 -1.931239128112792969e+01 6.932499408721923828e+00 2.349292182922363281e+01 9.127626419067382812e+00 -5.408458232879638672e+00
4.300000000000000000e+01 5.551204681396484375e+01 -1.946622276306152344e+01 5.032561302185058594e+00 1.938026428222656250e+01 7.323847770690917969e+00 -4.649413108825683594e+00
4.400000000000000000e+01 5.563835144042968750e+01 -1.962005424499511719e+01 4.104268074035644531e+00 1.645362472534179688e+01 6.167367458343505859e+00 -3.677796602249145508e+00
4.500000000000000000e+01 5.530073165893554688e+01 -1.911725997924804688e+01 1.467630672454833984e+01 2.798111152648925781e+01 1.279722595214843750e+01 -8.426052093505859375e+00
4.600000000000000000e+01 5.545457077026367188e+01 -1.924355888366699219e+01 1.011351394653320312e+01 2.156763076782226562e+01 9.504343032836914062e+00 -6.746068000793457031e+00
4.700000000000000000e+01 5.560840606689453125e+01 -1.936985778808593750e+01 7.727593898773193359e+00 1.775581550598144531e+01 7.645022869110107422e+00 -5.531850814819335938e+00
4.800000000000000000e+01 5.576224517822265625e+01 -1.949615669250488281e+01 6.513071060180664062e+00 1.428962135314941406e+01 6.240808010101318359e+00 -5.019599914550781250e+00
4.900000000000000000e+01 5.533319854736328125e+01 -1.906871223449707031e+01 1.856065559387207031e+01 2.550549316406250000e+01 1.321984481811523438e+01 -7.982422351837158203e+00
5.000000000000000000e+01 5.550868225097656250e+01 -1.916264343261718750e+01 1.285222053527832031e+01 1.954005241394042969e+01 9.717681884765625000e+00 -6.848664283752441406e+00
5.100000000000000000e+01 5.568416213989257812e+01 -1.925657653808593750e+01 1.071143341064453125e+01 1.561499595642089844e+01 7.897928714752197266e+00 -5.706690788269042969e+00
5.200000000000000000e+01 5.585964584350585938e+01 -1.935050964355468750e+01 8.764061927795410156e+00 1.300186347961425781e+01 6.529777526855468750e+00 -5.416739463806152344e+00
5.300000000000000000e+01 5.535559082031250000e+01 -1.901477050781250000e+01 2.072225189208984375e+01 2.322344779968261719e+01 1.318371009826660156e+01 -6.934619426727294922e+00
5.400000000000000000e+01 5.554600524902343750e+01 -1.907274246215820312e+01 1.587010002136230469e+01 1.807194137573242188e+01 1.018261241912841797e+01 -5.563373088836669922e+00
5.500000000000000000e+01 5.573641586303710938e+01 -1.913071632385253906e+01 1.248336029052734375e+01 1.366338062286376953e+01 7.844022274017333984e+00 -5.354312896728515625e+00
5.600000000000000000e+01 5.592682647705078125e+01 -1.918868827819824219e+01 1.091255760192871094e+01 1.178158760070800781e+01 6.808243751525878906e+00 -4.300097942352294922e+00
5.700000000000000000e+01 5.536705780029296875e+01 -1.895750236511230469e+01 2.280399513244628906e+01 2.330965995788574219e+01 1.383409690856933594e+01 -4.571757793426513672e+00
5.800000000000000000e+01 5.556510925292968750e+01 -1.897729682922363281e+01 1.710020828247070312e+01 1.574518871307373047e+01 9.853618621826171875e+00 -4.314740657806396484e+00
5.900000000000000000e+01 5.576316452026367188e+01 -1.899708938598632812e+01 1.415227794647216797e+01 1.381501197814941406e+01 8.390187263488769531e+00 -3.404461145401000977e+00
6.000000000000000000e+01 5.596122360229492188e+01 -1.901688385009765625e+01 1.180698966979980469e+01 9.544513702392578125e+00 6.405451297760009766e+00 -3.472207784652709961e+00
6.100000000000000000e+01 5.536715316772460938e+01 -1.889909744262695312e+01 2.272860145568847656e+01 2.177972030639648438e+01 1.335249710083007812e+01 -2.387088060379028320e+00
6.200000000000000000e+01 5.556527328491210938e+01 -1.887995529174804688e+01 1.770127868652343750e+01 1.702450942993164062e+01 1.041773700714111328e+01 -2.317415475845336914e+00
6.300000000000000000e+01 5.576338958740234375e+01 -1.886081314086914062e+01 1.445567703247070312e+01 1.184594726562500000e+01 7.890487194061279297e+00 -1.768908619880676270e+00
6.400000000000000000e+01 5.596150970458984375e+01 -1.884166908264160156e+01 1.250935363769531250e+01 1.128166389465332031e+01 7.137305259704589844e+00 -1.775780916213989258e+00
6.500000000000000000e+01 5.535587692260742188e+01 -1.884179306030273438e+01 2.238479042053222656e+01 2.358537483215332031e+01 1.379104995727539062e+01 -6.791583895683288574e-01
6.600000000000000000e+01 5.554647827148437500e+01 -1.878444480895996094e+01 1.660124969482421875e+01 1.670600318908691406e+01 9.992176055908203125e+00 -1.620344370603561401e-01
6.700000000000000000e+01 5.573707962036132812e+01 -1.872710037231445312e+01 1.375849056243896484e+01 1.358932304382324219e+01 8.204343795776367188e+00 -6.605255007743835449e-01
6.800000000000000000e+01 5.592768096923828125e+01 -1.866975402832031250e+01 1.166145515441894531e+01 1.044162845611572266e+01 6.630925178527832031e+00 -1.545961946249008179e-01
6.900000000000000000e+01 5.533366012573242188e+01 -1.878777885437011719e+01 2.012762832641601562e+01 2.475785636901855469e+01 1.346564483642578125e+01 1.047844409942626953e+00
7.000000000000000000e+01 5.550945281982421875e+01 -1.869442176818847656e+01 1.515190982818603516e+01 1.856108093261718750e+01 1.011389732360839844e+01 7.911198735237121582e-01
7.100000000000000000e+01 5.568524169921875000e+01 -1.860106658935546875e+01 1.173122024536132812e+01 1.472262382507324219e+01 7.936153411865234375e+00 7.262561321258544922e-01
7.200000000000000000e+01 5.586103057861328125e+01 -1.850771141052246094e+01 9.285064697265625000e+00 1.187004280090332031e+01 6.346532344818115234e+00 2.533644437789916992e-01
7.300000000000000000e+01 5.530135345458984375e+01 -1.873912239074707031e+01 1.788441658020019531e+01 2.690451240539550781e+01 1.343667888641357422e+01 1.536682009696960449e+00
7.400000000000000000e+01 5.545560455322265625e+01 -1.861333084106445312e+01 1.230691909790039062e+01 2.047293472290039062e+01 9.833955764770507812e+00 1.205073237419128418e+00
7.500000000000000000e+01 5.560985565185546875e+01 -1.848753929138183594e+01 9.594700813293457031e+00 1.643234634399414062e+01 7.808114051818847656e+00 8.279829025268554688e-01
7.600000000000000000e+01 5.576410675048828125e+01 -1.836174583435058594e+01 7.121199131011962891e+00 1.377980899810791016e+01 6.270302295684814453e+00 1.163931727409362793e+00
7.700000000000000000e+01 5.526019287109375000e+01 -1.869768905639648438e+01 1.457139205932617188e+01 2.894178771972656250e+01 1.305395412445068359e+01 1.111135959625244141e+00
7.800000000000000000e+01 5.538700485229492188e+01 -1.854427337646484375e+01 9.905670166015625000e+00 2.253458213806152344e+01 9.732075691223144531e+00 4.318307936191558838e-01
7.900000000000000000e+01 5.551381301879882812e+01 -1.839085769653320312e+01 6.746829509735107422e+00 1.818026161193847656e+01 7.478127479553222656e+00 1.899505555629730225e-01
8.000000000000000000e+01 5.564062500000000000e+01 -1.823744201660156250e+01 5.829015731811523438e+00 1.481625080108642578e+01 6.193580150604248047e+00 2.209077030420303345e-01
8.100000000000000000e+01 5.521175384521484375e+01 -1.866506004333496094e+01 1.209974193572998047e+01 3.119820022583007812e+01 1.298938274383544922e+01 -7.393469214439392090e-01
8.200000000000000000e+01 5.530627059936523438e+01 -1.848989105224609375e+01 6.963795185089111328e+00 2.360635757446289062e+01 9.171045303344726562e+00 -1.212259173393249512e+00
8.300000000000000000e+01 5.540078735351562500e+01 -1.831472396850585938e+01 5.129940986633300781e+00 1.965062141418457031e+01 7.434168815612792969e+00 -1.436119437217712402e+00
8.400000000000000000e+01 5.549530410766601562e+01 -1.813955688476562500e+01 3.174880981445312500e+00 1.608563613891601562e+01 5.778155326843261719e+00 -1.839726686477661133e+00
8.500000000000000000e+01 5.515788650512695312e+01 -1.864248657226562500e+01 8.978354454040527344e+00 3.184330177307128906e+01 1.224649715423583984e+01 -3.348111629486083984e+00
8.600000000000000000e+01 5.521649169921875000e+01 -1.845226860046386719e+01 5.929619312286376953e+00 2.441144943237304688e+01 9.102320671081542969e+00 -3.968264818191528320e+00
8.700000000000000000e+01 5.527510070800781250e+01 -1.826205253601074219e+01 3.002395629882812500e+00 1.944252777099609375e+01 6.733477115631103516e+00 -3.633324384689331055e+00
8.800000000000000000e+01 5.533370590209960938e+01 -1.807183456420898438e+01 2.191366195678710938e+00 1.734574699401855469e+01 5.861134052276611328e+00 -3.722760200500488281e+00
8.900000000000000000e+01 5.510065841674804688e+01 -1.863083076477050781e+01 8.396306037902832031e+00 3.181392478942871094e+01 1.206306934356689453e+01 -6.969296455383300781e+00
9.000000000000000000e+01 5.512110900878906250e+01 -1.843284416198730469e+01 4.417953491210937500e+00 2.331196403503417969e+01 8.318975448608398438e+00 -6.813349723815917969e+00
9.100000000000000000e+01 5.514156341552734375e+01 -1.823485755920410156e+01 3.107444763183593750e+00 1.893837547302246094e+01 6.613746166229248047e+00 -6.452770233154296875e+00
9.200000000000000000e+01 5.516201782226562500e+01 -1.803686904907226562e+01 1.135296702384948730e+00 1.536542606353759766e+01 4.950216770172119141e+00 -5.793511867523193359e+00
9.300000000000000000e+01 5.504225540161132812e+01 -1.863054084777832031e+01 7.886909484863281250e+00 2.955304908752441406e+01 1.123198795318603516e+01 -1.067293167114257812e+01
9.400000000000000000e+01 5.502376937866210938e+01 -1.843235969543457031e+01 5.202482700347900391e+00 2.133948326110839844e+01 7.962590217590332031e+00 -9.640232086181640625e+00
9.500000000000000000e+01 5.500528717041015625e+01 -1.823417854309082031e+01 2.932306766510009766e+00 1.678043174743652344e+01 5.913821220397949219e+00 -8.865458488464355469e+00
9.600000000000000000e+01 5.498680496215820312e+01 -1.803599739074707031e+01 1.794210433959960938e+00 1.350072765350341797e+01 4.588481426239013672e+00 -8.687258720397949219e+00
9.700000000000000000e+01 5.498490905761718750e+01 -1.864162635803222656e+01 9.477416992187500000e+00 2.585941886901855469e+01 1.060105037689208984e+01 -1.377227497100830078e+01
9.800000000000000000e+01 5.492819976806640625e+01 -1.845083427429199219e+01 6.172856330871582031e+00 1.788308525085449219e+01 7.216782093048095703e+00 -1.172581195831298828e+01
9.900000000000000000e+01 5.487148666381835938e+01 -1.826004409790039062e+01 4.129666805267333984e+00 1.384442615509033203e+01 5.392227649688720703e+00 -1.077919769287109375e+01
1.000000000000000000e+02 5.481477737426757812e+01 -1.806925392150878906e+01 2.254271507263183594e+00 1.166281032562255859e+01 4.175124645233154297e+00 -1.025165367126464844e+01
1.010000000000000000e+02 5.493082427978515625e+01 -1.866366195678710938e+01 1.177595520019531250e+01 2.059456825256347656e+01 9.711157798767089844e+00 -1.559425258636474609e+01
1.020000000000000000e+02 5.483805465698242188e+01 -1.848756217956542969e+01 7.953931331634521484e+00 1.363034248352050781e+01 6.475282192230224609e+00 -1.270378684997558594e+01
1.030000000000000000e+02 5.474528121948242188e+01 -1.831146240234375000e+01 5.347121238708496094e+00 1.051346111297607422e+01 4.758174896240234375e+00 -1.147625541687011719e+01
1.040000000000000000e+02 5.465251159667968750e+01 -1.813536262512207031e+01 3.596514940261840820e+00 8.523252487182617188e+00 3.635930299758911133e+00 -1.065301609039306641e+01
1.050000000000000000e+02 5.488206100463867188e+01 -1.869580650329589844e+01 1.448406124114990234e+01 1.449634647369384766e+01 8.694122314453125000e+00 -1.564141178131103516e+01
1.060000000000000000e+02 5.475678253173828125e+01 -1.854113769531250000e+01 9.568842887878417969e+00 9.115527153015136719e+00 5.605311393737792969e+00 -1.222984600067138672e+01
1.070000000000000000e+02 5.463150405883789062e+01 -1.838646697998046875e+01 6.606904029846191406e+00 6.838033676147460938e+00 4.033481597900390625e+00 -1.082970714569091797e+01
1.080000000000000000e+02 5.450622558593750000e+01 -1.823179626464843750e+01 4.621227741241455078e+00 5.575281620025634766e+00 3.058952808380126953e+00 -1.025905895233154297e+01
1.090000000000000000e+02 5.484048843383789062e+01 -1.873682975769042969e+01 1.651211738586425781e+01 8.444396972656250000e+00 7.486954689025878906e+00 -1.370424938201904297e+01
1.100000000000000000e+02 5.468749618530273438e+01 -1.860950851440429688e+01 1.053297328948974609e+01 4.867516040802001953e+00 4.620146751403808594e+00 -1.033166885375976562e+01
1.110000000000000000e+02 5.453450393676757812e+01 -1.848218727111816406e+01 7.201151371002197266e+00 3.548140048980712891e+00 3.224787473678588867e+00 -9.087874412536621094e+00
1.120000000000000000e+02 5.438151168823242188e+01 -1.835486602783203125e+01 4.837715625762939453e+00 3.071264505386352539e+00 2.372694015502929688e+00 -8.605854988098144531e+00
1.130000000000000000e+02 5.480769729614257812e+01 -1.878516197204589844e+01 1.714620208740234375e+01 3.226546287536621094e+00 6.111824512481689453e+00 -9.991424560546875000e+00
1.140000000000000000e+02 5.463284683227539062e+01 -1.869006156921386719e+01 9.965495109558105469e+00 1.532695293426513672e+00 3.449456930160522461e+00 -7.320591449737548828e+00
1.150000000000000000e+02 5.445799636840820312e+01 -1.859496116638183594e+01 6.645970821380615234e+00 1.257824063301086426e+00 2.371138572692871094e+00 -6.643206596374511719e+00
1.160000000000000000e+02 5.428314208984375000e+01 -1.849985885620117188e+01 4.382003784179687500e+00 1.038062572479248047e+00 1.626019835472106934e+00 -6.318601131439208984e+00
1.170000000000000000e+02 5.478494644165039062e+01 -1.883895111083984375e+01 1.487026023864746094e+01 -5.014635920524597168e-01 4.310638904571533203e+00 -5.314587593078613281e+00
1.180000000000000000e+02 5.459492492675781250e+01 -1.877971076965332031e+01 7.923527240753173828e+00 -2.646879255771636963e-01 2.297651767730712891e+00 -3.860481023788452148e+00
1.190000000000000000e+02 5.440490341186523438e+01 -1.872047042846679688e+01 4.358229160308837891e+00 2.635526843369007111e-02 1.315375328063964844e+00 -3.994174957275390625e+00
1.200000000000000000e+02 5.421488189697265625e+01 -1.866123008728027344e+01 2.848576068878173828e+00 2.134747207164764404e-01 9.186152219772338867e-01 -4.332000732421875000e+00
1.210000000000000000e+02 5.477310180664062500e+01 -1.889614295959472656e+01 9.781908035278320312e+00 -2.055432796478271484e+00 2.317942380905151367e+00 -8.617796003818511963e-02
1.220000000000000000e+02 5.457518005371093750e+01 -1.887502861022949219e+01 3.022310972213745117e+00 -3.937876224517822266e-01 7.885569930076599121e-01 -1.386344909667968750e+00
1.230000000000000000e+02 5.437726593017578125e+01 -1.885391616821289062e+01 2.066813468933105469e+00 -5.345050990581512451e-02 6.040089130401611328e-01 -2.338095188140869141e+00
1.240000000000000000e+02 5.417934417724609375e+01 -1.883280181884765625e+01 -3.839398920536041260e-02 -5.415616631507873535e-01 -1.739867031574249268e-01 -2.068043947219848633e+00
1.250000000000000000e+02 5.477261352539062500e+01 -1.895454406738281250e+01 -1.916348934173583984e+00 -1.500689744949340820e+00 -1.025111675262451172e+00 1.691075682640075684e+00
1.260000000000000000e+02 5.457437133789062500e+01 -1.897236633300781250e+01 4.928889870643615723e-01 5.784074664115905762e-01 3.213889300823211670e-01 -1.039244413375854492e+00
1.270000000000000000e+02 5.437613296508789062e+01 -1.899018859863281250e+01 -1.929201483726501465e+00 -6.789693236351013184e-01 -7.824512124061584473e-01 -6.354921460151672363e-01
1.280000000000000000e+02 5.417789077758789062e+01 -1.900800895690917969e+01 -2.987627744674682617e+00 6.738001853227615356e-02 -8.760743141174316406e-01 -1.084146976470947266e+00
1.290000000000000000e+02 4.454376983642578125e+01 -2.153533744812011719e+01 -7.624104022979736328e-01 -1.495053768157958984e-01 -2.735747396945953369e-01 -3.718468546867370605e-01
1.300000000000000000e+02 4.525796890258789062e+01 -2.133341026306152344e+01 -1.049886226654052734e+00 -1.712805628776550293e-01 -3.663500547409057617e-01 -4.523488581180572510e-01
1.310000000000000000e+02 4.405188369750976562e+01 -2.244241142272949219e+01 -3.595670759677886963e-01 -2.769781351089477539e-01 -1.909635663032531738e-01 -5.010850429534912109e-01
1.320000000000000000e+02 4.615114593505859375e+01 -2.184869003295898438e+01 -9.758693575859069824e-01 -2.205495983362197876e-01 -3.589257001876831055e-01 -6.573309302330017090e-01
1.330000000000000000e+02 4.545270156860351562e+01 -2.204736137390136719e+01 -7.470301985740661621e-01 -2.329771071672439575e-01 -2.940022051334381104e-01 -6.203611493110656738e-01
1.340000000000000000e+02 4.475288772583007812e+01 -2.224522018432617188e+01 -5.327330827713012695e-01 -2.970930933952331543e-01 -2.489478439092636108e-01 -5.909400582313537598e-01
1.350000000000000000e+02 4.597079086303710938e+01 -2.113067054748535156e+01 -1.311676144599914551e+00 -1.249747201800346375e-01 -4.309952557086944580e-01 -4.916222095489501953e-01
1.360000000000000000e+02 4.382838821411132812e+01 -2.173659515380859375e+01 -4.639528095722198486e-01 -1.243018284440040588e-01 -1.764763891696929932e-01 -2.942833304405212402e-01
1.370000000000000000e+02 4.742242813110351562e+01 -2.080677986145019531e+01 -1.950170397758483887e+00 -1.095725074410438538e-01 -6.179228425025939941e-01 -5.471366047859191895e-01
1.380000000000000000e+02 4.815383148193359375e+01 -2.066137695312500000e+01 -2.229173183441162109e+00 -1.422962248325347900e-01 -7.114408612251281738e-01 -5.682543516159057617e-01
1.390000000000000000e+02 4.686201095581054688e+01 -2.167665290832519531e+01 -1.185786604881286621e+00 -1.546777784824371338e-01 -4.021393060684204102e-01 -6.838936209678649902e-01
1.400000000000000000e+02 4.830693054199218750e+01 -2.138541984558105469e+01 -1.530520558357238770e+00 -9.974914044141769409e-02 -4.890809059143066406e-01 -6.359546780586242676e-01
1.410000000000000000e+02 4.888698577880859375e+01 -2.051945686340332031e+01 -2.444664001464843750e+00 -1.063599810004234314e-01 -7.653071880340576172e-01 -5.907864570617675781e-01
1.420000000000000000e+02 4.903206253051757812e+01 -2.124509811401367188e+01 -1.658891558647155762e+00 -1.074677407741546631e-01 -5.299078226089477539e-01 -5.692382454872131348e-01
1.430000000000000000e+02 4.758355331420898438e+01 -2.152922821044921875e+01 -1.359202623367309570e+00 -1.714800298213958740e-01 -4.592047929763793945e-01 -6.660476922988891602e-01
1.440000000000000000e+02 4.669285964965820312e+01 -2.095580101013183594e+01 -1.613067507743835449e+00 -1.354237198829650879e-01 -5.245473384857177734e-01 -5.079225301742553711e-01
1.450000000000000000e+02 5.087729644775390625e+01 -2.106009864807128906e+01 -1.357659935951232910e+00 2.649116516113281250e-01 -3.278244733810424805e-01 -1.444761902093887329e-01
1.460000000000000000e+02 5.139596176147460938e+01 -2.093921470642089844e+01 -1.265698552131652832e+00 3.475570380687713623e-01 -2.754424512386322021e-01 1.090000718832015991e-01
1.470000000000000000e+02 5.218169021606445312e+01 -2.066043663024902344e+01 -1.116128563880920410e+00 4.033558666706085205e-01 -2.138317972421646118e-01 4.048825204372406006e-01
1.480000000000000000e+02 4.973978424072265625e+01 -2.111119651794433594e+01 -1.693706512451171875e+00 1.337963528931140900e-02 -5.040980577468872070e-01 -4.742030501365661621e-01
1.490000000000000000e+02 5.214533996582031250e+01 -2.090225410461425781e+01 -8.962190151214599609e-01 6.790928244590759277e-01 -6.513786315917968750e-02 5.957635045051574707e-01
1.500000000000000000e+02 5.207319259643554688e+01 -2.009273719787597656e+01 -2.088270902633666992e+00 6.970153003931045532e-02 -6.055708527565002441e-01 -1.946227103471755981e-01
1.510000000000000000e+02 5.064155578613281250e+01 -2.067924690246582031e+01 -1.967579007148742676e+00 1.973704062402248383e-02 -5.843525528907775879e-01 -3.706680536270141602e-01
1.520000000000000000e+02 5.119648361206054688e+01 -2.049835777282714844e+01 -2.002345561981201172e+00 3.774818778038024902e-02 -5.893792510032653809e-01 -2.658718526363372803e-01
1.530000000000000000e+02 5.219215393066406250e+01 -2.046085929870605469e+01 -1.242796540260314941e+00 3.021585941314697266e-01 -2.821913659572601318e-01 2.443845570087432861e-01
1.540000000000000000e+02 5.200621414184570312e+01 -1.988829040527343750e+01 -2.291971445083618164e+00 8.453619480133056641e-02 -6.622306108474731445e-01 -4.378764629364013672e-01
1.550000000000000000e+02 5.175823593139648438e+01 -2.078717994689941406e+01 -1.267143845558166504e+00 3.688714802265167236e-01 -2.694817185401916504e-01 2.136688828468322754e-01
1.560000000000000000e+02 5.035322189331054688e+01 -2.108786392211914062e+01 -1.630853056907653809e+00 1.980797387659549713e-02 -4.833135306835174561e-01 -3.302849531173706055e-01
1.570000000000000000e+02 4.963563919067382812e+01 -2.037776184082031250e+01 -2.624350070953369141e+00 -1.233318001031875610e-01 -8.243045210838317871e-01 -5.849610567092895508e-01
1.580000000000000000e+02 5.215653610229492188e+01 -2.028157234191894531e+01 -1.609810709953308105e+00 1.989665627479553223e-01 -4.232532382011413574e-01 8.594278246164321899e-02
1.590000000000000000e+02 5.187276077270507812e+01 -1.969050407409667969e+01 -3.021182775497436523e+00 -4.186646267771720886e-02 -9.189147949218750000e-01 -6.086128354072570801e-01
1.600000000000000000e+02 5.188959121704101562e+01 -2.057999610900878906e+01 -1.392888903617858887e+00 3.286440372467041016e-01 -3.192734718322753906e-01 1.636262834072113037e-01
1.610000000000000000e+02 5.161938858032226562e+01 -1.993721389770507812e+01 -2.719822645187377930e+00 -1.223246157169342041e-01 -8.526442050933837891e-01 -4.781291186809539795e-01
1.620000000000000000e+02 5.161709976196289062e+01 -2.047546958923339844e+01 -1.803989887237548828e+00 1.567680686712265015e-01 -4.941665530204772949e-01 -1.059241667389869690e-01
1.630000000000000000e+02 5.037717056274414062e+01 -2.018646240234375000e+01 -2.759522914886474609e+00 -9.926815330982208252e-02 -8.576372861862182617e-01 -5.878564715385437012e-01
1.640000000000000000e+02 5.176677703857421875e+01 -2.022244644165039062e+01 -2.097198009490966797e+00 1.020824611186981201e-01 -5.985347032546997070e-01 -1.730116903781890869e-01
1.650000000000000000e+02 5.107648468017578125e+01 -2.000082588195800781e+01 -2.859869718551635742e+00 -1.087866425514221191e-01 -8.905969262123107910e-01 -5.639762878417968750e-01
1.660000000000000000e+02 5.198186492919921875e+01 -2.039095115661621094e+01 -1.517978549003601074e+00 2.222111523151397705e-01 -3.887301981449127197e-01 9.555172920227050781e-02
1.670000000000000000e+02 5.540882110595703125e+01 -1.998473167419433594e+01 -8.381611853837966919e-02 1.572659206390380859e+01 4.692832946777343750e+00 -7.117033004760742188e-02
1.680000000000000000e+02 5.586483001708984375e+01 -1.979825782775878906e+01 3.735641717910766602e+00 1.275168228149414062e+01 4.946197509765625000e+00 -3.335041999816894531e+00
1.690000000000000000e+02 5.623757171630859375e+01 -1.880935287475585938e+01 9.591853141784667969e+00 6.926097393035888672e+00 4.955385208129882812e+00 -1.711574077606201172e+00
1.700000000000000000e+02 5.599784851074218750e+01 -1.839760208129882812e+01 7.424526214599609375e+00 9.937552452087402344e+00 5.208623409271240234e+00 9.707669019699096680e-01
1.710000000000000000e+02 5.598472595214843750e+01 -1.821249198913574219e+01 6.560573577880859375e+00 9.724778175354003906e+00 4.885605335235595703e+00 9.954340457916259766e-01
1.720000000000000000e+02 5.534600830078125000e+01 -1.787590789794921875e+01 1.473835483193397522e-02 1.466465759277343750e+01 4.403818607330322266e+00 -4.381627082824707031e+00
1.730000000000000000e+02 5.273068237304687500e+01 -1.798192405700683594e+01 -1.713390946388244629e+00 1.063397049903869629e+00 -1.949981451034545898e-01 -3.654486656188964844e+00
1.740000000000000000e+02 5.336175918579101562e+01 -1.788825607299804688e+01 -6.521776318550109863e-01 1.533993721008300781e+00 2.645448446273803711e-01 -5.082889556884765625e+00
1.750000000000000000e+02 5.524835968017578125e+01 -1.762865829467773438e+01 -2.180237919092178345e-01 1.072705078125000000e+01 3.152708053588867188e+00 -6.030790328979492188e+00
1.760000000000000000e+02 5.567939376831054688e+01 -1.992426490783691406e+01 1.778130650520324707e+00 1.393977737426757812e+01 4.715372562408447266e+00 -2.007921218872070312e+00
1.770000000000000000e+02 5.497672653198242188e+01 -2.004916191101074219e+01 6.042243912816047668e-02 1.155256080627441406e+01 3.483894824981689453e+00 3.827241182327270508e+00
1.780000000000000000e+02 5.249363708496093750e+01 -2.085091209411621094e+01 -6.295769214630126953e-01 9.676532745361328125e-01 1.014229059219360352e-01 9.128447175025939941e-01
1.790000000000000000e+02 5.269952011108398438e+01 -2.080219650268554688e+01 -5.648367404937744141e-01 1.088825464248657227e+00 1.571966409683227539e-01 1.006857752799987793e+00
1.800000000000000000e+02 5.290257644653320312e+01 -2.051085472106933594e+01 -5.181444287300109863e-01 9.703311324119567871e-01 1.356559991836547852e-01 1.016555547714233398e+00
1.810000000000000000e+02 5.326896286010742188e+01 -2.013118171691894531e+01 -2.666321396827697754e-01 9.776355624198913574e-01 2.133010178804397583e-01 1.119334220886230469e+00
1.820000000000000000e+02 5.424171447753906250e+01 -1.994312286376953125e+01 1.366090416908264160e+00 3.372234821319580078e+00 1.421497583389282227e+00 3.401153087615966797e+00
1.830000000000000000e+02 5.399357986450195312e+01 -2.033789825439453125e+01 6.495079398155212402e-01 3.485591888427734375e+00 1.240529894828796387e+00 3.007308483123779297e+00
1.840000000000000000e+02 5.324563980102539062e+01 -1.973078918457031250e+01 -1.249752521514892578e+00 2.213615477085113525e-01 -3.085173070430755615e-01 2.264596670866012573e-01
1.850000000000000000e+02 5.328305816650390625e+01 -2.072330093383789062e+01 -5.826764274388551712e-03 1.878410339355468750e+00 5.617750883102416992e-01 1.865196704864501953e+00
1.860000000000000000e+02 5.196488189697265625e+01 -1.812085723876953125e+01 -3.031140565872192383e+00 6.350688934326171875e-01 -7.188214659690856934e-01 -2.122375488281250000e+00
1.870000000000000000e+02 5.290158462524414062e+01 -1.889157676696777344e+01 -5.420321464538574219e+00 -3.010033369064331055e-01 -1.716397523880004883e+00 -1.912586569786071777e+00
1.880000000000000000e+02 5.317874908447265625e+01 -1.913350486755371094e+01 -6.807754993438720703e+00 -3.138157725334167480e-01 -2.136471271514892578e+00 -1.568068742752075195e+00
1.890000000000000000e+02 5.445047760009765625e+01 -1.783143234252929688e+01 9.831091165542602539e-01 6.804539680480957031e+00 2.336294651031494141e+00 -1.003211688995361328e+01
1.900000000000000000e+02 5.455137252807617188e+01 -1.797915077209472656e+01 2.254919052124023438e+00 7.351297378540039062e+00 2.881865024566650391e+00 -1.071014022827148438e+01
1.910000000000000000e+02 5.220227813720703125e+01 -1.936856460571289062e+01 -8.558769226074218750e+00 -3.889711201190948486e-01 -2.684322118759155273e+00 -1.599033117294311523e+00
1.920000000000000000e+02 5.206160354614257812e+01 -1.853966331481933594e+01 -4.648661613464355469e+00 9.459906071424484253e-02 -1.366218805313110352e+00 -1.682611107826232910e+00
1.930000000000000000e+02 5.337549209594726562e+01 -1.880636787414550781e+01 -3.758140563964843750e+00 -4.271597862243652344e-01 -1.255590081214904785e+00 -2.191109180450439453e+00
1.940000000000000000e+02 5.398152542114257812e+01 -1.903027343750000000e+01 -4.011834144592285156e+00 -5.826199650764465332e-01 -1.378336191177368164e+00 -1.159478187561035156e+00
1.950000000000000000e+02 5.436143112182617188e+01 -1.807764816284179688e+01 2.778428554534912109e+00 4.901144981384277344e+00 2.303872108459472656e+00 -9.528500556945800781e+00
1.960000000000000000e+02 5.398817825317382812e+01 -1.861170005798339844e+01 8.809101581573486328e-01 -2.090463489294052124e-01 2.015591412782669067e-01 -3.868203878402709961e+00
1.970000000000000000e+02 5.402378463745117188e+01 -1.925226020812988281e+01 -1.381395339965820312e+00 -1.551762819290161133e-01 -4.609715044498443604e-01 -1.682229787111282349e-01
1.980000000000000000e+02 5.363213729858398438e+01 -1.937604713439941406e+01 -1.819324254989624023e+00 -3.244579955935478210e-02 -5.555310249328613281e-01 -2.286023497581481934e-01
1.990000000000000000e+02 5.405484390258789062e+01 -1.977558898925781250e+01 1.129845380783081055e+00 1.891016960144042969e+00 9.062587022781372070e-01 2.251341819763183594e+00
2.000000000000000000e+02 5.475775146484375000e+01 -2.000247764587402344e+01 8.123740553855895996e-01 9.777951240539550781e+00 3.177097558975219727e+00 4.437369346618652344e+00
2.010000000000000000e+02 5.519364547729492188e+01 -2.004020118713378906e+01 4.825202524662017822e-01 1.395256423950195312e+01 4.330525398254394531e+00 1.369928598403930664e+00
2.020000000000000000e+02 5.595489501953125000e+01 -1.958968734741210938e+01 6.747008800506591797e+00 1.255495357513427734e+01 5.790588855743408203e+00 -5.371697425842285156e+00
2.030000000000000000e+02 5.385775375366210938e+01 -2.058440780639648438e+01 3.597050905227661133e-01 3.358911037445068359e+00 1.115584850311279297e+00 2.759158134460449219e+00
2.040000000000000000e+02 5.246067047119140625e+01 -2.063499259948730469e+01 -8.953701853752136230e-01 7.596405148506164551e-01 -4.071890562772750854e-02 6.136320829391479492e-01
2.050000000000000000e+02 5.235682296752929688e+01 -1.997342491149902344e+01 -1.903363466262817383e+00 7.965920865535736084e-02 -5.471112728118896484e-01 -1.707247346639633179e-01
2.060000000000000000e+02 5.241045761108398438e+01 -1.959196853637695312e+01 -2.751348018646240234e+00 1.622976735234260559e-02 -8.205354213714599609e-01 -5.245184898376464844e-01
2.070000000000000000e+02 5.229353332519531250e+01 -1.977760696411132812e+01 -2.487362146377563477e+00 -2.085224539041519165e-01 -8.087653517723083496e-01 -3.264647722244262695e-01
2.080000000000000000e+02 5.616617965698242188e+01 -1.904827880859375000e+01 1.153682136535644531e+01 8.690951347351074219e+00 6.068331718444824219e+00 -3.081922769546508789e+00
2.090000000000000000e+02 5.559134674072265625e+01 -1.798324775695800781e+01 3.041426897048950195e+00 1.298634433746337891e+01 4.808331489562988281e+00 -2.187073707580566406e+00
2.100000000000000000e+02 5.359352111816406250e+01 -1.882520675659179688e+01 -3.241675376892089844e+00 -1.596460044384002686e-01 -1.020396471023559570e+00 -2.313608646392822266e+00
2.110000000000000000e+02 5.434749221801757812e+01 -1.765213775634765625e+01 4.258488491177558899e-02 6.555882453918457031e+00 1.979540109634399414e+00 -9.630056381225585938e+00
2.120000000000000000e+02 5.394449234008789062e+01 -1.773330307006835938e+01 6.286287903785705566e-01 3.979243278503417969e+00 1.382361650466918945e+00 -8.189133644104003906e+00
2.130000000000000000e+02 5.423627090454101562e+01 -1.789951896667480469e+01 1.583492398262023926e+00 4.802764892578125000e+00 1.915877223014831543e+00 -9.337960243225097656e+00
2.140000000000000000e+02 5.315538787841796875e+01 -1.793660926818847656e+01 -7.122646570205688477e-01 1.156869411468505859e+00 1.333814263343811035e-01 -4.763886928558349609e+00
2.150000000000000000e+02 5.578140640258789062e+01 -1.800266647338867188e+01 3.925511360168457031e+00 1.216631126403808594e+01 4.827546596527099609e+00 -5.593792200088500977e-01
2.160000000000000000e+02 5.617809295654296875e+01 -1.857040977478027344e+01 9.120575904846191406e+00 8.137855529785156250e+00 5.177529335021972656e+00 -3.666706681251525879e-01
2.170000000000000000e+02 5.621154785156250000e+01 -1.824617576599121094e+01 6.409664630889892578e+00 8.358332633972167969e+00 4.430398941040039062e+00 6.100881695747375488e-01
2.180000000000000000e+02 5.455853652954101562e+01 -1.761482810974121094e+01 -9.550871849060058594e-01 7.982260227203369141e+00 2.108151912689208984e+00 -9.808028221130371094e+00
2.190000000000000000e+02 5.510386657714843750e+01 -1.786006164550781250e+01 7.174433469772338867e-01 1.215922737121582031e+01 3.863001108169555664e+00 -5.970887184143066406e+00
2.200000000000000000e+02 5.583166885375976562e+01 -1.782589721679687500e+01 1.164374947547912598e+00 1.025565719604492188e+01 3.426009416580200195e+00 1.314796060323715210e-01
2.210000000000000000e+02 5.617182540893554688e+01 -1.967765998840332031e+01 5.681247711181640625e+00 1.008132839202880859e+01 4.728772640228271484e+00 -4.099469661712646484e+00
2.220000000000000000e+02 5.610721969604492188e+01 -1.924668693542480469e+01 9.545736312866210938e+00 8.980838775634765625e+00 5.557972908020019531e+00 -3.180030822753906250e+00
2.230000000000000000e+02 5.432831192016601562e+01 -2.024295806884765625e+01 9.002688527107238770e-01 5.172524929046630859e+00 1.821838140487670898e+00 3.777155399322509766e+00
2.240000000000000000e+02 5.523979187011718750e+01 -2.029062843322753906e+01 -3.930075466632843018e-01 1.140599155426025391e+01 3.303895235061645508e+00 2.392942190170288086e+00
2.250000000000000000e+02 5.322444152832031250e+01 -1.945436668395996094e+01 -2.178048372268676758e+00 -4.691636189818382263e-02 -6.674894094467163086e-01 -3.154302537441253662e-01
2.260000000000000000e+02 5.604109954833984375e+01 -1.941011428833007812e+01 6.842999458312988281e+00 1.229386806488037109e+01 5.741060256958007812e+00 -4.898025989532470703e+00
2.270000000000000000e+02 5.558294296264648438e+01 -2.015910339355468750e+01 6.332861185073852539e-01 1.354339790344238281e+01 4.253005504608154297e+00 -1.063328504562377930e+00
2.280000000000000000e+02 5.392024230957031250e+01 -1.956034469604492188e+01 2.230469435453414917e-01 4.809631705284118652e-01 2.112030237913131714e-01 9.732915759086608887e-01
2.290000000000000000e+02 5.639383697509765625e+01 -1.904766464233398438e+01 9.744932174682617188e+00 5.745021820068359375e+00 4.646986484527587891e+00 -2.381395101547241211e+00
2.300000000000000000e+02 5.455483245849609375e+01 -1.990212059020996094e+01 1.557764887809753418e+00 6.365442276000976562e+00 2.376962184906005859e+00 4.597648620605468750e+00
2.310000000000000000e+02 5.293735122680664062e+01 -1.797830200195312500e+01 -1.560324072837829590e+00 8.810799717903137207e-01 -2.037732452154159546e-01 -3.928065538406372070e+00
2.320000000000000000e+02 5.355846786499023438e+01 -1.783303260803222656e+01 -1.013881638646125793e-01 2.476710557937622070e+00 7.125967144966125488e-01 -6.169760704040527344e+00
2.330000000000000000e+02 5.201379394531250000e+01 -1.833082962036132812e+01 -4.011870861053466797e+00 5.253728628158569336e-01 -1.045949459075927734e+00 -1.988631486892700195e+00
2.340000000000000000e+02 5.374982070922851562e+01 -1.777751922607421875e+01 3.942652642726898193e-01 2.882324457168579102e+00 9.829769134521484375e-01 -7.126223564147949219e+00
2.350000000000000000e+02 5.414400863647460938e+01 -1.769457435607910156e+01 2.861167192459106445e-01 5.189521312713623047e+00 1.642691493034362793e+00 -8.708684921264648438e+00
2.360000000000000000e+02 5.338606643676757812e+01 -1.910066413879394531e+01 -6.291475296020507812e+00 -2.882591485977172852e-01 -1.973920226097106934e+00 -1.539125561714172363e+00
2.370000000000000000e+02 5.378001022338867188e+01 -1.884257888793945312e+01 -2.429057359695434570e+00 -5.702896714210510254e-01 -8.998041152954101562e-01 -2.165383577346801758e+00
2.380000000000000000e+02 5.256422424316406250e+01 -1.928854179382324219e+01 -7.999520301818847656e+00 -3.191280066967010498e-01 -2.495594501495361328e+00 -1.635446548461914062e+00
2.390000000000000000e+02 5.324278640747070312e+01 -1.823174476623535156e+01 -1.310039877891540527e+00 4.341992735862731934e-01 -2.627521753311157227e-01 -3.938312053680419922e+00
2.400000000000000000e+02 5.267937850952148438e+01 -2.057208824157714844e+01 -6.755948662757873535e-01 7.968862056732177734e-01 3.638741374015808105e-02 8.633093237876892090e-01
2.410000000000000000e+02 5.310781478881835938e+01 -2.073989105224609375e+01 -2.134317159652709961e-01 1.625212550163269043e+00 4.235342442989349365e-01 1.500112175941467285e+00
2.420000000000000000e+02 5.342934036254882812e+01 -1.942100143432617188e+01 -1.997154355049133301e+00 -6.639841012656688690e-03 -6.011382341384887695e-01 -2.750342488288879395e-01
2.430000000000000000e+02 5.366421890258789062e+01 -2.062415695190429688e+01 2.430293112993240356e-01 2.720585823059082031e+00 8.890845179557800293e-01 2.467356204986572266e+00
2.440000000000000000e+02 5.281676483154296875e+01 -1.953233337402343750e+01 -2.517933130264282227e+00 -4.620506241917610168e-02 -7.692414522171020508e-01 -4.246741831302642822e-01
2.450000000000000000e+02 5.443789672851562500e+01 -2.045127677917480469e+01 2.492096275091171265e-01 6.299096107482910156e+00 1.964491724967956543e+00 3.774485349655151367e+00
2.460000000000000000e+02 5.482593536376953125e+01 -2.037493896484375000e+01 -1.775883436203002930e-01 9.370334625244140625e+00 2.757823944091796875e+00 3.711929321289062500e+00
2.470000000000000000e+02 5.502192306518554688e+01 -2.031876564025878906e+01 -3.358899950981140137e-01 1.145541000366210938e+01 3.335856199264526367e+00 2.723813772201538086e+00
2.480000000000000000e+02 5.375955581665039062e+01 -2.011968231201171875e+01 5.275399684906005859e-01 1.751408576965332031e+00 6.836845874786376953e-01 1.964960813522338867e+00
2.490000000000000000e+02 5.445131301879882812e+01 -2.009085845947265625e+01 1.190032958984375000e+00 6.209284782409667969e+00 2.219795227050781250e+00 4.231582641601562500e+00
2.500000000000000000e+02 5.463840103149414062e+01 -2.041719055175781250e+01 7.741709053516387939e-02 7.608985424041748047e+00 2.305920600891113281e+00 3.634587526321411133e+00
2.510000000000000000e+02 5.380397415161132812e+01 -2.036587142944335938e+01 4.762833714485168457e-01 2.634156465530395508e+00 9.331319928169250488e-01 2.590862751007080078e+00
2.520000000000000000e+02 5.217361831665039062e+01 -1.916823387145996094e+01 -7.345932960510253906e+00 -3.065080642700195312e-01 -2.295732259750366211e+00 -1.479469299316406250e+00
2.530000000000000000e+02 5.239493179321289062e+01 -1.934466552734375000e+01 -8.404050827026367188e+00 -2.089898735284805298e-01 -2.583912372589111328e+00 -1.605630755424499512e+00
2.540000000000000000e+02 5.210777664184570312e+01 -1.875082206726074219e+01 -5.414657592773437500e+00 -6.523127108812332153e-02 -1.643966555595397949e+00 -1.704392552375793457e+00
2.550000000000000000e+02 5.214683151245117188e+01 -1.896264457702636719e+01 -6.467957019805908203e+00 -8.851969987154006958e-02 -1.966943025588989258e+00 -1.599255919456481934e+00
2.560000000000000000e+02 5.239124298095703125e+01 -2.020351600646972656e+01 -1.522776126861572266e+00 2.196242809295654297e-01 -3.909455835819244385e-01 1.105906516313552856e-01
2.570000000000000000e+02 5.383072280883789062e+01 -1.931564712524414062e+01 -1.612650036811828613e+00 3.194417804479598999e-02 -4.742117524147033691e-01 -1.841691583395004272e-01
2.580000000000000000e+02 5.236587905883789062e+01 -1.804144096374511719e+01 -2.406584262847900391e+00 7.711937427520751953e-01 -4.906171560287475586e-01 -2.907800912857055664e+00
2.590000000000000000e+02 5.264206314086914062e+01 -1.815702819824218750e+01 -2.249037504196166992e+00 5.312242507934570312e-01 -5.153439640998840332e-01 -3.003418684005737305e+00
2.600000000000000000e+02 5.383721542358398438e+01 -1.827250289916992188e+01 1.454804420471191406e+00 8.843171000480651855e-01 7.017364501953125000e-01 -5.796859264373779297e+00
2.610000000000000000e+02 5.419841384887695312e+01 -1.822327613830566406e+01 3.274340152740478516e+00 2.601621627807617188e+00 1.762788534164428711e+00 -8.077178001403808594e+00
2.620000000000000000e+02 5.266405868530273438e+01 -1.894290733337402344e+01 -5.997362613677978516e+00 -2.391793429851531982e-01 -1.870962500572204590e+00 -1.778171420097351074e+00
2.630000000000000000e+02 5.275234222412109375e+01 -1.921792030334472656e+01 -7.651106834411621094e+00 -2.817223072052001953e-01 -2.379848718643188477e+00 -1.642963409423828125e+00
2.640000000000000000e+02 5.304582214355468750e+01 -1.999860191345214844e+01 -9.258166551589965820e-01 4.060620069503784180e-01 -1.559263914823532104e-01 4.665821194648742676e-01
2.650000000000000000e+02 5.303377532958984375e+01 -1.976091003417968750e+01 -1.581770896911621094e+00 1.511052101850509644e-01 -4.291996955871582031e-01 2.803850919008255005e-02
2.660000000000000000e+02 5.437581634521484375e+01 -1.977914237976074219e+01 1.987181305885314941e+00 4.162514209747314453e+00 1.844908595085144043e+00 3.784991264343261719e+00
2.670000000000000000e+02 5.235748672485351562e+01 -1.872618675231933594e+01 -5.146512508392333984e+00 -4.809493571519851685e-02 -1.558382153511047363e+00 -1.811004877090454102e+00
2.680000000000000000e+02 5.260467529296875000e+01 -1.958025169372558594e+01 -2.651602029800415039e+00 -8.776894211769104004e-02 -8.218113183975219727e-01 -4.592258930206298828e-01
2.690000000000000000e+02 5.406213760375976562e+01 -1.840740776062011719e+01 2.298944234848022461e+00 9.197019934654235840e-01 9.655938744544982910e-01 -5.966872692108154297e+00
2.700000000000000000e+02 5.397776794433593750e+01 -1.882369995117187500e+01 -1.282496690750122070e+00 -3.785716295242309570e-01 -4.983204901218414307e-01 -2.293632507324218750e+00
2.710000000000000000e+02 5.422352981567382812e+01 -1.962987518310546875e+01 1.698962807655334473e+00 1.664597988128662109e+00 1.009068250656127930e+00 2.480819940567016602e+00
2.720000000000000000e+02 5.370871734619140625e+01 -1.968078613281250000e+01 -1.214769631624221802e-01 5.935739278793334961e-01 1.416290849447250366e-01 8.726534247398376465e-01
2.730000000000000000e+02 5.223248291015625000e+01 -1.829429244995117188e+01 -3.352560758590698242e+00 2.920333445072174072e-01 -9.181582331657409668e-01 -2.240962028503417969e+00
2.740000000000000000e+02 5.299899673461914062e+01 -1.828166389465332031e+01 -1.868923068046569824e+00 3.149260878562927246e-01 -4.661991000175476074e-01 -3.493763446807861328e+00
2.750000000000000000e+02 5.307688522338867188e+01 -1.856633186340332031e+01 -3.324956655502319336e+00 -1.602277159690856934e-01 -1.045555233955383301e+00 -2.598656415939331055e+00
2.760000000000000000e+02 5.333438110351562500e+01 -1.851513099670410156e+01 -1.898086190223693848e+00 -3.819329291582107544e-02 -5.808838605880737305e-01 -3.321782112121582031e+00
2.770000000000000000e+02 5.312841796875000000e+01 -2.041724777221679688e+01 -3.065960407257080078e-01 1.193224310874938965e+00 2.659884989261627197e-01 1.282884359359741211e+00
2.780000000000000000e+02 5.260027313232421875e+01 -1.986641311645507812e+01 -1.915998578071594238e+00 4.160422459244728088e-02 -5.623183250427246094e-01 -1.102963984012603760e-01
2.790000000000000000e+02 5.262385177612304688e+01 -2.011795425415039062e+01 -1.319635987281799316e+00 2.912165522575378418e-01 -3.085258305072784424e-01 1.918751746416091919e-01
2.800000000000000000e+02 5.360880279541015625e+01 -1.842301940917968750e+01 -6.738531589508056641e-01 1.960234045982360840e-01 -1.433489322662353516e-01 -4.042017459869384766e+00
2.810000000000000000e+02 5.347390747070312500e+01 -1.816313552856445312e+01 -1.845501810312271118e-01 9.825624823570251465e-01 2.394036948680877686e-01 -5.052167892456054688e+00
2.820000000000000000e+02 5.283703231811523438e+01 -1.862395477294921875e+01 -3.866804838180541992e+00 -9.948597848415374756e-02 -1.189887285232543945e+00 -2.398515701293945312e+00
2.830000000000000000e+02 5.284053421020507812e+01 -2.005298614501953125e+01 -1.190625667572021484e+00 3.108025789260864258e-01 -2.639469206333160400e-01 3.377796113491058350e-01
2.840000000000000000e+02 5.355050277709960938e+01 -2.016816711425781250e+01 1.430759727954864502e-01 1.442848801612854004e+00 4.757774174213409424e-01 1.644353389739990234e+00
2.850000000000000000e+02 5.385350799560546875e+01 -1.992003059387207031e+01 5.861088633537292480e-01 1.557406187057495117e+00 6.430544853210449219e-01 1.976785778999328613e+00
2.860000000000000000e+02 5.291207504272460938e+01 -2.075371170043945312e+01 -3.757977485656738281e-01 1.301800966262817383e+00 2.778009772300720215e-01 1.316212534904479980e+00
2.870000000000000000e+02 5.346971893310546875e+01 -2.067061042785644531e+01 9.056655317544937134e-02 2.275972127914428711e+00 7.099616527557373047e-01 2.104945898056030273e+00
2.880000000000000000e+02 5.321465301513671875e+01 -2.057940864562988281e+01 -1.982387006282806396e-01 1.489664196968078613e+00 3.874276578426361084e-01 1.529186129570007324e+00
2.890000000000000000e+02 5.341353607177734375e+01 -2.048194694519042969e+01 7.391590625047683716e-02 1.722223162651062012e+00 5.388417243957519531e-01 1.818638443946838379e+00
2.900000000000000000e+02 5.361137771606445312e+01 -2.040953063964843750e+01 3.206646144390106201e-01 2.130575180053710938e+00 7.353719472885131836e-01 2.147272109985351562e+00
2.910000000000000000e+02 5.265088272094726562e+01 -2.034915924072265625e+01 -1.002480864524841309e+00 5.526208877563476562e-01 -1.349579989910125732e-01 5.278571248054504395e-01
2.920000000000000000e+02 5.242563629150390625e+01 -2.042140769958496094e+01 -1.125698804855346680e+00 4.209817051887512207e-01 -2.114151418209075928e-01 3.822696805000305176e-01
2.930000000000000000e+02 5.223802185058593750e+01 -1.960395812988281250e+01 -2.979962348937988281e+00 -2.790613472461700439e-01 -9.777070879936218262e-01 -4.634102880954742432e-01
2.940000000000000000e+02 5.216802597045898438e+01 -1.808373451232910156e+01 -3.260629653930664062e+00 6.426804661750793457e-01 -7.853847146034240723e-01 -2.284600019454956055e+00
2.950000000000000000e+02 5.229695892333984375e+01 -1.850484466552734375e+01 -4.328728675842285156e+00 1.694310158491134644e-01 -1.247789382934570312e+00 -2.067804336547851562e+00
2.960000000000000000e+02 5.255001449584960938e+01 -1.799245643615722656e+01 -2.276678800582885742e+00 7.960737943649291992e-01 -4.441814720630645752e-01 -3.164856195449829102e+00
2.970000000000000000e+02 5.240632629394531250e+01 -1.896286964416503906e+01 -6.288849353790283203e+00 -1.947953253984451294e-01 -1.945093512535095215e+00 -1.701658844947814941e+00
2.980000000000000000e+02 5.239967346191406250e+01 -1.917171859741210938e+01 -7.504844665527343750e+00 -1.914269477128982544e-01 -2.308881521224975586e+00 -1.593861103057861328e+00
2.990000000000000000e+02 5.260031509399414062e+01 -1.868380737304687500e+01 -4.668842792510986328e+00 -8.581010997295379639e-02 -1.426395893096923828e+00 -2.074952840805053711e+00
3.000000000000000000e+02 5.367786788940429688e+01 -1.807099151611328125e+01 1.741888523101806641e-01 1.481595277786254883e+00 4.967352449893951416e-01 -5.848054885864257812e+00
3.010000000000000000e+02 5.384675216674804688e+01 -1.797638130187988281e+01 9.312031269073486328e-01 2.393889904022216797e+00 9.975278973579406738e-01 -7.044270038604736328e+00
3.020000000000000000e+02 5.402589035034179688e+01 -1.793491363525390625e+01 1.488074183464050293e+00 3.343587875366210938e+00 1.449498653411865234e+00 -8.093308448791503906e+00
3.030000000000000000e+02 5.474608993530273438e+01 -1.791291427612304688e+01 1.718836069107055664e+00 9.545727729797363281e+00 3.379369020462036133e+00 -9.849955558776855469e+00
3.040000000000000000e+02 5.479488754272460938e+01 -1.759844589233398438e+01 -9.357357621192932129e-01 9.043538093566894531e+00 2.432340860366821289e+00 -9.872748374938964844e+00
3.050000000000000000e+02 5.494252014160156250e+01 -1.788178443908691406e+01 7.079801559448242188e-01 1.217530441284179688e+01 3.864985227584838867e+00 -8.872019767761230469e+00
3.060000000000000000e+02 5.296932601928710938e+01 -1.917352676391601562e+01 -7.244426250457763672e+00 -3.242896795272827148e-01 -2.270614862442016602e+00 -1.614944219589233398e+00
3.070000000000000000e+02 5.313262939453125000e+01 -1.884425926208496094e+01 -4.563007831573486328e+00 -2.760990858078002930e-01 -1.451732039451599121e+00 -2.143778562545776367e+00
3.080000000000000000e+02 5.358771896362304688e+01 -1.907975959777832031e+01 -5.718353271484375000e+00 -4.013749063014984131e-01 -1.835918426513671875e+00 -1.414088249206542969e+00
3.090000000000000000e+02 5.378527450561523438e+01 -1.905815887451171875e+01 -4.910929679870605469e+00 -1.203950271010398865e-01 -1.509397387504577637e+00 -1.411800861358642578e+00
3.100000000000000000e+02 5.373219299316406250e+01 -1.864513969421386719e+01 -6.743730306625366211e-01 -2.202413529157638550e-01 -2.683843076229095459e-01 -3.421725511550903320e+00
3.110000000000000000e+02 5.399431991577148438e+01 -1.811055564880371094e+01 1.653722167015075684e+00 2.456455230712890625e+00 1.233053207397460938e+00 -7.435446739196777344e+00
3.120000000000000000e+02 5.410567474365234375e+01 -1.945253562927246094e+01 5.130705237388610840e-01 8.059494495391845703e-01 3.957059979438781738e-01 1.092431664466857910e+00
3.130000000000000000e+02 5.466873550415039062e+01 -2.021176528930664062e+01 5.237007141113281250e-01 8.056303977966308594e+00 2.574001550674438477e+00 4.007938385009765625e+00
3.140000000000000000e+02 5.347396850585937500e+01 -1.973296737670898438e+01 -5.834304094314575195e-01 4.596205055713653564e-01 -3.714295849204063416e-02 6.028206944465637207e-01
3.150000000000000000e+02 5.302050018310546875e+01 -1.949090003967285156e+01 -2.361204862594604492e+00 -2.756246924400329590e-02 -7.166302204132080078e-01 -3.629074692726135254e-01
3.160000000000000000e+02 5.405086517333984375e+01 -2.054773712158203125e+01 3.014875948429107666e-01 4.153268337249755859e+00 1.336426734924316406e+00 3.110390901565551758e+00
3.170000000000000000e+02 5.424356079101562500e+01 -2.050815391540527344e+01 4.127290546894073486e-01 4.930133819580078125e+00 1.602858901023864746e+00 3.372771739959716797e+00
3.180000000000000000e+02 5.625395202636718750e+01 -1.936573791503906250e+01 7.017932415008544922e+00 7.959067344665527344e+00 4.493100166320800781e+00 -2.989715337753295898e+00
3.190000000000000000e+02 5.587917709350585938e+01 -1.826057052612304688e+01 6.704578399658203125e+00 1.193572425842285156e+01 5.592090606689453125e+00 4.608067870140075684e-01
3.200000000000000000e+02 5.574045944213867188e+01 -1.811951828002929688e+01 4.606389999389648438e+00 1.383193683624267578e+01 5.531497955322265625e+00 6.410533189773559570e-01
3.210000000000000000e+02 5.490741348266601562e+01 -1.777412223815917969e+01 9.271407723426818848e-01 1.003964805603027344e+01 3.290036678314208984e+00 -8.897820472717285156e+00
3.220000000000000000e+02 5.466815185546875000e+01 -1.778388595581054688e+01 4.443543553352355957e-01 8.421689033508300781e+00 2.659812927246093750e+00 -1.062771701812744141e+01
3.230000000000000000e+02 5.252629470825195312e+01 -1.844966125488281250e+01 -3.650713205337524414e+00 1.383300125598907471e-01 -1.053714990615844727e+00 -2.364806652069091797e+00
3.240000000000000000e+02 5.244288635253906250e+01 -1.824176025390625000e+01 -3.264414787292480469e+00 4.273158311843872070e-01 -8.511297106742858887e-01 -2.473470449447631836e+00
3.250000000000000000e+02 5.286716079711914062e+01 -2.028441619873046875e+01 -7.382295727729797363e-01 6.381947398185729980e-01 -3.001045435667037964e-02 7.086300253868103027e-01
3.260000000000000000e+02 5.282369995117187500e+01 -1.980614089965820312e+01 -1.768573045730590820e+00 1.196602508425712585e-01 -4.946738481521606445e-01 -5.331717431545257568e-02
3.270000000000000000e+02 5.275721359252929688e+01 -1.836037635803222656e+01 -3.090525150299072266e+00 2.176356911659240723e-01 -8.618668317794799805e-01 -2.786086797714233398e+00
3.280000000000000000e+02 5.334323883056640625e+01 -2.029832649230957031e+01 -1.568520218133926392e-01 1.236616134643554688e+00 3.239292204380035400e-01 1.409488439559936523e+00
3.290000000000000000e+02 5.415599060058593750e+01 -2.012372207641601562e+01 1.206184506416320801e+00 3.759503126144409180e+00 1.489706277847290039e+00 3.277759552001953125e+00
3.300000000000000000e+02 5.417393875122070312e+01 -2.031217384338378906e+01 5.881924033164978027e-01 4.375582218170166016e+00 1.489132404327392578e+00 3.344182491302490234e+00
3.310000000000000000e+02 5.307556152343750000e+01 -2.021335601806640625e+01 -5.631805658340454102e-01 7.080442905426025391e-01 4.345911741256713867e-02 8.966589570045471191e-01
3.320000000000000000e+02 5.342670440673828125e+01 -1.998961639404296875e+01 -2.292720079421997070e-01 7.951968312263488770e-01 1.697774380445480347e-01 1.113994359970092773e+00
3.330000000000000000e+02 5.324083709716796875e+01 -1.995768737792968750e+01 -6.818255186080932617e-01 4.715855121612548828e-01 -6.307200342416763306e-02 6.134030818939208984e-01
3.340000000000000000e+02 5.396047973632812500e+01 -2.011734771728515625e+01 1.013888359069824219e+00 2.604048967361450195e+00 1.085381269454956055e+00 2.786368131637573242e+00
3.350000000000000000e+02 5.066925430297851562e+01 -1.938390541076660156e+01 -7.736525058746337891e+00 -2.033435702323913574e-01 -2.381960630416870117e+00 -1.188696742057800293e+00
3.360000000000000000e+02 5.176097869873046875e+01 -1.864982795715332031e+01 -4.888025283813476562e+00 -2.290849946439266205e-02 -1.473280072212219238e+00 -1.470922708511352539e+00
3.370000000000000000e+02 5.127029418945312500e+01 -1.854223823547363281e+01 -4.942534446716308594e+00 3.017410933971405029e-01 -1.392238020896911621e+00 -1.220655560493469238e+00
3.380000000000000000e+02 4.931327819824218750e+01 -1.888309097290039062e+01 -5.352247238159179688e+00 1.269410252571105957e-01 -1.567591905593872070e+00 -4.389881193637847900e-01
3.390000000000000000e+02 4.941740417480468750e+01 -1.961652755737304688e+01 -7.069097518920898438e+00 -2.152036577463150024e-01 -2.185290336608886719e+00 -1.078111171722412109e+00
3.400000000000000000e+02 5.004371261596679688e+01 -1.949189758300781250e+01 -7.399482250213623047e+00 -1.350987553596496582e-01 -2.260374307632446289e+00 -1.125348567962646484e+00
3.410000000000000000e+02 5.166814804077148438e+01 -1.901569747924804688e+01 -6.917221546173095703e+00 -2.456342130899429321e-01 -2.148856639862060547e+00 -1.551465511322021484e+00
3.420000000000000000e+02 5.189880371093750000e+01 -1.900481986999511719e+01 -6.895278930664062500e+00 -1.348925381898880005e-01 -2.109051465988159180e+00 -1.558931469917297363e+00
3.430000000000000000e+02 5.191923141479492188e+01 -1.920262145996093750e+01 -7.490839004516601562e+00 -2.593660540878772736e-02 -2.255032777786254883e+00 -1.406895637512207031e+00
3.440000000000000000e+02 5.185319900512695312e+01 -1.882707786560058594e+01 -5.739600658416748047e+00 -1.533305943012237549e-01 -1.767879366874694824e+00 -1.665429949760437012e+00
3.450000000000000000e+02 5.188205337524414062e+01 -1.942267990112304688e+01 -8.523450851440429688e+00 -1.831573098897933960e-01 -2.611982345581054688e+00 -1.491223335266113281e+00
3.460000000000000000e+02 5.157160568237304688e+01 -1.820807456970214844e+01 -3.812403440475463867e+00 3.390225470066070557e-01 -1.042014241218566895e+00 -1.640631079673767090e+00
3.470000000000000000e+02 5.169039535522460938e+01 -1.843205070495605469e+01 -4.583695888519287109e+00 4.010995849967002869e-02 -1.363075852394104004e+00 -1.458348393440246582e+00
3.480000000000000000e+02 5.071288299560546875e+01 -1.862247467041015625e+01 -5.116086483001708984e+00 1.890453100204467773e-01 -1.478112339973449707e+00 -9.012463688850402832e-01
3.490000000000000000e+02 5.123956298828125000e+01 -1.935249519348144531e+01 -8.048787117004394531e+00 -1.073308810591697693e-01 -2.446835517883300781e+00 -1.286802172660827637e+00
3.500000000000000000e+02 5.163686752319335938e+01 -1.929990959167480469e+01 -8.101260185241699219e+00 -3.037495613098144531e-01 -2.521502733230590820e+00 -1.415055751800537109e+00
3.510000000000000000e+02 5.141025543212890625e+01 -1.889825057983398438e+01 -6.051435947418212891e+00 3.461348265409469604e-02 -1.805046677589416504e+00 -1.417603492736816406e+00
3.520000000000000000e+02 5.001346588134765625e+01 -1.874446296691894531e+01 -5.363094329833984375e+00 5.880260141566395760e-04 -1.608751893043518066e+00 -6.082968115806579590e-01
3.530000000000000000e+02 4.725450897216796875e+01 -2.004898452758789062e+01 -5.538446426391601562e+00 -6.198725476861000061e-02 -1.680130124092102051e+00 -8.106379508972167969e-01
3.540000000000000000e+02 4.858935928344726562e+01 -1.902983856201171875e+01 -5.169792175292968750e+00 7.025708258152008057e-02 -1.529860496520996094e+00 -3.133475780487060547e-01
3.550000000000000000e+02 4.634579849243164062e+01 -1.947607994079589844e+01 -4.144020557403564453e+00 9.166492521762847900e-02 -1.215706706047058105e+00 -7.146866619586944580e-02
3.560000000000000000e+02 4.799435043334960938e+01 -1.990183448791503906e+01 -6.088580608367919922e+00 -1.708522289991378784e-01 -1.877829909324645996e+00 -8.822562098503112793e-01
3.570000000000000000e+02 4.651494979858398438e+01 -2.019693183898925781e+01 -5.044202804565429688e+00 -1.959346234798431396e-01 -1.572041273117065430e+00 -7.365275621414184570e-01
3.580000000000000000e+02 4.709337997436523438e+01 -1.932653617858886719e+01 -4.589216709136962891e+00 5.233119800686836243e-02 -1.361065626144409180e+00 -1.641240119934082031e-01
3.590000000000000000e+02 4.873443222045898438e+01 -1.975547790527343750e+01 -6.632494449615478516e+00 -8.668275177478790283e-02 -2.015753030776977539e+00 -1.008512854576110840e+00
3.600000000000000000e+02 4.784125137329101562e+01 -1.917778968811035156e+01 -4.900753498077392578e+00 1.159719750285148621e-01 -1.435434460639953613e+00 -2.410475015640258789e-01
3.610000000000000000e+02 4.432126998901367188e+01 -2.078344535827636719e+01 -2.751966476440429688e+00 4.035770893096923828e-02 -8.134826421737670898e-01 -4.073917865753173828e-01
3.620000000000000000e+02 4.505051040649414062e+01 -2.057725715637207031e+01 -3.470793962478637695e+00 -1.094259023666381836e-01 -1.074065923690795898e+00 -5.664765238761901855e-01
3.630000000000000000e+02 4.359247589111328125e+01 -2.099166297912597656e+01 -2.065750598907470703e+00 -5.513990297913551331e-03 -6.213794350624084473e-01 -1.887193471193313599e-01
3.640000000000000000e+02 4.411215209960937500e+01 -2.007356262207031250e+01 -2.872769117355346680e+00 2.833954691886901855e-01 -7.768121361732482910e-01 1.831467747688293457e-01
3.650000000000000000e+02 4.578023910522460938e+01 -2.037289810180664062e+01 -4.314536571502685547e+00 -1.014859825372695923e-01 -1.324806690216064453e+00 -7.162488102912902832e-01
3.660000000000000000e+02 4.559988403320312500e+01 -1.965488052368164062e+01 -3.770208835601806641e+00 1.201053485274314880e-01 -1.095031023025512695e+00 5.605699121952056885e-02
3.670000000000000000e+02 4.336897659301757812e+01 -2.028584671020507812e+01 -2.410188436508178711e+00 3.857529163360595703e-01 -6.073306798934936523e-01 2.868504524230957031e-01
3.680000000000000000e+02 4.485577392578125000e+01 -1.986330604553222656e+01 -3.372390508651733398e+00 2.784298658370971680e-01 -9.281881451606750488e-01 8.961069583892822266e-02
3.690000000000000000e+02 4.105918121337890625e+01 -2.103385925292968750e+01 -6.370292901992797852e-01 -4.186402559280395508e-01 -3.167008757591247559e-01 5.379481315612792969e-01
3.700000000000000000e+02 4.198300170898437500e+01 -2.076494598388671875e+01 -1.502732276916503906e+00 1.727900505065917969e-01 -3.989826738834381104e-01 3.891811966896057129e-01
3.710000000000000000e+02 4.264957046508789062e+01 -2.053101348876953125e+01 -1.933463215827941895e+00 3.279294669628143311e-01 -4.816601276397705078e-01 4.507886171340942383e-01
3.720000000000000000e+02 4.200543975830078125e+01 -2.154659652709960938e+01 -3.859023451805114746e-01 7.677195221185684204e-02 -9.273911267518997192e-02 1.180898994207382202e-01
3.730000000000000000e+02 4.281084060668945312e+01 -2.126075172424316406e+01 -1.194746971130371094e+00 7.863534986972808838e-02 -3.348335027694702148e-01 -4.500655457377433777e-02
3.740000000000000000e+02 4.143973159790039062e+01 -2.146877861022949219e+01 -3.422200679779052734e-01 -6.134187430143356323e-02 -1.210685893893241882e-01 1.633820682764053345e-01
3.750000000000000000e+02 4.140149307250976562e+01 -2.091440773010253906e+01 -9.595532417297363281e-01 -8.759398944675922394e-03 -2.904937863349914551e-01 3.932915031909942627e-01
3.760000000000000000e+02 4.100804138183593750e+01 -2.131018257141113281e+01 -2.971441745758056641e-01 -2.663586139678955078e-01 -1.690508276224136353e-01 2.254268527030944824e-01
3.770000000000000000e+02 4.183971786499023438e+01 -2.302727508544921875e+01 -6.163209211081266403e-03 -1.499050557613372803e-01 -4.682048037648200989e-02 -1.020568795502185822e-02
3.780000000000000000e+02 4.219042205810546875e+01 -2.229762840270996094e+01 -2.598729357123374939e-02 -6.511192768812179565e-02 -2.732976526021957397e-02 -6.983058154582977295e-02
3.790000000000000000e+02 4.326124572753906250e+01 -2.270085716247558594e+01 -1.856133341789245605e-01 -3.001026511192321777e-01 -1.457147896289825439e-01 -3.962477147579193115e-01
3.800000000000000000e+02 4.302730941772460938e+01 -2.199828910827636719e+01 -2.026810646057128906e-01 -1.241278424859046936e-01 -9.804266691207885742e-02 -1.776930689811706543e-01
3.810000000000000000e+02 4.243085479736328125e+01 -2.299776458740234375e+01 -6.264035403728485107e-02 -3.255214691162109375e-01 -1.164485439658164978e-01 -2.052503824234008789e-01
3.820000000000000000e+02 4.490253448486328125e+01 -2.308066368103027344e+01 -3.291094005107879639e-01 -3.607065975666046143e-01 -2.069448083639144897e-01 -7.172012329101562500e-01
3.830000000000000000e+02 4.423300170898437500e+01 -2.428952407836914062e+01 -7.262035459280014038e-02 -5.774044394493103027e-01 -1.950074285268783569e-01 -7.105686068534851074e-01
3.840000000000000000e+02 4.844345855712890625e+01 -2.210049629211425781e+01 -9.754014611244201660e-01 -5.600065365433692932e-02 -3.094206154346466064e-01 -6.224814653396606445e-01
3.850000000000000000e+02 4.631468200683593750e+01 -2.263517379760742188e+01 -6.237080097198486328e-01 -2.133548557758331299e-01 -2.511188387870788574e-01 -7.744733691215515137e-01
3.860000000000000000e+02 4.245638275146484375e+01 -2.828636741638183594e+01 -3.148543834686279297e-01 -2.423614263534545898e+00 -8.215405941009521484e-01 -5.482903718948364258e-01
3.870000000000000000e+02 4.342796707153320312e+01 -3.341590881347656250e+01 1.718089729547500610e-01 -4.784072041511535645e-01 -9.197947382926940918e-02 3.003557026386260986e-01
3.880000000000000000e+02 4.076068115234375000e+01 -3.158868789672851562e+01 -8.498784899711608887e-01 -1.066770315170288086e+00 -5.749946236610412598e-01 -7.178583741188049316e-01
3.890000000000000000e+02 3.501584625244140625e+01 -3.311305236816406250e+01 -2.890009880065917969e-01 -3.764441609382629395e-02 -9.799361974000930786e-02 -9.067948162555694580e-02
3.900000000000000000e+02 3.516151428222656250e+01 -3.477323532104492188e+01 -1.748333573341369629e-01 -1.250136196613311768e-01 -8.995409309864044189e-02 -2.200359851121902466e-01
3.910000000000000000e+02 3.356378555297851562e+01 -3.300593185424804688e+01 -1.372122615575790405e-01 -1.131030265241861343e-02 -4.455677047371864319e-02 -3.661321476101875305e-02
3.920000000000000000e+02 3.071336746215820312e+01 -3.243420028686523438e+01 -2.189948223531246185e-02 -1.695214956998825073e-02 -1.165548991411924362e-02 -2.005168795585632324e-02
3.930000000000000000e+02 2.515383338928222656e+01 -3.164173316955566406e+01 1.659441739320755005e-02 -4.322032909840345383e-03 3.681715577840805054e-03 -2.428240375593304634e-03
3.940000000000000000e+02 1.959762001037597656e+01 -3.145681190490722656e+01 1.449271757155656815e-02 -3.762726439163088799e-03 3.218997502699494362e-03 1.944650139193981886e-04
3.950000000000000000e+02 1.676948547363281250e+01 -3.132827377319335938e+01 9.890547022223472595e-03 -2.339380094781517982e-03 2.265350194647908211e-03 -9.743172558955848217e-04
3.960000000000000000e+02 1.535736370086669922e+01 -3.105732154846191406e+01 7.586525287479162216e-03 2.121269237250089645e-03 2.912338357418775558e-03 6.266497075557708740e-04
3.970000000000000000e+02 1.326425743103027344e+01 -3.215970230102539062e+01 4.566847346723079681e-03 4.988015862181782722e-04 1.519694575108587742e-03 2.266103867441415787e-03
3.980000000000000000e+02 1.153125762939453125e+01 -3.852390289306640625e+01 -1.805631676688790321e-03 4.780520685017108917e-04 -3.982738999184221029e-04 1.952600199729204178e-03
3.990000000000000000e+02 8.784710884094238281e+00 -3.658536911010742188e+01 -2.023546403506770730e-04 3.052340762224048376e-04 3.086383367190137506e-05 1.685434486716985703e-03
4.000000000000000000e+02 1.645312881469726562e+01 -3.589738082885742188e+01 3.186596150044351816e-04 -8.864941191859543324e-04 -1.703503512544557452e-04 3.717748448252677917e-03
4.010000000000000000e+02 2.337994766235351562e+01 -3.612644577026367188e+01 -3.330427920445799828e-03 -6.182498764246702194e-03 -2.853878075256943703e-03 -4.666423425078392029e-03
4.020000000000000000e+02 2.576375389099121094e+01 -3.919539260864257812e+01 1.723282330203801394e-04 -3.308533877134323120e-02 -9.873903356492519379e-03 -1.938329264521598816e-02
4.030000000000000000e+02 4.484151077270507812e+01 -3.956047821044921875e+01 1.520136296749114990e-01 7.693935632705688477e-01 2.764221429824829102e-01 2.477660775184631348e-01
4.040000000000000000e+02 4.929212570190429688e+01 -3.830849838256835938e+01 -2.706454098224639893e-01 2.118257761001586914e+00 5.542837381362915039e-01 6.623926162719726562e-01
4.050000000000000000e+02 5.761564636230468750e+01 -3.469409561157226562e+01 2.284766435623168945e-01 2.618838548660278320e+00 8.541945219039916992e-01 -1.178530693054199219e+00
4.060000000000000000e+02 6.015633392333984375e+01 -3.848350906372070312e+01 -1.609128564596176147e-01 1.005398988723754883e+00 2.533458471298217773e-01 -7.936933040618896484e-01
4.070000000000000000e+02 6.800753021240234375e+01 -3.565414428710937500e+01 -7.214351892471313477e-01 1.532491683959960938e+00 2.433169633150100708e-01 4.863012731075286865e-01
4.080000000000000000e+02 7.612243652343750000e+01 -4.067727661132812500e+01 -1.816082000732421875e-02 8.389667510986328125e+00 2.511451959609985352e+00 -2.555374503135681152e-01
4.090000000000000000e+02 7.786845397949218750e+01 -3.626865768432617188e+01 -1.011611074209213257e-01 8.868248939514160156e+00 2.630126476287841797e+00 -3.566977083683013916e-01
4.100000000000000000e+02 7.930396270751953125e+01 -3.351923370361328125e+01 1.707905717194080353e-02 8.917071342468261719e+00 2.680244922637939453e+00 -2.369589954614639282e-01
4.110000000000000000e+02 7.812012481689453125e+01 -2.949263381958007812e+01 7.936391234397888184e-02 7.483448982238769531e+00 2.268843889236450195e+00 -8.252115249633789062e-01
4.120000000000000000e+02 7.934207916259765625e+01 -2.655299758911132812e+01 5.363938212394714355e-02 6.016500473022460938e+00 1.821042060852050781e+00 -1.173783466219902039e-01
4.130000000000000000e+02 7.284330749511718750e+01 -2.309911537170410156e+01 8.769140243530273438e-01 8.909150123596191406e+00 2.935819149017333984e+00 1.373431682586669922e-01
4.140000000000000000e+02 7.194472503662109375e+01 -2.612664985656738281e+01 6.783393025398254395e-01 1.373985576629638672e+01 4.325458526611328125e+00 -4.162619709968566895e-01
4.150000000000000000e+02 7.141278076171875000e+01 -2.867178916931152344e+01 1.248040556907653809e+00 1.156303882598876953e+01 3.843323945999145508e+00 2.276944637298583984e+00
4.160000000000000000e+02 7.009505462646484375e+01 -3.110182762145996094e+01 6.092852950096130371e-01 3.765568017959594727e+00 1.312456011772155762e+00 1.531876325607299805e+00
4.170000000000000000e+02 6.813648223876953125e+01 -3.316294097900390625e+01 -1.132722854614257812e+00 6.572501063346862793e-01 -1.426418125629425049e-01 -1.330388337373733521e-01
4.180000000000000000e+02 6.415688323974609375e+01 -3.471312713623046875e+01 -2.163541793823242188e+00 -1.997306244447827339e-03 -6.496617794036865234e-01 -4.948694705963134766e-01
4.190000000000000000e+02 6.334980773925781250e+01 -3.713108444213867188e+01 -2.840539813041687012e-01 -5.373901873826980591e-02 -1.013379022479057312e-01 -3.890368044376373291e-01
4.200000000000000000e+02 6.136614227294921875e+01 -3.508304977416992188e+01 -1.602579116821289062e+00 8.984295651316642761e-03 -4.780784249305725098e-01 -2.891289889812469482e-01
4.210000000000000000e+02 5.993548202514648438e+01 -3.490181350708007812e+01 -9.498668909072875977e-01 2.278945147991180420e-01 -2.165917158126831055e-01 -4.498601555824279785e-01
4.220000000000000000e+02 5.870101928710937500e+01 -3.450248336791992188e+01 1.962236613035202026e-01 1.210722208023071289e+00 4.220837652683258057e-01 -1.051528573036193848e+00
4.230000000000000000e+02 5.700457763671875000e+01 -3.346054840087890625e+01 1.011099100112915039e+00 3.478738069534301758e+00 1.346951127052307129e+00 -1.998113870620727539e+00
4.240000000000000000e+02 5.589953994750976562e+01 -3.456454467773437500e+01 -3.739739060401916504e-01 5.489635467529296875e+00 1.534698486328125000e+00 -6.945426464080810547e-01
4.250000000000000000e+02 5.445840072631835938e+01 -3.029492950439453125e+01 2.245738983154296875e+00 6.636778831481933594e+00 2.664755344390869141e+00 4.381389021873474121e-01
4.260000000000000000e+02 5.570785522460937500e+01 -3.052474784851074219e+01 1.341112136840820312e+00 1.131595897674560547e+01 3.797121286392211914e+00 -6.325028836727142334e-02
4.270000000000000000e+02 5.462214660644531250e+01 -2.828479766845703125e+01 1.236610293388366699e+00 7.010398387908935547e+00 2.474102497100830078e+00 5.243033170700073242e-01
4.280000000000000000e+02 5.642267608642578125e+01 -2.787026596069335938e+01 1.773190736770629883e+00 8.370043754577636719e+00 3.042970180511474609e+00 2.718687057495117188e+00
4.290000000000000000e+02 5.719091796875000000e+01 -2.234524345397949219e+01 -4.591151773929595947e-01 5.786557197570800781e+00 1.598232626914978027e+00 -5.519842356443405151e-02
4.300000000000000000e+02 5.582924652099609375e+01 -2.051845932006835938e+01 2.936713099479675293e-01 1.081952285766601562e+01 3.333958387374877930e+00 -8.637337088584899902e-01
4.310000000000000000e+02 5.656764221191406250e+01 -2.043985939025878906e+01 1.983635187149047852e+00 8.206928253173828125e+00 3.057168960571289062e+00 -2.128547430038452148e+00
4.320000000000000000e+02 5.680854797363281250e+01 -1.974627113342285156e+01 5.318786621093750000e+00 5.958256244659423828e+00 3.383112907409667969e+00 -2.407983541488647461e+00
4.330000000000000000e+02 1.072074317932128906e+01 -3.010711860656738281e+01 2.424365375190973282e-03 7.842030026949942112e-05 7.508356939069926739e-04 6.696135387755930424e-04
4.340000000000000000e+02 4.028578281402587891e+00 -2.479296493530273438e+01 3.647432313300669193e-04 -3.670929072541184723e-05 9.841018618317320943e-05 8.855837950250133872e-05
4.350000000000000000e+02 6.796738505363464355e-01 -3.040899848937988281e+01 -5.208851653151214123e-04 5.631750900647602975e-05 -1.393702987115830183e-04 4.403684579301625490e-05
4.360000000000000000e+02 7.338365316390991211e-01 -3.181763076782226562e+01 5.198636208660900593e-04 2.254597202409058809e-04 2.235970023320987821e-04 1.294390094699338078e-04
4.370000000000000000e+02 6.369102597236633301e-01 -3.738740539550781250e+01 6.594731821678578854e-04 1.440579886548221111e-03 6.300159147940576077e-04 1.822640042519196868e-04
4.380000000000000000e+02 2.449785947799682617e+00 -3.782446289062500000e+01 1.680298883002251387e-04 1.375402905978262424e-03 4.630298353731632233e-04 6.486065103672444820e-04
4.390000000000000000e+02 1.052734661102294922e+01 -2.808655738830566406e+01 8.135504904203116894e-04 6.373547366820275784e-04 4.352715914137661457e-04 3.411553334444761276e-04
4.400000000000000000e+02 8.610697746276855469e+00 -2.529195404052734375e+01 5.751824355684220791e-04 -1.507222477812319994e-04 1.273380621569231153e-04 4.497325426200404763e-05
4.410000000000000000e+02 8.598665237426757812e+00 -2.253102111816406250e+01 5.294051370583474636e-04 -2.574668769739218988e-06 1.580491370987147093e-04 -3.591026688809506595e-05
4.420000000000000000e+02 8.830926895141601562e+00 -2.113903427124023438e+01 -5.511163035407662392e-04 7.846543894629576243e-07 -1.650994963711127639e-04 6.144500366644933820e-05
4.430000000000000000e+02 7.725171089172363281e+00 -2.095344352722167969e+01 4.242766881361603737e-04 -3.033628854609560221e-05 1.181821207865141332e-04 2.638061050674878061e-05
4.440000000000000000e+02 8.110007286071777344e+00 -1.957161331176757812e+01 -4.303696623537689447e-04 3.227583874831907451e-05 -1.194281430798582733e-04 5.572223017225041986e-06
4.450000000000000000e+02 1.167223262786865234e+01 -1.576860141754150391e+01 -2.638656042108777910e-05 3.962479604524560273e-05 3.971470505348406732e-06 1.313657703576609492e-04
4.460000000000000000e+02 1.399547290802001953e+01 -1.424656772613525391e+01 -6.376348756020888686e-05 -1.086549527826718986e-04 -5.172553210286423564e-05 6.416879477910697460e-05
4.470000000000000000e+02 1.680832672119140625e+01 -1.350139713287353516e+01 -1.732647069729864597e-05 -1.701377623248845339e-04 -5.623927063425071537e-05 2.218233748862985522e-05
4.480000000000000000e+02 1.952920913696289062e+01 -1.342813587188720703e+01 -3.913337423000484705e-05 -1.375876745441928506e-04 -5.301631244947202504e-05 3.880915028275921941e-05
4.490000000000000000e+02 1.819849395751953125e+01 -1.340936946868896484e+01 1.378975503030233085e-05 1.555318012833595276e-04 5.079646507510915399e-05 -2.676126496226061136e-05
4.500000000000000000e+02 2.078320884704589844e+01 -1.224422264099121094e+01 1.849624823080375791e-05 9.856715041678398848e-05 3.511902104946784675e-05 3.072729441555566154e-06
4.510000000000000000e+02 2.184336662292480469e+01 -1.261109066009521484e+01 2.639769081724807620e-05 2.612605385365895927e-05 1.575712303747422993e-05 -1.419277850800426677e-05
4.520000000000000000e+02 1.773823738098144531e+01 -6.994570255279541016e+00 3.912501415470615029e-05 -4.060297342789453978e-08 1.172532392956782132e-05 4.592419600157882087e-07
4.530000000000000000e+02 1.620864105224609375e+01 -6.406373500823974609e+00 -5.501451596501283348e-05 -7.154045761126326397e-06 -1.865056947281118482e-05 8.125996828312054276e-06
4.540000000000000000e+02 1.340486621856689453e+01 -3.643575668334960938e+00 4.306905975681729615e-05 3.391960490262135863e-05 2.309659976162947714e-05 1.933004750753752887e-05
4.550000000000000000e+02 1.073324775695800781e+01 -2.322664737701416016e+00 3.920167000615037978e-05 6.011667574057355523e-05 2.979550299642141908e-05 1.933729254233185202e-05
4.560000000000000000e+02 1.293753147125244141e+01 -4.213659286499023438e+00 -4.751456071971915662e-05 -4.300506043364293873e-05 -2.715588561841286719e-05 -1.953737410076428205e-05
4.570000000000000000e+02 9.192750930786132812e+00 -1.887358069419860840e+00 2.678287455637473613e-05 6.592678255401551723e-05 2.781289731501601636e-05 2.519985719118267298e-05
4.580000000000000000e+02 3.528217315673828125e+00 -2.059307098388671875e+00 -5.589832289842888713e-05 -6.943964308447903022e-06 -1.885268648038618267e-05 -4.588256342685781419e-05
4.590000000000000000e+02 5.812314152717590332e-01 -1.070528602600097656e+01 -2.158178685931488872e-04 4.486318630370078608e-06 -6.339946412481367588e-05 -4.797195742867188528e-06
4.600000000000000000e+02 1.740834474563598633e+00 -1.075120735168457031e+01 2.495575463399291039e-04 -1.541620122225140221e-06 7.440477202180773020e-05 1.735498153720982373e-05
4.610000000000000000e+02 5.851871967315673828e-01 -1.773247146606445312e+01 3.504946071188896894e-04 3.966099029639735818e-06 1.063382151187397540e-04 1.911999424919486046e-05
4.620000000000000000e+02 9.271489143371582031e+00 -1.980655670166015625e+01 6.176583701744675636e-04 1.169985353044467047e-05 1.888074766611680388e-04 -8.331493881996721029e-05
4.630000000000000000e+02 1.761349320411682129e+00 -1.767346572875976562e+01 -3.937063156627118587e-04 -6.891304110467899591e-06 -1.201792838401161134e-04 -5.498369864653795958e-05
4.640000000000000000e+02 6.159690022468566895e-01 -2.336790657043457031e+01 5.096714594401419163e-04 -3.139214095426723361e-05 1.434837904525920749e-04 5.542088547372259200e-05
4.650000000000000000e+02 7.379717254638671875e+01 -2.582588195800781250e+01 1.384683847427368164e+00 9.565611839294433594e+00 3.285088539123535156e+00 -3.426277935504913330e-01
4.660000000000000000e+02 7.935881805419921875e+01 -2.092346763610839844e+01 1.608545519411563873e-02 6.907806396484375000e+00 2.077167510986328125e+00 2.027447074651718140e-01
4.670000000000000000e+02 6.673705291748046875e+01 -1.069432640075683594e+01 7.581740021705627441e-01 3.674037694931030273e+00 1.329663515090942383e+00 1.244490623474121094e+00
4.680000000000000000e+02 6.575011444091796875e+01 -1.008959007263183594e+01 9.220486879348754883e-01 3.148326635360717773e+00 1.221112608909606934e+00 1.580964922904968262e+00
4.690000000000000000e+02 6.496718597412109375e+01 -1.130585384368896484e+01 1.123210072517395020e+00 2.566297531127929688e+00 1.106852293014526367e+00 1.525725364685058594e+00
4.700000000000000000e+02 6.426261138916015625e+01 -2.005149459838867188e+01 7.736827433109283447e-02 2.810586392879486084e-01 1.075280681252479553e-01 6.662263274192810059e-01
4.710000000000000000e+02 6.938317108154296875e+01 -1.989579582214355469e+01 -2.586159110069274902e-01 3.246773004531860352e+00 8.964471817016601562e-01 -1.765911698341369629e+00
4.720000000000000000e+02 7.003365325927734375e+01 -2.073781204223632812e+01 -8.492059707641601562e-01 4.222610950469970703e+00 1.012021541595458984e+00 -1.908035159111022949e+00
4.730000000000000000e+02 7.055917358398437500e+01 -2.174064826965332031e+01 5.066352486610412598e-01 5.324519157409667969e+00 1.749346375465393066e+00 -2.090255022048950195e+00
4.740000000000000000e+02 7.218688964843750000e+01 -2.209974670410156250e+01 -3.800646662712097168e-01 9.254841804504394531e+00 2.662433385848999023e+00 -4.185604453086853027e-01
4.750000000000000000e+02 7.812798309326171875e+01 -1.546743774414062500e+01 -9.324336051940917969e-02 7.472591400146484375e+00 2.213804483413696289e+00 -3.229079023003578186e-02
4.760000000000000000e+02 7.935848236083984375e+01 -1.259624481201171875e+01 -1.512188650667667389e-02 7.558148384094238281e+00 2.262907981872558594e+00 -9.028746932744979858e-02
4.770000000000000000e+02 6.708560943603515625e+01 -7.565144062042236328e+00 8.301929235458374023e-01 4.761860847473144531e+00 1.677616119384765625e+00 1.900279521942138672e+00
4.780000000000000000e+02 6.767928314208984375e+01 -6.283610343933105469e+00 8.503344655036926270e-01 5.696223258972167969e+00 1.963967323303222656e+00 2.125692605972290039e+00
4.790000000000000000e+02 7.804715728759765625e+01 -8.535599708557128906e+00 -3.124266117811203003e-02 6.821664810180664062e+00 2.037126541137695312e+00 -3.774432539939880371e-01
4.800000000000000000e+02 7.936321258544921875e+01 -5.643033981323242188e+00 -3.104205010458827019e-03 6.121066570281982422e+00 1.835388779640197754e+00 -1.683443933725357056e-01
4.810000000000000000e+02 7.018241882324218750e+01 1.835832595825195312e+00 5.394485592842102051e-01 1.372794723510742188e+01 4.280219078063964844e+00 1.111074686050415039e+00
4.820000000000000000e+02 6.922885894775390625e+01 -2.341257333755493164e+00 8.028741478919982910e-01 9.525149345397949219e+00 3.098407268524169922e+00 2.468100070953369141e+00
4.830000000000000000e+02 6.964377593994140625e+01 -9.798828959465026855e-01 7.188687324523925781e-01 1.104289913177490234e+01 3.528530359268188477e+00 2.423043489456176758e+00
4.840000000000000000e+02 7.809906768798828125e+01 -1.597776651382446289e+00 7.300020009279251099e-02 5.911991596221923828e+00 1.795497536659240723e+00 -3.081499040126800537e-01
4.850000000000000000e+02 7.937220764160156250e+01 2.736735105514526367e+00 3.070866130292415619e-02 4.763077735900878906e+00 1.438135981559753418e+00 1.955892145633697510e-02
4.860000000000000000e+02 7.018217468261718750e+01 7.515662670135498047e+00 3.744399249553680420e-01 1.210603904724121094e+01 3.744143724441528320e+00 -7.227663993835449219e-01
4.870000000000000000e+02 7.147088623046875000e+01 6.082711696624755859e+00 4.051733911037445068e-01 1.093625259399414062e+01 3.402427673339843750e+00 3.254616633057594299e-02
4.880000000000000000e+02 7.815633392333984375e+01 5.464704036712646484e+00 6.768718361854553223e-02 5.959859848022460938e+00 1.808264136314392090e+00 2.953144311904907227e-01
4.890000000000000000e+02 7.936564636230468750e+01 9.717502593994140625e+00 -1.158340927213430405e-02 5.973814964294433594e+00 1.788669466972351074e+00 1.560430079698562622e-01
4.900000000000000000e+02 6.992215728759765625e+01 1.575790500640869141e+01 8.309288881719112396e-03 9.636710166931152344e+00 2.893505811691284180e+00 1.848612427711486816e-01
4.910000000000000000e+02 6.978286743164062500e+01 1.025196838378906250e+01 -1.768593341112136841e-01 8.504606246948242188e+00 2.498323917388916016e+00 -6.054241061210632324e-01
4.920000000000000000e+02 6.998439025878906250e+01 8.895229339599609375e+00 1.051071286201477051e-01 1.023809719085693359e+01 3.102961301803588867e+00 -9.846865534782409668e-01
4.930000000000000000e+02 7.813629913330078125e+01 1.246302986145019531e+01 -2.699386887252330780e-02 6.963101387023925781e+00 2.080832242965698242e+00 3.142049610614776611e-01
4.940000000000000000e+02 7.938973999023437500e+01 1.668653678894042969e+01 -3.571782493963837624e-03 7.149593353271484375e+00 2.143806457519531250e+00 9.825018048286437988e-02
4.950000000000000000e+02 6.987815856933593750e+01 2.417436790466308594e+01 1.538693308830261230e-01 8.619109153747558594e+00 2.631893634796142578e+00 -2.987833321094512939e-01
4.960000000000000000e+02 6.992364501953125000e+01 1.715723800659179688e+01 2.839612215757369995e-02 9.324606895446777344e+00 2.805900812149047852e+00 1.404366940259933472e-01
4.970000000000000000e+02 7.813597106933593750e+01 1.942514610290527344e+01 3.062985837459564209e-02 7.703368186950683594e+00 2.320199489593505859e+00 2.777414619922637939e-01
4.980000000000000000e+02 7.937602996826171875e+01 2.367777061462402344e+01 1.211329549551010132e-02 8.293180465698242188e+00 2.491588354110717773e+00 1.612728536128997803e-01
4.990000000000000000e+02 6.915696716308593750e+01 2.851045799255371094e+01 3.655958771705627441e-01 5.329919338226318359e+00 1.708654522895812988e+00 -1.033245682716369629e+00
5.000000000000000000e+02 6.976167297363281250e+01 2.561292648315429688e+01 2.442035675048828125e-01 8.010737419128417969e+00 2.476482391357421875e+00 -6.650879383087158203e-01
5.010000000000000000e+02 7.691422271728515625e+01 2.370908737182617188e+01 8.170996606349945068e-02 8.176156997680664062e+00 2.477360010147094727e+00 5.235578417778015137e-01
5.020000000000000000e+02 7.939769744873046875e+01 3.058722305297851562e+01 -8.838737383484840393e-03 1.004312038421630859e+01 3.010284423828125000e+00 1.639400571584701538e-01
5.030000000000000000e+02 6.689487457275390625e+01 3.214405059814453125e+01 -4.834531247615814209e-01 5.273900628089904785e-01 1.318107917904853821e-02 1.198608279228210449e-01
5.040000000000000000e+02 6.610825347900390625e+01 3.342439270019531250e+01 -1.106191754341125488e+00 2.326304093003273010e-02 -3.248786032199859619e-01 4.088406860828399658e-01
5.050000000000000000e+02 6.771327209472656250e+01 3.100875282287597656e+01 -9.541182965040206909e-02 1.557657837867736816e+00 4.386737942695617676e-01 -4.736300706863403320e-01
5.060000000000000000e+02 7.936042022705078125e+01 3.196284103393554688e+01 -3.676430555060505867e-03 1.033757400512695312e+01 3.100169181823730469e+00 1.491273790597915649e-01
5.070000000000000000e+02 7.911816406250000000e+01 3.744227218627929688e+01 -4.611732438206672668e-02 1.060020828247070312e+01 3.166227340698242188e+00 -8.774390816688537598e-02
5.080000000000000000e+02 7.202344512939453125e+01 4.124577331542968750e+01 5.074086412787437439e-02 5.613408565521240234e+00 1.699244856834411621e+00 -3.729459131136536598e-03
5.090000000000000000e+02 6.207778167724609375e+01 3.573115158081054688e+01 -1.358594298362731934e+00 -2.325348109006881714e-01 -4.773387312889099121e-01 5.370479822158813477e-01
5.100000000000000000e+02 6.054533767700195312e+01 3.613958358764648438e+01 -1.201817512512207031e+00 -2.375995367765426636e-01 -4.318251311779022217e-01 3.822803795337677002e-01
5.110000000000000000e+02 6.449011993408203125e+01 3.694636535644531250e+01 -3.464279770851135254e-01 -6.387538462877273560e-02 -1.230910122394561768e-01 3.297808766365051270e-01
5.120000000000000000e+02 6.351202774047851562e+01 3.520406723022460938e+01 -1.600723505020141602e+00 -4.008886814117431641e-01 -6.004836559295654297e-01 6.745969057083129883e-01
5.130000000000000000e+02 7.665683746337890625e+01 3.938924026489257812e+01 -9.641435742378234863e-02 9.641417503356933594e+00 2.863500833511352539e+00 1.831768825650215149e-02
5.140000000000000000e+02 5.730907440185546875e+01 3.605629348754882812e+01 -9.256108403205871582e-01 -9.829019755125045776e-02 -3.071703016757965088e-01 3.715142142027616501e-03
5.150000000000000000e+02 5.890010452270507812e+01 3.631835937500000000e+01 -1.148861646652221680e+00 -2.058636099100112915e-01 -4.064176082611083984e-01 2.134141325950622559e-01
5.160000000000000000e+02 5.329093551635742188e+01 3.770956039428710938e+01 -4.355746507644653320e-01 2.602023184299468994e-01 -5.261169746518135071e-02 8.617575466632843018e-02
5.170000000000000000e+02 4.827711105346679688e+01 3.716238403320312500e+01 -4.384745359420776367e-01 8.576952219009399414e-01 1.257662177085876465e-01 1.576892584562301636e-01
5.180000000000000000e+02 4.914036178588867188e+01 3.031360816955566406e+01 2.472324520349502563e-01 6.837684512138366699e-01 2.793002724647521973e-01 4.118293225765228271e-01
5.190000000000000000e+02 5.111381530761718750e+01 3.230027008056640625e+01 2.483699843287467957e-02 2.843676507472991943e-01 9.276139736175537109e-02 1.529184877872467041e-01
5.200000000000000000e+02 4.909681320190429688e+01 3.228717041015625000e+01 -5.299788340926170349e-02 6.918662786483764648e-01 1.916605085134506226e-01 2.510704398155212402e-01
5.210000000000000000e+02 5.339074325561523438e+01 3.432257461547851562e+01 -3.038952052593231201e-01 5.481604114174842834e-02 -7.472375035285949707e-02 -3.254478797316551208e-02
5.220000000000000000e+02 5.597845840454101562e+01 3.543720245361328125e+01 -6.041494011878967285e-01 -1.455231755971908569e-01 -2.249017804861068726e-01 -1.308301240205764771e-01
5.230000000000000000e+02 4.093447113037109375e+01 3.547161865234375000e+01 -4.937599897384643555e-01 1.526872873306274414e+00 3.099338412284851074e-01 -7.263333071023225784e-03
5.240000000000000000e+02 4.352122879028320312e+01 3.747177886962890625e+01 -5.388644337654113770e-01 1.366278886795043945e+00 2.482243329286575317e-01 5.313618108630180359e-02
5.250000000000000000e+02 4.619310760498046875e+01 3.370148086547851562e+01 -3.216212987899780273e-01 1.194090723991394043e+00 2.617408335208892822e-01 1.811326593160629272e-01
5.260000000000000000e+02 4.512619400024414062e+01 2.440650749206542969e+01 4.466509819030761719e-01 2.139398574829101562e+00 7.758148908615112305e-01 9.080269932746887207e-01
5.270000000000000000e+02 4.579964065551757812e+01 2.569348335266113281e+01 4.127211570739746094e-01 1.782134771347045898e+00 6.584568023681640625e-01 8.306145071983337402e-01
5.280000000000000000e+02 4.730106735229492188e+01 2.818037605285644531e+01 3.934086561203002930e-01 1.215722918510437012e+00 4.827394783496856689e-01 6.540178060531616211e-01
5.290000000000000000e+02 4.521828842163085938e+01 3.210530090332031250e+01 -2.332823276519775391e-01 1.365238428115844727e+00 3.395868241786956787e-01 2.168797105550765991e-01
5.300000000000000000e+02 3.766841888427734375e+01 4.052153015136718750e+01 -5.699689388275146484e-01 1.489811420440673828e+00 2.759527564048767090e-01 -2.323772571980953217e-02
5.310000000000000000e+02 3.747830963134765625e+01 3.664164352416992188e+01 -5.030821561813354492e-01 1.527893185615539551e+00 3.074432909488677979e-01 -7.796331495046615601e-02
5.320000000000000000e+02 3.588816070556640625e+01 2.905860519409179688e+01 -1.623988449573516846e-01 1.700304985046386719e+00 4.613718390464782715e-01 -2.351718544960021973e-01
5.330000000000000000e+02 3.978429031372070312e+01 2.342351150512695312e+01 1.441319435834884644e-01 2.394659996032714844e+00 7.616376280784606934e-01 4.475330561399459839e-02
5.340000000000000000e+02 3.895664215087890625e+01 1.550062847137451172e+01 5.413304567337036133e-01 3.397913217544555664e+00 1.181773066520690918e+00 -3.696987628936767578e-01
5.350000000000000000e+02 3.954079818725585938e+01 1.131934738159179688e+01 9.646619558334350586e-01 3.922223567962646484e+00 1.466065645217895508e+00 -7.580941915512084961e-01
5.360000000000000000e+02 3.759126281738281250e+01 5.791147708892822266e+00 9.184313416481018066e-01 2.586689472198486328e+00 1.051536202430725098e+00 -6.121523380279541016e-01
5.370000000000000000e+02 3.931438064575195312e+01 -2.806058645248413086e+00 5.344809293746948242e-01 1.830892562866210938e+00 7.096120715141296387e-01 -7.412070035934448242e-01
5.380000000000000000e+02 3.587821960449218750e+01 -1.484543800354003906e+01 -1.442230820655822754e+00 -3.950925171375274658e-01 -5.511969923973083496e-01 9.426584243774414062e-01
5.390000000000000000e+02 3.542031860351562500e+01 -1.797768783569335938e+01 -3.204195499420166016e+00 -6.635835766792297363e-02 -9.811661243438720703e-01 3.620148599147796631e-01
5.400000000000000000e+02 3.676646804809570312e+01 -1.705903053283691406e+01 -2.827878952026367188e+00 -6.619425415992736816e-01 -1.046946406364440918e+00 1.074432730674743652e+00
5.410000000000000000e+02 3.796616744995117188e+01 -1.822359657287597656e+01 -4.480367183685302734e+00 -9.094858765602111816e-01 -1.616955995559692383e+00 1.477089166641235352e+00
5.420000000000000000e+02 4.472706985473632812e+01 -1.915539169311523438e+01 -3.093444108963012695e+00 4.107843637466430664e-01 -8.047979474067687988e-01 4.977640211582183838e-01
5.430000000000000000e+02 4.623564910888671875e+01 -1.878660392761230469e+01 -3.504631042480468750e+00 2.642701566219329834e-01 -9.721082448959350586e-01 3.692684471607208252e-01
5.440000000000000000e+02 5.002384567260742188e+01 -1.797606277465820312e+01 -3.404132127761840820e+00 4.533116817474365234e-01 -8.852460980415344238e-01 -4.833684265613555908e-01
5.450000000000000000e+02 5.072982788085937500e+01 -1.012676143646240234e+01 1.309339523315429688e+00 6.671665191650390625e+00 2.394301414489746094e+00 -2.618398904800415039e+00
5.460000000000000000e+02 5.042039871215820312e+01 -8.711979866027832031e+00 7.816491127014160156e-01 6.001914501190185547e+00 2.035068988800048828e+00 -2.151818513870239258e+00
5.470000000000000000e+02 4.841401290893554688e+01 -6.161397457122802734e+00 8.078342676162719727e-01 4.305978775024414062e+00 1.534143924713134766e+00 -1.911412715911865234e+00
5.480000000000000000e+02 4.878707504272460938e+01 -3.412831068038940430e+00 5.637045502662658691e-01 4.216014862060546875e+00 1.433915734291076660e+00 -1.632264733314514160e+00
5.490000000000000000e+02 4.406550216674804688e+01 3.693173170089721680e+00 8.626800179481506348e-01 3.839733839035034180e+00 1.410724163055419922e+00 -1.817967534065246582e+00
5.500000000000000000e+02 4.456139755249023438e+01 5.265790939331054688e+00 1.212222218513488770e+00 4.144458770751953125e+00 1.607004284858703613e+00 -2.192742109298706055e+00
5.510000000000000000e+02 4.390067672729492188e+01 6.492789745330810547e+00 1.235000014305114746e+00 4.773767948150634766e+00 1.802630424499511719e+00 -2.247989654541015625e+00
5.520000000000000000e+02 4.276022338867187500e+01 9.076190948486328125e+00 9.544041156768798828e-01 6.241686820983886719e+00 2.158827304840087891e+00 -1.945854783058166504e+00
5.530000000000000000e+02 4.236983871459960938e+01 1.045293521881103516e+01 6.098482608795166016e-01 6.764021873474121094e+00 2.212161064147949219e+00 -1.183561444282531738e+00
5.540000000000000000e+02 3.800321578979492188e+01 1.417806243896484375e+01 7.305370569229125977e-01 3.145882844924926758e+00 1.162925958633422852e+00 -5.417562723159790039e-01
5.550000000000000000e+02 3.263865280151367188e+01 4.046503829956054688e+01 -4.638263285160064697e-01 1.341372370719909668e+00 2.632638216018676758e-01 -5.608073249459266663e-02
5.560000000000000000e+02 2.759438896179199219e+01 4.050447845458984375e+01 -3.322705626487731934e-01 1.030905127525329590e+00 2.095903754234313965e-01 -5.762933567166328430e-02
5.570000000000000000e+02 3.159957695007324219e+01 3.102759170532226562e+01 -1.891448646783828735e-01 1.342809796333312988e+00 3.460994958877563477e-01 -2.849153280258178711e-01
5.580000000000000000e+02 3.029146575927734375e+01 2.265876770019531250e+01 3.403828442096710205e-01 1.200318574905395508e+00 4.622104167938232422e-01 -4.598203301429748535e-01
5.590000000000000000e+02 3.274818420410156250e+01 2.057080841064453125e+01 4.334350824356079102e-01 1.552371025085449219e+00 5.957418084144592285e-01 -4.833631515502929688e-01
5.600000000000000000e+02 3.296973419189453125e+01 1.104716110229492188e+01 9.653709530830383301e-01 1.478615880012512207e+00 7.331960797309875488e-01 -4.870812296867370605e-01
5.610000000000000000e+02 3.165771484375000000e+01 5.795932292938232422e+00 7.615731358528137207e-01 9.658595919609069824e-01 5.182298421859741211e-01 -2.411730587482452393e-01
5.620000000000000000e+02 2.885354042053222656e+01 -5.678670406341552734e+00 -5.333921313285827637e-01 -1.328208595514297485e-01 -1.998638957738876343e-01 6.599715352058410645e-01
5.630000000000000000e+02 2.544672393798828125e+01 -1.153989887237548828e+01 -8.311476111412048340e-01 -9.541363716125488281e-01 -5.355851650238037109e-01 1.022106885910034180e+00
5.640000000000000000e+02 2.752037620544433594e+01 -1.645621299743652344e+01 -8.549032211303710938e-01 -2.147043198347091675e-01 -3.208822607994079590e-01 4.680043756961822510e-01
5.650000000000000000e+02 2.925944137573242188e+01 -1.691348075866699219e+01 -1.124294996261596680e+00 -1.833415776491165161e-01 -3.922909796237945557e-01 5.265969038009643555e-01
5.660000000000000000e+02 3.155794143676757812e+01 -1.769084930419921875e+01 -1.485929846763610840e+00 -2.084859833121299744e-02 -4.520335495471954346e-01 3.864292204380035400e-01
5.670000000000000000e+02 1.771491813659667969e+01 4.054662322998046875e+01 -1.127984598278999329e-01 1.863065063953399658e-01 2.205241098999977112e-02 -2.933351881802082062e-02
5.680000000000000000e+02 2.261749267578125000e+01 4.067480087280273438e+01 -2.033274918794631958e-01 6.173102855682373047e-01 1.241948381066322327e-01 -3.719959408044815063e-02
5.690000000000000000e+02 2.325057411193847656e+01 3.033962440490722656e+01 2.091712877154350281e-02 5.653589963912963867e-01 1.758828461170196533e-01 -2.530626952648162842e-01
5.700000000000000000e+02 2.347508811950683594e+01 2.053172111511230469e+01 4.526795446872711182e-01 3.146191537380218506e-01 2.301896214485168457e-01 -2.769415080547332764e-01
5.710000000000000000e+02 2.643404579162597656e+01 1.478758430480957031e+01 7.385541796684265137e-01 4.440063238143920898e-01 3.547681570053100586e-01 -3.271774351596832275e-01
5.720000000000000000e+02 2.462167358398437500e+01 9.823158264160156250e+00 6.924099326133728027e-01 -3.871401771903038025e-02 1.961087733507156372e-01 -8.885441720485687256e-02
5.730000000000000000e+02 2.087287139892578125e+01 -3.344478011131286621e-01 -5.155937075614929199e-01 -1.015422105789184570e+00 -4.593047797679901123e-01 6.564292311668395996e-01
5.740000000000000000e+02 1.929390525817871094e+01 -3.326718807220458984e+00 -1.331703543663024902e+00 -1.410547733306884766e+00 -8.226754069328308105e-01 1.210408806800842285e+00
5.750000000000000000e+02 1.988101196289062500e+01 -3.881222486495971680e+00 -1.333533167839050293e+00 -1.468661904335021973e+00 -8.406585454940795898e-01 1.238584637641906738e+00
5.760000000000000000e+02 2.205089569091796875e+01 -6.249787807464599609e+00 -1.233814597129821777e+00 -1.569222092628479004e+00 -8.409110307693481445e-01 1.254271149635314941e+00
5.770000000000000000e+02 2.301786422729492188e+01 -7.517700195312500000e+00 -1.143178701400756836e+00 -1.529364109039306641e+00 -8.017628788948059082e-01 1.218797922134399414e+00
5.780000000000000000e+02 2.347156143188476562e+01 -8.171184539794921875e+00 -1.098477125167846680e+00 -1.480008006095886230e+00 -7.735455036163330078e-01 1.190810203552246094e+00
5.790000000000000000e+02 1.499528884887695312e+01 3.089795875549316406e+01 5.361678451299667358e-02 -1.145317107439041138e-01 -1.827447861433029175e-02 -8.119441568851470947e-02
5.800000000000000000e+02 1.436400985717773438e+01 2.554653167724609375e+01 1.685108393430709839e-01 -2.518092989921569824e-01 -2.498953789472579956e-02 -4.160159826278686523e-02
5.810000000000000000e+02 1.479636001586914062e+01 1.880183792114257812e+01 3.350384235382080078e-01 -3.893735706806182861e-01 -1.630054786801338196e-02 7.972349971532821655e-02
5.820000000000000000e+02 1.696336364746093750e+01 7.583483219146728516e+00 2.680049538612365723e-01 -7.417119145393371582e-01 -1.421120911836624146e-01 4.059716761112213135e-01
5.830000000000000000e+02 1.087216186523437500e+01 1.815167307853698730e+00 -6.759368181228637695e-01 -4.716846346855163574e-01 -3.442864418029785156e-01 5.880947113037109375e-01
5.840000000000000000e+02 1.397291088104248047e+01 3.055748939514160156e-01 -1.064107060432434082e+00 -7.471542954444885254e-01 -5.433784127235412598e-01 8.407434225082397461e-01
5.850000000000000000e+02 1.510621166229248047e+01 4.980121254920959473e-01 -9.087860584259033203e-01 -8.970157504081726074e-01 -5.417405366897583008e-01 8.573172688484191895e-01
5.860000000000000000e+02 1.581490612030029297e+01 8.028590679168701172e-02 -9.538652896881103516e-01 -9.746069312095642090e-01 -5.785416364669799805e-01 8.974884152412414551e-01
5.870000000000000000e+02 1.739697647094726562e+01 -1.824079155921936035e+00 -1.299041032791137695e+00 -1.189083695411682129e+00 -7.464374303817749023e-01 1.118919491767883301e+00
5.880000000000000000e+02 1.279389286041259766e+01 4.069050598144531250e+01 -5.610184744000434875e-02 -1.983249634504318237e-01 -7.632804661989212036e-02 -1.899564079940319061e-02
5.890000000000000000e+02 4.951339721679687500e+00 4.032728958129882812e+01 -1.879986934363842010e-02 -8.662726879119873047e-01 -2.655217647552490234e-01 1.218835730105638504e-02
5.900000000000000000e+02 7.362651824951171875e+00 3.107104301452636719e+01 2.311473712325096130e-02 -6.662413477897644043e-01 -1.929379850625991821e-01 -2.314936183393001556e-02
5.910000000000000000e+02 7.869062423706054688e+00 2.377623367309570312e+01 8.980406075716018677e-02 -6.761816740036010742e-01 -1.759132891893386841e-01 6.420123577117919922e-02
5.920000000000000000e+02 7.528102874755859375e+00 1.530969047546386719e+01 1.369995325803756714e-01 -6.596844196319580078e-01 -1.568054705858230591e-01 2.783382534980773926e-01
5.930000000000000000e+02 8.438010215759277344e+00 8.448404312133789062e+00 1.949052326381206512e-02 -5.485865473747253418e-01 -1.587288081645965576e-01 4.758651554584503174e-01
5.940000000000000000e+02 6.263475894927978516e+00 1.862978696823120117e+00 -2.647825777530670166e-01 -5.912642180919647217e-02 -9.717269986867904663e-02 1.893914490938186646e-01
5.950000000000000000e+02 1.167909622192382812e+01 1.412911653518676758e+00 -8.054187893867492676e-01 -5.363141894340515137e-01 -4.025198817253112793e-01 6.315937042236328125e-01
5.960000000000000000e+02 2.009088277816772461e+00 4.163932418823242188e+01 -3.405927866697311401e-02 -1.068986296653747559e+00 -3.309136927127838135e-01 -9.658557362854480743e-03
5.970000000000000000e+02 4.480169773101806641e+00 3.761203002929687500e+01 1.049466058611869812e-02 -9.124954938888549805e-01 -2.706002593040466309e-01 8.778147399425506592e-03
5.980000000000000000e+02 2.086273193359375000e+00 3.587339019775390625e+01 6.530759390443563461e-03 -1.076811432838439941e+00 -3.210842013359069824e-01 -2.724072895944118500e-02
5.990000000000000000e+02 2.077814102172851562e+00 2.887364768981933594e+01 5.553326103836297989e-03 -1.085725903511047363e+00 -3.240517675876617432e-01 1.849910011515021324e-03
6.000000000000000000e+02 1.908652186393737793e+00 2.319025230407714844e+01 7.502760738134384155e-03 -1.056478738784790039e+00 -3.146927952766418457e-01 3.125207126140594482e-02
6.010000000000000000e+02 1.806639671325683594e+00 1.752230072021484375e+01 1.092292461544275284e-02 -9.103765487670898438e-01 -2.698360979557037354e-01 7.984343916177749634e-02
6.020000000000000000e+02 5.564501285552978516e-01 6.382633209228515625e+00 -4.630577750504016876e-03 -1.710552275180816650e-01 -5.270574241876602173e-02 4.264971241354942322e-02
6.030000000000000000e+02 1.882259368896484375e+00 9.063840866088867188e+00 -9.742442052811384201e-04 -4.116595685482025146e-01 -1.237901449203491211e-01 1.537013202905654907e-01
6.040000000000000000e+02 4.829291820526123047e+00 2.670486688613891602e+00 -1.616566777229309082e-01 -8.973564207553863525e-02 -7.541769742965698242e-02 1.685672551393508911e-01
6.050000000000000000e+02 4.069352722167968750e+01 -2.041297721862792969e+01 -1.252585291862487793e+00 -3.337804675102233887e-01 -4.759097099304199219e-01 7.896482944488525391e-01
6.060000000000000000e+02 4.033053588867187500e+01 -2.045968627929687500e+01 -1.002198338508605957e+00 -8.611750006675720215e-01 -5.590119957923889160e-01 9.848794341087341309e-01
6.070000000000000000e+02 5.075012969970703125e+01 -1.794124984741210938e+01 -3.188716888427734375e+00 5.160896182060241699e-01 -8.017881512641906738e-01 -8.833556175231933594e-01
6.080000000000000000e+02 5.207157135009765625e+01 -1.776702690124511719e+01 -2.148992538452148438e+00 1.124077081680297852e+00 -3.074746429920196533e-01 -2.616143941879272461e+00
6.090000000000000000e+02 5.471750259399414062e+01 -1.723664665222167969e+01 -3.075834751129150391e+00 8.154815673828125000e+00 1.523694396018981934e+00 -8.711284637451171875e+00
6.100000000000000000e+02 5.617180633544921875e+01 -1.734637641906738281e+01 -5.842155218124389648e-01 4.943959236145019531e+00 1.307923078536987305e+00 -2.601632773876190186e-01
6.110000000000000000e+02 5.930091476440429688e+01 -1.587831211090087891e+01 -1.209769725799560547e+00 4.446087777614593506e-01 -2.295482903718948364e-01 7.662964463233947754e-01
6.120000000000000000e+02 6.434712219238281250e+01 -2.126943016052246094e+01 -5.537114143371582031e-01 1.043911948800086975e-01 -1.347960680723190308e-01 1.705354154109954834e-01
6.130000000000000000e+02 6.197014236450195312e+01 -2.313525772094726562e+01 -1.116103768348693848e+00 -3.018412590026855469e-01 -4.253835082054138184e-01 -4.426027238368988037e-01
6.140000000000000000e+02 6.322294998168945312e+01 -2.284746170043945312e+01 -9.305201172828674316e-01 -1.157082021236419678e-01 -3.138684928417205811e-01 -2.019435167312622070e-01
6.150000000000000000e+02 6.075803756713867188e+01 -2.218858718872070312e+01 5.788052082061767578e-01 2.762792706489562988e-01 2.565253376960754395e-01 2.224402427673339844e-01
6.160000000000000000e+02 6.079972076416015625e+01 -2.359672927856445312e+01 -9.439460039138793945e-01 -1.546348482370376587e-01 -3.295742571353912354e-01 -4.470550119876861572e-01
6.170000000000000000e+02 5.293328475952148438e+01 -2.106104660034179688e+01 -2.851682603359222412e-01 1.767629384994506836e+00 4.447383582592010498e-01 1.488109111785888672e+00
6.180000000000000000e+02 5.050924301147460938e+01 -2.225792694091796875e+01 -6.481976509094238281e-01 6.145706176757812500e-01 -1.008809823542833328e-02 3.679615259170532227e-02
6.190000000000000000e+02 5.382955169677734375e+01 -3.146364212036132812e+01 1.751212477684020996e+00 5.469277858734130859e+00 2.166147232055664062e+00 9.520015716552734375e-01
6.200000000000000000e+02 4.331020736694335938e+01 -3.160809135437011719e+01 -2.359345406293869019e-01 -6.249658465385437012e-01 -2.582701146602630615e-01 1.276484131813049316e-01
6.210000000000000000e+02 6.566967010498046875e+01 -2.204667091369628906e+01 -1.367367148399353027e+00 -1.439592838287353516e-01 -4.533979594707489014e-01 -4.112474620342254639e-01
6.220000000000000000e+02 6.692833709716796875e+01 -2.158529281616210938e+01 -2.287949323654174805e+00 -2.105846703052520752e-01 -7.495601773262023926e-01 -4.132857620716094971e-01
6.230000000000000000e+02 6.446273040771484375e+01 -2.254404449462890625e+01 -8.969545960426330566e-01 3.415786474943161011e-02 -2.588390111923217773e-01 -2.252886295318603516e-01
6.240000000000000000e+02 5.647853088378906250e+01 -1.648330307006835938e+01 -9.725194931030273438e+00 5.463686585426330566e-01 -2.753647804260253906e+00 8.277831077575683594e-01
6.250000000000000000e+02 4.705439376831054688e+01 -2.371794462203979492e+00 6.304191350936889648e-01 3.659465789794921875e+00 1.286965489387512207e+00 -1.759867429733276367e+00
6.260000000000000000e+02 4.123859405517578125e+01 1.021750354766845703e+01 1.028998494148254395e+00 5.045733928680419922e+00 1.822419762611389160e+00 -9.644080400466918945e-01
6.270000000000000000e+02 4.242308425903320312e+01 1.624549865722656250e+01 2.695305645465850830e-01 4.599063396453857422e+00 1.460578203201293945e+00 5.041711330413818359e-01
6.280000000000000000e+02 4.219871902465820312e+01 2.092114448547363281e+01 2.788889706134796143e-01 3.037170410156250000e+00 9.948177933692932129e-01 5.410720109939575195e-01
6.290000000000000000e+02 4.451291656494140625e+01 2.309882354736328125e+01 4.374727308750152588e-01 2.571203708648681641e+00 9.026029109954833984e-01 9.538725614547729492e-01
6.300000000000000000e+02 3.942014694213867188e+01 2.735013961791992188e+01 -7.837421447038650513e-02 1.961973071098327637e+00 5.650796294212341309e-01 -5.513438582420349121e-02
6.310000000000000000e+02 6.828339385986328125e+01 -2.139132118225097656e+01 -1.631377577781677246e+00 2.884067893028259277e-01 -4.028912484645843506e-01 -6.494613885879516602e-01
6.320000000000000000e+02 2.139564132690429688e+01 -3.650873184204101562e+01 -4.180088639259338379e-03 -9.279747493565082550e-03 -4.037951119244098663e-03 1.097776228561997414e-03
6.330000000000000000e+02 2.655193519592285156e+01 -3.175961494445800781e+01 1.631586439907550812e-02 4.333515651524066925e-03 6.194813642650842667e-03 -1.113591948524117470e-03
6.340000000000000000e+02 3.137161064147949219e+01 -3.744190216064453125e+01 -5.869914777576923370e-03 -9.224133193492889404e-02 -2.943337336182594299e-02 -8.607493340969085693e-02
6.350000000000000000e+02 3.199729347229003906e+01 -3.506032180786132812e+01 -6.432790309190750122e-02 -5.654653161764144897e-02 -3.626232966780662537e-02 -9.227325767278671265e-02
6.360000000000000000e+02 4.657687759399414062e+01 -3.731303024291992188e+01 4.989339038729667664e-02 1.299282670021057129e+00 4.047528207302093506e-01 6.244336962699890137e-01
6.370000000000000000e+02 4.161053466796875000e+01 -3.354362106323242188e+01 2.400520816445350647e-02 -8.321854472160339355e-01 -2.424540817737579346e-01 -1.299004405736923218e-01
6.380000000000000000e+02 3.721445083618164062e+01 -3.885144805908203125e+01 2.230070978403091431e-01 -2.620978951454162598e-01 -1.172724179923534393e-02 -1.518915742635726929e-01
6.390000000000000000e+02 4.767231750488281250e+01 -3.550839614868164062e+01 1.558430790901184082e-01 1.399152636528015137e+00 4.664987325668334961e-01 8.291125893592834473e-01
6.400000000000000000e+02 5.286936950683593750e+01 -3.093595314025878906e+01 1.677536845207214355e+00 4.580304622650146484e+00 1.877352356910705566e+00 7.500793337821960449e-01
6.410000000000000000e+02 5.537780380249023438e+01 -3.771750640869140625e+01 -8.731175661087036133e-01 3.276932954788208008e+00 7.211446166038513184e-01 -2.484137564897537231e-01
6.420000000000000000e+02 7.046773529052734375e+01 -3.528179168701171875e+01 -1.043135285377502441e+00 4.216423034667968750e+00 9.519862532615661621e-01 7.634623050689697266e-01
6.430000000000000000e+02 7.022699737548828125e+01 -3.313545227050781250e+01 -1.007337808609008789e+00 4.082454681396484375e+00 9.225350618362426758e-01 8.172106742858886719e-01
6.440000000000000000e+02 6.546839904785156250e+01 -3.451476287841796875e+01 -2.105448246002197266e+00 -1.787185817956924438e-01 -6.852500438690185547e-01 -4.216884970664978027e-01
6.450000000000000000e+02 7.145462799072265625e+01 -3.405852508544921875e+01 -1.142663121223449707e+00 5.314383983612060547e+00 1.251516222953796387e+00 5.575202703475952148e-01
6.460000000000000000e+02 1.210373020172119141e+01 -1.397366619110107422e+01 -1.254618109669536352e-04 -5.654584128933493048e-06 -3.933491825591772795e-05 8.662110485602170229e-05
6.470000000000000000e+02 1.227371788024902344e+01 -1.231787681579589844e+01 -1.685630704741925001e-04 -9.649433195590972900e-06 -5.346375110093504190e-05 1.087257987819612026e-05
6.480000000000000000e+02 4.638954925537109375e+01 -8.658140182495117188e+00 1.290000796318054199e+00 2.772949218750000000e+00 1.218884944915771484e+00 -1.804563522338867188e+00
6.490000000000000000e+02 3.607381057739257812e+01 -1.379200839996337891e+01 -1.077480792999267578e+00 -3.073490858078002930e-01 -4.154489636421203613e-01 8.934279084205627441e-01
6.500000000000000000e+02 3.777779006958007812e+01 2.820785713195800781e+01 -1.343283802270889282e-01 1.858993768692016602e+00 5.173996090888977051e-01 -1.626092344522476196e-01
6.510000000000000000e+02 2.621744728088378906e+01 3.321726226806640625e+01 -1.415045857429504395e-01 8.804466724395751953e-01 2.216826230287551880e-01 -2.409082055091857910e-01
6.520000000000000000e+02 2.452402687072753906e+01 2.818079566955566406e+01 9.090818464756011963e-02 6.413988471031188965e-01 2.196921110153198242e-01 -2.978706955909729004e-01
6.530000000000000000e+02 1.308549594879150391e+01 2.972150230407714844e+01 6.802140176296234131e-02 -2.852295041084289551e-01 -6.516242772340774536e-02 -5.921582132577896118e-02
6.540000000000000000e+02 1.635785865783691406e+01 2.610901260375976562e+01 1.765142530202865601e-01 -9.675298631191253662e-02 2.392837777733802795e-02 -9.597918391227722168e-02
6.550000000000000000e+02 2.606135559082031250e+01 2.160233306884765625e+01 4.154430031776428223e-01 6.511303186416625977e-01 3.199720084667205811e-01 -3.764238655567169189e-01
6.560000000000000000e+02 3.234056854248046875e+01 2.264623832702636719e+01 3.046370744705200195e-01 1.479012608528137207e+00 5.350949168205261230e-01 -4.527773857116699219e-01
6.570000000000000000e+02 2.212929487228393555e+00 3.172078514099121094e+01 2.483517164364457130e-03 -1.075541973114013672e+00 -3.219175338745117188e-01 -5.562093108892440796e-03
6.580000000000000000e+02 7.201973724365234375e+01 3.108815956115722656e+01 -5.185163021087646484e-01 6.356478214263916016e+00 1.751388549804687500e+00 3.929687738418579102e-01
6.590000000000000000e+02 6.786168098449707031e+00 1.831072807312011719e+01 1.081156879663467407e-01 -7.096049189567565918e-01 -1.804467737674713135e-01 1.882708370685577393e-01
6.600000000000000000e+02 1.310200977325439453e+01 1.750484085083007812e+01 3.049629926681518555e-01 -5.038045048713684082e-01 -5.965244770050048828e-02 1.644916385412216187e-01
6.610000000000000000e+02 2.713622856140136719e+01 1.868100929260253906e+01 5.779710412025451660e-01 6.857188344001770020e-01 3.791069686412811279e-01 -3.970845341682434082e-01
6.620000000000000000e+02 3.188436317443847656e+01 1.687194824218750000e+01 6.900398731231689453e-01 1.431947708129882812e+00 6.365962624549865723e-01 -5.208973884582519531e-01
6.630000000000000000e+02 4.312090301513671875e+01 1.904632949829101562e+01 2.708852589130401611e-01 3.567885875701904297e+00 1.151631355285644531e+00 8.210121989250183105e-01
6.640000000000000000e+02 3.753701019287109375e+01 1.629863166809082031e+01 6.007871031761169434e-01 2.782742261886596680e+00 1.015058755874633789e+00 -4.396815299987792969e-01
6.650000000000000000e+02 6.136068344116210938e+00 1.178032970428466797e+01 6.792744249105453491e-02 -5.973474383354187012e-01 -1.588260084390640259e-01 3.418956696987152100e-01
6.660000000000000000e+02 1.416277599334716797e+01 7.280964851379394531e+00 1.269833147525787354e-01 -7.599926590919494629e-01 -1.899028122425079346e-01 5.243770480155944824e-01
6.670000000000000000e+02 2.097368431091308594e+01 8.221012115478515625e+00 4.739929735660552979e-01 -4.935050606727600098e-01 -5.853626877069473267e-03 1.678082346916198730e-01
6.680000000000000000e+02 3.199173545837402344e+01 1.227972888946533203e+01 9.228491783142089844e-01 1.302137613296508789e+00 6.674960851669311523e-01 -4.862578809261322021e-01
6.690000000000000000e+02 1.767879247665405273e+00 1.611975097656250000e+01 1.042230241000652313e-02 -8.512628674507141113e-01 -2.522521615028381348e-01 9.332735091447830200e-02
6.700000000000000000e+02 2.034341239929199219e+01 1.449780613183975220e-01 -4.710725843906402588e-01 -1.025792241096496582e+00 -4.490594565868377686e-01 6.527341604232788086e-01
6.710000000000000000e+02 2.806210327148437500e+01 -7.087541818618774414e-01 -4.910156875848770142e-02 -2.254129946231842041e-02 -2.149285934865474701e-02 2.707963883876800537e-01
6.720000000000000000e+02 4.058057785034179688e+01 2.632774829864501953e+00 6.687856912612915039e-01 3.071763277053833008e+00 1.122164726257324219e+00 -1.049623727798461914e+00
6.730000000000000000e+02 2.684439468383789062e+01 -5.480908393859863281e+00 -6.961317658424377441e-01 -4.476699531078338623e-01 -3.431405127048492432e-01 7.245986461639404297e-01
6.740000000000000000e+02 3.919797897338867188e+01 -6.021268844604492188e+00 4.727714359760284424e-01 1.154697299003601074e+00 4.882406294345855713e-01 -4.638032913208007812e-01
6.750000000000000000e+02 4.583767700195312500e+01 -2.625664949417114258e+00 6.817677617073059082e-01 3.401688337326049805e+00 1.225036859512329102e+00 -1.729572296142578125e+00
6.760000000000000000e+02 4.529734802246093750e+01 -1.432556509971618652e+00 6.558398008346557617e-01 3.346791028976440430e+00 1.200789332389831543e+00 -1.668737888336181641e+00
6.770000000000000000e+02 2.742329216003417969e+01 -1.203404426574707031e+01 -8.733224868774414062e-01 -4.900162518024444580e-01 -4.090016186237335205e-01 1.046854376792907715e+00
6.780000000000000000e+02 4.623757171630859375e+01 -7.528853416442871094e+00 1.082428216934204102e+00 2.956750392913818359e+00 1.211753606796264648e+00 -1.810927391052246094e+00
6.790000000000000000e+02 4.595999526977539062e+01 -2.457787132263183594e+01 -4.293875396251678467e-02 -3.068515956401824951e-01 -1.049371063709259033e-01 -8.103407025337219238e-01
6.800000000000000000e+02 3.937712097167968750e+01 -3.224973297119140625e+01 -8.276462554931640625e-01 -4.908928871154785156e-01 -3.955617547035217285e-01 -5.412994027137756348e-01
6.810000000000000000e+02 3.797536468505859375e+01 -3.277740097045898438e+01 -6.958489418029785156e-01 -2.502814531326293945e-01 -2.838391065597534180e-01 -3.553509414196014404e-01
6.820000000000000000e+02 3.213679504394531250e+01 -3.278334045410156250e+01 -6.500663608312606812e-02 1.244683749973773956e-02 -1.576793938875198364e-02 -2.637021429836750031e-02
6.830000000000000000e+02 2.621533012390136719e+01 -3.352825164794921875e+01 -2.746509853750467300e-03 -7.822852581739425659e-03 -3.170808777213096619e-03 -8.217386901378631592e-03
6.840000000000000000e+02 2.375460815429687500e+01 -3.153931045532226562e+01 1.692806929349899292e-02 2.679788041859865189e-03 5.882357247173786163e-03 3.898881550412625074e-04
6.850000000000000000e+02 2.198001289367675781e+01 -3.296486663818359375e+01 8.649624884128570557e-03 2.516395179554820061e-03 3.349805949255824089e-03 9.764778660610318184e-04
6.860000000000000000e+02 2.099029159545898438e+01 -3.144323158264160156e+01 1.604407653212547302e-02 3.586098318919539452e-03 5.889052525162696838e-03 1.633685315027832985e-03
6.870000000000000000e+02 2.237984657287597656e+01 -3.144228935241699219e+01 1.624000631272792816e-02 -3.735578153282403946e-03 3.751328215003013611e-03 -7.779375300742685795e-05
6.880000000000000000e+02 1.818729209899902344e+01 -3.144732856750488281e+01 1.286708936095237732e-02 3.720596665516495705e-03 4.976305644959211349e-03 1.823780243285000324e-03
6.890000000000000000e+02 1.397292041778564453e+01 -3.061066627502441406e+01 4.388129804283380508e-03 -9.500417509116232395e-04 1.031426480039954185e-03 -1.350290607661008835e-03
6.900000000000000000e+02 1.268014717102050781e+01 -2.992182540893554688e+01 3.120668465271592140e-03 1.101504894904792309e-03 1.266652019694447517e-03 7.295269460882991552e-05
6.910000000000000000e+02 9.569985389709472656e+00 -2.719381904602050781e+01 -1.599758688826113939e-04 -8.340282947756350040e-04 -2.982012520078569651e-04 -4.340016457717865705e-04
6.920000000000000000e+02 8.530854225158691406e+00 -2.394014167785644531e+01 -5.601992597803473473e-04 -8.456662908429279923e-05 -1.934297761181369424e-04 7.728450873401015997e-05
6.930000000000000000e+02 9.811136245727539062e+00 -1.855657958984375000e+01 -6.427410989999771118e-04 2.252643298561451957e-06 -1.921465445775538683e-04 1.380342873744666576e-04
6.940000000000000000e+02 1.036392211914062500e+01 -1.618735122680664062e+01 -6.125379004515707493e-04 -1.504892279626801610e-04 -2.289081458002328873e-04 -6.906475755386054516e-05
6.950000000000000000e+02 1.277992820739746094e+01 -1.502013587951660156e+01 4.525838812696747482e-05 1.484090607846155763e-04 5.810023503727279603e-05 -5.601819066214375198e-05
6.960000000000000000e+02 1.537108039855957031e+01 -1.371753692626953125e+01 -3.599964475142769516e-05 1.389906974509358406e-04 3.089731399086304009e-05 -7.069304410833865404e-05
6.970000000000000000e+02 1.794539070129394531e+01 -8.465344429016113281e+00 -4.845424700761213899e-05 -3.878061761497519910e-06 -1.569969208503607661e-05 2.182843491027597338e-05
6.980000000000000000e+02 2.148603057861328125e+01 -1.198799610137939453e+01 -1.793659612303599715e-05 -4.501780131249688566e-05 -1.888631959445774555e-05 7.415256277454318479e-06
6.990000000000000000e+02 2.252494239807128906e+01 -1.428729820251464844e+01 -6.852430942672071978e-06 -1.881619573396164924e-05 -7.700587957515381277e-06 1.020376475935336202e-05
7.000000000000000000e+02 2.242801666259765625e+01 -1.376152038574218750e+01 2.342032757951528765e-06 -1.664833689574152231e-05 -4.291891400498570874e-06 -2.425360253255348653e-05
7.010000000000000000e+02 2.220049476623535156e+01 -1.321436691284179688e+01 -1.902689473354257643e-05 -8.400551450904458761e-06 -8.228234037233050913e-06 2.237152875750325620e-05
7.020000000000000000e+02 2.119548606872558594e+01 -1.289800930023193359e+01 -3.347699021105654538e-05 -4.343728141975589097e-05 -2.307428076164796948e-05 3.311012915219180286e-05
7.030000000000000000e+02 2.044397735595703125e+01 -1.018204307556152344e+01 6.909962394274771214e-05 -1.458562564948806539e-05 1.635419903323054314e-05 3.090190512011758983e-05
7.040000000000000000e+02 2.079340934753417969e+01 -1.077303886413574219e+01 -4.493752203416079283e-05 -1.723997047520242631e-05 -1.865324702521320432e-05 -4.412411362864077091e-05
7.050000000000000000e+02 2.113333892822265625e+01 -1.137741565704345703e+01 1.846288614615332335e-05 5.217628131504170597e-05 2.119175042025744915e-05 2.348902489757165313e-05
7.060000000000000000e+02 2.003505897521972656e+01 -9.635914802551269531e+00 -8.219048322644084692e-05 1.566050195833668113e-05 -1.995899401663336903e-05 -1.050639912136830389e-05
7.070000000000000000e+02 1.866077041625976562e+01 -8.027446746826171875e+00 4.515570981311611831e-05 3.585836566344369203e-06 1.462246473238337785e-05 -7.814428499841596931e-06
7.080000000000000000e+02 1.676732826232910156e+01 -6.009702682495117188e+00 4.537053973763249815e-05 6.092313469707733020e-06 1.543885628052521497e-05 -7.076156407492817380e-07
7.090000000000000000e+02 1.725620269775390625e+01 -6.493530750274658203e+00 -4.322649328969419003e-05 -4.448525317002349766e-07 -1.310140396526549011e-05 6.428982146644557361e-07
7.100000000000000000e+02 1.466590976715087891e+01 -5.232384681701660156e+00 4.470208295970223844e-05 3.232344533898867667e-05 2.310765739821363240e-05 6.995214789640158415e-06
7.110000000000000000e+02 1.515312671661376953e+01 -4.747718811035156250e+00 -4.245781383360736072e-05 -2.396103627688717097e-05 -1.992565375985577703e-05 -9.408428013557568192e-06
7.120000000000000000e+02 1.459093093872070312e+01 -4.351117134094238281e+00 4.174818604951724410e-05 2.853199475794099271e-05 2.108405351464170963e-05 1.286270617129048333e-05
7.130000000000000000e+02 1.217845916748046875e+01 -2.969923973083496094e+00 4.587444345816038549e-05 4.084326064912602305e-05 2.601531195978168398e-05 2.422731267870403826e-05
7.140000000000000000e+02 1.279420089721679688e+01 -3.305775880813598633e+00 -4.361398168839514256e-05 -3.576473318389616907e-05 -2.381361446168739349e-05 -2.266910996695514768e-05
7.150000000000000000e+02 1.420831203460693359e+01 -5.743925571441650391e+00 -4.789880767930299044e-05 -3.654760803328827024e-05 -2.533392398618161678e-05 -1.117963802244048566e-05
7.160000000000000000e+02 8.910173416137695312e+00 -3.275856733322143555e+00 2.099036646541208029e-05 6.143601785879582167e-05 2.472791493346448988e-05 4.412318958202376962e-05
7.170000000000000000e+02 9.965331077575683594e+00 -2.034511089324951172e+00 -3.429778007557615638e-05 -6.749951717210933566e-05 -3.053919135709293187e-05 -1.931800397869665176e-05
7.180000000000000000e+02 8.405872344970703125e+00 -1.876292586326599121e+00 -3.588931576814502478e-05 -6.276200292631983757e-05 -2.959539597213733941e-05 -3.091561302426271141e-05
7.190000000000000000e+02 6.816800117492675781e+00 -1.860682010650634766e+00 -5.125518509885296226e-05 -6.153357389848679304e-05 -3.383662624401040375e-05 -2.471098468959098682e-06
7.200000000000000000e+02 7.606393337249755859e+00 -1.876946091651916504e+00 5.195727862883359194e-05 6.351980118779465556e-05 3.464312248979695141e-05 2.336190482310485095e-05
7.210000000000000000e+02 5.215513229370117188e+00 -1.929393053054809570e+00 -8.286881893582176417e-06 -4.758617797051556408e-05 -1.676191823207773268e-05 -2.900941217376384884e-05
7.220000000000000000e+02 2.695603609085083008e+00 -2.062645912170410156e+00 8.021377288969233632e-05 -2.743739969446323812e-06 2.324101114936638623e-05 1.270400025532580912e-05
7.230000000000000000e+02 3.362241268157958984e+00 -3.218019008636474609e+00 5.575785689870826900e-05 2.461008261889219284e-05 2.411038076388649642e-05 6.225673860171809793e-05
7.240000000000000000e+02 4.378967761993408203e+00 -2.000649929046630859e+00 2.342314110137522221e-05 2.778272755676880479e-05 1.536176023364532739e-05 4.433538197190500796e-05
7.250000000000000000e+02 1.222437143325805664e+00 -1.988822817802429199e+00 -1.027875259751453996e-05 4.274009916116483510e-05 9.738403605297207832e-06 1.394125320075545460e-05
7.260000000000000000e+02 4.252684712409973145e-01 -2.145141839981079102e+00 -6.654023309238255024e-05 -2.145125836250372231e-05 -2.639744889165740460e-05 -2.903580389101989567e-05
7.270000000000000000e+02 2.031325101852416992e+00 -4.161994552612304688e+01 -4.537865461315959692e-04 2.025593305006623268e-03 4.715420072898268700e-04 1.383434573654085398e-04
7.280000000000000000e+02 4.658207893371582031e+00 -3.755202865600585938e+01 4.110480585950426757e-05 3.964600036852061749e-04 1.312694366788491607e-04 1.257706200703978539e-03
7.290000000000000000e+02 9.171736240386962891e-01 -3.865108871459960938e+01 -4.547617281787097454e-04 1.569875865243375301e-03 3.345342411193996668e-04 6.749220574420178309e-06
7.300000000000000000e+02 8.193484544754028320e-01 -3.471667098999023438e+01 4.571177414618432522e-04 7.892187568359076977e-04 3.739009553100913763e-04 2.026728470809757710e-04
7.310000000000000000e+02 7.781481146812438965e-01 -3.324117660522460938e+01 -4.291441000532358885e-04 4.929849528707563877e-04 1.915226130222436041e-05 1.422537170583382249e-04
7.320000000000000000e+02 6.281717419624328613e-01 -2.900480461120605469e+01 5.970528000034391880e-04 -6.085990389692597091e-05 1.608578750165179372e-04 5.185522968531586230e-05
7.330000000000000000e+02 5.951811075210571289e-01 -2.760035133361816406e+01 -5.987976328469812870e-04 -7.691197970416396856e-05 -2.027128793997690082e-04 -3.288667357992380857e-05
7.340000000000000000e+02 5.991334319114685059e-01 -2.478242111206054688e+01 -5.679886089637875557e-04 -4.643762804334983230e-05 -1.843278732849285007e-04 -6.949581438675522804e-05
7.350000000000000000e+02 5.874307155609130859e-01 -2.619344711303710938e+01 6.039741565473377705e-04 -8.979038830148056149e-05 1.542551326565444469e-04 3.701788227772340178e-05
7.360000000000000000e+02 6.202942728996276855e-01 -2.195510482788085938e+01 -4.513897874858230352e-04 -2.444730853312648833e-05 -1.427511306246742606e-04 -6.161017518024891615e-05
7.370000000000000000e+02 6.108976006507873535e-01 -2.054365158081054688e+01 4.000299668405205011e-04 2.840767820089240558e-06 1.208612229675054550e-04 3.756743535632267594e-05
7.380000000000000000e+02 1.836886405944824219e+00 -2.044973945617675781e+01 -4.384557832963764668e-04 -2.031372605415526778e-05 -1.376308500766754150e-04 -5.493746721185743809e-05
7.390000000000000000e+02 5.769390463829040527e-01 -1.633044433593750000e+01 -3.255117044318467379e-04 5.517953923117602244e-06 -9.599812619853764772e-05 -1.810140383895486593e-05
7.400000000000000000e+02 5.734680294990539551e-01 -1.492708015441894531e+01 2.962863654829561710e-04 1.111984056478831917e-05 9.222186781698837876e-05 1.117856936616590247e-05
7.410000000000000000e+02 5.730233192443847656e-01 -1.352059364318847656e+01 -2.699447213672101498e-04 7.222884050861466676e-06 -7.881654892116785049e-05 -5.792071988253155723e-06
7.420000000000000000e+02 1.721144199371337891e+00 -1.353525257110595703e+01 2.974156232085078955e-04 4.304058620618889108e-06 9.051591041497886181e-05 2.373057395743671805e-05
7.430000000000000000e+02 5.971699357032775879e-01 -9.289561271667480469e+00 1.839653559727594256e-04 -3.081217528233537450e-06 5.426524148788303137e-05 9.472562851442489773e-06
7.440000000000000000e+02 6.337148547172546387e-01 -7.856430530548095703e+00 -1.485502725699916482e-04 5.173987574380589649e-06 -4.301288936403580010e-05 -1.518131102784536779e-05
7.450000000000000000e+02 4.329632282257080078e+00 -3.003600597381591797e+00 -1.458733004255918786e-05 -3.648193160188384354e-05 -1.532077840238343924e-05 -4.648457615985535085e-05
7.460000000000000000e+02 4.486132144927978516e+00 -3.966202497482299805e+00 9.560980288370046765e-06 1.685075039858929813e-05 7.923518751340452582e-06 4.170887405052781105e-05
7.470000000000000000e+02 3.307892227172851562e+01 -4.109894180297851562e+01 1.151367872953414917e-01 -1.947654485702514648e-01 -2.388859912753105164e-02 -3.277414292097091675e-02
7.480000000000000000e+02 1.423092269897460938e+01 -3.746456527709960938e+01 -2.168265869840979576e-03 2.107903594151139259e-03 -1.810872890928294510e-05 2.857703715562820435e-03
7.490000000000000000e+02 7.870411682128906250e+01 4.016444396972656250e+01 -1.997100561857223511e-01 1.019170570373535156e+01 2.997598886489868164e+00 -2.465503215789794922e-01
7.500000000000000000e+02 7.899909973144531250e+01 3.880432510375976562e+01 2.616854943335056305e-02 1.044828033447265625e+01 3.142334699630737305e+00 -8.674587309360504150e-02
7.510000000000000000e+02 7.918752288818359375e+01 3.607680511474609375e+01 -5.801562964916229248e-02 1.071423816680908203e+01 3.196866750717163086e+00 -3.185708075761795044e-03
7.520000000000000000e+02 7.775756072998046875e+01 3.439413452148437500e+01 -1.194300353527069092e-01 9.632644653320312500e+00 2.853964328765869141e+00 2.319842576980590820e-01
7.530000000000000000e+02 7.930901336669921875e+01 3.333469009399414062e+01 -2.452963218092918396e-02 1.056084918975830078e+01 3.160896062850952148e+00 1.160524263978004456e-01
7.540000000000000000e+02 7.714902496337890625e+01 2.903095436096191406e+01 -3.988901525735855103e-02 8.784410476684570312e+00 2.623356580734252930e+00 6.010805368423461914e-01
7.550000000000000000e+02 7.939898681640625000e+01 2.645693778991699219e+01 5.353318993002176285e-03 8.961196899414062500e+00 2.689965009689331055e+00 1.831143349409103394e-01
7.560000000000000000e+02 7.701596832275390625e+01 2.646799659729003906e+01 3.571571409702301025e-02 8.460422515869140625e+00 2.548841476440429688e+00 6.139838695526123047e-01
7.570000000000000000e+02 7.936840057373046875e+01 2.227841949462890625e+01 1.055565662682056427e-03 8.008404731750488281e+00 2.402838230133056641e+00 1.478196382522583008e-01
7.580000000000000000e+02 7.936809539794921875e+01 2.087814521789550781e+01 1.534902490675449371e-02 7.757277011871337891e+00 2.331787824630737305e+00 1.308878660202026367e-01
7.590000000000000000e+02 7.811571502685546875e+01 2.225971603393554688e+01 4.010017588734626770e-02 8.046643257141113281e+00 2.426023006439208984e+00 3.458123505115509033e-01
7.600000000000000000e+02 7.937480926513671875e+01 1.947882652282714844e+01 -2.242700895294547081e-03 7.535805702209472656e+00 2.260068893432617188e+00 1.167189627885818481e-01
7.610000000000000000e+02 7.938898468017578125e+01 1.529474925994873047e+01 -1.499160542152822018e-03 6.965346336364746094e+00 2.089154243469238281e+00 1.047320589423179626e-01
7.620000000000000000e+02 7.938391113281250000e+01 1.390326023101806641e+01 -3.561863442882895470e-03 6.763391971588134766e+00 2.027949094772338867e+00 1.112350746989250183e-01
7.630000000000000000e+02 7.937623596191406250e+01 1.250948047637939453e+01 -1.171698793768882751e-02 6.535128116607666016e+00 1.957023382186889648e+00 1.286853104829788208e-01
7.640000000000000000e+02 7.936939239501953125e+01 1.111406612396240234e+01 -7.767637725919485092e-06 6.269864082336425781e+00 1.880956888198852539e+00 1.432340741157531738e-01
7.650000000000000000e+02 7.936769104003906250e+01 8.322142601013183594e+00 1.010739617049694061e-02 5.654981613159179688e+00 1.699526786804199219e+00 1.598903238773345947e-01
7.660000000000000000e+02 7.937461853027343750e+01 6.928437232971191406e+00 1.356801018118858337e-03 5.338184833526611328e+00 1.601862430572509766e+00 1.471007168292999268e-01
7.670000000000000000e+02 7.813566589355468750e+01 6.857437610626220703e+00 4.994558915495872498e-02 6.151205062866210938e+00 1.860345244407653809e+00 3.705611228942871094e-01
7.680000000000000000e+02 7.938014221191406250e+01 5.533777713775634766e+00 2.629275619983673096e-02 5.057737350463867188e+00 1.525208950042724609e+00 1.182975023984909058e-01
7.690000000000000000e+02 7.936453247070312500e+01 1.336521744728088379e+00 1.920473016798496246e-02 4.783360004425048828e+00 1.440769433975219727e+00 -3.685506805777549744e-02
7.700000000000000000e+02 7.936168670654296875e+01 -6.270542740821838379e-02 2.210998348891735077e-02 4.910573959350585938e+00 1.479805111885070801e+00 -8.146589249372482300e-02
7.710000000000000000e+02 7.936390686035156250e+01 -1.461145639419555664e+00 1.490657776594161987e-02 5.128204822540283203e+00 1.542933344841003418e+00 -1.230036690831184387e-01
7.720000000000000000e+02 7.936716461181640625e+01 -2.857848167419433594e+00 1.013296935707330704e-02 5.421458244323730469e+00 1.629477381706237793e+00 -1.506557911634445190e-01
7.730000000000000000e+02 7.935701751708984375e+01 -7.031658649444580078e+00 -2.886310219764709473e-03 6.468570232391357422e+00 1.939705133438110352e+00 -1.617038398981094360e-01
7.740000000000000000e+02 7.935205841064453125e+01 -8.420409202575683594e+00 -6.062577012926340103e-03 6.794732570648193359e+00 2.036601066589355469e+00 -1.517199426889419556e-01
7.750000000000000000e+02 7.935037231445312500e+01 -9.811294555664062500e+00 -9.414634667336940765e-03 7.089645385742187500e+00 2.124069213867187500e+00 -1.353181749582290649e-01
7.760000000000000000e+02 7.936607360839843750e+01 -1.398572254180908203e+01 -1.743094250559806824e-02 7.708234786987304688e+00 2.307241201400756836e+00 -5.444407463073730469e-02
7.770000000000000000e+02 7.937574768066406250e+01 -1.537181472778320312e+01 -1.711954176425933838e-02 7.778820514678955078e+00 2.328510284423828125e+00 -1.623565517365932465e-02
7.780000000000000000e+02 7.938533020019531250e+01 -1.675559043884277344e+01 -3.095899522304534912e-02 7.751573085784912109e+00 2.316184282302856445e+00 3.742276132106781006e-02
7.790000000000000000e+02 7.933009338378906250e+01 -2.232609748840332031e+01 -1.393787469714879990e-02 6.477468490600585938e+00 1.939059257507324219e+00 1.991639584302902222e-01
7.800000000000000000e+02 7.666984558105468750e+01 -2.540942955017089844e+01 7.668691277503967285e-01 7.555940151214599609e+00 2.496842861175537109e+00 -1.240601837635040283e-01
7.810000000000000000e+02 7.931524658203125000e+01 -2.373415756225585938e+01 6.818579137325286865e-02 6.113567829132080078e+00 1.854526042938232422e+00 1.480985730886459351e-01
7.820000000000000000e+02 7.936294555664062500e+01 -2.795544052124023438e+01 8.070494979619979858e-02 6.383046627044677734e+00 1.939125418663024902e+00 -2.587880492210388184e-01
7.830000000000000000e+02 7.936678314208984375e+01 -2.934981346130371094e+01 -2.244181931018829346e-02 7.005885601043701172e+00 2.095033168792724609e+00 -3.371548354625701904e-01
7.840000000000000000e+02 7.935077667236328125e+01 -3.073811721801757812e+01 3.974677622318267822e-02 7.717652797698974609e+00 2.327219724655151367e+00 -3.456680178642272949e-01
7.850000000000000000e+02 7.929389190673828125e+01 -3.489440155029296875e+01 -7.443244010210037231e-02 9.314344406127929688e+00 2.771973609924316406e+00 -1.897066086530685425e-01
7.860000000000000000e+02 7.926439666748046875e+01 -3.625511550903320312e+01 -1.737811602652072906e-02 9.568433761596679688e+00 2.865316629409790039e+00 -9.420286118984222412e-02
7.870000000000000000e+02 7.913095855712890625e+01 -3.761650085449218750e+01 -1.863373816013336182e-02 9.688959121704101562e+00 2.901097774505615234e+00 -6.188587844371795654e-02
7.880000000000000000e+02 7.888872528076171875e+01 -3.900661849975585938e+01 -2.206601053476333618e-01 9.635043144226074219e+00 2.824314832687377930e+00 1.145245730876922607e-01
7.890000000000000000e+02 6.261152744293212891e+00 3.808652877807617188e+01 -2.883512759581208229e-03 -7.254417538642883301e-01 -2.184975743293762207e-01 -5.979698617011308670e-03
7.900000000000000000e+02 3.736676275730133057e-01 2.167285919189453125e+00 -1.530892797745764256e-03 1.482028234750032425e-02 3.986816853284835815e-03 -7.618010859005153179e-04
7.910000000000000000e+02 2.608446121215820312e+00 2.907783508300781250e+00 -5.726867169141769409e-02 -6.198512762784957886e-02 -3.577613830566406250e-02 6.639775633811950684e-02
7.920000000000000000e+02 1.672953128814697266e+00 6.240900993347167969e+00 -1.492752972990274429e-02 -2.111254036426544189e-01 -6.781587749719619751e-02 1.142596527934074402e-01
7.930000000000000000e+02 6.173433661460876465e-01 9.195655822753906250e+00 -2.432467183098196983e-03 -3.977539539337158203e-01 -1.200559213757514954e-01 5.207663774490356445e-02
7.940000000000000000e+02 5.768769383430480957e-01 1.203827095031738281e+01 2.483611227944493294e-03 -6.392979025840759277e-01 -1.910442858934402466e-01 4.630823060870170593e-02
7.950000000000000000e+02 1.712737798690795898e+00 1.193459320068359375e+01 8.617202751338481903e-03 -6.112666726112365723e-01 -1.807948350906372070e-01 1.291292160749435425e-01
7.960000000000000000e+02 5.906677246093750000e-01 1.626856422424316406e+01 2.231093822047114372e-03 -9.267569184303283691e-01 -2.773577272891998291e-01 3.164964541792869568e-02
7.970000000000000000e+02 6.030057668685913086e-01 1.767973327636718750e+01 1.790167996659874916e-03 -9.971535205841064453e-01 -2.986090183258056641e-01 2.701231651008129120e-02
7.980000000000000000e+02 6.331324577331542969e-01 2.192376136779785156e+01 2.169239800423383713e-03 -1.136775493621826172e+00 -3.403818607330322266e-01 1.351219695061445236e-02
7.990000000000000000e+02 6.374386548995971680e-01 2.333775711059570312e+01 8.861761889420449734e-04 -1.164157986640930176e+00 -3.489815294742584229e-01 1.029779203236103058e-02
8.000000000000000000e+02 6.414965987205505371e-01 2.475016784667968750e+01 2.136597875505685806e-03 -1.183800220489501953e+00 -3.544990718364715576e-01 6.798379588872194290e-03
8.010000000000000000e+02 6.975407004356384277e-01 2.900950431823730469e+01 -8.811707375571131706e-04 -1.206098198890686035e+00 -3.620938062667846680e-01 -2.665052888914942741e-04
8.020000000000000000e+02 7.208126783370971680e-01 3.042682075500488281e+01 2.207566285505890846e-03 -1.204575657844543457e+00 -3.607104420661926270e-01 -1.820610603317618370e-03
8.030000000000000000e+02 2.168048620223999023e+00 3.030493545532226562e+01 1.665814896114170551e-03 -1.080321431159973145e+00 -3.235966861248016357e-01 -2.318039769306778908e-03
8.040000000000000000e+02 7.306698560714721680e-01 3.183658027648925781e+01 -1.839546603150665760e-03 -1.201656460762023926e+00 -3.610487878322601318e-01 -1.879943069070577621e-03
8.050000000000000000e+02 6.976713538169860840e-01 3.603859329223632812e+01 -3.116834443062543869e-03 -1.169925808906555176e+00 -3.519127964973449707e-01 -6.457126699388027191e-03
8.060000000000000000e+02 2.397536516189575195e+00 3.814183807373046875e+01 1.524177659302949905e-02 -1.041703104972839355e+00 -3.079383969306945801e-01 -3.286653384566307068e-02
8.070000000000000000e+02 8.930423855781555176e-01 3.874296188354492188e+01 -4.900763742625713348e-03 -1.116994500160217285e+00 -3.365685641765594482e-01 -1.641986146569252014e-02
8.080000000000000000e+02 1.272954821586608887e+00 4.008886718750000000e+01 1.478729490190744400e-02 -1.083341360092163086e+00 -3.205662071704864502e-01 -2.843347378075122833e-02
8.090000000000000000e+02 1.002498054504394531e+01 1.977753281593322754e+00 -5.962013602256774902e-01 -3.887397050857543945e-01 -2.954823076725006104e-01 5.264853239059448242e-01
8.100000000000000000e+02 9.211603164672851562e+00 1.906737804412841797e+00 -5.391114354133605957e-01 -2.803314328193664551e-01 -2.458328604698181152e-01 4.676941037178039551e-01
8.110000000000000000e+02 8.460862159729003906e+00 1.872999548912048340e+00 -5.197758674621582031e-01 -1.701886206865310669e-01 -2.069893479347229004e-01 3.951657116413116455e-01
8.120000000000000000e+02 7.722723484039306641e+00 2.571646690368652344e+00 -3.893132209777832031e-01 -1.781526654958724976e-01 -1.702397614717483521e-01 3.784567415714263916e-01
8.130000000000000000e+02 6.994680881500244141e+00 1.857345104217529297e+00 -3.411951065063476562e-01 -8.406526595354080200e-02 -1.275781095027923584e-01 2.421582192182540894e-01
8.140000000000000000e+02 4.792727947235107422e+00 1.893136143684387207e+00 -1.489128321409225464e-01 -4.495799914002418518e-02 -5.816124752163887024e-02 1.155561432242393494e-01
8.150000000000000000e+02 4.054477691650390625e+00 1.917882323265075684e+00 -1.045793071389198303e-01 -4.414919391274452209e-02 -4.461855068802833557e-02 8.594181388616561890e-02
8.160000000000000000e+02 3.318003177642822266e+00 1.944995760917663574e+00 -7.278595119714736938e-02 -3.547890856862068176e-02 -3.247945755720138550e-02 5.760176107287406921e-02
8.170000000000000000e+02 1.849584698677062988e+00 1.999595761299133301e+00 -2.487686835229396820e-02 -2.927543781697750092e-02 -1.624569296836853027e-02 1.935782842338085175e-02
8.180000000000000000e+02 1.114361643791198730e+00 2.073321104049682617e+00 -8.308021351695060730e-03 -1.383616775274276733e-02 -6.643256638199090958e-03 2.475719666108489037e-03
8.190000000000000000e+02 1.323184871673583984e+01 6.798377633094787598e-01 -9.869601130485534668e-01 -6.719552874565124512e-01 -4.976746141910552979e-01 7.785242199897766113e-01
8.200000000000000000e+02 1.555875587463378906e+01 1.068514823913574219e+00 -7.190086245536804199e-01 -9.407762289047241211e-01 -4.979354441165924072e-01 8.069296479225158691e-01
8.210000000000000000e+02 1.607256317138671875e+01 -8.979154229164123535e-01 -1.219688892364501953e+00 -1.014670610427856445e+00 -6.703078746795654297e-01 1.013482451438903809e+00
8.220000000000000000e+02 1.804041099548339844e+01 -2.308470964431762695e+00 -1.315879821777343750e+00 -1.274247407913208008e+00 -7.770381569862365723e-01 1.156052231788635254e+00
8.230000000000000000e+02 2.102529716491699219e+01 -5.011511325836181641e+00 -1.288899660110473633e+00 -1.548181295394897461e+00 -8.511242866516113281e-01 1.251294732093811035e+00
8.240000000000000000e+02 2.155590820312500000e+01 -5.617772579193115234e+00 -1.264125943183898926e+00 -1.565759420394897461e+00 -8.489656448364257812e-01 1.252933979034423828e+00
8.250000000000000000e+02 2.253648185729980469e+01 -6.882267951965332031e+00 -1.191755890846252441e+00 -1.564656615257263184e+00 -8.269237279891967773e-01 1.242569684982299805e+00
8.260000000000000000e+02 2.389550590515136719e+01 -8.840654373168945312e+00 -1.048210024833679199e+00 -1.409854292869567871e+00 -7.374193072319030762e-01 1.167067527770996094e+00
8.270000000000000000e+02 2.431380271911621094e+01 -9.511994361877441406e+00 -9.917325973510742188e-01 -1.329205751419067383e+00 -6.962814927101135254e-01 1.133679866790771484e+00
8.280000000000000000e+02 2.472821998596191406e+01 -1.018758487701416016e+01 -9.330118894577026367e-01 -1.211736440658569336e+00 -6.434245109558105469e-01 1.095659971237182617e+00
8.290000000000000000e+02 2.577966499328613281e+01 -1.221626472473144531e+01 -7.720223665237426758e-01 -8.437221050262451172e-01 -4.847233295440673828e-01 9.981602430343627930e-01
8.300000000000000000e+02 2.641717529296875000e+01 -1.179477119445800781e+01 -8.497651815414428711e-01 -6.907376050949096680e-01 -4.621508419513702393e-01 1.031301975250244141e+00
8.310000000000000000e+02 2.644005966186523438e+01 -1.357210063934326172e+01 -6.568838953971862793e-01 -5.941638946533203125e-01 -3.753143250942230225e-01 8.653675913810729980e-01
8.320000000000000000e+02 2.677006530761718750e+01 -1.425416946411132812e+01 -6.326580643653869629e-01 -4.597327411174774170e-01 -3.277172446250915527e-01 8.154885172843933105e-01
8.330000000000000000e+02 2.737885284423828125e+01 -1.565129756927490234e+01 -6.919975280761718750e-01 -3.004443049430847168e-01 -2.977325618267059326e-01 6.262710094451904297e-01
8.340000000000000000e+02 3.035178947448730469e+01 -1.737265205383300781e+01 -1.272430539131164551e+00 -1.083436235785484314e-01 -4.142322242259979248e-01 4.682975411415100098e-01
8.350000000000000000e+02 3.909868621826171875e+01 -1.814585304260253906e+01 -3.447167873382568359e+00 -9.576296806335449219e-01 -1.321439266204833984e+00 1.248036026954650879e+00
8.360000000000000000e+02 4.248331832885742188e+01 -1.975387191772460938e+01 -2.416716337203979492e+00 5.034876465797424316e-01 -5.739685893058776855e-01 6.346459984779357910e-01
8.370000000000000000e+02 4.543801879882812500e+01 -1.828234481811523438e+01 -2.841288089752197266e+00 4.530824422836303711e-01 -7.164617180824279785e-01 6.552176475524902344e-01
8.380000000000000000e+02 4.548195266723632812e+01 -1.896229362487792969e+01 -3.299498558044433594e+00 3.356953859329223633e-01 -8.891409635543823242e-01 4.381128847599029541e-01
8.390000000000000000e+02 4.773653793334960938e+01 -1.846087265014648438e+01 -3.771030426025390625e+00 2.456161826848983765e-01 -1.057624220848083496e+00 1.809764057397842407e-01
8.400000000000000000e+02 4.848757934570312500e+01 -1.829351806640625000e+01 -3.772565603256225586e+00 2.990056574344635010e-01 -1.042068004608154297e+00 4.043823480606079102e-02
8.410000000000000000e+02 4.924233627319335938e+01 -1.813067436218261719e+01 -3.650091886520385742e+00 3.109734058380126953e-01 -1.001735448837280273e+00 -1.282396167516708374e-01
8.420000000000000000e+02 5.106324005126953125e+01 -1.750230979919433594e+01 -2.130304336547851562e+00 1.044079184532165527e+00 -3.258675336837768555e-01 -1.337334394454956055e+00
8.430000000000000000e+02 5.137026977539062500e+01 -1.790378952026367188e+01 -3.087927579879760742e+00 8.021541833877563477e-01 -6.857320070266723633e-01 -1.522977113723754883e+00
8.440000000000000000e+02 5.229697036743164062e+01 -1.777050971984863281e+01 -2.185668468475341797e+00 1.356693148612976074e+00 -2.486926168203353882e-01 -2.897640943527221680e+00
8.450000000000000000e+02 5.233632659912109375e+01 -1.745805549621582031e+01 -1.303936719894409180e+00 2.079315662384033203e+00 2.326136678457260132e-01 -3.603394269943237305e+00
8.460000000000000000e+02 5.285175704956054688e+01 -1.757399749755859375e+01 -8.139090538024902344e-01 2.004406690597534180e+00 3.571492433547973633e-01 -4.548645019531250000e+00
8.470000000000000000e+02 5.266681289672851562e+01 -1.768099021911621094e+01 -1.438811182975769043e+00 1.214301466941833496e+00 -6.735292822122573853e-02 -3.774351358413696289e+00
8.480000000000000000e+02 5.370705795288085938e+01 -1.755356407165527344e+01 2.441195957362651825e-02 3.738171339035034180e+00 1.128775000572204590e+00 -7.388935089111328125e+00
8.490000000000000000e+02 5.388738632202148438e+01 -1.751840782165527344e+01 -6.066227331757545471e-02 4.243144512176513672e+00 1.254744768142700195e+00 -7.778293609619140625e+00
8.500000000000000000e+02 5.425637435913085938e+01 -1.739238357543945312e+01 -9.325287342071533203e-01 6.494779109954833984e+00 1.668675184249877930e+00 -8.402591705322265625e+00
8.510000000000000000e+02 5.446411895751953125e+01 -1.734366416931152344e+01 -1.823854207992553711e+00 8.043389320373535156e+00 1.865860462188720703e+00 -8.892458915710449219e+00
8.520000000000000000e+02 5.390541458129882812e+01 -1.728625297546386719e+01 -6.809673905372619629e-01 5.250509262084960938e+00 1.370862603187561035e+00 -8.015465736389160156e+00
8.530000000000000000e+02 5.441347885131835938e+01 -2.112252616882324219e+01 -4.995358586311340332e-01 6.215695858001708984e+00 1.714848041534423828e+00 2.893902301788330078e+00
8.540000000000000000e+02 5.371668624877929688e+01 -2.089407539367675781e+01 5.301336571574211121e-02 3.335344076156616211e+00 1.016507267951965332e+00 2.554888248443603516e+00
8.550000000000000000e+02 5.826101303100585938e+01 -2.573034858703613281e+01 4.181905984878540039e-01 2.352746725082397461e+00 8.312812447547912598e-01 1.058697223663330078e+00
8.560000000000000000e+02 5.097971725463867188e+01 -2.153607177734375000e+01 -1.027354955673217773e+00 4.716955423355102539e-01 -1.666978299617767334e-01 1.024549752473831177e-01
8.570000000000000000e+02 5.039553070068359375e+01 -2.166843223571777344e+01 -1.051191687583923340e+00 3.046584725379943848e-01 -2.239599525928497314e-01 -1.491436660289764404e-01
8.580000000000000000e+02 4.979995346069335938e+01 -2.180049705505371094e+01 -1.055918693542480469e+00 1.797388345003128052e-01 -2.628539800643920898e-01 -3.222219049930572510e-01
8.590000000000000000e+02 4.701963424682617188e+01 -2.243789291381835938e+01 -7.579743862152099609e-01 -1.904276609420776367e-01 -2.845205962657928467e-01 -7.547054886817932129e-01
8.600000000000000000e+02 4.718024063110351562e+01 -2.321481513977050781e+01 -4.114951193332672119e-01 -7.318647950887680054e-02 -1.454044729471206665e-01 -7.690806984901428223e-01
8.610000000000000000e+02 4.561282348632812500e+01 -2.285594940185546875e+01 -4.645041227340698242e-01 -3.300869464874267578e-01 -2.383773177862167358e-01 -7.731421589851379395e-01
8.620000000000000000e+02 4.418163681030273438e+01 -2.330131149291992188e+01 -2.068808227777481079e-01 -4.626123905181884766e-01 -2.008479684591293335e-01 -6.622297763824462891e-01
8.630000000000000000e+02 7.233517456054687500e+01 -2.927388191223144531e+01 6.568397283554077148e-01 9.375944137573242188e+00 3.009835004806518555e+00 1.836850196123123169e-01
8.640000000000000000e+02 7.084880828857421875e+01 -2.993116950988769531e+01 1.064096689224243164e+00 6.917701721191406250e+00 2.394539594650268555e+00 2.547947406768798828e+00
8.650000000000000000e+02 6.919409942626953125e+01 -3.217953491210937500e+01 -3.356384932994842529e-01 1.708348155021667480e+00 4.118129014968872070e-01 6.655746102333068848e-01
8.660000000000000000e+02 6.686798858642578125e+01 -3.409169769287109375e+01 -1.776819109916687012e+00 -2.863626927137374878e-02 -5.416365861892700195e-01 -4.057129323482513428e-01
8.670000000000000000e+02 5.964010238647460938e+01 -2.367645645141601562e+01 -5.095553994178771973e-01 8.329187035560607910e-01 9.700898826122283936e-02 -7.469156384468078613e-02
8.680000000000000000e+02 6.307477188110351562e+01 3.789678573608398438e+01 -2.573131620883941650e-01 -3.632998764514923096e-01 -1.861839145421981812e-01 2.921971380710601807e-01
8.690000000000000000e+02 6.495857238769531250e+01 3.450181961059570312e+01 -1.403855204582214355e+00 -1.507304310798645020e-01 -4.663757085800170898e-01 7.025681138038635254e-01
8.700000000000000000e+02 6.854082489013671875e+01 2.984815216064453125e+01 3.627674877643585205e-01 3.517221689224243164e+00 1.163996815681457520e+00 -9.146723747253417969e-01
8.710000000000000000e+02 6.953583526611328125e+01 2.706438064575195312e+01 2.930251657962799072e-01 6.803973197937011719e+00 2.129099369049072266e+00 -9.325432777404785156e-01
8.720000000000000000e+02 6.992034149169921875e+01 2.275053787231445312e+01 8.634753525257110596e-02 8.750773429870605469e+00 2.651136398315429688e+00 -1.825046539306640625e-02
8.730000000000000000e+02 6.991203308105468750e+01 1.854909324645996094e+01 -6.719083525240421295e-03 9.078451156616210938e+00 2.721519470214843750e+00 1.173500195145606995e-01
8.740000000000000000e+02 6.989720916748046875e+01 1.435492706298828125e+01 2.360363751649856567e-01 1.004771327972412109e+01 3.085124969482421875e+00 4.511337876319885254e-01
8.750000000000000000e+02 6.978991699218750000e+01 1.297106933593750000e+01 2.845306415110826492e-03 8.912446975708007812e+00 2.674587726593017578e+00 6.122147440910339355e-01
8.760000000000000000e+02 7.141381072998046875e+01 4.610058307647705078e+00 2.294516414403915405e-01 1.150299072265625000e+01 3.519732952117919922e+00 2.905724346637725830e-01
8.770000000000000000e+02 6.998724365234375000e+01 4.136654436588287354e-01 7.204282283782958984e-01 1.284619903564453125e+01 4.069988250732421875e+00 2.002742052078247070e+00
8.780000000000000000e+02 6.876181030273437500e+01 -3.678259849548339844e+00 8.481342196464538574e-01 8.215144157409667969e+00 2.718983411788940430e+00 2.444350719451904297e+00
8.790000000000000000e+02 6.824562072753906250e+01 -4.992752552032470703e+00 9.176284074783325195e-01 6.986928939819335938e+00 2.371367216110229492e+00 2.339798927307128906e+00
8.800000000000000000e+02 6.972708892822265625e+01 -7.187775135040283203e+00 2.418996691703796387e-01 6.472483158111572266e+00 2.014314889907836914e+00 9.439657330513000488e-01
8.810000000000000000e+02 6.404927062988281250e+01 -1.242813396453857422e+01 1.381734490394592285e+00 1.931420564651489258e+00 9.939464926719665527e-01 1.461229324340820312e+00
8.820000000000000000e+02 6.185433959960937500e+01 -1.434467506408691406e+01 1.421279191970825195e+00 9.933423399925231934e-01 7.243864536285400391e-01 1.176383018493652344e+00
8.830000000000000000e+02 5.680340576171875000e+01 -1.798518371582031250e+01 3.966791152954101562e+00 2.166638851165771484e+00 1.840029001235961914e+00 1.922330617904663086e+00
8.840000000000000000e+02 5.785424041748046875e+01 -1.754658126831054688e+01 5.597278475761413574e-01 5.000506043434143066e-01 3.179335296154022217e-01 3.065810441970825195e+00
8.850000000000000000e+02 5.006474685668945312e+01 -7.361377716064453125e+00 6.908846497535705566e-01 5.410651683807373047e+00 1.830460906028747559e+00 -1.923914790153503418e+00
8.860000000000000000e+02 4.966389083862304688e+01 -6.035385131835937500e+00 6.253286600112915039e-01 5.022419452667236328e+00 1.694324374198913574e+00 -1.806490421295166016e+00
8.870000000000000000e+02 4.755391311645507812e+01 -3.616220951080322266e+00 6.841799020767211914e-01 3.827875375747680664e+00 1.353616595268249512e+00 -1.778364419937133789e+00
8.880000000000000000e+02 4.775950241088867188e+01 -8.567624688148498535e-01 6.804397106170654297e-01 3.632267713546752930e+00 1.293812274932861328e+00 -1.689472079277038574e+00
8.890000000000000000e+02 4.716183090209960938e+01 3.843041956424713135e-01 8.618028163909912109e-01 3.648127079010009766e+00 1.352978944778442383e+00 -1.790455341339111328e+00
8.900000000000000000e+02 4.654072189331054688e+01 1.619788885116577148e+00 8.955623507499694824e-01 3.654238700866699219e+00 1.364940285682678223e+00 -1.845513343811035156e+00
8.910000000000000000e+02 4.590598678588867188e+01 2.848618030548095703e+00 9.537804126739501953e-01 3.608846664428710938e+00 1.368788123130798340e+00 -1.905635952949523926e+00
8.920000000000000000e+02 4.329949569702148438e+01 7.763566493988037109e+00 1.016633272171020508e+00 5.265377998352050781e+00 1.884603381156921387e+00 -2.192043304443359375e+00
8.930000000000000000e+02 4.217544174194335938e+01 1.188908195495605469e+01 2.815094888210296631e-01 6.108196258544921875e+00 1.916911721229553223e+00 -3.516435623168945312e-01
8.940000000000000000e+02 4.221438217163085938e+01 1.479888629913330078e+01 1.201172843575477600e-01 4.833418846130371094e+00 1.486060857772827148e+00 2.550385296344757080e-01
8.950000000000000000e+02 4.274421310424804688e+01 1.766228294372558594e+01 2.334503084421157837e-01 4.040748596191406250e+00 1.282259702682495117e+00 7.452179789543151855e-01
8.960000000000000000e+02 4.398226928710937500e+01 2.176433944702148438e+01 3.847263753414154053e-01 2.945516824722290039e+00 9.990729689598083496e-01 9.212018847465515137e-01
8.970000000000000000e+02 4.651377105712890625e+01 2.696253395080566406e+01 4.174929559230804443e-01 1.517895817756652832e+00 5.806166529655456543e-01 7.429347038269042969e-01
8.980000000000000000e+02 4.818748474121093750e+01 2.929944419860839844e+01 3.222980499267578125e-01 9.095317721366882324e-01 3.695489466190338135e-01 5.314635634422302246e-01
8.990000000000000000e+02 5.011709213256835938e+01 3.129985237121582031e+01 1.512431502342224121e-01 4.772401154041290283e-01 1.885449886322021484e-01 2.864150404930114746e-01
9.000000000000000000e+02 5.147830200195312500e+01 -1.678983879089355469e+01 -6.016635894775390625e-01 2.165767192840576172e+00 4.692310988903045654e-01 -1.890502929687500000e+00
9.010000000000000000e+02 5.406286621093750000e+01 -1.744846534729003906e+01 -3.372236192226409912e-01 5.430882453918457031e+00 1.528097629547119141e+00 -8.348037719726562500e+00
9.020000000000000000e+02 5.259727859497070312e+01 -1.731936073303222656e+01 -6.593689918518066406e-01 2.272416830062866211e+00 4.839143157005310059e-01 -4.311288833618164062e+00
9.030000000000000000e+02 4.989512634277343750e+01 -1.225798320770263672e+01 2.912853002548217773e+00 4.611773490905761719e+00 2.257387876510620117e+00 -2.978348970413208008e+00
9.040000000000000000e+02 5.269381713867187500e+01 -1.416134262084960938e+01 4.990478992462158203e+00 8.237188339233398438e+00 3.968300104141235352e+00 -5.841521739959716797e+00
9.050000000000000000e+02 5.367112350463867188e+01 -1.734251594543457031e+01 -7.248110771179199219e-01 4.570827484130859375e+00 1.153804898262023926e+00 -7.237302303314208984e+00
9.060000000000000000e+02 5.353561019897460938e+01 -1.706825256347656250e+01 -4.376563429832458496e-01 4.887502670288085938e+00 1.334953904151916504e+00 -6.448239326477050781e+00
9.070000000000000000e+02 5.431310272216796875e+01 -1.708201217651367188e+01 -2.119549751281738281e+00 7.654035568237304688e+00 1.660345792770385742e+00 -7.975235939025878906e+00
9.080000000000000000e+02 5.537066650390625000e+01 -2.067374801635742188e+01 -1.014055967330932617e+00 1.109149646759033203e+01 3.023231983184814453e+00 1.398578524589538574e+00
9.090000000000000000e+02 5.332598876953125000e+01 -2.096834945678710938e+01 -7.672206312417984009e-02 2.394047021865844727e+00 6.951974630355834961e-01 2.018507719039916992e+00
9.100000000000000000e+02 5.470021057128906250e+01 -2.065331459045410156e+01 -3.525237739086151123e-01 7.868049621582031250e+00 2.254657745361328125e+00 3.464731931686401367e+00
9.110000000000000000e+02 5.463188934326171875e+01 -2.099682044982910156e+01 -6.223640441894531250e-01 7.314177513122558594e+00 2.007544040679931641e+00 2.989414453506469727e+00
9.120000000000000000e+02 5.411558914184570312e+01 -2.083375740051269531e+01 9.629700332880020142e-02 4.740545272827148438e+00 1.451052665710449219e+00 3.078392505645751953e+00
9.130000000000000000e+02 5.272547531127929688e+01 -2.112697029113769531e+01 -3.592365086078643799e-01 1.509616017341613770e+00 3.451138734817504883e-01 1.329843997955322266e+00
9.140000000000000000e+02 5.313091659545898438e+01 -2.100838088989257812e+01 -1.980021297931671143e-01 2.007716178894042969e+00 5.429142713546752930e-01 1.781938910484313965e+00
9.150000000000000000e+02 5.352000808715820312e+01 -2.093031883239746094e+01 2.192598953843116760e-02 2.758602142333984375e+00 8.341584205627441406e-01 2.324327468872070312e+00
9.160000000000000000e+02 5.210191345214843750e+01 -2.128235244750976562e+01 -6.787872910499572754e-01 9.840873479843139648e-01 9.159000962972640991e-02 7.883243560791015625e-01
9.170000000000000000e+02 4.114464187622070312e+01 -2.021488952636718750e+01 -1.564669489860534668e+00 -7.843670994043350220e-02 -4.929318726062774658e-01 7.571279406547546387e-01
9.180000000000000000e+02 4.180270767211914062e+01 -1.997993469238281250e+01 -2.080897808074951172e+00 2.836042940616607666e-01 -5.391880869865417480e-01 8.157458901405334473e-01
9.190000000000000000e+02 5.155262374877929688e+01 -2.140467834472656250e+01 -8.408457636833190918e-01 7.154375910758972168e-01 -3.762244060635566711e-02 3.624845445156097412e-01
9.200000000000000000e+02 5.646996688842773438e+01 -2.597297096252441406e+01 -4.271334707736968994e-01 6.291738033294677734e+00 1.759381294250488281e+00 1.479064941406250000e+00
9.210000000000000000e+02 4.914854431152343750e+01 -2.194295692443847656e+01 -1.027666211128234863e+00 7.903925329446792603e-02 -2.845880687236785889e-01 -4.901651144027709961e-01
9.220000000000000000e+02 5.162997055053710938e+01 -2.192893028259277344e+01 -5.928688049316406250e-01 1.153194546699523926e+00 1.680977195501327515e-01 6.547120213508605957e-01
9.230000000000000000e+02 4.990764617919921875e+01 -2.242857360839843750e+01 -6.363017559051513672e-01 4.360544085502624512e-01 -6.007419526576995850e-02 -2.150155305862426758e-01
9.240000000000000000e+02 5.212850570678710938e+01 -2.178384780883789062e+01 -4.783878624439239502e-01 1.499654054641723633e+00 3.063798546791076660e-01 9.675844907760620117e-01
9.250000000000000000e+02 4.320802307128906250e+01 -1.954541969299316406e+01 -2.605925083160400391e+00 5.387879610061645508e-01 -6.201411485671997070e-01 6.173579096794128418e-01
9.260000000000000000e+02 4.136338424682617188e+01 -1.830398941040039062e+01 -2.528169870376586914e+00 3.274907171726226807e-01 -6.602037549018859863e-01 7.914216518402099609e-01
9.270000000000000000e+02 4.120465469360351562e+01 -1.735028457641601562e+01 -2.425971508026123047e+00 2.680460512638092041e-01 -6.473776102066040039e-01 7.286732196807861328e-01
9.280000000000000000e+02 3.957241439819335938e+01 -1.917453002929687500e+01 -2.821271419525146484e+00 -1.146889328956604004e+00 -1.190448284149169922e+00 1.576990365982055664e+00
9.290000000000000000e+02 1.625419044494628906e+01 -5.566069126129150391e+00 -4.858371175942011178e-05 -1.197277651954209432e-05 -1.816694566514343023e-05 -1.457895223211380653e-06
9.300000000000000000e+02 1.571015834808349609e+01 -5.153983592987060547e+00 4.461820572032593191e-05 1.953365608642343432e-05 1.924555908772163093e-05 4.831565547647187486e-06
9.310000000000000000e+02 1.400902557373046875e+01 -3.984430551528930664e+00 -4.330027877585962415e-05 -3.046803431061562151e-05 -2.213049447163939476e-05 -1.670002711762208492e-05
9.320000000000000000e+02 1.572356605529785156e+01 -5.996708869934082031e+00 5.561482248594984412e-05 1.808567503758240491e-05 2.211014907516073436e-05 -7.797855687385890633e-06
9.330000000000000000e+02 1.821020698547363281e+01 -7.501936435699462891e+00 -3.957188528147526085e-05 -3.415180117372074164e-06 -1.289611918764421716e-05 3.231743676224141382e-06
9.340000000000000000e+02 1.693467521667480469e+01 -1.101596164703369141e+01 -1.163368651759810746e-04 -1.823560160119086504e-05 -4.037174221593886614e-05 -3.208171256119385362e-05
9.350000000000000000e+02 1.352850055694580078e+01 -4.541151046752929688e+00 4.948875721311196685e-05 3.829476918326690793e-05 2.633505755511578172e-05 1.372190854453947395e-05
9.360000000000000000e+02 1.149371147155761719e+01 -2.639954805374145508e+00 -4.069007991347461939e-05 -4.657076715375296772e-05 -2.617825339257251471e-05 -2.186548772442620248e-05
9.370000000000000000e+02 1.233348560333251953e+01 -3.892765760421752930e+00 4.896118116448633373e-05 4.485671888687647879e-05 2.814537037920672446e-05 2.412857429590076208e-05
9.380000000000000000e+02 1.991146087646484375e+01 -1.043269157409667969e+01 -7.688327605137601495e-05 3.636805922724306583e-05 -1.215456541103776544e-05 -3.670524529297836125e-05
9.390000000000000000e+02 1.910603141784667969e+01 -8.572416305541992188e+00 -6.001911970088258386e-05 1.305300429521594197e-06 -1.761414569045882672e-05 9.047848834597971290e-06
9.400000000000000000e+02 1.957068443298339844e+01 -9.113474845886230469e+00 7.256286335177719593e-05 -9.214501915266737342e-06 1.900450843095313758e-05 -2.680810666788602248e-06
9.410000000000000000e+02 1.841600036621093750e+01 -9.013376235961914062e+00 7.621874829055741429e-05 -7.141650257835863158e-06 2.072312781820073724e-05 -2.375339499849360436e-05
9.420000000000000000e+02 1.790017127990722656e+01 -1.193331050872802734e+01 -2.169576509913895279e-05 -6.384147854987531900e-05 -2.566117291280534118e-05 -3.840673889499157667e-05
9.430000000000000000e+02 2.045046615600585938e+01 -1.160304641723632812e+01 -3.717126310220919549e-05 -4.855253064306452870e-05 -2.571713775978423655e-05 -5.036904258304275572e-05
9.440000000000000000e+02 1.949180793762207031e+01 -1.113826656341552734e+01 -4.316963895689696074e-05 5.403461909736506641e-05 3.259493496443610638e-06 1.854100560194638092e-06
9.450000000000000000e+02 4.576048278808593750e+01 -2.373583412170410156e+01 -2.361851632595062256e-01 -2.835977375507354736e-01 -1.559348702430725098e-01 -8.261893987655639648e-01
9.460000000000000000e+02 4.338354110717773438e+01 -2.355620193481445312e+01 -9.765868633985519409e-02 -4.976111650466918945e-01 -1.785809546709060669e-01 -4.918233454227447510e-01
9.470000000000000000e+02 4.340275955200195312e+01 -2.556362342834472656e+01 1.862235739827156067e-02 -1.009140849113464355e+00 -2.971555292606353760e-01 -5.777034163475036621e-01
9.480000000000000000e+02 2.174263572692871094e+01 -1.346828460693359375e+01 5.000008968636393547e-05 9.500245141680352390e-07 1.528503344161435962e-05 -1.179806758955237456e-06
9.490000000000000000e+02 4.773199844360351562e+01 -2.226510620117187500e+01 -8.849274516105651855e-01 -8.015894889831542969e-02 -2.895259261131286621e-01 -7.133650779724121094e-01
9.500000000000000000e+02 4.857702636718750000e+01 -2.279089164733886719e+01 -5.605344772338867188e-01 1.452626734972000122e-01 -1.245815455913543701e-01 -5.636920928955078125e-01
9.510000000000000000e+02 5.006756210327148438e+01 -2.304003524780273438e+01 -3.442892432212829590e-01 7.430773377418518066e-01 1.196364238858222961e-01 -5.667856335639953613e-02
9.520000000000000000e+02 5.108286666870117188e+01 -2.209013175964355469e+01 -6.078038215637207031e-01 8.587508201599121094e-01 7.528408616781234741e-02 3.013089001178741455e-01
9.530000000000000000e+02 8.385321617126464844e+00 3.324043273925781250e+00 -3.665032088756561279e-01 -2.950651347637176514e-01 -1.984705030918121338e-01 4.766231775283813477e-01
9.540000000000000000e+02 8.438598632812500000e+00 2.601548910140991211e+00 -4.151812493801116943e-01 -2.479354441165924072e-01 -1.989350020885467529e-01 4.407795667648315430e-01
9.550000000000000000e+02 1.853408813476562500e+00 7.609244823455810547e+00 -1.068959850817918777e-02 -3.128444552421569824e-01 -9.706021845340728760e-02 1.454946845769882202e-01
9.560000000000000000e+02 5.530114650726318359e+00 1.874779105186462402e+00 -2.014846950769424438e-01 -5.538683384656906128e-02 -7.706145942211151123e-02 1.519885957241058350e-01
9.570000000000000000e+02 9.171685218811035156e+00 2.676261186599731445e+00 -4.662351012229919434e-01 -3.190554082393646240e-01 -2.355871498584747314e-01 4.992966651916503906e-01
9.580000000000000000e+02 7.726426601409912109e+00 1.859472751617431641e+00 -4.202263355255126953e-01 -1.038384661078453064e-01 -1.572194397449493408e-01 2.960473001003265381e-01
9.590000000000000000e+02 7.005850791931152344e+00 2.569113016128540039e+00 -3.205688893795013428e-01 -1.330574303865432739e-01 -1.360878944396972656e-01 3.046814203262329102e-01
9.600000000000000000e+02 7.702718734741210938e+00 3.275470018386840820e+00 -3.182186782360076904e-01 -2.455635219812393188e-01 -1.691346615552902222e-01 4.184625148773193359e-01
9.610000000000000000e+02 1.766339898109436035e+00 3.801800727844238281e+00 -2.720794640481472015e-02 -8.189236372709274292e-02 -3.273009508848190308e-02 6.258933991193771362e-02
9.620000000000000000e+02 4.174963474273681641e+00 3.563399076461791992e+00 -1.184509992599487305e-01 -1.322432458400726318e-01 -7.520827651023864746e-02 1.761845052242279053e-01
9.630000000000000000e+02 1.234678506851196289e+00 3.184203386306762695e+00 -1.747686415910720825e-02 -4.583513364195823669e-02 -1.899359934031963348e-02 3.024344705045223236e-02
9.640000000000000000e+02 2.583926677703857422e+00 1.969281673431396484e+00 -4.787588119506835938e-02 -3.262006863951683044e-02 -2.414878457784652710e-02 3.818481042981147766e-02
9.650000000000000000e+02 2.611047554016113281e+01 -1.289335727691650391e+01 -7.034617066383361816e-01 -7.370378971099853516e-01 -4.321498870849609375e-01 9.422564506530761719e-01
9.660000000000000000e+02 2.677167892456054688e+01 -1.247557449340820312e+01 -8.149396777153015137e-01 -5.903037786483764648e-01 -4.215730428695678711e-01 1.006306529045104980e+00
9.670000000000000000e+02 2.710198593139648438e+01 -1.494715309143066406e+01 -6.427910327911376953e-01 -3.990513980388641357e-01 -3.125527203083038330e-01 7.203112244606018066e-01
9.680000000000000000e+02 2.605662155151367188e+01 -1.111487770080566406e+01 -8.902072906494140625e-01 -7.921055555343627930e-01 -5.046938657760620117e-01 1.052791953086853027e+00
9.690000000000000000e+02 2.510696792602539062e+01 -1.086433029174804688e+01 -8.796318769454956055e-01 -1.092059850692749023e+00 -5.915075540542602539e-01 1.053765416145324707e+00
9.700000000000000000e+02 2.807247352600097656e+01 -1.155579280853271484e+01 -8.939721584320068359e-01 -4.010938704013824463e-01 -3.885198235511779785e-01 1.060113787651062012e+00
9.710000000000000000e+02 2.712349510192871094e+01 -1.315839672088623047e+01 -7.849216461181640625e-01 -5.014842152595520020e-01 -3.859217762947082520e-01 9.762092828750610352e-01
9.720000000000000000e+02 2.568130874633789062e+01 -1.043754291534423828e+01 -9.332547187805175781e-01 -8.897238969802856445e-01 -5.468935966491699219e-01 1.061512947082519531e+00
9.730000000000000000e+02 3.092911338806152344e+01 -1.634317207336425781e+01 -1.357264280319213867e+00 -7.032967358827590942e-02 -4.282781779766082764e-01 6.483086943626403809e-01
9.740000000000000000e+02 2.783567237854003906e+01 -1.455563354492187500e+01 -7.793158292770385742e-01 -3.607363998889923096e-01 -3.420156538486480713e-01 8.357057571411132812e-01
9.750000000000000000e+02 5.080598068237304688e+01 -1.691190719604492188e+01 -9.769376516342163086e-01 1.445724248886108398e+00 1.406359672546386719e-01 -1.336768865585327148e+00
9.760000000000000000e+02 4.998621368408203125e+01 -1.717361259460449219e+01 -1.704241394996643066e+00 9.127888679504394531e-01 -2.374357730150222778e-01 -5.768418312072753906e-01
9.770000000000000000e+02 5.255998229980468750e+01 -1.673190307617187500e+01 -7.777583599090576172e-01 3.669071674346923828e+00 8.673939704895019531e-01 -4.297715663909912109e+00
9.780000000000000000e+02 5.183868026733398438e+01 -1.292572689056396484e+01 3.728982210159301758e+00 9.057331085205078125e+00 3.835893869400024414e+00 -4.790419578552246094e+00
9.790000000000000000e+02 4.917904663085937500e+01 -1.736019706726074219e+01 -2.217981815338134766e+00 6.233944296836853027e-01 -4.783762097358703613e-01 -7.335349172353744507e-02
9.800000000000000000e+02 4.698711013793945312e+01 -1.862581634521484375e+01 -3.627501726150512695e+00 2.340957224369049072e-01 -1.018021821975708008e+00 2.700528204441070557e-01
9.810000000000000000e+02 4.692764663696289062e+01 -1.795495414733886719e+01 -2.861466646194458008e+00 3.992125689983367920e-01 -7.386762499809265137e-01 5.027070641517639160e-01
9.820000000000000000e+02 4.841405105590820312e+01 -1.755734062194824219e+01 -2.508885860443115234e+00 5.191037654876708984e-01 -5.969346165657043457e-01 2.535676062107086182e-01
9.830000000000000000e+02 4.766699600219726562e+01 -1.776013374328613281e+01 -2.690300941467285156e+00 3.703958690166473389e-01 -6.959715485572814941e-01 3.861134350299835205e-01
9.840000000000000000e+02 4.618687820434570312e+01 -1.812770271301269531e+01 -2.846263170242309570e+00 3.665226697921752930e-01 -7.439221143722534180e-01 5.890147089958190918e-01
9.850000000000000000e+02 5.479228210449218750e+01 -1.587256145477294922e+01 -1.696918845176696777e+00 3.840582370758056641e+00 6.430990695953369141e-01 -2.958701372146606445e+00
9.860000000000000000e+02 5.787499618530273438e+01 -1.639391136169433594e+01 -5.476125717163085938e+00 9.200527332723140717e-03 -1.640077590942382812e+00 1.093724489212036133e+00
9.870000000000000000e+02 5.700157546997070312e+01 -1.890967750549316406e+01 6.949421405792236328e+00 3.014186382293701172e+00 2.989082336425781250e+00 -2.515891492366790771e-01
9.880000000000000000e+02 5.533834457397460938e+01 -1.652807617187500000e+01 -6.798063278198242188e+00 3.867360591888427734e+00 -8.792108893394470215e-01 -3.454998731613159180e+00
9.890000000000000000e+02 5.915317535400390625e+01 -2.483238601684570312e+01 -7.473440766334533691e-01 8.048033714294433594e-01 1.723777502775192261e-02 1.868346035480499268e-01
9.900000000000000000e+02 4.466473007202148438e+01 -1.769570159912109375e+01 -2.345173597335815430e+00 5.997403264045715332e-01 -5.236299633979797363e-01 7.902629971504211426e-01
9.910000000000000000e+02 4.396916198730468750e+01 -1.934982299804687500e+01 -2.883072853088378906e+00 5.185734033584594727e-01 -7.093498110771179199e-01 5.492677092552185059e-01
9.920000000000000000e+02 4.390573120117187500e+01 -1.859846115112304688e+01 -2.689741849899291992e+00 6.019973158836364746e-01 -6.263233423233032227e-01 7.408352494239807129e-01
9.930000000000000000e+02 4.311989974975585938e+01 -1.876140975952148438e+01 -2.663567304611206055e+00 6.286354064941406250e-01 -6.104795932769775391e-01 7.629505991935729980e-01
9.940000000000000000e+02 2.528142738342285156e+01 -9.760053634643554688e+00 -9.700589179992675781e-01 -1.000951051712036133e+00 -5.913029909133911133e-01 1.072901844978332520e+00
9.950000000000000000e+02 2.443661308288574219e+01 -8.421121597290039062e+00 -1.040756464004516602e+00 -1.181547999382019043e+00 -6.666913032531738281e-01 1.090854167938232422e+00
9.960000000000000000e+02 2.399928855895996094e+01 -7.760794639587402344e+00 -1.071977615356445312e+00 -1.249152064323425293e+00 -6.963388919830322266e-01 1.098891854286193848e+00
9.970000000000000000e+02 2.308113098144531250e+01 -6.456053256988525391e+00 -1.119081616401672363e+00 -1.341756582260131836e+00 -7.382514476776123047e-01 1.105741500854492188e+00
9.980000000000000000e+02 2.158395767211914062e+01 -4.518018245697021484e+00 -1.141887187957763672e+00 -1.377229928970336914e+00 -7.557351589202880859e-01 1.081644415855407715e+00
9.990000000000000000e+02 2.260692214965820312e+01 -5.809273719787597656e+00 -1.131371974945068359e+00 -1.364757776260375977e+00 -7.488389015197753906e-01 1.100337505340576172e+00
1.000000000000000000e+03 2.364262771606445312e+01 -6.024335861206054688e+00 -1.033732175827026367e+00 -1.149966239929199219e+00 -6.551095247268676758e-01 9.918572306632995605e-01
1.001000000000000000e+03 1.697090721130371094e+01 1.702636182308197021e-01 -8.062986731529235840e-01 -1.060823678970336914e+00 -5.601366758346557617e-01 8.570414185523986816e-01
1.002000000000000000e+03 1.245785522460937500e+01 1.039315700531005859e+00 -9.233075976371765137e-01 -5.891532301902770996e-01 -4.537382423877716064e-01 7.078865766525268555e-01
1.003000000000000000e+03 1.467918777465820312e+01 -8.909691870212554932e-02 -1.124949693679809570e+00 -8.357120752334594727e-01 -5.881984829902648926e-01 9.093762040138244629e-01
1.004000000000000000e+03 1.537828922271728516e+01 -4.890635311603546143e-01 -1.176583409309387207e+00 -9.242747426033020020e-01 -6.302574276924133301e-01 9.629672169685363770e-01
1.005000000000000000e+03 2.045875740051269531e+01 -4.440179347991943359e+00 -1.317271947860717773e+00 -1.516911625862121582e+00 -8.502550721168518066e-01 1.251853346824645996e+00
1.006000000000000000e+03 1.867930603027343750e+01 -2.801106929779052734e+00 -1.327745795249938965e+00 -1.347351193428039551e+00 -8.025290966033935547e-01 1.182016015052795410e+00
1.007000000000000000e+03 2.039757156372070312e+01 -3.378162145614624023e+00 -1.137032151222229004e+00 -1.356128811836242676e+00 -7.479482889175415039e-01 1.068460822105407715e+00
1.008000000000000000e+03 2.088249015808105469e+01 -2.846361637115478516e+00 -9.768080115318298340e-01 -1.244076609611511230e+00 -6.662653684616088867e-01 9.297686815261840820e-01
1.009000000000000000e+03 2.211273384094238281e+01 -5.156862735748291016e+00 -1.138057947158813477e+00 -1.370748758316040039e+00 -7.526419758796691895e-01 1.091792345046997070e+00
1.010000000000000000e+03 1.850808334350585938e+01 -1.801232218742370605e+00 -1.101050853729248047e+00 -1.242188572883605957e+00 -7.029718160629272461e-01 1.023560523986816406e+00
1.011000000000000000e+03 1.785895729064941406e+01 -1.306624174118041992e+00 -1.072545886039733887e+00 -1.183184266090393066e+00 -6.767190694808959961e-01 9.980022311210632324e-01
1.012000000000000000e+03 1.674641990661621094e+01 -1.344356536865234375e+00 -1.262517809867858887e+00 -1.097060084342956543e+00 -7.078733444213867188e-01 1.065223097801208496e+00
1.013000000000000000e+03 1.977763175964355469e+01 -2.839549303054809570e+00 -1.139951348304748535e+00 -1.331143617630004883e+00 -7.413285374641418457e-01 1.059226512908935547e+00
1.014000000000000000e+03 1.190217494964599609e+01 -4.504202365875244141e+00 -5.698429959011264145e-05 -5.019815216655842960e-05 -3.215473770978860557e-05 -3.030967127415351570e-05
1.015000000000000000e+03 6.028567314147949219e+00 -1.870354652404785156e+00 2.011620927078183740e-05 5.905450598220340908e-05 2.375121584918815643e-05 1.149365562014281750e-05
1.016000000000000000e+03 7.447010517120361328e+00 -2.669640541076660156e+00 -7.203192944871261716e-05 -3.598752300604246557e-05 -3.240583464503288269e-05 -2.805121584970038384e-05
1.017000000000000000e+03 6.689562797546386719e+00 -2.589560031890869141e+00 7.725433533778414130e-05 6.197554466780275106e-05 4.176896254648454487e-05 -9.248387868865393102e-06
1.018000000000000000e+03 8.269358634948730469e+00 -2.624023199081420898e+00 4.359822196420282125e-05 5.840893572894856334e-05 3.060214658034965396e-05 3.486379137029871345e-05
1.019000000000000000e+03 5.402212142944335938e+00 -3.537231445312500000e+00 -7.098095920810010284e-06 -4.064853328600293025e-06 -3.348884774823090993e-06 -4.838258973904885352e-05
1.020000000000000000e+03 1.770654678344726562e+00 -9.345503807067871094e+00 -2.270757395308464766e-04 1.147292095993179828e-05 -6.468084757216274738e-05 -1.223176241182954982e-05
1.021000000000000000e+03 1.942187190055847168e+00 -1.968962907791137695e+00 -3.949439633288420737e-05 -2.615508310555014759e-05 -1.969484401342924684e-05 2.025513822445645928e-05
1.022000000000000000e+03 6.902177333831787109e-01 -6.396703720092773438e+00 1.156582438852638006e-04 1.412692540725402068e-06 3.512128023430705070e-05 1.873366818472277373e-05
1.023000000000000000e+03 7.246753573417663574e-01 -4.887168884277343750e+00 -9.281830716645345092e-05 -1.926345476022106595e-06 -2.842339563358109444e-05 -1.867902210506144911e-05
1.024000000000000000e+03 5.868945717811584473e-01 -3.452676534652709961e+00 8.682651969138532877e-05 -1.299828227274701931e-06 2.565800787124317139e-05 3.238709541619755328e-05
1.025000000000000000e+03 1.215764331817626953e+01 2.176419973373413086e+00 -6.196030378341674805e-01 -6.323599219322204590e-01 -3.755888640880584717e-01 6.734982728958129883e-01
1.026000000000000000e+03 1.365092945098876953e+01 1.305124998092651367e+00 -7.977068424224853516e-01 -7.483409643173217773e-01 -4.638143479824066162e-01 7.641080617904663086e-01
1.027000000000000000e+03 1.438665390014648438e+01 9.026783704757690430e-01 -8.547468185424804688e-01 -8.267510533332824707e-01 -5.044493675231933594e-01 8.158279657363891602e-01
1.028000000000000000e+03 1.207635974884033203e+01 -5.419363021850585938e+00 -5.050836989539675415e-05 -6.710077286697924137e-05 -3.528274464770220220e-05 -3.543164712027646601e-05
1.029000000000000000e+03 1.106903266906738281e+01 -3.269275665283203125e+00 5.292217974783852696e-05 4.618491948349401355e-05 2.973212940560188144e-05 1.068366054823854938e-05
1.030000000000000000e+03 4.233863449096679688e+01 -2.572416877746582031e+01 -2.432429976761341095e-02 -1.312473654747009277e+00 -4.010393619537353516e-01 -2.228033095598220825e-01
1.031000000000000000e+03 4.238710021972656250e+01 -2.701444244384765625e+01 1.426602527499198914e-02 -1.898495554924011230e+00 -5.652688741683959961e-01 -2.325672209262847900e-01
1.032000000000000000e+03 5.616416931152343750e+01 -3.254072570800781250e+01 1.552775502204895020e+00 7.385420322418212891e+00 2.681458711624145508e+00 -2.085446596145629883e+00
1.033000000000000000e+03 6.949972534179687500e+01 -2.174910926818847656e+01 4.905345737934112549e-01 2.506133079528808594e+00 8.990002870559692383e-01 -1.743218421936035156e+00
1.034000000000000000e+03 6.556054687500000000e+01 -2.090026855468750000e+01 -8.586370348930358887e-01 2.429747581481933594e-01 -1.846986860036849976e-01 2.587787210941314697e-01
1.035000000000000000e+03 5.594055557250976562e+01 -2.920503425598144531e+01 1.010023355484008789e+00 1.085122776031494141e+01 3.558375358581542969e+00 2.150632143020629883e+00
1.036000000000000000e+03 7.106153869628906250e+01 -2.287867164611816406e+01 1.758457303047180176e+00 8.173176765441894531e+00 2.979490280151367188e+00 -3.284831762313842773e+00
1.037000000000000000e+03 7.168149566650390625e+01 -2.397252273559570312e+01 1.952519536018371582e+00 1.288662910461425781e+01 4.451744556427001953e+00 -2.568677902221679688e+00
1.038000000000000000e+03 7.800473022460937500e+01 -2.236391830444335938e+01 7.933780550956726074e-02 7.012612819671630859e+00 2.127585172653198242e+00 5.039403438568115234e-01
1.039000000000000000e+03 7.177783966064453125e+01 -3.058850097656250000e+01 -1.368663311004638672e-01 7.892644405364990234e+00 2.326733350753784180e+00 5.516827702522277832e-01
1.040000000000000000e+03 3.282039642333984375e+01 -1.786153030395507812e+01 -1.858274936676025391e+00 3.247207961976528168e-03 -5.565083622932434082e-01 3.029938936233520508e-01
1.041000000000000000e+03 5.657914733886718750e+01 -2.105825233459472656e+01 3.256376981735229492e-01 7.598638534545898438e+00 2.377282857894897461e+00 -6.860245466232299805e-01
1.042000000000000000e+03 7.174275207519531250e+01 -2.737843704223632812e+01 6.340754032135009766e-01 1.344815158843994141e+01 4.224668025970458984e+00 1.003243207931518555e+00
1.043000000000000000e+03 7.322798919677734375e+01 -2.687505912780761719e+01 1.430483818054199219e+00 1.034769058227539062e+01 3.533452272415161133e+00 -4.730155467987060547e-01
1.044000000000000000e+03 4.023657608032226562e+01 -1.981584167480468750e+01 -1.758838415145874023e+00 -7.167640924453735352e-01 -7.426807880401611328e-01 1.188116788864135742e+00
1.045000000000000000e+03 4.083828735351562500e+01 -1.942427635192871094e+01 -2.496701478958129883e+00 -6.315501779317855835e-02 -7.679569125175476074e-01 1.188732147216796875e+00
1.046000000000000000e+03 5.533860397338867188e+01 -2.643661499023437500e+01 -4.228806868195533752e-02 6.722143173217773438e+00 2.003956556320190430e+00 8.869305253028869629e-01
1.047000000000000000e+03 5.728258132934570312e+01 -2.669881057739257812e+01 1.088394880294799805e+00 4.887473106384277344e+00 1.792760372161865234e+00 2.407143831253051758e+00
1.048000000000000000e+03 7.161779785156250000e+01 -2.100711441040039062e+01 -8.336860537528991699e-01 7.713173389434814453e+00 2.063846111297607422e+00 -1.573966145515441895e+00
1.049000000000000000e+03 7.278895568847656250e+01 -2.801747703552246094e+01 1.221221446990966797e+00 1.055324935913085938e+01 3.532341241836547852e+00 -9.525616466999053955e-02
1.050000000000000000e+03 5.506526947021484375e+01 -3.189962196350097656e+01 1.893955349922180176e+00 8.026041984558105469e+00 2.975999116897583008e+00 -2.125429064035415649e-01
1.051000000000000000e+03 3.554184722900390625e+01 -1.698074722290039062e+01 -2.677393198013305664e+00 -2.441548407077789307e-01 -8.764644265174865723e-01 8.584616184234619141e-01
1.052000000000000000e+03 3.672959518432617188e+01 -1.804465293884277344e+01 -4.260467529296875000e+00 -2.776838243007659912e-01 -1.361445426940917969e+00 7.551798820495605469e-01
1.053000000000000000e+03 2.856575775146484375e+01 -1.617945098876953125e+01 -9.727582931518554688e-01 -2.644932568073272705e-01 -3.711754679679870605e-01 5.840799808502197266e-01
1.054000000000000000e+03 3.411241149902343750e+01 -1.793222808837890625e+01 -2.454195737838745117e+00 -8.041379041969776154e-03 -7.386711835861206055e-01 2.820958793163299561e-01
1.055000000000000000e+03 3.196958923339843750e+01 -1.660917282104492188e+01 -1.591204643249511719e+00 -2.514050155878067017e-02 -4.849035441875457764e-01 6.406791806221008301e-01
1.056000000000000000e+03 6.282661819458007812e+01 -3.505410766601562500e+01 -1.954386711120605469e+00 -2.009619772434234619e-01 -6.466045975685119629e-01 -3.693340420722961426e-01
1.057000000000000000e+03 6.503125000000000000e+01 -3.605940628051757812e+01 -8.233755826950073242e-01 -6.323201209306716919e-02 -2.659822702407836914e-01 -3.027770519256591797e-01
1.058000000000000000e+03 6.145421981811523438e+01 -3.710398101806640625e+01 -2.996808290481567383e-01 8.026102185249328613e-02 -6.582594662904739380e-02 -5.794323682785034180e-01
1.059000000000000000e+03 6.484606170654296875e+01 -3.958573150634765625e+01 4.385372698307037354e-01 5.233647227287292480e-01 2.885706126689910889e-01 -8.538666367530822754e-02
1.060000000000000000e+03 5.647258758544921875e+01 -3.553624343872070312e+01 -6.660013794898986816e-01 3.801062822341918945e+00 9.405183792114257812e-01 -1.368478536605834961e+00
1.061000000000000000e+03 7.574480438232421875e+01 -2.730064773559570312e+01 8.506096005439758301e-01 7.968590736389160156e+00 2.645760059356689453e+00 -7.112627029418945312e-01
1.062000000000000000e+03 7.258503723144531250e+01 -2.499919128417968750e+01 1.679181694984436035e+00 1.218248653411865234e+01 4.158500194549560547e+00 -1.041586637496948242e+00
1.063000000000000000e+03 5.970254898071289062e+01 -2.235332107543945312e+01 4.841670989990234375e-01 1.171621918678283691e+00 4.967367053031921387e-01 1.923002153635025024e-01
1.064000000000000000e+03 5.786794281005859375e+01 -2.165926742553710938e+01 9.252643585205078125e-01 4.123556137084960938e+00 1.514646172523498535e+00 -6.027124524116516113e-01
1.065000000000000000e+03 6.115620040893554688e+01 -1.616151046752929688e+01 1.908309310674667358e-01 1.000988841056823730e+00 3.575459420680999756e-01 1.348775863647460938e+00
1.066000000000000000e+03 7.107963562011718750e+01 -3.189338874816894531e+01 -6.941705346107482910e-01 5.665584087371826172e+00 1.491424083709716797e+00 8.466852903366088867e-01
1.067000000000000000e+03 5.860945510864257812e+01 3.863372802734375000e+01 -3.099908232688903809e-01 -2.847990691661834717e-01 -1.784369647502899170e-01 2.906222939491271973e-01
1.068000000000000000e+03 6.472649383544921875e+01 4.003802108764648438e+01 2.643063962459564209e-01 5.712432861328125000e-01 2.506649196147918701e-01 3.576646000146865845e-02
1.069000000000000000e+03 8.412079811096191406e+00 -2.667152404785156250e+01 -1.626919984119012952e-04 5.779128405265510082e-04 1.245662569999694824e-04 3.216190962120890617e-04
1.070000000000000000e+03 5.377032852172851562e+01 -1.513724517822265625e+01 5.093558788299560547e+00 6.555373668670654297e+00 3.494679689407348633e+00 -5.680226325988769531e+00
1.071000000000000000e+03 4.185707855224609375e+01 -3.057654380798339844e+01 -7.624668478965759277e-01 -1.954583406448364258e+00 -8.151150941848754883e-01 -7.589080333709716797e-01
1.072000000000000000e+03 4.300639724731445312e+01 -2.952563285827636719e+01 -5.346456766128540039e-01 -1.747161507606506348e+00 -6.845421791076660156e-01 -5.484440326690673828e-01
1.073000000000000000e+03 4.383981704711914062e+01 -2.776689338684082031e+01 -2.503831982612609863e-01 -8.670598268508911133e-01 -3.352329134941101074e-01 -6.787562966346740723e-01
1.074000000000000000e+03 9.936090469360351562e+00 -1.500722026824951172e+01 3.521639155223965645e-04 7.812497642589733005e-06 1.079929206753149629e-04 2.125419414369389415e-04
1.075000000000000000e+03 3.650961685180664062e+01 -3.308011245727539062e+01 -5.027503371238708496e-01 -1.135623157024383545e-01 -1.848937869071960449e-01 -1.990953087806701660e-01
1.076000000000000000e+03 5.492042922973632812e+01 3.991096878051757812e+01 -3.152708709239959717e-01 -3.892933577299118042e-02 -1.062600612640380859e-01 9.193261712789535522e-02
1.077000000000000000e+03 1.153728866577148438e+01 -2.904105758666992188e+01 6.969284149818122387e-04 -5.017657531425356865e-04 5.854879418620839715e-05 -9.500758023932576180e-04
1.078000000000000000e+03 1.189611244201660156e+01 -3.111228942871093750e+01 2.128107706084847450e-03 -7.546488195657730103e-04 4.120377125218510628e-04 -2.481149567756801844e-04
1.079000000000000000e+03 6.062790679931640625e+01 -1.515116405487060547e+01 8.427879810333251953e-01 7.323420047760009766e-01 4.725390076637268066e-01 9.370261430740356445e-01
1.080000000000000000e+03 2.330519485473632812e+01 -3.335082626342773438e+01 5.328780040144920349e-03 -3.941873088479042053e-03 4.160721146035939455e-04 -7.045596139505505562e-04
1.081000000000000000e+03 4.213057327270507812e+01 1.334282398223876953e+01 1.358124911785125732e-01 5.267277717590332031e+00 1.620927095413208008e+00 5.304194241762161255e-02
1.082000000000000000e+03 4.086211013793945312e+01 1.171408653259277344e+01 7.690016627311706543e-01 4.800756454467773438e+00 1.670927524566650391e+00 -7.784455418586730957e-01
1.083000000000000000e+03 1.518554019927978516e+01 -3.427183532714843750e+01 1.660191803239285946e-03 1.392644364386796951e-03 9.158508619293570518e-04 3.256847849115729332e-03
1.084000000000000000e+03 1.634637451171875000e+01 -3.293499374389648438e+01 6.072511896491050720e-03 2.135115908458828926e-03 2.462288364768028259e-03 3.715608501806855202e-03
1.085000000000000000e+03 6.794898986816406250e+01 3.424061203002929688e+01 -9.265614748001098633e-01 2.446137666702270508e+00 4.558728635311126709e-01 -2.661680579185485840e-01
1.086000000000000000e+03 3.683966827392578125e+01 -3.478266525268554688e+01 -1.956220865249633789e-01 -2.509744465351104736e-01 -1.339789628982543945e-01 -2.987472712993621826e-01
1.087000000000000000e+03 4.000634765625000000e+01 1.851857757568359375e+01 3.297086656093597412e-01 3.194253683090209961e+00 1.057188749313354492e+00 3.422910720109939575e-02
1.088000000000000000e+03 4.096911239624023438e+01 1.657610511779785156e+01 3.467475771903991699e-01 3.810896396636962891e+00 1.247293114662170410e+00 1.254707723855972290e-01
1.089000000000000000e+03 7.025979614257812500e+01 6.100712299346923828e+00 2.127681225538253784e-01 1.262266063690185547e+01 3.850628614425659180e+00 -1.269308924674987793e-01
1.090000000000000000e+03 7.420304107666015625e+01 7.936462879180908203e+00 6.895489245653152466e-02 8.623568534851074219e+00 2.607757091522216797e+00 6.694328784942626953e-01
1.091000000000000000e+03 7.500866413116455078e+00 -2.239273262023925781e+01 -4.417554009705781937e-04 -9.254720498574897647e-05 -1.602907723281532526e-04 2.810137812048196793e-05
1.092000000000000000e+03 9.695342063903808594e+00 -2.919869804382324219e+01 3.786634188145399094e-04 -5.503880092874169350e-04 -5.151738514541648328e-05 -4.827908705919981003e-04
1.093000000000000000e+03 1.718165397644042969e+01 -8.913189888000488281e+00 3.610711428336799145e-05 -3.278676786067080684e-06 9.848530680756084621e-06 -4.199741306365467608e-05
1.094000000000000000e+03 7.784549713134765625e+01 -3.502483367919921875e+01 -1.478734761476516724e-01 8.731727600097656250e+00 2.575156450271606445e+00 -3.937068283557891846e-01
1.095000000000000000e+03 7.680307006835937500e+01 -2.688113975524902344e+01 6.379631161689758301e-01 7.620785713195800781e+00 2.477624654769897461e+00 -5.352738499641418457e-01
1.096000000000000000e+03 7.579057312011718750e+01 -2.077241325378417969e+01 -2.714949846267700195e-01 7.709150314331054688e+00 2.231296539306640625e+00 4.900874197483062744e-01
1.097000000000000000e+03 7.932146453857421875e+01 -2.514489364624023438e+01 6.729489564895629883e-02 5.932425022125244141e+00 1.799915909767150879e+00 9.741086512804031372e-03
1.098000000000000000e+03 7.796201324462890625e+01 -2.381185913085937500e+01 2.240068018436431885e-01 6.902241230010986328e+00 2.137874364852905273e+00 3.136251270771026611e-01
1.099000000000000000e+03 7.805381011962890625e+01 -3.086184883117675781e+01 -6.268093734979629517e-02 7.860559940338134766e+00 2.339363813400268555e+00 -8.424347043037414551e-01
1.100000000000000000e+03 7.932478332519531250e+01 -3.212817382812500000e+01 -8.123222738504409790e-02 8.385232925415039062e+00 2.491200447082519531e+00 -3.154683709144592285e-01
1.101000000000000000e+03 7.795893096923828125e+01 -3.224908065795898438e+01 -1.103015989065170288e-01 8.210120201110839844e+00 2.429945468902587891e+00 -7.872476577758789062e-01
1.102000000000000000e+03 7.457220458984375000e+01 -3.550339126586914062e+01 -6.567448377609252930e-01 7.107473373413085938e+00 1.935218572616577148e+00 -2.612884938716888428e-01
1.103000000000000000e+03 7.658863067626953125e+01 -3.879780197143554688e+01 -3.854209184646606445e-01 8.131984710693359375e+00 2.323969125747680664e+00 -7.585586607456207275e-02
1.104000000000000000e+03 7.874742126464843750e+01 -4.037932586669921875e+01 -1.147271320223808289e-01 9.394663810729980469e+00 2.783980846405029297e+00 3.027111291885375977e-01
1.105000000000000000e+03 7.818203735351562500e+01 1.662666702270507812e+01 7.410692516714334488e-03 7.403972148895263672e+00 2.223414897918701172e+00 2.441182285547256470e-01
1.106000000000000000e+03 7.794079589843750000e+01 3.307150650024414062e+01 -8.152893185615539551e-02 9.623681068420410156e+00 2.862645864486694336e+00 3.163176178932189941e-01
1.107000000000000000e+03 7.825873565673828125e+01 2.911135673522949219e+01 -1.701272279024124146e-02 9.207258224487304688e+00 2.757073640823364258e+00 4.400510489940643311e-01
1.108000000000000000e+03 7.941102600097656250e+01 2.783676338195800781e+01 -2.170333755202591419e-04 9.328680992126464844e+00 2.798539161682128906e+00 1.878797113895416260e-01
1.109000000000000000e+03 7.820303344726562500e+01 2.643899726867675781e+01 1.756576262414455414e-02 8.709599494934082031e+00 2.618149757385253906e+00 4.474566578865051270e-01
1.110000000000000000e+03 7.816710662841796875e+01 2.506841850280761719e+01 2.929681167006492615e-02 8.471648216247558594e+00 2.550283670425415039e+00 4.200526177883148193e-01
1.111000000000000000e+03 7.938742828369140625e+01 2.507132530212402344e+01 2.018223749473690987e-03 8.611796379089355469e+00 2.584144353866577148e+00 1.761854887008666992e-01
1.112000000000000000e+03 7.700341033935546875e+01 1.659235191345214844e+01 -2.834884915500879288e-03 7.661622047424316406e+00 2.297636270523071289e+00 3.307178318500518799e-01
1.113000000000000000e+03 7.938449859619140625e+01 1.808155059814453125e+01 1.162515673786401749e-02 7.335438728332519531e+00 2.204119205474853516e+00 1.074245274066925049e-01
1.114000000000000000e+03 7.816733551025390625e+01 1.802014923095703125e+01 9.565868414938449860e-03 7.551366329193115234e+00 2.268279552459716797e+00 2.478106170892715454e-01
1.115000000000000000e+03 7.817816162109375000e+01 1.524394130706787109e+01 -1.495699770748615265e-02 7.264500141143798828e+00 2.174862861633300781e+00 2.412346601486206055e-01
1.116000000000000000e+03 7.238325500488281250e+01 9.141127586364746094e+00 -1.817518174648284912e-01 9.417678833007812500e+00 2.770778179168701172e+00 5.647019147872924805e-01
1.117000000000000000e+03 7.811363983154296875e+01 1.106017684936523438e+01 -3.542267531156539917e-02 6.790277481079101562e+00 2.026456356048583984e+00 3.624452948570251465e-01
1.118000000000000000e+03 7.938173675537109375e+01 -1.952757835388183594e+01 -5.120467767119407654e-02 7.316807270050048828e+00 2.179680824279785156e+00 1.616784781217575073e-01
1.119000000000000000e+03 7.809849548339843750e+01 -2.094211769104003906e+01 -5.504333600401878357e-02 7.204753398895263672e+00 2.144912958145141602e+00 5.002412199974060059e-01
1.120000000000000000e+03 7.810000610351562500e+01 -1.409564590454101562e+01 -7.724809646606445312e-02 7.401956558227539062e+00 2.197412490844726562e+00 -1.443604081869125366e-01
1.121000000000000000e+03 7.806309509277343750e+01 -7.153476238250732422e+00 -2.107921242713928223e-02 6.638430118560791016e+00 1.985205292701721191e+00 -4.087755084037780762e-01
1.122000000000000000e+03 7.809830474853515625e+01 1.233747005462646484e+00 1.080528125166893005e-01 5.750133037567138672e+00 1.757455706596374512e+00 -7.869645953178405762e-02
1.123000000000000000e+03 7.685771942138671875e+01 8.187632560729980469e+00 1.533676777034997940e-02 7.090384006500244141e+00 2.131716251373291016e+00 5.614908337593078613e-01
1.124000000000000000e+03 7.941458129882812500e+01 2.921169853210449219e+01 -4.164821002632379532e-03 9.702507019042968750e+00 2.909502506256103516e+00 1.807076483964920044e-01
1.125000000000000000e+03 7.821575927734375000e+01 3.043324279785156250e+01 -4.169795289635658264e-02 9.429687500000000000e+00 2.816396713256835938e+00 4.113907217979431152e-01
1.126000000000000000e+03 7.799477386474609375e+01 4.167127609252929688e+01 3.313606977462768555e-01 1.004910087585449219e+01 3.114138603210449219e+00 -9.316545724868774414e-02
1.127000000000000000e+03 7.390647888183593750e+01 3.833197402954101562e+01 -1.941960602998733521e-01 6.828905582427978516e+00 1.990412831306457520e+00 1.293942630290985107e-01
1.128000000000000000e+03 7.924940490722656250e+01 3.470564651489257812e+01 -1.975847221910953522e-02 1.069785213470458984e+01 3.203428030014038086e+00 7.303764671087265015e-02
1.129000000000000000e+03 7.572740936279296875e+01 3.670379257202148438e+01 -2.967894375324249268e-01 8.386730194091796875e+00 2.426982164382934570e+00 2.058257907629013062e-01
1.130000000000000000e+03 7.253919219970703125e+01 4.498559951782226562e+00 5.006107687950134277e-01 1.020422649383544922e+01 3.211451292037963867e+00 4.617377519607543945e-01
1.131000000000000000e+03 7.937921905517578125e+01 4.136637210845947266e+00 1.575652509927749634e-02 4.857040882110595703e+00 1.461839199066162109e+00 7.012509554624557495e-02
1.132000000000000000e+03 7.815354156494140625e+01 4.064631462097167969e+00 1.068435758352279663e-01 5.815116405487060547e+00 1.776587963104248047e+00 1.921068131923675537e-01
1.133000000000000000e+03 7.684215545654296875e+01 1.160841464996337891e+00 2.509844005107879639e-01 6.585255622863769531e+00 2.050871849060058594e+00 -8.600132912397384644e-02
1.134000000000000000e+03 7.811069488525390625e+01 -2.998159646987915039e+00 4.170354455709457397e-02 6.062818527221679688e+00 1.831356644630432129e+00 -3.831067085266113281e-01
1.135000000000000000e+03 7.936742401123046875e+01 -4.252053260803222656e+00 4.052855074405670166e-03 5.762218952178955078e+00 1.729881525039672852e+00 -1.671058684587478638e-01
1.136000000000000000e+03 7.808740234375000000e+01 -5.773904323577880859e+00 -7.066580001264810562e-03 6.439011573791503906e+00 1.929583549499511719e+00 -4.209350645542144775e-01
1.137000000000000000e+03 7.804529571533203125e+01 -9.925149917602539062e+00 -3.376981988549232483e-02 6.993783473968505859e+00 2.088004112243652344e+00 -3.419819176197052002e-01
1.138000000000000000e+03 7.935298919677734375e+01 -1.120398426055908203e+01 -8.578627370297908783e-03 7.347234725952148438e+00 2.201596736907958984e+00 -1.153556331992149353e-01
1.139000000000000000e+03 7.807628631591796875e+01 -1.271301078796386719e+01 -5.975988507270812988e-02 7.292748451232910156e+00 2.169896602630615234e+00 -2.228173166513442993e-01
1.140000000000000000e+03 7.815821075439453125e+01 -1.682939720153808594e+01 -1.053246781229972839e-01 7.490901470184326172e+00 2.215673208236694336e+00 7.900976389646530151e-02
1.141000000000000000e+03 7.938966369628906250e+01 -1.813954162597656250e+01 -1.339725032448768616e-02 7.603215217590332031e+00 2.276945352554321289e+00 8.884033560752868652e-02
1.142000000000000000e+03 7.817667388916015625e+01 -1.818665313720703125e+01 -1.201300546526908875e-01 7.445003509521484375e+00 2.197462081909179688e+00 2.332380115985870361e-01
1.143000000000000000e+03 1.032963562011718750e+01 -1.738592720031738281e+01 7.808401715010404587e-04 8.402050298172980547e-05 2.594582038000226021e-04 -3.203155938535928726e-05
1.144000000000000000e+03 8.535533905029296875e+00 -1.832390975952148438e+01 5.336604663170874119e-04 -3.787403693422675133e-05 1.487359259044751525e-04 -1.278984018426854163e-05
1.145000000000000000e+03 2.480982971191406250e+01 -3.342134857177734375e+01 4.826431162655353546e-03 3.726657014340162277e-04 1.559728989377617836e-03 -8.719677862245589495e-05
1.146000000000000000e+03 2.521051597595214844e+01 -3.491125106811523438e+01 -6.003884598612785339e-03 -8.285664021968841553e-03 -4.286864306777715683e-03 -8.130092173814773560e-03
1.147000000000000000e+03 3.856061935424804688e+01 -3.444899368286132812e+01 -2.135690748691558838e-01 -4.577462971210479736e-01 -2.013946175575256348e-01 -3.575458824634552002e-01
1.148000000000000000e+03 8.862168312072753906e+00 -1.722529602050781250e+01 -6.209332495927810669e-04 -1.532485184725373983e-04 -2.322545333299785852e-04 1.558049120831128675e-06
1.149000000000000000e+03 4.006931686401367188e+01 -3.384410858154296875e+01 -2.327127307653427124e-01 -7.563027739524841309e-01 -2.967046499252319336e-01 -4.282912015914916992e-01
1.150000000000000000e+03 7.099634552001953125e+01 1.288124752044677734e+01 -2.514921128749847412e-01 8.994459152221679688e+00 2.622889995574951172e+00 -9.669782966375350952e-02
1.151000000000000000e+03 2.931764984130859375e+01 -3.210965347290039062e+01 1.210790127515792847e-03 7.405551616102457047e-03 2.584902569651603699e-03 -6.172001361846923828e-03
1.152000000000000000e+03 3.026291847229003906e+01 -3.448746109008789062e+01 -3.561616316437721252e-02 -1.362461596727371216e-02 -1.477223355323076248e-02 -3.578098490834236145e-02
1.153000000000000000e+03 1.787902593612670898e+00 -2.471138000488281250e+01 5.351931904442608356e-04 -6.278544606175273657e-05 1.417223247699439526e-04 4.972960232407785952e-05
1.154000000000000000e+03 7.407897472381591797e+00 -2.381739234924316406e+01 4.126426938455551863e-04 1.399423581460723653e-05 1.279910793527960777e-04 2.296827688041958027e-06
1.155000000000000000e+03 2.793294715881347656e+01 -3.190647888183593750e+01 1.064207125455141068e-02 -8.415131829679012299e-03 6.680818041786551476e-04 -7.313608657568693161e-03
1.156000000000000000e+03 2.888530349731445312e+01 -3.386291503906250000e+01 -1.963254623115062714e-02 -1.504407823085784912e-02 -1.040298771113157272e-02 -2.385844662785530090e-02
1.157000000000000000e+03 8.825881004333496094e+00 -2.843273925781250000e+01 1.036392641253769398e-03 4.477105394471436739e-04 4.452309512998908758e-04 1.584073761478066444e-04
1.158000000000000000e+03 2.756835746765136719e+01 -3.367423629760742188e+01 -5.015959031879901886e-03 1.043093623593449593e-03 -1.191859599202871323e-03 -5.845522042363882065e-03
1.159000000000000000e+03 2.066905784606933594e+01 -3.299125289916992188e+01 8.822266943752765656e-03 -4.370876122266054153e-03 1.335417269729077816e-03 1.870906678959727287e-03
1.160000000000000000e+03 1.928917884826660156e+01 -3.302806472778320312e+01 7.386202923953533173e-03 3.625977318733930588e-03 3.303654026240110397e-03 3.460895968601107597e-03
1.161000000000000000e+03 5.333635330200195312e+01 -1.594717597961425781e+01 1.082201525568962097e-01 6.355152130126953125e+00 1.939011693000793457e+00 -4.983839511871337891e+00
1.162000000000000000e+03 5.216218948364257812e+01 3.333138656616210938e+01 -1.553837954998016357e-01 1.488905698060989380e-01 -1.947966171428561211e-03 4.263726249337196350e-02
1.163000000000000000e+03 5.025492477416992188e+01 3.683845138549804688e+01 -4.144323468208312988e-01 6.463014483451843262e-01 6.956072896718978882e-02 1.469891220331192017e-01
1.164000000000000000e+03 6.598355865478515625e+01 3.634244918823242188e+01 -4.673445820808410645e-01 8.792729377746582031e-01 1.235785111784934998e-01 -1.332376897335052490e-01
1.165000000000000000e+03 7.101396942138671875e+01 2.414763832092285156e+01 3.198070228099822998e-01 8.115231513977050781e+00 2.530511617660522461e+00 -8.474462665617465973e-03
1.166000000000000000e+03 7.092522430419921875e+01 2.566637611389160156e+01 3.310283422470092773e-01 7.615357875823974609e+00 2.383915901184082031e+00 -5.826013162732124329e-02
1.167000000000000000e+03 6.970108795166015625e+01 1.160996437072753906e+01 -3.925246000289916992e-01 7.785099029541015625e+00 2.217772483825683594e+00 9.647523611783981323e-02
1.168000000000000000e+03 4.593192672729492188e+01 7.060144841670989990e-02 7.198946475982666016e-01 3.527298450469970703e+00 1.274158000946044922e+00 -1.711503028869628906e+00
1.169000000000000000e+03 6.107220458984375000e+01 3.858760452270507812e+01 -2.870502769947052002e-01 -2.988333702087402344e-01 -1.757650971412658691e-01 2.583280205726623535e-01
1.170000000000000000e+03 6.644860076904296875e+01 -8.835622787475585938e+00 8.580061793327331543e-01 3.906724691390991211e+00 1.429419279098510742e+00 1.711393475532531738e+00
1.171000000000000000e+03 7.044183349609375000e+01 2.899773406982421875e+01 -9.969223290681838989e-03 5.882210731506347656e+00 1.761672496795654297e+00 -4.669578000903129578e-02
1.172000000000000000e+03 6.299757003784179688e+01 -1.343323326110839844e+01 1.530770778656005859e+00 1.364300966262817383e+00 8.685215115547180176e-01 1.344736576080322266e+00
1.173000000000000000e+03 6.487561798095703125e+01 -1.322250556945800781e+01 1.173439621925354004e+00 2.169218063354492188e+00 1.002797245979309082e+00 1.131291508674621582e+00
1.174000000000000000e+03 4.056990432739257812e+01 1.498013496398925781e+01 4.017879366874694824e-01 4.128542900085449219e+00 1.359099268913269043e+00 -1.077352166175842285e-01
1.175000000000000000e+03 4.592838287353515625e+01 2.936271667480468750e+01 5.694674327969551086e-02 1.407520890235900879e+00 4.393402934074401855e-01 4.039741456508636475e-01
1.176000000000000000e+03 4.319211578369140625e+01 2.374285697937011719e+01 2.772753238677978516e-01 2.456595659255981445e+00 8.201612830162048340e-01 5.631074309349060059e-01
1.177000000000000000e+03 4.687933349609375000e+01 3.067711830139160156e+01 -1.344350911676883698e-02 1.187736272811889648e+00 3.522878289222717285e-01 3.624846339225769043e-01
1.178000000000000000e+03 4.379330062866210938e+01 2.515279960632324219e+01 2.246074080467224121e-01 2.180047512054443359e+00 7.213964462280273438e-01 5.671141743659973145e-01
1.179000000000000000e+03 6.817649078369140625e+01 3.273465347290039062e+01 -9.478165507316589355e-01 2.443345785140991211e+00 4.486587643623352051e-01 -1.765096932649612427e-01
1.180000000000000000e+03 4.768208312988281250e+01 -9.908440589904785156e+00 1.603037714958190918e+00 3.223797082901000977e+00 1.448050498962402344e+00 -2.088772058486938477e+00
1.181000000000000000e+03 4.352874755859375000e+01 2.041136550903320312e+01 2.975654900074005127e-01 3.234638929367065430e+00 1.059661269187927246e+00 8.778079748153686523e-01
1.182000000000000000e+03 4.923849868774414062e+01 -4.718459606170654297e+00 6.100359559059143066e-01 4.613367080688476562e+00 1.567021012306213379e+00 -1.693052053451538086e+00
1.183000000000000000e+03 6.187621688842773438e+01 -2.069762992858886719e+01 9.107603430747985840e-01 1.899160910397768021e-03 2.737978696823120117e-01 7.382388114929199219e-01
1.184000000000000000e+03 7.096095275878906250e+01 1.155727195739746094e+01 -6.220053434371948242e-01 9.354026794433593750e+00 2.619606256484985352e+00 2.441307529807090759e-02
1.185000000000000000e+03 5.353474044799804688e+01 -1.756254768371582031e+01 -2.282506227493286133e-01 3.462539672851562500e+00 9.702867269515991211e-01 -6.511640071868896484e+00
1.186000000000000000e+03 6.248085021972656250e+01 -1.526869392395019531e+01 1.001857519149780273e+00 1.150340199470520020e+00 6.456593275070190430e-01 1.141814708709716797e+00
1.187000000000000000e+03 4.053301620483398438e+01 1.331507587432861328e+01 4.784381687641143799e-01 4.434516429901123047e+00 1.473886370658874512e+00 -4.538609385490417480e-01
1.188000000000000000e+03 7.031011199951171875e+01 -2.728695631027221680e+00 5.210759639739990234e-01 9.185076713562011719e+00 2.911845922470092773e+00 1.449421525001525879e+00
1.189000000000000000e+03 7.023317718505859375e+01 3.262136220932006836e+00 1.745671927928924561e-01 1.305085659027099609e+01 3.967627286911010742e+00 3.450690805912017822e-01
1.190000000000000000e+03 4.169081497192382812e+01 5.805111408233642578e+00 8.727642297744750977e-01 4.101463794708251953e+00 1.492268443107604980e+00 -1.326464653015136719e+00
1.191000000000000000e+03 4.800867462158203125e+01 -4.880036354064941406e+00 7.019404768943786621e-01 4.056906223297119141e+00 1.427654027938842773e+00 -1.828358292579650879e+00
1.192000000000000000e+03 4.829865264892578125e+01 -2.123505353927612305e+00 6.155335903167724609e-01 3.868293046951293945e+00 1.345147967338562012e+00 -1.624743700027465820e+00
1.193000000000000000e+03 7.076474761962890625e+01 2.726559638977050781e+01 2.387246042490005493e-01 6.913087844848632812e+00 2.145543575286865234e+00 -8.254848420619964600e-02
1.194000000000000000e+03 6.981044769287109375e+01 -4.094494819641113281e+00 5.061847567558288574e-01 8.183302879333496094e+00 2.606846332550048828e+00 1.540069460868835449e+00
1.195000000000000000e+03 4.532321929931640625e+01 1.282612919807434082e+00 8.135735392570495605e-01 3.513980150222778320e+00 1.298266172409057617e+00 -1.771344780921936035e+00
1.196000000000000000e+03 4.524094009399414062e+01 4.059696197509765625e+00 1.086774706840515137e+00 3.754897356033325195e+00 1.452501654624938965e+00 -2.035667419433593750e+00
1.197000000000000000e+03 4.515317916870117188e+01 2.797730827331542969e+01 1.515948176383972168e-01 1.617967009544372559e+00 5.308685302734375000e-01 4.879233539104461670e-01
1.198000000000000000e+03 5.878375625610351562e+01 -1.779700469970703125e+01 2.957721948623657227e-01 -4.851382598280906677e-02 7.417751103639602661e-02 3.141426324844360352e+00
1.199000000000000000e+03 5.977690505981445312e+01 -1.692597389221191406e+01 -6.451208591461181641e-01 8.920326232910156250e-01 7.407353073358535767e-02 2.142754316329956055e+00
1.200000000000000000e+03 4.651222610473632812e+01 -1.144550204277038574e+00 6.743111014366149902e-01 3.604453802108764648e+00 1.283629536628723145e+00 -1.738983869552612305e+00
1.201000000000000000e+03 6.869195556640625000e+01 -6.733714580535888672e+00 4.600788950920104980e-01 6.256899833679199219e+00 2.015093564987182617e+00 1.509140849113464355e+00
1.202000000000000000e+03 6.809097290039062500e+01 -8.038093566894531250e+00 5.149526000022888184e-01 5.299720764160156250e+00 1.744402050971984863e+00 1.442429542541503906e+00
1.203000000000000000e+03 7.024950408935546875e+01 4.679780483245849609e+00 5.333410110324621201e-03 1.243869495391845703e+01 3.733208417892456055e+00 1.373641937971115112e-01
1.204000000000000000e+03 7.119543457031250000e+01 8.952065467834472656e+00 -7.351808249950408936e-02 1.001047420501708984e+01 2.981086730957031250e+00 2.414929717779159546e-01
1.205000000000000000e+03 7.100861358642578125e+01 1.025399303436279297e+01 -5.689369440078735352e-01 9.471324920654296875e+00 2.670716524124145508e+00 1.775342077016830444e-01
1.206000000000000000e+03 4.178005599975585938e+01 1.950949478149414062e+01 2.341434508562088013e-01 3.346737384796142578e+00 1.074264168739318848e+00 4.634730517864227295e-01
1.207000000000000000e+03 6.692538452148437500e+01 -1.278668117523193359e+01 7.758584022521972656e-01 3.240335464477539062e+00 1.204858183860778809e+00 7.436784505844116211e-01
1.208000000000000000e+03 4.913181686401367188e+01 -1.015353202819824219e+01 1.579126596450805664e+00 4.560827732086181641e+00 1.841986298561096191e+00 -2.524796247482299805e+00
1.209000000000000000e+03 5.119919967651367188e+01 -1.155041790008544922e+01 1.652840018272399902e+00 7.673367023468017578e+00 2.797862291336059570e+00 -3.377952098846435547e+00
1.210000000000000000e+03 4.878958511352539062e+01 -1.140998458862304688e+01 2.116829872131347656e+00 3.827804565429687500e+00 1.783390283584594727e+00 -2.481771707534790039e+00
1.211000000000000000e+03 4.999317169189453125e+01 3.330886077880859375e+01 -1.457943469285964966e-01 5.921481251716613770e-01 1.339061409235000610e-01 2.069330066442489624e-01
1.212000000000000000e+03 6.926675415039062500e+01 -5.426313400268554688e+00 4.863869249820709229e-01 7.153295993804931641e+00 2.291904926300048828e+00 1.515116572380065918e+00
1.213000000000000000e+03 4.445384597778320312e+01 2.656573104858398438e+01 2.054013311862945557e-01 1.890517711639404297e+00 6.287757158279418945e-01 5.496699810028076172e-01
1.214000000000000000e+03 4.169725418090820312e+01 8.793683052062988281e+00 9.879314899444580078e-01 5.139795303344726562e+00 1.838318109512329102e+00 -1.210146427154541016e+00
1.215000000000000000e+03 4.223332595825195312e+01 7.443150043487548828e+00 9.660357236862182617e-01 4.917545318603515625e+00 1.765074372291564941e+00 -1.590315341949462891e+00
1.216000000000000000e+03 4.343281555175781250e+01 4.905857563018798828e+00 9.371770024299621582e-01 4.148467540740966797e+00 1.525693297386169434e+00 -1.760280728340148926e+00
1.217000000000000000e+03 4.281790542602539062e+01 6.150710582733154297e+00 9.890695810317993164e-01 4.395112037658691406e+00 1.615254521369934082e+00 -1.724936366081237793e+00
1.218000000000000000e+03 4.805071640014648438e+01 3.154761505126953125e+01 -2.783939987421035767e-02 9.483403563499450684e-01 2.761502861976623535e-01 3.128134012222290039e-01
1.219000000000000000e+03 6.991902923583984375e+01 2.133926582336425781e+01 -5.172996781766414642e-03 8.706011772155761719e+00 2.610251665115356445e+00 8.795332163572311401e-02
1.220000000000000000e+03 7.106002044677734375e+01 2.267377090454101562e+01 1.672309637069702148e-01 8.409509658813476562e+00 2.573022127151489258e+00 6.049839034676551819e-02
1.221000000000000000e+03 4.350848388671875000e+01 2.142358541488647461e+00 7.301284074783325195e-01 3.506588935852050781e+00 1.271015167236328125e+00 -1.602998375892639160e+00
1.222000000000000000e+03 6.990941619873046875e+01 1.994017982482910156e+01 1.830928772687911987e-02 8.873554229736328125e+00 2.667558908462524414e+00 1.014417037367820740e-01
1.223000000000000000e+03 7.106420898437500000e+01 2.122890663146972656e+01 7.110104709863662720e-02 8.629343032836914062e+00 2.610133171081542969e+00 1.664192229509353638e-01
1.224000000000000000e+03 7.581015777587890625e+01 1.525562095642089844e+01 -4.217377305030822754e-02 7.883587360382080078e+00 2.352424144744873047e+00 3.814169764518737793e-01
1.225000000000000000e+03 7.103890228271484375e+01 1.847110748291015625e+01 3.887492045760154724e-02 8.891080856323242188e+00 2.678986787796020508e+00 2.761715650558471680e-01
1.226000000000000000e+03 1.321156978607177734e+00 -4.002796554565429688e+01 4.817197914235293865e-04 1.855915877968072891e-03 7.012906717136502266e-04 3.010187647305428982e-04
1.227000000000000000e+03 7.262787818908691406e-01 3.740807723999023438e+01 9.668288752436637878e-03 -1.146856188774108887e+00 -3.411563634872436523e-01 -1.528266258537769318e-02
1.228000000000000000e+03 7.096851468086242676e-01 3.464652633666992188e+01 1.676639076322317123e-03 -1.184558391571044922e+00 -3.548645079135894775e-01 -8.511767722666263580e-03
1.229000000000000000e+03 7.248330116271972656e-01 3.324238204956054688e+01 3.312504617497324944e-03 -1.196518659591674805e+00 -3.579618334770202637e-01 -3.730666125193238258e-03
1.230000000000000000e+03 6.703178882598876953e-01 2.758726310729980469e+01 2.755300374701619148e-03 -1.204262614250183105e+00 -3.604521751403808594e-01 1.335888169705867767e-03
1.231000000000000000e+03 6.505517363548278809e-01 2.616606330871582031e+01 5.494040669873356819e-05 -1.197239637374877930e+00 -3.591554164886474609e-01 4.661876708269119263e-03
1.232000000000000000e+03 6.804795861244201660e-01 -3.613162231445312500e+01 -6.688621942885220051e-04 1.066711964085698128e-03 1.193549469462595880e-04 1.073914390872232616e-04
1.233000000000000000e+03 2.331918954849243164e+00 -3.305267333984375000e+01 5.743333604186773300e-04 4.240821872372180223e-04 2.995246613863855600e-04 4.006976087111979723e-04
1.234000000000000000e+03 3.162432670593261719e+00 2.585492324829101562e+01 1.565710268914699554e-02 -9.876207113265991211e-01 -2.915890812873840332e-01 2.382007241249084473e-02
1.235000000000000000e+03 3.167369604110717773e+00 2.446360015869140625e+01 1.606100797653198242e-02 -9.762669205665588379e-01 -2.880617678165435791e-01 3.624546155333518982e-02
1.236000000000000000e+03 2.195333719253540039e+00 3.312284469604492188e+01 4.223530180752277374e-03 -1.073726415634155273e+00 -3.208508789539337158e-01 -9.101873263716697693e-03
1.237000000000000000e+03 3.325998067855834961e+00 3.911572265625000000e+01 2.487772377207875252e-03 -1.029562473297119141e+00 -3.081224262714385986e-01 -1.591303199529647827e-02
1.238000000000000000e+03 2.036948442459106445e+00 -3.022054862976074219e+01 6.560711190104484558e-04 1.089902289095334709e-04 2.295183949172496796e-04 1.572418404975906014e-04
1.239000000000000000e+03 2.734541177749633789e+00 -3.586676406860351562e+01 2.552906225901097059e-04 1.148256473243236542e-03 4.210641491226851940e-04 6.240296643227338791e-04
1.240000000000000000e+03 3.165360212326049805e+00 -2.175879096984863281e+01 -5.294372676871716976e-04 -5.539314952329732478e-05 -1.754491386236622930e-04 -6.239898357307538390e-05
1.241000000000000000e+03 6.259038448333740234e-01 2.050874900817871094e+01 1.524053746834397316e-03 -1.100959658622741699e+00 -3.298306763172149658e-01 1.773265190422534943e-02
1.242000000000000000e+03 6.154444217681884766e-01 1.909370231628417969e+01 2.419777214527130127e-03 -1.054809570312500000e+00 -3.157169222831726074e-01 2.205969579517841339e-02
1.243000000000000000e+03 5.800744295120239258e-01 1.485924434661865234e+01 1.761249848641455173e-03 -8.436285853385925293e-01 -2.525601983070373535e-01 3.650404885411262512e-02
1.244000000000000000e+03 5.737943053245544434e-01 1.344968414306640625e+01 1.949458383023738861e-03 -7.476065754890441895e-01 -2.236971408128738403e-01 4.094609245657920837e-02
1.245000000000000000e+03 6.027932167053222656e-01 7.784754276275634766e+00 -4.685852036345750093e-04 -2.834709882736206055e-01 -8.518187701702117920e-02 4.842143878340721130e-02
1.246000000000000000e+03 3.425263404846191406e+00 -3.899657058715820312e+01 -3.253351023886352777e-04 1.590564148500561714e-03 3.795686934608966112e-04 5.508450558409094810e-04
1.247000000000000000e+03 3.955240011215209961e+00 -3.568027877807617188e+01 -1.347343786619603634e-04 5.069450126029551029e-04 1.116631901822984219e-04 1.212077913805842400e-03
1.248000000000000000e+03 2.424573183059692383e+00 -3.453038406372070312e+01 -3.820405399892479181e-04 5.878313677385449409e-04 6.173725705593824387e-05 4.040305211674422026e-04
1.249000000000000000e+03 2.207127094268798828e+00 -3.161834716796875000e+01 -4.201986594125628471e-04 2.936514210887253284e-04 -3.796417149715125561e-05 3.022441233042627573e-04
1.250000000000000000e+03 1.765522956848144531e+00 -2.748355102539062500e+01 6.413884693756699562e-04 -5.725281880586408079e-05 1.752406969899311662e-04 1.619151407794561237e-05
1.251000000000000000e+03 3.124603509902954102e+00 -2.324434661865234375e+01 4.282380978111177683e-04 -3.954233034164644778e-05 1.166087240562774241e-04 2.417521500319708139e-05
1.252000000000000000e+03 1.744832754135131836e+00 -2.610805130004882812e+01 -5.824935506097972393e-04 4.307566268835216761e-05 -1.618253736523911357e-04 -5.751834396505728364e-05
1.253000000000000000e+03 2.950819730758666992e+00 -1.759726715087890625e+01 4.051103896927088499e-04 4.870579505222849548e-05 1.361448521493002772e-04 5.697555025108158588e-05
1.254000000000000000e+03 5.976983904838562012e-01 -1.913550949096679688e+01 -3.728046431206166744e-04 -5.663934189215069637e-06 -1.135405764216557145e-04 -2.911923184001352638e-05
1.255000000000000000e+03 3.060881853103637695e+00 -2.033339881896972656e+01 5.099268164485692978e-04 -1.773013354977592826e-05 1.476589968660846353e-04 8.801737567409873009e-05
1.256000000000000000e+03 1.733689904212951660e+00 -1.630184173583984375e+01 3.554639697540551424e-04 1.508173227193765342e-05 1.111637102439999580e-04 3.085010757786221802e-05
1.257000000000000000e+03 5.751968026161193848e-01 -1.211330795288085938e+01 2.443651319481432438e-04 4.247378001309698448e-06 7.458375330315902829e-05 6.296629180724266917e-06
1.258000000000000000e+03 1.728640556335449219e+00 -1.214188766479492188e+01 -2.716987510211765766e-04 4.018385880044661462e-06 -8.030411117943003774e-05 -1.587328551977407187e-05
1.259000000000000000e+03 2.048814296722412109e+00 -6.369771480560302734e+00 -1.787764631444588304e-04 7.418729637720389292e-06 -5.140731809660792351e-05 -1.943594179465435445e-05
1.260000000000000000e+03 3.417704105377197266e+00 -4.480224609375000000e+00 -2.899319770222064108e-05 -3.164124427712522447e-05 -1.819033241190481931e-05 -5.476311707752756774e-05
1.261000000000000000e+03 1.518558621406555176e+00 -2.861294507980346680e+00 2.117954682034906000e-05 1.345359669358003885e-05 1.038994287227978930e-05 -2.440528442093636841e-05
1.262000000000000000e+03 5.306937098503112793e-01 4.944019317626953125e+00 -5.550259724259376526e-03 -7.429762184619903564e-02 -2.395436540246009827e-02 2.917238511145114899e-02
1.263000000000000000e+03 6.360301494598388672e+00 4.046955585479736328e+00 -2.152907401323318481e-01 -2.250256091356277466e-01 -1.320949047803878784e-01 3.519931435585021973e-01
1.264000000000000000e+03 1.758372545242309570e+00 1.052825164794921875e+01 5.126988980919122696e-03 -5.181257128715515137e-01 -1.538996100425720215e-01 1.404463499784469604e-01
1.265000000000000000e+03 5.942909717559814453e-01 1.061972332000732422e+01 2.161323092877864838e-03 -5.194973945617675781e-01 -1.552008241415023804e-01 5.187767744064331055e-02
1.266000000000000000e+03 1.712463140487670898e+00 1.332605552673339844e+01 8.394850417971611023e-03 -7.003261446952819824e-01 -2.075793892145156860e-01 1.181549131870269775e-01
1.267000000000000000e+03 1.843879342079162598e+00 1.893650436401367188e+01 1.045654248446226120e-02 -9.600442051887512207e-01 -2.848763167858123779e-01 6.694838404655456543e-02
1.268000000000000000e+03 1.913622856140136719e+00 2.459813117980957031e+01 6.441663485020399094e-03 -1.075069785118103027e+00 -3.205884397029876709e-01 2.287634648382663727e-02
1.269000000000000000e+03 2.016831779479980469e+01 -1.099069404602050781e+01 5.737909668823704123e-05 -1.556729694129899144e-05 1.254353992408141494e-05 4.200572220725007355e-05
1.270000000000000000e+03 1.888545227050781250e+01 -1.190597915649414062e+01 -3.014740832441020757e-05 5.489591785590164363e-05 7.424552677548490465e-06 3.008830162798403762e-06
1.271000000000000000e+03 1.321319198608398438e+01 -1.321558952331542969e+01 2.000556851271539927e-04 9.632331784814596176e-05 8.891370089258998632e-05 -7.468789408449083567e-05
1.272000000000000000e+03 1.103688335418701172e+01 -1.458059978485107422e+01 -2.817515269271098077e-05 -1.263832818949595094e-04 -4.636753146769478917e-05 -2.138415293302386999e-04
1.273000000000000000e+03 5.308598709106445312e+01 -1.748633766174316406e+01 -7.638987302780151367e-01 2.264463186264038086e+00 4.501693248748779297e-01 -4.958984851837158203e+00
1.274000000000000000e+03 5.334326934814453125e+01 -1.751707077026367188e+01 -4.899558424949645996e-01 2.982714176177978516e+00 7.478274703025817871e-01 -5.753917694091796875e+00
1.275000000000000000e+03 5.391543579101562500e+01 -2.086564636230468750e+01 5.382296070456504822e-02 4.021814346313476562e+00 1.222691178321838379e+00 2.875260353088378906e+00
1.276000000000000000e+03 5.812004470825195312e+01 -2.431627082824707031e+01 -7.092477679252624512e-01 3.756264686584472656e+00 9.141051173210144043e-01 9.406567811965942383e-01
1.277000000000000000e+03 5.509856796264648438e+01 -2.067629241943359375e+01 -8.100305199623107910e-01 9.688706398010253906e+00 2.663602828979492188e+00 2.214565992355346680e+00
1.278000000000000000e+03 5.338222885131835938e+01 -2.129041671752929688e+01 -1.713655292987823486e-01 2.871958017349243164e+00 8.101777434349060059e-01 2.185410499572753906e+00
1.279000000000000000e+03 5.741010284423828125e+01 -2.515298080444335938e+01 -7.957341074943542480e-01 4.568611621856689453e+00 1.131863236427307129e+00 1.381496548652648926e+00
1.280000000000000000e+03 5.416644287109375000e+01 -1.638168334960937500e+01 -1.524951934814453125e+00 7.826192378997802734e+00 1.890372037887573242e+00 -6.896358013153076172e+00
1.281000000000000000e+03 4.157621002197265625e+01 -1.914843559265136719e+01 -2.589248418807983398e+00 4.384606778621673584e-01 -6.452363133430480957e-01 8.163196444511413574e-01
1.282000000000000000e+03 5.087773895263671875e+01 -2.338502883911132812e+01 -2.036158144474029541e-01 1.401527881622314453e+00 3.593735992908477783e-01 3.301740884780883789e-01
1.283000000000000000e+03 4.926110076904296875e+01 -2.260398864746093750e+01 -6.174041032791137695e-01 2.648518383502960205e-01 -1.057656779885292053e-01 -3.877012431621551514e-01
1.284000000000000000e+03 5.066627120971679688e+01 -2.283220672607421875e+01 -3.557305037975311279e-01 9.943700432777404785e-01 1.915918737649917603e-01 1.680664569139480591e-01
1.285000000000000000e+03 4.942049407958984375e+01 -2.324977684020996094e+01 -2.933345735073089600e-01 5.403667092323303223e-01 7.410963624715805054e-02 -3.130306303501129150e-01
1.286000000000000000e+03 5.122512054443359375e+01 -2.263049316406250000e+01 -4.081957638263702393e-01 1.293864250183105469e+00 2.657005488872528076e-01 4.817181825637817383e-01
1.287000000000000000e+03 1.622162055969238281e+01 -9.920885086059570312e+00 -1.337943103862926364e-04 -4.270829322194913402e-06 -4.141954195802100003e-05 -2.969272645714227110e-05
1.288000000000000000e+03 1.685566902160644531e+01 -8.267940521240234375e+00 -2.445839891151990741e-05 1.203741703648120165e-05 -3.726294380612671375e-06 3.859848584397695959e-05
1.289000000000000000e+03 1.423256015777587891e+01 -6.598960876464843750e+00 -2.414359187241643667e-05 -5.435662751551717520e-05 -2.355006654397584498e-05 3.865091002808185294e-06
1.290000000000000000e+03 1.410354804992675781e+01 -4.877521514892578125e+00 -4.932682350045070052e-05 -3.393380393390543759e-05 -2.497818786650896072e-05 -1.241384325112449005e-05
1.291000000000000000e+03 1.874179840087890625e+01 -1.121477508544921875e+01 1.383874769089743495e-05 -7.283533341251313686e-05 -1.769897608028259128e-05 -3.706476854858919978e-05
1.292000000000000000e+03 1.711996459960937500e+01 -7.375440120697021484e+00 -4.210833503748290241e-05 5.746010174334514886e-06 -1.090869773179292679e-05 1.203803640237310901e-05
1.293000000000000000e+03 1.951240348815917969e+01 -1.000340557098388672e+01 1.172025658888742328e-04 -2.373915413045324385e-05 2.803902498271781951e-05 3.625476529123261571e-05
1.294000000000000000e+03 1.895765495300292969e+01 -9.559863090515136719e+00 -9.665483958087861538e-05 2.019731618929654360e-05 -2.293725628987886012e-05 6.703206054226029664e-06
1.295000000000000000e+03 4.788032150268554688e+01 -2.299253654479980469e+01 -4.928334057331085205e-01 -1.159774139523506165e-02 -1.513293385505676270e-01 -6.751378178596496582e-01
1.296000000000000000e+03 4.647733688354492188e+01 -2.346344375610351562e+01 -3.087039887905120850e-01 -2.339236140251159668e-01 -1.627882868051528931e-01 -8.074322342872619629e-01
1.297000000000000000e+03 4.737331771850585938e+01 -2.394748497009277344e+01 -1.462036967277526855e-01 4.426448605954647064e-03 -4.253317415714263916e-02 -7.102076411247253418e-01
1.298000000000000000e+03 4.233947372436523438e+01 -1.893667602539062500e+01 -2.524603128433227539e+00 5.396965146064758301e-01 -5.954719781875610352e-01 8.080044984817504883e-01
1.299000000000000000e+03 1.521007061004638672e+01 -5.608887195587158203e+00 -4.791129322256892920e-05 -2.750777639448642731e-05 -2.262572161271236837e-05 1.419425643689464778e-06
1.300000000000000000e+03 1.520820617675781250e+01 -6.452391624450683594e+00 -6.430290522985160351e-05 -2.699116157600656152e-05 -2.738821967795956880e-05 1.969338154594879597e-05
1.301000000000000000e+03 1.472238349914550781e+01 -6.092201709747314453e+00 4.268088378012180328e-05 4.688428816734813154e-05 2.686955122044309974e-05 -6.192498403834179044e-06
1.302000000000000000e+03 1.667585372924804688e+01 -6.865921974182128906e+00 4.524744508671574295e-05 1.017161480376671534e-06 1.387938118568854406e-05 -9.345196303911507130e-06
1.303000000000000000e+03 1.753439331054687500e+01 -7.914270401000976562e+00 3.986206866102293134e-05 -3.403182972760987468e-06 1.093766604753909633e-05 -1.236097887158393860e-05
1.304000000000000000e+03 1.171661567687988281e+01 -3.577636718750000000e+00 -5.348787090042605996e-05 -4.537941276794299483e-05 -2.966018473671283573e-05 -2.262791167595423758e-05
1.305000000000000000e+03 1.307335090637207031e+01 -5.125180244445800781e+00 -4.807771256309933960e-05 -5.404004696174524724e-05 -3.063532858504913747e-05 -7.304363407456548885e-06
1.306000000000000000e+03 1.770749855041503906e+01 -9.518349647521972656e+00 -1.096772757591679692e-04 1.552846333652269095e-05 -2.824464354489464313e-05 3.477135760476812720e-05
1.307000000000000000e+03 1.563444900512695312e+01 -1.166143417358398438e+01 -1.743866450851783156e-04 -1.231179703609086573e-05 -5.600953227258287370e-05 -3.740717511391267180e-05
1.308000000000000000e+03 8.373062133789062500e+00 -4.109138965606689453e+00 5.844288534717634320e-05 -4.227023964631371200e-06 1.626475750526878983e-05 7.590724271722137928e-05
1.309000000000000000e+03 1.065751075744628906e+01 -3.927013874053955078e+00 -7.487327093258500099e-05 -3.316356742288917303e-05 -3.241105150664225221e-05 -1.275424074265174568e-05
1.310000000000000000e+03 4.501568603515625000e+01 -2.401859283447265625e+01 -1.360341310501098633e-01 -4.874125719070434570e-01 -1.870340108871459961e-01 -8.227986097335815430e-01
1.311000000000000000e+03 4.434530258178710938e+01 -2.526968383789062500e+01 -1.434209104627370834e-02 -7.518423199653625488e-01 -2.298553287982940674e-01 -8.034110665321350098e-01
1.312000000000000000e+03 4.694111251831054688e+01 -2.497919273376464844e+01 6.975429505109786987e-02 1.277461706195026636e-04 2.096461318433284760e-02 -6.909343004226684570e-01
1.313000000000000000e+03 4.667975616455078125e+01 -2.424592971801757812e+01 -1.037410870194435120e-01 -8.113338798284530640e-02 -5.546234175562858582e-02 -8.017660975456237793e-01
1.314000000000000000e+03 4.961616134643554688e+01 -2.387352943420410156e+01 -6.622793525457382202e-02 8.397716879844665527e-01 2.320631295442581177e-01 -1.921727657318115234e-01
1.315000000000000000e+03 5.565705299377441406e+00 2.617866277694702148e+00 -2.110327333211898804e-01 -9.425686299800872803e-02 -9.158688038587570190e-02 2.082244753837585449e-01
1.316000000000000000e+03 3.350052356719970703e+00 2.839053630828857422e+00 -8.426067978143692017e-02 -7.690639048814773560e-02 -4.835012182593345642e-02 9.852097183465957642e-02
1.317000000000000000e+03 4.090318679809570312e+00 2.749648571014404297e+00 -1.209217980504035950e-01 -7.982930541038513184e-02 -6.022533029317855835e-02 1.303229033946990967e-01
1.318000000000000000e+03 5.615009307861328125e+00 3.341629028320312500e+00 -2.063927948474884033e-01 -1.438400149345397949e-01 -1.050698459148406982e-01 2.601123154163360596e-01
1.319000000000000000e+03 6.322357177734375000e+00 3.307343959808349609e+00 -2.441181242465972900e-01 -1.633805930614471436e-01 -1.222496181726455688e-01 3.038582205772399902e-01
1.320000000000000000e+03 9.042828559875488281e+00 3.366923570632934570e+00 -3.697607815265655518e-01 -3.638328313827514648e-01 -2.200780808925628662e-01 5.271627306938171387e-01
1.321000000000000000e+03 6.289405822753906250e+00 2.586477041244506836e+00 -2.670443058013916016e-01 -1.119876950979232788e-01 -1.137095987796783447e-01 2.572680711746215820e-01
1.322000000000000000e+03 7.015056133270263672e+00 3.275020122528076172e+00 -2.893756628036499023e-01 -1.938554197549819946e-01 -1.449693292379379272e-01 3.609685897827148438e-01
1.323000000000000000e+03 1.901259541511535645e+00 2.939869880676269531e+00 -3.932984918355941772e-02 -5.382057651877403259e-02 -2.794512733817100525e-02 4.757122695446014404e-02
1.324000000000000000e+03 9.968351364135742188e+00 2.866692543029785156e+00 -4.590306878089904785e-01 -4.389390945434570312e-01 -2.693909406661987305e-01 5.710722804069519043e-01
1.325000000000000000e+03 2.625659561157226562e+01 -9.991246223449707031e+00 -9.463600516319274902e-01 -7.329193949699401855e-01 -5.037838220596313477e-01 1.050835490226745605e+00
1.326000000000000000e+03 2.747585105895996094e+01 -1.384792900085449219e+01 -7.535332441329956055e-01 -4.425260424613952637e-01 -3.588177859783172607e-01 9.135002493858337402e-01
1.327000000000000000e+03 2.704395294189453125e+01 -1.135281658172607422e+01 -8.938828706741333008e-01 -5.643888115882873535e-01 -4.374814927577972412e-01 1.055889844894409180e+00
1.328000000000000000e+03 2.665695571899414062e+01 -1.067062568664550781e+01 -9.211747646331787109e-01 -6.442006230354309082e-01 -4.696126282215118408e-01 1.054313302040100098e+00
1.329000000000000000e+03 2.779825782775878906e+01 -1.271540927886962891e+01 -8.548964262008666992e-01 -4.284482598304748535e-01 -3.850034177303314209e-01 1.023979783058166504e+00
1.330000000000000000e+03 2.486318206787109375e+01 -9.086100578308105469e+00 -1.008918404579162598e+00 -1.091957569122314453e+00 -6.302627921104431152e-01 1.082483172416687012e+00
1.331000000000000000e+03 2.944813728332519531e+01 -1.541520214080810547e+01 -1.048516154289245605e+00 -2.114476710557937622e-01 -3.779891431331634521e-01 7.528284788131713867e-01
1.332000000000000000e+03 3.072585296630859375e+01 -1.501374912261962891e+01 -1.194098830223083496e+00 -1.297803968191146851e-01 -3.971637785434722900e-01 8.582444190979003906e-01
1.333000000000000000e+03 4.943333435058593750e+01 -1.391303062438964844e+01 2.263339281082153320e+00 2.657334804534912109e+00 1.476202249526977539e+00 -1.559216618537902832e+00
1.334000000000000000e+03 4.986082077026367188e+01 -1.639448547363281250e+01 -4.299542903900146484e-01 1.433724522590637207e+00 3.011310398578643799e-01 -6.801779270172119141e-01
1.335000000000000000e+03 5.158691024780273438e+01 -1.733885955810546875e+01 -1.494027733802795410e+00 1.792062044143676758e+00 8.941029012203216553e-02 -1.947840094566345215e+00
1.336000000000000000e+03 5.125052642822265625e+01 -1.575459766387939453e+01 8.302251696586608887e-01 2.816521644592285156e+00 1.094024062156677246e+00 -2.059239387512207031e+00
1.337000000000000000e+03 5.184869384765625000e+01 -1.498557662963867188e+01 2.803993463516235352e+00 5.304935932159423828e+00 2.432678699493408203e+00 -3.241792440414428711e+00
1.338000000000000000e+03 4.685437774658203125e+01 -1.731281089782714844e+01 -2.025875329971313477e+00 4.333446919918060303e-01 -4.777591824531555176e-01 5.763662457466125488e-01
1.339000000000000000e+03 4.467845535278320312e+01 -1.843789100646972656e+01 -2.772448062896728516e+00 5.074073076248168945e-01 -6.795122623443603516e-01 7.113764882087707520e-01
1.340000000000000000e+03 4.907549667358398438e+01 -1.660449218750000000e+01 -8.549918532371520996e-01 1.061192154884338379e+00 6.186009570956230164e-02 -8.735387027263641357e-02
1.341000000000000000e+03 5.612703323364257812e+01 -2.161984825134277344e+01 -7.983644604682922363e-01 7.920827388763427734e+00 2.136739015579223633e+00 2.526864707469940186e-01
1.342000000000000000e+03 4.387517929077148438e+01 -1.782592773437500000e+01 -2.397402524948120117e+00 6.016089916229248047e-01 -5.387380719184875488e-01 8.181632161140441895e-01
1.343000000000000000e+03 4.542801666259765625e+01 -1.757599449157714844e+01 -2.287509679794311523e+00 4.702661633491516113e-01 -5.451730489730834961e-01 7.600131630897521973e-01
1.344000000000000000e+03 4.215968322753906250e+01 -1.721461868286132812e+01 -2.175336599349975586e+00 5.518699288368225098e-01 -4.870399832725524902e-01 7.131669521331787109e-01
1.345000000000000000e+03 4.017576980590820312e+01 -1.767527198791503906e+01 -2.540018320083618164e+00 -6.662204861640930176e-02 -7.819921374320983887e-01 6.656002402305603027e-01
1.346000000000000000e+03 4.338706588745117188e+01 -2.453296279907226562e+01 -3.230771794915199280e-02 -7.935038805007934570e-01 -2.477434873580932617e-01 -5.800555944442749023e-01
1.347000000000000000e+03 4.354703903198242188e+01 -2.667912292480468750e+01 -6.644031405448913574e-02 -1.257809162139892578e+00 -3.972748517990112305e-01 -7.174320220947265625e-01
1.348000000000000000e+03 2.498389053344726562e+01 -7.984897613525390625e+00 -1.013893604278564453e+00 -9.789331555366516113e-01 -5.978479981422424316e-01 1.023269772529602051e+00
1.349000000000000000e+03 2.541653060913085938e+01 -8.645554542541503906e+00 -9.930090904235839844e-01 -9.052235484123229980e-01 -5.694698095321655273e-01 1.032782673835754395e+00
1.350000000000000000e+03 2.354641342163085938e+01 -7.104929447174072266e+00 -1.097970962524414062e+00 -1.307670831680297852e+00 -7.216925024986267090e-01 1.105399847030639648e+00
1.351000000000000000e+03 2.422235107421875000e+01 -5.587518692016601562e+00 -9.463387131690979004e-01 -9.711550474166870117e-01 -5.752481222152709961e-01 8.910897374153137207e-01
1.352000000000000000e+03 2.318191146850585938e+01 -5.366707801818847656e+00 -1.029614925384521484e+00 -1.178559303283691406e+00 -6.624522805213928223e-01 9.738401770591735840e-01
1.353000000000000000e+03 1.651193046569824219e+01 -3.587855100631713867e-01 -9.997242689132690430e-01 -1.044105648994445801e+00 -6.131489872932434082e-01 9.326179623603820801e-01
1.354000000000000000e+03 1.413027954101562500e+01 1.911329150199890137e+00 -6.169846057891845703e-01 -8.203186988830566406e-01 -4.311909973621368408e-01 7.440767884254455566e-01
1.355000000000000000e+03 1.719457244873046875e+01 -8.235643506050109863e-01 -1.040858983993530273e+00 -1.118401288986206055e+00 -6.477780938148498535e-01 9.702026247978210449e-01
1.356000000000000000e+03 1.675571632385253906e+01 1.168488740921020508e+00 -5.941944122314453125e-01 -1.012067914009094238e+00 -4.818786978721618652e-01 7.686774730682373047e-01
1.357000000000000000e+03 1.290179538726806641e+01 1.720346808433532715e+00 -7.134143114089965820e-01 -6.905588507652282715e-01 -4.211919605731964111e-01 7.108078002929687500e-01
1.358000000000000000e+03 1.914708709716796875e+01 -2.311417341232299805e+00 -1.124292254447937012e+00 -1.290773153305053711e+00 -7.245196104049682617e-01 1.044296979904174805e+00
1.359000000000000000e+03 2.100680541992187500e+01 -3.927908182144165039e+00 -1.140646100044250488e+00 -1.371724486351013184e+00 -7.537111639976501465e-01 1.073342800140380859e+00
1.360000000000000000e+03 2.156110191345214844e+01 -3.362157106399536133e+00 -9.696906805038452148e-01 -1.222717761993408203e+00 -6.577225327491760254e-01 9.192770123481750488e-01
1.361000000000000000e+03 2.218986892700195312e+01 -3.982017040252685547e+00 -9.808551669120788574e-01 -1.200793266296386719e+00 -6.544945240020751953e-01 9.243031144142150879e-01
1.362000000000000000e+03 1.896946907043457031e+01 -1.302405357360839844e+00 -9.143735766410827637e-01 -1.199305772781372070e+00 -6.341038346290588379e-01 9.101391434669494629e-01
1.363000000000000000e+03 1.832085800170898438e+01 -7.985838651657104492e-01 -8.834454417228698730e-01 -1.160546183586120605e+00 -6.131975054740905762e-01 8.965123891830444336e-01
1.364000000000000000e+03 1.765413284301757812e+01 -3.081555068492889404e-01 -8.459455966949462891e-01 -1.112875342369079590e+00 -5.876462459564208984e-01 8.770965933799743652e-01
1.365000000000000000e+03 1.150872135162353516e+01 -5.129658222198486328e+00 6.344679422909393907e-05 6.026244591339491308e-05 3.711277167894877493e-05 3.526515502016991377e-05
1.366000000000000000e+03 6.005836486816406250e+00 -2.570768594741821289e+00 3.419291033424087800e-06 -6.181903154356405139e-05 -1.751992203935515136e-05 -2.384502477070782334e-05
1.367000000000000000e+03 7.430676460266113281e+00 -3.476128101348876953e+00 7.256484968820586801e-05 -3.272876938353874721e-06 2.078759098367299885e-05 4.634230572264641523e-05
1.368000000000000000e+03 5.218883037567138672e+00 -2.769112825393676758e+00 3.292949941169354133e-06 3.998857209808193147e-05 1.298445658903801814e-05 4.082240047864615917e-05
1.369000000000000000e+03 6.226742267608642578e+00 -3.150326013565063477e+00 -3.358915273565798998e-05 -4.041684405819978565e-06 -1.128925123339286074e-05 5.799193604616448283e-05
1.370000000000000000e+03 6.085744857788085938e+00 -4.846702098846435547e+00 4.000998887931928039e-05 -2.760166069037950365e-07 1.192019135487498716e-05 -5.277074160403572023e-05
1.371000000000000000e+03 4.130113601684570312e+00 -8.310181617736816406e+00 2.136056427843868732e-04 1.428742052667075768e-05 6.836791726527735591e-05 5.040955511503852904e-05
1.372000000000000000e+03 8.238759040832519531e+00 -3.361384630203247070e+00 -5.515254815691150725e-05 -2.289902840857394040e-05 -2.341547224204987288e-05 -5.149547359906136990e-05
1.373000000000000000e+03 2.331876277923583984e+00 -3.277278900146484375e+00 -1.242137368535622954e-04 2.592593546069110744e-06 -3.648634083219803870e-05 -1.279824846278643236e-05
1.374000000000000000e+03 2.140258550643920898e+00 -4.749733448028564453e+00 1.417959138052538037e-04 1.903631641653191764e-06 4.310986332711763680e-05 1.951428748725447804e-05
1.375000000000000000e+03 4.615256881713867188e+01 -1.746985626220703125e+01 -2.270088911056518555e+00 5.319690108299255371e-01 -5.214359760284423828e-01 6.773965954780578613e-01
1.376000000000000000e+03 1.274262237548828125e+01 2.862160444259643555e+00 -4.640676081180572510e-01 -7.121667861938476562e-01 -3.528703153133392334e-01 6.757203340530395508e-01
1.377000000000000000e+03 1.212793731689453125e+01 3.455816984176635742e+00 -3.612768054008483887e-01 -6.764144897460937500e-01 -3.113074004650115967e-01 6.574497818946838379e-01
1.378000000000000000e+03 1.140945243835449219e+01 2.700315237045288086e+00 -5.090210437774658203e-01 -5.785385966300964355e-01 -3.262678980827331543e-01 6.311815381050109863e-01
1.379000000000000000e+03 1.038926601409912109e+01 -2.977233648300170898e+00 -4.554935003397986293e-05 -5.471008262247778475e-05 -3.007783016073517501e-05 -4.752066615765215829e-06
1.380000000000000000e+03 2.454333496093750000e+01 -7.330522060394287109e+00 -1.025261044502258301e+00 -1.051079392433166504e+00 -6.229020953178405762e-01 1.014812588691711426e+00
1.381000000000000000e+03 2.270350074768066406e+01 -4.688228130340576172e+00 -1.008419394493103027e+00 -1.194308280944824219e+00 -6.608182787895202637e-01 9.518378376960754395e-01
1.382000000000000000e+03 2.024515342712402344e+01 -2.332547187805175781e+00 -9.656784534454345703e-01 -1.244688034057617188e+00 -6.631099581718444824e-01 9.307234883308410645e-01
1.383000000000000000e+03 1.960762977600097656e+01 -1.815796852111816406e+00 -9.416428804397583008e-01 -1.229050993919372559e+00 -6.512081623077392578e-01 9.242664575576782227e-01
1.384000000000000000e+03 1.484288311004638672e+01 1.488727450370788574e+00 -6.749898195266723633e-01 -8.747114539146423340e-01 -4.649103879928588867e-01 7.775965332984924316e-01
1.385000000000000000e+03 9.706340789794921875e+00 -2.737963676452636719e+00 4.352343603386543691e-05 6.532657425850629807e-05 3.265500345150940120e-05 1.205888020194834098e-05
1.386000000000000000e+03 1.002535629272460938e+01 -3.640999078750610352e+00 7.073103188304230571e-05 3.904197365045547485e-05 3.293190093245357275e-05 -9.678128662926610559e-06
1.387000000000000000e+03 5.797397613525390625e+01 -1.853505325317382812e+01 4.813323020935058594e+00 9.919020533561706543e-01 1.741567492485046387e+00 1.607671141624450684e+00
1.388000000000000000e+03 5.936465072631835938e+01 -1.859042930603027344e+01 2.336061239242553711e+00 1.307687163352966309e-01 7.400490045547485352e-01 2.345825195312500000e+00
1.389000000000000000e+03 5.715600967407226562e+01 -2.112281608581542969e+01 9.784579277038574219e-01 6.468365192413330078e+00 2.234046936035156250e+00 -1.372328639030456543e+00
1.390000000000000000e+03 1.137465476989746094e+01 -1.298003768920898438e+01 1.561330427648499608e-04 -8.771577995503321290e-05 2.052517811534926295e-05 -1.258085103472694755e-04
1.391000000000000000e+03 8.939562797546386719e+00 -1.620978355407714844e+01 4.892210708931088448e-04 2.475423680152744055e-04 2.210290258517488837e-04 -1.316948764724656940e-04
1.392000000000000000e+03 7.219147491455078125e+01 1.279587554931640625e+01 -2.986412942409515381e-01 8.975075721740722656e+00 2.602930307388305664e+00 2.156295627355575562e-01
1.393000000000000000e+03 3.007845497131347656e+01 -1.594133281707763672e+01 -1.166209816932678223e+00 -1.600190103054046631e-01 -3.978686630725860596e-01 6.906607747077941895e-01
1.394000000000000000e+03 3.310956192016601562e+01 -1.677569770812988281e+01 -1.886714339256286621e+00 -1.971898972988128662e-02 -5.719299912452697754e-01 6.681900620460510254e-01
1.395000000000000000e+03 3.234568023681640625e+01 -1.550841426849365234e+01 -1.502007365226745605e+00 -8.023694157600402832e-02 -4.746733009815216064e-01 8.598191142082214355e-01
1.396000000000000000e+03 2.962566566467285156e+01 -1.419700431823730469e+01 -9.985076189041137695e-01 -2.337417006492614746e-01 -3.696748018264770508e-01 9.163863658905029297e-01
1.397000000000000000e+03 2.052079772949218750e+01 -1.325834274291992188e+01 7.560518133686855435e-05 1.232057838933542371e-04 5.964328738627955317e-05 -3.337179077789187431e-05
1.398000000000000000e+03 3.431003952026367188e+01 -1.688969802856445312e+01 -2.225864171981811523e+00 -9.265715628862380981e-02 -6.955564022064208984e-01 7.174080610275268555e-01
1.399000000000000000e+03 2.937838745117187500e+01 -3.633864974975585938e+01 -2.410129457712173462e-02 -3.095837496221065521e-02 -1.651790179312229156e-02 -4.484045878052711487e-02
1.400000000000000000e+03 4.463751220703125000e+01 -2.884022474288940430e+00 6.781994104385375977e-01 3.058581829071044922e+00 1.121034383773803711e+00 -1.609555363655090332e+00
1.401000000000000000e+03 4.472420120239257812e+01 -2.415119856595993042e-01 6.950078606605529785e-01 3.346822500228881836e+00 1.212549090385437012e+00 -1.661129832267761230e+00
1.402000000000000000e+03 4.469958877563476562e+01 2.490484952926635742e+00 8.272064924240112305e-01 3.646638393402099609e+00 1.342153549194335938e+00 -1.813097119331359863e+00
1.403000000000000000e+03 4.901572799682617188e+01 -8.783677101135253906e+00 1.211752176284790039e+00 4.781956672668457031e+00 1.798112750053405762e+00 -2.360447645187377930e+00
1.404000000000000000e+03 4.747384643554687500e+01 -1.098775005340576172e+01 1.700668215751647949e+00 2.687060356140136719e+00 1.316318511962890625e+00 -1.807661414146423340e+00
1.405000000000000000e+03 2.796482658386230469e+01 -3.514712524414062500e+01 -1.787568069994449615e-02 -1.750985532999038696e-02 -1.061566080898046494e-02 -2.243647724390029907e-02
1.406000000000000000e+03 4.530620574951171875e-01 3.521340370178222656e+00 -5.837148986756801605e-03 -1.289453916251659393e-02 -5.619506351649761200e-03 1.394190080463886261e-02
1.407000000000000000e+03 7.691467285156250000e+01 1.245659732818603516e+01 -8.472117781639099121e-02 7.440191745758056641e+00 2.206641197204589844e+00 4.441598653793334961e-01
1.408000000000000000e+03 4.875975799560546875e+01 -7.460083484649658203e+00 8.529965281486511230e-01 4.603197097778320312e+00 1.636858105659484863e+00 -2.073417186737060547e+00
1.409000000000000000e+03 4.766194534301757812e+01 -8.732121467590332031e+00 1.294418454170227051e+00 3.563902139663696289e+00 1.457496166229248047e+00 -2.108333826065063477e+00
1.410000000000000000e+03 4.303525543212890625e+01 2.735870742797851562e+01 3.530500829219818115e-02 1.923247933387756348e+00 5.875658988952636719e-01 3.009221255779266357e-01
1.411000000000000000e+03 4.289121246337890625e+01 3.340633869171142578e+00 7.547965049743652344e-01 3.699262857437133789e+00 1.336217761039733887e+00 -1.524214744567871094e+00
1.412000000000000000e+03 6.684057617187500000e+01 -2.055096435546875000e+01 -5.862396955490112305e-01 -3.810308873653411865e-02 -1.873028278350830078e-01 4.346309974789619446e-02
1.413000000000000000e+03 6.370060348510742188e+01 -1.426005363464355469e+01 1.239486336708068848e+00 1.522527575492858887e+00 8.286041617393493652e-01 1.127770543098449707e+00
1.414000000000000000e+03 4.678619766235351562e+01 -5.038426399230957031e+00 8.137816190719604492e-01 3.543145179748535156e+00 1.307078003883361816e+00 -1.838693261146545410e+00
1.415000000000000000e+03 3.453841018676757812e+01 -1.580424690246582031e+01 -1.872503161430358887e+00 -1.965316832065582275e-01 -6.207104921340942383e-01 9.601287841796875000e-01
1.416000000000000000e+03 3.340386962890625000e+01 -1.566321182250976562e+01 -1.669097423553466797e+00 -1.078711152076721191e-01 -5.330905914306640625e-01 9.014475345611572266e-01
1.417000000000000000e+03 7.272636413574218750e+01 6.015927791595458984e+00 3.874111473560333252e-01 9.766965866088867188e+00 3.046313285827636719e+00 4.657448232173919678e-01
1.418000000000000000e+03 4.583735656738281250e+01 -2.667550468444824219e+01 1.036770641803741455e-01 -1.480895727872848511e-01 -1.332375314086675644e-02 -6.931266188621520996e-01
1.419000000000000000e+03 8.793612480163574219e+00 -3.023192977905273438e+01 2.192570129409432411e-03 -2.789018035400658846e-04 5.741004715673625469e-04 5.983300507068634033e-04
1.420000000000000000e+03 1.092610263824462891e+01 -3.219601058959960938e+01 3.271989990025758743e-03 -4.955327603965997696e-04 8.329371921718120575e-04 1.604630495421588421e-03
1.421000000000000000e+03 4.717323684692382812e+01 -6.267314910888671875e+00 8.693642616271972656e-01 3.656278371810913086e+00 1.357692837715148926e+00 -1.913325309753417969e+00
1.422000000000000000e+03 7.575481414794921875e+01 2.519830513000488281e+01 1.127108633518218994e-01 8.136751174926757812e+00 2.474838733673095703e+00 6.488248705863952637e-01
1.423000000000000000e+03 7.135298919677734375e+01 3.171036005020141602e+00 5.000033378601074219e-01 1.159965705871582031e+01 3.629898071289062500e+00 7.327993512153625488e-01
1.424000000000000000e+03 7.812757873535156250e+01 2.652814626693725586e+00 1.076744422316551208e-01 5.747438430786132812e+00 1.756533980369567871e+00 5.166487768292427063e-02
1.425000000000000000e+03 7.225718688964843750e+01 -3.846133804321289062e+01 -2.664965987205505371e-01 5.346560955047607422e+00 1.524019360542297363e+00 2.397905886173248291e-01
1.426000000000000000e+03 7.787548065185546875e+01 -3.365665054321289062e+01 -2.200786769390106201e-01 8.547856330871582031e+00 2.498333454132080078e+00 -6.255316138267517090e-01
1.427000000000000000e+03 7.811376953125000000e+01 2.083987617492675781e+01 2.302415855228900909e-02 7.870279788970947266e+00 2.367991209030151367e+00 3.124429881572723389e-01
1.428000000000000000e+03 7.687138366699218750e+01 2.082044219970703125e+01 7.137385010719299316e-02 7.954866886138916016e+00 2.407872200012207031e+00 4.232151806354522705e-01
1.429000000000000000e+03 7.741216278076171875e+01 3.705014419555664062e+01 -1.542823314666748047e-01 9.761844635009765625e+00 2.882268905639648438e+00 3.599958866834640503e-02
1.430000000000000000e+03 7.630891418457031250e+01 3.397953033447265625e+01 -2.491772472858428955e-01 8.688216209411621094e+00 2.531711578369140625e+00 3.368327617645263672e-01
1.431000000000000000e+03 7.668085479736328125e+01 -2.234243202209472656e+01 1.597044765949249268e-01 7.580698013305664062e+00 2.322120666503906250e+00 5.859712958335876465e-01
1.432000000000000000e+03 7.812416839599609375e+01 -2.811119842529296875e+01 1.773141324520111084e-01 7.152784824371337891e+00 2.199029684066772461e+00 -6.564891338348388672e-01
1.433000000000000000e+03 7.479069519042968750e+01 -2.917651367187500000e+01 4.584040939807891846e-01 8.468121528625488281e+00 2.677957534790039062e+00 -1.011859774589538574e+00
1.434000000000000000e+03 7.805346679687500000e+01 -2.670716094970703125e+01 3.266251683235168457e-01 6.883540153503417969e+00 2.163049459457397461e+00 -3.808668553829193115e-01
1.435000000000000000e+03 7.798424530029296875e+01 -2.527067756652832031e+01 3.070158958435058594e-01 6.832934379577636719e+00 2.141984939575195312e+00 3.425224870443344116e-02
1.436000000000000000e+03 7.639638519287109375e+01 -3.374228286743164062e+01 -4.302929937839508057e-01 8.073296546936035156e+00 2.292901039123535156e+00 -7.653400897979736328e-01
1.437000000000000000e+03 7.538157653808593750e+01 -2.412939834594726562e+01 9.801994562149047852e-01 8.032985687255859375e+00 2.703955411911010742e+00 3.079775869846343994e-01
1.438000000000000000e+03 7.658866119384765625e+01 -3.226613235473632812e+01 -3.136902451515197754e-01 8.111695289611816406e+00 2.339401721954345703e+00 -9.856742024421691895e-01
1.439000000000000000e+03 7.678427886962890625e+01 -3.087382316589355469e+01 -6.323000788688659668e-02 7.969352722167968750e+00 2.371836662292480469e+00 -1.114081144332885742e+00
1.440000000000000000e+03 7.443222045898437500e+01 -3.040173530578613281e+01 -1.789536699652671814e-02 8.267720222473144531e+00 2.474947452545166016e+00 -1.089079499244689941e+00
1.441000000000000000e+03 7.490425872802734375e+01 -3.755115127563476562e+01 -4.142230451107025146e-01 7.247257232666015625e+00 2.049910306930541992e+00 -1.990177184343338013e-01
1.442000000000000000e+03 7.753086853027343750e+01 -3.741489410400390625e+01 -1.931942552328109741e-01 8.607995033264160156e+00 2.524440288543701172e+00 -1.393281072378158569e-01
1.443000000000000000e+03 7.813655090332031250e+01 2.367380142211914062e+01 3.181764110922813416e-02 8.245232582092285156e+00 2.483115196228027344e+00 3.926708698272705078e-01
1.444000000000000000e+03 7.688265991210937500e+01 2.227364349365234375e+01 7.246674597263336182e-02 8.063296318054199219e+00 2.440728902816772461e+00 4.822502732276916504e-01
1.445000000000000000e+03 7.695763397216796875e+01 2.510801124572753906e+01 6.830034404993057251e-02 8.296867370605468750e+00 2.509550333023071289e+00 5.892914533615112305e-01
1.446000000000000000e+03 7.698751068115234375e+01 1.522686672210693359e+01 -2.261165715754032135e-02 7.573194503784179688e+00 2.265174865722656250e+00 3.558631241321563721e-01
1.447000000000000000e+03 7.816072845458984375e+01 1.385795021057128906e+01 -2.776870504021644592e-02 7.125215530395507812e+00 2.129234075546264648e+00 2.813351750373840332e-01
1.448000000000000000e+03 7.695561981201171875e+01 1.385102462768554688e+01 -5.951732397079467773e-02 7.498948574066162109e+00 2.231829404830932617e+00 3.660850822925567627e-01
1.449000000000000000e+03 7.215249633789062500e+01 2.409669303894042969e+01 3.047546148300170898e-01 7.946396350860595703e+00 2.475345373153686523e+00 2.467492967844009399e-01
1.450000000000000000e+03 7.824073028564453125e+01 2.778677940368652344e+01 4.232393577694892883e-03 8.967650413513183594e+00 2.691564798355102539e+00 4.485858678817749023e-01
1.451000000000000000e+03 7.576537322998046875e+01 1.388978767395019531e+01 -8.483459800481796265e-02 7.878369808197021484e+00 2.338060617446899414e+00 4.293863773345947266e-01
1.452000000000000000e+03 7.816152191162109375e+01 -1.955167007446289062e+01 -1.168994754552841187e-01 7.341516494750976562e+00 2.167385101318359375e+00 3.619388341903686523e-01
1.453000000000000000e+03 7.689717102050781250e+01 -2.089941024780273438e+01 -1.709291487932205200e-01 7.459983825683593750e+00 2.186716318130493164e+00 5.644810199737548828e-01
1.454000000000000000e+03 7.810119628906250000e+01 3.175623893737792969e+01 -4.719692468643188477e-02 9.560446739196777344e+00 2.853974819183349609e+00 3.668150603771209717e-01
1.455000000000000000e+03 7.708592224121093750e+01 2.778217887878417969e+01 8.881709538400173187e-03 8.617033004760742188e+00 2.587774276733398438e+00 6.243302822113037109e-01
1.456000000000000000e+03 7.684049987792968750e+01 9.608552932739257812e+00 -4.878788441419601440e-02 7.230260372161865234e+00 2.154441833496093750e+00 5.452707409858703613e-01
1.457000000000000000e+03 7.564219665527343750e+01 -1.572105884552001953e+01 -3.354994058609008789e-01 7.063545227050781250e+00 2.018413782119750977e+00 -1.681349277496337891e-01
1.458000000000000000e+03 7.698174285888671875e+01 -1.823526191711425781e+01 -2.679995596408843994e-01 7.400102615356445312e+00 2.139631032943725586e+00 2.400562018156051636e-01
1.459000000000000000e+03 7.534011840820312500e+01 -8.750549316406250000e+00 -1.030780896544456482e-01 6.860302448272705078e+00 2.027167320251464844e+00 -4.899982511997222900e-01
1.460000000000000000e+03 7.675788879394531250e+01 -1.144878196716308594e+01 -1.028782874345779419e-01 6.986876010894775391e+00 2.065199375152587891e+00 -3.859432637691497803e-01
1.461000000000000000e+03 7.454086303710937500e+01 -4.557785987854003906e+00 5.024947598576545715e-02 7.297239303588867188e+00 2.204246520996093750e+00 -4.060590267181396484e-01
1.462000000000000000e+03 7.686351013183593750e+01 -4.505184650421142578e+00 3.180781751871109009e-02 6.657030582427978516e+00 2.006651639938354492e+00 -5.267784595489501953e-01
1.463000000000000000e+03 7.692129516601562500e+01 6.795638561248779297e+00 1.004546731710433960e-01 6.920737743377685547e+00 2.106357574462890625e+00 5.205131769180297852e-01
1.464000000000000000e+03 7.576525115966796875e+01 3.813181304931640625e+01 -2.249070703983306885e-01 8.833000183105468750e+00 2.582427978515625000e+00 3.476704657077789307e-01
1.465000000000000000e+03 7.811070251464843750e+01 8.251982688903808594e+00 8.682617917656898499e-04 6.373002052307128906e+00 1.912160992622375488e+00 4.036020636558532715e-01
1.466000000000000000e+03 7.557776641845703125e+01 8.106369018554687500e+00 1.000356115400791168e-02 7.802893638610839844e+00 2.343869209289550781e+00 6.412331461906433105e-01
1.467000000000000000e+03 7.808869934082031250e+01 -1.855822801589965820e-01 8.995808660984039307e-02 5.803992748260498047e+00 1.768185257911682129e+00 -2.093438357114791870e-01
1.468000000000000000e+03 7.684930419921875000e+01 -1.739034175872802734e+00 1.529280841350555420e-01 6.598272800445556641e+00 2.025360345840454102e+00 -4.002799987792968750e-01
1.469000000000000000e+03 7.671555328369140625e+01 -8.643093109130859375e+00 -5.821824818849563599e-02 6.846847534179687500e+00 2.036588907241821289e+00 -4.933660626411437988e-01
1.470000000000000000e+03 7.688400268554687500e+01 -1.558191871643066406e+01 -2.161262631416320801e-01 7.260231018066406250e+00 2.113231420516967773e+00 -8.990168571472167969e-02
1.471000000000000000e+03 7.370108795166015625e+01 3.281357574462890625e+01 -4.830066859722137451e-01 7.218316078186035156e+00 2.020592927932739258e+00 3.571866452693939209e-01
1.472000000000000000e+03 7.661621856689453125e+01 3.270435714721679688e+01 -1.517273485660552979e-01 8.842105865478515625e+00 2.607113361358642578e+00 4.429065287113189697e-01
1.473000000000000000e+03 7.698456573486328125e+01 1.797007942199707031e+01 3.969874978065490723e-02 7.750445842742919922e+00 2.337043285369873047e+00 3.551586270332336426e-01
1.474000000000000000e+03 7.810193634033203125e+01 9.653720855712890625e+00 -1.274446584284305573e-02 6.588439464569091797e+00 1.972708582878112793e+00 3.947397172451019287e-01
1.475000000000000000e+03 7.687026977539062500e+01 1.103887748718261719e+01 -6.279835850000381470e-02 7.334396839141845703e+00 2.181479454040527344e+00 5.008055567741394043e-01
1.476000000000000000e+03 7.683708190917968750e+01 -1.422413730621337891e+01 -1.686140000820159912e-01 7.163438796997070312e+00 2.098447322845458984e+00 -2.081434130668640137e-01
1.477000000000000000e+03 7.674539947509765625e+01 -7.255412578582763672e+00 -4.988235980272293091e-02 6.787850856781005859e+00 2.021390438079833984e+00 -5.156023502349853516e-01
1.478000000000000000e+03 7.691347503662109375e+01 2.614335775375366211e+00 2.586247324943542480e-01 6.613640308380126953e+00 2.061679601669311523e+00 1.239256635308265686e-01
1.479000000000000000e+03 7.574842834472656250e+01 2.648882627487182617e+00 4.100559949874877930e-01 7.421204090118408203e+00 2.349378108978271484e+00 1.938217431306838989e-01
1.480000000000000000e+03 7.697305297851562500e+01 5.419237613677978516e+00 1.739943325519561768e-01 6.759778022766113281e+00 2.080131769180297852e+00 4.085854291915893555e-01
1.481000000000000000e+03 7.681980133056640625e+01 -3.046579957008361816e-01 2.147029340267181396e-01 6.591619491577148438e+00 2.041896581649780273e+00 -2.598762214183807373e-01
1.482000000000000000e+03 7.810752868652343750e+01 -4.389676570892333984e+00 1.104976888746023178e-02 6.247710227966308594e+00 1.877627968788146973e+00 -4.127732813358306885e-01
1.483000000000000000e+03 7.687648010253906250e+01 -3.131324529647827148e+00 8.493342250585556030e-02 6.618403911590576172e+00 2.011001348495483398e+00 -4.736754894256591797e-01
1.484000000000000000e+03 7.805690765380859375e+01 -1.132041740417480469e+01 -4.946238920092582703e-02 7.154346942901611328e+00 2.131465435028076172e+00 -2.920460402965545654e-01
1.485000000000000000e+03 7.672506713867187500e+01 -1.004239559173583984e+01 -8.567668497562408447e-02 6.916100025177001953e+00 2.049126863479614258e+00 -4.488649368286132812e-01
1.486000000000000000e+03 7.693736267089843750e+01 -1.691839599609375000e+01 -2.411568462848663330e-01 7.341467857360839844e+00 2.130093336105346680e+00 8.179803192615509033e-02
1.487000000000000000e+03 7.108586883544921875e+01 1.567372035980224609e+01 1.490972787141799927e-01 9.183609008789062500e+00 2.799811840057373047e+00 4.148609340190887451e-01
1.488000000000000000e+03 7.133142089843750000e+01 1.685309410095214844e+00 9.097389578819274902e-01 1.118109321594238281e+01 3.627249479293823242e+00 8.229874372482299805e-01
1.489000000000000000e+03 7.114389801025390625e+01 1.537532508373260498e-01 8.108801841735839844e-01 1.081261634826660156e+01 3.487048864364624023e+00 8.539832234382629395e-01
1.490000000000000000e+03 7.102571868896484375e+01 1.983203125000000000e+01 1.242501754313707352e-02 8.723546981811523438e+00 2.620791673660278320e+00 2.400547116994857788e-01
1.491000000000000000e+03 7.108996582031250000e+01 1.708829116821289062e+01 2.388198114931583405e-02 9.024073600769042969e+00 2.714386701583862305e+00 3.048112988471984863e-01
1.492000000000000000e+03 7.224066162109375000e+01 2.107843589782714844e+01 1.145748868584632874e-01 8.418597221374511719e+00 2.559951543807983398e+00 2.919599413871765137e-01
1.493000000000000000e+03 7.461676025390625000e+01 1.899773979187011719e+01 8.333557844161987305e-02 8.188199043273925781e+00 2.481460332870483398e+00 4.433183073997497559e-01
1.494000000000000000e+03 7.212231445312500000e+01 1.969796562194824219e+01 6.225954741239547729e-02 8.575798034667968750e+00 2.591417074203491211e+00 3.361698985099792480e-01
1.495000000000000000e+03 6.744946289062500000e+01 -9.356069564819335938e+00 5.694881081581115723e-01 4.491957187652587891e+00 1.518433570861816406e+00 1.335730433464050293e+00
1.496000000000000000e+03 4.412340927124023438e+01 9.492024779319763184e-01 6.917160749435424805e-01 3.411629199981689453e+00 1.231003642082214355e+00 -1.624423861503601074e+00
1.497000000000000000e+03 4.294580078125000000e+01 6.189228296279907227e-01 6.588525772094726562e-01 3.177253246307373047e+00 1.150831818580627441e+00 -1.456098437309265137e+00
1.498000000000000000e+03 6.873305511474609375e+01 3.165004920959472656e+01 -5.855706930160522461e-01 3.197661638259887695e+00 7.836273312568664551e-01 -2.613925337791442871e-01
1.499000000000000000e+03 6.978896331787109375e+01 3.410976409912109375e+01 -7.715563178062438965e-01 4.298456668853759766e+00 1.058070182800292969e+00 -2.365469634532928467e-01
1.500000000000000000e+03 2.107771873474121094e+01 -3.419645309448242188e+01 4.866078495979309082e-03 -3.163594054058194160e-03 5.107452743686735630e-04 1.099327695555984974e-03
1.501000000000000000e+03 5.096143245697021484e+00 -1.677463531494140625e+01 -1.309280833083903417e-06 1.347438374068588018e-04 4.003036883659660816e-05 -4.677581819123588502e-05
1.502000000000000000e+03 1.783398628234863281e+01 -3.305401992797851562e+01 6.644910201430320740e-03 -2.092990325763821602e-03 1.365575939416885376e-03 1.551640452817082405e-03
1.503000000000000000e+03 2.143397808074951172e+00 3.451859664916992188e+01 7.799874991178512573e-03 -1.081714153289794922e+00 -3.221742808818817139e-01 -1.098325476050376892e-02
1.504000000000000000e+03 3.478679418563842773e+00 3.586296081542968750e+01 1.034753769636154175e-02 -9.841998219490051270e-01 -2.921556830406188965e-01 -4.331895150244235992e-03
1.505000000000000000e+03 1.986018896102905273e+00 2.743808746337890625e+01 4.732665140181779861e-03 -1.088269829750061035e+00 -3.250611722469329834e-01 8.681479841470718384e-03
1.506000000000000000e+03 3.635138273239135742e+00 3.014440155029296875e+01 9.092383086681365967e-03 -9.592045545578002930e-01 -2.850336730480194092e-01 -1.393974991515278816e-03
1.507000000000000000e+03 5.492179870605468750e+00 3.155739593505859375e+01 9.907783940434455872e-03 -8.071218729019165039e-01 -2.391642332077026367e-01 -1.133235357701778412e-02
1.508000000000000000e+03 1.930872321128845215e+00 2.601052665710449219e+01 6.146163213998079300e-03 -1.085101366043090820e+00 -3.236865699291229248e-01 1.392230391502380371e-02
1.509000000000000000e+03 3.240098476409912109e+00 2.725964164733886719e+01 1.099947374314069748e-02 -9.851441383361816406e-01 -2.922433912754058838e-01 1.188214588910341263e-02
1.510000000000000000e+03 3.420683145523071289e+00 2.868745231628417969e+01 1.096143573522567749e-02 -9.723640680313110352e-01 -2.884207963943481445e-01 6.409206427633762360e-03
1.511000000000000000e+03 2.056814670562744141e+00 3.711382675170898438e+01 -3.160051768645644188e-03 -1.072065591812133789e+00 -3.225677013397216797e-01 -1.618616282939910889e-02
1.512000000000000000e+03 3.716986656188964844e+00 3.305456542968750000e+01 9.017005562782287598e-03 -9.520609974861145020e-01 -2.829132080078125000e-01 -1.130884606391191483e-02
1.513000000000000000e+03 5.114870071411132812e+00 2.987645721435546875e+01 2.120392210781574249e-02 -8.370913863182067871e-01 -2.447662353515625000e-01 -3.821679390966892242e-03
1.514000000000000000e+03 3.765827894210815430e+00 3.161636924743652344e+01 5.634060595184564590e-03 -9.510773420333862305e-01 -2.836329936981201172e-01 -7.615581154823303223e-03
1.515000000000000000e+03 3.973898887634277344e+00 -3.432606124877929688e+01 4.877368628513067961e-04 5.499925464391708374e-04 3.113188140559941530e-04 5.354143795557320118e-04
1.516000000000000000e+03 3.391191482543945312e+00 -2.992557144165039062e+01 -4.040801431983709335e-04 1.503915555076673627e-04 -7.610658212797716260e-05 2.870008756872266531e-04
1.517000000000000000e+03 1.869786739349365234e+00 -2.884969520568847656e+01 -5.483271088451147079e-04 7.716336403973400593e-05 -1.413491263519972563e-04 7.971850573085248470e-05
1.518000000000000000e+03 7.143266201019287109e+00 -2.647159385681152344e+01 5.137897096574306488e-04 -4.338134313002228737e-04 2.399289041932206601e-05 -1.350991515209898353e-04
1.519000000000000000e+03 1.897519230842590332e+00 2.177475738525390625e+01 8.422041311860084534e-03 -1.032235145568847656e+00 -3.071439266204833984e-01 4.177798330783843994e-02
1.520000000000000000e+03 3.179775953292846680e+00 2.305967521667480469e+01 1.870360597968101501e-02 -9.613534212112426758e-01 -2.827949523925781250e-01 5.050971359014511108e-02
1.521000000000000000e+03 2.895437717437744141e+00 -1.218987274169921875e+01 2.983642916660755873e-04 -1.813215931179001927e-06 8.896532381186261773e-05 3.435220060055144131e-05
1.522000000000000000e+03 1.856729626655578613e+00 -7.902517795562744141e+00 2.086837484966963530e-04 -1.459287068428238854e-05 5.822726234328001738e-05 1.481807976233540103e-05
1.523000000000000000e+03 1.800362229347229004e+00 -1.905115699768066406e+01 4.302615998312830925e-04 -2.917458914453163743e-07 1.289909560000523925e-04 4.736209666589275002e-05
1.524000000000000000e+03 1.875182867050170898e+00 2.035593223571777344e+01 1.034000422805547714e-02 -1.000351548194885254e+00 -2.970034778118133545e-01 5.352779850363731384e-02
1.525000000000000000e+03 3.162930727005004883e+00 2.163574218750000000e+01 2.272690087556838989e-02 -9.406567811965942383e-01 -2.753789722919464111e-01 6.726045161485671997e-02
1.526000000000000000e+03 2.818566083908081055e+00 1.188105297088623047e+01 1.597066968679428101e-02 -5.964041352272033691e-01 -1.741300374269485474e-01 1.966614872217178345e-01
1.527000000000000000e+03 3.004387378692626953e+00 1.736926269531250000e+01 2.684583514928817749e-02 -8.409336209297180176e-01 -2.442263364791870117e-01 1.266993135213851929e-01
1.528000000000000000e+03 1.871662616729736328e+00 -2.186313629150390625e+01 4.364992782939225435e-04 3.673138053272850811e-05 1.419691980117931962e-04 6.805524026276543736e-05
1.529000000000000000e+03 6.879787445068359375e+00 -1.930483436584472656e+01 2.791243023239076138e-04 1.207577838613360655e-06 8.409956353716552258e-05 1.771847746567800641e-05
1.530000000000000000e+03 1.723201632499694824e+00 -1.492491436004638672e+01 -3.315094218123704195e-04 3.443146283643727656e-07 -9.934953413903713226e-05 -2.405542909400537610e-05
1.531000000000000000e+03 2.868701696395874023e+00 -1.356852245330810547e+01 -3.201857034582644701e-04 3.897973783750785515e-06 -9.488631621934473515e-05 -2.755029709078371525e-05
1.532000000000000000e+03 4.869789123535156250e+00 -4.784514427185058594e+00 3.352603744133375585e-05 8.175437869795132428e-06 1.251044250238919631e-05 -6.964445492485538125e-05
1.533000000000000000e+03 2.637392282485961914e+00 4.881364822387695312e+00 -5.125634744763374329e-02 -1.684036403894424438e-01 -6.589799374341964722e-02 1.407824456691741943e-01
1.534000000000000000e+03 3.716176748275756836e+00 8.161622047424316406e+00 -1.591189950704574585e-02 -3.944725692272186279e-01 -1.231153458356857300e-01 2.648069262504577637e-01
1.535000000000000000e+03 1.734304308891296387e+00 1.472229194641113281e+01 1.004599407315254211e-02 -7.809829711914062500e-01 -2.312810868024826050e-01 1.059533581137657166e-01
1.536000000000000000e+03 2.938268423080444336e+00 1.597744178771972656e+01 2.651253901422023773e-02 -7.922579646110534668e-01 -2.297236323356628418e-01 1.464821398258209229e-01
1.537000000000000000e+03 3.065411090850830078e+00 9.224067687988281250e+00 -3.640965151134878397e-04 -4.412366151809692383e-01 -1.324802190065383911e-01 2.274461686611175537e-01
1.538000000000000000e+03 3.007457733154296875e+00 -8.070646286010742188e+00 -2.271457487950101495e-04 8.819371032586786896e-06 -6.549791578436270356e-05 1.109098548113252036e-06
1.539000000000000000e+03 1.855198025703430176e+00 -2.328730583190917969e+01 -4.846217343583703041e-04 9.072945431398693472e-06 -1.426646340405568480e-04 -1.163837223430164158e-04
1.540000000000000000e+03 3.066126346588134766e+00 -2.862399291992187500e+01 8.753876318223774433e-04 -4.579358574119396508e-05 2.488782047294080257e-04 7.515622564824298024e-05
1.541000000000000000e+03 1.700406193733215332e+00 -3.669369125366210938e+01 -1.189890463137999177e-04 8.980242419056594372e-04 2.337105543119832873e-04 3.569910477381199598e-04
1.542000000000000000e+03 2.905421972274780273e+00 -1.081899452209472656e+01 -2.682082122191786766e-04 -3.569012278603622690e-06 -8.153316593961790204e-05 -2.105603380186948925e-05
1.543000000000000000e+03 2.911731243133544922e+00 -9.444715499877929688e+00 2.502106362953782082e-04 -8.513604370818939060e-06 7.250911585288122296e-05 1.395753588440129533e-05
1.544000000000000000e+03 2.897567272186279297e+00 -1.627436256408691406e+01 -4.063084197696298361e-04 -3.530140929797198623e-06 -1.229515619343146682e-04 -5.069372491561807692e-05
1.545000000000000000e+03 3.909222364425659180e+00 -3.282886505126953125e+01 -2.387618878856301308e-04 4.178731178399175406e-04 5.373336171032860875e-05 6.429565837606787682e-04
1.546000000000000000e+03 7.783370971679687500e+00 -3.133157920837402344e+01 3.541096230037510395e-04 -1.434021978639066219e-04 6.321223190752789378e-05 2.266657247673720121e-04
1.547000000000000000e+03 3.926541805267333984e+00 -2.605737113952636719e+01 -4.097434866707772017e-04 1.694445527391508222e-04 -7.208967872429639101e-05 -1.122351095546036959e-04
1.548000000000000000e+03 2.936529874801635742e+00 -2.470263099670410156e+01 -4.675234667956829071e-04 8.205402991734445095e-05 -1.156408252427354455e-04 -8.365725807379931211e-05
1.549000000000000000e+03 2.882111549377441406e+00 -1.493722438812255859e+01 3.523173218127340078e-04 1.738186620059423149e-05 1.109097502194344997e-04 4.329928560764528811e-05
1.550000000000000000e+03 2.862411022186279297e+00 1.055508041381835938e+01 1.044046599417924881e-02 -5.189946293830871582e-01 -1.525662541389465332e-01 2.082307189702987671e-01
1.551000000000000000e+03 2.835217237472534180e+00 1.322654342651367188e+01 2.120332606136798859e-02 -6.681990027427673340e-01 -1.940986961126327515e-01 1.830861866474151611e-01
1.552000000000000000e+03 4.101460456848144531e+00 1.584492492675781250e+01 4.772848635911941528e-02 -7.471690177917480469e-01 -2.098321616649627686e-01 1.913978010416030884e-01
1.553000000000000000e+03 6.911550140380859375e+01 -8.494416236877441406e+00 2.533542811870574951e-01 5.732675552368164062e+00 1.795808911323547363e+00 9.726489782333374023e-01
1.554000000000000000e+03 7.561275482177734375e+01 -1.901564955711364746e+00 2.271954715251922607e-01 7.194795608520507812e+00 2.226597309112548828e+00 -3.812143802642822266e-01
1.555000000000000000e+03 7.074919891357421875e+01 -1.322609424591064453e+00 5.637204051017761230e-01 1.019714164733886719e+01 3.228258609771728516e+00 1.187872052192687988e+00
1.556000000000000000e+03 6.191092300415039062e+01 -2.191710472106933594e+01 3.322896063327789307e-01 -2.755307853221893311e-01 1.702764816582202911e-02 1.463784873485565186e-01
1.557000000000000000e+03 5.958982086181640625e+01 -2.115852928161621094e+01 1.689168930053710938e+00 1.021280407905578613e+00 8.131347894668579102e-01 3.398449122905731201e-01
1.558000000000000000e+03 4.179534912109375000e+01 2.436664772033691406e+01 1.523207426071166992e-01 2.354028224945068359e+00 7.519047260284423828e-01 3.081192970275878906e-01
1.559000000000000000e+03 4.137560272216796875e+01 1.807233810424804688e+01 2.867793440818786621e-01 3.662847280502319336e+00 1.184888005256652832e+00 2.730162739753723145e-01
1.560000000000000000e+03 4.266006088256835938e+01 2.233085060119628906e+01 2.910101413726806641e-01 2.729873657226562500e+00 9.062651395797729492e-01 5.780300498008728027e-01
1.561000000000000000e+03 4.041308975219726562e+01 1.997228622436523438e+01 2.730865776538848877e-01 3.044808864593505859e+00 9.953685998916625977e-01 1.393242478370666504e-01
1.562000000000000000e+03 5.305901527404785156e+00 -2.039578819274902344e+01 5.661448813043534756e-05 -5.955177039140835404e-05 -8.811852580947743263e-07 3.415858736843802035e-05
1.563000000000000000e+03 4.363030624389648438e+01 2.890957641601562500e+01 -5.589478835463523865e-02 1.708027362823486328e+00 4.956397712230682373e-01 2.722251117229461670e-01
1.564000000000000000e+03 1.971741294860839844e+01 -1.178601074218750000e+01 5.807659908896312118e-05 -1.201794839289505035e-05 1.381759557261830196e-05 3.931296305381692946e-05
1.565000000000000000e+03 4.322030258178710938e+01 3.358580017089843750e+01 -4.015633463859558105e-01 1.471548557281494141e+00 3.209955692291259766e-01 9.571188688278198242e-02
1.566000000000000000e+03 7.031911468505859375e+01 -5.883501529693603516e+00 2.163098752498626709e-01 7.266418457031250000e+00 2.244818449020385742e+00 8.988921642303466797e-01
1.567000000000000000e+03 4.081805801391601562e+01 2.142093086242675781e+01 2.304418087005615234e-01 2.801423788070678711e+00 9.095596671104431152e-01 2.404178977012634277e-01
1.568000000000000000e+03 2.819919586181640625e+01 -1.531019115447998047e+01 -8.036844134330749512e-01 -3.158543407917022705e-01 -3.358616232872009277e-01 7.350126504898071289e-01
1.569000000000000000e+03 7.861155033111572266e+00 -2.808289146423339844e+01 7.331527303904294968e-04 -5.054613575339317322e-04 6.830740312580019236e-05 -3.762639826163649559e-04
1.570000000000000000e+03 5.058525466918945312e+01 -1.345666694641113281e+01 3.371154785156250000e+00 4.553455352783203125e+00 2.377382993698120117e+00 -2.799647331237792969e+00
1.571000000000000000e+03 7.063672637939453125e+01 3.177863693237304688e+01 -6.872962117195129395e-01 5.238605499267578125e+00 1.365392804145812988e+00 1.397159248590469360e-01
1.572000000000000000e+03 7.141207885742187500e+01 7.568689823150634766e+00 4.086796641349792480e-01 1.038477134704589844e+01 3.238035440444946289e+00 2.145134806632995605e-01
1.573000000000000000e+03 7.219548034667968750e+01 2.259668540954589844e+01 2.186361998319625854e-01 8.235984802246093750e+00 2.536386251449584961e+00 2.568423151969909668e-01
1.574000000000000000e+03 7.336891174316406250e+01 2.110438728332519531e+01 1.411164104938507080e-01 8.289566040039062500e+00 2.529204845428466797e+00 4.142918586730957031e-01
1.575000000000000000e+03 4.239340591430664062e+01 2.585393714904785156e+01 1.019204556941986084e-01 2.149634838104248047e+00 6.754665374755859375e-01 3.131220936775207520e-01
1.576000000000000000e+03 4.092704772949218750e+01 2.655578041076660156e+01 -5.188382347114384174e-04 2.061614990234375000e+00 6.183288693428039551e-01 1.189371868968009949e-01
1.577000000000000000e+03 4.111467742919921875e+01 7.101261615753173828e+00 9.722365736961364746e-01 4.204992771148681641e+00 1.553168892860412598e+00 -1.113641500473022461e+00
1.578000000000000000e+03 7.079609680175781250e+01 -7.669965744018554688e+00 4.717338085174560547e-02 6.661640644073486328e+00 2.012644290924072266e+00 4.688596427440643311e-01
1.579000000000000000e+03 6.415412902832031250e+01 -1.886671638488769531e+01 5.160266757011413574e-01 4.719552099704742432e-01 2.963945567607879639e-01 1.001900672912597656e+00
1.580000000000000000e+03 1.830758476257324219e+01 -3.444937133789062500e+01 1.871982356533408165e-03 1.134927617385983467e-03 9.020729921758174896e-04 2.412674250081181526e-03
1.581000000000000000e+03 5.098451995849609375e+01 3.447334289550781250e+01 -2.665061354637145996e-01 4.698179066181182861e-01 6.099352613091468811e-02 1.561840325593948364e-01
1.582000000000000000e+03 4.813725662231445312e+01 3.550572204589843750e+01 -3.887015879154205322e-01 9.024940729141235352e-01 1.541377454996109009e-01 1.577782183885574341e-01
1.583000000000000000e+03 5.524892425537109375e+01 -2.748751640319824219e+01 5.897321701049804688e-01 6.993317604064941406e+00 2.274914979934692383e+00 9.098603725433349609e-01
1.584000000000000000e+03 4.126681137084960938e+01 2.288558578491210938e+01 2.072078138589859009e-01 2.578069686889648438e+00 8.355832695960998535e-01 2.716023623943328857e-01
1.585000000000000000e+03 6.590256500244140625e+01 -1.202163600921630859e+01 9.786425232887268066e-01 2.823235034942626953e+00 1.140563249588012695e+00 1.184830665588378906e+00
1.586000000000000000e+03 6.847149658203125000e+01 -9.836927413940429688e+00 3.899452090263366699e-01 4.932070255279541016e+00 1.596604585647583008e+00 9.497005343437194824e-01
1.587000000000000000e+03 7.727712154388427734e+00 -1.613015937805175781e+01 -4.743676108773797750e-04 -2.620338054839521646e-04 -2.209204249083995819e-04 2.601969172246754169e-04
1.588000000000000000e+03 6.374278259277343750e+01 -1.672983169555664062e+01 8.221778869628906250e-01 1.072949647903442383e+00 5.685382485389709473e-01 1.118235826492309570e+00
1.589000000000000000e+03 7.557575988769531250e+01 -3.072695732116699219e+01 -1.333468556404113770e-01 8.142920494079589844e+00 2.402872085571289062e+00 -1.136257171630859375e+00
1.590000000000000000e+03 5.417500686645507812e+01 -2.122383308410644531e+01 -4.010188281536102295e-01 5.232253551483154297e+00 1.449370384216308594e+00 2.916445016860961914e+00
1.591000000000000000e+03 3.897846221923828125e+01 1.284855461120605469e+01 8.070417642593383789e-01 3.629328489303588867e+00 1.330911040306091309e+00 -6.153221130371093750e-01
1.592000000000000000e+03 6.818827056884765625e+01 -2.029034805297851562e+01 -1.089048013091087341e-01 1.110501170158386230e+00 3.004789054393768311e-01 -1.157071352005004883e+00
1.593000000000000000e+03 1.208476161956787109e+01 -3.356292343139648438e+01 1.389598706737160683e-03 2.382394595770165324e-04 4.883514484390616417e-04 1.928392099216580391e-03
1.594000000000000000e+03 7.209862518310546875e+01 2.564648246765136719e+01 3.090545237064361572e-01 7.605312347412109375e+00 2.374310016632080078e+00 3.084599077701568604e-01
1.595000000000000000e+03 7.205060577392578125e+01 2.733188247680664062e+01 1.758066564798355103e-01 7.121876239776611328e+00 2.189304828643798828e+00 3.738148212432861328e-01
1.596000000000000000e+03 4.004764556884765625e+01 9.859661102294921875e+00 1.090260624885559082e+00 4.102119445800781250e+00 1.557713985443115234e+00 -8.389666080474853516e-01
1.597000000000000000e+03 7.276477813720703125e+01 7.708810806274414062e+00 1.977672427892684937e-01 9.469322204589843750e+00 2.900126695632934570e+00 5.437669157981872559e-01
1.598000000000000000e+03 1.317939949035644531e+01 -3.535253143310546875e+01 1.262310310266911983e-03 -2.344493841519579291e-04 3.083582851104438305e-04 2.930012997239828110e-03
1.599000000000000000e+03 1.483450698852539062e+01 -3.265646743774414062e+01 4.713988862931728363e-03 -1.332605024799704552e-03 1.014415174722671509e-03 8.780626812949776649e-04
1.600000000000000000e+03 6.920015716552734375e+01 -3.433611679077148438e+01 -1.139010548591613770e+00 2.726848840713500977e+00 4.763515293598175049e-01 7.017375230789184570e-01
1.601000000000000000e+03 5.374417495727539062e+01 -2.915367507934570312e+01 1.782707571983337402e+00 5.198245048522949219e+00 2.094285726547241211e+00 2.477513998746871948e-01
1.602000000000000000e+03 5.914846038818359375e+01 -2.013569450378417969e+01 2.671220779418945312e+00 9.976292848587036133e-01 1.100654959678649902e+00 5.926254987716674805e-01
1.603000000000000000e+03 5.856712722778320312e+01 -2.339929008483886719e+01 -3.372592031955718994e-01 2.869591712951660156e+00 7.596997618675231934e-01 5.510844588279724121e-01
1.604000000000000000e+03 4.968153762817382812e+01 -1.477820110321044922e+01 1.893582105636596680e+00 2.362704753875732422e+00 1.276886105537414551e+00 -1.202647686004638672e+00
1.605000000000000000e+03 4.401221084594726562e+01 -3.056233596801757812e+01 -4.279042184352874756e-01 -5.477609634399414062e-01 -2.926995456218719482e-01 -7.157009094953536987e-02
1.606000000000000000e+03 4.435722351074218750e+01 -2.880368423461914062e+01 -2.192746996879577637e-01 -6.182247400283813477e-01 -2.512498199939727783e-01 -3.700199425220489502e-01
1.607000000000000000e+03 6.675070953369140625e+01 -1.937152481079101562e+01 2.887633144855499268e-01 7.531410455703735352e-01 3.125712871551513672e-01 -1.677591204643249512e-01
1.608000000000000000e+03 5.794846725463867188e+01 4.116263961791992188e+01 -9.154403954744338989e-02 -3.350009918212890625e-01 -1.279635131359100342e-01 1.135344356298446655e-01
1.609000000000000000e+03 7.697881317138671875e+01 -2.823480224609375000e+01 3.584507107734680176e-01 7.606252670288085938e+00 2.389410972595214844e+00 -9.022762179374694824e-01
1.610000000000000000e+03 7.222772216796875000e+01 1.416638946533203125e+01 -6.053150072693824768e-02 8.801226615905761719e+00 2.622208356857299805e+00 1.781544089317321777e-01
1.611000000000000000e+03 7.105036163330078125e+01 1.425992298126220703e+01 2.058053314685821533e-01 8.893043518066406250e+00 2.729654788970947266e+00 2.689954936504364014e-01
1.612000000000000000e+03 4.038291168212890625e+01 2.902373886108398438e+01 -1.696870326995849609e-01 1.833434224128723145e+00 4.991241395473480225e-01 7.911008782684803009e-03
1.613000000000000000e+03 7.545162963867187500e+01 -2.535996818542480469e+01 1.035282969474792480e+00 8.144066810607910156e+00 2.753804683685302734e+00 -2.016028165817260742e-01
1.614000000000000000e+03 1.933630943298339844e+01 -1.051573944091796875e+01 -7.226663456094684079e-06 -4.993409311282448471e-05 -1.714822610665578395e-05 -3.643465242930687964e-05
1.615000000000000000e+03 1.914509010314941406e+01 -1.263952255249023438e+01 3.147640745737589896e-05 2.971078356495127082e-05 1.835615694290027022e-05 2.224067611678037792e-05
1.616000000000000000e+03 4.108591461181640625e+01 -3.526844024658203125e+01 2.426884919404983521e-01 -5.760821700096130371e-01 -1.000181138515472412e-01 -3.801645012572407722e-03
1.617000000000000000e+03 6.969692230224609375e+01 3.054675483703613281e+01 -4.271336495876312256e-01 4.696394443511962891e+00 1.280778288841247559e+00 -9.064450860023498535e-02
1.618000000000000000e+03 7.312371063232421875e+01 -1.606764602661132812e+01 -4.851940870285034180e-01 6.393372535705566406e+00 1.772453546524047852e+00 -5.300211906433105469e-01
1.619000000000000000e+03 7.186264801025390625e+01 2.920431709289550781e+01 -1.897632479667663574e-01 6.575000762939453125e+00 1.915571212768554688e+00 4.581309854984283447e-01
1.620000000000000000e+03 5.208262634277343750e+01 3.587710952758789062e+01 -3.457206785678863525e-01 3.371851146221160889e-01 -2.560672350227832794e-03 8.057355880737304688e-02
1.621000000000000000e+03 5.645177459716796875e+01 3.789436340332031250e+01 -4.514035880565643311e-01 -1.856524646282196045e-01 -1.911168098449707031e-01 2.103363126516342163e-01
1.622000000000000000e+03 3.706547927856445312e+01 -3.666616439819335938e+01 6.097204983234405518e-02 -2.997940778732299805e-01 -7.164660841226577759e-02 -2.319468706846237183e-01
1.623000000000000000e+03 3.483957672119140625e+01 -3.636532211303710938e+01 -3.721303492784500122e-02 -1.554255485534667969e-01 -5.779157578945159912e-02 -2.171664237976074219e-01
1.624000000000000000e+03 1.801802444458007812e+01 -1.269639778137207031e+01 -3.501828814478358254e-06 1.970908306248020381e-05 4.862175956077408046e-06 -6.078984824853250757e-06
1.625000000000000000e+03 3.790037918090820312e+01 -1.711102485656738281e+01 -2.586021184921264648e+00 -8.737301230430603027e-01 -1.037925362586975098e+00 8.651040196418762207e-01
1.626000000000000000e+03 4.056472778320312500e+01 8.452432632446289062e+00 1.084954023361206055e+00 4.233991622924804688e+00 1.595683693885803223e+00 -9.666759967803955078e-01
1.627000000000000000e+03 3.891273117065429688e+01 -1.704491806030273438e+01 -2.595750331878662109e+00 -5.927911400794982910e-01 -9.565624594688415527e-01 6.583338379859924316e-01
1.628000000000000000e+03 3.569781494140625000e+01 -1.592187118530273438e+01 -1.958667039871215820e+00 -4.324811995029449463e-01 -7.173444628715515137e-01 1.030094742774963379e+00
1.629000000000000000e+03 5.076179504394531250e+01 -1.459181499481201172e+01 2.904944419860839844e+00 4.031637191772460938e+00 2.080974578857421875e+00 -2.155491590499877930e+00
1.630000000000000000e+03 1.673552703857421875e+01 -1.270299911499023438e+01 -1.993251498788595200e-05 -6.705369014525786042e-05 -2.609586044854950160e-05 -3.162344728480093181e-05
1.631000000000000000e+03 9.837266921997070312e+00 -3.112554168701171875e+01 8.445883868262171745e-04 -3.130320983473211527e-04 1.594668865436688066e-04 2.041016523435246199e-05
1.632000000000000000e+03 8.828936576843261719e+00 -1.524141788482666016e+01 -4.192750493530184031e-04 -1.111403835238888860e-04 -1.591246254974976182e-04 -3.614659726736135781e-05
1.633000000000000000e+03 1.534624195098876953e+01 -1.266293621063232422e+01 1.573852205183357000e-04 8.532303763786330819e-05 7.281247962964698672e-05 7.018182077445089817e-05
1.634000000000000000e+03 1.405230617523193359e+01 -1.227125644683837891e+01 -2.199518203269690275e-04 -1.386797375744208694e-04 -1.075894688256084919e-04 3.760475738090462983e-05
1.635000000000000000e+03 2.877067565917968750e+00 -2.735586547851562500e+01 -6.404467276297509670e-04 1.868420658865943551e-04 -1.360813912469893694e-04 -3.691346501000225544e-05
1.636000000000000000e+03 7.328923225402832031e+00 -2.516654586791992188e+01 -5.023065023124217987e-04 2.150499494746327400e-04 -8.617696585133671761e-05 -4.120287030673353001e-06
1.637000000000000000e+03 5.835560226440429688e+01 -3.602711105346679688e+01 -7.516638636589050293e-01 1.896925568580627441e+00 3.435785174369812012e-01 -1.287837266921997070e+00
1.638000000000000000e+03 6.313582611083984375e+01 -2.160537528991699219e+01 -1.324022114276885986e-01 -7.702306658029556274e-02 -6.282757967710494995e-02 9.308391064405441284e-02
1.639000000000000000e+03 6.548328399658203125e+01 -1.969652557373046875e+01 6.817598640918731689e-02 3.208822011947631836e-01 1.167174577713012695e-01 5.293470025062561035e-01
1.640000000000000000e+03 7.315054321289062500e+01 -2.138753128051757812e+01 -3.110371232032775879e-01 8.127901077270507812e+00 2.345059156417846680e+00 -1.431356221437454224e-01
1.641000000000000000e+03 7.363075256347656250e+01 -2.401444816589355469e+01 1.608929991722106934e+00 9.040902137756347656e+00 3.194949626922607422e+00 -2.080697417259216309e-01
1.642000000000000000e+03 6.808736419677734375e+01 3.629900360107421875e+01 -4.534066617488861084e-01 2.644835472106933594e+00 6.574286222457885742e-01 -3.146431446075439453e-01
1.643000000000000000e+03 6.590242004394531250e+01 3.817673873901367188e+01 2.169650793075561523e-02 1.248755335807800293e+00 3.811355531215667725e-01 -1.381014436483383179e-01
1.644000000000000000e+03 4.950713157653808594e+00 -4.038048934936523438e+01 -2.944636216852813959e-04 2.998944837599992752e-04 1.629258690627466422e-06 7.423912757076323032e-04
1.645000000000000000e+03 5.284561920166015625e+01 -3.276099395751953125e+01 9.885412454605102539e-01 4.490476131439208984e+00 1.643705248832702637e+00 1.074565052986145020e+00
1.646000000000000000e+03 5.398929977416992188e+01 -3.496080398559570312e+01 -2.288636863231658936e-01 4.452509403228759766e+00 1.267093658447265625e+00 3.423665463924407959e-01
1.647000000000000000e+03 5.514482498168945312e+01 -3.583022689819335938e+01 -8.342629671096801758e-01 4.200913906097412109e+00 1.009995222091674805e+00 1.044500097632408142e-01
1.648000000000000000e+03 5.269280242919921875e+01 -3.838204956054687500e+01 -7.739920616149902344e-01 3.288545608520507812e+00 7.543660998344421387e-01 3.013308346271514893e-01
1.649000000000000000e+03 5.706826400756835938e+01 -2.290729522705078125e+01 -8.521942496299743652e-01 5.547336101531982422e+00 1.408542633056640625e+00 5.481768250465393066e-01
1.650000000000000000e+03 5.252463150024414062e+01 -2.165495681762695312e+01 -3.984590768814086914e-01 1.742027044296264648e+00 4.030703902244567871e-01 1.349801301956176758e+00
1.651000000000000000e+03 5.315244674682617188e+01 -1.680636978149414062e+01 -4.265192747116088867e-01 4.343604087829589844e+00 1.175125360488891602e+00 -5.737939834594726562e+00
1.652000000000000000e+03 5.602171707153320312e+01 -2.109070205688476562e+01 -3.152115345001220703e-01 8.627564430236816406e+00 2.493705749511718750e+00 -3.235234916210174561e-01
1.653000000000000000e+03 5.175560760498046875e+01 -2.244760513305664062e+01 -3.913908302783966064e-01 1.648787021636962891e+00 3.772188425064086914e-01 7.994067072868347168e-01
1.654000000000000000e+03 4.805947875976562500e+01 -2.369054412841796875e+01 -1.992477923631668091e-01 1.960346996784210205e-01 -9.639255004003643990e-04 -6.316131353378295898e-01
1.655000000000000000e+03 4.893192672729492188e+01 -2.411991119384765625e+01 -3.033459652215242386e-03 5.762311816215515137e-01 1.719593256711959839e-01 -4.135697484016418457e-01
1.656000000000000000e+03 1.568556213378906250e+01 -6.803865432739257812e+00 6.765093712601810694e-05 8.710887414054013789e-06 2.290854718012269586e-05 -1.327695736108580604e-05
1.657000000000000000e+03 1.364793109893798828e+01 -5.433485031127929688e+00 5.827537825098261237e-05 3.754100180231034756e-05 2.874491474358364940e-05 6.225543984328396618e-06
1.658000000000000000e+03 1.519355392456054688e+01 -7.691411018371582031e+00 4.291297227609902620e-05 -6.546916119987145066e-05 -6.766857495676958933e-06 3.079924863413907588e-05
1.659000000000000000e+03 1.249369335174560547e+01 -4.809434890747070312e+00 4.577802610583603382e-05 5.912145206821151078e-05 3.146984454360790551e-05 2.333244992769323289e-05
1.660000000000000000e+03 1.382029914855957031e+01 -6.259119510650634766e+00 6.428004417102783918e-05 3.113230195594951510e-05 2.862370456568896770e-05 -2.956498690309672384e-07
1.661000000000000000e+03 1.263834381103515625e+01 -5.752011299133300781e+00 3.092869883403182030e-05 8.410614100284874439e-05 3.451045267865993083e-05 9.951811080100014806e-06
1.662000000000000000e+03 1.129198932647705078e+01 -4.211752891540527344e+00 6.786306767025962472e-05 4.296424594940617681e-05 3.324819408589974046e-05 2.332179610675666481e-05
1.663000000000000000e+03 5.479326629638671875e+01 -2.125187492370605469e+01 -9.056395292282104492e-01 7.561684131622314453e+00 1.996813416481018066e+00 2.463331460952758789e+00
1.664000000000000000e+03 5.362569046020507812e+01 -2.155637931823730469e+01 -3.829786181449890137e-01 3.983464717864990234e+00 1.080145835876464844e+00 2.463248014450073242e+00
1.665000000000000000e+03 5.394328308105468750e+01 -2.185518074035644531e+01 -6.596084833145141602e-01 4.717066287994384766e+00 1.217237353324890137e+00 2.426694154739379883e+00
1.666000000000000000e+03 5.174081039428710938e+01 -1.625971603393554688e+01 5.186753869056701660e-01 3.436860322952270508e+00 1.186660647392272949e+00 -2.505117416381835938e+00
1.667000000000000000e+03 5.202376556396484375e+01 -1.732440757751464844e+01 -1.579898715019226074e+00 2.061154603958129883e+00 1.443767547607421875e-01 -2.996987819671630859e+00
1.668000000000000000e+03 4.874347305297851562e+01 -2.346487808227539062e+01 -2.535535693168640137e-01 3.280193209648132324e-01 2.233972400426864624e-02 -4.660654664039611816e-01
1.669000000000000000e+03 1.218283462524414062e+01 -6.314474582672119141e+00 -1.107461457650060765e-06 -8.556055399822071195e-05 -2.600040352263022214e-05 -3.758054299396462739e-05
1.670000000000000000e+03 4.518885803222656250e+01 -2.492863273620605469e+01 -5.780969187617301941e-02 -3.848461210727691650e-01 -1.327967494726181030e-01 -8.216844797134399414e-01
1.671000000000000000e+03 4.661492156982421875e+01 -2.614704895019531250e+01 1.906855255365371704e-01 4.591055214405059814e-02 7.097882032394409180e-02 -6.192952394485473633e-01
1.672000000000000000e+03 5.408562469482421875e+01 -2.577930450439453125e+01 -2.744056880474090576e-01 5.589548110961914062e+00 1.594542741775512695e+00 6.414405703544616699e-01
1.673000000000000000e+03 5.241690826416015625e+01 -2.276547431945800781e+01 -3.775869905948638916e-01 2.559390306472778320e+00 6.545410156250000000e-01 1.266676187515258789e+00
1.674000000000000000e+03 1.631063079833984375e+01 -9.145864486694335938e+00 8.670514216646552086e-05 -9.153890459856484085e-06 2.326537469343747944e-05 4.715997420134954154e-05
1.675000000000000000e+03 1.468734741210937500e+01 -6.990309715270996094e+00 8.402312960242852569e-05 3.578492032829672098e-05 3.594241570681333542e-05 -2.710176158871036023e-05
1.676000000000000000e+03 1.652152442932128906e+01 -7.705348014831542969e+00 2.641357241373043507e-05 4.477969923755154014e-06 9.267462701245676726e-06 -3.011288572452031076e-05
1.677000000000000000e+03 1.867705345153808594e+01 -1.055790996551513672e+01 -2.354589742026291788e-05 6.884115282446146011e-05 1.358857571176486090e-05 5.291206980473361909e-05
1.678000000000000000e+03 1.798587989807128906e+01 -1.051428794860839844e+01 -8.437189535470679402e-05 -3.485345223452895880e-05 -3.576760354917496443e-05 -2.696412047953344882e-05
1.679000000000000000e+03 1.718687438964843750e+01 -1.019756984710693359e+01 1.261501747649163008e-04 1.568496008985675871e-05 4.255053863744251430e-05 1.041468658513622358e-05
1.680000000000000000e+03 9.071812629699707031e+00 4.040383338928222656e+00 -2.896491885185241699e-01 -4.117336273193359375e-01 -2.104148417711257935e-01 5.351973176002502441e-01
1.681000000000000000e+03 8.334424018859863281e+00 4.101092815399169922e+00 -2.709408700466156006e-01 -3.560972213745117188e-01 -1.881114244461059570e-01 4.987984299659729004e-01
1.682000000000000000e+03 4.825907516479492188e+01 -2.434997367858886719e+01 6.144142244011163712e-03 3.677283823490142822e-01 1.121617555618286133e-01 -5.152264237403869629e-01
1.683000000000000000e+03 7.653104305267333984e+00 3.949487447738647461e+00 -2.744483649730682373e-01 -2.871329486370086670e-01 -1.684744060039520264e-01 4.429826140403747559e-01
1.684000000000000000e+03 5.650358676910400391e+00 4.034657955169677734e+00 -1.767797023057937622e-01 -1.928127855062484741e-01 -1.108777448534965515e-01 2.888760566711425781e-01
1.685000000000000000e+03 4.981575489044189453e+00 4.085022926330566406e+00 -1.575839817523956299e-01 -1.707392930984497070e-01 -9.849698096513748169e-02 2.537164986133575439e-01
1.686000000000000000e+03 3.859598398208618164e+00 5.688998699188232422e+00 -7.163640111684799194e-02 -2.515351772308349609e-01 -9.695146977901458740e-02 2.372009009122848511e-01
1.687000000000000000e+03 4.893439769744873047e+00 3.415610551834106445e+00 -1.614877134561538696e-01 -1.332318484783172607e-01 -8.841586858034133911e-02 2.165557593107223511e-01
1.688000000000000000e+03 3.615834712982177734e+00 4.686219215393066406e+00 -8.464754372835159302e-02 -1.837386190891265869e-01 -8.051584661006927490e-02 1.927040070295333862e-01
1.689000000000000000e+03 4.907717704772949219e+00 4.716173171997070312e+00 -1.284942179918289185e-01 -2.159685045480728149e-01 -1.033388152718544006e-01 2.713822126388549805e-01
1.690000000000000000e+03 4.760235977172851562e+01 -2.462191390991210938e+01 4.922735691070556641e-02 2.216996848583221436e-01 8.127811551094055176e-02 -6.791488528251647949e-01
1.691000000000000000e+03 3.423035860061645508e+00 3.742826938629150391e+00 -8.767913281917572021e-02 -1.204543635249137878e-01 -6.244004890322685242e-02 1.404782682657241821e-01
1.692000000000000000e+03 1.598548889160156250e+00 4.899300575256347656e+00 -2.342416346073150635e-02 -1.295340657234191895e-01 -4.588747024536132812e-02 8.302738517522811890e-02
1.693000000000000000e+03 2.607443094253540039e+00 3.853767871856689453e+00 -5.414163321256637573e-02 -1.140814796090126038e-01 -5.046693235635757446e-02 1.052484884858131409e-01
1.694000000000000000e+03 2.871616554260253906e+01 -1.103473281860351562e+01 -8.872223496437072754e-01 -3.198502063751220703e-01 -3.621217608451843262e-01 1.049739837646484375e+00
1.695000000000000000e+03 2.847572898864746094e+01 -1.222975158691406250e+01 -8.985588550567626953e-01 -3.516190350055694580e-01 -3.750533461570739746e-01 1.049144148826599121e+00
1.696000000000000000e+03 2.817077827453613281e+01 -1.340105152130126953e+01 -8.640150427818298340e-01 -3.676308691501617432e-01 -3.694937825202941895e-01 9.773006439208984375e-01
1.697000000000000000e+03 2.915406227111816406e+01 -1.169943428039550781e+01 -8.964146971702575684e-01 -2.802540659904479980e-01 -3.530006110668182373e-01 1.055612564086914062e+00
1.698000000000000000e+03 2.999488258361816406e+01 -1.306260013580322266e+01 -9.861027598381042480e-01 -2.157377600669860840e-01 -3.605521619319915771e-01 1.027835369110107422e+00
1.699000000000000000e+03 4.305977630615234375e+01 -1.795560646057128906e+01 -2.413346529006958008e+00 6.487228870391845703e-01 -5.293871164321899414e-01 7.964307069778442383e-01
1.700000000000000000e+03 4.742111206054687500e+01 -1.644539833068847656e+01 -1.018836140632629395e+00 6.030413508415222168e-01 -1.247384399175643921e-01 4.253252744674682617e-01
1.701000000000000000e+03 4.983191680908203125e+01 -2.445790290832519531e+01 1.387060582637786865e-01 1.155478835105895996e+00 3.882554769515991211e-01 -1.628376394510269165e-01
1.702000000000000000e+03 4.756818389892578125e+01 -1.708639335632324219e+01 -1.801495313644409180e+00 5.680018067359924316e-01 -3.700480461120605469e-01 4.686694145202636719e-01
1.703000000000000000e+03 4.830754470825195312e+01 -1.684096145629882812e+01 -1.373722434043884277e+00 6.397919058799743652e-01 -2.201791554689407349e-01 2.495663464069366455e-01
1.704000000000000000e+03 4.815828704833984375e+01 -1.614547729492187500e+01 -4.287694394588470459e-01 9.260554313659667969e-01 1.491857916116714478e-01 1.113452240824699402e-01
1.705000000000000000e+03 4.894561767578125000e+01 -1.585214805603027344e+01 2.641363739967346191e-01 1.217273473739624023e+00 4.444229602813720703e-01 -2.706882953643798828e-01
1.706000000000000000e+03 4.795722198486328125e+01 -1.548861217498779297e+01 2.567869722843170166e-01 9.716110229492187500e-01 3.685193955898284912e-01 -3.157534077763557434e-02
1.707000000000000000e+03 2.855019378662109375e+01 -1.409096145629882812e+01 -8.654357194900512695e-01 -3.288685381412506104e-01 -3.582912981510162354e-01 9.207576513290405273e-01
1.708000000000000000e+03 3.261579513549804688e+01 -1.431926155090332031e+01 -1.273792743682861328e+00 -1.326141208410263062e-01 -4.219220280647277832e-01 9.979516863822937012e-01
1.709000000000000000e+03 4.468970108032226562e+01 -1.692097473144531250e+01 -1.823684096336364746e+00 5.572309494018554688e-01 -3.799359500408172607e-01 7.789581418037414551e-01
1.710000000000000000e+03 4.388578033447265625e+01 -1.701744461059570312e+01 -1.959559202194213867e+00 6.548641324043273926e-01 -3.914085328578948975e-01 7.791711091995239258e-01
1.711000000000000000e+03 1.627180290222167969e+01 6.313387751579284668e-01 -7.636165618896484375e-01 -9.991908669471740723e-01 -5.288422107696533203e-01 8.321708440780639648e-01
1.712000000000000000e+03 1.658682823181152344e+01 2.176154375076293945e+00 -4.022056162357330322e-01 -9.695743918418884277e-01 -4.115340113639831543e-01 6.957269310951232910e-01
1.713000000000000000e+03 2.597323799133300781e+01 -8.190431594848632812e+00 -9.590917825698852539e-01 -7.383155226707458496e-01 -5.092222094535827637e-01 9.801012873649597168e-01
1.714000000000000000e+03 9.463837623596191406e+00 -3.367268323898315430e+00 -3.917732828995212913e-05 -7.199779065558686852e-05 -3.335253495606593788e-05 6.360497536661569029e-06
1.715000000000000000e+03 1.091066741943359375e+01 -4.862207889556884766e+00 -8.237253496190533042e-05 -4.588037700159475207e-05 -3.847587504424154758e-05 -4.004421134595759213e-05
1.716000000000000000e+03 2.409576797485351562e+01 -6.677256584167480469e+00 -1.035274863243103027e+00 -1.104161620140075684e+00 -6.418309211730957031e-01 1.003252625465393066e+00
1.717000000000000000e+03 2.440449714660644531e+01 -4.489269256591796875e+00 -8.170204758644104004e-01 -8.439694046974182129e-01 -4.982969760894775391e-01 7.721366286277770996e-01
1.718000000000000000e+03 1.745094680786132812e+01 6.903342008590698242e-01 -6.363004446029663086e-01 -1.054916381835937500e+00 -5.073650479316711426e-01 7.819847464561462402e-01
1.719000000000000000e+03 4.304549407958984375e+01 -1.710792160034179688e+01 -2.091026306152343750e+00 5.792067050933837891e-01 -4.535458683967590332e-01 7.820187807083129883e-01
1.720000000000000000e+03 2.173501014709472656e+01 -1.666841626167297363e+00 -6.518321037292480469e-01 -1.031109094619750977e+00 -5.048823356628417969e-01 7.037652730941772461e-01
1.721000000000000000e+03 2.131261444091796875e+01 -2.275052309036254883e+00 -8.239350318908691406e-01 -1.151574969291687012e+00 -5.926529765129089355e-01 8.189680576324462891e-01
1.722000000000000000e+03 2.194688987731933594e+01 -2.717991113662719727e+00 -8.211401104927062988e-01 -1.109203457832336426e+00 -5.791031122207641602e-01 8.047799468040466309e-01
1.723000000000000000e+03 1.942340850830078125e+01 -8.097264170646667480e-01 -7.548908591270446777e-01 -1.146397590637207031e+00 -5.703865289688110352e-01 8.146821260452270508e-01
1.724000000000000000e+03 2.584158897399902344e+01 -9.315639495849609375e+00 -9.740803241729736328e-01 -8.162470459938049316e-01 -5.370982289314270020e-01 1.040948867797851562e+00
1.725000000000000000e+03 7.685555934906005859e+00 -4.960692882537841797e+00 1.074628016795031726e-04 -1.072100985766155645e-05 2.902253800129983574e-05 9.722533286549150944e-05
1.726000000000000000e+03 7.579800605773925781e+00 -4.229234695434570312e+00 -7.648442260688170791e-05 1.766818604664877057e-05 -1.764487024047411978e-05 -7.888364780228585005e-05
1.727000000000000000e+03 6.812527179718017578e+00 -4.445174217224121094e+00 3.403202936169691384e-05 -1.484127187723061070e-05 5.757226972491480410e-06 7.290036592166870832e-05
1.728000000000000000e+03 6.563042640686035156e+00 -3.759461641311645508e+00 -1.789106681826524436e-05 8.694853022461757064e-06 -2.758864184215781279e-06 -4.834497667616233230e-05
1.729000000000000000e+03 4.356686592102050781e+00 -7.164738178253173828e+00 -1.862092321971431375e-04 -1.357471865048864856e-05 -5.993518425384536386e-05 -2.375135045440401882e-05
1.730000000000000000e+03 3.278178691864013672e+00 -6.674286842346191406e+00 1.746030757203698158e-04 1.049468755809357390e-05 5.552932634600438178e-05 -1.794526542653329670e-05
1.731000000000000000e+03 4.617139434814453125e+01 -1.681093025207519531e+01 -1.535768628120422363e+00 5.246487259864807129e-01 -3.033359646797180176e-01 6.423115134239196777e-01
1.732000000000000000e+03 4.548345565795898438e+01 -1.681883049011230469e+01 -1.690738797187805176e+00 6.073409318923950195e-01 -3.250193595886230469e-01 7.155942916870117188e-01
1.733000000000000000e+03 2.766440582275390625e+01 -1.088014888763427734e+01 -9.056917428970336914e-01 -4.578182995319366455e-01 -4.090529978275299072e-01 1.055000185966491699e+00
1.734000000000000000e+03 2.725106620788574219e+01 -1.020197963714599609e+01 -9.175091385841369629e-01 -5.237347483634948730e-01 -4.323731660842895508e-01 1.043232917785644531e+00
1.735000000000000000e+03 4.222207260131835938e+01 -1.810415267944335938e+01 -2.554477214813232422e+00 5.697283744812011719e-01 -5.954246520996093750e-01 8.083816766738891602e-01
1.736000000000000000e+03 1.338887882232666016e+01 3.462947130203247070e+00 -3.337003290653228760e-01 -7.755638957023620605e-01 -3.327792584896087646e-01 6.743853092193603516e-01
1.737000000000000000e+03 1.342048358917236328e+01 2.357586860656738281e+00 -5.504450201988220215e-01 -7.605316638946533203e-01 -3.932929933071136475e-01 7.114570140838623047e-01
1.738000000000000000e+03 2.683067321777343750e+01 -9.526195526123046875e+00 -9.355945587158203125e-01 -5.925050973892211914e-01 -4.584299027919769287e-01 1.023306012153625488e+00
1.739000000000000000e+03 5.063088989257812500e+01 -1.619663047790527344e+01 1.278046965599060059e-01 2.115688085556030273e+00 6.730478405952453613e-01 -1.483481407165527344e+00
1.740000000000000000e+03 4.976842117309570312e+01 -1.560743618011474609e+01 1.022134542465209961e+00 2.159404277801513672e+00 9.544616341590881348e-01 -8.370072841644287109e-01
1.741000000000000000e+03 1.077260589599609375e+01 3.389028549194335938e+00 -3.897427320480346680e-01 -5.411049723625183105e-01 -2.792543172836303711e-01 6.109640002250671387e-01
1.742000000000000000e+03 2.510066986083984375e+01 -6.886048316955566406e+00 -9.651533365249633789e-01 -8.715882301330566406e-01 -5.510224699974060059e-01 9.362397789955139160e-01
1.743000000000000000e+03 2.466170692443847656e+01 -6.239227771759033203e+00 -9.553314447402954102e-01 -9.296289682388305664e-01 -5.654881000518798828e-01 9.157453179359436035e-01
1.744000000000000000e+03 9.229735374450683594e+00 -5.003178119659423828e+00 1.192579948110505939e-04 2.409342050668783486e-05 4.300542423152364790e-05 3.942531839129514992e-05
1.745000000000000000e+03 2.333779907226562500e+01 -4.238703727722167969e+00 -8.931819796562194824e-01 -1.032819271087646484e+00 -5.778003931045532227e-01 8.370280861854553223e-01
1.746000000000000000e+03 2.289392852783203125e+01 -3.509572982788085938e+00 -8.321629762649536133e-01 -1.040511846542358398e+00 -5.618024468421936035e-01 8.009867668151855469e-01
1.747000000000000000e+03 9.060137748718261719e+00 -3.858761787414550781e+00 4.890849231742322445e-05 -1.963737759069772437e-07 1.461363535781856626e-05 -4.376842480269260705e-05
1.748000000000000000e+03 1.796047019958496094e+01 1.205498218536376953e+00 -4.841508269309997559e-01 -1.037491083145141602e+00 -4.564925730228424072e-01 7.107251286506652832e-01
1.749000000000000000e+03 1.878631973266601562e+01 -3.002418577671051025e-01 -7.138414382934570312e-01 -1.126037955284118652e+00 -5.519638061523437500e-01 8.045360445976257324e-01
1.750000000000000000e+03 1.812771987915039062e+01 1.996179372072219849e-01 -6.774374246597290039e-01 -1.094922661781311035e+00 -5.317080020904541016e-01 7.941681742668151855e-01
1.751000000000000000e+03 1.604905891418457031e+01 1.625339269638061523e+00 -5.536489486694335938e-01 -9.604050517082214355e-01 -4.542161822319030762e-01 7.529315948486328125e-01
1.752000000000000000e+03 1.534994888305664062e+01 2.064643859863281250e+00 -5.099751949310302734e-01 -9.130169749259948730e-01 -4.268976449966430664e-01 7.348815202713012695e-01
1.753000000000000000e+03 2.068345832824707031e+01 -1.808210730552673340e+00 -8.001872897148132324e-01 -1.158138036727905273e+00 -5.874975919723510742e-01 8.212234377861022949e-01
1.754000000000000000e+03 2.004954338073730469e+01 -1.316460251808166504e+00 -7.824171185493469238e-01 -1.160764336585998535e+00 -5.829544663429260254e-01 8.160422444343566895e-01
1.755000000000000000e+03 5.243753433227539062e+01 -1.586993312835693359e+01 1.254525661468505859e+00 5.427600383758544922e+00 2.004637718200683594e+00 -3.593455076217651367e+00
1.756000000000000000e+03 1.466514015197753906e+01 2.501733064651489258e+00 -4.623592197895050049e-01 -8.613694906234741211e-01 -3.971185982227325439e-01 7.162173986434936523e-01
1.757000000000000000e+03 5.873301315307617188e+01 -2.241002655029296875e+01 3.698788881301879883e-01 2.500612735748291016e+00 8.611474633216857910e-01 4.583916068077087402e-02
1.758000000000000000e+03 5.771025085449218750e+01 -2.002633857727050781e+01 4.107962131500244141e+00 2.935570716857910156e+00 2.113059759140014648e+00 -8.759777545928955078e-01
1.759000000000000000e+03 5.200247573852539062e+01 -1.678990173339843750e+01 -3.974936902523040771e-01 3.416746139526367188e+00 9.057757258415222168e-01 -2.950550794601440430e+00
1.760000000000000000e+03 1.019571590423583984e+01 4.128899097442626953e+00 -2.944893836975097656e-01 -5.168064832687377930e-01 -2.433887571096420288e-01 5.906412005424499512e-01
1.761000000000000000e+03 9.624612808227539062e+00 3.590121030807495117e+00 -3.403395712375640869e-01 -4.457433223724365234e-01 -2.358248680830001831e-01 5.619212388992309570e-01
1.762000000000000000e+03 3.141620254516601562e+01 -1.535867786407470703e+01 -1.347216963768005371e+00 -9.510651975870132446e-02 -4.326970577239990234e-01 8.429130911827087402e-01
1.763000000000000000e+03 4.493085861206054688e+01 -2.721812057495117188e+01 -8.134563453495502472e-03 -5.264495611190795898e-01 -1.603752374649047852e-01 -5.904139280319213867e-01
1.764000000000000000e+03 1.155365657806396484e+01 4.183303356170654297e+00 -2.715297937393188477e-01 -6.452593207359313965e-01 -2.750367224216461182e-01 6.322774887084960938e-01
1.765000000000000000e+03 2.896118927001953125e+01 -1.478147411346435547e+01 -9.391180872917175293e-01 -2.891482412815093994e-01 -3.684799075126647949e-01 8.275634646415710449e-01
1.766000000000000000e+03 3.368946456909179688e+01 -1.452847862243652344e+01 -1.378959894180297852e+00 -1.694012135267257690e-01 -4.645083248615264893e-01 1.009005308151245117e+00
1.767000000000000000e+03 6.801417541503906250e+01 -1.910069274902343750e+01 1.789142191410064697e-01 1.819501757621765137e+00 5.995247960090637207e-01 -8.081281781196594238e-01
1.768000000000000000e+03 1.301106452941894531e+01 -1.155813121795654297e+01 1.303469616686925292e-04 1.462369837099686265e-04 8.297518070321530104e-05 -6.132810540293576196e-06
1.769000000000000000e+03 8.890900611877441406e+00 -1.305263805389404297e+01 1.444006193196401000e-04 5.908868388360133395e-06 4.509284917730838060e-05 1.400133915012702346e-04
1.770000000000000000e+03 3.013342094421386719e+01 -1.461598300933837891e+01 -1.091304540634155273e+00 -1.927602291107177734e-01 -3.852194249629974365e-01 8.797070384025573730e-01
1.771000000000000000e+03 6.297353363037109375e+01 -1.923606681823730469e+01 7.417700290679931641e-01 2.885415852069854736e-01 3.090934753417968750e-01 1.219327330589294434e+00
1.772000000000000000e+03 6.438043975830078125e+01 -1.510505580902099609e+01 1.042488694190979004e+00 1.573699593544006348e+00 7.848564982414245605e-01 9.141706824302673340e-01
1.773000000000000000e+03 4.291760635375976562e+01 -2.018822669982910156e+00 6.325374245643615723e-01 2.773990392684936523e+00 1.021958351135253906e+00 -1.382044315338134766e+00
1.774000000000000000e+03 4.557890701293945312e+01 -5.199391365051269531e+00 8.108872175216674805e-01 3.066098451614379883e+00 1.163095712661743164e+00 -1.728661060333251953e+00
1.775000000000000000e+03 5.671623229980468750e+01 -2.457046699523925781e+01 -1.203078389167785645e+00 5.964725017547607422e+00 1.428493976593017578e+00 1.241624355316162109e+00
1.776000000000000000e+03 4.047587585449218750e+01 -1.863260841369628906e+01 -2.897896051406860352e+00 1.029010415077209473e-01 -8.384985327720642090e-01 8.667750954627990723e-01
1.777000000000000000e+03 4.428013610839843750e+01 3.052383422851562500e+01 -1.472781300544738770e-01 1.537788510322570801e+00 4.171531200408935547e-01 2.537841498851776123e-01
1.778000000000000000e+03 4.513331985473632812e+01 -4.039506912231445312e+00 7.593457102775573730e-01 3.068332672119140625e+00 1.148303508758544922e+00 -1.681421756744384766e+00
1.779000000000000000e+03 4.633721542358398438e+01 -3.825191736221313477e+00 7.020046710968017578e-01 3.450103521347045898e+00 1.245632410049438477e+00 -1.780090451240539551e+00
1.780000000000000000e+03 4.393847656250000000e+01 -4.267561435699462891e+00 7.335086464881896973e-01 2.670465469360351562e+00 1.021192312240600586e+00 -1.494574308395385742e+00
1.781000000000000000e+03 6.069678497314453125e+01 -2.090099716186523438e+01 1.383790135383605957e+00 2.421097904443740845e-01 4.877699613571166992e-01 6.747100949287414551e-01
1.782000000000000000e+03 5.477671432495117188e+01 -2.916691017150878906e+01 1.855750560760498047e+00 7.632643699645996094e+00 2.846518278121948242e+00 4.403047263622283936e-01
1.783000000000000000e+03 5.207816696166992188e+01 -2.477630424499511719e+01 -5.173524469137191772e-02 3.169877529144287109e+00 9.354426860809326172e-01 5.737431645393371582e-01
1.784000000000000000e+03 5.420126724243164062e+01 -2.726756668090820312e+01 4.716066718101501465e-01 5.796054363250732422e+00 1.880298256874084473e+00 4.218153953552246094e-01
1.785000000000000000e+03 4.353783035278320312e+01 -5.547542572021484375e-01 6.351616382598876953e-01 3.121539115905761719e+00 1.127010226249694824e+00 -1.499253988265991211e+00
1.786000000000000000e+03 4.228179168701171875e+01 4.556253433227539062e+00 8.268613219261169434e-01 3.832907199859619141e+00 1.397930502891540527e+00 -1.443337798118591309e+00
1.787000000000000000e+03 8.419098854064941406e+00 -1.438509654998779297e+01 2.636990684550255537e-04 -1.127147406805306673e-04 4.529529542196542025e-05 2.508111065253615379e-04
1.788000000000000000e+03 1.041943645477294922e+01 -1.353361606597900391e+01 2.296183538419427350e-06 5.855397466802969575e-05 1.825504841690417379e-05 2.053583448287099600e-04
1.789000000000000000e+03 7.215254211425781250e+01 1.148516368865966797e+01 -4.686533808708190918e-01 9.172958374023437500e+00 2.611291646957397461e+00 2.250155359506607056e-01
1.790000000000000000e+03 4.544738388061523438e+01 -2.814204978942871094e+01 3.204737603664398193e-02 -2.371608614921569824e-01 -6.153404712677001953e-02 -4.884699583053588867e-01
1.791000000000000000e+03 4.877142333984375000e+01 3.422929763793945312e+01 -2.742185294628143311e-01 8.394634723663330078e-01 1.695734858512878418e-01 2.047192752361297607e-01
1.792000000000000000e+03 7.383733367919921875e+01 5.658418178558349609e+00 3.793741762638092041e-01 8.979385375976562500e+00 2.807627916336059570e+00 5.425685048103332520e-01
1.793000000000000000e+03 7.243952941894531250e+01 3.104115009307861328e+00 6.888562440872192383e-01 1.028334808349609375e+01 3.291661500930786133e+00 5.722509622573852539e-01
1.794000000000000000e+03 4.809032821655273438e+01 -1.241568660736083984e+01 2.281960725784301758e+00 2.411222219467163086e+00 1.407954812049865723e+00 -1.708841681480407715e+00
1.795000000000000000e+03 6.795260620117187500e+01 -1.783946990966796875e+01 3.637143969535827637e-01 2.271691083908081055e+00 7.906216382980346680e-01 -5.237047672271728516e-01
1.796000000000000000e+03 7.056317138671875000e+01 -1.630453491210937500e+01 -1.546287238597869873e-01 4.874754905700683594e+00 1.416037797927856445e+00 -7.362232804298400879e-01
1.797000000000000000e+03 4.640236282348632812e+01 -9.727416038513183594e+00 1.356167793273925781e+00 2.467161655426025391e+00 1.146998763084411621e+00 -1.646834969520568848e+00
1.798000000000000000e+03 4.627011489868164062e+01 -1.072799205780029297e+01 1.454247832298278809e+00 2.142208576202392578e+00 1.078936934471130371e+00 -1.477472305297851562e+00
1.799000000000000000e+03 7.453514862060546875e+01 1.258180713653564453e+01 -1.975923776626586914e-01 8.322020530700683594e+00 2.437328577041625977e+00 4.654303193092346191e-01
1.800000000000000000e+03 7.554191589355468750e+01 -4.265485405921936035e-01 3.601788878440856934e-01 7.340896606445312500e+00 2.310322761535644531e+00 -2.336894571781158447e-01
1.801000000000000000e+03 7.696849060058593750e+01 4.030246734619140625e+00 2.026552706956863403e-01 6.677670955657958984e+00 2.064097881317138672e+00 2.723760902881622314e-01
1.802000000000000000e+03 7.363332366943359375e+01 4.308369636535644531e+00 5.471231937408447266e-01 9.143801689147949219e+00 2.907277345657348633e+00 4.959247410297393799e-01
1.803000000000000000e+03 7.480418395996093750e+01 5.366831779479980469e+00 3.261083364486694336e-01 8.196943283081054688e+00 2.556915521621704102e+00 5.560762882232666016e-01
1.804000000000000000e+03 7.241154479980468750e+01 1.764185190200805664e+00 7.931234836578369141e-01 9.989053726196289062e+00 3.234652996063232422e+00 5.116094350814819336e-01
1.805000000000000000e+03 7.584584045410156250e+01 5.390554904937744141e+00 2.878995239734649658e-01 7.535166740417480469e+00 2.346919775009155273e+00 4.796827137470245361e-01
1.806000000000000000e+03 7.456171417236328125e+01 6.500401973724365234e+00 3.059349656105041504e-01 8.447613716125488281e+00 2.626064777374267578e+00 6.214286684989929199e-01
1.807000000000000000e+03 7.556355285644531250e+01 9.588109016418457031e+00 -5.509371683001518250e-02 7.877849578857421875e+00 2.346826791763305664e+00 6.412613391876220703e-01
1.808000000000000000e+03 7.538622283935546875e+01 -7.319756031036376953e+00 -6.002132967114448547e-02 6.907315731048583984e+00 2.054188251495361328e+00 -5.195442438125610352e-01
1.809000000000000000e+03 7.680665588378906250e+01 -5.877868175506591797e+00 -2.003635093569755554e-02 6.734880924224853516e+00 2.014453411102294922e+00 -5.380713343620300293e-01
1.810000000000000000e+03 7.258560943603515625e+01 -3.588147401809692383e+00 2.306656986474990845e-01 8.155824661254882812e+00 2.515947103500366211e+00 6.469704955816268921e-02
1.811000000000000000e+03 7.564257049560546875e+01 1.106359195709228516e+01 -1.475751549005508423e-01 7.929311752319335938e+00 2.334521055221557617e+00 5.762883424758911133e-01
1.812000000000000000e+03 7.565522766113281250e+01 -4.572235584259033203e+00 4.915842041373252869e-02 7.041833877563476562e+00 2.127297639846801758e+00 -5.122720003128051758e-01
1.813000000000000000e+03 7.433625030517578125e+01 -2.131152391433715820e+00 2.826515436172485352e-01 7.765181064605712891e+00 2.414349794387817383e+00 -2.834411859512329102e-01
1.814000000000000000e+03 7.215454101562500000e+01 1.846453857421875000e+01 4.071363061666488647e-02 8.637184143066406250e+00 2.603369235992431641e+00 3.724840283393859863e-01
1.815000000000000000e+03 7.585448455810546875e+01 1.659806442260742188e+01 1.790398545563220978e-02 7.894098758697509766e+00 2.373600959777832031e+00 4.031232595443725586e-01
1.816000000000000000e+03 7.691758728027343750e+01 1.937900352478027344e+01 4.281154647469520569e-02 7.863677501678466797e+00 2.371946811676025391e+00 3.835193216800689697e-01
1.817000000000000000e+03 7.387597656250000000e+01 1.996980476379394531e+01 8.653935045003890991e-02 8.244441032409667969e+00 2.499294042587280273e+00 4.405646622180938721e-01
1.818000000000000000e+03 7.303429412841796875e+01 1.905569648742675781e+01 7.184629887342453003e-02 8.462990760803222656e+00 2.560451269149780273e+00 3.987441062927246094e-01
1.819000000000000000e+03 7.558245086669921875e+01 -1.437527370452880859e+01 -2.770473659038543701e-01 6.934638500213623047e+00 1.997277259826660156e+00 -2.919836938381195068e-01
1.820000000000000000e+03 7.679660797119140625e+01 -1.284628582000732422e+01 -1.380122601985931396e-01 7.071235179901123047e+00 2.079967021942138672e+00 -3.134687840938568115e-01
1.821000000000000000e+03 7.016797637939453125e+01 -8.946048736572265625e+00 1.274451762437820435e-01 5.965499877929687500e+00 1.827883481979370117e+00 5.380315780639648438e-01
1.822000000000000000e+03 7.546758270263671875e+01 -1.160157871246337891e+01 -1.614914536476135254e-01 6.798514366149902344e+00 1.991106867790222168e+00 -4.197071492671966553e-01
1.823000000000000000e+03 7.698336791992187500e+01 -1.954960250854492188e+01 -2.359092682600021362e-01 7.443264484405517578e+00 2.162206649780273438e+00 4.203207492828369141e-01
1.824000000000000000e+03 7.474651336669921875e+01 -1.960449409484863281e+01 -5.587288737297058105e-01 7.654273509979248047e+00 2.128663301467895508e+00 1.904159486293792725e-01
1.825000000000000000e+03 7.381435394287109375e+01 -2.229099845886230469e+01 9.704957157373428345e-02 8.658949851989746094e+00 2.626799821853637695e+00 1.711769700050354004e-01
1.826000000000000000e+03 7.547150421142578125e+01 -2.203870201110839844e+01 8.289150893688201904e-02 7.847210884094238281e+00 2.379030704498291016e+00 5.542485117912292480e-01
1.827000000000000000e+03 7.579706573486328125e+01 -1.830802726745605469e+01 -4.222886860370635986e-01 7.395508766174316406e+00 2.091965913772583008e+00 1.760785877704620361e-01
1.828000000000000000e+03 7.661656188964843750e+01 -2.386600875854492188e+01 4.854489266872406006e-01 7.525010108947753906e+00 2.403137683868408203e+00 4.247294068336486816e-01
1.829000000000000000e+03 7.490889739990234375e+01 -2.650650787353515625e+01 1.203741788864135742e+00 8.697669982910156250e+00 2.970423698425292969e+00 -4.709395170211791992e-01
1.830000000000000000e+03 7.447958374023437500e+01 -2.484261131286621094e+01 1.467719912528991699e+00 9.167171478271484375e+00 3.190467596054077148e+00 -1.682893037796020508e-01
1.831000000000000000e+03 7.386729431152343750e+01 3.632994842529296875e+01 -3.204112052917480469e-01 7.005218982696533203e+00 2.005442380905151367e+00 1.573057621717453003e-01
1.832000000000000000e+03 7.599181365966796875e+01 3.531966400146484375e+01 -2.797542214393615723e-01 8.541378021240234375e+00 2.478487014770507812e+00 2.782999277114868164e-01
1.833000000000000000e+03 7.126906585693359375e+01 3.344994735717773438e+01 -7.145961523056030273e-01 5.461050510406494141e+00 1.423936247825622559e+00 6.821474432945251465e-02
1.834000000000000000e+03 7.449362945556640625e+01 2.245093345642089844e+01 1.660303026437759399e-01 8.083089828491210938e+00 2.474736213684082031e+00 5.201764106750488281e-01
1.835000000000000000e+03 7.331236267089843750e+01 2.401580047607421875e+01 2.555763721466064453e-01 7.942727088928222656e+00 2.459491014480590820e+00 4.636020362377166748e-01
1.836000000000000000e+03 7.463487243652343750e+01 2.672256469726562500e+01 9.381105750799179077e-02 7.933034896850585938e+00 2.408053636550903320e+00 7.151845693588256836e-01
1.837000000000000000e+03 7.453644561767578125e+01 2.534337043762207031e+01 1.666008234024047852e-01 7.904017925262451172e+00 2.421185493469238281e+00 6.814903020858764648e-01
1.838000000000000000e+03 7.491726684570312500e+01 -3.367910385131835938e+01 -7.414343953132629395e-01 7.735861301422119141e+00 2.098328113555908203e+00 -6.494353413581848145e-01
1.839000000000000000e+03 7.710235595703125000e+01 3.025116157531738281e+01 -7.439476996660232544e-02 8.877633094787597656e+00 2.640971422195434570e+00 5.708956122398376465e-01
1.840000000000000000e+03 7.583373260498046875e+01 2.655718231201171875e+01 7.348669320344924927e-02 8.172371864318847656e+00 2.473757505416870117e+00 7.139018177986145020e-01
1.841000000000000000e+03 7.689833831787109375e+01 3.147531318664550781e+01 -1.274897456169128418e-01 8.910330772399902344e+00 2.634852170944213867e+00 5.144358873367309570e-01
1.842000000000000000e+03 7.610766601562500000e+01 2.904019165039062500e+01 -7.001162320375442505e-02 8.374886512756347656e+00 2.491462230682373047e+00 6.851387023925781250e-01
1.843000000000000000e+03 7.693515777587890625e+01 -2.954608154296875000e+01 1.287899911403656006e-01 7.792027950286865234e+00 2.376245498657226562e+00 -1.032346010208129883e+00
1.844000000000000000e+03 7.526597595214843750e+01 -3.211962127685546875e+01 -4.287197887897491455e-01 7.978611469268798828e+00 2.264967441558837891e+00 -9.857890009880065918e-01
1.845000000000000000e+03 7.598223114013671875e+01 -2.832214164733886719e+01 5.430287122726440430e-01 7.960978984832763672e+00 2.551202297210693359e+00 -9.241613149642944336e-01
1.846000000000000000e+03 7.322409057617187500e+01 3.062259292602539062e+01 -3.461556434631347656e-01 7.127680778503417969e+00 2.034457445144653320e+00 5.862604379653930664e-01
1.847000000000000000e+03 7.611214447021484375e+01 3.004189872741699219e+01 -9.338764846324920654e-02 8.450605392456054688e+00 2.507165431976318359e+00 6.545802354812622070e-01
1.848000000000000000e+03 6.574370574951171875e+01 -1.412702846527099609e+01 9.333087205886840820e-01 2.345032691955566406e+00 9.835024476051330566e-01 7.758725881576538086e-01
1.849000000000000000e+03 7.559089660644531250e+01 1.138833761215209961e+00 4.444923400878906250e-01 7.432122707366943359e+00 2.362984657287597656e+00 -1.857443526387214661e-02
1.850000000000000000e+03 4.042929077148437500e+01 -1.607190704345703125e+01 -1.862225174903869629e+00 -3.239531815052032471e-02 -5.683861374855041504e-01 4.950915575027465820e-01
1.851000000000000000e+03 3.792035293579101562e+01 -1.499270248413085938e+01 -1.369667410850524902e+00 -4.698429405689239502e-01 -5.518531203269958496e-01 7.219582200050354004e-01
1.852000000000000000e+03 7.289928436279296875e+01 8.113344311714172363e-01 8.173387050628662109e-01 9.401563644409179688e+00 3.065670728683471680e+00 3.257803618907928467e-01
1.853000000000000000e+03 7.230822753906250000e+01 1.707417106628417969e+01 8.032181113958358765e-02 8.721563339233398438e+00 2.640565633773803711e+00 4.253799021244049072e-01
1.854000000000000000e+03 7.344551086425781250e+01 1.547211265563964844e+01 5.098641850054264069e-03 8.472046852111816406e+00 2.543143510818481445e+00 3.447213470935821533e-01
1.855000000000000000e+03 7.631296539306640625e+01 -3.524848556518554688e+01 -4.163562059402465820e-01 8.191563606262207031e+00 2.332562208175659180e+00 -5.658116340637207031e-01
1.856000000000000000e+03 4.785385131835937500e+01 3.302172851562500000e+01 -2.065019458532333374e-01 9.972029924392700195e-01 2.372103184461593628e-01 2.503082454204559326e-01
1.857000000000000000e+03 4.747723770141601562e+01 -7.504994392395019531e+00 1.097180128097534180e+00 3.701478958129882812e+00 1.439597725868225098e+00 -2.051338195800781250e+00
1.858000000000000000e+03 3.882757186889648438e+01 9.383764266967773438e+00 1.111634254455566406e+00 3.391853570938110352e+00 1.351046323776245117e+00 -7.408930063247680664e-01
1.859000000000000000e+03 4.074573516845703125e+00 -1.496946239471435547e+01 -3.587408282328397036e-04 -5.532275463338010013e-05 -1.242190774064511061e-04 -5.764012166764587164e-05
1.860000000000000000e+03 4.438424587249755859e+00 2.150974845886230469e+01 4.327519983053207397e-02 -8.585061430931091309e-01 -2.445692718029022217e-01 8.953678607940673828e-02
1.861000000000000000e+03 6.469750404357910156e+00 -2.076905822753906250e+01 -3.084471100009977818e-04 2.452587295920238830e-06 -9.179835615213960409e-05 4.279053246136754751e-05
1.862000000000000000e+03 3.024821519851684570e+00 -1.894345855712890625e+01 -4.366197390481829643e-04 -1.476702072977786884e-05 -1.354160194750875235e-04 -1.182931664516218007e-04
1.863000000000000000e+03 4.324224948883056641e+00 -1.880444717407226562e+01 3.479680453892797232e-04 8.746435196371749043e-05 1.306297199334949255e-04 1.396175939589738846e-04
1.864000000000000000e+03 6.026967048645019531e+00 -2.629854774475097656e+01 -4.052570729982107878e-04 3.972903359681367874e-04 -2.390020654274849221e-06 -4.497497684496920556e-06
1.865000000000000000e+03 4.241671562194824219e+00 -2.347946929931640625e+01 -1.721505832392722368e-04 1.779381273081526160e-04 1.736264607643533964e-06 -9.319396485807374120e-05
1.866000000000000000e+03 7.291095256805419922e+00 -1.804901695251464844e+01 -3.466609632596373558e-04 4.166371581959538162e-05 -9.149916877504438162e-05 -5.862906255060806870e-05
1.867000000000000000e+03 5.631126880645751953e+00 -1.893812942504882812e+01 -1.590452302480116487e-04 -8.232648542616516352e-05 -7.241151615744456649e-05 -4.859359250986017287e-05
1.868000000000000000e+03 2.856084823608398438e+00 -2.605384826660156250e+01 5.916403024457395077e-04 -7.947230187710374594e-05 1.536504132673144341e-04 7.860306504881009459e-05
1.869000000000000000e+03 5.223469734191894531e+00 -2.369487190246582031e+01 4.797307483386248350e-04 -8.264993084594607353e-05 1.191242481581866741e-04 2.403089747531339526e-04
1.870000000000000000e+03 5.102042198181152344e+00 -2.491728210449218750e+01 -4.189887549728155136e-04 2.004589769057929516e-04 -6.555893196491524577e-05 -1.756732235662639141e-04
1.871000000000000000e+03 5.782171249389648438e+00 -2.758941078186035156e+01 8.483799174427986145e-04 -3.872633387800306082e-04 1.383349735988304019e-04 1.051766957971267402e-05
1.872000000000000000e+03 3.122124433517456055e+00 2.020799255371093750e+01 2.534735389053821564e-02 -9.142876267433166504e-01 -2.666820883750915527e-01 8.664941042661666870e-02
1.873000000000000000e+03 4.474134922027587891e+00 2.296399307250976562e+01 3.527007997035980225e-02 -8.745644092559814453e-01 -2.517882883548736572e-01 6.683085858821868896e-02
1.874000000000000000e+03 4.328031539916992188e+00 2.573252868652343750e+01 2.720611728727817535e-02 -8.992667794227600098e-01 -2.616181969642639160e-01 2.889086864888668060e-02
1.875000000000000000e+03 4.198664188385009766e+00 1.722196769714355469e+01 4.895263910293579102e-02 -7.846476435661315918e-01 -2.207085043191909790e-01 1.656685620546340942e-01
1.876000000000000000e+03 4.291125774383544922e+00 1.863064384460449219e+01 4.824791103601455688e-02 -8.156571984291076660e-01 -2.302227914333343506e-01 1.397724151611328125e-01
1.877000000000000000e+03 3.067386150360107422e+00 1.878290367126464844e+01 2.635747939348220825e-02 -8.810958266258239746e-01 -2.564215064048767090e-01 1.061024218797683716e-01
1.878000000000000000e+03 4.371862888336181641e+00 2.006301498413085938e+01 4.589082300662994385e-02 -8.395938277244567871e-01 -2.381108999252319336e-01 1.140903457999229431e-01
1.879000000000000000e+03 2.878505229949951172e+00 1.459777069091796875e+01 2.390583977103233337e-02 -7.349336147308349609e-01 -2.133083343505859375e-01 1.657102555036544800e-01
1.880000000000000000e+03 3.953009843826293945e+00 1.314515686035156250e+01 3.731047362089157104e-02 -6.482583284378051758e-01 -1.832843571901321411e-01 2.376997917890548706e-01
1.881000000000000000e+03 4.015486240386962891e+00 1.448429489135742188e+01 4.392710700631141663e-02 -7.009900808334350586e-01 -1.971188932657241821e-01 2.158631831407546997e-01
1.882000000000000000e+03 5.841006278991699219e+00 2.292368125915527344e+01 5.863738805055618286e-02 -7.902041077613830566e-01 -2.194700241088867188e-01 7.750920206308364868e-02
1.883000000000000000e+03 4.402265548706054688e+00 2.704880905151367188e+01 2.109516784548759460e-02 -8.970170617103576660e-01 -2.627765536308288574e-01 1.658230088651180267e-02
1.884000000000000000e+03 4.419620990753173828e+00 2.438342857360839844e+01 3.100402839481830597e-02 -8.906969428062438965e-01 -2.579078674316406250e-01 4.716543480753898621e-02
1.885000000000000000e+03 4.110241889953613281e+00 -1.088401985168457031e+01 2.971830544993281364e-04 -1.691498596301244106e-06 8.864746632752940059e-05 4.265107418177649379e-05
1.886000000000000000e+03 4.029356002807617188e+00 -9.549647331237792969e+00 -2.716226445045322180e-04 1.905012868519406766e-05 -7.577175711048766971e-05 -5.801839142804965377e-05
1.887000000000000000e+03 3.979300260543823242e+00 -1.362368488311767578e+01 3.427478368394076824e-04 9.425619396097317804e-08 1.028526312438771129e-04 3.564993676263839006e-05
1.888000000000000000e+03 6.532097816467285156e+00 2.932714843750000000e+01 2.748290076851844788e-02 -7.481066584587097168e-01 -2.161871194839477539e-01 -6.017017643898725510e-03
1.889000000000000000e+03 6.665561676025390625e+00 3.599841690063476562e+01 2.570070791989564896e-04 -7.096590399742126465e-01 -2.128206193447113037e-01 -1.728788204491138458e-02
1.890000000000000000e+03 4.957869052886962891e+00 3.599147796630859375e+01 3.567061852663755417e-03 -8.469347357749938965e-01 -2.530103027820587158e-01 -6.945971399545669556e-03
1.891000000000000000e+03 5.025577068328857422e+00 1.182428359985351562e+01 4.478906095027923584e-02 -5.903390049934387207e-01 -1.636649817228317261e-01 3.049146831035614014e-01
1.892000000000000000e+03 3.712075948715209961e+00 -3.133436012268066406e+01 7.510176510550081730e-04 1.803110935725271702e-04 2.793986350297927856e-04 3.824633313342928886e-04
1.893000000000000000e+03 6.001155853271484375e+00 -2.880768585205078125e+01 -5.923490971326828003e-04 1.235830277437344193e-04 -1.406298251822590828e-04 -1.015230955090373755e-04
1.894000000000000000e+03 4.102779865264892578e+00 -1.226918411254882812e+01 -3.206525580026209354e-04 8.969723239715676755e-06 -9.350484469905495644e-05 -2.254909304610919207e-05
1.895000000000000000e+03 3.917973518371582031e+00 1.185622787475585938e+01 2.782729826867580414e-02 -5.882335901260375977e-01 -1.681218892335891724e-01 2.552349865436553955e-01
1.896000000000000000e+03 4.792587757110595703e+00 -6.194625854492187500e+00 1.877517061075195670e-04 -4.580225868267007172e-05 4.258483386365696788e-05 -2.975245297420769930e-05
1.897000000000000000e+03 4.699770450592041016e+00 2.840373611450195312e+01 1.501358300447463989e-02 -8.774944543838500977e-01 -2.587442398071289062e-01 7.806604262441396713e-03
1.898000000000000000e+03 6.420609951019287109e+00 3.411050796508789062e+01 6.054728757590055466e-03 -7.243904471397399902e-01 -2.155007272958755493e-01 -1.793017052114009857e-02
1.899000000000000000e+03 5.027697563171386719e+00 3.449847793579101562e+01 3.053371328860521317e-03 -8.505445122718811035e-01 -2.542473375797271729e-01 -8.782900869846343994e-03
1.900000000000000000e+03 5.492294311523437500e+00 -3.437000274658203125e+01 -8.575226092943921685e-05 5.772925796918570995e-04 1.474620949011296034e-04 1.365546137094497681e-03
1.901000000000000000e+03 4.730018138885498047e+00 -2.942873382568359375e+01 1.134923892095685005e-03 -5.445710485219024122e-05 3.241400409024208784e-04 2.605962217785418034e-04
1.902000000000000000e+03 5.280894279479980469e+00 -3.094242286682128906e+01 -1.611134794075042009e-04 1.658872351981699467e-04 1.432126850886561442e-06 5.443178233690559864e-04
1.903000000000000000e+03 3.079280138015747070e+00 7.196861267089843750e+00 -2.702542394399642944e-02 -3.200560808181762695e-01 -1.041244491934776306e-01 2.186600267887115479e-01
1.904000000000000000e+03 4.495956420898437500e+00 8.832487106323242188e+00 -1.761165447533130646e-03 -4.564662873744964600e-01 -1.374682337045669556e-01 3.093785941600799561e-01
1.905000000000000000e+03 2.784623384475708008e+00 6.013854026794433594e+00 -3.849028050899505615e-02 -2.359930276870727539e-01 -8.234499394893646240e-02 1.757582575082778931e-01
1.906000000000000000e+03 3.955437421798706055e+00 -5.532816410064697266e+00 -9.623267396818846464e-05 1.383765902573941275e-05 -2.471850530127994716e-05 7.789953087922185659e-05
1.907000000000000000e+03 3.495021820068359375e+00 -3.680638122558593750e+01 -2.236381405964493752e-04 1.171391224488615990e-03 2.843259426299482584e-04 5.518122925423085690e-04
1.908000000000000000e+03 5.279178142547607422e+00 -3.598874664306640625e+01 1.186637309729121625e-04 7.511561270803213120e-04 2.609459625091403723e-04 3.891086380463093519e-04
1.909000000000000000e+03 3.682757949829101562e+01 -1.600727653503417969e+01 -1.941122412681579590e+00 -5.999515652656555176e-01 -7.623221874237060547e-01 9.031366109848022461e-01
1.910000000000000000e+03 7.263580322265625000e+01 -2.033545875549316406e+01 -8.303156495094299316e-01 7.732964992523193359e+00 2.070794820785522461e+00 -4.660286605358123779e-01
1.911000000000000000e+03 7.229135131835937500e+01 -2.808598577976226807e-01 6.943417787551879883e-01 9.481753349304199219e+00 3.052828550338745117e+00 3.880552351474761963e-01
1.912000000000000000e+03 6.940229797363281250e+01 3.259679031372070312e+01 -9.952317476272583008e-01 3.996366500854492188e+00 9.003404378890991211e-01 -1.197808310389518738e-01
1.913000000000000000e+03 7.047326660156250000e+01 3.613061904907226562e+01 -5.159897804260253906e-01 4.658390998840332031e+00 1.242720365524291992e+00 -2.288505733013153076e-01
1.914000000000000000e+03 1.617207908630371094e+01 -8.491552352905273438e+00 -4.454599911696277559e-05 1.594239074620418251e-05 -8.581082511227577925e-06 -5.412293467088602483e-05
1.915000000000000000e+03 4.112638092041015625e+01 4.200635433197021484e+00 7.598343491554260254e-01 3.530367612838745117e+00 1.287060618400573730e+00 -1.163877606391906738e+00
1.916000000000000000e+03 4.233797073364257812e+01 1.800036430358886719e+00 6.562978625297546387e-01 3.299224615097045898e+00 1.186656832695007324e+00 -1.363418936729431152e+00
1.917000000000000000e+03 7.088475036621093750e+01 -4.540363311767578125e+00 2.610579431056976318e-01 7.978116989135742188e+00 2.471752405166625977e+00 7.854286432266235352e-01
1.918000000000000000e+03 7.272566223144531250e+01 -1.071251106262207031e+01 -1.030955761671066284e-01 6.313336849212646484e+00 1.863072395324707031e+00 -2.296887338161468506e-01
1.919000000000000000e+03 7.142009735107421875e+01 -3.145611047744750977e+00 3.353222906589508057e-01 8.722155570983886719e+00 2.717243432998657227e+00 6.613765954971313477e-01
1.920000000000000000e+03 7.187464904785156250e+01 -1.714921593666076660e+00 5.560662746429443359e-01 9.253842353820800781e+00 2.942972660064697266e+00 4.646507501602172852e-01
1.921000000000000000e+03 6.775908660888671875e+01 -1.125000476837158203e+01 5.290393829345703125e-01 4.149714946746826172e+00 1.403626322746276855e+00 8.615750074386596680e-01
1.922000000000000000e+03 7.066744232177734375e+01 -1.070535278320312500e+01 6.772870570421218872e-02 5.699371337890625000e+00 1.730130076408386230e+00 1.925995498895645142e-01
1.923000000000000000e+03 6.804995536804199219e+00 -2.781831932067871094e+01 2.966079919133335352e-04 3.864482569042593241e-04 2.049168688245117664e-04 2.962061262223869562e-04
1.924000000000000000e+03 6.189477920532226562e+00 -2.502821540832519531e+01 5.562482401728630066e-04 -1.793912088032811880e-04 1.130571181420236826e-04 8.904873538995161653e-05
1.925000000000000000e+03 4.877438735961914062e+01 -1.511679649353027344e+01 1.081603646278381348e+00 1.571817159652709961e+00 7.960262894630432129e-01 -5.982627868652343750e-01
1.926000000000000000e+03 3.614825439453125000e+01 2.262757110595703125e+01 2.177244126796722412e-01 2.056561470031738281e+00 6.822857856750488281e-01 -3.228135108947753906e-01
1.927000000000000000e+03 3.954004287719726562e+01 1.703212165832519531e+01 3.979403674602508545e-01 3.402061462402343750e+00 1.140000581741333008e+00 -1.255320906639099121e-01
1.928000000000000000e+03 3.760107040405273438e+01 1.204475498199462891e+01 9.736133813858032227e-01 2.934025049209594727e+00 1.172291517257690430e+00 -6.604528427124023438e-01
1.929000000000000000e+03 7.142031860351562500e+01 -6.383739948272705078e+00 7.007101923227310181e-02 7.208266258239746094e+00 2.183501243591308594e+00 3.708891868591308594e-01
1.930000000000000000e+03 6.668730163574218750e+01 -3.741803359985351562e+01 -1.405567862093448639e-02 8.059517741203308105e-01 2.375688254833221436e-01 2.470711469650268555e-01
1.931000000000000000e+03 7.677350044250488281e+00 -1.703805923461914062e+01 4.338090075179934502e-04 3.131109042442403734e-05 1.395360304741188884e-04 -2.883021079469472170e-05
1.932000000000000000e+03 4.071925640106201172e+00 -1.626300239562988281e+01 4.404116480145603418e-04 -4.988840009900741279e-05 1.171569820144213736e-04 5.646623321808874607e-05
1.933000000000000000e+03 6.953306579589843750e+01 -1.027725315093994141e+01 1.881476342678070068e-01 5.331449031829833984e+00 1.655879020690917969e+00 5.582610964775085449e-01
1.934000000000000000e+03 5.731809616088867188e+01 -2.388171005249023438e+01 -1.004939794540405273e+00 4.913041114807128906e+00 1.172430396080017090e+00 9.351420998573303223e-01
1.935000000000000000e+03 5.772016906738281250e+01 -2.314971160888671875e+01 -6.870173811912536621e-01 4.742637157440185547e+00 1.216686010360717773e+00 4.325397014617919922e-01
1.936000000000000000e+03 3.900195312500000000e+01 2.041504478454589844e+01 2.840746939182281494e-01 2.707539319992065430e+00 8.974841833114624023e-01 -7.411701977252960205e-02
1.937000000000000000e+03 3.819039154052734375e+01 1.758186149597167969e+01 4.648124873638153076e-01 2.886877536773681641e+00 1.005506992340087891e+00 -3.185372650623321533e-01
1.938000000000000000e+03 5.020534992218017578e+00 -2.252997589111328125e+01 -5.174163379706442356e-04 -1.753731048665940762e-04 -2.078368415823206306e-04 -1.961585367098450661e-04
1.939000000000000000e+03 7.334912872314453125e+01 -2.989875030517578125e+01 1.519039273262023926e-01 8.783943176269531250e+00 2.680753946304321289e+00 -6.525513529777526855e-01
1.940000000000000000e+03 7.513417816162109375e+01 4.051414489746093750e+01 1.008524186909198761e-02 8.137111663818359375e+00 2.444159030914306641e+00 2.152485847473144531e-01
1.941000000000000000e+03 4.786758422851562500e+01 -2.520945739746093750e+01 1.767816990613937378e-01 3.554066717624664307e-01 1.596565097570419312e-01 -5.275903344154357910e-01
1.942000000000000000e+03 5.340125656127929688e+01 -3.000620841979980469e+01 1.882651090621948242e+00 4.938375473022460938e+00 2.046308040618896484e+00 6.797532439231872559e-01
1.943000000000000000e+03 5.245285415649414062e+01 -2.966410064697265625e+01 1.485943198204040527e+00 3.969733715057373047e+00 1.636703133583068848e+00 4.255994856357574463e-01
1.944000000000000000e+03 5.865039443969726562e+01 -2.147354316711425781e+01 1.525259137153625488e+00 2.388674497604370117e+00 1.174180030822753906e+00 -9.319154918193817139e-02
1.945000000000000000e+03 4.030773544311523438e+01 2.498966598510742188e+01 7.809744775295257568e-02 2.231242895126342773e+00 6.928021311759948730e-01 7.772479206323623657e-02
1.946000000000000000e+03 6.153244018554687500e+01 -1.726513099670410156e+01 3.996119201183319092e-01 8.619082570075988770e-01 3.784560561180114746e-01 1.825652837753295898e+00
1.947000000000000000e+03 6.032107543945312500e+01 -1.786877822875976562e+01 7.035331130027770996e-01 5.090568065643310547e-01 3.637769818305969238e-01 2.436223745346069336e+00
1.948000000000000000e+03 3.666729354858398438e+01 1.513333129882812500e+01 7.104005813598632812e-01 2.601919174194335938e+00 9.936959147453308105e-01 -5.281085968017578125e-01
1.949000000000000000e+03 7.336963653564453125e+01 2.707256317138671875e+01 1.086104214191436768e-01 7.470367431640625000e+00 2.273693323135375977e+00 6.661670207977294922e-01
1.950000000000000000e+03 7.308975219726562500e+01 2.932388305664062500e+01 -1.738462895154953003e-01 7.139480113983154297e+00 2.089689970016479492e+00 6.484193205833435059e-01
1.951000000000000000e+03 5.847498321533203125e+01 -1.932777595520019531e+01 3.941428184509277344e+00 8.880087137222290039e-01 1.448831081390380859e+00 8.096859455108642578e-01
1.952000000000000000e+03 6.076213455200195312e+01 -1.974942779541015625e+01 1.808998703956604004e+00 1.989418119192123413e-01 6.023821234703063965e-01 1.228790044784545898e+00
1.953000000000000000e+03 3.824062347412109375e+01 1.074072647094726562e+01 1.061301231384277344e+00 3.192694187164306641e+00 1.276198625564575195e+00 -6.779559850692749023e-01
1.954000000000000000e+03 3.698715591430664062e+01 1.808923339843750000e+01 4.986103475093841553e-01 2.536818265914916992e+00 9.106285572052001953e-01 -3.808336257934570312e-01
1.955000000000000000e+03 6.816822052001953125e+01 -1.328609085083007812e+01 4.929400384426116943e-01 3.763292551040649414e+00 1.276869773864746094e+00 3.386903107166290283e-01
1.956000000000000000e+03 7.426148223876953125e+01 -2.755352210998535156e+01 1.214916229248046875e+00 8.949510574340820312e+00 3.049328088760375977e+00 -6.237211823463439941e-01
1.957000000000000000e+03 7.379343414306640625e+01 -2.867085456848144531e+01 8.695735335350036621e-01 8.963356971740722656e+00 2.949879169464111328e+00 -8.843031525611877441e-01
1.958000000000000000e+03 7.223159027099609375e+01 -3.265690612792968750e+01 -1.006960272789001465e+00 6.775622844696044922e+00 1.730598807334899902e+00 9.423125535249710083e-02
1.959000000000000000e+03 7.401836395263671875e+01 -3.177249336242675781e+01 -6.186338663101196289e-01 8.004204750061035156e+00 2.215671062469482422e+00 -7.653924822807312012e-01
1.960000000000000000e+03 1.798192024230957031e+01 -3.748013305664062500e+01 -4.418389406055212021e-03 9.215321624651551247e-04 -1.049057114869356155e-03 4.460100608412176371e-04
1.961000000000000000e+03 6.183985137939453125e+01 -1.954647445678710938e+01 1.183550834655761719e+00 7.562385499477386475e-02 3.777524232864379883e-01 1.305935621261596680e+00
1.962000000000000000e+03 5.496982192993164062e+01 3.656791687011718750e+01 -5.208999514579772949e-01 4.015321657061576843e-02 -1.442240178585052490e-01 1.838138140738010406e-02
1.963000000000000000e+03 5.091455841064453125e+01 3.876232910156250000e+01 -4.181497693061828613e-01 5.306622982025146484e-01 3.375375270843505859e-02 1.198307797312736511e-01
1.964000000000000000e+03 7.287087249755859375e+01 -3.506514739990234375e+01 -9.576646685600280762e-01 6.310885906219482422e+00 1.605966329574584961e+00 1.119420155882835388e-01
1.965000000000000000e+03 1.042325210571289062e+01 -3.441909027099609375e+01 1.291166176088154316e-03 -1.366331998724490404e-04 3.463598841335624456e-04 2.042098436504602432e-03
1.966000000000000000e+03 3.787598800659179688e+01 -1.604746627807617188e+01 -1.990297675132751465e+00 -6.025801897048950195e-01 -7.778633832931518555e-01 7.964115738868713379e-01
1.967000000000000000e+03 3.533075332641601562e+01 -1.261843204498291016e+01 -8.101458549499511719e-01 -1.823298633098602295e-01 -2.977426946163177490e-01 8.696686625480651855e-01
1.968000000000000000e+03 7.395296478271484375e+01 2.986150360107421875e+01 -1.760408878326416016e-01 7.660232543945312500e+00 2.245257616043090820e+00 7.047148346900939941e-01
1.969000000000000000e+03 6.827656555175781250e+01 3.870603179931640625e+01 -2.104373276233673096e-02 2.704618930816650391e+00 8.050725460052490234e-01 -2.384241074323654175e-01
1.970000000000000000e+03 9.824280738830566406e+00 -3.300052642822265625e+01 1.093258149921894073e-03 1.430189786333357915e-05 3.322680131532251835e-04 1.409338088706135750e-03
1.971000000000000000e+03 7.763030052185058594e+00 -1.512208557128906250e+01 1.866208040155470371e-04 2.799022768158465624e-04 1.399569155182689428e-04 -1.642909483052790165e-04
1.972000000000000000e+03 4.161938190460205078e+00 -1.746945571899414062e+01 -4.344803164713084698e-04 -1.122189278248697519e-04 -1.640097761992365122e-04 -4.281074143364094198e-05
1.973000000000000000e+03 5.187025451660156250e+01 4.116500473022460938e+01 -3.734638988971710205e-01 3.535982370376586914e-01 -5.959695670753717422e-03 3.682807460427284241e-02
1.974000000000000000e+03 7.495936584472656250e+01 3.344967269897460938e+01 -3.067597746849060059e-01 7.960997104644775391e+00 2.296271085739135742e+00 4.202165901660919189e-01
1.975000000000000000e+03 5.734407424926757812e+01 -4.118318557739257812e+01 -5.868344902992248535e-01 2.229779243469238281e+00 4.928834140300750732e-01 -2.142309844493865967e-01
1.976000000000000000e+03 6.163715362548828125e+01 -4.097374343872070312e+01 3.160168826580047607e-01 6.425946950912475586e-01 2.875834703445434570e-01 -2.371128499507904053e-01
1.977000000000000000e+03 7.037506580352783203e+00 -3.457712173461914062e+01 4.284744209144264460e-04 1.786701468518003821e-04 1.821433688746765256e-04 1.075577572919428349e-03
1.978000000000000000e+03 4.466284942626953125e+01 -3.155079460144042969e+01 9.141365438699722290e-02 -2.013989239931106567e-01 -3.299557790160179138e-02 2.716151773929595947e-01
1.979000000000000000e+03 3.864144134521484375e+01 1.897790527343750000e+01 3.574694991111755371e-01 2.868070363998413086e+00 9.676619172096252441e-01 -1.707117408514022827e-01
1.980000000000000000e+03 4.221188735961914062e+01 3.155362319946289062e+01 -2.938537597656250000e-01 1.629978418350219727e+00 4.008373916149139404e-01 7.204125821590423584e-02
1.981000000000000000e+03 7.284659576416015625e+01 -3.123696327209472656e+01 -5.264106392860412598e-01 7.877914905548095703e+00 2.205451250076293945e+00 -3.660721480846405029e-01
1.982000000000000000e+03 7.351799011230468750e+01 -3.330952072143554688e+01 -8.757998347282409668e-01 7.302180290222167969e+00 1.927914142608642578e+00 -3.983116149902343750e-01
1.983000000000000000e+03 7.211196899414062500e+01 1.026422023773193359e+01 -4.233382940292358398e-01 9.511678695678710938e+00 2.726501941680908203e+00 4.043550491333007812e-01
1.984000000000000000e+03 5.455204010009765625e+01 -2.144543075561523438e+01 -8.931847810745239258e-01 6.603488922119140625e+00 1.713091254234313965e+00 2.665879011154174805e+00
1.985000000000000000e+03 5.224724578857421875e+01 -2.228145408630371094e+01 -4.219661355018615723e-01 2.037009477615356445e+00 4.845130443572998047e-01 1.184289097785949707e+00
1.986000000000000000e+03 5.619672393798828125e+01 -2.303580284118652344e+01 -1.307041883468627930e+00 6.502072811126708984e+00 1.558509230613708496e+00 8.289453387260437012e-01
1.987000000000000000e+03 5.267282867431640625e+01 -2.210302734375000000e+01 -3.777827620506286621e-01 2.418290615081787109e+00 6.121523380279541016e-01 1.507242560386657715e+00
1.988000000000000000e+03 5.341120910644531250e+01 -2.361548423767089844e+01 -7.395872473716735840e-01 4.364275932312011719e+00 1.087406516075134277e+00 1.476331114768981934e+00
1.989000000000000000e+03 5.557528305053710938e+01 -2.119952774047851562e+01 -1.052039623260498047e+00 9.413288116455078125e+00 2.508374452590942383e+00 7.010242938995361328e-01
1.990000000000000000e+03 5.140777587890625000e+01 -2.313519668579101562e+01 -2.422330826520919800e-01 1.736342906951904297e+00 4.482329189777374268e-01 5.505607724189758301e-01
1.991000000000000000e+03 5.593309402465820312e+01 -2.516555595397949219e+01 -1.140794396400451660e+00 6.176723003387451172e+00 1.510778665542602539e+00 1.090986371040344238e+00
1.992000000000000000e+03 1.324040794372558594e+01 -6.044982910156250000e+00 -5.867075742571614683e-05 -5.661864634021185338e-05 -3.458682112977840006e-05 1.239531047758646309e-05
1.993000000000000000e+03 5.027909088134765625e+01 -2.363321685791015625e+01 -1.183022037148475647e-01 1.133934140205383301e+00 3.046895861625671387e-01 3.496485948562622070e-02
1.994000000000000000e+03 5.117527008056640625e+01 -2.392310714721679688e+01 -6.547962874174118042e-02 1.870383143424987793e+00 5.414710640907287598e-01 4.121101200580596924e-01
1.995000000000000000e+03 1.169004821777343750e+01 -6.032309055328369141e+00 7.359483424806967378e-05 6.762929842807352543e-05 4.236723907524719834e-05 4.010638804174959660e-05
1.996000000000000000e+03 1.305643081665039062e+01 -6.661226749420166016e+00 9.604193473933264613e-05 2.936355303972959518e-05 3.762164487852714956e-05 -8.843337855068966746e-05
1.997000000000000000e+03 1.473998641967773438e+01 -7.939085483551025391e+00 -1.648226680117659271e-05 1.138773295679129660e-04 2.921851773862726986e-05 -3.318288872833363712e-05
1.998000000000000000e+03 1.566459083557128906e+01 -7.518173217773437500e+00 7.054813067952636629e-06 4.097830606042407453e-05 1.440993582946248353e-05 -2.615226367197465152e-05
1.999000000000000000e+03 1.443398284912109375e+01 -9.304633140563964844e+00 -1.269229542231187224e-04 -5.558004340855404735e-05 -5.475090074469335377e-05 4.607529626809991896e-05
2.000000000000000000e+03 1.678837776184082031e+01 -1.185483169555664062e+01 9.026836050907149911e-05 4.596996586769819260e-05 4.087149864062666893e-05 6.421068974304944277e-05
2.001000000000000000e+03 1.613138198852539062e+01 -7.212224960327148438e+00 -4.214118598611094058e-05 -6.684801064693601802e-06 -1.464779597881715745e-05 1.414328107784967870e-05
2.002000000000000000e+03 1.595126152038574219e+01 -7.956137180328369141e+00 1.042561143549392000e-05 -2.534083432692568749e-05 -4.474566594581119716e-06 4.730667205876670778e-05
2.003000000000000000e+03 4.623743438720703125e+01 -2.538625717163085938e+01 5.236108228564262390e-02 -9.887614101171493530e-02 -1.395451743155717850e-02 -7.854549884796142578e-01
2.004000000000000000e+03 5.502862167358398438e+01 -2.556003761291503906e+01 -8.139440417289733887e-01 6.065744400024414062e+00 1.575540065765380859e+00 9.790716767311096191e-01
2.005000000000000000e+03 5.191438293457031250e+01 -2.293605995178222656e+01 -3.728780150413513184e-01 2.169646501541137695e+00 5.390305519104003906e-01 9.285950064659118652e-01
2.006000000000000000e+03 4.912523651123046875e+01 -2.478449440002441406e+01 1.683551371097564697e-01 8.125118613243103027e-01 2.942601144313812256e-01 -2.783489227294921875e-01
2.007000000000000000e+03 5.571902084350585938e+01 -2.172423171997070312e+01 -1.102997183799743652e+00 7.942475318908691406e+00 2.051843404769897461e+00 6.803188323974609375e-01
2.008000000000000000e+03 1.026678657531738281e+01 -4.599820137023925781e+00 1.006208985927514732e-04 2.691923145903274417e-05 3.826203828793950379e-05 2.474337634339462966e-05
2.009000000000000000e+03 1.116011619567871094e+01 -5.772009372711181641e+00 -4.788471414940431714e-05 -7.964875840116292238e-05 -3.826004103757441044e-05 -2.969290653709322214e-05
2.010000000000000000e+03 4.728978729248046875e+01 -2.564764595031738281e+01 1.927978247404098511e-01 2.545305490493774414e-01 1.341985017061233521e-01 -6.455422043800354004e-01
2.011000000000000000e+03 4.844798278808593750e+01 -2.498823547363281250e+01 1.985446214675903320e-01 6.449757218360900879e-01 2.530561089515686035e-01 -4.934886991977691650e-01
2.012000000000000000e+03 5.616941928863525391e+00 4.672801971435546875e+00 -1.570432484149932861e-01 -2.367993742227554321e-01 -1.181527897715568542e-01 3.182054758071899414e-01
2.013000000000000000e+03 4.890542507171630859e+00 5.474757671356201172e+00 -1.079640910029411316e-01 -2.656179666519165039e-01 -1.120746210217475891e-01 3.002135157585144043e-01
2.014000000000000000e+03 7.466557979583740234e+00 5.625842571258544922e+00 -1.434243321418762207e-01 -3.885423243045806885e-01 -1.595900058746337891e-01 4.623356163501739502e-01
2.015000000000000000e+03 6.228623390197753906e+00 4.742932796478271484e+00 -1.743631660938262939e-01 -2.711551785469055176e-01 -1.336555033922195435e-01 3.708535730838775635e-01
2.016000000000000000e+03 8.037610054016113281e+00 4.881060123443603516e+00 -2.009667307138442993e-01 -3.812150955200195312e-01 -1.746545583009719849e-01 4.857624471187591553e-01
2.017000000000000000e+03 2.783965873718261719e+01 -9.704463958740234375e+00 -8.921654224395751953e-01 -4.161229133605957031e-01 -3.924865126609802246e-01 1.013503313064575195e+00
2.018000000000000000e+03 7.037094116210937500e+00 3.977020740509033203e+00 -2.400058358907699585e-01 -2.524763643741607666e-01 -1.477446705102920532e-01 3.929440677165985107e-01
2.019000000000000000e+03 4.375551700592041016e+00 4.335272312164306641e+00 -1.203441247344017029e-01 -1.817485839128494263e-01 -9.062781184911727905e-02 2.264327704906463623e-01
2.020000000000000000e+03 2.887036895751953125e+01 -1.290595054626464844e+01 -9.131410717964172363e-01 -3.086941242218017578e-01 -3.665505647659301758e-01 1.028600931167602539e+00
2.021000000000000000e+03 3.078919029235839844e+01 -1.250705623626708984e+01 -9.495266675949096680e-01 -1.781534552574157715e-01 -3.383040428161621094e-01 1.036382675170898438e+00
2.022000000000000000e+03 4.719659042358398438e+01 -1.585389614105224609e+01 -4.053199887275695801e-01 7.994577288627624512e-01 1.182413101196289062e-01 2.565089464187622070e-01
2.023000000000000000e+03 2.925559425354003906e+01 -1.357285404205322266e+01 -9.592849016189575195e-01 -2.740972340106964111e-01 -3.700146377086639404e-01 9.684702754020690918e-01
2.024000000000000000e+03 9.584379196166992188e+00 -4.296494483947753906e+00 -1.154735437012277544e-04 -9.355422662338241935e-06 -3.744868809008039534e-05 4.311247266741702333e-06
2.025000000000000000e+03 9.048637390136718750e+00 -5.682689189910888672e+00 -1.386229123454540968e-04 -5.363233867683447897e-06 -4.319584331824444234e-05 -8.477384108118712902e-05
2.026000000000000000e+03 4.844893264770507812e+01 -2.799872016906738281e+01 6.101770401000976562e-01 1.096769094467163086e+00 5.120838284492492676e-01 -1.107574254274368286e-01
2.027000000000000000e+03 4.617857360839843750e+01 -1.575699710845947266e+01 -6.192622780799865723e-01 7.266067266464233398e-01 3.220333904027938843e-02 4.007644057273864746e-01
2.028000000000000000e+03 4.676413726806640625e+01 -1.672466278076171875e+01 -1.450241208076477051e+00 5.869746804237365723e-01 -2.589799761772155762e-01 5.784157514572143555e-01
2.029000000000000000e+03 4.850990676879882812e+01 -1.441385555267333984e+01 1.488719224929809570e+00 1.620831847190856934e+00 9.328653216361999512e-01 -7.771790027618408203e-01
2.030000000000000000e+03 1.651939010620117188e+01 3.219070911407470703e+00 -2.243787795305252075e-01 -9.314540028572082520e-01 -3.467498421669006348e-01 6.314873695373535156e-01
2.031000000000000000e+03 2.640413284301757812e+01 -8.855218887329101562e+00 -9.455421566963195801e-01 -6.688632965087890625e-01 -4.843216538429260254e-01 1.003573417663574219e+00
2.032000000000000000e+03 5.716368675231933594e+00 -4.220916748046875000e+00 -5.871755774933262728e-07 -1.281540789932478219e-05 -4.020775122626218945e-06 6.039249637979082763e-05
2.033000000000000000e+03 2.378163719177246094e+01 -4.925889968872070312e+00 -9.189260005950927734e-01 -1.008100986480712891e+00 -5.781081318855285645e-01 8.678649663925170898e-01
2.034000000000000000e+03 4.395146560668945312e+01 -1.616394042968750000e+01 -1.426068067550659180e+00 5.800533294677734375e-01 -2.538044154644012451e-01 6.967709660530090332e-01
2.035000000000000000e+03 4.126855087280273438e+01 -1.624070549011230469e+01 -1.850505471229553223e+00 3.003603219985961914e-01 -4.650435447692871094e-01 5.583651661872863770e-01
2.036000000000000000e+03 2.653493499755859375e+01 -7.719937801361083984e+00 -8.982612490653991699e-01 -5.996417403221130371e-01 -4.493708908557891846e-01 9.264124631881713867e-01
2.037000000000000000e+03 6.045588970184326172e+00 -5.974700927734375000e+00 1.552171888761222363e-04 -3.839994315057992935e-05 3.504517371766269207e-05 2.630614108056761324e-05
2.038000000000000000e+03 5.410825729370117188e+00 -5.435086250305175781e+00 -1.191632400150410831e-04 3.278404619777575135e-05 -2.591375778138171881e-05 5.618802242679521441e-05
2.039000000000000000e+03 4.220744705200195312e+01 -1.623026466369628906e+01 -1.751804471015930176e+00 4.319130480289459229e-01 -3.959674239158630371e-01 6.294409632682800293e-01
2.040000000000000000e+03 4.475396347045898438e+01 -1.612298202514648438e+01 -1.282783508300781250e+00 6.569622755050659180e-01 -1.877463757991790771e-01 6.657578349113464355e-01
2.041000000000000000e+03 5.668768692016601562e+01 -2.346190071105957031e+01 -1.288703083992004395e+00 6.200611591339111328e+00 1.473572611808776855e+00 8.749146461486816406e-01
2.042000000000000000e+03 5.332635879516601562e+01 -2.223748779296875000e+01 -5.386884212493896484e-01 3.610793352127075195e+00 9.216315150260925293e-01 1.951212763786315918e+00
2.043000000000000000e+03 4.310161590576171875e+01 -1.620163726806640625e+01 -1.572558641433715820e+00 6.030763983726501465e-01 -2.908446490764617920e-01 6.649512052536010742e-01
2.044000000000000000e+03 4.324174880981445312e+01 -1.524550628662109375e+01 -1.011663198471069336e+00 5.322637557983398438e-01 -1.438198387622833252e-01 5.011150240898132324e-01
2.045000000000000000e+03 1.399630355834960938e+01 2.954159259796142578e+00 -4.072258472442626953e-01 -8.190836906433105469e-01 -3.678928613662719727e-01 6.924469470977783203e-01
2.046000000000000000e+03 3.125333976745605469e+01 -1.338770103454589844e+01 -1.070185184478759766e+00 -1.505777090787887573e-01 -3.662288486957550049e-01 1.016828417778015137e+00
2.047000000000000000e+03 2.553839874267578125e+01 -7.534781932830810547e+00 -9.611327052116394043e-01 -8.114088773727416992e-01 -5.317624807357788086e-01 9.591524600982666016e-01
2.048000000000000000e+03 9.942065238952636719e+00 -5.316993713378906250e+00 -1.024547746055759490e-04 -4.484055170905776322e-05 -4.418860044097527862e-05 -2.532221697038039565e-05
2.049000000000000000e+03 2.524271392822265625e+01 -5.790894985198974609e+00 -8.725545406341552734e-01 -7.667607665061950684e-01 -4.917945861816406250e-01 8.336454033851623535e-01
2.050000000000000000e+03 4.566973495483398438e+01 -1.538947963714599609e+01 -4.697008132934570312e-01 7.464798092842102051e-01 8.303371071815490723e-02 3.937431275844573975e-01
2.051000000000000000e+03 4.550745773315429688e+01 -1.608535766601562500e+01 -1.089718341827392578e+00 5.505632162094116211e-01 -1.617465466260910034e-01 6.598241329193115234e-01
2.052000000000000000e+03 2.696873855590820312e+01 -8.377236366271972656e+00 -9.022501111030578613e-01 -5.345658659934997559e-01 -4.310447871685028076e-01 9.560397267341613770e-01
2.053000000000000000e+03 1.926751136779785156e+01 1.906123608350753784e-01 -5.661974549293518066e-01 -1.081151723861694336e+00 -4.942047595977783203e-01 7.204992771148681641e-01
2.054000000000000000e+03 2.261502838134765625e+01 -2.773523330688476562e+00 -7.670415043830871582e-01 -1.020505666732788086e+00 -5.362641215324401855e-01 7.499575018882751465e-01
2.055000000000000000e+03 1.862547302246093750e+01 7.022835612297058105e-01 -5.256932973861694336e-01 -1.062398910522460938e+00 -4.764276444911956787e-01 7.155710458755493164e-01
2.056000000000000000e+03 1.987664604187011719e+01 -3.239501416683197021e-01 -6.032095551490783691e-01 -1.090554237365722656e+00 -5.081291198730468750e-01 7.298040390014648438e-01
2.057000000000000000e+03 2.827737808227539062e+01 -1.037050151824951172e+01 -8.840497136116027832e-01 -3.643158674240112305e-01 -3.745096623897552490e-01 1.036582350730895996e+00
2.058000000000000000e+03 2.740344429016113281e+01 -9.039490699768066406e+00 -8.942126631736755371e-01 -4.756263792514801025e-01 -4.109517037868499756e-01 9.872968196868896484e-01
2.059000000000000000e+03 5.728388595581054688e+01 -2.061417007446289062e+01 2.863741397857666016e+00 5.272593021392822266e+00 2.440900325775146484e+00 -1.915034055709838867e+00
2.060000000000000000e+03 1.403477668762207031e+01 3.974522590637207031e+00 -2.414144575595855713e-01 -8.176255226135253906e-01 -3.177120089530944824e-01 6.526567935943603516e-01
2.061000000000000000e+03 2.610190773010253906e+01 -7.070839881896972656e+00 -8.979482054710388184e-01 -6.581119298934936523e-01 -4.668180346488952637e-01 8.940162062644958496e-01
2.062000000000000000e+03 2.567058944702148438e+01 -6.429194927215576172e+00 -8.834828734397888184e-01 -7.184854149818420410e-01 -4.805904924869537354e-01 8.645742535591125488e-01
2.063000000000000000e+03 5.058599090576171875e+01 -1.549117565155029297e+01 1.221532821655273438e+00 2.836380243301391602e+00 1.217373847961425781e+00 -1.486189842224121094e+00
2.064000000000000000e+03 1.460235500335693359e+01 3.534084081649780273e+00 -2.771379351615905762e-01 -8.492608070373535156e-01 -3.379196226596832275e-01 6.660075783729553223e-01
2.065000000000000000e+03 2.400195503234863281e+01 -3.804741859436035156e+00 -7.632485628128051758e-01 -8.692926764488220215e-01 -4.897623956203460693e-01 7.366631031036376953e-01
2.066000000000000000e+03 2.362615013122558594e+01 -3.103228092193603516e+00 -7.036186456680297852e-01 -8.808889389038085938e-01 -4.753522872924804688e-01 6.976549029350280762e-01
2.067000000000000000e+03 1.000972366333007812e+01 5.448225021362304688e+00 -1.476810425519943237e-01 -5.473011136054992676e-01 -2.084946483373641968e-01 5.691828727722167969e-01
2.068000000000000000e+03 4.890655899047851562e+01 -1.308039855957031250e+01 2.392877817153930664e+00 2.560663938522338867e+00 1.486062526702880859e+00 -1.653483986854553223e+00
2.069000000000000000e+03 2.108344841003417969e+01 -1.273909211158752441e+00 -6.595348715782165527e-01 -1.076147556304931641e+00 -5.207047462463378906e-01 7.191620469093322754e-01
2.070000000000000000e+03 2.046898269653320312e+01 -8.187810778617858887e-01 -6.510768532752990723e-01 -1.087466239929199219e+00 -5.215629339218139648e-01 7.304620742797851562e-01
2.071000000000000000e+03 5.164046096801757812e+01 -2.357902908325195312e+01 -2.255138009786605835e-01 2.215076923370361328e+00 5.968689322471618652e-01 6.675477623939514160e-01
2.072000000000000000e+03 5.206876373291015625e+01 -2.339590835571289062e+01 -2.709459960460662842e-01 2.570114374160766602e+00 6.897504925727844238e-01 9.176939129829406738e-01
2.073000000000000000e+03 1.590920352935791016e+01 2.637715339660644531e+00 -3.611668050289154053e-01 -9.279451370239257812e-01 -3.867335617542266846e-01 6.862127780914306641e-01
2.074000000000000000e+03 1.524645996093750000e+01 3.091390848159790039e+00 -3.206984996795654297e-01 -8.893870115280151367e-01 -3.630256652832031250e-01 6.749147772789001465e-01
2.075000000000000000e+03 5.401069641113281250e+01 -2.790819931030273438e+01 8.814842700958251953e-01 5.805855751037597656e+00 2.006201982498168945e+00 3.397973477840423584e-01
2.076000000000000000e+03 5.422183227539062500e+01 -2.652893638610839844e+01 1.147041320800781250e-01 5.659833431243896484e+00 1.732361316680908203e+00 5.575760602951049805e-01
2.077000000000000000e+03 3.155092430114746094e+01 -1.437888050079345703e+01 -1.214928269386291504e+00 -1.372482776641845703e-01 -4.056529700756072998e-01 9.578219652175903320e-01
2.078000000000000000e+03 5.387331771850585938e+01 -2.846917152404785156e+01 1.698243737220764160e+00 5.894280910491943359e+00 2.277757406234741211e+00 5.371402204036712646e-02
2.079000000000000000e+03 4.707880783081054688e+01 -1.197133922576904297e+01 1.751215815544128418e+00 2.130415201187133789e+00 1.164489269256591797e+00 -1.447839617729187012e+00
2.080000000000000000e+03 4.808971405029296875e+01 -1.376898860931396484e+01 1.637861371040344238e+00 1.786057233810424805e+00 1.027175545692443848e+00 -9.923297166824340820e-01
2.081000000000000000e+03 7.445170593261718750e+01 1.115653514862060547e+01 -2.366884499788284302e-01 8.388237953186035156e+00 2.445464849472045898e+00 5.208575129508972168e-01
2.082000000000000000e+03 3.301685333251953125e+01 -1.310458469390869141e+01 -1.044617056846618652e+00 -1.439636051654815674e-01 -3.565742075443267822e-01 1.018274784088134766e+00
2.083000000000000000e+03 2.958476257324218750e+01 -1.237147712707519531e+01 -9.264895319938659668e-01 -2.525875866413116455e-01 -3.537231385707855225e-01 1.043864727020263672e+00
2.084000000000000000e+03 5.290480422973632812e+01 -2.892508697509765625e+01 1.546102643013000488e+00 4.466045379638671875e+00 1.803644537925720215e+00 4.262883365154266357e-01
2.085000000000000000e+03 4.545647811889648438e+01 -2.582081031799316406e+01 6.181991845369338989e-02 -4.058974981307983398e-01 -1.032232716679573059e-01 -7.483993172645568848e-01
2.086000000000000000e+03 4.457113265991210938e+01 -2.626035499572753906e+01 -5.607400462031364441e-02 -5.587407350540161133e-01 -1.844444125890731812e-01 -7.591022253036499023e-01
2.087000000000000000e+03 1.245829963684082031e+01 4.810097217559814453e+00 -1.705902814865112305e-01 -7.120686173439025879e-01 -2.647976875305175781e-01 6.275725364685058594e-01
2.088000000000000000e+03 4.724411392211914062e+01 -3.325067520141601562e+01 3.913135826587677002e-01 1.135724663734436035e+00 4.581114649772644043e-01 7.824603915214538574e-01
2.089000000000000000e+03 6.306461334228515625e+01 -2.039738464355468750e+01 4.362286031246185303e-01 1.007020659744739532e-02 1.338896453380584717e-01 7.244917750358581543e-01
2.090000000000000000e+03 3.882080459594726562e+01 -1.602818679809570312e+01 -1.844946861267089844e+00 -5.186147093772888184e-01 -7.090684771537780762e-01 6.588191390037536621e-01
2.091000000000000000e+03 1.245067310333251953e+01 -7.748554706573486328e+00 7.725770410615950823e-05 5.859220618731342256e-05 4.075497417943552136e-05 -1.783816333045251667e-05
2.092000000000000000e+03 1.144730854034423828e+01 -1.147141170501708984e+01 1.278098061447963119e-04 -2.268128628202248365e-05 3.153855504933744669e-05 -6.194387242430821061e-05
2.093000000000000000e+03 4.512367248535156250e+01 -2.982816314697265625e+01 -1.627421528100967407e-01 -2.549578249454498291e-01 -1.253099888563156128e-01 -1.351324915885925293e-01
2.094000000000000000e+03 1.788645362854003906e+01 -1.118681430816650391e+01 5.867328218300826848e-05 4.926262772642076015e-05 3.238077260903082788e-05 4.293825259082950652e-05
2.095000000000000000e+03 8.712902069091796875e+00 5.347567558288574219e+00 -1.694825440645217896e-01 -4.482532739639282227e-01 -1.853207498788833618e-01 5.203548669815063477e-01
2.096000000000000000e+03 3.882429122924804688e+01 3.412617921829223633e+00 7.274749875068664551e-01 2.696900606155395508e+00 1.027312755584716797e+00 -7.591232657432556152e-01
2.097000000000000000e+03 3.939125061035156250e+01 8.034431457519531250e+00 1.078866600990295410e+00 3.519224882125854492e+00 1.379427433013916016e+00 -7.782570719718933105e-01
2.098000000000000000e+03 4.410321807861328125e+01 -1.723015546798706055e+00 6.691294312477111816e-01 3.078193187713623047e+00 1.124196767807006836e+00 -1.570874571800231934e+00
2.099000000000000000e+03 4.273590469360351562e+01 -4.529445171356201172e+00 7.296558618545532227e-01 2.299481630325317383e+00 9.087412357330322266e-01 -1.293719649314880371e+00
2.100000000000000000e+03 3.504381942749023438e+01 -1.364195346832275391e+01 -1.087305188179016113e+00 -2.523020505905151367e-01 -4.018821716308593750e-01 9.496625661849975586e-01
2.101000000000000000e+03 3.478105545043945312e+01 -1.470907592773437500e+01 -1.431907057762145996e+00 -2.873922288417816162e-01 -5.157897472381591797e-01 1.026621937751770020e+00
2.102000000000000000e+03 5.196743392944335938e+01 -3.166649246215820312e+01 1.291092991828918457e+00 3.479868412017822266e+00 1.431288361549377441e+00 9.414826631546020508e-01
2.103000000000000000e+03 1.214438056945800781e+01 -1.084450340270996094e+01 -9.840478742262348533e-05 -9.839056292548775673e-05 -5.903860437683761120e-05 -2.862218570953700691e-05
2.104000000000000000e+03 5.831363296508789062e+01 -2.066313743591308594e+01 2.598280668258666992e+00 2.324681997299194336e+00 1.476888775825500488e+00 -3.404663205146789551e-01
2.105000000000000000e+03 1.592988300323486328e+01 -1.076658058166503906e+01 1.545759150758385658e-04 1.417393832525704056e-05 5.062495620222762227e-05 2.454354216752108186e-05
2.106000000000000000e+03 3.629486846923828125e+01 1.134960746765136719e+01 1.021689772605895996e+00 2.440991401672363281e+00 1.038804292678833008e+00 -6.168094873428344727e-01
2.107000000000000000e+03 4.093766784667968750e+01 -3.774138689041137695e+00 6.144933104515075684e-01 1.990567684173583984e+00 7.815182805061340332e-01 -9.776881337165832520e-01
2.108000000000000000e+03 4.172795867919921875e+01 2.990871429443359375e+00 7.167342305183410645e-01 3.376351594924926758e+00 1.227925777435302734e+00 -1.278164505958557129e+00
2.109000000000000000e+03 4.119174957275390625e+01 1.458122372627258301e+00 6.487381458282470703e-01 2.974414825439453125e+00 1.086945891380310059e+00 -1.159651517868041992e+00
2.110000000000000000e+03 4.477994537353515625e+01 -6.477035045623779297e+00 9.132642149925231934e-01 2.542017459869384766e+00 1.036584496498107910e+00 -1.564256548881530762e+00
2.111000000000000000e+03 4.595792770385742188e+01 -6.367117404937744141e+00 9.744460582733154297e-01 3.049386739730834961e+00 1.207149863243103027e+00 -1.801113605499267578e+00
2.112000000000000000e+03 6.490704345703125000e+01 -1.608583068847656250e+01 8.444503545761108398e-01 1.490215301513671875e+00 7.003996968269348145e-01 8.134465813636779785e-01
2.113000000000000000e+03 7.386401367187500000e+01 1.818751335144042969e+01 7.426248490810394287e-02 8.323663711547851562e+00 2.519377708435058594e+00 4.574297666549682617e-01
2.114000000000000000e+03 6.884462738037109375e+01 -1.169538211822509766e+01 3.682888448238372803e-01 4.594594001770019531e+00 1.488864898681640625e+00 5.146669745445251465e-01
2.115000000000000000e+03 6.632943725585937500e+01 -1.535024070739746094e+01 7.967680096626281738e-01 2.294240236282348633e+00 9.273024797439575195e-01 4.315328598022460938e-01
2.116000000000000000e+03 9.127709388732910156e+00 -1.168384933471679688e+01 -7.506487600039690733e-05 7.526070112362504005e-05 5.874680653050745605e-08 1.405119692208245397e-04
2.117000000000000000e+03 9.788088798522949219e+00 -1.257507610321044922e+01 4.471729334909468889e-05 -9.956440771929919720e-05 -1.645413431106135249e-05 -1.525186671642586589e-04
2.118000000000000000e+03 3.883561325073242188e+01 -1.501301765441894531e+01 -1.404732704162597656e+00 -3.416379094123840332e-01 -5.239111781120300293e-01 5.937189459800720215e-01
2.119000000000000000e+03 3.693387222290039062e+01 -1.493928718566894531e+01 -1.454204797744750977e+00 -4.596315026283264160e-01 -5.741508603096008301e-01 8.733953237533569336e-01
2.120000000000000000e+03 4.523004913330078125e+01 -9.604610443115234375e+00 1.209313392639160156e+00 1.995605349540710449e+00 9.614756107330322266e-01 -1.375143289566040039e+00
2.121000000000000000e+03 7.376826477050781250e+01 2.829351806640625000e+01 -7.890163362026214600e-02 7.517714023590087891e+00 2.231643676757812500e+00 7.167128324508666992e-01
2.122000000000000000e+03 7.577230072021484375e+01 3.108580207824707031e+01 -1.881054341793060303e-01 8.355079650878906250e+00 2.450092077255249023e+00 6.232733726501464844e-01
2.123000000000000000e+03 5.993641281127929688e+01 -1.940558052062988281e+01 2.312881231307983398e+00 1.991125047206878662e-01 7.535980939865112305e-01 1.454176068305969238e+00
2.124000000000000000e+03 4.236767196655273438e+01 -8.673903942108154297e-01 6.319718360900878906e-01 2.828263521194458008e+00 1.038070678710937500e+00 -1.332864403724670410e+00
2.125000000000000000e+03 7.567700958251953125e+01 2.233328056335449219e+01 1.377683877944946289e-01 8.057041168212890625e+00 2.458442926406860352e+00 5.163636207580566406e-01
2.126000000000000000e+03 4.053756332397460938e+01 5.438803195953369141e+00 8.661901354789733887e-01 3.573610782623291016e+00 1.331940293312072754e+00 -1.011898875236511230e+00
2.127000000000000000e+03 4.179072570800781250e+01 2.923896312713623047e-01 6.071258187294006348e-01 2.920463562011718750e+00 1.058276772499084473e+00 -1.238619327545166016e+00
2.128000000000000000e+03 7.592314147949218750e+01 2.787819099426269531e+01 -1.202654372900724411e-02 8.283593177795410156e+00 2.481470108032226562e+00 7.187821865081787109e-01
2.129000000000000000e+03 7.479882812500000000e+01 2.795208930969238281e+01 -7.634593057446181774e-04 7.916877269744873047e+00 2.374834060668945312e+00 7.694330811500549316e-01
2.130000000000000000e+03 7.583487701416015625e+01 4.043602943420410156e+00 3.022548258304595947e-01 7.433798789978027344e+00 2.320816040039062500e+00 3.556866049766540527e-01
2.131000000000000000e+03 7.570865631103515625e+01 2.378784561157226562e+01 1.306172162294387817e-01 8.081242561340332031e+00 2.463557958602905273e+00 6.099870800971984863e-01
2.132000000000000000e+03 7.443923950195312500e+01 2.102272796630859375e+01 1.432657837867736816e-01 8.128687858581542969e+00 2.481585979461669922e+00 4.543569684028625488e-01
2.133000000000000000e+03 7.468076324462890625e+01 -2.311765480041503906e+01 4.848878979682922363e-01 8.388132095336914062e+00 2.661906003952026367e+00 4.982120692729949951e-01
2.134000000000000000e+03 7.454479217529296875e+01 -2.151370811462402344e+01 -1.639354228973388672e-01 8.127563476562500000e+00 2.389088630676269531e+00 4.557177722454071045e-01
2.135000000000000000e+03 7.433756256103515625e+01 -1.454324722290039062e+01 -3.282236456871032715e-01 6.641575336456298828e+00 1.894005537033081055e+00 -3.846628665924072266e-01
2.136000000000000000e+03 7.553032684326171875e+01 -1.300288200378417969e+01 -2.004167586565017700e-01 6.840776443481445312e+00 1.992107868194580078e+00 -3.644972145557403564e-01
2.137000000000000000e+03 7.571372222900390625e+01 1.249737644195556641e+01 -1.436552107334136963e-01 7.881142616271972656e+00 2.321246147155761719e+00 4.569518566131591797e-01
2.138000000000000000e+03 7.585792541503906250e+01 1.792621231079101562e+01 4.017895832657814026e-02 7.957909584045410156e+00 2.399426460266113281e+00 4.054830372333526611e-01
2.139000000000000000e+03 7.396717071533203125e+01 -7.312892436981201172e+00 -7.459133863449096680e-02 6.991445541381835938e+00 2.075056314468383789e+00 -3.540907800197601318e-01
2.140000000000000000e+03 7.552456665039062500e+01 -5.919404506683349609e+00 -2.623704634606838226e-02 6.954760074615478516e+00 2.078557014465332031e+00 -5.142710208892822266e-01
2.141000000000000000e+03 7.425938415527343750e+01 9.628913879394531250e+00 -1.352789252996444702e-01 8.606295585632324219e+00 2.541305065155029297e+00 6.494737863540649414e-01
2.142000000000000000e+03 7.311382293701171875e+01 9.972986221313476562e+00 -2.350010275840759277e-01 9.025341033935546875e+00 2.637101888656616211e+00 5.517897009849548340e-01
2.143000000000000000e+03 7.472891235351562500e+01 4.126280307769775391e+00 4.756428897380828857e-01 8.184637069702148438e+00 2.598083972930908203e+00 4.099840819835662842e-01
2.144000000000000000e+03 7.567012023925781250e+01 -3.257472991943359375e+00 1.387268155813217163e-01 7.096617698669433594e+00 2.170603513717651367e+00 -4.740422964096069336e-01
2.145000000000000000e+03 7.360113525390625000e+01 -4.169703483581542969e+00 1.320887953042984009e-01 7.696254730224609375e+00 2.348503112792968750e+00 -2.236363440752029419e-01
2.146000000000000000e+03 7.570680236816406250e+01 1.931640052795410156e+01 8.347248286008834839e-02 8.010595321655273438e+00 2.428220272064208984e+00 4.426585137844085693e-01
2.147000000000000000e+03 7.539163208007812500e+01 -1.017983436584472656e+01 -1.219130307435989380e-01 6.806226730346679688e+00 2.005294084548950195e+00 -4.540877938270568848e-01
2.148000000000000000e+03 7.406211090087890625e+01 -1.037802028656005859e+01 -1.489707529544830322e-01 6.621273994445800781e+00 1.941690921783447266e+00 -3.803909420967102051e-01
2.149000000000000000e+03 7.420655059814453125e+01 -1.179646110534667969e+01 -1.733701527118682861e-01 6.551095008850097656e+00 1.913317441940307617e+00 -3.900789618492126465e-01
2.150000000000000000e+03 7.571557617187500000e+01 -1.703561019897460938e+01 -4.162277281284332275e-01 7.229701042175292969e+00 2.044042110443115234e+00 -2.599551156163215637e-02
2.151000000000000000e+03 7.019932556152343750e+01 -1.905124855041503906e+01 -5.085585117340087891e-01 4.647260189056396484e+00 1.241610527038574219e+00 -1.482822418212890625e+00
2.152000000000000000e+03 7.367170715332031250e+01 -1.985716056823730469e+01 -6.999326944351196289e-01 7.617875099182128906e+00 2.075382709503173828e+00 -1.694787442684173584e-01
2.153000000000000000e+03 7.385530090332031250e+01 2.484648376703262329e-01 5.925216078758239746e-01 8.441839218139648438e+00 2.710308313369750977e+00 3.603947162628173828e-02
2.154000000000000000e+03 7.352181243896484375e+01 2.984496593475341797e+00 6.456779837608337402e-01 9.115360260009765625e+00 2.928311586380004883e+00 3.732817471027374268e-01
2.155000000000000000e+03 7.458293914794921875e+01 1.397057723999023438e+01 -1.248811408877372742e-01 8.236808776855468750e+00 2.433578252792358398e+00 3.734738826751708984e-01
2.156000000000000000e+03 7.333020019531250000e+01 -7.486025691032409668e-01 5.777982473373413086e-01 8.610570907592773438e+00 2.756510734558105469e+00 4.270977526903152466e-02
2.157000000000000000e+03 7.532897949218750000e+01 2.955305290222167969e+01 -1.003282070159912109e-01 8.135181427001953125e+00 2.410456180572509766e+00 7.111241817474365234e-01
2.158000000000000000e+03 7.389492034912109375e+01 -8.884071350097656250e+00 -1.065452769398689270e-01 6.770359516143798828e+00 1.999144315719604492e+00 -3.552153706550598145e-01
2.159000000000000000e+03 7.248332214355468750e+01 -9.295791625976562500e+00 -9.410349279642105103e-02 6.521268844604492188e+00 1.928149580955505371e+00 -1.214773654937744141e-01
2.160000000000000000e+03 7.309927368164062500e+01 -1.471136188507080078e+01 -3.401136696338653564e-01 6.230306625366210938e+00 1.767057895660400391e+00 -4.712370038032531738e-01
2.161000000000000000e+03 7.582894134521484375e+01 -2.946167755126953125e+01 2.744196057319641113e-01 8.048851013183593750e+00 2.496981143951416016e+00 -1.197715520858764648e+00
2.162000000000000000e+03 7.448508453369140625e+01 3.479503250122070312e+01 -4.200973808765411377e-01 7.488267898559570312e+00 2.120451211929321289e+00 2.166219949722290039e-01
2.163000000000000000e+03 7.221884155273437500e+01 3.519283676147460938e+01 -4.568870067596435547e-01 5.974801540374755859e+00 1.655374407768249512e+00 7.680703699588775635e-02
2.164000000000000000e+03 7.102293395996093750e+01 -1.986505508422851562e+01 -6.305949687957763672e-01 5.690431118011474609e+00 1.517950892448425293e+00 -1.548401951789855957e+00
2.165000000000000000e+03 7.399085235595703125e+01 -2.082949256896972656e+01 -5.153701305389404297e-01 8.132529258728027344e+00 2.285147905349731445e+00 1.412137895822525024e-01
2.166000000000000000e+03 3.632372665405273438e+01 1.710448265075683594e+01 5.961357951164245605e-01 2.398608446121215820e+00 8.984232544898986816e-01 -4.637113511562347412e-01
2.167000000000000000e+03 7.226499176025390625e+01 1.558768367767333984e+01 1.318406164646148682e-01 8.646100997924804688e+00 2.633382320404052734e+00 3.549790978431701660e-01
2.168000000000000000e+03 4.414794158935546875e+01 -9.534873008728027344e+00 9.803417325019836426e-01 1.581368684768676758e+00 7.685131430625915527e-01 -1.066393494606018066e+00
2.169000000000000000e+03 4.515137100219726562e+01 -1.056099510192871094e+01 1.159611225128173828e+00 1.656876087188720703e+00 8.449462056159973145e-01 -1.125487446784973145e+00
2.170000000000000000e+03 7.536075592041015625e+01 3.221497344970703125e+01 -2.842478454113006592e-01 8.144176483154296875e+00 2.357978582382202148e+00 4.979224205017089844e-01
2.171000000000000000e+03 3.995742416381835938e+01 6.716116905212402344e+00 9.746947288513183594e-01 3.612623214721679688e+00 1.376195311546325684e+00 -8.960332274436950684e-01
2.172000000000000000e+03 4.520338439941406250e+01 -8.606191635131835938e+00 1.112649798393249512e+00 2.215672969818115234e+00 9.984968304634094238e-01 -1.475507497787475586e+00
2.173000000000000000e+03 5.240582942962646484e+00 -1.262147140502929688e+01 1.350440288661047816e-04 6.379820842994377017e-05 5.965267337160184979e-05 -2.218351437477394938e-05
2.174000000000000000e+03 5.076565742492675781e+00 -9.635323524475097656e+00 2.584855828899890184e-04 -3.240194473619339988e-06 7.657361857127398252e-05 1.395643485011532903e-04
2.175000000000000000e+03 7.022496223449707031e+00 2.502784347534179688e+01 6.523234397172927856e-02 -7.223793864250183105e-01 -1.971441209316253662e-01 4.687009379267692566e-02
2.176000000000000000e+03 5.726619243621826172e+00 2.444925689697265625e+01 5.173503980040550232e-02 -8.020595312118530273e-01 -2.250973582267761230e-01 5.254265666007995605e-02
2.177000000000000000e+03 5.915791988372802734e+00 -1.570027160644531250e+01 -8.976564276963472366e-05 -2.074054464173968881e-05 -3.315185676910914481e-05 -6.254086474655196071e-05
2.178000000000000000e+03 5.130436420440673828e+00 -1.475866413116455078e+01 1.571430329931899905e-04 1.843264471972361207e-04 1.024408411467447877e-04 9.773419878911226988e-05
2.179000000000000000e+03 6.106377124786376953e+00 -1.758136558532714844e+01 1.013172804960049689e-04 -5.745830276282504201e-05 1.315769350185291842e-05 2.984611091960687190e-05
2.180000000000000000e+03 6.286567687988281250e+00 -2.228350448608398438e+01 4.461026110220700502e-04 1.203562642331235111e-04 1.699376589385792613e-04 -1.281027471122797579e-05
2.181000000000000000e+03 3.883372783660888672e+00 -2.723282814025878906e+01 6.826940225437283516e-04 -1.191527117043733597e-04 1.690624048933386803e-04 2.192956890212371945e-04
2.182000000000000000e+03 5.525751590728759766e+00 1.847413253784179688e+01 7.536519318819046021e-02 -7.591820955276489258e-01 -2.051450759172439575e-01 1.672368347644805908e-01
2.183000000000000000e+03 5.399423122406005859e+00 1.707014274597167969e+01 7.580371201038360596e-02 -7.382957935333251953e-01 -1.987476348876953125e-01 1.978221535682678223e-01
2.184000000000000000e+03 5.427817344665527344e+00 2.678216552734375000e+01 2.816886454820632935e-02 -8.296765685081481934e-01 -2.404523193836212158e-01 2.273804880678653717e-02
2.185000000000000000e+03 5.141451358795166016e+00 1.438286495208740234e+01 6.778492778539657593e-02 -6.776183247566223145e-01 -1.829500198364257812e-01 2.566658258438110352e-01
2.186000000000000000e+03 6.710381984710693359e+00 -1.261192512512207031e+01 -2.324812521692365408e-04 3.513743286021053791e-05 -5.920314652030356228e-05 -1.206622400786727667e-04
2.187000000000000000e+03 4.972468852996826172e+00 -2.615438461303710938e+01 5.014137132093310356e-04 -1.684377930359914899e-04 9.989277896238490939e-05 5.218493970460258424e-05
2.188000000000000000e+03 4.799531936645507812e+00 -2.739653396606445312e+01 -7.620751421200111508e-05 3.260095545556396246e-04 7.494060992030426860e-05 2.172465174226090312e-04
2.189000000000000000e+03 5.320435523986816406e+00 3.313303375244140625e+01 1.310775056481361389e-02 -8.120443820953369141e-01 -2.396809905767440796e-01 -1.385464146733283997e-02
2.190000000000000000e+03 5.717792987823486328e+00 2.138236808776855469e+01 6.711506098508834839e-02 -7.861570119857788086e-01 -2.157125771045684814e-01 1.059469431638717651e-01
2.191000000000000000e+03 5.550802707672119141e+00 -3.264900970458984375e+01 8.682216866873204708e-04 3.407466692806337960e-06 2.614887489471584558e-04 5.549897905439138412e-04
2.192000000000000000e+03 5.883084297180175781e+00 2.792605018615722656e+01 2.965712919831275940e-02 -7.948837280273437500e-01 -2.295679748058319092e-01 7.805766072124242783e-03
2.193000000000000000e+03 3.925019741058349609e+00 1.064146327972412109e+01 1.729629375040531158e-02 -5.281459689140319824e-01 -1.532549113035202026e-01 2.687634527683258057e-01
2.194000000000000000e+03 4.030795574188232422e+00 9.580742835998535156e+00 6.852086633443832397e-03 -4.816042780876159668e-01 -1.424256563186645508e-01 2.845649123191833496e-01
2.195000000000000000e+03 4.980823993682861328e+00 1.063798522949218750e+01 2.944171614944934845e-02 -5.422117710113525391e-01 -1.538310050964355469e-01 3.213956654071807861e-01
2.196000000000000000e+03 5.765961170196533203e+00 -1.409002208709716797e+01 5.411350684880744666e-06 1.055089669534936547e-04 3.327609738335013390e-05 1.768404326867312193e-04
2.197000000000000000e+03 6.126207351684570312e+00 -1.323056030273437500e+01 1.285814323637168854e-05 -1.843357458710670471e-04 -5.144327951711602509e-05 -8.965006418293341994e-05
2.198000000000000000e+03 4.894124507904052734e+00 9.602746009826660156e+00 1.241887453943490982e-02 -4.983432590961456299e-01 -1.457773149013519287e-01 3.243013918399810791e-01
2.199000000000000000e+03 5.594038486480712891e+00 -6.663217544555664062e+00 -2.169752115150913596e-04 8.531400089850649238e-05 -3.949836172978393734e-05 -2.704787038965150714e-05
2.200000000000000000e+03 4.505542755126953125e+01 -7.559145450592041016e+00 1.068798661231994629e+00 2.417293310165405273e+00 1.045827507972717285e+00 -1.574054598808288574e+00
2.201000000000000000e+03 5.298754215240478516e+00 -8.544380187988281250e+00 -1.966950803762301803e-04 -3.920974995708093047e-05 -7.077144982758909464e-05 -9.031614899868145585e-05
2.202000000000000000e+03 6.280006885528564453e+00 -7.228032112121582031e+00 1.550851447973400354e-04 -9.265528206015005708e-05 1.872896064014639705e-05 -1.280718788621015847e-05
2.203000000000000000e+03 6.270832824707031250e+01 -1.700740432739257812e+01 6.620622873306274414e-01 9.553934335708618164e-01 4.852367043495178223e-01 1.398072600364685059e+00
2.204000000000000000e+03 6.283667755126953125e+01 -1.811627197265625000e+01 6.750172376632690430e-01 6.032487750053405762e-01 3.834798038005828857e-01 1.504271149635314941e+00
2.205000000000000000e+03 1.454391956329345703e+01 -1.129273605346679688e+01 1.892522850539535284e-04 6.702650716761127114e-05 7.688363984925672412e-05 -4.179242750979028642e-05
2.206000000000000000e+03 7.261326599121093750e+01 -6.966799736022949219e+00 -4.490698501467704773e-02 7.085932731628417969e+00 2.112307786941528320e+00 -4.681052640080451965e-02
2.207000000000000000e+03 7.513323211669921875e+01 -2.810994720458984375e+01 8.516119122505187988e-01 8.449193954467773438e+00 2.790241956710815430e+00 -1.019168019294738770e+00
2.208000000000000000e+03 6.538287353515625000e+01 -1.846886062622070312e+01 5.682031512260437012e-01 8.074991703033447266e-01 4.127106964588165283e-01 5.001775026321411133e-01
2.209000000000000000e+03 6.666317749023437500e+01 -1.810710334777832031e+01 5.181487798690795898e-01 1.410509943962097168e+00 5.785976648330688477e-01 -1.920671761035919189e-02
2.210000000000000000e+03 7.198268890380859375e+01 -5.019626140594482422e+00 1.106561347842216492e-01 7.727275848388671875e+00 2.351379632949829102e+00 2.635554075241088867e-01
2.211000000000000000e+03 7.426704406738281250e+01 -5.830186367034912109e+00 2.002318389713764191e-03 7.207493782043457031e+00 2.162848711013793945e+00 -3.957825303077697754e-01
2.212000000000000000e+03 7.450604248046875000e+01 2.390262222290039062e+01 2.106949687004089355e-01 7.990154743194580078e+00 2.460254907608032227e+00 5.563353300094604492e-01
2.213000000000000000e+03 7.333251190185546875e+01 2.254225540161132812e+01 2.099739909172058105e-01 8.125203132629394531e+00 2.500553131103515625e+00 3.970559537410736084e-01
2.214000000000000000e+03 7.340547943115234375e+01 1.406883907318115234e+01 -9.865242987871170044e-02 8.528059005737304688e+00 2.528821945190429688e+00 3.403912782669067383e-01
2.215000000000000000e+03 7.336938476562500000e+01 1.269179630279541016e+01 -2.705235779285430908e-01 8.678004264831542969e+00 2.522243976593017578e+00 3.158198595046997070e-01
2.216000000000000000e+03 3.819555282592773438e+01 2.392786788940429688e+01 1.156986653804779053e-01 2.203458786010742188e+00 6.957471966743469238e-01 -1.423894613981246948e-01
2.217000000000000000e+03 7.125049591064453125e+01 3.863239288330078125e+01 -1.540116816759109497e-01 5.057743072509765625e+00 1.471119403839111328e+00 -1.435356587171554565e-01
2.218000000000000000e+03 6.915376281738281250e+01 -3.849634933471679688e+01 5.247371643781661987e-02 2.646567583084106445e+00 8.097123503684997559e-01 4.075235724449157715e-01
2.219000000000000000e+03 6.970578002929687500e+01 -3.659114837646484375e+01 -4.149729907512664795e-01 3.306590318679809570e+00 8.674851655960083008e-01 6.136271357536315918e-01
2.220000000000000000e+03 7.330335998535156250e+01 2.552196502685546875e+01 2.619541287422180176e-01 7.704647541046142578e+00 2.389980554580688477e+00 5.178208351135253906e-01
2.221000000000000000e+03 6.949824523925781250e+01 -1.346365070343017578e+01 2.369888573884963989e-01 4.508008480072021484e+00 1.423499226570129395e+00 -6.769254337996244431e-03
2.222000000000000000e+03 3.809399795532226562e+01 -1.294913959503173828e+01 -6.328049302101135254e-01 -1.796142756938934326e-01 -2.437257617712020874e-01 5.575359463691711426e-01
2.223000000000000000e+03 6.798390865325927734e+00 -1.652228546142578125e+01 7.834390271455049515e-05 9.542104089632630348e-05 5.212948235566727817e-05 -8.837653876980766654e-05
2.224000000000000000e+03 6.265975952148437500e+00 -3.831847763061523438e+01 -4.209626640658825636e-04 1.152830780483782291e-03 2.195604320149868727e-04 8.609752694610506296e-05
2.225000000000000000e+03 1.099709606170654297e+01 -3.627206039428710938e+01 -3.470675728749483824e-04 1.119243330322206020e-03 2.316527243237942457e-04 2.339920727536082268e-03
2.226000000000000000e+03 6.172514343261718750e+01 -1.842971611022949219e+01 1.025070905685424805e+00 3.985589146614074707e-01 4.270889461040496826e-01 1.843038201332092285e+00
2.227000000000000000e+03 6.679838657379150391e+00 -1.466424465179443359e+01 -6.730687164235860109e-05 -2.230131067335605621e-04 -8.709599205758422613e-05 5.868580774404108524e-05
2.228000000000000000e+03 3.885917282104492188e+01 3.026278305053710938e+01 -2.453555762767791748e-01 1.765876054763793945e+00 4.561561644077301025e-01 -9.935081750154495239e-02
2.229000000000000000e+03 7.306063079833984375e+01 -2.099193811416625977e+00 4.069360494613647461e-01 8.447092056274414062e+00 2.656208276748657227e+00 1.577000506222248077e-02
2.230000000000000000e+03 3.760836410522460938e+01 8.824843406677246094e+00 1.093897104263305664e+00 2.801989316940307617e+00 1.168765902519226074e+00 -6.298357844352722168e-01
2.231000000000000000e+03 3.697150039672851562e+01 1.009824657440185547e+01 1.088956832885742188e+00 2.613026618957519531e+00 1.110594987869262695e+00 -6.329891681671142578e-01
2.232000000000000000e+03 4.753256225585937500e+01 4.115539932250976562e+01 -5.185745358467102051e-01 9.640423655509948730e-01 1.336403340101242065e-01 3.103219717741012573e-02
2.233000000000000000e+03 7.250154113769531250e+01 3.275440979003906250e+01 -5.874856114387512207e-01 6.466932296752929688e+00 1.763833999633789062e+00 3.739427924156188965e-01
2.234000000000000000e+03 7.414701843261718750e+01 3.158933830261230469e+01 -3.685311079025268555e-01 7.580166816711425781e+00 2.163490772247314453e+00 5.740306973457336426e-01
2.235000000000000000e+03 5.319483947753906250e+01 -2.160606193542480469e+01 -3.079237639904022217e-01 2.803080558776855469e+00 7.485470771789550781e-01 1.976288199424743652e+00
2.236000000000000000e+03 5.301448822021484375e+01 -2.187874794006347656e+01 -3.553489744663238525e-01 2.754436731338500977e+00 7.197263240814208984e-01 1.854934930801391602e+00
2.237000000000000000e+03 5.502191925048828125e+01 -2.102650260925292969e+01 -9.700635075569152832e-01 8.780741691589355469e+00 2.343203306198120117e+00 2.336537361145019531e+00
2.238000000000000000e+03 5.281129455566406250e+01 -2.152162361145019531e+01 -3.596451282501220703e-01 2.041806697845458984e+00 5.046484470367431641e-01 1.542415618896484375e+00
2.239000000000000000e+03 5.053776550292968750e+01 -2.421471595764160156e+01 8.232520893216133118e-03 1.578717350959777832e+00 4.760849773883819580e-01 1.720289140939712524e-01
2.240000000000000000e+03 5.167763519287109375e+01 -2.433155250549316406e+01 -8.068266510963439941e-02 2.591758728027343750e+00 7.533227801322937012e-01 5.531500577926635742e-01
2.241000000000000000e+03 5.631401062011718750e+01 -2.208304595947265625e+01 -9.409672021865844727e-01 7.042720317840576172e+00 1.830525994300842285e+00 3.313705623149871826e-01
2.242000000000000000e+03 5.616352462768554688e+01 -2.401447105407714844e+01 -1.408304929733276367e+00 6.149083614349365234e+00 1.422233581542968750e+00 1.015234470367431641e+00
2.243000000000000000e+03 5.576419830322265625e+01 -2.274100875854492188e+01 -1.438374280929565430e+00 7.006543159484863281e+00 1.670450687408447266e+00 1.065740942955017090e+00
2.244000000000000000e+03 5.342007827758789062e+01 -2.161916732788085938e+01 -3.626468479633331299e-01 3.385689020156860352e+00 9.069126248359680176e-01 2.076283454895019531e+00
2.245000000000000000e+03 1.141969108581542969e+01 -1.016445732116699219e+01 9.573935676598921418e-05 8.968691690824925900e-05 5.562788282986730337e-05 8.380508370464667678e-05
2.246000000000000000e+03 1.272012805938720703e+01 -1.015291595458984375e+01 9.854601375991478562e-05 1.303328026551753283e-04 6.866364856250584126e-05 1.112678546633105725e-05
2.247000000000000000e+03 4.942973709106445312e+01 -2.536754035949707031e+01 3.337506651878356934e-01 1.141446948051452637e+00 4.425592720508575439e-01 -2.475835531949996948e-01
2.248000000000000000e+03 2.153549957275390625e+01 6.295242905616760254e-01 -2.957128286361694336e-01 -8.837223649024963379e-01 -3.538305461406707764e-01 5.223582983016967773e-01
2.249000000000000000e+03 1.288703727722167969e+01 -7.212684631347656250e+00 -7.282805017894133925e-05 -7.145324343582615256e-05 -4.328438808443024755e-05 4.334128243499435484e-05
2.250000000000000000e+03 5.324256515502929688e+01 -2.663563156127929688e+01 3.309428095817565918e-01 4.806138515472412109e+00 1.541124343872070312e+00 3.715823888778686523e-01
2.251000000000000000e+03 5.220800399780273438e+01 -2.541381835937500000e+01 5.632354691624641418e-02 3.386642217636108398e+00 1.032889723777770996e+00 5.371919274330139160e-01
2.252000000000000000e+03 4.986825180053710938e+01 -2.578993988037109375e+01 4.292816519737243652e-01 1.554950833320617676e+00 5.952697396278381348e-01 -8.181213587522506714e-02
2.253000000000000000e+03 5.662802886962890625e+01 -2.254341888427734375e+01 -1.057729721069335938e+00 6.693960189819335938e+00 1.690869212150573730e+00 5.138971209526062012e-01
2.254000000000000000e+03 5.549137878417968750e+01 -2.447340011596679688e+01 -1.254684805870056152e+00 6.138927936553955078e+00 1.465272903442382812e+00 1.242202520370483398e+00
2.255000000000000000e+03 8.390153884887695312e+00 -1.093465137481689453e+01 1.363617629976943135e-04 -6.878472049720585346e-05 2.027310983976349235e-05 -1.780577294994145632e-04
2.256000000000000000e+03 5.364757537841796875e+00 6.989627838134765625e+00 -5.261083319783210754e-02 -3.755955398082733154e-01 -1.284619122743606567e-01 3.446623086929321289e-01
2.257000000000000000e+03 6.241691112518310547e+00 5.749798297882080078e+00 -1.230134740471839905e-01 -3.333067297935485840e-01 -1.368960589170455933e-01 3.904413580894470215e-01
2.258000000000000000e+03 9.461299896240234375e+00 4.725306034088134766e+00 -2.169447392225265503e-01 -4.783284366130828857e-01 -2.085819542407989502e-01 5.564942955970764160e-01
2.259000000000000000e+03 3.030317687988281250e+01 -1.178250217437744141e+01 -8.948434591293334961e-01 -1.899814009666442871e-01 -3.254474401473999023e-01 1.040459632873535156e+00
2.260000000000000000e+03 1.424577713012695312e+01 -7.645208835601806641e+00 -1.051490980898961425e-04 -3.842530350084416568e-05 -4.307231938582845032e-05 1.461827378079760820e-05
2.261000000000000000e+03 7.358259677886962891e+00 4.520353794097900391e+00 -2.193608582019805908e-01 -3.087968528270721436e-01 -1.584473103284835815e-01 4.389853477478027344e-01
2.262000000000000000e+03 5.737337589263916016e+00 5.247029304504394531e+00 -1.364443302154541016e-01 -2.867595553398132324e-01 -1.269611716270446777e-01 3.515986204147338867e-01
2.263000000000000000e+03 2.982024383544921875e+01 -1.112011241912841797e+01 -8.630603551864624023e-01 -2.171366661787033081e-01 -3.240590989589691162e-01 1.034422874450683594e+00
2.264000000000000000e+03 2.934462165832519531e+01 -1.047177982330322266e+01 -8.455390930175781250e-01 -2.422283887863159180e-01 -3.263302445411682129e-01 1.021447420120239258e+00
2.265000000000000000e+03 4.884423446655273438e+01 -2.597738838195800781e+01 4.042492210865020752e-01 9.912563562393188477e-01 4.186516702175140381e-01 -2.823544740676879883e-01
2.266000000000000000e+03 6.834435939788818359e+00 5.116158485412597656e+00 -1.739405095577239990e-01 -3.162182271480560303e-01 -1.470476239919662476e-01 4.153869152069091797e-01
2.267000000000000000e+03 5.004775238037109375e+01 -2.496355819702148438e+01 2.125738412141799927e-01 1.365150451660156250e+00 4.733172655105590820e-01 -4.029027186334133148e-03
2.268000000000000000e+03 2.887809753417968750e+01 -9.825537681579589844e+00 -8.421573638916015625e-01 -2.794623672962188721e-01 -3.364859223365783691e-01 9.995338320732116699e-01
2.269000000000000000e+03 4.690341949462890625e+01 -1.527275753021240234e+01 2.020313031971454620e-02 7.902128696441650391e-01 2.431247979402542114e-01 2.071392834186553955e-01
2.270000000000000000e+03 4.651585388183593750e+01 -1.625728225708007812e+01 -1.002880096435546875e+00 5.998054146766662598e-01 -1.209223940968513489e-01 5.758355259895324707e-01
2.271000000000000000e+03 5.321957015991210938e+01 -2.834321022033691406e+01 1.463303923606872559e+00 4.623762607574462891e+00 1.826119899749755859e+00 1.531894803047180176e-01
2.272000000000000000e+03 5.002380752563476562e+01 -2.967559814453125000e+01 1.006301403045654297e+00 2.081878185272216797e+00 9.264538884162902832e-01 3.875749409198760986e-01
2.273000000000000000e+03 3.031750488281250000e+01 -1.380806159973144531e+01 -1.075946688652038574e+00 -1.920378506183624268e-01 -3.803953826427459717e-01 9.688568115234375000e-01
2.274000000000000000e+03 3.358010101318359375e+01 -1.201217365264892578e+01 -8.065630793571472168e-01 -1.188321411609649658e-01 -2.776185572147369385e-01 9.541050195693969727e-01
2.275000000000000000e+03 4.745890045166015625e+01 -1.324686622619628906e+01 1.554906606674194336e+00 1.697695851325988770e+00 9.757807254791259766e-01 -9.143192768096923828e-01
2.276000000000000000e+03 4.829206848144531250e+01 -2.561186790466308594e+01 3.006771206855773926e-01 6.223372817039489746e-01 2.769043147563934326e-01 -4.477861523628234863e-01
2.277000000000000000e+03 7.011556625366210938e+00 -5.678030014038085938e+00 1.826484367484226823e-04 -2.713136927923187613e-05 4.665512096835300326e-05 5.789272108813747764e-05
2.278000000000000000e+03 7.021965503692626953e+00 -5.064218044281005859e+00 -8.047732990235090256e-05 2.330752977286465466e-05 -1.715094003884587437e-05 -9.014138049678876996e-05
2.279000000000000000e+03 7.606858730316162109e+00 -6.546227455139160156e+00 1.073948005796410143e-04 5.393298852141015232e-05 4.839833854930475354e-05 1.156249927589669824e-04
2.280000000000000000e+03 9.591124534606933594e+00 -5.936199665069580078e+00 1.012022403301671147e-04 1.357575911242747679e-05 3.443340028752572834e-05 -2.965340900118462741e-05
2.281000000000000000e+03 6.492915153503417969e+00 -5.383627891540527344e+00 -7.911320426501333714e-05 -2.878995701394160278e-06 -2.459765892126597464e-05 2.844066693796776235e-05
2.282000000000000000e+03 7.675286769866943359e+00 -5.716690063476562500e+00 -1.417222811141982675e-04 5.075524313724599779e-06 -4.099402940482832491e-05 -1.196788653032854199e-04
2.283000000000000000e+03 5.533653640747070312e+01 -2.180383682250976562e+01 -1.351690769195556641e+00 7.846605300903320312e+00 1.948474407196044922e+00 1.437842369079589844e+00
2.284000000000000000e+03 1.727715873718261719e+01 1.699284791946411133e+00 -4.424683749675750732e-01 -1.004817605018615723e+00 -4.341857731342315674e-01 7.038557529449462891e-01
2.285000000000000000e+03 1.718407821655273438e+01 3.808973789215087891e+00 -9.878802299499511719e-02 -9.151701927185058594e-01 -3.041874766349792480e-01 5.716274380683898926e-01
2.286000000000000000e+03 1.784242439270019531e+01 2.229173898696899414e+00 -3.049489557743072510e-01 -9.851968288421630859e-01 -3.870437443256378174e-01 6.388555765151977539e-01
2.287000000000000000e+03 2.667543983459472656e+01 -6.593408584594726562e+00 -8.117537498474121094e-01 -5.260375142097473145e-01 -4.013373851776123047e-01 8.302933573722839355e-01
2.288000000000000000e+03 2.504084205627441406e+01 -4.052598476409912109e+00 -6.999137401580810547e-01 -6.976383924484252930e-01 -4.192656576633453369e-01 6.873124837875366211e-01
2.289000000000000000e+03 4.237179946899414062e+01 -1.518664932250976562e+01 -1.112392902374267578e+00 4.629132747650146484e-01 -1.948439031839370728e-01 4.643099904060363770e-01
2.290000000000000000e+03 2.231342697143554688e+01 -2.128164052963256836e+00 -6.753431558609008789e-01 -9.942698478698730469e-01 -5.008838772773742676e-01 7.061705589294433594e-01
2.291000000000000000e+03 1.717629432678222656e+01 2.728470563888549805e+00 -2.639068067073822021e-01 -9.596923589706420898e-01 -3.670797646045684814e-01 6.362332105636596680e-01
2.292000000000000000e+03 2.199680900573730469e+01 -9.727767109870910645e-01 -5.309615731239318848e-01 -9.421070814132690430e-01 -4.419206082820892334e-01 6.238309144973754883e-01
2.293000000000000000e+03 8.447136878967285156e+00 -4.896746158599853516e+00 -9.993032290367409587e-05 -1.138224615715444088e-05 -3.339377144584432244e-05 -9.303809929406270385e-05
2.294000000000000000e+03 8.096341133117675781e+00 6.043846607208251953e+00 -1.157831847667694092e-01 -4.402492046356201172e-01 -1.668097078800201416e-01 4.856325089931488037e-01
2.295000000000000000e+03 5.789451980590820312e+01 -2.239013099670410156e+01 1.787192188203334808e-02 4.346076011657714844e+00 1.309184312820434570e+00 6.221253424882888794e-02
2.296000000000000000e+03 2.753728675842285156e+01 -7.880787849426269531e+00 -8.326616287231445312e-01 -4.190485477447509766e-01 -3.755130469799041748e-01 9.045850634574890137e-01
2.297000000000000000e+03 2.842234992980957031e+01 -9.178078651428222656e+00 -8.363615274429321289e-01 -3.213664293289184570e-01 -3.473183810710906982e-01 9.712650775909423828e-01
2.298000000000000000e+03 4.674147415161132812e+01 -1.462698745727539062e+01 4.142089486122131348e-01 1.013579368591308594e+00 4.283365011215209961e-01 -6.121851876378059387e-02
2.299000000000000000e+03 1.544268226623535156e+01 -8.113488197326660156e+00 -4.555526538752019405e-05 6.831023347331210971e-05 6.826489425293402746e-06 -5.854588744114153087e-05
2.300000000000000000e+03 1.478596782684326172e+01 -8.758011817932128906e+00 1.103112444980069995e-04 5.747917748522013426e-05 5.033712659496814013e-05 -7.795310375513508916e-05
2.301000000000000000e+03 4.148848724365234375e+01 -1.505639457702636719e+01 -1.179221749305725098e+00 2.420928776264190674e-01 -2.811386585235595703e-01 4.339264929294586182e-01
2.302000000000000000e+03 4.710503768920898438e+01 -2.684371376037597656e+01 3.039274811744689941e-01 3.373103737831115723e-01 1.923713535070419312e-01 -5.169900655746459961e-01
2.303000000000000000e+03 3.004180717468261719e+01 -8.642094612121582031e+00 -6.957653164863586426e-01 -1.174055263400077820e-01 -2.439512610435485840e-01 8.773466348648071289e-01
2.304000000000000000e+03 2.583699798583984375e+01 -5.332748413085937500e+00 -7.710558772087097168e-01 -6.246412992477416992e-01 -4.187091588973999023e-01 7.586832046508789062e-01
2.305000000000000000e+03 1.494068527221679688e+01 -1.043988609313964844e+01 -1.659567933529615402e-04 -3.086416472797282040e-05 -5.904628778807818890e-05 1.581528704264201224e-05
2.306000000000000000e+03 1.850678443908691406e+01 1.720188736915588379e+00 -3.454691767692565918e-01 -1.003543019294738770e+00 -4.047036468982696533e-01 6.399780511856079102e-01
2.307000000000000000e+03 1.915949821472167969e+01 1.203835606575012207e+00 -3.875244259834289551e-01 -1.017522335052490234e+00 -4.215140342712402344e-01 6.396393179893493652e-01
2.308000000000000000e+03 2.466998291015625000e+01 -3.364731311798095703e+00 -6.452513337135314941e-01 -7.160673141479492188e-01 -4.083955883979797363e-01 6.492206454277038574e-01
2.309000000000000000e+03 2.140922355651855469e+01 -7.492312192916870117e-01 -5.570672750473022461e-01 -1.016873240470886230e+00 -4.721821546554565430e-01 6.465635895729064941e-01
2.310000000000000000e+03 1.451008510589599609e+01 4.566089630126953125e+00 -1.253593564033508301e-01 -8.314638137817382812e-01 -2.870469689369201660e-01 6.192008256912231445e-01
2.311000000000000000e+03 1.520745849609375000e+01 4.170574665069580078e+00 -1.514372378587722778e-01 -8.627145290374755859e-01 -3.042455315589904785e-01 6.208566427230834961e-01
2.312000000000000000e+03 7.330503082275390625e+01 1.133067035675048828e+01 -3.431420326232910156e-01 8.880395889282226562e+00 2.561176300048828125e+00 4.831574857234954834e-01
2.313000000000000000e+03 8.597795486450195312e+00 -7.068773269653320312e+00 9.909739310387521982e-05 -3.524314524838700891e-05 1.915627399284858257e-05 7.019704935373738408e-05
2.314000000000000000e+03 1.367074871063232422e+01 -6.799213409423828125e+00 -1.234848168678581715e-04 1.740405241434928030e-05 -3.182423097314313054e-05 4.198505484964698553e-05
2.315000000000000000e+03 1.084144592285156250e+01 4.885669231414794922e+00 -1.937971860170364380e-01 -5.979082584381103516e-01 -2.375116199254989624e-01 6.036543846130371094e-01
2.316000000000000000e+03 1.371940612792968750e+01 4.540184974670410156e+00 -1.537414640188217163e-01 -7.915807366371154785e-01 -2.835966646671295166e-01 6.319952011108398438e-01
2.317000000000000000e+03 5.412020874023437500e+01 -2.236320114135742188e+01 -9.387047290802001953e-01 5.291300773620605469e+00 1.305778861045837402e+00 2.140721321105957031e+00
2.318000000000000000e+03 8.390700340270996094e+00 -1.219552230834960938e+01 1.355372933176113293e-05 -9.183762449538335204e-05 -2.348517045902553946e-05 -1.067407283699139953e-04
2.319000000000000000e+03 5.961512088775634766e+00 -1.169283390045166016e+01 5.896522998227737844e-05 -2.286917879246175289e-05 1.082881590264150873e-05 1.703668676782399416e-04
2.320000000000000000e+03 4.439513015747070312e+01 -5.376019954681396484e+00 8.476311564445495605e-01 2.625509262084960938e+00 1.041942119598388672e+00 -1.560949325561523438e+00
2.321000000000000000e+03 7.339083862304687500e+01 -1.870924377441406250e+01 -7.442759275436401367e-01 7.192606925964355469e+00 1.934499263763427734e+00 -3.289309740066528320e-01
2.322000000000000000e+03 6.924922943115234375e+01 -1.634536933898925781e+01 1.752017438411712646e-01 3.779458761215209961e+00 1.186398148536682129e+00 -5.847583413124084473e-01
2.323000000000000000e+03 4.634622955322265625e+01 -2.748658370971679688e+01 1.994493901729583740e-01 1.128504648804664612e-01 9.368995577096939087e-02 -4.621674418449401855e-01
2.324000000000000000e+03 4.344089889526367188e+01 -3.152421951293945312e+00 6.967487931251525879e-01 2.721641540527343750e+00 1.025517106056213379e+00 -1.458134412765502930e+00
2.325000000000000000e+03 4.323791885375976562e+01 -5.591747760772705078e+00 7.711604833602905273e-01 2.215720891952514648e+00 8.960644006729125977e-01 -1.303784251213073730e+00
2.326000000000000000e+03 4.065433120727539062e+01 -2.989269047975540161e-02 6.059420704841613770e-01 2.599007129669189453e+00 9.614847302436828613e-01 -1.049589514732360840e+00
2.327000000000000000e+03 4.222159194946289062e+01 -3.441505908966064453e+00 6.515348553657531738e-01 2.362768888473510742e+00 9.042910933494567871e-01 -1.227020978927612305e+00
2.328000000000000000e+03 5.471741485595703125e+01 -2.479608726501464844e+01 -1.012928724288940430e+00 5.842267513275146484e+00 1.448801517486572266e+00 1.120693922042846680e+00
2.329000000000000000e+03 1.357199859619140625e+01 -1.075845050811767578e+01 -1.189982358482666314e-04 -1.300704898312687874e-04 -7.472061406588181853e-05 3.973210550611838698e-05
2.330000000000000000e+03 1.403379917144775391e+01 -9.990730285644531250e+00 1.276734983548521996e-04 8.247543155448511243e-05 6.304468115558847785e-05 -4.375573189463466406e-05
2.331000000000000000e+03 4.775220489501953125e+01 -2.622205352783203125e+01 3.397966623306274414e-01 5.427939891815185547e-01 2.647772133350372314e-01 -4.504976570606231689e-01
2.332000000000000000e+03 4.134949207305908203e+00 6.658951759338378906e+00 -5.549250915646553040e-02 -3.159273266792297363e-01 -1.114259511232376099e-01 2.797059714794158936e-01
2.333000000000000000e+03 1.525512695312500000e+01 -9.688794136047363281e+00 1.480618520872667432e-04 2.722973295021802187e-05 5.258747842162847519e-05 -1.259824875887716189e-05
2.334000000000000000e+03 1.314633655548095703e+01 5.972051143646240234e+00 -2.229606173932552338e-02 -7.497934699058532715e-01 -2.316268533468246460e-01 5.890878438949584961e-01
2.335000000000000000e+03 1.131445217132568359e+01 5.822090148925781250e+00 -9.767511487007141113e-02 -6.519077420234680176e-01 -2.248748540878295898e-01 5.968796610832214355e-01
2.336000000000000000e+03 4.214281082153320312e+01 -5.887641906738281250e+00 7.540673017501831055e-01 1.846325039863586426e+00 7.801176905632019043e-01 -1.090758562088012695e+00
2.337000000000000000e+03 3.971163558959960938e+01 -1.502432537078857422e+01 -1.332984685897827148e+00 -2.288053631782531738e-01 -4.685370028018951416e-01 4.835121333599090576e-01
2.338000000000000000e+03 3.890795898437500000e+01 -1.399694252014160156e+01 -9.084020256996154785e-01 -2.330695688724517822e-01 -3.424414694309234619e-01 5.299652814865112305e-01
2.339000000000000000e+03 3.706680679321289062e+01 -1.389303207397460938e+01 -1.016459941864013672e+00 -3.428827524185180664e-01 -4.078028202056884766e-01 7.615812420845031738e-01
2.340000000000000000e+03 4.007034683227539062e+01 1.108983516693115234e+00 6.061941385269165039e-01 2.677359342575073242e+00 9.850660562515258789e-01 -9.544788002967834473e-01
2.341000000000000000e+03 3.106407546997070312e+01 -9.767899513244628906e+00 -6.980631351470947266e-01 -8.517662435770034790e-02 -2.349719256162643433e-01 9.297090172767639160e-01
2.342000000000000000e+03 4.172353744506835938e+01 -2.317434787750244141e+00 6.284554600715637207e-01 2.437000513076782227e+00 9.196368455886840820e-01 -1.187845110893249512e+00
2.343000000000000000e+03 5.367477035522460938e+01 -2.429244232177734375e+01 -7.599468231201171875e-01 4.857975959777832031e+00 1.229408740997314453e+00 1.222105145454406738e+00
2.344000000000000000e+03 5.137266540527343750e+01 -2.487582969665527344e+01 9.386254847049713135e-02 2.359233617782592773e+00 7.359288930892944336e-01 3.867341876029968262e-01
2.345000000000000000e+03 4.311357498168945312e+01 -1.041921806335449219e+01 7.264875769615173340e-01 1.081520915031433105e+00 5.424025654792785645e-01 -6.554883718490600586e-01
2.346000000000000000e+03 4.410632705688476562e+01 -1.046172237396240234e+01 9.610336422920227051e-01 1.392823934555053711e+00 7.061572670936584473e-01 -9.102152585983276367e-01
2.347000000000000000e+03 4.456700897216796875e+01 -3.555979156494140625e+01 2.590191066265106201e-01 2.381284683942794800e-01 1.491442620754241943e-01 4.164723157882690430e-01
2.348000000000000000e+03 4.598727798461914062e+01 -3.092286872863769531e+01 1.551738828420639038e-01 3.767969310283660889e-01 1.595912426710128784e-01 2.874110937118530273e-01
2.349000000000000000e+03 8.690921783447265625e+00 -3.471645355224609375e+01 4.131695022806525230e-04 5.001447279937565327e-04 2.739942574407905340e-04 1.718818908557295799e-03
2.350000000000000000e+03 3.820489120483398438e+01 7.543374538421630859e+00 1.045305371284484863e+00 2.962554454803466797e+00 1.202357888221740723e+00 -6.758844852447509766e-01
2.351000000000000000e+03 3.996981811523437500e+01 3.824602127075195312e+00 7.597261667251586914e-01 3.089350938796997070e+00 1.154723167419433594e+00 -9.296140074729919434e-01
2.352000000000000000e+03 6.746559143066406250e+00 -3.014419174194335938e+01 1.484748558141291142e-03 -1.011355125228874385e-04 4.150839231442660093e-04 5.082148127257823944e-04
2.353000000000000000e+03 7.163353443145751953e+00 -3.282811737060546875e+01 8.962866850197315216e-04 1.271166547667235136e-04 3.070209932047873735e-04 1.290409709326922894e-03
2.354000000000000000e+03 4.429712677001953125e+01 -1.435133171081542969e+01 -2.141966670751571655e-01 6.714524626731872559e-01 1.371767371892929077e-01 2.326596379280090332e-01
2.355000000000000000e+03 6.654381561279296875e+01 -1.677105712890625000e+01 6.543055176734924316e-01 1.921316981315612793e+00 7.726867794990539551e-01 1.756508797407150269e-01
2.356000000000000000e+03 6.786175537109375000e+01 -1.494051647186279297e+01 5.586475729942321777e-01 3.191859483718872070e+00 1.125152111053466797e+00 9.374720603227615356e-02
2.357000000000000000e+03 9.926756858825683594e+00 2.798523139953613281e+01 7.346534729003906250e-02 -5.170906782150268555e-01 -1.330876052379608154e-01 -1.390648167580366135e-02
2.358000000000000000e+03 1.031565666198730469e+01 3.259919357299804688e+01 1.874268613755702972e-02 -4.492137432098388672e-01 -1.291413158178329468e-01 -5.038450658321380615e-02
2.359000000000000000e+03 7.460317230224609375e+01 -1.844846153259277344e+01 -6.138417720794677734e-01 7.342133522033691406e+00 2.018487453460693359e+00 -4.518467187881469727e-02
2.360000000000000000e+03 7.462940979003906250e+01 1.534286308288574219e+01 -9.688108228147029877e-03 8.160908699035644531e+00 2.445366144180297852e+00 4.007723331451416016e-01
2.361000000000000000e+03 7.470769500732421875e+01 1.668070602416992188e+01 1.994134858250617981e-02 8.148692131042480469e+00 2.450590133666992188e+00 4.110544025897979736e-01
2.362000000000000000e+03 7.481832885742187500e+01 1.789354133605957031e+01 6.945850700139999390e-02 8.114516258239746094e+00 2.455192565917968750e+00 4.379361867904663086e-01
2.363000000000000000e+03 7.448022460937500000e+01 -3.427484989166259766e+00 1.985074877738952637e-01 7.567168712615966797e+00 2.329702854156494141e+00 -3.548524081707000732e-01
2.364000000000000000e+03 7.435781097412109375e+01 -7.029438018798828125e-01 4.876851737499237061e-01 8.029218673706054688e+00 2.555071353912353516e+00 -1.283397227525711060e-01
2.365000000000000000e+03 7.439115142822265625e+01 -1.588681125640869141e+01 -4.707422256469726562e-01 6.827501296997070312e+00 1.907027721405029297e+00 -3.231162428855895996e-01
2.366000000000000000e+03 7.189213562011718750e+01 -8.236598968505859375e+00 -2.940677478909492493e-02 6.691463470458984375e+00 1.998617053031921387e+00 7.563652843236923218e-02
2.367000000000000000e+03 7.572927856445312500e+01 6.715247154235839844e+00 1.840628981590270996e-01 7.673124790191650391e+00 2.357156276702880859e+00 6.105597615242004395e-01
2.368000000000000000e+03 7.060410308837890625e+01 -1.490680599212646484e+01 -4.593783989548683167e-02 4.954315662384033203e+00 1.472513318061828613e+00 -4.429223835468292236e-01
2.369000000000000000e+03 7.447558593750000000e+01 -1.719997406005859375e+01 -5.442081689834594727e-01 7.057776451110839844e+00 1.954070448875427246e+00 -1.889172494411468506e-01
2.370000000000000000e+03 7.561802673339843750e+01 2.081994438171386719e+01 9.103155881166458130e-02 8.063232421875000000e+00 2.446279048919677734e+00 4.771821498870849609e-01
2.371000000000000000e+03 8.287251472473144531e+00 2.111011314392089844e+01 1.253119111061096191e-01 -6.544625163078308105e-01 -1.587451845407485962e-01 1.228806450963020325e-01
2.372000000000000000e+03 6.917036437988281250e+01 -1.889404106140136719e+01 -4.580989852547645569e-02 2.940357685089111328e+00 8.683643341064453125e-01 -1.282598853111267090e+00
2.373000000000000000e+03 8.218062400817871094e+00 3.325555801391601562e+01 8.588255383074283600e-03 -5.925045013427734375e-01 -1.751748621463775635e-01 -2.950120903551578522e-02
2.374000000000000000e+03 5.390563488006591797e+00 2.572194480895996094e+01 3.843753784894943237e-02 -8.276689052581787109e-01 -2.367694228887557983e-01 3.080802969634532928e-02
2.375000000000000000e+03 4.236337184906005859e+00 -2.019155883789062500e+01 -4.819133027922362089e-04 5.763832450611516833e-05 -1.272824883926659822e-04 -2.160038711735978723e-04
2.376000000000000000e+03 4.475153446197509766e+00 -2.140287208557128906e+01 4.956214688718318939e-04 1.794306008378043771e-04 2.025156136369332671e-04 1.917588379001244903e-04
2.377000000000000000e+03 7.641942024230957031e+00 -1.022068119049072266e+01 1.453267213946674019e-05 3.449924042797647417e-05 1.470957340643508360e-05 1.525091065559536219e-04
2.378000000000000000e+03 5.223732948303222656e+00 -1.069606304168701172e+01 -1.724297762848436832e-04 -2.678120654309168458e-05 -5.976329339318908751e-05 -1.345436612609773874e-04
2.379000000000000000e+03 6.623201847076416016e+00 1.688902091979980469e+01 1.057409569621086121e-01 -6.981035470962524414e-01 -1.777087748050689697e-01 2.228587716817855835e-01
2.380000000000000000e+03 5.257252693176269531e+00 1.571622943878173828e+01 7.380332797765731812e-02 -7.119253277778625488e-01 -1.914366036653518677e-01 2.271154522895812988e-01
2.381000000000000000e+03 6.404124736785888672e+00 1.555899524688720703e+01 1.050364822149276733e-01 -6.845877766609191895e-01 -1.738653779029846191e-01 2.549175322055816650e-01
2.382000000000000000e+03 6.441159725189208984e+00 -8.983965873718261719e+00 1.788205845514312387e-04 4.213645661366172135e-05 6.628710980294272304e-05 4.797469955519773066e-05
2.383000000000000000e+03 6.242213726043701172e+00 1.428865718841552734e+01 9.437552094459533691e-02 -6.597846150398254395e-01 -1.696227192878723145e-01 2.894604504108428955e-01
2.384000000000000000e+03 5.071219444274902344e+00 1.307630634307861328e+01 5.757614597678184509e-02 -6.350399851799011230e-01 -1.732391417026519775e-01 2.829928398132324219e-01
2.385000000000000000e+03 6.070856094360351562e+01 -1.878546714782714844e+01 1.561772465705871582e+00 1.873115301132202148e-01 5.247251987457275391e-01 1.996913433074951172e+00
2.386000000000000000e+03 6.900283813476562500e+00 1.976561355590820312e+01 1.031946167349815369e-01 -7.166338562965393066e-01 -1.840317696332931519e-01 1.511843502521514893e-01
2.387000000000000000e+03 5.627489566802978516e+00 1.991660881042480469e+01 7.219429314136505127e-02 -7.759143114089965820e-01 -2.111160010099411011e-01 1.359082013368606567e-01
2.388000000000000000e+03 3.584357070922851562e+01 1.820451354980468750e+01 5.365018844604492188e-01 2.218794584274291992e+00 8.265889286994934082e-01 -4.609966278076171875e-01
2.389000000000000000e+03 3.575769805908203125e+01 1.393498039245605469e+01 8.590915799140930176e-01 2.346640348434448242e+00 9.617196321487426758e-01 -5.967894196510314941e-01
2.390000000000000000e+03 8.597340583801269531e+00 -3.320217132568359375e+01 1.021265401504933834e-03 -2.024675632128491998e-04 2.456393558531999588e-04 1.221002894453704357e-03
2.391000000000000000e+03 8.715847015380859375e+00 2.719175910949707031e+01 6.950671225786209106e-02 -5.993372797966003418e-01 -1.589491814374923706e-01 7.722934707999229431e-03
2.392000000000000000e+03 5.038583278656005859e+00 6.302448749542236328e+00 -7.903787493705749512e-02 -3.205882608890533447e-01 -1.198878362774848938e-01 3.228133618831634521e-01
2.393000000000000000e+03 5.863600254058837891e+00 9.304966926574707031e+00 1.324293483048677444e-02 -5.016740560531616211e-01 -1.465293318033218384e-01 3.723159432411193848e-01
2.394000000000000000e+03 1.064079761505126953e+01 -1.203824138641357422e+01 -1.229354384122416377e-04 8.271088154288008809e-05 -1.206736669701058418e-05 1.113824982894584537e-04
2.395000000000000000e+03 6.185895919799804688e+00 1.302911853790283203e+01 7.928157597780227661e-02 -6.296229958534240723e-01 -1.651024222373962402e-01 3.167538642883300781e-01
2.396000000000000000e+03 6.851782321929931641e+00 -1.087340164184570312e+01 5.749372212449088693e-05 -5.996219442749861628e-06 1.544925180496647954e-05 -1.088736389647237957e-04
2.397000000000000000e+03 4.571690750122070312e+01 -1.262459945678710938e+01 1.110922694206237793e+00 1.314131140708923340e+00 7.275161147117614746e-01 -6.980894804000854492e-01
2.398000000000000000e+03 6.774841785430908203e+00 -6.423284530639648438e+00 -1.758846192387863994e-04 -1.253694335900945589e-05 -5.652646723319776356e-05 -5.109301127959042788e-05
2.399000000000000000e+03 7.116322517395019531e+00 1.045186710357666016e+01 6.604348123073577881e-02 -5.718241930007934570e-01 -1.517342180013656616e-01 3.971252739429473877e-01
2.400000000000000000e+03 6.952475547790527344e+00 -1.358553981781005859e+01 2.842258254531770945e-04 1.423028006684035063e-04 1.279585849260911345e-04 -4.904220259049907327e-05
2.401000000000000000e+03 7.309252929687500000e+01 -5.504550457000732422e+00 3.278983756899833679e-02 7.493632793426513672e+00 2.257926940917968750e+00 -1.536750495433807373e-01
2.402000000000000000e+03 3.685468673706054688e+01 1.319247722625732422e+01 9.078267216682434082e-01 2.753124475479125977e+00 1.098285317420959473e+00 -6.394089460372924805e-01
2.403000000000000000e+03 6.320249176025390625e+01 -1.599946117401123047e+01 7.707774043083190918e-01 1.184791207313537598e+00 5.866705775260925293e-01 1.176793456077575684e+00
2.404000000000000000e+03 7.337615966796875000e+01 1.761491417884826660e+00 6.829670667648315430e-01 9.115451812744140625e+00 2.939525604248046875e+00 2.963389754295349121e-01
2.405000000000000000e+03 1.546110248565673828e+01 -9.054018974304199219e+00 -1.426528033334761858e-04 -5.975330736873729620e-07 -4.297509804018773139e-05 1.147771126852603629e-05
2.406000000000000000e+03 6.995429229736328125e+01 -1.204360198974609375e+01 1.557799875736236572e-01 5.004842758178710938e+00 1.548186898231506348e+00 1.497124880552291870e-01
2.407000000000000000e+03 7.321071624755859375e+01 3.400341796875000000e+01 -4.765645563602447510e-01 6.907284259796142578e+00 1.929216027259826660e+00 2.502422928810119629e-01
2.408000000000000000e+03 7.125916290283203125e+01 -9.401060104370117188e+00 -1.367854140698909760e-02 6.190072059631347656e+00 1.852918028831481934e+00 1.769783794879913330e-01
2.409000000000000000e+03 3.753566741943359375e+01 2.078993606567382812e+01 2.938896119594573975e-01 2.423795938491821289e+00 8.153057098388671875e-01 -2.517738938331604004e-01
2.410000000000000000e+03 3.594831466674804688e+01 1.956769180297851562e+01 4.222618937492370605e-01 2.177230596542358398e+00 7.798477411270141602e-01 -4.028480350971221924e-01
2.411000000000000000e+03 7.299896240234375000e+01 -1.205167770385742188e+01 -1.651759445667266846e-01 6.214561939239501953e+00 1.814815759658813477e+00 -3.435474038124084473e-01
2.412000000000000000e+03 7.952787876129150391e+00 -2.928174018859863281e+01 -1.818632881622761488e-04 -6.081375977373681962e-05 -7.280311547219753265e-05 1.422707282472401857e-04
2.413000000000000000e+03 3.936529159545898438e+01 2.189367675781250000e+01 2.141543626785278320e-01 2.571236848831176758e+00 8.356173634529113770e-01 -1.588415727019309998e-02
2.414000000000000000e+03 9.078208923339843750e+00 -6.249740123748779297e+00 9.690020669950172305e-05 -2.661932558112312108e-05 2.108426451741252095e-05 9.677420894149690866e-05
2.415000000000000000e+03 9.921952247619628906e+00 -1.107978439331054688e+01 1.251660287380218506e-04 -9.161783236777409911e-05 1.006446018436690792e-05 -9.742713882587850094e-05
2.416000000000000000e+03 4.394334411621093750e+01 -7.620347499847412109e+00 9.256058931350708008e-01 1.995414018630981445e+00 8.763059973716735840e-01 -1.292553305625915527e+00
2.417000000000000000e+03 4.410366439819335938e+01 -8.591700553894042969e+00 1.012707471847534180e+00 1.833284139633178711e+00 8.537974953651428223e-01 -1.237869977951049805e+00
2.418000000000000000e+03 7.071926116943359375e+01 -1.357140541076660156e+01 1.045649312436580658e-02 5.163873672485351562e+00 1.552299141883850098e+00 -2.200188636779785156e-01
2.419000000000000000e+03 7.189960479736328125e+01 -1.354120922088623047e+01 -1.605428457260131836e-01 5.752677440643310547e+00 1.677640438079833984e+00 -3.589952588081359863e-01
2.420000000000000000e+03 5.190895080566406250e+01 -3.059848976135253906e+01 1.539804458618164062e+00 3.404472112655639648e+00 1.483282923698425293e+00 7.568752765655517578e-01
2.421000000000000000e+03 4.616254425048828125e+01 -2.906530952453613281e+01 1.438681483268737793e-01 2.078302353620529175e-01 1.055095121264457703e-01 -1.915287822484970093e-01
2.422000000000000000e+03 4.160196685791015625e+01 2.802996253967285156e+01 -7.000958174467086792e-02 1.935562372207641602e+00 5.596658587455749512e-01 1.356336176395416260e-01
2.423000000000000000e+03 5.067633438110351562e+01 -2.687409782409667969e+01 6.735039949417114258e-01 2.195463657379150391e+00 8.606902956962585449e-01 5.713611468672752380e-02
2.424000000000000000e+03 3.646969223022460938e+01 2.438260650634765625e+01 1.089309826493263245e-01 1.979183793067932129e+00 6.264344453811645508e-01 -2.709062695503234863e-01
2.425000000000000000e+03 7.482395172119140625e+01 -2.064036178588867188e+01 -3.800202012062072754e-01 7.794298171997070312e+00 2.224283456802368164e+00 3.423532247543334961e-01
2.426000000000000000e+03 4.467300415039062500e+01 3.507254409790039062e+01 -4.364947676658630371e-01 1.363619327545166016e+00 2.781373560428619385e-01 1.210462078452110291e-01
2.427000000000000000e+03 3.985274505615234375e+01 3.266349411010742188e+01 -3.765510618686676025e-01 1.651217103004455566e+00 3.823998272418975830e-01 -3.572299703955650330e-02
2.428000000000000000e+03 6.285697460174560547e+00 -2.370540046691894531e+01 -5.698230816051363945e-04 1.094915933208540082e-04 -1.380994508508592844e-04 -3.385428499314002693e-05
2.429000000000000000e+03 5.289212799072265625e+01 -2.254846572875976562e+01 -4.778694808483123779e-01 3.080866575241088867e+00 7.808991074562072754e-01 1.610643863677978516e+00
2.430000000000000000e+03 5.258932495117187500e+01 -2.327610015869140625e+01 -4.632503986358642578e-01 3.079963207244873047e+00 7.850138545036315918e-01 1.263914465904235840e+00
2.431000000000000000e+03 5.067287826538085938e+01 -2.481655502319335938e+01 1.804897338151931763e-01 1.922292470932006836e+00 6.308346390724182129e-01 9.356332570314407349e-02
2.432000000000000000e+03 1.196567440032958984e+01 -7.220404148101806641e+00 -1.357433575321920216e-05 -5.229301677900366485e-05 -1.976020575966686010e-05 -5.939928996667731553e-06
2.433000000000000000e+03 5.435014724731445312e+01 -2.288152885437011719e+01 -1.149038553237915039e+00 5.627580642700195312e+00 1.343562602996826172e+00 1.914121389389038086e+00
2.434000000000000000e+03 5.388656234741210938e+01 -2.503247642517089844e+01 -6.902552247047424316e-01 5.170430660247802734e+00 1.344052672386169434e+00 9.580742716789245605e-01
2.435000000000000000e+03 5.205234909057617188e+01 -2.386755752563476562e+01 -2.695696949958801270e-01 2.719581127166748047e+00 7.350034117698669434e-01 8.378430604934692383e-01
2.436000000000000000e+03 5.581729125976562500e+01 -2.223935890197753906e+01 -1.277742385864257812e+00 7.251760959625244141e+00 1.792205572128295898e+00 9.770232439041137695e-01
2.437000000000000000e+03 5.790986537933349609e+00 6.389060974121093750e+00 -8.288456499576568604e-02 -3.550319075584411621e-01 -1.313749402761459351e-01 3.689311146736145020e-01
2.438000000000000000e+03 3.155663681030273438e+01 -1.177485561370849609e+01 -8.735311627388000488e-01 -1.292579323053359985e-01 -3.008367419242858887e-01 1.013674020767211914e+00
2.439000000000000000e+03 5.045470809936523438e+01 -2.764511489868164062e+01 8.506968617439270020e-01 2.251484870910644531e+00 9.306545257568359375e-01 1.062532737851142883e-01
2.440000000000000000e+03 9.565972328186035156e+00 -7.545799732208251953e+00 1.079235298675484955e-04 -1.693344529485329986e-05 2.729702464421279728e-05 9.910958760883659124e-05
2.441000000000000000e+03 5.075423431396484375e+01 -2.570792388916015625e+01 3.350219726562500000e-01 2.170469760894775391e+00 7.516475319862365723e-01 9.979711472988128662e-02
2.442000000000000000e+03 2.995038032531738281e+01 -9.868669509887695312e+00 -7.814081907272338867e-01 -1.731488704681396484e-01 -2.863671183586120605e-01 9.748380780220031738e-01
2.443000000000000000e+03 7.115084171295166016e+00 6.909576892852783203e+00 -7.377471029758453369e-02 -4.315898120403289795e-01 -1.516093611717224121e-01 4.446745216846466064e-01
2.444000000000000000e+03 5.313203430175781250e+01 -2.304144096374511719e+01 -5.785640478134155273e-01 3.639255523681640625e+00 9.182074666023254395e-01 1.566943049430847168e+00
2.445000000000000000e+03 5.439271545410156250e+01 -2.343332481384277344e+01 -1.149407982826232910e+00 5.627693176269531250e+00 1.343485474586486816e+00 1.612688899040222168e+00
2.446000000000000000e+03 6.426547050476074219e+00 6.799783706665039062e+00 -7.288277894258499146e-02 -3.996075689792633057e-01 -1.417471021413803101e-01 4.105537533760070801e-01
2.447000000000000000e+03 1.554905223846435547e+01 -8.539370536804199219e+00 1.176832593046128750e-04 -3.063862095586955547e-05 2.611339004943147302e-05 1.050598075380548835e-05
2.448000000000000000e+03 1.428156757354736328e+01 -8.279905319213867188e+00 2.645522363309282809e-05 -1.144988927990198135e-04 -2.641309947648551315e-05 7.539671059930697083e-05
2.449000000000000000e+03 4.831076812744140625e+01 -2.671463584899902344e+01 4.654162824153900146e-01 8.276968598365783691e-01 3.879339396953582764e-01 -3.344465494155883789e-01
2.450000000000000000e+03 5.489020919799804688e+01 -2.225102996826171875e+01 -1.310526013374328613e+00 6.662811279296875000e+00 1.605685591697692871e+00 1.921544909477233887e+00
2.451000000000000000e+03 5.031124114990234375e+01 -2.610932350158691406e+01 5.257151126861572266e-01 1.789783358573913574e+00 6.946495771408081055e-01 -2.331271395087242126e-02
2.452000000000000000e+03 5.039383316040039062e+01 -2.532802391052246094e+01 3.148562312126159668e-01 1.790768504142761230e+00 6.316874027252197266e-01 5.214070901274681091e-02
2.453000000000000000e+03 9.247492790222167969e+00 5.997934818267822266e+00 -1.112078279256820679e-01 -5.158827900886535645e-01 -1.881271898746490479e-01 5.403218865394592285e-01
2.454000000000000000e+03 6.043429374694824219e+00 1.053439998626708984e+01 4.533965513110160828e-02 -5.574840307235717773e-01 -1.536433100700378418e-01 3.650436699390411377e-01
2.455000000000000000e+03 7.813899993896484375e+00 -8.579529762268066406e+00 2.353324380237609148e-04 -3.059832670260220766e-05 6.142023630673065782e-05 7.382678450085222721e-05
2.456000000000000000e+03 9.313513755798339844e+00 -6.840951442718505859e+00 -8.820415678201243281e-05 3.220683356630615890e-05 -1.679919660091400146e-05 -8.242035255534574389e-05
2.457000000000000000e+03 9.980682373046875000e+00 -6.519871711730957031e+00 -1.585658537806011736e-05 7.488323262805351987e-06 -2.510478680051164702e-06 5.836084892507642508e-05
2.458000000000000000e+03 1.353246498107910156e+01 -7.476464271545410156e+00 1.168309681816026568e-04 4.527074634097516537e-05 4.863051435677334666e-05 -4.644160071620717645e-05
2.459000000000000000e+03 2.710374641418457031e+01 -7.234330654144287109e+00 -8.288431763648986816e-01 -4.706102311611175537e-01 -3.898360431194305420e-01 8.664543032646179199e-01
2.460000000000000000e+03 4.701084136962890625e+01 -2.825857925415039062e+01 3.379099965095520020e-01 4.719155728816986084e-01 2.429476678371429443e-01 -2.758327126502990723e-01
2.461000000000000000e+03 4.513532257080078125e+01 -1.444662666320800781e+01 -2.617610245943069458e-02 8.189803957939147949e-01 2.378412932157516479e-01 1.580623984336853027e-01
2.462000000000000000e+03 4.540824508666992188e+01 -1.354636001586914062e+01 6.116791963577270508e-01 9.410279393196105957e-01 4.658121168613433838e-01 -1.894877701997756958e-01
2.463000000000000000e+03 4.262677001953125000e+01 -1.416626071929931641e+01 -5.630998611450195312e-01 4.684556722640991211e-01 -2.839325927197933197e-02 2.684309184551239014e-01
2.464000000000000000e+03 4.409022903442382812e+01 -1.527007007598876953e+01 -8.176335692405700684e-01 6.535040736198425293e-01 -4.923883453011512756e-02 4.919259250164031982e-01
2.465000000000000000e+03 1.731334304809570312e+01 4.975473403930664062e+00 4.999301582574844360e-02 -8.644319176673889160e-01 -2.443316578865051270e-01 5.108295679092407227e-01
2.466000000000000000e+03 2.543156814575195312e+01 -4.702645778656005859e+00 -7.460613846778869629e-01 -6.622630953788757324e-01 -4.224973320960998535e-01 7.242712974548339844e-01
2.467000000000000000e+03 4.003768920898437500e+01 -1.340727329254150391e+01 -5.363060832023620605e-01 5.331170186400413513e-02 -1.448983103036880493e-01 3.106952011585235596e-01
2.468000000000000000e+03 2.291591835021972656e+01 -1.724079012870788574e+00 -5.772871375083923340e-01 -8.953674435615539551e-01 -4.417963922023773193e-01 6.265094280242919922e-01
2.469000000000000000e+03 2.357719802856445312e+01 -1.345086932182312012e+00 -4.367781877517700195e-01 -7.674815654754638672e-01 -3.612779378890991211e-01 5.476845502853393555e-01
2.470000000000000000e+03 4.181461715698242188e+01 -1.396550655364990234e+01 -6.028143763542175293e-01 3.635194301605224609e-01 -7.178847491741180420e-02 2.590345144271850586e-01
2.471000000000000000e+03 1.654259490966796875e+01 4.350968360900878906e+00 -6.058328971266746521e-02 -8.902072310447692871e-01 -2.852371335029602051e-01 5.715929865837097168e-01
2.472000000000000000e+03 1.586653137207031250e+01 3.706830263137817383e+00 -1.825568526983261108e-01 -8.968264460563659668e-01 -3.238149881362915039e-01 6.255934834480285645e-01
2.473000000000000000e+03 4.490384674072265625e+01 -1.530450344085693359e+01 -5.986069440841674805e-01 6.367156505584716797e-01 1.143260579556226730e-02 4.725419580936431885e-01
2.474000000000000000e+03 2.667520523071289062e+01 -3.800081491470336914e+00 -5.313817262649536133e-01 -3.999048471450805664e-01 -2.793859839439392090e-01 5.815482139587402344e-01
2.475000000000000000e+03 2.644115257263183594e+01 -4.866750717163085938e+00 -6.733750700950622559e-01 -4.882937371730804443e-01 -3.485006392002105713e-01 6.869273781776428223e-01
2.476000000000000000e+03 1.978554916381835938e+01 6.736461520195007324e-01 -4.299456775188446045e-01 -1.029098391532897949e+00 -4.377132356166839600e-01 6.415253281593322754e-01
2.477000000000000000e+03 2.855165100097656250e+01 -7.995030403137207031e+00 -7.610193490982055664e-01 -2.677054703235626221e-01 -3.086174428462982178e-01 8.821687102317810059e-01
2.478000000000000000e+03 2.811226844787597656e+01 -7.364529609680175781e+00 -7.546794414520263672e-01 -3.094414472579956055e-01 -3.192362785339355469e-01 8.426414728164672852e-01
2.479000000000000000e+03 2.797631454467773438e+01 -8.529273033142089844e+00 -8.409532308578491211e-01 -3.664945662021636963e-01 -3.622343540191650391e-01 9.376772046089172363e-01
2.480000000000000000e+03 2.946517562866210938e+01 -9.248044013977050781e+00 -7.686552405357360840e-01 -1.986617445945739746e-01 -2.901951074600219727e-01 9.454726576805114746e-01
2.481000000000000000e+03 2.328681564331054688e+01 -2.412456035614013672e+00 -6.436395645141601562e-01 -8.923057317733764648e-01 -4.607836008071899414e-01 6.617261767387390137e-01
2.482000000000000000e+03 2.323325920104980469e+01 -7.631241083145141602e-01 -3.846907913684844971e-01 -7.877347469329833984e-01 -3.517276644706726074e-01 5.218416452407836914e-01
2.483000000000000000e+03 2.127474212646484375e+01 1.027206853032112122e-01 -4.010978043079376221e-01 -9.557898044586181641e-01 -4.070662856101989746e-01 5.831814408302307129e-01
2.484000000000000000e+03 2.605229949951171875e+01 -4.251913547515869141e+00 -6.346531510353088379e-01 -5.289984345436096191e-01 -3.490954637527465820e-01 6.497527360916137695e-01
2.485000000000000000e+03 2.533662223815917969e+01 -2.934221506118774414e+00 -5.309411883354187012e-01 -5.821053981781005859e-01 -3.339139521121978760e-01 5.742882490158081055e-01
2.486000000000000000e+03 2.625251770019531250e+01 -5.960782527923583984e+00 -7.992029786109924316e-01 -5.747043490409851074e-01 -4.121721982955932617e-01 7.934845089912414551e-01
2.487000000000000000e+03 2.725870895385742188e+01 -6.102489471435546875e+00 -7.235177755355834961e-01 -3.996524512767791748e-01 -3.369510471820831299e-01 7.634085416793823242e-01
2.488000000000000000e+03 2.179016876220703125e+01 -3.317487835884094238e-01 -4.297315478324890137e-01 -9.323410987854003906e-01 -4.086217880249023438e-01 5.850889086723327637e-01
2.489000000000000000e+03 2.324737548828125000e+01 1.841545701026916504e-01 -2.685222029685974121e-01 -7.246805429458618164e-01 -2.979608178138732910e-01 4.522902369499206543e-01
2.490000000000000000e+03 1.908475112915039062e+01 2.234170913696289062e+00 -2.225413173437118530e-01 -9.577609896659851074e-01 -3.540906906127929688e-01 5.711852908134460449e-01
2.491000000000000000e+03 5.516245651245117188e+01 -2.386383247375488281e+01 -1.376114606857299805e+00 6.169423580169677734e+00 1.437992811203002930e+00 1.298881888389587402e+00
2.492000000000000000e+03 5.330395507812500000e+01 -2.727766799926757812e+01 6.169490814208984375e-01 4.885449409484863281e+00 1.650719642639160156e+00 3.206447064876556396e-01
2.493000000000000000e+03 5.316061782836914062e+01 -2.594506454467773438e+01 2.729722484946250916e-02 4.497333526611328125e+00 1.357389211654663086e+00 5.351044535636901855e-01
2.494000000000000000e+03 7.282691955566406250e+00 1.422434234619140625e+01 1.183176487684249878e-01 -6.498638391494750977e-01 -1.594638526439666748e-01 3.094005882740020752e-01
2.495000000000000000e+03 8.068238258361816406e+00 1.815270042419433594e+01 1.450051367282867432e-01 -6.633607745170593262e-01 -1.555066853761672974e-01 1.985266059637069702e-01
2.496000000000000000e+03 1.503510665893554688e+01 5.351668357849121094e+00 -1.107602473348379135e-02 -8.300259113311767578e-01 -2.523305714130401611e-01 5.753085017204284668e-01
2.497000000000000000e+03 5.544444274902343750e+01 -2.310273742675781250e+01 -1.464778900146484375e+00 6.546050548553466797e+00 1.524381518363952637e+00 1.288630366325378418e+00
2.498000000000000000e+03 3.973981094360351562e+01 -1.410094833374023438e+01 -9.288039207458496094e-01 -5.558665469288825989e-02 -2.953171730041503906e-01 4.309729933738708496e-01
2.499000000000000000e+03 1.781457519531250000e+01 3.283766508102416992e+00 -1.376243531703948975e-01 -9.358810782432556152e-01 -3.220516145229339600e-01 5.740979313850402832e-01
2.500000000000000000e+03 7.462406921386718750e+01 2.789456605911254883e+00 4.899284243583679199e-01 8.210035324096679688e+00 2.609989166259765625e+00 2.670105099678039551e-01
2.501000000000000000e+03 8.662985801696777344e+00 -9.011182785034179688e+00 -1.985433482332155108e-04 -3.977763481088913977e-05 -7.149629527702927589e-05 -1.130002347053959966e-04
2.502000000000000000e+03 7.870820999145507812e+00 6.800448894500732422e+00 -7.067847996950149536e-02 -4.624387919902801514e-01 -1.599351912736892700e-01 4.737976193428039551e-01
2.503000000000000000e+03 1.297739315032958984e+01 6.751586914062500000e+00 4.006402567028999329e-02 -7.308450937271118164e-01 -2.072343230247497559e-01 5.605201721191406250e-01
2.504000000000000000e+03 4.291315841674804688e+01 -7.731958866119384766e+00 8.422604203224182129e-01 1.672520995140075684e+00 7.544344067573547363e-01 -1.073031425476074219e+00
2.505000000000000000e+03 4.365222167968750000e+01 -6.622857093811035156e+00 8.963350057601928711e-01 2.124807596206665039e+00 9.063428044319152832e-01 -1.344498991966247559e+00
2.506000000000000000e+03 5.284590911865234375e+01 -2.453194427490234375e+01 -3.935469388961791992e-01 3.867258548736572266e+00 1.042113542556762695e+00 9.247778058052062988e-01
2.507000000000000000e+03 3.441575241088867188e+01 -1.237382030487060547e+01 -8.210107684135437012e-01 -1.451117694377899170e-01 -2.898367643356323242e-01 9.121388196945190430e-01
2.508000000000000000e+03 3.099377059936523438e+01 -1.109706020355224609e+01 -8.238131999969482422e-01 -1.394382566213607788e-01 -2.889754176139831543e-01 1.005234599113464355e+00
2.509000000000000000e+03 4.151530075073242188e+01 -4.885236263275146484e+00 6.414522528648376465e-01 1.899342060089111328e+00 7.622383236885070801e-01 -1.001853704452514648e+00
2.510000000000000000e+03 6.521399688720703125e+01 -1.724323844909667969e+01 7.458106875419616699e-01 1.244798541069030762e+00 5.971828103065490723e-01 6.639392375946044922e-01
2.511000000000000000e+03 5.232313537597656250e+01 -2.682566261291503906e+01 5.948681831359863281e-01 3.687897682189941406e+00 1.284829735755920410e+00 2.377836853265762329e-01
2.512000000000000000e+03 1.323845863342285156e+01 -9.451070785522460938e+00 -1.054576569003984332e-04 -9.551998664392158389e-05 -6.029329233570024371e-05 3.323100463603623211e-05
2.513000000000000000e+03 3.218267440795898438e+01 -1.253010368347167969e+01 -9.685555100440979004e-01 -1.395011693239212036e-01 -3.324170112609863281e-01 1.022075295448303223e+00
2.514000000000000000e+03 3.285797882080078125e+01 -1.150735855102539062e+01 -7.749176621437072754e-01 -8.992907404899597168e-02 -2.594540119171142578e-01 9.551780223846435547e-01
2.515000000000000000e+03 3.702588653564453125e+01 7.007855415344238281e+00 1.002457022666931152e+00 2.461383104324340820e+00 1.039152026176452637e+00 -5.648227930068969727e-01
2.516000000000000000e+03 3.402169799804687500e+01 -1.341715717315673828e+01 -1.081902027130126953e+00 -1.981746703386306763e-01 -3.840230405330657959e-01 1.009317755699157715e+00
2.517000000000000000e+03 3.628122711181640625e+01 -1.276838588714599609e+01 -7.497606873512268066e-01 -2.041372358798980713e-01 -2.861693799495697021e-01 7.684842944145202637e-01
2.518000000000000000e+03 4.120526504516601562e+01 -1.171760439872741699e+00 5.841622948646545410e-01 2.536511659622192383e+00 9.362022280693054199e-01 -1.108676791191101074e+00
2.519000000000000000e+03 4.051628112792968750e+01 -2.598141908645629883e+00 5.612924098968505859e-01 2.125725984573364258e+00 8.061054944992065430e-01 -9.377724528312683105e-01
2.520000000000000000e+03 1.163925075531005859e+01 -6.638920307159423828e+00 -4.041846113977953792e-05 1.390701072523370385e-05 -7.953434760565869510e-06 8.107304893201217055e-06
2.521000000000000000e+03 1.098783206939697266e+01 -6.920161247253417969e+00 -2.561826477176509798e-05 2.788082929328083992e-05 6.787694815102440771e-07 2.290367046953178942e-05
2.522000000000000000e+03 4.663644409179687500e+01 -1.287631607055664062e+01 1.431850790977478027e+00 1.474192857742309570e+00 8.718131184577941895e-01 -8.083117604255676270e-01
2.523000000000000000e+03 4.602206039428710938e+01 -1.168700408935546875e+01 1.344433426856994629e+00 1.660329222679138184e+00 9.014288187026977539e-01 -1.093879222869873047e+00
2.524000000000000000e+03 1.230749034881591797e+01 6.599454402923583984e+00 5.563388112932443619e-03 -7.002429366111755371e-01 -2.084038704633712769e-01 5.696995854377746582e-01
2.525000000000000000e+03 1.224915885925292969e+01 5.708657741546630859e+00 -7.912521809339523315e-02 -7.031466960906982422e-01 -2.346815764904022217e-01 6.026715040206909180e-01
2.526000000000000000e+03 3.897473907470703125e+01 7.523728013038635254e-01 6.043744087219238281e-01 2.332578420639038086e+00 8.810858130455017090e-01 -7.787779569625854492e-01
2.527000000000000000e+03 7.053018951416015625e+01 -1.775991630554199219e+01 -3.513194620609283447e-01 4.826286315917968750e+00 1.342490077018737793e+00 -1.119900584220886230e+00
2.528000000000000000e+03 8.386063575744628906e+00 -5.673130989074707031e+00 1.157926744781434536e-04 1.035339028021553531e-05 3.784381988225504756e-05 1.145677524618804455e-04
2.529000000000000000e+03 9.678670883178710938e+00 6.741098880767822266e+00 -5.602205917239189148e-02 -5.638713836669921875e-01 -1.859680265188217163e-01 5.437989830970764160e-01
2.530000000000000000e+03 3.937016677856445312e+01 5.037714004516601562e+00 8.463901281356811523e-01 3.118530988693237305e+00 1.189476370811462402e+00 -8.259112834930419922e-01
2.531000000000000000e+03 7.127078056335449219e+00 2.266879272460937500e+01 8.422923833131790161e-02 -7.215604782104492188e-01 -1.911993771791458130e-01 8.910037577152252197e-02
2.532000000000000000e+03 9.101449966430664062e+00 2.584228324890136719e+01 9.070504456758499146e-02 -5.887003540992736816e-01 -1.493985950946807861e-01 2.466331236064434052e-02
2.533000000000000000e+03 5.997122287750244141e+00 -1.002745246887207031e+01 -1.251970679732039571e-04 1.252855781785910949e-06 -3.718326479429379106e-05 1.049055481416871771e-05
2.534000000000000000e+03 7.428998565673828125e+01 -1.318366718292236328e+01 -2.448361515998840332e-01 6.552578926086425781e+00 1.892322778701782227e+00 -4.013386368751525879e-01
2.535000000000000000e+03 7.157781219482421875e+01 -1.135106086730957031e+01 -5.671921744942665100e-02 5.887358665466308594e+00 1.749191880226135254e+00 -8.108980953693389893e-02
2.536000000000000000e+03 7.187327575683593750e+01 -1.770232200622558594e+01 -5.988181829452514648e-01 6.002746582031250000e+00 1.621178388595581055e+00 -9.225487112998962402e-01
2.537000000000000000e+03 7.320204162597656250e+01 -1.742522430419921875e+01 -6.898562312126159668e-01 6.769823074340820312e+00 1.823989987373352051e+00 -5.054420828819274902e-01
2.538000000000000000e+03 8.859856605529785156e+00 -7.696738243103027344e+00 -1.367411314276978374e-04 5.768790651927702129e-05 -2.371596929151564837e-05 -6.943713378859683871e-05
2.539000000000000000e+03 3.872066879272460938e+01 2.562128257751464844e+01 1.856496743857860565e-02 2.082759141921997070e+00 6.303972601890563965e-01 -9.326199442148208618e-02
2.540000000000000000e+03 4.004911804199218750e+01 -1.455741167068481445e+00 5.738793015480041504e-01 2.220639944076538086e+00 8.383557796478271484e-01 -9.143825173377990723e-01
2.541000000000000000e+03 7.897504806518554688e+00 1.662032508850097656e+01 1.439152359962463379e-01 -6.621295213699340820e-01 -1.554642915725708008e-01 2.444597482681274414e-01
2.542000000000000000e+03 8.201159477233886719e+00 1.964300918579101562e+01 1.360183507204055786e-01 -6.608962416648864746e-01 -1.574633717536926270e-01 1.599992960691452026e-01
2.543000000000000000e+03 3.773696517944335938e+01 2.950433969497680664e+00 7.138499021530151367e-01 2.306677103042602539e+00 9.061580896377563477e-01 -6.159361004829406738e-01
2.544000000000000000e+03 3.878411102294921875e+01 6.276918411254882812e+00 9.613387584686279297e-01 3.046152591705322266e+00 1.202247381210327148e+00 -7.167106866836547852e-01
2.545000000000000000e+03 6.929179382324218750e+01 -1.491582393646240234e+01 2.201060652732849121e-01 4.142421245574951172e+00 1.308758139610290527e+00 -2.541249692440032959e-01
2.546000000000000000e+03 6.790832519531250000e+01 -1.646623992919921875e+01 4.762490689754486084e-01 2.731187105178833008e+00 9.622308611869812012e-01 -2.547000944614410400e-01
2.547000000000000000e+03 7.714225292205810547e+00 -1.158139133453369141e+01 -2.910896728280931711e-04 1.026514291879720986e-04 -5.653147673001512885e-05 1.643694704398512840e-04
2.548000000000000000e+03 1.075083637237548828e+01 -1.061544418334960938e+01 1.735045407258439809e-05 3.309982639621011913e-05 1.513508414063835517e-05 9.129654790740460157e-05
2.549000000000000000e+03 4.513731384277343750e+01 -3.288283920288085938e+01 2.339638322591781616e-01 2.053959965705871582e-01 1.318079382181167603e-01 4.300708174705505371e-01
2.550000000000000000e+03 4.997661590576171875e+01 -3.085676002502441406e+01 1.025915503501892090e+00 2.198710203170776367e+00 9.673876762390136719e-01 6.670104265213012695e-01
2.551000000000000000e+03 7.026615619659423828e+00 7.900251388549804688e+00 -1.999091729521751404e-02 -4.789246022701263428e-01 -1.496746540069580078e-01 4.340322911739349365e-01
2.552000000000000000e+03 6.992248535156250000e+00 -7.969837188720703125e+00 -1.669195335125550628e-04 4.637588426703587174e-05 -3.616309186327271163e-05 6.729745564371114597e-06
2.553000000000000000e+03 8.895918846130371094e+00 7.226249217987060547e+00 -3.697266429662704468e-02 -5.349144935607910156e-01 -1.715661585330963135e-01 5.153053998947143555e-01
2.554000000000000000e+03 7.765487670898437500e+00 2.836981201171875000e+01 4.362116381525993347e-02 -6.634234189987182617e-01 -1.859406828880310059e-01 -1.770602539181709290e-03
2.555000000000000000e+03 1.139805412292480469e+01 2.878515243530273438e+01 7.483875751495361328e-02 -4.183329939842224121e-01 -1.030482724308967590e-01 -3.446066379547119141e-02
2.556000000000000000e+03 7.320629596710205078e+00 1.303765773773193359e+01 1.096320152282714844e-01 -6.309590935707092285e-01 -1.563981324434280396e-01 3.406078517436981201e-01
2.557000000000000000e+03 3.466744613647460938e+01 1.957977485656738281e+01 4.557072222232818604e-01 1.935797691345214844e+00 7.174515128135681152e-01 -4.478766918182373047e-01
2.558000000000000000e+03 5.140435028076171875e+01 -3.380994033813476562e+01 4.846867322921752930e-01 3.286164045333862305e+00 1.131255269050598145e+00 1.137874007225036621e+00
2.559000000000000000e+03 5.227636337280273438e+01 -2.852905082702636719e+01 1.312442302703857422e+00 3.804111480712890625e+00 1.534966111183166504e+00 1.618930250406265259e-01
2.560000000000000000e+03 4.310292816162109375e+01 -8.620541572570800781e+00 8.384022116661071777e-01 1.499573469161987305e+00 7.013927102088928223e-01 -9.646164178848266602e-01
2.561000000000000000e+03 3.563903045654296875e+01 1.263777637481689453e+01 9.492896199226379395e-01 2.259117841720581055e+00 9.625222682952880859e-01 -5.952605605125427246e-01
2.562000000000000000e+03 7.214960479736328125e+01 -1.912081146240234375e+01 -8.988432288169860840e-01 6.766993045806884766e+00 1.760444879531860352e+00 -9.584611058235168457e-01
2.563000000000000000e+03 3.601296234130859375e+01 2.102115821838378906e+01 3.272398114204406738e-01 2.117300987243652344e+00 7.333622574806213379e-01 -3.625036180019378662e-01
2.564000000000000000e+03 3.781620025634765625e+01 2.231085395812988281e+01 2.108083814382553101e-01 2.305329084396362305e+00 7.548412680625915527e-01 -1.887947618961334229e-01
2.565000000000000000e+03 7.308162689208984375e+01 -1.337875175476074219e+01 -2.136022448539733887e-01 6.202724933624267578e+00 1.796736836433410645e+00 -4.052451550960540771e-01
2.566000000000000000e+03 7.191024017333984375e+01 -1.234497165679931641e+01 -9.611445665359497070e-02 5.879752635955810547e+00 1.735091447830200195e+00 -2.529270648956298828e-01
2.567000000000000000e+03 3.700584030151367188e+01 2.625554084777832031e+01 -1.745926029980182648e-02 1.921288609504699707e+00 5.711488127708435059e-01 -2.183551043272018433e-01
2.568000000000000000e+03 8.820942878723144531e+00 3.566199493408203125e+01 -2.711290726438164711e-03 -5.168990492820739746e-01 -1.558831036090850830e-01 -3.007406368851661682e-02
2.569000000000000000e+03 8.909216880798339844e+00 2.970467567443847656e+01 4.292440041899681091e-02 -5.688263773918151855e-01 -1.577705889940261841e-01 -2.219888381659984589e-02
2.570000000000000000e+03 6.935500621795654297e+00 2.714791488647460938e+01 4.705539718270301819e-02 -7.320210337638854980e-01 -2.054896950721740723e-01 1.334482897073030472e-02
2.571000000000000000e+03 7.910577297210693359e+00 2.616452026367187500e+01 7.254838943481445312e-02 -6.655066013336181641e-01 -1.778874546289443970e-01 2.739351615309715271e-02
2.572000000000000000e+03 3.575808334350585938e+01 9.426161766052246094e+00 1.057689785957336426e+00 2.189599037170410156e+00 9.741865992546081543e-01 -5.558928251266479492e-01
2.573000000000000000e+03 6.815646362304687500e+01 -4.106887054443359375e+01 4.522286653518676758e-01 1.896713495254516602e+00 7.046826481819152832e-01 1.656582951545715332e-01
2.574000000000000000e+03 5.534374237060546875e+01 -2.225640296936035156e+01 -1.416591048240661621e+00 7.235610485076904297e+00 1.745705842971801758e+00 1.395330429077148438e+00
2.575000000000000000e+03 5.499795532226562500e+01 -2.183961677551269531e+01 -1.238409042358398438e+00 7.387128353118896484e+00 1.844615817070007324e+00 2.043116807937622070e+00
2.576000000000000000e+03 5.451009368896484375e+01 -2.204270362854003906e+01 -1.077881336212158203e+00 6.188154220581054688e+00 1.533081889152526855e+00 2.305197477340698242e+00
2.577000000000000000e+03 5.363142395019531250e+01 -2.269413948059082031e+01 -7.492773532867431641e-01 4.381963253021240234e+00 1.089805722236633301e+00 1.914410829544067383e+00
2.578000000000000000e+03 5.228771209716796875e+01 -2.610018539428710938e+01 2.966122329235076904e-01 3.652973890304565430e+00 1.184875845909118652e+00 3.487031459808349609e-01
2.579000000000000000e+03 1.375239658355712891e+01 -8.754203796386718750e+00 7.688209734624251723e-05 8.917312516132369637e-05 4.981656456948257983e-05 -5.815941040054894984e-05
2.580000000000000000e+03 5.496072006225585938e+01 -2.330904769897460938e+01 -1.340439081192016602e+00 6.108388423919677734e+00 1.430384874343872070e+00 1.511423110961914062e+00
2.581000000000000000e+03 5.532820129394531250e+01 -2.270094108581542969e+01 -1.401651978492736816e+00 6.805154323577880859e+00 1.621050596237182617e+00 1.439857721328735352e+00
2.582000000000000000e+03 5.303232574462890625e+01 -2.523528861999511719e+01 -1.950936764478683472e-01 4.343093395233154297e+00 1.244399905204772949e+00 6.543787121772766113e-01
2.583000000000000000e+03 3.046055793762207031e+01 -1.047904109954833984e+01 -7.967025041580200195e-01 -1.472269892692565918e-01 -2.831788361072540283e-01 9.927824735641479492e-01
2.584000000000000000e+03 3.052829360961914062e+01 -9.229963302612304688e+00 -6.857232451438903809e-01 -9.697713702917098999e-02 -2.348101139068603516e-01 9.032559394836425781e-01
2.585000000000000000e+03 1.118833923339843750e+01 -8.911815643310546875e+00 1.951275189640000463e-04 -1.685513780103065073e-05 5.348171544028446078e-05 -1.456863719795364887e-05
2.586000000000000000e+03 9.638921737670898438e+00 -9.386602401733398438e+00 2.302415523445233703e-04 4.674337469623424113e-05 8.309548138640820980e-05 9.021566074807196856e-05
2.587000000000000000e+03 8.567760467529296875e+00 6.526648044586181641e+00 -8.266509324312210083e-02 -4.953602552413940430e-01 -1.734075993299484253e-01 5.099160671234130859e-01
2.588000000000000000e+03 8.036454200744628906e+00 7.684020042419433594e+00 -2.110599353909492493e-02 -5.103282928466796875e-01 -1.594302803277969360e-01 4.739914536476135254e-01
2.589000000000000000e+03 3.163594818115234375e+01 -1.030010700225830078e+01 -7.170773744583129883e-01 -7.571887224912643433e-02 -2.378388643264770508e-01 9.393020272254943848e-01
2.590000000000000000e+03 2.958076858520507812e+01 -8.041237831115722656e+00 -6.805421113967895508e-01 -1.418300271034240723e-01 -2.467116415500640869e-01 8.505660891532897949e-01
2.591000000000000000e+03 2.768168830871582031e+01 -6.732112884521484375e+00 -7.369813919067382812e-01 -3.551234900951385498e-01 -3.276314735412597656e-01 8.038491606712341309e-01
2.592000000000000000e+03 2.744218444824218750e+01 -4.989977359771728516e+00 -5.966425538063049316e-01 -3.233241438865661621e-01 -2.759900093078613281e-01 6.556919217109680176e-01
2.593000000000000000e+03 4.939673233032226562e+01 -2.639517021179199219e+01 5.341752171516418457e-01 1.331934452056884766e+00 5.598329305648803711e-01 -1.896775960922241211e-01
2.594000000000000000e+03 4.966728210449218750e+01 -2.747042655944824219e+01 7.512958645820617676e-01 1.654508113861083984e+00 7.217411994934082031e-01 -4.972145333886146545e-02
2.595000000000000000e+03 4.894582366943359375e+01 -2.714344978332519531e+01 6.032333374023437500e-01 1.232285380363464355e+00 5.506556034088134766e-01 -1.403962075710296631e-01
2.596000000000000000e+03 4.454132461547851562e+01 -1.341272544860839844e+01 3.521801531314849854e-01 8.666455149650573730e-01 3.656477034091949463e-01 -1.230765953660011292e-01
2.597000000000000000e+03 4.345488357543945312e+01 -1.427571201324462891e+01 -3.953080773353576660e-01 6.183630228042602539e-01 6.691648066043853760e-02 2.512596547603607178e-01
2.598000000000000000e+03 4.188459777832031250e+01 -1.102538681030273438e+01 4.189792573451995850e-01 7.167080640792846680e-01 3.407061994075775146e-01 -3.178989887237548828e-01
2.599000000000000000e+03 2.869546890258789062e+01 -6.826972484588623047e+00 -6.553108096122741699e-01 -2.053232789039611816e-01 -2.581902146339416504e-01 7.744749784469604492e-01
2.600000000000000000e+03 1.673741722106933594e+01 5.611834049224853516e+00 8.790130913257598877e-02 -8.381440639495849609e-01 -2.250728309154510498e-01 5.055261254310607910e-01
2.601000000000000000e+03 1.187195491790771484e+01 -8.310042381286621094e+00 -9.991989645641297102e-05 -4.392560003907419741e-05 -4.315365004003979266e-05 2.105669591401237994e-05
2.602000000000000000e+03 1.309411525726318359e+01 -8.215973854064941406e+00 -1.182206469820812345e-04 -5.834103649249300361e-05 -5.296850576996803284e-05 4.503015225054696202e-05
2.603000000000000000e+03 2.900134849548339844e+01 -8.622906684875488281e+00 -7.726761102676391602e-01 -2.293927520513534546e-01 -3.006206750869750977e-01 9.137638211250305176e-01
2.604000000000000000e+03 1.844703292846679688e+01 2.757856607437133789e+00 -1.792744696140289307e-01 -9.485589861869812012e-01 -3.383500277996063232e-01 5.747425556182861328e-01
2.605000000000000000e+03 1.849806785583496094e+01 3.832145929336547852e+00 -2.754662744700908661e-02 -8.906549811363220215e-01 -2.754604816436767578e-01 5.063008666038513184e-01
2.606000000000000000e+03 5.163739013671875000e+01 -2.918606948852539062e+01 1.340802907943725586e+00 3.127115488052368164e+00 1.340375542640686035e+00 4.421474039554595947e-01
2.607000000000000000e+03 4.310258102416992188e+01 -1.228626441955566406e+01 3.309814333915710449e-01 7.232580780982971191e-01 3.162718415260314941e-01 -2.241382896900177002e-01
2.608000000000000000e+03 5.445940017700195312e+01 -2.407759094238281250e+01 -1.124132275581359863e+00 5.574484348297119141e+00 1.335105538368225098e+00 1.380570530891418457e+00
2.609000000000000000e+03 2.632199668884277344e+01 -3.193931341171264648e+00 -4.848242700099945068e-01 -4.315593540668487549e-01 -2.749150991439819336e-01 5.462187528610229492e-01
2.610000000000000000e+03 2.414923477172851562e+01 9.000016450881958008e-01 -9.248411655426025391e-02 -5.703859925270080566e-01 -1.988610178232192993e-01 3.588033318519592285e-01
2.611000000000000000e+03 3.648051071166992188e+01 -1.177535343170166016e+01 -5.210793018341064453e-01 -5.882454290986061096e-02 -1.739711612462997437e-01 6.511808633804321289e-01
2.612000000000000000e+03 2.395784378051757812e+01 -1.964545011520385742e+00 -5.255396366119384766e-01 -7.516993880271911621e-01 -3.831717073917388916e-01 5.729976892471313477e-01
2.613000000000000000e+03 2.418956565856933594e+01 -8.140344023704528809e-01 -3.195074796676635742e-01 -6.387683749198913574e-01 -2.874827384948730469e-01 4.758661985397338867e-01
2.614000000000000000e+03 4.049022674560546875e+01 -1.405109786987304688e+01 -8.298430442810058594e-01 5.357072874903678894e-02 -2.328816950321197510e-01 3.585753142833709717e-01
2.615000000000000000e+03 4.059601211547851562e+01 -1.499989891052246094e+01 -1.223699092864990234e+00 9.225705265998840332e-02 -3.394326269626617432e-01 4.100582599639892578e-01
2.616000000000000000e+03 4.695262908935546875e+01 -1.395539379119873047e+01 1.029048800468444824e+00 1.201093196868896484e+00 6.690425872802734375e-01 -4.331220984458923340e-01
2.617000000000000000e+03 5.082363510131835938e+01 -2.623752593994140625e+01 5.388608574867248535e-01 2.358509302139282227e+00 8.692110180854797363e-01 7.659434527158737183e-02
2.618000000000000000e+03 5.334004592895507812e+01 -2.783872795104980469e+01 1.081452250480651855e+00 5.039025783538818359e+00 1.836143374443054199e+00 4.292976483702659607e-02
2.619000000000000000e+03 2.568226623535156250e+01 -3.617387294769287109e+00 -5.929915904998779297e-01 -5.572211146354675293e-01 -3.450638055801391602e-01 6.139392256736755371e-01
2.620000000000000000e+03 1.972293472290039062e+01 1.705392837524414062e+00 -2.616577744483947754e-01 -9.606923460960388184e-01 -3.667050302028656006e-01 5.675876140594482422e-01
2.621000000000000000e+03 1.790879249572753906e+01 4.391348838806152344e+00 8.166562765836715698e-03 -8.802824616432189941e-01 -2.616347670555114746e-01 5.121162533760070801e-01
2.622000000000000000e+03 1.587042427062988281e+01 4.917607784271240234e+00 -1.981166936457157135e-02 -8.617826104164123535e-01 -2.644782662391662598e-01 5.699893236160278320e-01
2.623000000000000000e+03 1.046594810485839844e+01 6.260539054870605469e+00 -7.709169387817382812e-02 -5.978269577026367188e-01 -2.024756073951721191e-01 5.723822712898254395e-01
2.624000000000000000e+03 2.501053619384765625e+01 -2.187797784805297852e+00 -4.584470689296722412e-01 -5.864287614822387695e-01 -3.134627342224121094e-01 5.297473669052124023e-01
2.625000000000000000e+03 2.437902832031250000e+01 -3.337632864713668823e-02 -2.204788327217102051e-01 -5.873897671699523926e-01 -2.423605918884277344e-01 4.040940701961517334e-01
2.626000000000000000e+03 8.413620948791503906e+00 -6.395157814025878906e+00 -9.262378443963825703e-05 -2.176934685849118978e-05 -3.431793811614625156e-05 -8.871463796822354198e-05
2.627000000000000000e+03 2.600003814697265625e+01 -2.535223484039306641e+00 -4.296329915523529053e-01 -4.491635859012603760e-01 -2.636389732360839844e-01 5.098392963409423828e-01
2.628000000000000000e+03 2.571983146667480469e+01 -1.781960844993591309e+00 -3.482796549797058105e-01 -4.645330905914306641e-01 -2.438438236713409424e-01 4.626546204090118408e-01
2.629000000000000000e+03 2.222777938842773438e+01 1.648148447275161743e-01 -3.211904764175415039e-01 -8.289937376976013184e-01 -3.450552523136138916e-01 5.147597193717956543e-01
2.630000000000000000e+03 1.968456840515136719e+01 2.751701116561889648e+00 -1.069763228297233582e-01 -9.009733200073242188e-01 -3.023848831653594971e-01 5.070604681968688965e-01
2.631000000000000000e+03 1.063094902038574219e+01 -9.701932907104492188e+00 -2.276454615639522672e-04 -8.208242797991260886e-05 -9.291836613556370139e-05 -1.272995577892288566e-04
2.632000000000000000e+03 2.086019325256347656e+01 5.632389783859252930e-01 -3.454718291759490967e-01 -9.469925761222839355e-01 -3.877393007278442383e-01 5.792073011398315430e-01
2.633000000000000000e+03 4.845204925537109375e+01 -3.075494194030761719e+01 7.360321879386901855e-01 1.441959977149963379e+00 6.533976197242736816e-01 5.220678448677062988e-01
2.634000000000000000e+03 5.097400283813476562e+01 -3.012084007263183594e+01 1.244145631790161133e+00 2.872524976730346680e+00 1.235001206398010254e+00 5.371996760368347168e-01
2.635000000000000000e+03 4.199457931518554688e+01 -7.923458099365234375e+00 6.963274478912353516e-01 1.375433564186096191e+00 6.215283274650573730e-01 -8.214322328567504883e-01
2.636000000000000000e+03 4.258858489990234375e+01 -6.831838130950927734e+00 7.749462723731994629e-01 1.782873511314392090e+00 7.673459053039550781e-01 -1.082203030586242676e+00
2.637000000000000000e+03 1.250162029266357422e+01 -6.795960426330566406e+00 -1.104351395042613149e-05 5.982099173706956208e-05 1.463324406358879060e-05 4.297967461752705276e-05
2.638000000000000000e+03 1.028718852996826172e+01 -7.285508155822753906e+00 1.607148806215263903e-05 -4.526986958808265626e-05 -8.759514457779005170e-06 -7.954696047818288207e-05
2.639000000000000000e+03 4.116365432739257812e+01 -6.280159950256347656e+00 6.318224668502807617e-01 1.559242963790893555e+00 6.573196053504943848e-01 -8.270403146743774414e-01
2.640000000000000000e+03 2.826675987243652344e+01 -6.212686538696289062e+00 -6.429190635681152344e-01 -2.420858144760131836e-01 -2.655014693737030029e-01 7.343666553497314453e-01
2.641000000000000000e+03 4.785586547851562500e+01 -2.895569610595703125e+01 5.681643486022949219e-01 9.987078905105590820e-01 4.700616896152496338e-01 1.703099906444549561e-02
2.642000000000000000e+03 4.623765182495117188e+01 -1.373098754882812500e+01 8.372225165367126465e-01 1.164037346839904785e+00 6.003779768943786621e-01 -3.498944044113159180e-01
2.643000000000000000e+03 1.386440467834472656e+01 6.338742256164550781e+00 3.243319690227508545e-02 -7.662774324417114258e-01 -2.201532572507858276e-01 5.639185309410095215e-01
2.644000000000000000e+03 3.561107254028320312e+01 -1.164833545684814453e+01 -5.698419809341430664e-01 -8.101352304220199585e-02 -1.952566504478454590e-01 7.418032288551330566e-01
2.645000000000000000e+03 3.406768798828125000e+01 -1.107385730743408203e+01 -6.097397804260253906e-01 -4.394562914967536926e-02 -1.961056292057037354e-01 8.344494700431823730e-01
2.646000000000000000e+03 1.195157432556152344e+01 -9.531189918518066406e+00 -1.532291353214532137e-04 -5.128112024976871908e-05 -6.135307194199413061e-05 -4.570694363792426884e-05
2.647000000000000000e+03 3.959327697753906250e+01 -3.944472789764404297e+00 5.227208733558654785e-01 1.671279430389404297e+00 6.582000851631164551e-01 -7.046598792076110840e-01
2.648000000000000000e+03 3.953288269042968750e+01 -3.438021242618560791e-01 5.571371316909790039e-01 2.305964708328247070e+00 8.589305877685546875e-01 -8.434007167816162109e-01
2.649000000000000000e+03 3.842735290527343750e+01 -6.508507132530212402e-01 5.461846590042114258e-01 1.984515786170959473e+00 7.592101693153381348e-01 -6.696820259094238281e-01
2.650000000000000000e+03 7.184741973876953125e+01 -1.622640609741210938e+01 -3.966501951217651367e-01 5.701042175292968750e+00 1.591317534446716309e+00 -6.866168379783630371e-01
2.651000000000000000e+03 4.771447753906250000e+01 -2.746855545043945312e+01 4.448008537292480469e-01 7.249780297279357910e-01 3.509336709976196289e-01 -2.888975441455841064e-01
2.652000000000000000e+03 4.499644470214843750e+01 -1.150563144683837891e+01 1.074426412582397461e+00 1.402852296829223633e+00 7.431836128234863281e-01 -8.801528811454772949e-01
2.653000000000000000e+03 4.478625106811523438e+01 -1.245862007141113281e+01 7.837206125259399414e-01 1.050031661987304688e+00 5.501256585121154785e-01 -4.875328540802001953e-01
2.654000000000000000e+03 4.710687637329101562e+01 -3.001177406311035156e+01 3.689895272254943848e-01 7.446540594100952148e-01 3.340930938720703125e-01 1.512485742568969727e-01
2.655000000000000000e+03 3.734159088134765625e+01 -9.669466614723205566e-01 4.798356592655181885e-01 1.697372674942016602e+00 6.531624794006347656e-01 -4.871754348278045654e-01
2.656000000000000000e+03 5.350345134735107422e+00 8.292719841003417969e+00 -1.494425814598798752e-02 -4.440354704856872559e-01 -1.376939117908477783e-01 3.537900447845458984e-01
2.657000000000000000e+03 6.063037872314453125e+00 7.589586257934570312e+00 -3.693380206823348999e-02 -4.271923005580902100e-01 -1.392378211021423340e-01 3.874923884868621826e-01
2.658000000000000000e+03 2.037884712219238281e+01 1.141279220581054688e+00 -3.073469102382659912e-01 -9.566682577133178711e-01 -3.792045414447784424e-01 5.623337030410766602e-01
2.659000000000000000e+03 3.721627807617187500e+01 -1.286499786376953125e+01 -7.133123874664306641e-01 -1.718986034393310547e-01 -2.655632793903350830e-01 6.695203185081481934e-01
2.660000000000000000e+03 6.922913360595703125e+01 -1.770212554931640625e+01 6.426440924406051636e-02 3.396788358688354492e+00 1.038315892219543457e+00 -9.653999805450439453e-01
2.661000000000000000e+03 4.022313690185546875e+01 -6.312902927398681641e+00 5.454832911491394043e-01 1.338115572929382324e+00 5.650796294212341309e-01 -6.352833509445190430e-01
2.662000000000000000e+03 1.428579807281494141e+01 5.761178970336914062e+00 -4.008754622191190720e-03 -7.940118312835693359e-01 -2.394061684608459473e-01 5.775569081306457520e-01
2.663000000000000000e+03 1.160025024414062500e+01 6.788663864135742188e+00 3.082580165937542915e-03 -6.744393706321716309e-01 -2.014070302248001099e-01 5.687744617462158203e-01
2.664000000000000000e+03 7.000885963439941406e+00 9.127783775329589844e+00 2.092168480157852173e-02 -5.226537585258483887e-01 -1.505196243524551392e-01 4.186550080776214600e-01
2.665000000000000000e+03 8.149064064025878906e+00 1.039769554138183594e+01 8.220117539167404175e-02 -5.857651233673095703e-01 -1.510691940784454346e-01 4.266310334205627441e-01
2.666000000000000000e+03 3.642514419555664062e+01 8.222523689270019531e+00 1.052550315856933594e+00 2.335096836090087891e+00 1.016294121742248535e+00 -5.630474686622619629e-01
2.667000000000000000e+03 3.635358047485351562e+01 5.276899337768554688e+00 8.792569637298583984e-01 2.113466262817382812e+00 8.978169560432434082e-01 -4.892870485782623291e-01
2.668000000000000000e+03 3.343315887451171875e+01 -1.057910156250000000e+01 -6.044669747352600098e-01 -2.268908917903900146e-02 -1.881468147039413452e-01 8.536369204521179199e-01
2.669000000000000000e+03 7.801970481872558594e+00 -7.361653327941894531e+00 1.299318228120682761e-05 -2.569044590927660465e-05 -3.809178906521992758e-06 -7.650411134818568826e-05
2.670000000000000000e+03 7.435837268829345703e+00 -9.378068923950195312e+00 -2.147035556845366955e-04 -6.691530143143609166e-05 -8.448565495200455189e-05 -1.492393494118005037e-04
2.671000000000000000e+03 4.316205978393554688e+01 -9.505070686340332031e+00 8.393906354904174805e-01 1.353078007698059082e+00 6.577405929565429688e-01 -8.735715746879577637e-01
2.672000000000000000e+03 6.398589706420898438e+01 -1.773625755310058594e+01 7.388268709182739258e-01 8.269143104553222656e-01 4.697223305702209473e-01 1.043738484382629395e+00
2.673000000000000000e+03 1.054684543609619141e+01 2.631154441833496094e+01 1.068443208932876587e-01 -4.950794875621795654e-01 -1.164705455303192139e-01 9.760924731381237507e-04
2.674000000000000000e+03 1.006519603729248047e+01 7.557800292968750000e+00 7.035308983176946640e-03 -6.009782552719116211e-01 -1.781828850507736206e-01 5.355823636054992676e-01
2.675000000000000000e+03 3.837934875488281250e+01 1.847130775451660156e+00 6.342523694038391113e-01 2.358488559722900391e+00 8.978222608566284180e-01 -6.975206732749938965e-01
2.676000000000000000e+03 3.891114044189453125e+01 -1.711045742034912109e+00 5.099658966064453125e-01 1.934700131416320801e+00 7.333998084068298340e-01 -7.003772258758544922e-01
2.677000000000000000e+03 3.945859909057617188e+01 2.253303527832031250e+00 6.734799146652221680e-01 2.685856580734252930e+00 1.007800936698913574e+00 -8.577342629432678223e-01
2.678000000000000000e+03 7.263323783874511719e+00 1.175281715393066406e+01 9.215623885393142700e-02 -6.044394969940185547e-01 -1.536849737167358398e-01 3.715512752532958984e-01
2.679000000000000000e+03 9.346407890319824219e+00 1.804807090759277344e+01 1.782186776399612427e-01 -6.216161847114562988e-01 -1.330192387104034424e-01 2.015419751405715942e-01
2.680000000000000000e+03 8.297453880310058594e+00 2.251344680786132812e+01 1.171938106417655945e-01 -6.464091539382934570e-01 -1.587646007537841797e-01 8.956582844257354736e-02
2.681000000000000000e+03 1.124564647674560547e+01 8.042030334472656250e+00 7.643297314643859863e-02 -6.589885950088500977e-01 -1.747666746377944946e-01 5.282877683639526367e-01
2.682000000000000000e+03 3.456504058837890625e+01 2.477663803100585938e+01 1.099384799599647522e-01 1.746730804443359375e+00 5.570008158683776855e-01 -3.624803721904754639e-01
2.683000000000000000e+03 3.904130935668945312e+01 -1.217701435089111328e+01 -2.876692712306976318e-01 8.439867943525314331e-02 -6.098117679357528687e-02 3.130943775177001953e-01
2.684000000000000000e+03 9.197544097900390625e+00 1.650234603881835938e+01 1.832277327775955200e-01 -6.310592889785766602e-01 -1.343494802713394165e-01 2.485914826393127441e-01
2.685000000000000000e+03 1.042468452453613281e+01 3.062947082519531250e+01 4.009899497032165527e-02 -4.678443670272827148e-01 -1.283236145973205566e-01 -3.824229910969734192e-02
2.686000000000000000e+03 3.425775527954101562e+01 1.204026317596435547e+01 9.719170331954956055e-01 1.873990893363952637e+00 8.537724018096923828e-01 -5.644516348838806152e-01
2.687000000000000000e+03 3.502680587768554688e+01 1.065976333618164062e+01 1.037081480026245117e+00 2.021977901458740234e+00 9.177178144454956055e-01 -5.623907446861267090e-01
2.688000000000000000e+03 4.148796081542968750e+01 -8.802219390869140625e+00 6.124503016471862793e-01 1.057334661483764648e+00 5.009354352951049805e-01 -6.025738120079040527e-01
2.689000000000000000e+03 3.826668930053710938e+01 -1.191733264923095703e+01 -3.366546630859375000e-01 5.315406993031501770e-02 -8.505018055438995361e-02 3.951459825038909912e-01
2.690000000000000000e+03 8.430438041687011719e+00 1.173396015167236328e+01 1.251632124185562134e-01 -6.154676079750061035e-01 -1.470913141965866089e-01 3.936145007610321045e-01
2.691000000000000000e+03 3.439708709716796875e+01 1.471232032775878906e+01 8.164929151535034180e-01 1.966206550598144531e+00 8.348098397254943848e-01 -5.691058635711669922e-01
2.692000000000000000e+03 3.399929809570312500e+01 1.707447052001953125e+01 6.627134680747985840e-01 1.880505323410034180e+00 7.629656791687011719e-01 -5.418114066123962402e-01
2.693000000000000000e+03 3.441674423217773438e+01 2.100278472900390625e+01 3.573228120803833008e-01 1.854899406433105469e+00 6.636666655540466309e-01 -4.338682293891906738e-01
2.694000000000000000e+03 4.839303207397460938e+01 -3.406124114990234375e+01 3.053830862045288086e-01 1.657210350036621094e+00 5.887780189514160156e-01 8.369576930999755859e-01
2.695000000000000000e+03 9.313567161560058594e+00 2.429978179931640625e+01 1.096595376729965210e-01 -5.909556746482849121e-01 -1.443888396024703979e-01 4.903411865234375000e-02
2.696000000000000000e+03 6.848809719085693359e+00 -3.638428497314453125e+01 -5.978236440569162369e-04 1.097183790989220142e-03 1.498080237070098519e-04 1.659171306528151035e-03
2.697000000000000000e+03 3.928556060791015625e+01 -3.626432037353515625e+01 1.739962846040725708e-01 -4.439133703708648682e-01 -8.097512274980545044e-02 -1.801818609237670898e-01
2.698000000000000000e+03 1.247826576232910156e+01 3.743480300903320312e+01 -3.951231017708778381e-02 -2.349977642297744751e-01 -8.235302567481994629e-02 -4.387168213725090027e-02
2.699000000000000000e+03 5.473893737792968750e+01 3.492342376708984375e+01 -3.552672564983367920e-01 5.524105578660964966e-02 -9.000786393880844116e-02 -1.514230370521545410e-01
2.700000000000000000e+03 2.236743736267089844e+01 -3.494969940185546875e+01 1.063520321622490883e-03 -2.125693717971444130e-03 -3.186519898008555174e-04 -1.510144327767193317e-03
2.701000000000000000e+03 3.404545211791992188e+01 -3.841546630859375000e+01 8.677981793880462646e-02 -2.086739242076873779e-01 -3.656823188066482544e-02 -1.512755900621414185e-01
2.702000000000000000e+03 1.563331317901611328e+01 -3.973084640502929688e+01 -3.721689572557806969e-03 -1.976470230147242546e-03 -1.709447940811514854e-03 1.886148587800562382e-03
2.703000000000000000e+03 7.156577301025390625e+01 -3.645048904418945312e+01 -7.051539421081542969e-01 5.080940246582031250e+00 1.312735915184020996e+00 4.483184218406677246e-01
2.704000000000000000e+03 1.848312950134277344e+01 -4.115139389038085938e+01 -6.894887425005435944e-03 -1.408249256201088428e-03 -2.490940969437360764e-03 -1.809757202863693237e-03
2.705000000000000000e+03 1.967158699035644531e+01 -3.558327484130859375e+01 -1.317807822488248348e-03 -3.572426794562488794e-04 -5.025151185691356659e-04 4.622975829988718033e-03
2.706000000000000000e+03 1.214824199676513672e+01 -4.112024688720703125e+01 -3.666100790724158287e-03 2.455632202327251434e-03 -3.631405706983059645e-04 1.586280064657330513e-03
2.707000000000000000e+03 8.929566383361816406e+00 3.816943740844726562e+01 -2.115377970039844513e-02 -5.289417505264282227e-01 -1.650286614894866943e-01 -1.527425181120634079e-02
2.708000000000000000e+03 7.250940704345703125e+01 -4.111415481567382812e+01 6.588660925626754761e-02 5.255619525909423828e+00 1.596451878547668457e+00 1.645822823047637939e-02
2.709000000000000000e+03 4.634669113159179688e+01 3.757137298583984375e+01 -4.946391582489013672e-01 1.083394289016723633e+00 1.766265332698822021e-01 7.195367664098739624e-02
2.710000000000000000e+03 2.643239212036132812e+01 -3.630660629272460938e+01 -1.147377677261829376e-02 -1.282562967389822006e-02 -7.289822213351726532e-03 -1.546892151236534119e-02
2.711000000000000000e+03 2.789584732055664062e+01 -3.796113967895507812e+01 -1.293160300701856613e-02 -4.328495264053344727e-02 -1.686496660113334656e-02 -3.593244776129722595e-02
2.712000000000000000e+03 5.142618179321289062e+01 -2.553033256530761719e+01 2.899040877819061279e-01 2.629371643066406250e+00 8.757827281951904297e-01 2.357973307371139526e-01
2.713000000000000000e+03 5.270333099365234375e+01 -2.386443328857421875e+01 -4.014466404914855957e-01 3.487926959991455078e+00 9.259440898895263672e-01 1.070429444313049316e+00
2.714000000000000000e+03 3.160104942321777344e+01 -8.961369514465332031e+00 -5.722297430038452148e-01 9.602289064787328243e-04 -1.713808625936508179e-01 8.287200331687927246e-01
2.715000000000000000e+03 4.999729537963867188e+01 -2.670768165588378906e+01 6.053671836853027344e-01 1.815285205841064453e+00 7.261956930160522461e-01 -1.721334084868431091e-02
2.716000000000000000e+03 5.392664337158203125e+01 -2.321622657775878906e+01 -9.468321204185485840e-01 4.944482326507568359e+00 1.199295043945312500e+00 1.699705243110656738e+00
2.717000000000000000e+03 1.135122108459472656e+01 -7.660310745239257812e+00 5.304988007992506027e-05 4.372750936454394832e-06 1.722678825899492949e-05 -9.069715815712697804e-06
2.718000000000000000e+03 2.089505577087402344e+01 1.651019692420959473e+00 -1.959972977638244629e-01 -8.922496438026428223e-01 -3.264741003513336182e-01 5.031636357307434082e-01
2.719000000000000000e+03 1.061853694915771484e+01 -8.145409584045410156e+00 -5.546671673073433340e-05 6.570875120814889669e-05 3.072610070375958458e-06 5.716152008972130716e-05
2.720000000000000000e+03 2.784827995300292969e+01 -5.597809791564941406e+00 -6.174476742744445801e-01 -2.835726737976074219e-01 -2.703061103820800781e-01 6.945498585700988770e-01
2.721000000000000000e+03 2.766098403930664062e+01 -3.905057430267333984e+00 -4.582113623619079590e-01 -2.422948032617568970e-01 -2.101518511772155762e-01 5.495753288269042969e-01
2.722000000000000000e+03 3.062201118469238281e+01 -8.022939682006835938e+00 -5.877991318702697754e-01 -3.894479945302009583e-02 -1.880231797695159912e-01 8.046755194664001465e-01
2.723000000000000000e+03 4.290741729736328125e+01 -1.320740795135498047e+01 -2.096713148057460785e-02 6.145616769790649414e-01 1.780783534049987793e-01 4.104644525796175003e-03
2.724000000000000000e+03 1.252452468872070312e+01 -8.888236045837402344e+00 1.228329056175425649e-04 6.405090243788436055e-05 5.606514241662807763e-05 -3.270612069172784686e-05
2.725000000000000000e+03 4.369530487060546875e+01 -1.331266689300537109e+01 1.152986064553260803e-01 6.912866234779357910e-01 2.419755607843399048e-01 -3.081885166466236115e-02
2.726000000000000000e+03 9.262498855590820312e+00 7.994849681854248047e+00 1.153192576020956039e-02 -5.711058974266052246e-01 -1.678721904754638672e-01 5.073623657226562500e-01
2.727000000000000000e+03 2.913289070129394531e+01 -7.436567783355712891e+00 -6.713783740997314453e-01 -1.721121966838836670e-01 -2.530471682548522949e-01 8.124854564666748047e-01
2.728000000000000000e+03 3.105939292907714844e+01 -8.589543342590332031e+00 -6.092697381973266602e-01 -2.768165804445743561e-02 -1.910854130983352661e-01 8.291618824005126953e-01
2.729000000000000000e+03 1.815386962890625000e+01 5.564628124237060547e+00 1.520523577928543091e-01 -8.150022029876708984e-01 -1.988849490880966187e-01 4.392487704753875732e-01
2.730000000000000000e+03 3.222619628906250000e+01 -1.089871120452880859e+01 -7.435429096221923828e-01 -8.476802706718444824e-02 -2.484932839870452881e-01 9.527236223220825195e-01
2.731000000000000000e+03 2.373226737976074219e+01 -2.997534573078155518e-01 -3.039692342281341553e-01 -6.910777688026428223e-01 -2.985140979290008545e-01 4.552202820777893066e-01
2.732000000000000000e+03 2.499409484863281250e+01 1.208529353141784668e+00 -2.052214258583262563e-04 -4.218937754631042480e-01 -1.266296952962875366e-01 2.979407906532287598e-01
2.733000000000000000e+03 2.729542732238769531e+01 -3.340248346328735352e+00 -4.220999479293823242e-01 -2.812233865261077881e-01 -2.109970003366470337e-01 5.164027810096740723e-01
2.734000000000000000e+03 2.705027961730957031e+01 -4.392339229583740234e+00 -5.624101758003234863e-01 -3.659231364727020264e-01 -2.784999907016754150e-01 6.176400184631347656e-01
2.735000000000000000e+03 1.767304801940917969e+01 6.187431335449218750e+00 1.933595538139343262e-01 -7.964764833450317383e-01 -1.809350848197937012e-01 4.302551150321960449e-01
2.736000000000000000e+03 1.907932281494140625e+01 3.277156114578247070e+00 -6.074916571378707886e-02 -8.997768163681030273e-01 -2.881577908992767334e-01 5.076376795768737793e-01
2.737000000000000000e+03 1.923948287963867188e+01 4.354393959045410156e+00 6.624637544155120850e-02 -8.369165062904357910e-01 -2.312010377645492554e-01 4.464310407638549805e-01
2.738000000000000000e+03 2.827155303955078125e+01 -3.402530431747436523e+00 -3.460885286331176758e-01 -1.220390647649765015e-01 -1.404382735490798950e-01 4.809063971042633057e-01
2.739000000000000000e+03 2.902046775817871094e+01 -4.559952735900878906e+00 -4.023904800415039062e-01 -5.528966337442398071e-02 -1.373040378093719482e-01 5.479499697685241699e-01
2.740000000000000000e+03 2.466126251220703125e+01 -1.400353789329528809e+00 -3.652466833591461182e-01 -6.085554957389831543e-01 -2.921406626701354980e-01 4.844064712524414062e-01
2.741000000000000000e+03 2.545838737487792969e+01 -9.069404006004333496e-01 -2.562744617462158203e-01 -4.590974152088165283e-01 -2.146115601062774658e-01 4.158669114112854004e-01
2.742000000000000000e+03 2.664733123779296875e+01 -2.182035207748413086e+00 -3.341886401176452637e-01 -3.304190635681152344e-01 -1.993823051452636719e-01 4.514175951480865479e-01
2.743000000000000000e+03 1.869325256347656250e+01 4.957311630249023438e+00 1.190822422504425049e-01 -8.270083665847778320e-01 -2.123778462409973145e-01 4.439718127250671387e-01
2.744000000000000000e+03 3.950512695312500000e+01 -5.039086341857910156e+00 5.190758109092712402e-01 1.460776448249816895e+00 5.939556956291198730e-01 -6.388226747512817383e-01
2.745000000000000000e+03 4.073167800903320312e+01 -7.681615352630615234e+00 5.457760095596313477e-01 1.192830920219421387e+00 5.215820670127868652e-01 -5.848910212516784668e-01
2.746000000000000000e+03 4.058697509765625000e+01 -5.480443000793457031e+00 6.021924614906311035e-01 1.596347808837890625e+00 6.595621109008789062e-01 -7.913551330566406250e-01
2.747000000000000000e+03 2.528313636779785156e+01 1.681814789772033691e-01 -1.206353977322578430e-01 -4.306413233280181885e-01 -1.653830111026763916e-01 3.463453948497772217e-01
2.748000000000000000e+03 2.338625526428222656e+01 8.276038169860839844e-01 -1.571692228317260742e-01 -6.723396778106689453e-01 -2.488526701927185059e-01 4.085009992122650146e-01
2.749000000000000000e+03 8.026761054992675781e+00 9.236183166503906250e+00 4.081510379910469055e-02 -5.548199415206909180e-01 -1.542014479637145996e-01 4.516952633857727051e-01
2.750000000000000000e+03 1.803938293457031250e+01 7.353356361389160156e+00 2.943936586380004883e-01 -7.354827523231506348e-01 -1.323267221450805664e-01 3.660982251167297363e-01
2.751000000000000000e+03 3.836340332031250000e+01 -3.936202526092529297e+00 4.517131149768829346e-01 1.413594365119934082e+00 5.595922470092773438e-01 -4.930469989776611328e-01
2.752000000000000000e+03 3.285298538208007812e+01 -9.978977203369140625e+00 -5.782599449157714844e-01 -2.410772867733612657e-04 -1.735503077507019043e-01 8.397180438041687012e-01
2.753000000000000000e+03 4.221057510375976562e+01 -1.029401779174804688e+01 5.616102218627929688e-01 9.731559753417968750e-01 4.604298472404479980e-01 -5.217624306678771973e-01
2.754000000000000000e+03 3.890472030639648438e+01 -1.302965259552001953e+01 -6.007252335548400879e-01 -4.761119186878204346e-02 -1.945009231567382812e-01 4.327608048915863037e-01
2.755000000000000000e+03 3.017053604125976562e+01 -7.436324119567871094e+00 -5.738461613655090332e-01 -5.404746532440185547e-02 -1.883680969476699829e-01 7.677984237670898438e-01
2.756000000000000000e+03 2.972436141967773438e+01 -6.853355884552001953e+00 -5.616713762283325195e-01 -7.359556853771209717e-02 -1.905800849199295044e-01 7.321664690971374512e-01
2.757000000000000000e+03 3.676118850708007812e+01 -9.822377204895019531e+00 -1.413148045539855957e-01 2.275767624378204346e-01 2.587858773767948151e-02 3.828888535499572754e-01
2.758000000000000000e+03 3.942222213745117188e+01 -8.079602241516113281e+00 3.580369055271148682e-01 8.427990674972534180e-01 3.602508008480072021e-01 -2.667049169540405273e-01
2.759000000000000000e+03 3.737184906005859375e+01 -1.185000801086425781e+01 -4.090932011604309082e-01 -4.519798234105110168e-02 -1.362873464822769165e-01 5.330520272254943848e-01
2.760000000000000000e+03 3.955419921875000000e+01 -1.278044033050537109e+01 -4.401607215404510498e-01 5.157245323061943054e-02 -1.165764778852462769e-01 3.114027082920074463e-01
2.761000000000000000e+03 4.889409637451171875e+01 -2.946064567565917969e+01 8.007422685623168945e-01 1.493826031684875488e+00 6.883704662322998047e-01 2.324841618537902832e-01
2.762000000000000000e+03 2.028073883056640625e+01 3.309253454208374023e+00 1.083592325448989868e-02 -8.278417587280273438e-01 -2.451017647981643677e-01 4.343827962875366211e-01
2.763000000000000000e+03 2.160696792602539062e+01 1.341730833053588867e+00 -1.985263079404830933e-01 -8.331460952758789062e-01 -3.095017373561859131e-01 4.796040952205657959e-01
2.764000000000000000e+03 3.817796325683593750e+01 -2.948630809783935547e+00 4.570242762565612793e-01 1.552846789360046387e+00 6.029613018035888672e-01 -5.152660608291625977e-01
2.765000000000000000e+03 9.109295845031738281e+00 -1.027311706542968750e+01 -2.211158862337470055e-04 4.890247146249748766e-05 -5.166402479517273605e-05 4.619130777427926660e-05
2.766000000000000000e+03 4.402869033813476562e+01 -1.139782047271728516e+01 7.966518402099609375e-01 1.105593085289001465e+00 5.706734657287597656e-01 -6.388896703720092773e-01
2.767000000000000000e+03 4.799081420898437500e+01 -3.211482620239257812e+01 6.124939322471618652e-01 1.388225674629211426e+00 6.002159118652343750e-01 6.795101761817932129e-01
2.768000000000000000e+03 4.126694488525390625e+01 -8.233572006225585938e+00 6.166351437568664551e-01 1.160096406936645508e+00 5.330194830894470215e-01 -6.509559154510498047e-01
2.769000000000000000e+03 1.084614372253417969e+01 7.136144161224365234e+00 -2.382041420787572861e-04 -6.390389204025268555e-01 -1.917831301689147949e-01 5.579951405525207520e-01
2.770000000000000000e+03 9.106480598449707031e+00 1.020234680175781250e+01 1.011799350380897522e-01 -6.053358912467956543e-01 -1.512467861175537109e-01 4.493482410907745361e-01
2.771000000000000000e+03 1.440613651275634766e+01 6.742911815643310547e+00 9.424906969070434570e-02 -7.782137393951416016e-01 -2.051894068717956543e-01 5.377588868141174316e-01
2.772000000000000000e+03 1.479108238220214844e+01 6.377199172973632812e+00 7.762396335601806641e-02 -8.021371960639953613e-01 -2.173539698123931885e-01 5.428425073623657227e-01
2.773000000000000000e+03 3.789699554443359375e+01 3.908180892467498779e-01 5.548689961433410645e-01 2.027571439743041992e+00 7.747321724891662598e-01 -6.059358119964599609e-01
2.774000000000000000e+03 3.145460700988769531e+01 -4.920158863067626953e+00 -2.252799421548843384e-01 2.562949359416961670e-01 9.304502978920936584e-03 4.411311447620391846e-01
2.775000000000000000e+03 3.717105102539062500e+01 -3.112665176391601562e+00 4.033848643302917480e-01 1.326470017433166504e+00 5.189564824104309082e-01 -3.563232123851776123e-01
2.776000000000000000e+03 3.475333404541015625e+01 -9.516904830932617188e+00 -3.390356302261352539e-01 1.209043860435485840e-01 -6.543937325477600098e-02 6.239534616470336914e-01
2.777000000000000000e+03 4.113094711303710938e+01 -1.350116252899169922e+01 -5.221427083015441895e-01 2.492112815380096436e-01 -8.187942951917648315e-02 2.255640923976898193e-01
2.778000000000000000e+03 5.056165313720703125e+01 -3.223591232299804688e+01 1.042753577232360840e+00 2.698291063308715820e+00 1.122313380241394043e+00 9.395428299903869629e-01
2.779000000000000000e+03 4.656718444824218750e+01 -3.216367721557617188e+01 4.433827996253967285e-01 7.036490440368652344e-01 3.441095352172851562e-01 5.821494460105895996e-01
2.780000000000000000e+03 4.244325637817382812e+01 -1.224773788452148438e+01 2.174737453460693359e-01 6.800956130027770996e-01 2.692708075046539307e-01 -1.566157639026641846e-01
2.781000000000000000e+03 3.734057235717773438e+01 1.424015641212463379e+00 6.134228706359863281e-01 2.016217947006225586e+00 7.888922095298767090e-01 -5.527986288070678711e-01
2.782000000000000000e+03 1.001019954681396484e+01 9.823858261108398438e+00 1.187018826603889465e-01 -6.262469291687011719e-01 -1.522635221481323242e-01 4.675478637218475342e-01
2.783000000000000000e+03 3.818713378906250000e+01 4.591652870178222656e+00 8.364428877830505371e-01 2.639029502868652344e+00 1.042641758918762207e+00 -6.583323478698730469e-01
2.784000000000000000e+03 8.248359680175781250e+00 1.451698875427246094e+01 1.524269729852676392e-01 -6.433417797088623047e-01 -1.472744345664978027e-01 3.078837692737579346e-01
2.785000000000000000e+03 9.346282005310058594e+00 1.501703357696533203e+01 1.879465281963348389e-01 -6.332308650016784668e-01 -1.335852891206741333e-01 2.980645298957824707e-01
2.786000000000000000e+03 9.640095710754394531e+00 2.111790275573730469e+01 1.616550981998443604e-01 -5.916811823844909668e-01 -1.290078312158584595e-01 1.128518581390380859e-01
2.787000000000000000e+03 4.228358459472656250e+01 -9.480379104614257812e+00 7.013691067695617676e-01 1.094339370727539062e+00 5.387125611305236816e-01 -6.618333458900451660e-01
2.788000000000000000e+03 1.060684204101562500e+01 1.543270587921142578e+01 2.320727705955505371e-01 -6.094782948493957520e-01 -1.132216602563858032e-01 2.774052023887634277e-01
2.789000000000000000e+03 1.041153717041015625e+01 1.658571243286132812e+01 2.191190123558044434e-01 -6.011700034141540527e-01 -1.146152913570404053e-01 2.405258715152740479e-01
2.790000000000000000e+03 6.991602897644042969e+00 2.121990013122558594e+01 9.309047460556030273e-02 -7.230070829391479492e-01 -1.889749765396118164e-01 1.195926889777183533e-01
2.791000000000000000e+03 8.838293075561523438e+00 9.198328971862792969e+00 6.244152039289474487e-02 -5.860344171524047852e-01 -1.570778638124465942e-01 4.712225496768951416e-01
2.792000000000000000e+03 1.110773658752441406e+01 2.288454818725585938e+01 1.669707894325256348e-01 -5.038102269172668457e-01 -1.010518297553062439e-01 6.125955656170845032e-02
2.793000000000000000e+03 4.977191543579101562e+01 -3.430718994140625000e+01 2.698851227760314941e-01 2.432272195816040039e+00 8.106471896171569824e-01 1.087761998176574707e+00
2.794000000000000000e+03 4.120236968994140625e+01 -1.067437934875488281e+01 3.103847205638885498e-01 6.753289103507995605e-01 2.957140803337097168e-01 -2.382526844739913940e-01
2.795000000000000000e+03 8.504723548889160156e+00 1.316933727264404297e+01 1.497433036565780640e-01 -6.307812929153442383e-01 -1.443113833665847778e-01 3.536257743835449219e-01
2.796000000000000000e+03 4.974133682250976562e+01 -3.606780624389648438e+01 -5.608401075005531311e-02 2.436563253402709961e+00 7.141438126564025879e-01 8.746035099029541016e-01
2.797000000000000000e+03 5.211429977416992188e+01 -3.579319000244140625e+01 -3.723141252994537354e-01 3.472849845886230469e+00 9.301607608795166016e-01 8.360075950622558594e-01
2.798000000000000000e+03 1.090248966217041016e+01 2.461577415466308594e+01 1.405390501022338867e-01 -4.908409416675567627e-01 -1.050905659794807434e-01 2.583521790802478790e-02
2.799000000000000000e+03 3.535436630249023438e+01 1.607870292663574219e+01 6.948396563529968262e-01 2.216852664947509766e+00 8.735077381134033203e-01 -5.367320775985717773e-01
2.800000000000000000e+03 3.325485610961914062e+01 1.340867137908935547e+01 8.985501527786254883e-01 1.659446716308593750e+00 7.673990726470947266e-01 -5.476974844932556152e-01
2.801000000000000000e+03 8.273801803588867188e+00 -9.702866554260253906e+00 1.782232575351372361e-04 -8.851308734847407322e-07 5.320143463904969394e-05 6.496729474747553468e-05
2.802000000000000000e+03 4.087717056274414062e+01 -1.125050258636474609e+01 1.884854286909103394e-01 4.756123125553131104e-01 1.992293298244476318e-01 -9.674468636512756348e-02
2.803000000000000000e+03 5.124952697753906250e+01 -2.769079589843750000e+01 8.678986430168151855e-01 2.768312454223632812e+00 1.090863347053527832e+00 1.032852977514266968e-01
2.804000000000000000e+03 3.357830810546875000e+01 1.914612579345703125e+01 5.273904800415039062e-01 1.735872149467468262e+00 6.789788007736206055e-01 -5.139012932777404785e-01
2.805000000000000000e+03 3.461600112915039062e+01 1.832578849792480469e+01 5.656453371047973633e-01 1.981189250946044922e+00 7.640503644943237305e-01 -4.886756837368011475e-01
2.806000000000000000e+03 1.277740573883056641e+01 2.305496025085449219e+01 2.035190314054489136e-01 -4.020235538482666016e-01 -5.955135449767112732e-02 2.815224044024944305e-02
2.807000000000000000e+03 1.211293220520019531e+01 2.692170333862304688e+01 1.150690093636512756e-01 -3.877905607223510742e-01 -8.181647211313247681e-02 -2.248299121856689453e-02
2.808000000000000000e+03 3.267982864379882812e+01 1.811354637145996094e+01 6.109855175018310547e-01 1.579395174980163574e+00 6.571142077445983887e-01 -5.216066241264343262e-01
2.809000000000000000e+03 2.028660011291503906e+01 -3.859853744506835938e+01 -6.994147319346666336e-03 -2.600191859528422356e-03 -2.878301776945590973e-03 2.207342535257339478e-03
2.810000000000000000e+03 3.530812072753906250e+01 7.600383758544921875e+00 9.927809834480285645e-01 1.958424448966979980e+00 8.853616118431091309e-01 -4.801409244537353516e-01
2.811000000000000000e+03 3.675184631347656250e+01 2.444324016571044922e+00 6.578540205955505371e-01 2.004933357238769531e+00 7.988362312316894531e-01 -4.983674287796020508e-01
2.812000000000000000e+03 3.509495925903320312e+01 2.689863395690917969e+01 -2.714152261614799500e-02 1.713707089424133301e+00 5.059697031974792480e-01 -3.034406900405883789e-01
2.813000000000000000e+03 3.433060073852539062e+01 2.276595878601074219e+01 2.518714070320129395e-01 1.782233476638793945e+00 6.102314591407775879e-01 -4.050548672676086426e-01
2.814000000000000000e+03 7.186139678955078125e+01 -1.484488487243652344e+01 -2.277017980813980103e-01 5.681869506835937500e+00 1.636250257492065430e+00 -4.965774416923522949e-01
2.815000000000000000e+03 1.195337295532226562e+01 3.155803108215332031e+01 3.942473977804183960e-02 -3.365280330181121826e-01 -8.913099020719528198e-02 -6.012211740016937256e-02
2.816000000000000000e+03 2.450308036804199219e+01 -3.762287902832031250e+01 -1.055692229419946671e-02 -1.540092565119266510e-02 -7.787354290485382080e-03 -1.242284476757049561e-02
2.817000000000000000e+03 3.461328887939453125e+01 8.688442230224609375e+00 1.015347123146057129e+00 1.819323539733886719e+00 8.504012227058410645e-01 -4.828417301177978516e-01
2.818000000000000000e+03 8.626356124877929688e+00 -3.877303314208984375e+01 -1.722668297588825226e-03 1.858396455645561218e-03 4.071844159625470638e-05 1.557826646603643894e-03
2.819000000000000000e+03 3.739811325073242188e+01 -4.127801132202148438e+01 2.995193004608154297e-01 -2.983496487140655518e-01 3.509029338601976633e-04 -5.853274837136268616e-02
2.820000000000000000e+03 4.029536437988281250e+01 -3.839141464233398438e+01 3.085751831531524658e-01 -2.072215676307678223e-01 3.040608577430248260e-02 2.451490052044391632e-02
2.821000000000000000e+03 1.130569934844970703e+01 3.481772994995117188e+01 -7.175318896770477295e-03 -3.574905395507812500e-01 -1.093997582793235779e-01 -5.869302898645401001e-02
2.822000000000000000e+03 7.978832721710205078e+00 -4.122021484375000000e+01 -1.220988226123154163e-03 1.556574366986751556e-03 1.006758393486961722e-04 -3.463227767497301102e-04
2.823000000000000000e+03 2.983455657958984375e+01 -3.986565017700195312e+01 3.080696985125541687e-02 -8.884025365114212036e-02 -1.740998402237892151e-02 -4.461096972227096558e-02
2.824000000000000000e+03 4.799177932739257812e+01 3.889765930175781250e+01 -4.877437651157379150e-01 9.089912176132202148e-01 1.263742297887802124e-01 9.434951841831207275e-02
2.825000000000000000e+03 4.273554992675781250e+01 4.071909713745117188e+01 -5.867738723754882812e-01 1.366128563880920410e+00 2.338064163923263550e-01 1.231073867529630661e-02
2.826000000000000000e+03 5.145386505126953125e+01 -2.692860031127929688e+01 7.091311812400817871e-01 3.004365205764770508e+00 1.114048838615417480e+00 1.464396566152572632e-01
2.827000000000000000e+03 3.165634918212890625e+01 -8.144278526306152344e+00 -4.855605661869049072e-01 4.257851466536521912e-02 -1.328946202993392944e-01 7.468084692955017090e-01
2.828000000000000000e+03 5.485337448120117188e+01 -2.276273918151855469e+01 -1.312195181846618652e+00 6.319012165069580078e+00 1.502045154571533203e+00 1.751101613044738770e+00
2.829000000000000000e+03 2.029719734191894531e+01 2.221552610397338867e+00 -1.516591459512710571e-01 -9.044507145881652832e-01 -3.168329596519470215e-01 5.011973381042480469e-01
2.830000000000000000e+03 4.390060424804687500e+01 -1.235175800323486328e+01 5.468473434448242188e-01 9.211734533309936523e-01 4.404062330722808838e-01 -3.635097146034240723e-01
2.831000000000000000e+03 3.123812866210937500e+01 -7.434154510498046875e+00 -4.601992368698120117e-01 5.510353669524192810e-02 -1.215287074446678162e-01 7.034512758255004883e-01
2.832000000000000000e+03 2.843835258483886719e+01 -5.081578254699707031e+00 -5.157068967819213867e-01 -1.677107214927673340e-01 -2.050252854824066162e-01 6.231228709220886230e-01
2.833000000000000000e+03 2.888379287719726562e+01 -2.892320394515991211e+00 -2.377098649740219116e-01 8.108262903988361359e-03 -6.888048350811004639e-02 4.104121625423431396e-01
2.834000000000000000e+03 2.928459739685058594e+01 -6.269383907318115234e+00 -5.536690950393676758e-01 -1.004929095506668091e-01 -1.962486058473587036e-01 6.963073015213012695e-01
2.835000000000000000e+03 3.078000068664550781e+01 -6.816431045532226562e+00 -4.526463747024536133e-01 4.753613099455833435e-02 -1.215330734848976135e-01 6.690281629562377930e-01
2.836000000000000000e+03 2.804157257080078125e+01 -4.487285614013671875e+00 -4.838721156120300293e-01 -2.065122574567794800e-01 -2.071153074502944946e-01 5.852882266044616699e-01
2.837000000000000000e+03 2.092461776733398438e+01 2.777478456497192383e+00 -2.506645023822784424e-02 -8.212340474128723145e-01 -2.538901567459106445e-01 4.235908091068267822e-01
2.838000000000000000e+03 4.057905960083007812e+01 -1.287443447113037109e+01 -3.607247769832611084e-01 1.942751258611679077e-01 -4.993489757180213928e-02 1.964589506387710571e-01
2.839000000000000000e+03 4.159063339233398438e+01 -1.272717952728271484e+01 -1.436292678117752075e-01 4.315452873706817627e-01 8.637480437755584717e-02 6.866357475519180298e-02
2.840000000000000000e+03 2.045968437194824219e+01 4.034593105316162109e+00 1.001876741647720337e-01 -7.801585793495178223e-01 -2.039912641048431396e-01 3.835706710815429688e-01
2.841000000000000000e+03 1.971259689331054688e+01 3.763712644577026367e+00 2.632237412035465240e-02 -8.384563326835632324e-01 -2.436401844024658203e-01 4.442992508411407471e-01
2.842000000000000000e+03 2.004826354980468750e+01 4.815511226654052734e+00 1.744343191385269165e-01 -7.564003467559814453e-01 -1.745898127555847168e-01 3.697050213813781738e-01
2.843000000000000000e+03 3.450375747680664062e+01 -1.028738975524902344e+01 -4.655660688877105713e-01 1.586964540183544159e-02 -1.349089294672012329e-01 7.366528511047363281e-01
2.844000000000000000e+03 3.224663162231445312e+01 -9.364225387573242188e+00 -5.636608004570007324e-01 4.395352210849523544e-03 -1.677796393632888794e-01 8.316140174865722656e-01
2.845000000000000000e+03 2.456291198730468750e+01 1.981645464897155762e+00 7.023580372333526611e-02 -4.484851062297821045e-01 -1.134747937321662903e-01 2.719420194625854492e-01
2.846000000000000000e+03 2.631588554382324219e+01 -6.581129431724548340e-01 -1.688601821660995483e-01 -3.090632557868957520e-01 -1.433770358562469482e-01 3.524543642997741699e-01
2.847000000000000000e+03 8.912726402282714844e+00 -8.327574729919433594e+00 1.888625847641378641e-04 2.749051054706797004e-05 6.490592932095751166e-05 5.935769149800762534e-05
2.848000000000000000e+03 1.728469276428222656e+01 6.851685523986816406e+00 2.268934398889541626e-01 -7.744083404541015625e-01 -1.642544716596603394e-01 4.216847121715545654e-01
2.849000000000000000e+03 2.388858604431152344e+01 1.785781383514404297e+00 1.591398194432258606e-02 -5.451097488403320312e-01 -1.587587296962738037e-01 3.188068866729736328e-01
2.850000000000000000e+03 2.643002891540527344e+01 -1.486254334449768066e+00 -2.626149654388427734e-01 -3.308823704719543457e-01 -1.780492067337036133e-01 4.128781855106353760e-01
2.851000000000000000e+03 2.717181587219238281e+01 -5.946800112724304199e-01 -9.843616932630538940e-02 -1.682347506284713745e-01 -8.000127971172332764e-02 3.101702034473419189e-01
2.852000000000000000e+03 2.724064826965332031e+01 -1.869070649147033691e+00 -2.615182101726531982e-01 -2.195608168840408325e-01 -1.443237066268920898e-01 4.014073014259338379e-01
2.853000000000000000e+03 3.630372238159179688e+01 -3.377049207687377930e+00 3.171367943286895752e-01 1.132746696472167969e+00 4.349650442600250244e-01 -1.983494162559509277e-01
2.854000000000000000e+03 3.781510162353515625e+01 -1.954515576362609863e+00 4.827417433261871338e-01 1.642107248306274414e+00 6.374546885490417480e-01 -5.288094282150268555e-01
2.855000000000000000e+03 1.377652931213378906e+01 7.709276676177978516e+00 1.373197287321090698e-01 -7.410660982131958008e-01 -1.811239123344421387e-01 5.184673666954040527e-01
2.856000000000000000e+03 3.042786407470703125e+01 -5.101257324218750000e+00 -3.352710008621215820e-01 1.117899194359779358e-01 -6.704432517290115356e-02 5.216604471206665039e-01
2.857000000000000000e+03 4.080081939697265625e+01 -1.015944385528564453e+01 3.348510563373565674e-01 7.135666012763977051e-01 3.145253062248229980e-01 -2.605181634426116943e-01
2.858000000000000000e+03 3.737206268310546875e+01 -3.962110042572021484e+00 3.652165234088897705e-01 1.236725926399230957e+00 4.805827438831329346e-01 -3.097211718559265137e-01
2.859000000000000000e+03 2.141286087036132812e+01 2.070090055465698242e+00 -8.432165533304214478e-02 -8.050932884216308594e-01 -2.668244838714599609e-01 4.427183270454406738e-01
2.860000000000000000e+03 2.240122413635253906e+01 1.455524921417236328e+00 -1.364449858665466309e-01 -7.539126873016357422e-01 -2.671073079109191895e-01 4.277239143848419189e-01
2.861000000000000000e+03 3.924185562133789062e+01 -1.065052604675292969e+01 4.473683238029479980e-02 3.402899503707885742e-01 1.155080348253250122e-01 9.574911743402481079e-02
2.862000000000000000e+03 3.584816741943359375e+01 -1.073108196258544922e+01 -3.906897902488708496e-01 6.232215836644172668e-02 -9.851028770208358765e-02 6.192487478256225586e-01
2.863000000000000000e+03 3.359531402587890625e+01 -9.067868232727050781e+00 -3.997520804405212402e-01 1.034230664372444153e-01 -8.889870345592498779e-02 6.986359953880310059e-01
2.864000000000000000e+03 1.087437915802001953e+01 9.387299537658691406e+00 1.315378099679946899e-01 -6.460713148117065430e-01 -1.543600410223007202e-01 4.831027984619140625e-01
2.865000000000000000e+03 1.024775886535644531e+01 1.250669574737548828e+01 1.959358900785446167e-01 -6.300218701362609863e-01 -1.302257925271987915e-01 3.785853385925292969e-01
2.866000000000000000e+03 4.930960845947265625e+01 -2.838689994812011719e+01 7.980276942253112793e-01 1.577099800109863281e+00 7.125382423400878906e-01 1.054047122597694397e-01
2.867000000000000000e+03 3.831403732299804688e+01 -4.909037590026855469e+00 4.127374887466430664e-01 1.237684965133666992e+00 4.951267242431640625e-01 -3.884361982345581055e-01
2.868000000000000000e+03 1.247549152374267578e+01 8.546683311462402344e+00 1.467679142951965332e-01 -6.933669447898864746e-01 -1.639797091484069824e-01 5.041984915733337402e-01
2.869000000000000000e+03 4.921837997436523438e+01 -3.299214935302734375e+01 6.471384167671203613e-01 1.946718811988830566e+00 7.781571745872497559e-01 9.962017536163330078e-01
2.870000000000000000e+03 3.582769775390625000e+01 -9.139956474304199219e+00 -1.358822584152221680e-01 2.554245889186859131e-01 3.586269915103912354e-02 4.269200563430786133e-01
2.871000000000000000e+03 3.992914581298828125e+01 -7.198290824890136719e+00 5.162897109985351562e-01 1.087609529495239258e+00 4.811697602272033691e-01 -4.924864172935485840e-01
2.872000000000000000e+03 3.681798934936523438e+01 2.029468864202499390e-02 5.321742892265319824e-01 1.701455235481262207e+00 6.700888276100158691e-01 -4.568638503551483154e-01
2.873000000000000000e+03 5.027659225463867188e+01 -2.859470558166503906e+01 9.938571453094482422e-01 2.142392158508300781e+00 9.408748149871826172e-01 1.871490329504013062e-01
2.874000000000000000e+03 5.117921066284179688e+01 -2.847808456420898438e+01 1.112483859062194824e+00 2.886172771453857422e+00 1.199597001075744629e+00 2.303133010864257812e-01
2.875000000000000000e+03 3.599189376831054688e+01 -9.881656646728515625e+00 -2.240045964717864990e-01 1.673368662595748901e-01 -1.700031943619251251e-02 4.947755336761474609e-01
2.876000000000000000e+03 3.664236831665039062e+01 -1.080655193328857422e+01 -3.007461130619049072e-01 5.586873367428779602e-02 -7.346320897340774536e-02 5.185874700546264648e-01
2.877000000000000000e+03 3.383083724975585938e+01 9.829277038574218750e+00 9.998363852500915527e-01 1.678774237632751465e+00 8.035832047462463379e-01 -4.827308952808380127e-01
2.878000000000000000e+03 4.149122238159179688e+01 -9.453418731689453125e+00 5.451095700263977051e-01 9.903281331062316895e-01 4.606313407421112061e-01 -5.130659341812133789e-01
2.879000000000000000e+03 3.995092010498046875e+01 -9.425553321838378906e+00 3.055766224861145020e-01 6.869574189186096191e-01 2.977602183818817139e-01 -2.036231011152267456e-01
2.880000000000000000e+03 1.086610412597656250e+01 1.949819374084472656e+01 2.157555371522903442e-01 -5.540540814399719238e-01 -1.014895588159561157e-01 1.438422948122024536e-01
2.881000000000000000e+03 9.523810386657714844e+00 1.957203865051269531e+01 1.740018427371978760e-01 -6.082813143730163574e-01 -1.302838474512100220e-01 1.579351276159286499e-01
2.882000000000000000e+03 3.431232070922851562e+01 6.954559326171875000e+00 9.262527823448181152e-01 1.647322297096252441e+00 7.720725536346435547e-01 -4.172874093055725098e-01
2.883000000000000000e+03 9.517854690551757812e+00 1.141605663299560547e+01 1.500111669301986694e-01 -6.250146627426147461e-01 -1.425010412931442261e-01 4.136883616447448730e-01
2.884000000000000000e+03 8.284385681152343750e+00 -7.995635032653808594e+00 -1.107869102270342410e-04 -4.098943009012145922e-06 -3.446575647103600204e-05 2.361273254791740328e-05
2.885000000000000000e+03 3.587570571899414062e+01 6.480695724487304688e+00 9.401484727859497070e-01 2.066445350646972656e+00 9.019781351089477539e-01 -4.863270819187164307e-01
2.886000000000000000e+03 3.699454116821289062e+01 4.079513549804687500e+00 7.906162738800048828e-01 2.216311216354370117e+00 9.020782709121704102e-01 -5.453194975852966309e-01
2.887000000000000000e+03 4.007794189453125000e+01 -1.036939334869384766e+01 1.870285868644714355e-01 4.865370094776153564e-01 2.020696848630905151e-01 -6.968617439270019531e-02
2.888000000000000000e+03 9.604205131530761719e+00 2.270281791687011719e+01 1.390674263238906860e-01 -5.856359004974365234e-01 -1.339705437421798706e-01 8.025366812944412231e-02
2.889000000000000000e+03 3.204177856445312500e+01 1.463841056823730469e+01 8.163920640945434570e-01 1.394890546798706055e+00 6.633847951889038086e-01 -5.170437097549438477e-01
2.890000000000000000e+03 3.308546447753906250e+01 1.580871200561523438e+01 7.454546689987182617e-01 1.656482577323913574e+00 7.205811738967895508e-01 -5.455982685089111328e-01
2.891000000000000000e+03 3.026496315002441406e+01 2.536614608764648438e+01 1.547906845808029175e-01 1.211461782455444336e+00 4.098757505416870117e-01 -4.081701934337615967e-01
2.892000000000000000e+03 1.107581710815429688e+01 2.114990234375000000e+01 1.957071125507354736e-01 -5.246947407722473145e-01 -9.869629144668579102e-02 1.000220850110054016e-01
2.893000000000000000e+03 1.349089622497558594e+01 3.317846298217773438e+01 1.399915851652622223e-02 -2.201160937547683716e-01 -6.183508038520812988e-02 -6.970544904470443726e-02
2.894000000000000000e+03 1.185809993743896484e+01 1.777388000488281250e+01 2.639878988265991211e-01 -5.445379018783569336e-01 -8.416500687599182129e-02 1.818848699331283569e-01
2.895000000000000000e+03 2.311830329895019531e+01 -3.933268737792968750e+01 -2.770881401374936104e-03 -2.229277044534683228e-02 -7.519095670431852341e-03 -3.322915174067020416e-03
2.896000000000000000e+03 3.298195266723632812e+01 2.754986000061035156e+01 -2.487990632653236389e-02 1.504580736160278320e+00 4.439102709293365479e-01 -3.488565683364868164e-01
2.897000000000000000e+03 3.685967636108398438e+01 3.115797805786132812e+01 -2.845461666584014893e-01 1.676359772682189941e+00 4.175440669059753418e-01 -1.810395568609237671e-01
2.898000000000000000e+03 5.149508666992187500e+01 -2.620020866394042969e+01 4.415635764598846436e-01 2.828976154327392578e+00 9.811618924140930176e-01 2.034062147140502930e-01
2.899000000000000000e+03 9.751465797424316406e+00 -8.398581504821777344e+00 -1.557987416163086891e-04 -4.185891157248988748e-05 -5.929729377385228872e-05 -9.521934407530352473e-05
2.900000000000000000e+03 2.135975837707519531e+01 4.105537891387939453e+00 1.528722792863845825e-01 -7.071018218994140625e-01 -1.662688553333282471e-01 3.368986546993255615e-01
2.901000000000000000e+03 2.768364143371582031e+01 -1.424208641052246094e+00 -1.646295636892318726e-01 -1.262666583061218262e-01 -8.726886659860610962e-02 3.453092575073242188e-01
2.902000000000000000e+03 2.863886070251464844e+01 -3.978733062744140625e+00 -3.806599080562591553e-01 -8.635443449020385742e-02 -1.401043087244033813e-01 5.137366652488708496e-01
2.903000000000000000e+03 3.190096092224121094e+01 -6.812633991241455078e+00 -3.457787632942199707e-01 1.699001342058181763e-01 -5.276358872652053833e-02 5.952546000480651855e-01
2.904000000000000000e+03 3.405741500854492188e+01 -9.770954132080078125e+00 -4.269215166568756104e-01 7.272450625896453857e-02 -1.062591075897216797e-01 7.135705351829528809e-01
2.905000000000000000e+03 2.440268898010253906e+01 2.727082729339599609e+00 1.488224118947982788e-01 -4.311961829662322998e-01 -8.471213281154632568e-02 2.411138266324996948e-01
2.906000000000000000e+03 2.791156578063964844e+01 -2.851796865463256836e+00 -3.162805438041687012e-01 -1.570981591939926147e-01 -1.420136094093322754e-01 4.510182440280914307e-01
2.907000000000000000e+03 3.090419197082519531e+01 -5.609007835388183594e+00 -3.320214748382568359e-01 1.375747621059417725e-01 -5.833401530981063843e-02 5.437800288200378418e-01
2.908000000000000000e+03 2.986804580688476562e+01 -5.694339752197265625e+00 -4.394219219684600830e-01 6.605859845876693726e-03 -1.298448145389556885e-01 6.122967600822448730e-01
2.909000000000000000e+03 3.875094223022460938e+01 -8.776499748229980469e+00 2.593834400177001953e-01 6.040173768997192383e-01 2.590202391147613525e-01 -8.024631440639495850e-02
2.910000000000000000e+03 1.262385559082031250e+01 7.322252273559570312e+00 7.478868961334228516e-02 -7.114121913909912109e-01 -1.909870505332946777e-01 5.473741292953491211e-01
2.911000000000000000e+03 3.664249038696289062e+01 -7.914728641510009766e+00 5.530919879674911499e-02 5.209904313087463379e-01 1.728899031877517700e-01 1.866678744554519653e-01
2.912000000000000000e+03 1.950145339965820312e+01 5.500389099121093750e+00 2.131858915090560913e-01 -7.517313957214355469e-01 -1.615636646747589111e-01 3.706058859825134277e-01
2.913000000000000000e+03 1.900200271606445312e+01 6.151070594787597656e+00 2.465187758207321167e-01 -7.493770122528076172e-01 -1.508574634790420532e-01 3.698770999908447266e-01
2.914000000000000000e+03 3.679050827026367188e+01 -2.235644102096557617e+00 3.994977176189422607e-01 1.387343645095825195e+00 5.360524058341979980e-01 -3.415452837944030762e-01
2.915000000000000000e+03 3.733690261840820312e+01 -4.815601825714111328e+00 3.406125605106353760e-01 1.103220701217651367e+00 4.331499636173248291e-01 -2.584120929241180420e-01
2.916000000000000000e+03 2.997829627990722656e+01 -4.593746662139892578e+00 -3.174058496952056885e-01 8.640523999929428101e-02 -6.930018961429595947e-02 5.029841065406799316e-01
2.917000000000000000e+03 3.537817764282226562e+01 -9.775548934936523438e+00 -3.097507655620574951e-01 1.642760634422302246e-01 -4.364240914583206177e-02 5.785729289054870605e-01
2.918000000000000000e+03 3.518751525878906250e+01 -8.607390403747558594e+00 -1.735915839672088623e-01 2.655076682567596436e-01 2.757482416927814484e-02 4.724290072917938232e-01
2.919000000000000000e+03 2.171471214294433594e+01 3.211040735244750977e+00 6.225816905498504639e-02 -7.215192914009094238e-01 -1.977783292531967163e-01 3.619723916053771973e-01
2.920000000000000000e+03 1.850928497314453125e+01 6.776120185852050781e+00 2.707516252994537354e-01 -7.456975579261779785e-01 -1.424837857484817505e-01 3.717485070228576660e-01
2.921000000000000000e+03 1.859738731384277344e+01 8.002391815185546875e+00 3.553623259067535400e-01 -6.688957214355468750e-01 -9.406002610921859741e-02 3.080383241176605225e-01
2.922000000000000000e+03 2.852417182922363281e+01 -2.321166038513183594e+00 -1.995687782764434814e-01 -3.003043495118618011e-02 -6.887976080179214478e-02 3.788722753524780273e-01
2.923000000000000000e+03 2.756190681457519531e+01 -2.343546867370605469e+00 -2.848322987556457520e-01 -1.963521987199783325e-01 -1.443553417921066284e-01 4.229298830032348633e-01
2.924000000000000000e+03 2.569959831237792969e+01 1.912356257438659668e+00 1.191258430480957031e-01 -2.902454435825347900e-01 -5.133587867021560669e-02 2.257822751998901367e-01
2.925000000000000000e+03 2.654289817810058594e+01 1.435696482658386230e+00 1.109470874071121216e-01 -1.845549494028091431e-01 -2.208236046135425568e-02 2.141000181436538696e-01
2.926000000000000000e+03 2.710474586486816406e+01 -1.321886062622070312e+00 -1.905825883150100708e-01 -2.092019766569137573e-01 -1.199353709816932678e-01 3.648868799209594727e-01
2.927000000000000000e+03 3.139706611633300781e+01 -6.164595603942871094e+00 -3.418064713478088379e-01 1.613138765096664429e-01 -5.414778366684913635e-02 5.661665201187133789e-01
2.928000000000000000e+03 3.240467453002929688e+01 -3.331515789031982422e+00 7.221258711069822311e-03 4.959877431392669678e-01 1.509626954793930054e-01 2.257812023162841797e-01
2.929000000000000000e+03 1.317936134338378906e+01 8.097515106201171875e+00 1.398673653602600098e-01 -7.186923623085021973e-01 -1.736475080251693726e-01 5.126060247421264648e-01
2.930000000000000000e+03 1.385775566101074219e+01 9.027888298034667969e+00 2.257000952959060669e-01 -7.093348503112792969e-01 -1.450904309749603271e-01 4.581676125526428223e-01
2.931000000000000000e+03 4.104542922973632812e+01 -1.227867126464843750e+01 -9.845633804798126221e-02 3.443272709846496582e-01 7.376127690076828003e-02 4.948907345533370972e-02
2.932000000000000000e+03 1.477793407440185547e+01 7.677090167999267578e+00 1.867406517267227173e-01 -7.621107697486877441e-01 -1.726110279560089111e-01 4.858908355236053467e-01
2.933000000000000000e+03 1.555493259429931641e+01 7.066311836242675781e+00 1.761183440685272217e-01 -7.809939980506896973e-01 -1.814627051353454590e-01 4.835141301155090332e-01
2.934000000000000000e+03 2.211810684204101562e+01 2.334932327270507812e+00 -1.184617821127176285e-02 -7.291485071182250977e-01 -2.222984135150909424e-01 3.918348550796508789e-01
2.935000000000000000e+03 2.289880371093750000e+01 2.557406902313232422e+00 4.819959029555320740e-02 -6.239302158355712891e-01 -1.727191805839538574e-01 3.254508376121520996e-01
2.936000000000000000e+03 3.809167098999023438e+01 -5.897827148437500000e+00 3.572166860103607178e-01 1.038973093032836914e+00 4.188569188117980957e-01 -2.694620788097381592e-01
2.937000000000000000e+03 3.504529953002929688e+01 -5.707457542419433594e+00 6.703076511621475220e-02 6.380668282508850098e-01 2.115292698144912720e-01 1.661043763160705566e-01
2.938000000000000000e+03 3.827603530883789062e+01 -9.922171592712402344e+00 4.246705397963523865e-02 3.550213575363159180e-01 1.192465275526046753e-01 1.528663039207458496e-01
2.939000000000000000e+03 3.747627258300781250e+01 -1.086060619354248047e+01 -2.419682145118713379e-01 1.292187124490737915e-01 -3.382484987378120422e-02 4.075632989406585693e-01
2.940000000000000000e+03 3.628516006469726562e+01 -1.325243711471557617e+00 4.350758492946624756e-01 1.402334451675415039e+00 5.512230992317199707e-01 -3.344205021858215332e-01
2.941000000000000000e+03 9.707877159118652344e+00 1.362848949432373047e+01 1.876277029514312744e-01 -6.300366520881652832e-01 -1.327226758003234863e-01 3.450314998626708984e-01
2.942000000000000000e+03 1.259918880462646484e+01 2.110336875915527344e+01 2.345769554376602173e-01 -4.477023184299468994e-01 -6.393760442733764648e-02 7.399427145719528198e-02
2.943000000000000000e+03 1.353574275970458984e+01 1.044599819183349609e+01 2.650724053382873535e-01 -6.722476482391357422e-01 -1.221525669097900391e-01 4.136191308498382568e-01
2.944000000000000000e+03 9.637598991394042969e+00 8.852881431579589844e+00 6.772384047508239746e-02 -6.036309599876403809e-01 -1.607721447944641113e-01 4.921180009841918945e-01
2.945000000000000000e+03 1.045596408843994141e+01 8.447810173034667969e+00 7.130409777164459229e-02 -6.312357187271118164e-01 -1.679794788360595703e-01 5.136827230453491211e-01
2.946000000000000000e+03 1.146534442901611328e+01 1.634077072143554688e+01 2.582753300666809082e-01 -5.817826986312866211e-01 -9.705220162868499756e-02 2.384480684995651245e-01
2.947000000000000000e+03 3.829169464111328125e+01 -8.196187973022460938e+00 2.416645586490631104e-01 6.483257412910461426e-01 2.669970989227294922e-01 -5.939519777894020081e-02
2.948000000000000000e+03 3.441539382934570312e+01 -8.097794532775878906e+00 -2.034213095903396606e-01 2.698785960674285889e-01 1.993718557059764862e-02 4.990402758121490479e-01
2.949000000000000000e+03 3.629205703735351562e+01 1.004704594612121582e+00 5.559856891632080078e-01 1.705201029777526855e+00 6.783559918403625488e-01 -4.115578234195709229e-01
2.950000000000000000e+03 1.492090129852294922e+01 6.993384838104248047e+00 1.449433118104934692e-01 -7.896468639373779297e-01 -1.934110671281814575e-01 5.106481909751892090e-01
2.951000000000000000e+03 1.627770996093750000e+01 7.179121494293212891e+00 2.013853937387466431e-01 -7.764069437980651855e-01 -1.725064665079116821e-01 4.592998623847961426e-01
2.952000000000000000e+03 3.608195877075195312e+01 3.424180507659912109e+00 7.241101264953613281e-01 1.902241945266723633e+00 7.879056334495544434e-01 -4.377530813217163086e-01
2.953000000000000000e+03 3.477532196044921875e+01 6.067378997802734375e+00 8.930840492248535156e-01 1.738160967826843262e+00 7.893735170364379883e-01 -4.073893427848815918e-01
2.954000000000000000e+03 1.219048881530761719e+01 1.934156036376953125e+01 2.538463473320007324e-01 -5.047678947448730469e-01 -7.527645677328109741e-02 1.304477453231811523e-01
2.955000000000000000e+03 1.061805534362792969e+01 1.796508216857910156e+01 2.175844907760620117e-01 -5.842913389205932617e-01 -1.100120544433593750e-01 1.978735774755477905e-01
2.956000000000000000e+03 3.908569717407226562e+01 -9.611845016479492188e+00 1.665519177913665771e-01 4.911786019802093506e-01 1.973191499710083008e-01 -9.234817698597908020e-03
2.957000000000000000e+03 3.085976982116699219e+01 8.994986534118652344e+00 8.809358477592468262e-01 9.277634620666503906e-01 5.426098108291625977e-01 -3.334742188453674316e-01
2.958000000000000000e+03 3.184178352355957031e+01 1.001481056213378906e+01 9.344717264175415039e-01 1.182141780853271484e+00 6.349840760231018066e-01 -4.141995906829833984e-01
2.959000000000000000e+03 4.311684036254882812e+01 -1.136191082000732422e+01 5.947176814079284668e-01 9.470534324645996094e-01 4.625313282012939453e-01 -4.879121780395507812e-01
2.960000000000000000e+03 1.095299148559570312e+01 1.427201461791992188e+01 2.405225038528442383e-01 -6.157588958740234375e-01 -1.125709190964698792e-01 3.117824792861938477e-01
2.961000000000000000e+03 3.085387802124023438e+01 1.114957618713378906e+01 9.030333757400512695e-01 1.020275473594665527e+00 5.769926905632019043e-01 -4.120127558708190918e-01
2.962000000000000000e+03 3.090113449096679688e+01 1.351564788818359375e+01 8.653694391250610352e-01 1.141360402107238770e+00 6.020189523696899414e-01 -4.748695790767669678e-01
2.963000000000000000e+03 2.975121498107910156e+01 2.023194694519042969e+01 4.838548004627227783e-01 1.115461349487304688e+00 4.797948598861694336e-01 -4.711137115955352783e-01
2.964000000000000000e+03 3.089463996887207031e+01 1.593558311462402344e+01 7.394273877143859863e-01 1.186266660690307617e+00 5.777082443237304688e-01 -4.898778796195983887e-01
2.965000000000000000e+03 3.355223846435546875e+01 7.827686786651611328e+00 9.525917768478393555e-01 1.522843599319458008e+00 7.426306605339050293e-01 -4.016795754432678223e-01
2.966000000000000000e+03 1.462300777435302734e+01 2.344937705993652344e+01 2.296870648860931396e-01 -2.835588753223419189e-01 -1.616154611110687256e-02 -1.785472221672534943e-02
2.967000000000000000e+03 1.163664817810058594e+01 1.254587459564208984e+01 2.424111217260360718e-01 -6.328822374343872070e-01 -1.171413287520408630e-01 3.678281605243682861e-01
2.968000000000000000e+03 3.272649002075195312e+01 8.882694244384765625e+00 9.524038434028625488e-01 1.337795972824096680e+00 6.870599389076232910e-01 -4.084978103637695312e-01
2.969000000000000000e+03 1.589580726623535156e+01 2.846939277648925781e+01 1.040945500135421753e-01 -7.421136647462844849e-02 8.964956738054752350e-03 -9.555069357156753540e-02
2.970000000000000000e+03 1.720024490356445312e+01 3.212031936645507812e+01 1.738206855952739716e-02 1.053066104650497437e-01 3.680660575628280640e-02 -1.196447014808654785e-01
2.971000000000000000e+03 3.510238265991210938e+01 3.241887283325195312e+01 -3.189244866371154785e-01 1.540350794792175293e+00 3.664278686046600342e-01 -2.095512151718139648e-01
2.972000000000000000e+03 3.384842300415039062e+01 2.999662780761718750e+01 -1.804174035787582397e-01 1.513523340225219727e+00 3.999317884445190430e-01 -2.859636545181274414e-01
2.973000000000000000e+03 3.296997833251953125e+01 -8.388578414916992188e+00 -3.831967115402221680e-01 1.306173801422119141e-01 -7.577380537986755371e-02 6.749036908149719238e-01
2.974000000000000000e+03 3.240238952636718750e+01 -7.606984615325927734e+00 -3.763338625431060791e-01 1.505165696144104004e-01 -6.774518638849258423e-02 6.467888951301574707e-01
2.975000000000000000e+03 3.314588165283203125e+01 -6.777599811553955078e+00 -2.089685052633285522e-01 2.945550084114074707e-01 2.567595429718494415e-02 4.889202415943145752e-01
2.976000000000000000e+03 2.262461471557617188e+01 3.537144184112548828e+00 1.699975728988647461e-01 -5.964058637619018555e-01 -1.279224902391433716e-01 2.901595234870910645e-01
2.977000000000000000e+03 2.728946304321289062e+01 2.691627740859985352e-01 2.627982012927532196e-02 -1.096945255994796753e-01 -2.502441219985485077e-02 2.519381344318389893e-01
2.978000000000000000e+03 2.697407531738281250e+01 2.444901227951049805e+00 2.678340077400207520e-01 -5.887639150023460388e-02 6.268728524446487427e-02 1.331816911697387695e-01
2.979000000000000000e+03 2.958729553222656250e+01 -4.051294326782226562e+00 -3.012899160385131836e-01 5.308106914162635803e-02 -7.446265965700149536e-02 4.727526009082794189e-01
2.980000000000000000e+03 2.987474060058593750e+01 -3.009270906448364258e+00 -1.667620390653610229e-01 1.469446122646331787e-01 -5.945229902863502502e-03 3.619228601455688477e-01
2.981000000000000000e+03 3.199628829956054688e+01 -5.452932357788085938e+00 -2.137589305639266968e-01 2.802416682243347168e-01 1.994481869041919708e-02 4.529120028018951416e-01
2.982000000000000000e+03 3.134987449645996094e+01 -3.782275438308715820e+00 -1.219845637679100037e-01 3.333176672458648682e-01 6.339993327856063843e-02 3.401726484298706055e-01
2.983000000000000000e+03 3.015592765808105469e+01 -3.601911783218383789e+00 -1.922104060649871826e-01 1.654228717088699341e-01 -8.036261424422264099e-03 4.045863151550292969e-01
2.984000000000000000e+03 3.513602447509765625e+01 -7.101797103881835938e+00 -2.454770170152187347e-02 4.627549350261688232e-01 1.314621716737747192e-01 2.987097799777984619e-01
2.985000000000000000e+03 2.367917442321777344e+01 2.691017866134643555e+00 1.073183864355087280e-01 -5.217294096946716309e-01 -1.243233159184455872e-01 2.742806971073150635e-01
2.986000000000000000e+03 2.629608917236328125e+01 3.460860252380371094e-01 -2.836730703711509705e-02 -2.690666913986206055e-01 -8.923020213842391968e-02 2.930192649364471436e-01
2.987000000000000000e+03 3.754836654663085938e+01 -9.919533729553222656e+00 -4.613352939486503601e-02 2.629657685756683350e-01 6.504967808723449707e-02 2.829398512840270996e-01
2.988000000000000000e+03 2.030461883544921875e+01 6.013742446899414062e+00 2.964710891246795654e-01 -6.758343577384948730e-01 -1.138089820742607117e-01 3.026426732540130615e-01
2.989000000000000000e+03 2.075703430175781250e+01 5.347402572631835938e+00 2.471816688776016235e-01 -6.799621582031250000e-01 -1.298341453075408936e-01 3.095937967300415039e-01
2.990000000000000000e+03 2.950782775878906250e+01 -2.401016235351562500e+00 -1.328735202550888062e-01 1.379987299442291260e-01 1.537562930025160313e-03 3.291569650173187256e-01
2.991000000000000000e+03 2.814122962951660156e+01 -1.810395956039428711e+00 -1.798589378595352173e-01 -7.126678526401519775e-02 -7.533771544694900513e-02 3.554874956607818604e-01
2.992000000000000000e+03 1.197873401641845703e+01 7.671754360198974609e+00 7.441826164722442627e-02 -6.854440569877624512e-01 -1.833077371120452881e-01 5.381855368614196777e-01
2.993000000000000000e+03 3.898523712158203125e+01 -6.905824184417724609e+00 3.905891478061676025e-01 1.004445433616638184e+00 4.185103476047515869e-01 -3.368056118488311768e-01
2.994000000000000000e+03 3.666156768798828125e+01 -8.842178344726562500e+00 -2.803321182727813721e-02 3.529761433601379395e-01 9.748288244009017944e-02 3.045656681060791016e-01
2.995000000000000000e+03 3.585932159423828125e+01 -2.614479303359985352e+00 3.427889943122863770e-01 1.144283890724182129e+00 4.461218714714050293e-01 -1.998393237590789795e-01
2.996000000000000000e+03 3.657221984863281250e+01 -4.686090946197509766e+00 2.810573875904083252e-01 9.759005308151245117e-01 3.770873844623565674e-01 -1.342996209859848022e-01
2.997000000000000000e+03 3.256078338623046875e+01 -6.082600593566894531e+00 -2.196924984455108643e-01 2.896363437175750732e-01 2.098315581679344177e-02 4.739497900009155273e-01
2.998000000000000000e+03 1.773677062988281250e+01 8.039960861206054688e+00 3.268191218376159668e-01 -7.049286961555480957e-01 -1.134328767657279968e-01 3.502520322799682617e-01
2.999000000000000000e+03 1.355443382263183594e+01 1.273551750183105469e+01 3.212920427322387695e-01 -6.092093586921691895e-01 -8.637519925832748413e-02 3.202095925807952881e-01
3.000000000000000000e+03 2.876512145996093750e+01 -1.134051084518432617e+00 -4.216333106160163879e-02 6.002458557486534119e-02 5.358377471566200256e-03 2.755395472049713135e-01
3.001000000000000000e+03 1.655526924133300781e+01 8.920907974243164062e+00 3.201071918010711670e-01 -6.925976276397705078e-01 -1.117471382021903992e-01 3.680298328399658203e-01
3.002000000000000000e+03 2.504471397399902344e+01 2.487186908721923828e+00 1.509365141391754150e-01 -3.591100871562957764e-01 -6.245207041501998901e-02 2.219592481851577759e-01
3.003000000000000000e+03 3.707373428344726562e+01 -5.727566719055175781e+00 2.707134187221527100e-01 8.960425257682800293e-01 3.500267863273620605e-01 -1.172213554382324219e-01
3.004000000000000000e+03 3.093730545043945312e+01 -4.471577644348144531e+00 -2.233236581087112427e-01 2.149576693773269653e-01 -2.509796293452382088e-03 4.371333122253417969e-01
3.005000000000000000e+03 3.572297286987304688e+01 -3.759656548500061035e-01 4.529168307781219482e-01 1.409117817878723145e+00 5.586103796958923340e-01 -3.015958964824676514e-01
3.006000000000000000e+03 3.835585021972656250e+01 -1.086514949798583984e+01 -1.084403470158576965e-01 2.051433324813842773e-01 2.901089750230312347e-02 2.633605301380157471e-01
3.007000000000000000e+03 1.103463172912597656e+01 1.177998447418212891e+01 2.086444497108459473e-01 -6.387313604354858398e-01 -1.290260702371597290e-01 4.028891623020172119e-01
3.008000000000000000e+03 1.046142959594726562e+01 1.084349155426025391e+01 1.689399182796478271e-01 -6.360248327255249023e-01 -1.401254832744598389e-01 4.357746243476867676e-01
3.009000000000000000e+03 3.512126541137695312e+01 3.843707561492919922e+00 7.512164711952209473e-01 1.675772190093994141e+00 7.280966043472290039e-01 -3.797931373119354248e-01
3.010000000000000000e+03 3.653182220458984375e+01 -6.645771980285644531e+00 1.572382003068923950e-01 7.176087498664855957e-01 2.624540925025939941e-01 4.226190596818923950e-02
3.011000000000000000e+03 1.443667411804199219e+01 1.727977752685546875e+01 3.457598388195037842e-01 -4.574959576129913330e-01 -3.352083638310432434e-02 1.389428675174713135e-01
3.012000000000000000e+03 1.410041427612304688e+01 1.579021453857421875e+01 3.512453138828277588e-01 -5.152287483215332031e-01 -4.919502884149551392e-02 1.972454190254211426e-01
3.013000000000000000e+03 3.530561065673828125e+01 2.899420738220214844e+00 6.532228589057922363e-01 1.616823792457580566e+00 6.810140013694763184e-01 -3.747405111789703369e-01
3.014000000000000000e+03 1.116190147399902344e+01 1.318973159790039062e+01 2.385775744915008545e-01 -6.263620853424072266e-01 -1.163353621959686279e-01 3.491206467151641846e-01
3.015000000000000000e+03 4.006898117065429688e+01 -1.224845123291015625e+01 -2.102285772562026978e-01 2.091029435396194458e-01 -3.376879612915217876e-04 1.781069934368133545e-01
3.016000000000000000e+03 4.220252990722656250e+01 -1.304169845581054688e+01 -1.185459196567535400e-01 4.911788105964660645e-01 1.117898598313331604e-01 5.182854086160659790e-02
3.017000000000000000e+03 1.224189567565917969e+01 1.447146034240722656e+01 2.862054109573364258e-01 -5.949991941452026367e-01 -9.263814240694046021e-02 2.851555943489074707e-01
3.018000000000000000e+03 1.637674713134765625e+01 7.978930950164794922e+00 2.701541483402252197e-01 -7.353964447975158691e-01 -1.395726948976516724e-01 4.128574728965759277e-01
3.019000000000000000e+03 3.365314483642578125e+01 4.862145423889160156e+00 7.738832831382751465e-01 1.350691318511962891e+00 6.373723745346069336e-01 -3.027128279209136963e-01
3.020000000000000000e+03 2.849516677856445312e+01 9.753698706626892090e-01 1.936214864253997803e-01 1.366806477308273315e-01 9.909064322710037231e-02 1.403845101594924927e-01
3.021000000000000000e+03 1.266570568084716797e+01 1.593148136138916016e+01 3.012689352035522461e-01 -5.558990836143493652e-01 -7.638903707265853882e-02 2.287379801273345947e-01
3.022000000000000000e+03 1.255298233032226562e+01 2.502110099792480469e+01 1.604114174842834473e-01 -3.840072453022003174e-01 -6.707874685525894165e-02 -3.915599081665277481e-03
3.023000000000000000e+03 3.263265991210937500e+01 6.781745910644531250e+00 8.599730730056762695e-01 1.214430928230285645e+00 6.223211884498596191e-01 -3.221856951713562012e-01
3.024000000000000000e+03 2.972764587402343750e+01 1.228280925750732422e+01 8.665338754653930664e-01 8.471705913543701172e-01 5.141113400459289551e-01 -3.897982835769653320e-01
3.025000000000000000e+03 1.347034931182861328e+01 1.906930160522460938e+01 2.898664176464080811e-01 -4.541699886322021484e-01 -4.929107427597045898e-02 1.139452084898948669e-01
3.026000000000000000e+03 2.900627136230468750e+01 1.800914001464843750e+01 6.255877614021301270e-01 9.394586682319641113e-01 4.695139229297637939e-01 -4.588074088096618652e-01
3.027000000000000000e+03 3.138592338562011719e+01 1.931778907775878906e+01 5.293146967887878418e-01 1.334120273590087891e+00 5.590304732322692871e-01 -5.064054727554321289e-01
3.028000000000000000e+03 2.969198036193847656e+01 -4.985532164573669434e-01 9.587106853723526001e-02 2.505557239055633545e-01 1.039280369877815247e-01 1.912275552749633789e-01
3.029000000000000000e+03 3.796643447875976562e+01 -9.247031211853027344e+00 5.480683594942092896e-02 4.264321327209472656e-01 1.443716883659362793e-01 1.374504417181015015e-01
3.030000000000000000e+03 3.755799865722656250e+01 -8.594909667968750000e+00 1.350735574960708618e-01 5.132068991661071777e-01 1.944841295480728149e-01 9.387991577386856079e-02
3.031000000000000000e+03 3.074922943115234375e+01 -3.512646436691284180e+00 -1.408497393131256104e-01 2.589260041713714600e-01 3.542288020253181458e-02 3.627598583698272705e-01
3.032000000000000000e+03 2.356542205810546875e+01 3.728034734725952148e+00 2.226970940828323364e-01 -4.809306263923645020e-01 -7.747005671262741089e-02 2.352366149425506592e-01
3.033000000000000000e+03 2.112822723388671875e+01 6.081420898437500000e+00 3.332540988922119141e-01 -6.043832302093505859e-01 -8.133874833583831787e-02 2.569507360458374023e-01
3.034000000000000000e+03 2.449572372436523438e+01 3.646480560302734375e+00 2.473360598087310791e-01 -3.739411830902099609e-01 -3.798153996467590332e-02 1.922399252653121948e-01
3.035000000000000000e+03 3.046057701110839844e+01 -2.528992176055908203e+00 -6.642089784145355225e-02 2.452132552862167358e-01 5.363770946860313416e-02 2.977061867713928223e-01
3.036000000000000000e+03 1.218830204010009766e+01 9.888576507568359375e+00 1.968967914581298828e-01 -6.702517867088317871e-01 -1.420065015554428101e-01 4.577428698539733887e-01
3.037000000000000000e+03 1.234953308105468750e+01 1.214415264129638672e+01 2.619373798370361328e-01 -6.375156044960021973e-01 -1.126734614372253418e-01 3.743732273578643799e-01
3.038000000000000000e+03 3.587374496459960938e+01 -7.602462768554687500e+00 1.566350646317005157e-02 4.591043293476104736e-01 1.424303501844406128e-01 2.521658241748809814e-01
3.039000000000000000e+03 3.556314849853515625e+01 -4.967552185058593750e+00 1.750860214233398438e-01 7.955605387687683105e-01 2.911939620971679688e-01 2.343843504786491394e-02
3.040000000000000000e+03 3.256072998046875000e+01 -4.685087680816650391e+00 -9.697716683149337769e-02 4.088751971721649170e-01 9.356940537691116333e-02 3.351663649082183838e-01
3.041000000000000000e+03 2.149199104309082031e+01 4.910903453826904297e+00 2.341959029436111450e-01 -6.478447914123535156e-01 -1.240946575999259949e-01 2.888904213905334473e-01
3.042000000000000000e+03 2.195931625366210938e+01 5.657793521881103516e+00 3.251980841159820557e-01 -5.618914365768432617e-01 -7.100801914930343628e-02 2.343272864818572998e-01
3.043000000000000000e+03 2.616378974914550781e+01 2.894409418106079102e+00 2.698205411434173584e-01 -1.663774549961090088e-01 3.103292547166347504e-02 1.422342658042907715e-01
3.044000000000000000e+03 2.535695457458496094e+01 3.351806402206420898e+00 2.628202736377716064e-01 -2.757311463356018066e-01 -3.873269306495785713e-03 1.613720953464508057e-01
3.045000000000000000e+03 3.167045593261718750e+01 -2.993646144866943359e+00 -1.338424626737833023e-02 4.293772578239440918e-01 1.247979030013084412e-01 2.534402906894683838e-01
3.046000000000000000e+03 3.046569633483886719e+01 -4.081624984741210938e+00 -2.316808551549911499e-01 1.783740371465682983e-01 -1.599204167723655701e-02 4.268158078193664551e-01
3.047000000000000000e+03 1.169919109344482422e+01 8.960587501525878906e+00 1.394842267036437988e-01 -6.696085929870605469e-01 -1.590373218059539795e-01 4.949370920658111572e-01
3.048000000000000000e+03 3.624747085571289062e+01 -5.396462440490722656e+00 2.001492828130722046e-01 8.520472049713134766e-01 3.156589567661285400e-01 -2.818681113421916962e-02
3.049000000000000000e+03 2.362203979492187500e+01 4.861400127410888672e+00 3.343954086303710938e-01 -4.147786796092987061e-01 -2.411498129367828369e-02 1.795607805252075195e-01
3.050000000000000000e+03 3.275606536865234375e+01 1.657011389732360840e+00 4.887876510620117188e-01 9.529789090156555176e-01 4.325299561023712158e-01 -1.224091053009033203e-01
3.051000000000000000e+03 2.826507949829101562e+01 1.361758708953857422e-01 7.107302546501159668e-02 3.437640517950057983e-02 3.163482621312141418e-02 2.185837775468826294e-01
3.052000000000000000e+03 3.496481704711914062e+01 -4.419079303741455078e+00 1.436633765697479248e-01 7.821971774101257324e-01 2.777581512928009033e-01 6.222549453377723694e-02
3.053000000000000000e+03 3.310648345947265625e+01 -3.878522634506225586e+00 2.944934740662574768e-02 5.606311559677124023e-01 1.770241409540176392e-01 2.133850008249282837e-01
3.054000000000000000e+03 2.007396888732910156e+01 8.022123336791992188e+00 4.151298403739929199e-01 -5.916243791580200195e-01 -5.294835940003395081e-02 2.357730716466903687e-01
3.055000000000000000e+03 1.772961235046386719e+01 9.027011871337890625e+00 3.745097815990447998e-01 -6.617472171783447266e-01 -8.617122471332550049e-02 3.132839202880859375e-01
3.056000000000000000e+03 2.751596641540527344e+01 1.187749624252319336e+00 1.511469483375549316e-01 -3.130142018198966980e-02 3.595365956425666809e-02 1.817043125629425049e-01
3.057000000000000000e+03 1.517082118988037109e+01 1.443229198455810547e+01 3.867622613906860352e-01 -5.155112147331237793e-01 -3.862468153238296509e-02 2.071140408515930176e-01
3.058000000000000000e+03 3.714310836791992188e+01 -7.162907123565673828e+00 1.879097372293472290e-01 7.038421630859375000e-01 2.675255835056304932e-01 4.819512832909822464e-03
3.059000000000000000e+03 3.575388336181640625e+01 -6.204830646514892578e+00 1.156361177563667297e-01 6.614525318145751953e-01 2.331265807151794434e-01 1.110301315784454346e-01
3.060000000000000000e+03 1.302572154998779297e+01 9.469123840332031250e+00 2.107271552085876465e-01 -6.878287196159362793e-01 -1.431304812431335449e-01 4.594472348690032959e-01
3.061000000000000000e+03 1.447379016876220703e+01 8.420252799987792969e+00 2.178099453449249268e-01 -7.301082015037536621e-01 -1.536894738674163818e-01 4.622712731361389160e-01
3.062000000000000000e+03 3.557602691650390625e+01 -3.811960458755493164e+00 2.505898177623748779e-01 9.386047720909118652e-01 3.567583858966827393e-01 -7.599943876266479492e-02
3.063000000000000000e+03 3.528525161743164062e+01 -1.773936152458190918e+00 3.348516225814819336e-01 1.146356940269470215e+00 4.443625807762145996e-01 -1.719698458909988403e-01
3.064000000000000000e+03 3.285760879516601562e+01 -2.354140996932983398e+00 1.442508101463317871e-01 6.592493057250976562e-01 2.410500347614288330e-01 1.065616160631179810e-01
3.065000000000000000e+03 3.738061141967773438e+01 -7.835022926330566406e+00 1.617299467325210571e-01 6.023358106613159180e-01 2.292197197675704956e-01 3.738814592361450195e-02
3.066000000000000000e+03 4.193267822265625000e+01 -1.204451942443847656e+01 1.455946862697601318e-01 5.561211109161376953e-01 2.105147391557693481e-01 -1.276351809501647949e-01
3.067000000000000000e+03 1.396659278869628906e+01 1.145158481597900391e+01 3.081038296222686768e-01 -6.439100503921508789e-01 -1.007418632507324219e-01 3.612020909786224365e-01
3.068000000000000000e+03 3.519414901733398438e+01 6.043013334274291992e-01 5.172754526138305664e-01 1.393059968948364258e+00 5.731006264686584473e-01 -2.845302224159240723e-01
3.069000000000000000e+03 1.276862144470214844e+01 1.307200050354003906e+01 2.895425856113433838e-01 -6.145546436309814453e-01 -9.750361740589141846e-02 3.292824029922485352e-01
3.070000000000000000e+03 1.199411582946777344e+01 1.334932708740234375e+01 2.672146260738372803e-01 -6.214572191238403320e-01 -1.062727719545364380e-01 3.344876766204833984e-01
3.071000000000000000e+03 3.398127365112304688e+01 3.653634786605834961e+00 6.903282999992370605e-01 1.379395484924316406e+00 6.209171414375305176e-01 -2.727029919624328613e-01
3.072000000000000000e+03 3.502446746826171875e+01 4.951524257659912109e+00 8.253042101860046387e-01 1.750958323478698730e+00 7.728787660598754883e-01 -3.965446054935455322e-01
3.073000000000000000e+03 1.511604022979736328e+01 2.029497337341308594e+01 3.215489089488983154e-01 -3.295442759990692139e-01 -2.398608485236763954e-03 2.890770323574542999e-02
3.074000000000000000e+03 3.073572540283203125e+01 6.986326217651367188e+00 7.996792197227478027e-01 8.091707229614257812e-01 4.826549887657165527e-01 -2.414761930704116821e-01
3.075000000000000000e+03 3.172636413574218750e+01 7.897266864776611328e+00 8.804983496665954590e-01 1.065695285797119141e+00 5.838580727577209473e-01 -3.263880312442779541e-01
3.076000000000000000e+03 2.989912796020507812e+01 9.993548393249511719e+00 8.611843585968017578e-01 7.786006927490234375e-01 4.919355213642120361e-01 -3.245595395565032959e-01
3.077000000000000000e+03 1.445491600036621094e+01 1.008679199218750000e+01 2.888341844081878662e-01 -6.805797815322875977e-01 -1.175236850976943970e-01 4.012105762958526611e-01
3.078000000000000000e+03 1.393714332580566406e+01 1.365318775177001953e+01 3.513625562191009521e-01 -5.813909769058227539e-01 -6.900852918624877930e-02 2.721137404441833496e-01
3.079000000000000000e+03 3.437060165405273438e+01 2.593446731567382812e+00 6.186516284942626953e-01 1.383615136146545410e+00 6.006799936294555664e-01 -2.800717055797576904e-01
3.080000000000000000e+03 2.975148963928222656e+01 1.488903713226318359e+01 7.820791006088256836e-01 9.695088863372802734e-01 5.254763960838317871e-01 -4.621586799621582031e-01
3.081000000000000000e+03 2.872451400756835938e+01 1.352077960968017578e+01 8.049676418304443359e-01 7.157192230224609375e-01 4.562060534954071045e-01 -3.799796104431152344e-01
3.082000000000000000e+03 2.820088768005371094e+01 2.496766662597656250e+01 2.091207951307296753e-01 9.774974584579467773e-01 3.559854924678802490e-01 -4.016509950160980225e-01
3.083000000000000000e+03 2.843562126159667969e+01 2.287734603881835938e+01 3.393994867801666260e-01 9.848974347114562988e-01 3.972890973091125488e-01 -4.275870919227600098e-01
3.084000000000000000e+03 2.770422172546386719e+01 1.441435146331787109e+01 7.582380175590515137e-01 5.933382511138916016e-01 4.054728746414184570e-01 -3.531334996223449707e-01
3.085000000000000000e+03 2.274245643615722656e+01 5.095625400543212891e+00 2.994190454483032227e-01 -5.202212333679199219e-01 -6.624065339565277100e-02 2.156665772199630737e-01
3.086000000000000000e+03 1.989646148681640625e+01 8.868639945983886719e+00 4.477195143699645996e-01 -5.613101124763488770e-01 -3.407718986272811890e-02 2.144548594951629639e-01
3.087000000000000000e+03 1.662307739257812500e+01 9.967434883117675781e+00 3.755795359611511230e-01 -6.560322642326354980e-01 -8.413583040237426758e-02 3.263897895812988281e-01
3.088000000000000000e+03 3.187286949157714844e+01 -2.031797409057617188e+00 1.079760938882827759e-01 5.421400666236877441e-01 1.950348466634750366e-01 1.545051485300064087e-01
3.089000000000000000e+03 3.195140266418457031e+01 -4.168965339660644531e+00 -1.003994718194007874e-01 3.731409013271331787e-01 8.182242512702941895e-02 3.319074809551239014e-01
3.090000000000000000e+03 3.444784164428710938e+01 -6.547164916992187500e+00 -4.820330068469047546e-02 4.517996609210968018e-01 1.210789084434509277e-01 3.238497376441955566e-01
3.091000000000000000e+03 2.297113609313964844e+01 7.360906600952148438e+00 4.973675608634948730e-01 -3.586755394935607910e-01 4.160760343074798584e-02 1.039208397269248962e-01
3.092000000000000000e+03 2.147958755493164062e+01 6.951009750366210938e+00 4.077825844287872314e-01 -5.389549732208251953e-01 -3.935172408819198608e-02 2.042963057756423950e-01
3.093000000000000000e+03 2.569890975952148438e+01 4.375215053558349609e+00 3.841481506824493408e-01 -1.655226796865463257e-01 6.558763980865478516e-02 9.481796622276306152e-02
3.094000000000000000e+03 1.184799671173095703e+01 1.125415992736816406e+01 2.257529497146606445e-01 -6.495865583419799805e-01 -1.271500885486602783e-01 4.139505028724670410e-01
3.095000000000000000e+03 1.133973693847656250e+01 1.033541965484619141e+01 1.814839541912078857e-01 -6.528914570808410645e-01 -1.414222568273544312e-01 4.495748281478881836e-01
3.096000000000000000e+03 2.467249870300292969e+01 4.776003837585449219e+00 3.765221238136291504e-01 -2.962987124919891357e-01 2.406702004373073578e-02 1.290155649185180664e-01
3.097000000000000000e+03 2.399041557312011719e+01 6.642738819122314453e+00 4.888706505298614502e-01 -2.854759395122528076e-01 6.101841852068901062e-02 8.302045613527297974e-02
3.098000000000000000e+03 1.545232295989990234e+01 8.852654457092285156e+00 2.756110429763793945e-01 -7.145634889602661133e-01 -1.316857337951660156e-01 4.139341711997985840e-01
3.099000000000000000e+03 2.738667297363281250e+01 3.342913866043090820e+00 3.775672912597656250e-01 5.090859159827232361e-02 1.285427659749984741e-01 6.377820670604705811e-02
3.100000000000000000e+03 2.658944320678710938e+01 3.864173412322998047e+00 3.739512860774993896e-01 -5.677259713411331177e-02 9.515360742807388306e-02 7.581871747970581055e-02
3.101000000000000000e+03 1.986755371093750000e+01 6.739247798919677734e+00 3.303220272064208984e-01 -6.631903052330017090e-01 -9.986048191785812378e-02 2.955005168914794922e-01
3.102000000000000000e+03 3.038516616821289062e+01 2.918332338333129883e+00 4.727949798107147217e-01 5.456757545471191406e-01 3.055412173271179199e-01 -5.160307884216308594e-02
3.103000000000000000e+03 2.917236328125000000e+01 -1.771513223648071289e+00 -8.219286799430847168e-02 1.175493597984313965e-01 1.060694642364978790e-02 3.091060817241668701e-01
3.104000000000000000e+03 3.379975891113281250e+01 -5.939057826995849609e+00 -7.996869832277297974e-02 4.532099664211273193e-01 1.119723767042160034e-01 3.404488861560821533e-01
3.105000000000000000e+03 2.330927276611328125e+01 5.810965538024902344e+00 4.085004925727844238e-01 -4.015396833419799805e-01 2.088245470076799393e-03 1.464135050773620605e-01
3.106000000000000000e+03 3.436602020263671875e+01 -3.779782295227050781e+00 1.517766863107681274e-01 7.559481859207153320e-01 2.723174393177032471e-01 6.880947947502136230e-02
3.107000000000000000e+03 3.602799224853515625e+01 -4.370030403137207031e+00 2.376807332038879395e-01 9.490988254547119141e-01 3.560338616371154785e-01 -7.555972784757614136e-02
3.108000000000000000e+03 3.504933166503906250e+01 -3.131868600845336914e+00 2.413836866617202759e-01 9.455317258834838867e-01 3.560746312141418457e-01 -5.310636013746261597e-02
3.109000000000000000e+03 2.878076934814453125e+01 1.087961578369140625e+01 8.312653899192810059e-01 6.199418902397155762e-01 4.353621900081634521e-01 -3.039689958095550537e-01
3.110000000000000000e+03 2.895245933532714844e+01 7.789985656738281250e+00 7.580939531326293945e-01 5.067083239555358887e-01 3.794406950473785400e-01 -1.963140368461608887e-01
3.111000000000000000e+03 3.462556457519531250e+01 -8.390855193138122559e-01 3.775952756404876709e-01 1.114289641380310059e+00 4.475654661655426025e-01 -1.614714115858078003e-01
3.112000000000000000e+03 3.056929588317871094e+01 5.025624752044677734e+00 6.510716080665588379e-01 6.912768483161926270e-01 4.027045369148254395e-01 -1.513992846012115479e-01
3.113000000000000000e+03 2.917691040039062500e+01 8.895366668701171875e+00 8.113293051719665527e-01 5.934738516807556152e-01 4.214409589767456055e-01 -2.487375736236572266e-01
3.114000000000000000e+03 3.578565216064453125e+01 1.974890828132629395e+00 6.156504154205322266e-01 1.659976363182067871e+00 6.826880574226379395e-01 -3.777244985103607178e-01
3.115000000000000000e+03 1.479624271392822266e+01 1.340324592590332031e+01 3.789007961750030518e-01 -5.674569010734558105e-01 -5.656683072447776794e-02 2.578776478767395020e-01
3.116000000000000000e+03 3.239495468139648438e+01 4.503687381744384766e+00 7.024574279785156250e-01 1.060121536254882812e+00 5.287736654281616211e-01 -2.298386842012405396e-01
3.117000000000000000e+03 2.783649063110351562e+01 4.101431369781494141e+00 4.578421115875244141e-01 1.651481837034225464e-01 1.868970990180969238e-01 2.419834025204181671e-03
3.118000000000000000e+03 1.547838878631591797e+01 1.565737438201904297e+01 4.005828499794006348e-01 -4.655466377735137939e-01 -1.948913745582103729e-02 1.560919284820556641e-01
3.119000000000000000e+03 1.313728618621826172e+01 1.178069972991943359e+01 2.840012907981872559e-01 -6.409161686897277832e-01 -1.070744544267654419e-01 3.730163574218750000e-01
3.120000000000000000e+03 2.920438957214355469e+01 4.162446260452270508e-01 1.679353266954421997e-01 2.133603841066360474e-01 1.143887117505073547e-01 1.489470303058624268e-01
3.121000000000000000e+03 1.888778305053710938e+01 8.992149353027343750e+00 4.186563193798065186e-01 -6.084496378898620605e-01 -5.693800002336502075e-02 2.589105069637298584e-01
3.122000000000000000e+03 2.061835289001464844e+01 7.391246795654296875e+00 4.027432501316070557e-01 -5.781655907630920410e-01 -5.262669920921325684e-02 2.319875061511993408e-01
3.123000000000000000e+03 2.787364959716796875e+01 2.081752777099609375e+01 4.513045847415924072e-01 8.544216156005859375e-01 3.917178511619567871e-01 -4.225990474224090576e-01
3.124000000000000000e+03 1.719734191894531250e+01 1.679960441589355469e+01 4.421919286251068115e-01 -3.364324569702148438e-01 3.172785043716430664e-02 5.262913182377815247e-02
3.125000000000000000e+03 2.835770797729492188e+01 1.601776504516601562e+01 7.081501483917236328e-01 7.756339907646179199e-01 4.451352357864379883e-01 -4.180103540420532227e-01
3.126000000000000000e+03 1.651368141174316406e+01 2.023736572265625000e+01 3.514192402362823486e-01 -2.568732798099517822e-01 2.836377918720245361e-02 -8.061139844357967377e-03
3.127000000000000000e+03 1.498850345611572266e+01 2.171481704711914062e+01 2.740540504455566406e-01 -3.033626675605773926e-01 -8.792588487267494202e-03 4.768773913383483887e-03
3.128000000000000000e+03 2.650923347473144531e+01 7.907012462615966797e+00 6.754648089408874512e-01 1.276787519454956055e-01 2.409430593252182007e-01 -1.030622348189353943e-01
3.129000000000000000e+03 2.454441452026367188e+01 1.221493434906005859e+01 7.018403410911560059e-01 7.438942044973373413e-02 2.328689247369766235e-01 -1.529572457075119019e-01
3.130000000000000000e+03 1.582744979858398438e+01 1.706895828247070312e+01 3.945357203483581543e-01 -3.989516496658325195e-01 -1.324773533269762993e-03 9.805499017238616943e-02
3.131000000000000000e+03 3.249587631225585938e+01 2.510359191894531250e+01 1.238518282771110535e-01 1.470778822898864746e+00 4.783892035484313965e-01 -3.957110047340393066e-01
3.132000000000000000e+03 2.505823707580566406e+01 5.981655120849609375e+00 4.886111021041870117e-01 -1.891810595989227295e-01 8.982901275157928467e-02 5.752600729465484619e-02
3.133000000000000000e+03 3.439516448974609375e+01 -5.141130924224853516e+00 5.394277721643447876e-02 6.105226874351501465e-01 1.993396282196044922e-01 1.860138028860092163e-01
3.134000000000000000e+03 2.243778991699218750e+01 6.467372894287109375e+00 4.246297776699066162e-01 -4.657509624958038330e-01 -1.233636029064655304e-02 1.698626726865768433e-01
3.135000000000000000e+03 3.155906295776367188e+01 -9.601045846939086914e-01 1.715416461229324341e-01 5.420213937759399414e-01 2.140689194202423096e-01 1.098870337009429932e-01
3.136000000000000000e+03 3.068421554565429688e+01 -1.499311327934265137e+00 4.460033774375915527e-02 3.539934456348419189e-01 1.195781379938125610e-01 2.016108185052871704e-01
3.137000000000000000e+03 1.484050369262695312e+01 1.119115257263183594e+01 3.432439863681793213e-01 -6.403572559356689453e-01 -8.913399279117584229e-02 3.415971994400024414e-01
3.138000000000000000e+03 3.376071166992187500e+01 -7.457175731658935547e+00 -2.164795845746994019e-01 2.889648675918579102e-01 2.174558490514755249e-02 5.028693675994873047e-01
3.139000000000000000e+03 1.769120597839355469e+01 1.004189872741699219e+01 4.179412126541137695e-01 -6.141380071640014648e-01 -5.885904282331466675e-02 2.766432464122772217e-01
3.140000000000000000e+03 3.440419769287109375e+01 -2.352429151535034180e+00 2.591193020343780518e-01 9.116580486297607422e-01 3.512331843376159668e-01 -4.157368838787078857e-02
3.141000000000000000e+03 3.317575073242187500e+01 -5.297399520874023438e+00 -8.203545212745666504e-02 4.375144541263580322e-01 1.066436991095542908e-01 3.364195823669433594e-01
3.142000000000000000e+03 3.399245834350585938e+01 2.313421368598937988e-01 4.247937798500061035e-01 1.097786188125610352e+00 4.567739963531494141e-01 -1.547017395496368408e-01
3.143000000000000000e+03 3.477196121215820312e+01 1.593407869338989258e+00 5.431790947914123535e-01 1.381890058517456055e+00 5.775207281112670898e-01 -2.917227447032928467e-01
3.144000000000000000e+03 2.997084045410156250e+01 8.092576026916503906e+00 8.084993958473205566e-01 7.163216471672058105e-01 4.574463069438934326e-01 -2.534275650978088379e-01
3.145000000000000000e+03 2.561119842529296875e+01 7.146739482879638672e+00 5.926737785339355469e-01 -5.434859171509742737e-02 1.614975482225418091e-01 -1.584927551448345184e-02
3.146000000000000000e+03 2.996450614929199219e+01 -1.333689093589782715e+00 2.803425490856170654e-02 2.590070664882659912e-01 8.611239492893218994e-02 2.280014902353286743e-01
3.147000000000000000e+03 3.294147491455078125e+01 3.267187356948852539e+00 6.266093850135803223e-01 1.112845659255981445e+00 5.218365192413330078e-01 -2.092387080192565918e-01
3.148000000000000000e+03 3.370826339721679688e+01 1.307745814323425293e+00 4.824318289756774902e-01 1.128560543060302734e+00 4.832977056503295898e-01 -1.787659674882888794e-01
3.149000000000000000e+03 2.619368171691894531e+01 5.475723266601562500e+00 5.009696483612060547e-01 -3.171729668974876404e-02 1.407756954431533813e-01 2.160389721393585205e-02
3.150000000000000000e+03 2.818865776062011719e+01 2.943143606185913086e+00 3.924240171909332275e-01 1.771209686994552612e-01 1.708634942770004272e-01 4.718511551618576050e-02
3.151000000000000000e+03 2.852612876892089844e+01 3.729386091232299805e+00 4.637256860733032227e-01 2.468967437744140625e-01 2.131867259740829468e-01 -5.403721705079078674e-03
3.152000000000000000e+03 3.358525466918945312e+01 -1.458605408668518066e+00 2.558825016021728516e-01 8.602087497711181641e-01 3.348273932933807373e-01 -1.816741563379764557e-02
3.153000000000000000e+03 1.775533485412597656e+01 1.097244453430175781e+01 4.448511302471160889e-01 -5.614984631538391113e-01 -3.499419614672660828e-02 2.361299991607666016e-01
3.154000000000000000e+03 1.551166915893554688e+01 9.934869766235351562e+00 3.230970501899719238e-01 -6.755028963088989258e-01 -1.057217419147491455e-01 3.734066486358642578e-01
3.155000000000000000e+03 2.783565330505371094e+01 2.094808101654052734e+00 2.574830949306488037e-01 6.565709412097930908e-02 9.694205969572067261e-02 1.117717474699020386e-01
3.156000000000000000e+03 1.579311275482177734e+01 1.107785129547119141e+01 3.795635998249053955e-01 -6.242470145225524902e-01 -7.340501248836517334e-02 3.127450644969940186e-01
3.157000000000000000e+03 1.436946201324462891e+01 1.244208526611328125e+01 3.499127924442291260e-01 -6.101542115211486816e-01 -7.807242870330810547e-02 3.088785707950592041e-01
3.158000000000000000e+03 1.932346343994140625e+01 1.009961509704589844e+01 4.845806658267974854e-01 -5.276129841804504395e-01 -1.290969178080558777e-02 1.914027035236358643e-01
3.159000000000000000e+03 1.675688552856445312e+01 1.535851860046386719e+01 4.457981586456298828e-01 -4.183395802974700928e-01 8.237571455538272858e-03 1.159397065639495850e-01
3.160000000000000000e+03 1.267743110656738281e+01 1.082932090759277344e+01 2.428420484066009521e-01 -6.602030396461486816e-01 -1.252083033323287964e-01 4.160140752792358398e-01
3.161000000000000000e+03 2.900139617919921875e+01 2.631437301635742188e+00 3.853677213191986084e-01 2.935984134674072266e-01 2.036898434162139893e-01 2.898794040083885193e-02
3.162000000000000000e+03 2.775829887390136719e+01 6.618116378784179688e+00 6.444765925407409668e-01 2.311924844980239868e-01 2.627007365226745605e-01 -9.250725805759429932e-02
3.163000000000000000e+03 2.473916244506835938e+01 1.353458213806152344e+01 7.030277252197265625e-01 1.535689979791641235e-01 2.569790184497833252e-01 -1.932345032691955566e-01
3.164000000000000000e+03 1.620261573791503906e+01 1.860060882568359375e+01 3.812806308269500732e-01 -3.246951997280120850e-01 1.697563380002975464e-02 3.669188171625137329e-02
3.165000000000000000e+03 1.905569648742675781e+01 1.804865646362304688e+01 4.664691090583801270e-01 -1.681130230426788330e-01 8.950681984424591064e-02 -5.509058013558387756e-02
3.166000000000000000e+03 2.669154357910156250e+01 1.660144805908203125e+01 6.513601541519165039e-01 5.489034056663513184e-01 3.600790798664093018e-01 -3.516414761543273926e-01
3.167000000000000000e+03 1.566053199768066406e+01 1.299895286560058594e+01 4.072577655315399170e-01 -5.550000667572021484e-01 -4.432269185781478882e-02 2.416248768568038940e-01
3.168000000000000000e+03 2.988165473937988281e+01 6.171014785766601562e+00 7.156730294227600098e-01 6.144811511039733887e-01 3.990462720394134521e-01 -1.704293191432952881e-01
3.169000000000000000e+03 1.662936592102050781e+01 2.199062728881835938e+01 2.982301115989685059e-01 -1.848859041929244995e-01 3.400326520204544067e-02 -4.928829520940780640e-02
3.170000000000000000e+03 3.196635627746582031e+01 8.490037918090820312e-01 3.656887114048004150e-01 7.552117705345153809e-01 3.362701535224914551e-01 -3.166964650154113770e-02
3.171000000000000000e+03 2.947648620605468750e+01 4.629731178283691406e+00 5.746627449989318848e-01 4.480915963649749756e-01 3.068262934684753418e-01 -8.434253931045532227e-02
3.172000000000000000e+03 3.345988464355468750e+01 2.257545471191406250e+00 5.661822557449340820e-01 1.173722147941589355e+00 5.219712853431701660e-01 -1.932588517665863037e-01
3.173000000000000000e+03 3.276994323730468750e+01 -3.350788652896881104e-01 3.142614364624023438e-01 8.184502124786376953e-01 3.398135006427764893e-01 -2.051243744790554047e-02
3.174000000000000000e+03 3.369202423095703125e+01 -3.072807073593139648e+00 1.453212350606918335e-01 7.424348592758178711e-01 2.663268446922302246e-01 8.456515520811080933e-02
3.175000000000000000e+03 2.715584182739257812e+01 4.815891742706298828e+00 4.917307198047637939e-01 7.721894979476928711e-02 1.706849038600921631e-01 5.980593152344226837e-03
3.176000000000000000e+03 2.660266685485839844e+01 6.656018257141113281e+00 6.088873147964477539e-01 8.123383671045303345e-02 2.070363461971282959e-01 -5.518821626901626587e-02
3.177000000000000000e+03 1.852663612365722656e+01 1.060317516326904297e+01 4.644806683063507080e-01 -5.500301122665405273e-01 -2.566484175622463226e-02 2.136100232601165771e-01
3.178000000000000000e+03 3.086045646667480469e+01 1.129570975899696350e-01 2.425816804170608521e-01 4.960668683052062988e-01 2.215945720672607422e-01 8.079203963279724121e-02
3.179000000000000000e+03 3.376218795776367188e+01 -4.515496253967285156e+00 2.935451827943325043e-02 6.015591621398925781e-01 1.892741024494171143e-01 2.050941884517669678e-01
3.180000000000000000e+03 2.610372161865234375e+01 1.320142841339111328e+01 7.572389245033264160e-01 3.146958947181701660e-01 3.215804398059844971e-01 -2.640179991722106934e-01
3.181000000000000000e+03 1.515695762634277344e+01 1.217612171173095703e+01 3.673176169395446777e-01 -6.048215627670288086e-01 -7.125117629766464233e-02 2.969744801521301270e-01
3.182000000000000000e+03 2.019858932495117188e+01 9.711812019348144531e+00 5.085304975509643555e-01 -4.918901026248931885e-01 4.992115776985883713e-03 1.611118763685226440e-01
3.183000000000000000e+03 2.195012855529785156e+01 7.954970359802246094e+00 4.944544136524200439e-01 -4.340142309665679932e-01 1.813205517828464508e-02 1.326221674680709839e-01
3.184000000000000000e+03 1.601037025451660156e+01 1.218885803222656250e+01 4.058411717414855957e-01 -5.712041854858398438e-01 -4.960890114307403564e-02 2.582329809665679932e-01
3.185000000000000000e+03 1.679788398742675781e+01 1.105126571655273438e+01 4.137616753578186035e-01 -5.987089276313781738e-01 -5.548418313264846802e-02 2.722941040992736816e-01
3.186000000000000000e+03 3.128028106689453125e+01 3.796072721481323242e+00 5.943758487701416016e-01 7.612311244010925293e-01 4.066821038722991943e-01 -1.302058547735214233e-01
3.187000000000000000e+03 3.115295791625976562e+01 1.910820364952087402e+00 4.321893453598022461e-01 6.581508517265319824e-01 3.271020650863647461e-01 -2.962459623813629150e-02
3.188000000000000000e+03 1.862508964538574219e+01 1.325912189483642578e+01 5.144677758216857910e-01 -4.126738309860229492e-01 3.053819015622138977e-02 1.056904420256614685e-01
3.189000000000000000e+03 2.905882263183593750e+01 5.686144828796386719e+00 6.433548331260681152e-01 4.331249892711639404e-01 3.229439556598663330e-01 -1.097388342022895813e-01
3.190000000000000000e+03 2.945198059082031250e+01 3.527278423309326172e+00 4.894674122333526611e-01 4.056329131126403809e-01 2.685301005840301514e-01 -2.563329041004180908e-02
3.191000000000000000e+03 2.246927452087402344e+01 1.075927639007568359e+01 6.171807646751403809e-01 -2.424210608005523682e-01 1.124279126524925232e-01 5.030525848269462585e-03
3.192000000000000000e+03 1.628057479858398438e+01 1.401457405090332031e+01 4.277129769325256348e-01 -4.913112819194793701e-01 -1.907949708402156830e-02 1.838809400796890259e-01
3.193000000000000000e+03 2.309099197387695312e+01 1.625362396240234375e+01 6.078858971595764160e-01 8.546925336122512817e-02 2.080065459012985229e-01 -1.926663666963577271e-01
3.194000000000000000e+03 2.875022125244140625e+01 1.823858261108398438e+00 2.807758152484893799e-01 2.098218202590942383e-01 1.471792906522750854e-01 8.832176774740219116e-02
3.195000000000000000e+03 1.763170433044433594e+01 1.836929893493652344e+01 4.250081777572631836e-01 -2.536348104476928711e-01 5.141200870275497437e-02 -5.875071045011281967e-03
3.196000000000000000e+03 2.524983596801757812e+01 1.953747940063476562e+01 5.127762556076049805e-01 4.773582816123962402e-01 2.970403730869293213e-01 -3.309897482395172119e-01
3.197000000000000000e+03 2.164964294433593750e+01 9.792934417724609375e+00 5.595147013664245605e-01 -3.718447089195251465e-01 5.630099400877952576e-02 8.418167382478713989e-02
3.198000000000000000e+03 1.802646636962890625e+01 2.009305572509765625e+01 3.836406171321868896e-01 -1.578065454959869385e-01 6.775022298097610474e-02 -6.037184596061706543e-02
3.199000000000000000e+03 2.518869400024414062e+01 1.498421573638916016e+01 6.994718313217163086e-01 2.958401143550872803e-01 2.985935807228088379e-01 -2.695390582084655762e-01
3.200000000000000000e+03 2.637981605529785156e+01 1.104126739501953125e+01 7.480205297470092773e-01 2.443144917488098145e-01 2.977004945278167725e-01 -2.007816582918167114e-01
3.201000000000000000e+03 2.750691604614257812e+01 1.139278793334960938e+01 7.948937416076660156e-01 4.457541108131408691e-01 3.721943497657775879e-01 -2.799988985061645508e-01
3.202000000000000000e+03 1.744319152832031250e+01 1.359897422790527344e+01 4.687411785125732422e-01 -4.620778262615203857e-01 1.999009633436799049e-03 1.522289365530014038e-01
3.203000000000000000e+03 2.808479881286621094e+01 9.412616729736328125e+00 7.892370223999023438e-01 4.202732145786285400e-01 3.628530800342559814e-01 -2.214495390653610229e-01
3.204000000000000000e+03 2.774974822998046875e+01 7.990865707397460938e+00 7.188346982002258301e-01 3.039758801460266113e-01 3.068431615829467773e-01 -1.554911434650421143e-01
3.205000000000000000e+03 3.060107421875000000e+01 2.820726776123046875e+01 -1.338741183280944824e-02 1.239719271659851074e+00 3.678995668888092041e-01 -3.523353338241577148e-01
3.206000000000000000e+03 2.803438377380371094e+01 5.440751075744628906e+00 5.870887041091918945e-01 2.400153279304504395e-01 2.481312155723571777e-01 -5.612171813845634460e-02
3.207000000000000000e+03 2.080905342102050781e+01 9.104508399963378906e+00 5.028593540191650391e-01 -4.765754938125610352e-01 7.885158993303775787e-03 1.517271697521209717e-01
3.208000000000000000e+03 2.250490951538085938e+01 8.995676994323730469e+00 5.570029020309448242e-01 -3.313543796539306641e-01 6.769455224275588989e-02 7.395276427268981934e-02
3.209000000000000000e+03 1.911864089965820312e+01 1.165165710449218750e+01 5.182554125785827637e-01 -4.602650105953216553e-01 1.739711686968803406e-02 1.385724097490310669e-01
3.210000000000000000e+03 2.547841453552246094e+01 1.030884742736816406e+01 7.110737562179565430e-01 8.824007958173751831e-02 2.397941499948501587e-01 -1.305340677499771118e-01
3.211000000000000000e+03 2.490049362182617188e+01 8.881002426147460938e+00 6.544636487960815430e-01 -6.359817832708358765e-02 1.772596389055252075e-01 -5.522185564041137695e-02
3.212000000000000000e+03 2.849221420288085938e+01 4.514633655548095703e+00 5.040459036827087402e-01 2.629191577434539795e-01 2.300895154476165771e-01 -3.304801881313323975e-02
3.213000000000000000e+03 3.201698303222656250e+01 2.662357091903686523e+00 5.314829945564270020e-01 8.607903122901916504e-01 4.176820218563079834e-01 -1.203074604272842407e-01
3.214000000000000000e+03 3.018640518188476562e+01 1.144929051399230957e+00 3.041733801364898682e-01 4.256066381931304932e-01 2.189339995384216309e-01 5.773304030299186707e-02
3.215000000000000000e+03 1.920271873474121094e+01 1.458355331420898438e+01 5.244212150573730469e-01 -3.135762810707092285e-01 6.325347721576690674e-02 3.728406503796577454e-02
3.216000000000000000e+03 1.798934364318847656e+01 1.499394416809082031e+01 4.868651032447814941e-01 -3.669856488704681396e-01 3.596384078264236450e-02 7.657187432050704956e-02
3.217000000000000000e+03 2.704597282409667969e+01 1.005228805541992188e+01 7.700245976448059082e-01 3.101358115673065186e-01 3.240481317043304443e-01 -2.064455747604370117e-01
3.218000000000000000e+03 2.086632156372070312e+01 1.056750774383544922e+01 5.486426353454589844e-01 -3.977620601654052734e-01 4.526417702436447144e-02 9.587541967630386353e-02
3.219000000000000000e+03 1.852579498291015625e+01 1.645499801635742188e+01 4.877793192863464355e-01 -2.743377089500427246e-01 6.403248012065887451e-02 9.348914958536624908e-03
3.220000000000000000e+03 2.258612632751464844e+01 1.269446849822998047e+01 6.447802782058715820e-01 -1.221237704157829285e-01 1.567969471216201782e-01 -7.248388230800628662e-02
3.221000000000000000e+03 2.687411117553710938e+01 2.353367233276367188e+01 3.052145242691040039e-01 7.692404985427856445e-01 3.223364949226379395e-01 -3.829588890075683594e-01
3.222000000000000000e+03 2.265601730346679688e+01 1.868040466308593750e+01 5.190110206604003906e-01 1.670034527778625488e-01 2.058043479919433594e-01 -2.256126999855041504e-01
3.223000000000000000e+03 2.523268890380859375e+01 2.473226165771484375e+01 2.633993029594421387e-01 6.444513201713562012e-01 2.723551988601684570e-01 -3.517715334892272949e-01
3.224000000000000000e+03 2.165394973754882812e+01 1.157029819488525391e+01 6.052398085594177246e-01 -2.825607359409332275e-01 9.680373221635818481e-02 1.673752255737781525e-02
3.225000000000000000e+03 2.322545433044433594e+01 9.926087379455566406e+00 6.304775476455688477e-01 -2.008030563592910767e-01 1.289023458957672119e-01 -4.684590734541416168e-03
3.226000000000000000e+03 1.813740730285644531e+01 1.204062175750732422e+01 4.819496870040893555e-01 -4.990671873092651367e-01 -5.135248880833387375e-03 1.774630099534988403e-01
3.227000000000000000e+03 2.350543785095214844e+01 8.327204704284667969e+00 5.667295455932617188e-01 -2.584203481674194336e-01 9.249276667833328247e-02 4.015168920159339905e-02
3.228000000000000000e+03 2.602997016906738281e+01 9.165446281433105469e+00 7.067704200744628906e-01 1.158998608589172363e-01 2.468010783195495605e-01 -1.149422898888587952e-01
3.229000000000000000e+03 2.001310348510742188e+01 1.115207099914550781e+01 5.366378426551818848e-01 -4.243739545345306396e-01 3.367916867136955261e-02 1.167885884642601013e-01
3.230000000000000000e+03 2.417985916137695312e+01 1.774424743652343750e+01 5.854861140251159668e-01 2.977009415626525879e-01 2.649561166763305664e-01 -2.798224389553070068e-01
3.231000000000000000e+03 2.227175712585449219e+01 1.479274749755859375e+01 6.118468642234802246e-01 -6.003259494900703430e-02 1.655442714691162109e-01 -1.163461878895759583e-01
3.232000000000000000e+03 1.982154464721679688e+01 1.602039337158203125e+01 5.327447652816772461e-01 -2.030292153358459473e-01 9.891466796398162842e-02 -3.438389301300048828e-02
3.233000000000000000e+03 1.704790306091308594e+01 1.225812339782714844e+01 4.445887207984924316e-01 -5.336757302284240723e-01 -2.672611176967620850e-02 2.164557874202728271e-01
3.234000000000000000e+03 1.956462860107421875e+01 1.980520057678222656e+01 4.263521730899810791e-01 -5.887937173247337341e-02 1.102418377995491028e-01 -1.158111765980720520e-01
3.235000000000000000e+03 2.239274024963378906e+01 2.347402954101562500e+01 3.165643811225891113e-01 3.115874826908111572e-01 1.884455680847167969e-01 -2.579101920127868652e-01
3.236000000000000000e+03 2.045602798461914062e+01 2.400426292419433594e+01 2.889871597290039062e-01 1.701431423425674438e-01 1.377390921115875244e-01 -2.028280347585678101e-01
3.237000000000000000e+03 2.426570892333984375e+01 2.258840751647949219e+01 3.569675981998443604e-01 4.691392481327056885e-01 2.478320449590682983e-01 -3.155707716941833496e-01
3.238000000000000000e+03 2.182873725891113281e+01 1.700883102416992188e+01 5.672274231910705566e-01 9.108734317123889923e-03 1.729008406400680542e-01 -1.535728722810745239e-01
3.239000000000000000e+03 2.341999816894531250e+01 1.170714855194091797e+01 6.704778671264648438e-01 -7.813245803117752075e-02 1.777036190032958984e-01 -8.394091576337814331e-02
3.240000000000000000e+03 2.037976264953613281e+01 1.407511711120605469e+01 5.687374472618103027e-01 -2.535759210586547852e-01 9.454845637083053589e-02 -5.621918011456727982e-03
3.241000000000000000e+03 1.972382926940917969e+01 1.280666160583496094e+01 5.483153462409973145e-01 -3.638265728950500488e-01 5.534663051366806030e-02 7.065202295780181885e-02
3.242000000000000000e+03 2.344605827331542969e+01 1.403154277801513672e+01 6.620741486549377441e-01 2.850491367280483246e-02 2.071737200021743774e-01 -1.518471240997314453e-01
3.243000000000000000e+03 2.516023635864257812e+01 1.644655036926269531e+01 6.448432803153991699e-01 3.575733900070190430e-01 3.007250130176544189e-01 -3.002794384956359863e-01
3.244000000000000000e+03 2.414093399047851562e+01 1.543516731262207031e+01 6.472352743148803711e-01 1.698166579008102417e-01 2.451155781745910645e-01 -2.159628868103027344e-01
3.245000000000000000e+03 2.150108337402343750e+01 1.345085620880126953e+01 6.084333062171936035e-01 -1.918569058179855347e-01 1.249729245901107788e-01 -4.034338891506195068e-02
3.246000000000000000e+03 2.110880088806152344e+01 1.934727096557617188e+01 4.703306555747985840e-01 4.900562390685081482e-02 1.558008790016174316e-01 -1.699480563402175903e-01
3.247000000000000000e+03 2.107578277587890625e+01 1.546881389617919922e+01 5.684152841567993164e-01 -1.318854093551635742e-01 1.309589743614196777e-01 -7.571052759885787964e-02
3.248000000000000000e+03 2.669317054748535156e+01 2.677482604980468750e+01 1.415680348873138428e-01 8.402153849601745605e-01 2.945350110530853271e-01 -3.593254387378692627e-01
3.249000000000000000e+03 2.174449729919433594e+01 2.128032112121582031e+01 4.016660451889038086e-01 1.811575442552566528e-01 1.748470813035964966e-01 -2.229716926813125610e-01
3.250000000000000000e+03 2.399679946899414062e+01 9.218000411987304688e+00 6.252018213272094727e-01 -1.659313589334487915e-01 1.377811282873153687e-01 -1.776759885251522064e-02
3.251000000000000000e+03 2.403006362915039062e+01 1.068500328063964844e+01 6.792656183242797852e-01 -6.129327788949012756e-02 1.853917092084884644e-01 -8.725357800722122192e-02
3.252000000000000000e+03 2.073227119445800781e+01 1.224702930450439453e+01 5.828589200973510742e-01 -3.178287148475646973e-01 7.950906455516815186e-02 3.969080746173858643e-02
3.253000000000000000e+03 2.318221282958984375e+01 2.598794174194335938e+01 2.068493068218231201e-01 4.730566740036010742e-01 2.039717882871627808e-01 -2.908971309661865234e-01
3.254000000000000000e+03 2.046171951293945312e+01 1.760484504699707031e+01 5.129466652870178223e-01 -8.180536329746246338e-02 1.293423771858215332e-01 -1.064718216657638550e-01
3.255000000000000000e+03 1.655872154235839844e+01 2.392968750000000000e+01 2.467528879642486572e-01 -1.334782987833023071e-01 3.398237749934196472e-02 -7.806383818387985229e-02
3.256000000000000000e+03 3.724504089355468750e+01 3.346010589599609375e+01 -3.851060569286346436e-01 1.590626001358032227e+00 3.616559803485870361e-01 -1.342509835958480835e-01
3.257000000000000000e+03 2.808142662048339844e+01 2.921540260314941406e+01 -1.672885753214359283e-02 1.009729146957397461e+00 2.979000806808471680e-01 -3.273028135299682617e-01
3.258000000000000000e+03 2.265163612365722656e+01 -4.145162963867187500e+01 -8.173679001629352570e-03 -1.241849642246961594e-02 -6.177652627229690552e-03 3.467627335339784622e-03
3.259000000000000000e+03 2.908999824523925781e+01 3.219431686401367188e+01 -1.720442473888397217e-01 1.109270453453063965e+00 2.811678647994995117e-01 -2.611738145351409912e-01
3.260000000000000000e+03 7.812066650390625000e+01 -4.177173614501953125e+01 4.078688919544219971e-01 9.155538558959960938e+00 2.869022369384765625e+00 1.145967394113540649e-01
3.261000000000000000e+03 8.166968345642089844e+00 4.098919677734375000e+01 -2.525735832750797272e-02 -6.013497114181518555e-01 -1.879821121692657471e-01 -2.233554376289248466e-03
3.262000000000000000e+03 1.388693904876708984e+01 2.765478515625000000e+01 1.186305657029151917e-01 -2.531349062919616699e-01 -4.035130515694618225e-02 -5.218024551868438721e-02
3.263000000000000000e+03 2.565717697143554688e+01 3.032093620300292969e+01 -2.209162339568138123e-02 7.866302728652954102e-01 2.293615937232971191e-01 -2.816118896007537842e-01
3.264000000000000000e+03 2.066914939880371094e+01 2.973450469970703125e+01 6.305507570505142212e-02 3.457606732845306396e-01 1.226447299122810364e-01 -2.048265188932418823e-01
3.265000000000000000e+03 2.003274536132812500e+01 2.176388931274414062e+01 3.616736531257629395e-01 5.576003715395927429e-02 1.252301037311553955e-01 -1.636645346879959106e-01
3.266000000000000000e+03 4.609525299072265625e+01 -3.433405685424804688e+01 2.270680367946624756e-01 8.070939183235168457e-01 3.102485835552215576e-01 6.942489743232727051e-01
3.267000000000000000e+03 1.549718952178955078e+01 3.522391891479492188e+01 -3.723765164613723755e-02 -1.575670577585697174e-02 -1.589830592274665833e-02 -7.262891530990600586e-02
3.268000000000000000e+03 4.270667266845703125e+01 -3.707401275634765625e+01 3.147976994514465332e-01 -5.374671146273612976e-02 7.831529527902603149e-02 2.380104213953018188e-01
3.269000000000000000e+03 2.083611106872558594e+01 2.665303802490234375e+01 1.769808232784271240e-01 2.902191579341888428e-01 1.401599943637847900e-01 -2.241342961788177490e-01
3.270000000000000000e+03 6.193711853027343750e+01 4.116049957275390625e+01 2.685078382492065430e-01 -1.666083186864852905e-01 3.056985326111316681e-02 6.238110736012458801e-02
3.271000000000000000e+03 3.326212310791015625e+01 3.673526382446289062e+01 -4.194378256797790527e-01 1.381053924560546875e+00 2.884848117828369141e-01 -1.430836617946624756e-01
3.272000000000000000e+03 2.711065673828125000e+01 3.666438293457031250e+01 -2.697418630123138428e-01 9.852387905120849609e-01 2.146490812301635742e-01 -1.558977663516998291e-01
3.273000000000000000e+03 3.295014190673828125e+01 3.372407531738281250e+01 -3.290294408798217773e-01 1.415150523185729980e+00 3.258363008499145508e-01 -2.228426933288574219e-01
3.274000000000000000e+03 1.867073822021484375e+01 3.668341827392578125e+01 -8.733543008565902710e-02 2.442998588085174561e-01 4.708932712674140930e-02 -8.987665176391601562e-02
3.275000000000000000e+03 2.282445526123046875e+01 3.702402877807617188e+01 -1.715277135372161865e-01 6.150751113891601562e-01 1.330642104148864746e-01 -1.109286695718765259e-01
3.276000000000000000e+03 5.273563385009765625e+01 -4.115532302856445312e+01 -8.912490010261535645e-01 2.963455915451049805e+00 6.216620206832885742e-01 3.588937968015670776e-02
3.277000000000000000e+03 1.850423049926757812e+01 2.412403488159179688e+01 2.623602449893951416e-01 1.959891617298126221e-02 8.458774536848068237e-02 -1.400305181741714478e-01
3.278000000000000000e+03 1.813253021240234375e+01 2.920899391174316406e+01 8.996997028589248657e-02 1.130531877279281616e-01 6.090694665908813477e-02 -1.507851481437683105e-01
3.279000000000000000e+03 4.822221374511718750e+01 -4.101877212524414062e+01 -2.888593673706054688e-01 1.862216472625732422e+00 4.720071256160736084e-01 2.502752840518951416e-01
3.280000000000000000e+03 1.832713317871093750e+01 2.199642753601074219e+01 3.319780826568603516e-01 -6.638726592063903809e-02 7.967724651098251343e-02 -1.063083261251449585e-01
3.281000000000000000e+03 1.850631523132324219e+01 2.652659988403320312e+01 1.757702529430389404e-01 8.494122326374053955e-02 7.821344584226608276e-02 -1.515655368566513062e-01
3.282000000000000000e+03 2.299390220642089844e+01 3.351169204711914062e+01 -9.249639511108398438e-02 5.873110890388488770e-01 1.484444141387939453e-01 -1.879716217517852783e-01
3.283000000000000000e+03 1.986735343933105469e+01 3.307166290283203125e+01 -3.378551825881004333e-02 3.252027034759521484e-01 8.742515742778778076e-02 -1.554988175630569458e-01
3.284000000000000000e+03 3.042316627502441406e+01 3.520930862426757812e+01 -3.158719837665557861e-01 1.222610235214233398e+00 2.720215022563934326e-01 -1.801574528217315674e-01
3.285000000000000000e+03 4.169209289550781250e+01 -4.104541015625000000e+01 3.028245568275451660e-01 1.632164418697357178e-01 1.398123055696487427e-01 4.140432178974151611e-02
3.286000000000000000e+03 2.683926963806152344e+01 -4.130887603759765625e+01 1.342785451561212540e-02 -6.812518835067749023e-02 -1.640919968485832214e-02 -1.084164902567863464e-02
3.287000000000000000e+03 9.011395454406738281e+00 -2.620955467224121094e+00 -3.528353408910334110e-05 -7.099715003278106451e-05 -3.188420669175684452e-05 -3.291494067525491118e-05
3.288000000000000000e+03 5.180634689331054688e+01 -1.779917335510253906e+01 -2.753419637680053711e+00 8.543336987495422363e-01 -5.697258114814758301e-01 -2.237131357192993164e+00
3.289000000000000000e+03 5.248212051391601562e+01 -1.773922157287597656e+01 -1.632114529609680176e+00 1.370186567306518555e+00 -7.857836782932281494e-02 -3.596786022186279297e+00
3.290000000000000000e+03 5.528473663330078125e+01 -1.717595672607421875e+01 -4.381092548370361328e+00 6.967915534973144531e+00 7.760468125343322754e-01 -6.271716117858886719e+00
3.291000000000000000e+03 5.487822723388671875e+01 -2.063256645202636719e+01 -7.067016363143920898e-01 9.271062850952148438e+00 2.569308280944824219e+00 3.000474929809570312e+00
3.292000000000000000e+03 5.481171035766601562e+01 -2.084949493408203125e+01 -7.276656627655029297e-01 8.327632904052734375e+00 2.279990196228027344e+00 2.825735330581665039e+00
3.293000000000000000e+03 5.451755142211914062e+01 -2.071967887878417969e+01 -1.949997395277023315e-01 6.847354412078857422e+00 1.995706439018249512e+00 3.320855617523193359e+00
3.294000000000000000e+03 5.431814956665039062e+01 -2.078310203552246094e+01 -3.120613098144531250e-02 5.713220596313476562e+00 1.704604268074035645e+00 3.341927766799926758e+00
3.295000000000000000e+03 5.395211410522460938e+01 -2.122695541381835938e+01 -2.553224563598632812e-01 4.511702060699462891e+00 1.276913881301879883e+00 2.742287874221801758e+00
3.296000000000000000e+03 5.376104354858398438e+01 -2.121114158630371094e+01 -1.829715222120285034e-01 3.803951978683471680e+00 1.086294174194335938e+00 2.638978958129882812e+00
3.297000000000000000e+03 5.357301330566406250e+01 -2.125213432312011719e+01 -1.938080340623855591e-01 3.402008056640625000e+00 9.624600410461425781e-01 2.366993188858032227e+00
3.298000000000000000e+03 5.319456100463867188e+01 -2.131596565246582031e+01 -1.686283051967620850e-01 2.594091653823852539e+00 7.276390194892883301e-01 1.950760126113891602e+00
3.299000000000000000e+03 5.301783752441406250e+01 -2.138599967956542969e+01 -2.602092027664184570e-01 2.277152538299560547e+00 6.050829887390136719e-01 1.762420415878295898e+00
3.300000000000000000e+03 5.249259948730468750e+01 -2.119331359863281250e+01 -5.121586322784423828e-01 1.285799264907836914e+00 2.320921868085861206e-01 1.111206412315368652e+00
3.301000000000000000e+03 4.255128097534179688e+01 -2.381272315979003906e+01 -8.378313854336738586e-03 -5.430572032928466797e-01 -1.654306650161743164e-01 -3.060557246208190918e-01
3.302000000000000000e+03 4.196113586425781250e+01 -2.414116287231445312e+01 3.246968379244208336e-03 -6.985691785812377930e-01 -2.085966765880584717e-01 -4.593340307474136353e-02
3.303000000000000000e+03 4.249178695678710938e+01 -2.465599060058593750e+01 -2.811460010707378387e-02 -8.780633211135864258e-01 -2.718533873558044434e-01 -2.881410419940948486e-01
3.304000000000000000e+03 5.404621505737304688e+01 -3.339512634277343750e+01 2.218791544437408447e-01 4.643218517303466797e+00 1.459529280662536621e+00 8.274060487747192383e-01
3.305000000000000000e+03 6.785940551757812500e+01 4.121931457519531250e+01 2.601000070571899414e-01 2.336416959762573242e+00 7.789551019668579102e-01 -9.793453663587570190e-02
3.306000000000000000e+03 7.724926757812500000e+01 3.830986785888671875e+01 -1.846153140068054199e-01 9.602058410644531250e+00 2.825232982635498047e+00 -2.328906655311584473e-01
3.307000000000000000e+03 7.757649230957031250e+01 3.573065948486328125e+01 -1.833615899085998535e-01 9.646058082580566406e+00 2.838809013366699219e+00 1.100464984774589539e-01
3.308000000000000000e+03 7.655892944335937500e+01 -3.660962677001953125e+01 -3.233916759490966797e-01 8.304337501525878906e+00 2.394283771514892578e+00 -2.161880284547805786e-01
3.309000000000000000e+03 2.137513923645019531e+01 -1.388850116729736328e+01 -4.162743789493106306e-05 1.096999494620831683e-05 -9.197232429869472980e-06 -1.116205021389760077e-05
3.310000000000000000e+03 3.366880035400390625e+01 -3.499383163452148438e+01 -1.065403968095779419e-01 -5.882265791296958923e-02 -4.960891604423522949e-02 -1.564810127019882202e-01
3.311000000000000000e+03 5.509857177734375000e+01 -3.385965728759765625e+01 -4.623463451862335205e-01 5.521828651428222656e+00 1.517844796180725098e+00 5.310255885124206543e-01
3.312000000000000000e+03 5.523460006713867188e+01 -2.135210037231445312e+01 -1.161334276199340820e+00 8.675969123840332031e+00 2.254390239715576172e+00 1.737680912017822266e+00
3.313000000000000000e+03 5.657913208007812500e+01 -2.164246368408203125e+01 -4.285610020160675049e-01 7.223126888275146484e+00 2.038369655609130859e+00 -2.568991184234619141e-01
3.314000000000000000e+03 2.004136085510253906e+01 -1.248159599304199219e+01 -4.893530785921029747e-05 -1.071736551239155233e-04 -4.683268707594834268e-05 -3.564108556020073593e-05
3.315000000000000000e+03 5.384403228759765625e+01 -2.148292922973632812e+01 -3.560889661312103271e-01 4.339359283447265625e+00 1.194981098175048828e+00 2.657828330993652344e+00
3.316000000000000000e+03 5.428066253662109375e+01 -2.164349365234375000e+01 -7.603828310966491699e-01 5.632784843444824219e+00 1.461720705032348633e+00 2.525325298309326172e+00
3.317000000000000000e+03 5.394018554687500000e+01 -1.691902160644531250e+01 -1.143574595451354980e+00 6.184135913848876953e+00 1.512168288230895996e+00 -6.942611217498779297e+00
3.318000000000000000e+03 5.463086700439453125e+01 -1.678639411926269531e+01 -2.058127880096435547e+00 8.331577301025390625e+00 1.882034659385681152e+00 -7.809731006622314453e+00
3.319000000000000000e+03 3.204521894454956055e+00 3.715403747558593750e+01 1.235244236886501312e-02 -1.018089175224304199e+00 -3.017210066318511963e-01 -2.974045090377330780e-02
3.320000000000000000e+03 5.709910202026367188e+01 -3.698096466064453125e+01 -7.607741355895996094e-01 2.913509845733642578e+00 6.458206772804260254e-01 -1.103204369544982910e+00
3.321000000000000000e+03 5.495660018920898438e+01 -2.151890563964843750e+01 -1.151920199394226074e+00 7.561926841735839844e+00 1.923002004623413086e+00 2.234957218170166016e+00
3.322000000000000000e+03 9.429319381713867188e+00 -1.398564243316650391e+01 -2.224189665867015719e-04 -4.971357611793791875e-06 -6.821709393989294767e-05 -2.060080005321651697e-04
3.323000000000000000e+03 7.919432640075683594e+00 -1.345315170288085938e+01 -3.265906416345387697e-04 1.338982747256522998e-05 -9.396024688612669706e-05 -6.479941657744348049e-05
3.324000000000000000e+03 5.769618606567382812e+01 -2.102756118774414062e+01 2.127223730087280273e+00 4.121788978576660156e+00 1.874703884124755859e+00 -1.046424150466918945e+00
3.325000000000000000e+03 5.974707794189453125e+01 -3.662635803222656250e+01 -5.343516469001770020e-01 1.222955107688903809e+00 2.065810412168502808e-01 -1.077054262161254883e+00
3.326000000000000000e+03 3.985326004028320312e+01 -1.677785873413085938e+01 -2.392951965332031250e+00 -2.789733111858367920e-01 -8.015776276588439941e-01 6.257430911064147949e-01
3.327000000000000000e+03 3.966936111450195312e+01 -1.595502281188964844e+01 -1.795532226562500000e+00 -2.987455427646636963e-01 -6.282833218574523926e-01 5.463864207267761230e-01
3.328000000000000000e+03 5.737541580200195312e+01 -3.882050704956054688e+01 -6.368452906608581543e-01 2.399432182312011719e+00 5.287760496139526367e-01 -7.374694943428039551e-01
3.329000000000000000e+03 4.964173507690429688e+01 3.531524276733398438e+01 -3.378393948078155518e-01 6.697023510932922363e-01 9.955887496471405029e-02 1.786092519760131836e-01
3.330000000000000000e+03 7.585097503662109375e+01 -1.954294967651367188e+01 -3.952532708644866943e-01 7.517040729522705078e+00 2.136536121368408203e+00 3.469780385494232178e-01
3.331000000000000000e+03 5.716411972045898438e+01 -2.172308540344238281e+01 7.488907873630523682e-02 6.091909408569335938e+00 1.850039482116699219e+00 -3.993632197380065918e-01
3.332000000000000000e+03 5.473946762084960938e+01 -2.171918869018554688e+01 -1.075513124465942383e+00 6.841002941131591797e+00 1.729646921157836914e+00 2.270888090133666992e+00
3.333000000000000000e+03 7.477904510498046875e+01 3.053943443298339844e+01 -1.994629651308059692e-01 7.852307319641113281e+00 2.295853376388549805e+00 6.481013894081115723e-01
3.334000000000000000e+03 2.481989479064941406e+01 -5.147738933563232422e+00 -8.437011241912841797e-01 -8.133831024169921875e-01 -4.971252679824829102e-01 8.046422004699707031e-01
3.335000000000000000e+03 5.248458099365234375e+01 -2.750517654418945312e+01 9.070588350296020508e-01 3.996915578842163086e+00 1.471192359924316406e+00 1.136082783341407776e-01
3.336000000000000000e+03 4.642094039916992188e+01 3.549325942993164062e+01 -4.107600450515747070e-01 1.129858613014221191e+00 2.157295793294906616e-01 1.268349140882492065e-01
3.337000000000000000e+03 4.742065048217773438e+01 -1.433060646057128906e+01 9.690379500389099121e-01 1.191342234611511230e+00 6.481140851974487305e-01 -3.558970093727111816e-01
3.338000000000000000e+03 3.598912239074707031e+00 3.446981811523437500e+01 8.679795078933238983e-03 -9.509971737861633301e-01 -2.826952040195465088e-01 -1.476621255278587341e-02
3.339000000000000000e+03 7.582247257232666016e+00 -1.242332935333251953e+01 3.385014133527874947e-04 -3.645362085080705583e-05 9.061433956958353519e-05 4.643858846975490451e-05
3.340000000000000000e+03 4.170918941497802734e+00 -2.825546836853027344e+01 -6.990542169660329819e-04 1.615029032109305263e-04 -1.612653868505731225e-04 -2.242918126285076141e-04
3.341000000000000000e+03 5.359319305419921875e+01 -2.187848472595214844e+01 -5.161590576171875000e-01 4.057999134063720703e+00 1.062551975250244141e+00 2.232483625411987305e+00
3.342000000000000000e+03 1.836234855651855469e+01 -1.000719928741455078e+01 1.151654505520127714e-04 -3.314202331239357591e-05 2.460702853568363935e-05 -2.347915324207860976e-05
3.343000000000000000e+03 5.277981185913085938e+01 -2.803402519226074219e+01 1.185760140419006348e+00 4.275324821472167969e+00 1.638325452804565430e+00 3.200975060462951660e-01
3.344000000000000000e+03 4.957022666931152344e+00 -1.371841239929199219e+01 -2.433534245938062668e-04 -8.798560884315520525e-05 -9.940171003108844161e-05 -1.009856568998657167e-04
3.345000000000000000e+03 1.289284133911132812e+01 4.071607589721679688e+00 -2.604732215404510498e-01 -7.379291057586669922e-01 -2.995207011699676514e-01 6.506861448287963867e-01
3.346000000000000000e+03 1.345720386505126953e+01 5.234517097473144531e+00 -8.315329998731613159e-02 -7.746559977531433105e-01 -2.573427855968475342e-01 6.106026172637939453e-01
3.347000000000000000e+03 4.770661926269531250e+01 -1.487918186187744141e+01 7.513507008552551270e-01 1.215940594673156738e+00 5.901873707771301270e-01 -2.993584275245666504e-01
3.348000000000000000e+03 5.183115386962890625e+01 -2.799120903015136719e+01 1.084157347679138184e+00 3.352722167968750000e+00 1.331063866615295410e+00 3.085773289203643799e-01
3.349000000000000000e+03 5.574451446533203125e+01 -2.351786613464355469e+01 -1.428775429725646973e+00 6.452884197235107422e+00 1.507232666015625000e+00 1.264779329299926758e+00
3.350000000000000000e+03 5.399249076843261719e+00 -7.491840362548828125e+00 1.845799415605142713e-04 3.090181417064741254e-05 6.464452599175274372e-05 6.339557148749008775e-05
3.351000000000000000e+03 4.188356781005859375e+01 2.958797645568847656e+01 -1.754921227693557739e-01 1.778358221054077148e+00 4.808598160743713379e-01 1.089649796485900879e-01
3.352000000000000000e+03 7.455223083496093750e+01 2.895095825195312500e+01 -1.412575840950012207e-01 7.795441627502441406e+00 2.296255111694335938e+00 7.189402580261230469e-01
3.353000000000000000e+03 8.984698295593261719e+00 -3.207234573364257812e+01 2.274496480822563171e-03 -3.387957403901964426e-04 5.807102425023913383e-04 1.321313553489744663e-03
3.354000000000000000e+03 1.508182048797607422e+01 -8.349330902099609375e+00 -5.053318454883992672e-05 -6.925124762346968055e-05 -3.593532892409712076e-05 8.884497219696640968e-05
3.355000000000000000e+03 7.095375061035156250e+01 -1.234916973114013672e+01 1.235352084040641785e-02 5.442304134368896484e+00 1.636397361755371094e+00 -6.042494997382164001e-02
3.356000000000000000e+03 2.431583404541015625e+01 -2.650807142257690430e+00 -5.771807432174682617e-01 -7.357262969017028809e-01 -3.938721120357513428e-01 6.127836704254150391e-01
3.357000000000000000e+03 4.634495258331298828e+00 7.502085685729980469e+00 -3.740783780813217163e-02 -3.736418485641479492e-01 -1.233149021863937378e-01 3.139633238315582275e-01
3.358000000000000000e+03 3.800081634521484375e+01 -1.396311187744140625e+01 -1.011935830116271973e+00 -2.805301249027252197e-01 -3.877397775650024414e-01 6.517230868339538574e-01
3.359000000000000000e+03 3.479925155639648438e+01 -1.142288780212402344e+01 -6.060848832130432129e-01 -7.406684011220932007e-02 -2.040455192327499390e-01 8.168188929557800293e-01
3.360000000000000000e+03 4.144339370727539062e+01 -1.165108394622802734e+01 1.185636147856712341e-01 5.541890263557434082e-01 2.018257826566696167e-01 -1.034608781337738037e-01
3.361000000000000000e+03 4.055195236206054688e+01 -1.179208374023437500e+01 -8.609993010759353638e-02 3.405523002147674561e-01 7.633571326732635498e-02 6.651411950588226318e-02
3.362000000000000000e+03 7.440689086914062500e+01 1.377402544021606445e+00 6.288462877273559570e-01 8.272073745727539062e+00 2.670276165008544922e+00 1.179994791746139526e-01
3.363000000000000000e+03 1.525117301940917969e+01 -7.235575675964355469e+00 -7.613324123667553067e-05 -2.041966399701777846e-05 -2.896587102441117167e-05 -3.930116236006142572e-06
3.364000000000000000e+03 7.353256988525390625e+01 1.691799736022949219e+01 8.573363721370697021e-02 8.368415832519531250e+00 2.536244869232177734e+00 4.121029675006866455e-01
3.365000000000000000e+03 6.242784023284912109e+00 2.616110801696777344e+01 4.029383510351181030e-02 -7.748178243637084961e-01 -2.203571945428848267e-01 2.962366677820682526e-02
3.366000000000000000e+03 2.265359115600585938e+01 -9.804746508598327637e-01 -4.650524258613586426e-01 -8.747822642326354980e-01 -4.019503891468048096e-01 5.842965245246887207e-01
3.367000000000000000e+03 4.595746612548828125e+01 -1.459240245819091797e+01 1.868373751640319824e-01 8.051807880401611328e-01 2.976054251194000244e-01 1.201720833778381348e-01
3.368000000000000000e+03 4.237873840332031250e+01 -1.154795455932617188e+01 3.605422675609588623e-01 7.342308163642883301e-01 3.284319341182708740e-01 -2.812752127647399902e-01
3.369000000000000000e+03 3.728396987915039062e+01 1.936903953552246094e+01 3.965081572532653809e-01 2.492796897888183594e+00 8.667914867401123047e-01 -3.238379657268524170e-01
3.370000000000000000e+03 1.360756874084472656e+01 7.003235340118408203e+00 7.895645499229431152e-02 -7.475006580352783203e-01 -2.005632668733596802e-01 5.463073253631591797e-01
3.371000000000000000e+03 3.512853240966796875e+01 -1.056018829345703125e+01 -4.365479350090026855e-01 2.947016991674900055e-02 -1.221233308315277100e-01 6.943867206573486328e-01
3.372000000000000000e+03 2.695151519775390625e+01 -2.781477689743041992e+00 -3.884546458721160889e-01 -3.099583089351654053e-01 -2.095238864421844482e-01 4.848522841930389404e-01
3.373000000000000000e+03 3.957767105102539062e+01 -1.154556846618652344e+01 -1.149770170450210571e-01 2.262803763151168823e-01 3.339100629091262817e-02 1.694806665182113647e-01
3.374000000000000000e+03 6.863242626190185547e+00 6.223567485809326172e+00 -1.032478958368301392e-01 -3.905118703842163086e-01 -1.481279283761978149e-01 4.321784377098083496e-01
3.375000000000000000e+03 4.222342681884765625e+01 -8.695548057556152344e+00 7.258114218711853027e-01 1.289917945861816406e+00 6.047188043594360352e-01 -7.896958589553833008e-01
3.376000000000000000e+03 3.060872840881347656e+01 1.751708030700683594e+01 6.478613615036010742e-01 1.166613817214965820e+00 5.443425774574279785e-01 -4.978193938732147217e-01
3.377000000000000000e+03 4.156796646118164062e+01 -7.138225078582763672e+00 6.986349821090698242e-01 1.459477543830871582e+00 6.474337577819824219e-01 -8.470717072486877441e-01
3.378000000000000000e+03 1.639471054077148438e+01 6.372812271118164062e+00 1.440021246671676636e-01 -8.064392805099487305e-01 -1.987311393022537231e-01 4.876878261566162109e-01
3.379000000000000000e+03 1.547608661651611328e+01 6.212612628936767578e+00 9.403539448976516724e-02 -8.166606426239013672e-01 -2.167875766754150391e-01 5.261744260787963867e-01
3.380000000000000000e+03 1.059752082824707031e+01 -5.538515090942382812e+00 7.975939661264419556e-05 6.049379953765310347e-05 4.207596066407859325e-05 6.705522537231445312e-05
3.381000000000000000e+03 1.065074253082275391e+01 -6.208981037139892578e+00 5.885996415599947795e-06 -7.825336069799959660e-06 -5.818019417347386479e-07 -5.556268661166541278e-05
3.382000000000000000e+03 2.280428314208984375e+01 -3.251290321350097656e-01 -3.727186620235443115e-01 -8.104616999626159668e-01 -3.549541234970092773e-01 5.117666125297546387e-01
3.383000000000000000e+03 3.032052421569824219e+01 -6.246567726135253906e+00 -4.524393975734710693e-01 3.062553331255912781e-02 -1.265441626310348511e-01 6.397602558135986328e-01
3.384000000000000000e+03 4.145621490478515625e+01 -1.010848999023437500e+01 4.811546802520751953e-01 8.036301136016845703e-01 3.854354321956634521e-01 -3.945068717002868652e-01
3.385000000000000000e+03 2.943078613281250000e+01 -5.135163784027099609e+00 -4.297375679016113281e-01 -2.406313829123973846e-02 -1.361402124166488647e-01 5.816109776496887207e-01
3.386000000000000000e+03 1.392133712768554688e+01 2.067949295043945312e+01 2.746176719665527344e-01 -3.891260325908660889e-01 -3.435251116752624512e-02 5.624302104115486145e-02
3.387000000000000000e+03 1.554083251953125000e+01 7.923597335815429688e+00 2.296085953712463379e-01 -7.474249601364135742e-01 -1.553449183702468872e-01 4.488061070442199707e-01
3.388000000000000000e+03 4.074351501464843750e+01 -9.439530372619628906e+00 4.313186109066009521e-01 7.742170691490173340e-01 3.616607189178466797e-01 -3.419832587242126465e-01
3.389000000000000000e+03 2.272468376159667969e+01 6.773750185966491699e-01 -2.153985053300857544e-01 -7.579081654548645020e-01 -2.919920086860656738e-01 4.571169614791870117e-01
3.390000000000000000e+03 4.016564941406250000e+01 -8.488903999328613281e+00 4.424337148666381836e-01 8.376576304435729980e-01 3.840273916721343994e-01 -3.481470942497253418e-01
3.391000000000000000e+03 4.025185394287109375e+01 -1.118505096435546875e+01 1.026781573891639709e-01 4.303561449050903320e-01 1.599102914333343506e-01 -4.625909496098756790e-03
3.392000000000000000e+03 2.923804092407226562e+01 -3.478657722473144531e+00 -2.730102837085723877e-01 3.128371387720108032e-02 -7.251796871423721313e-02 4.391325414180755615e-01
3.393000000000000000e+03 4.085963821411132812e+01 -8.748462677001953125e+00 4.952710568904876709e-01 9.846769571304321289e-01 4.439844191074371338e-01 -4.596267640590667725e-01
3.394000000000000000e+03 2.315641784667968750e+01 1.653150916099548340e+00 -4.087571054697036743e-02 -6.492646932601928711e-01 -2.070421129465103149e-01 3.680379390716552734e-01
3.395000000000000000e+03 2.749052619934082031e+01 1.292797851562500000e+01 8.028373122215270996e-01 4.982438087463378906e-01 3.903243541717529297e-01 -3.188987374305725098e-01
3.396000000000000000e+03 3.875225448608398438e+01 -7.666038513183593750e+00 3.244466185569763184e-01 8.089240789413452148e-01 3.400112092494964600e-01 -1.952012479305267334e-01
3.397000000000000000e+03 1.927683258056640625e+01 7.454929351806640625e+00 3.569364249706268311e-01 -6.575078368186950684e-01 -9.017143398523330688e-02 2.944398224353790283e-01
3.398000000000000000e+03 2.564861488342285156e+01 1.194939041137695312e+01 7.283537983894348145e-01 2.060187906026840210e-01 2.803117632865905762e-01 -1.984366923570632935e-01
3.399000000000000000e+03 3.659238433837890625e+01 -4.051047801971435547e+00 3.237292766571044922e-01 1.085904240608215332e+00 4.228900372982025146e-01 -2.098215967416763306e-01
3.400000000000000000e+03 3.367314529418945312e+01 6.069947242736816406e+00 8.503479957580566406e-01 1.426253437995910645e+00 6.829804182052612305e-01 -3.447311818599700928e-01
3.401000000000000000e+03 3.808274459838867188e+01 -7.597291469573974609e+00 2.547543048858642578e-01 7.217769622802734375e-01 2.929593920707702637e-01 -9.003544598817825317e-02
3.402000000000000000e+03 3.096230125427246094e+01 -2.846341371536254883e+00 -5.091959238052368164e-02 3.422798216342926025e-01 8.740806579589843750e-02 2.997663915157318115e-01
3.403000000000000000e+03 2.961989593505859375e+01 2.060472726821899414e+00 3.471394181251525879e-01 3.493556976318359375e-01 2.089485377073287964e-01 3.541959449648857117e-02
3.404000000000000000e+03 2.490111160278320312e+01 1.123273086547851562e+01 7.023894786834716797e-01 5.512835085391998291e-02 2.272553443908691406e-01 -1.360682398080825806e-01
3.405000000000000000e+03 1.403633403778076172e+01 1.457686901092529297e+01 3.503602743148803711e-01 -5.493688583374023438e-01 -5.970257520675659180e-02 2.370724380016326904e-01
3.406000000000000000e+03 1.320297336578369141e+01 1.406506919860839844e+01 3.220568895339965820e-01 -5.808231234550476074e-01 -7.762987166643142700e-02 2.775282859802246094e-01
3.407000000000000000e+03 2.218986129760742188e+01 4.400145530700683594e+00 2.218959182500839233e-01 -5.989459753036499023e-01 -1.131150275468826294e-01 2.715519368648529053e-01
3.408000000000000000e+03 3.801472854614257812e+01 -6.829552173614501953e+00 2.807701230049133301e-01 8.438987731933593750e-01 3.374006748199462891e-01 -1.566903144121170044e-01
3.409000000000000000e+03 2.459782409667968750e+01 7.769821643829345703e+00 5.874623656272888184e-01 -1.498689949512481689e-01 1.312780082225799561e-01 1.625050324946641922e-03
3.410000000000000000e+03 2.893127250671386719e+01 6.680642127990722656e+00 7.088234424591064453e-01 4.713717699050903320e-01 3.540585637092590332e-01 -1.528453677892684937e-01
3.411000000000000000e+03 3.103501319885253906e+01 -2.167381048202514648e+00 2.683363482356071472e-02 3.982408642768859863e-01 1.275223493576049805e-01 2.352790534496307373e-01
3.412000000000000000e+03 3.013132667541503906e+01 -1.983566761016845703e+00 -5.414547026157379150e-02 2.211056798696517944e-01 5.008805915713310242e-02 2.648667395114898682e-01
3.413000000000000000e+03 1.605741500854492188e+01 -3.611289262771606445e+00 -1.795589560060761869e-05 -2.610573756101075560e-05 -1.321849049418233335e-05 -1.676830834185238928e-05
3.414000000000000000e+03 1.562254238128662109e+01 -4.210125446319580078e+00 2.568689706095028669e-05 2.832373684213962406e-05 1.620319017092697322e-05 1.382478239975171164e-05
3.415000000000000000e+03 1.505074691772460938e+01 -3.785051584243774414e+00 -2.537683940317947417e-05 -3.299939635326154530e-05 -1.751286981743760407e-05 -1.532652822788804770e-05
3.416000000000000000e+03 1.676181221008300781e+01 -5.065579891204833984e+00 3.096746877417899668e-05 1.861884629761334509e-05 1.487589452153770253e-05 1.219601745106047019e-05
3.417000000000000000e+03 1.619318008422851562e+01 -4.636556148529052734e+00 -2.809870784403756261e-05 -2.312793185410555452e-05 -1.536799209134187549e-05 -1.243644874193705618e-05
3.418000000000000000e+03 1.723610115051269531e+01 -4.496263980865478516e+00 -2.116712857969105244e-05 -2.090840644086711109e-05 -1.262266050616744906e-05 -1.638187495700549334e-05
3.419000000000000000e+03 1.546591091156005859e+01 -3.171455383300781250e+00 1.687559597485233098e-05 2.983557533298153430e-05 1.401335157424909994e-05 1.796499418560415506e-05
3.420000000000000000e+03 1.664776039123535156e+01 -4.052479743957519531e+00 1.856153721746522933e-05 2.284224319737404585e-05 1.242113467014860362e-05 1.660285488469526172e-05
3.421000000000000000e+03 1.831977081298828125e+01 -5.492505550384521484e+00 -2.430358654237352312e-05 -1.911989966174587607e-05 -1.302704640693264082e-05 -1.756648634909652174e-05
3.422000000000000000e+03 1.780974006652832031e+01 -6.028855800628662109e+00 3.113909406238235533e-05 1.328565394942415878e-05 1.332742431259248406e-05 1.307342154177604243e-05
3.423000000000000000e+03 1.730055999755859375e+01 -5.529824733734130859e+00 -3.188171103829517961e-05 -1.550001434225123376e-05 -1.421451815986074507e-05 -1.167269692814443260e-05
3.424000000000000000e+03 1.831691551208496094e+01 -6.530111789703369141e+00 -3.182781438226811588e-05 -1.393937600369099528e-05 -1.373015675198985264e-05 -1.273692305403528735e-05
3.425000000000000000e+03 1.882190132141113281e+01 -7.033396244049072266e+00 3.572006244212388992e-05 1.459971008443972096e-05 1.509593221271643415e-05 1.192705167341046035e-05
3.426000000000000000e+03 1.936644935607910156e+01 -6.531159877777099609e+00 -2.652005241543520242e-05 -1.803307350201066583e-05 -1.336593777523376048e-05 -1.702689951343927532e-05
3.427000000000000000e+03 1.779333305358886719e+01 -4.976417064666748047e+00 2.202946780016645789e-05 1.934855936269741505e-05 1.241340760316234082e-05 1.743469874782022089e-05
3.428000000000000000e+03 1.884420585632324219e+01 -6.010818481445312500e+00 2.409721309959422797e-05 1.812736445572227240e-05 1.266737308469600976e-05 1.855875416367780417e-05
3.429000000000000000e+03 2.031454658508300781e+01 -7.659852027893066406e+00 -3.502623439999297261e-05 -1.517455075372708961e-05 -1.506023545516654849e-05 -1.772762698237784207e-05
3.430000000000000000e+03 2.077073287963867188e+01 -8.240385055541992188e+00 4.006668314104899764e-05 1.389352837577462196e-05 1.618806345504708588e-05 2.220773058070335537e-05
3.431000000000000000e+03 1.929654693603515625e+01 -7.565644741058349609e+00 -4.078184792888350785e-05 -1.375357896904461086e-05 -1.636062734178267419e-05 -1.008459821605356410e-05
3.432000000000000000e+03 2.062350273132324219e+01 -9.254287719726562500e+00 5.401197631726972759e-05 6.939022568985819817e-06 1.828530002967454493e-05 2.260384280816651881e-05
3.433000000000000000e+03 2.018299865722656250e+01 -8.690117835998535156e+00 -5.590144792222417891e-05 -5.456086910271551460e-06 -1.840725963120348752e-05 -1.420210082869743928e-05
3.434000000000000000e+03 1.974063491821289062e+01 -8.127175331115722656e+00 4.889138290309347212e-05 9.397239409736357629e-06 1.748658723954576999e-05 1.035960576700745150e-05
3.435000000000000000e+03 2.122505760192871094e+01 -8.822144508361816406e+00 -4.328835711930878460e-05 -1.714987774903420359e-05 -1.813147173379547894e-05 -2.440403659420553595e-05
3.436000000000000000e+03 1.985663604736328125e+01 -7.080731868743896484e+00 2.846011011570226401e-05 1.550310844322666526e-05 1.318896556767867878e-05 1.756586243573110551e-05
3.437000000000000000e+03 2.203341293334960938e+01 -1.005728912353515625e+01 -2.929049151134677231e-05 -1.936325497808866203e-05 -1.459612303733592853e-05 -2.089928239001892507e-05
3.438000000000000000e+03 2.140859222412109375e+01 -1.045394611358642578e+01 2.573238089098595083e-05 2.799319918267428875e-05 1.611767402209807187e-05 2.695561124710366130e-05
3.439000000000000000e+03 2.103163337707519531e+01 -9.842617988586425781e+00 -4.107969289179891348e-05 -1.592775333847384900e-05 -1.710223295958712697e-05 -2.876881626434624195e-05
3.440000000000000000e+03 2.178438568115234375e+01 -1.106581783294677734e+01 -2.057920573861338198e-05 -3.145292066619731486e-05 -1.560963755764532834e-05 -1.607544072612654418e-05
3.441000000000000000e+03 2.215780448913574219e+01 -1.167914867401123047e+01 2.018999111896846443e-05 2.574756399553734809e-05 1.378126671625068411e-05 4.134066330152563751e-06
3.442000000000000000e+03 2.280443191528320312e+01 -1.131808185577392578e+01 -1.535167029942385852e-05 -1.117615192924859002e-05 -7.958346031955443323e-06 -3.922192718164296821e-06
3.443000000000000000e+03 2.164555168151855469e+01 -9.428166389465332031e+00 3.804755760938860476e-05 1.742998574627563357e-05 1.664326373429503292e-05 2.617128848214633763e-05
3.444000000000000000e+03 2.242011070251464844e+01 -1.068695640563964844e+01 1.753139622451271862e-05 1.415546284988522530e-05 9.506057722319383174e-06 1.456522659282200038e-05
3.445000000000000000e+03 2.317674064636230469e+01 -1.199929141998291016e+01 1.624094875296577811e-05 1.617199927750334609e-06 5.357444479159312323e-06 1.793554588402912486e-06
3.446000000000000000e+03 2.284523010253906250e+01 -1.300796508789062500e+01 2.388804750808048993e-05 -6.710921752528520301e-06 5.153137408342445269e-06 -7.331386768782977015e-06
3.447000000000000000e+03 2.406083297729492188e+01 -1.497063064575195312e+01 -1.524114395579090342e-05 1.186095801131159533e-06 -4.216514298605034128e-06 -9.483503760066014365e-08
3.448000000000000000e+03 2.462505912780761719e+01 -1.485978507995605469e+01 1.620012517378199846e-05 -1.106955096474848688e-06 4.527951205091085285e-06 -5.052294000051915646e-06
3.449000000000000000e+03 2.389264106750488281e+01 -1.346117115020751953e+01 9.210888492816593498e-06 3.217786115783383138e-06 3.728602450792095624e-06 3.087825916736619547e-06
3.450000000000000000e+03 2.353559875488281250e+01 -1.273112678527832031e+01 -1.489556962042115629e-05 -1.127382461163506377e-06 -4.806885499419877306e-06 -3.742399485417990945e-06
3.451000000000000000e+03 2.488323020935058594e+01 -1.545215702056884766e+01 -5.862278612767113373e-06 -4.000818023541796720e-07 -1.878708076219481882e-06 1.447727072445559315e-06
3.452000000000000000e+03 2.424729537963867188e+01 -1.417472362518310547e+01 -1.218906072608660907e-05 -6.185419351822929457e-06 -5.512344159797066823e-06 5.089225396659458056e-06
3.453000000000000000e+03 2.350594520568847656e+01 -1.435108280181884766e+01 2.956236130557954311e-05 1.822402919060550630e-05 1.433591751265339553e-05 -2.937130375357810408e-06
3.454000000000000000e+03 2.317678260803222656e+01 -1.368776988983154297e+01 -2.893534292525146157e-05 2.026953779932227917e-06 -8.072516720858402550e-06 -4.324282599554862827e-06
3.455000000000000000e+03 2.251189041137695312e+01 -1.232635593414306641e+01 -1.631090162845794111e-05 -1.322563457506475970e-05 -8.860961315804161131e-06 7.319384167203679681e-06
3.456000000000000000e+03 2.456154632568359375e+01 -1.316923522949218750e+01 -3.988074362277984619e-01 -1.186659097671508789e+00 -4.756399691104888916e-01 6.946420073509216309e-01
3.457000000000000000e+03 2.482023620605468750e+01 -1.197365283966064453e+01 -6.964002847671508789e-01 -1.216232419013977051e+00 -5.737897753715515137e-01 9.786664843559265137e-01
3.458000000000000000e+03 2.650333786010742188e+01 -1.565426826477050781e+01 -5.496358275413513184e-01 -3.441542685031890869e-01 -2.681370377540588379e-01 5.317009687423706055e-01
3.459000000000000000e+03 2.385268974304199219e+01 -1.163848972320556641e+01 -6.275838017463684082e-01 -1.786321997642517090e+00 -7.241717576980590820e-01 1.009891986846923828e+00
3.460000000000000000e+03 2.484836769104003906e+01 -1.395820903778076172e+01 -3.308496773242950439e-01 -9.777994155883789062e-01 -3.925947248935699463e-01 5.483462214469909668e-01
3.461000000000000000e+03 2.532261657714843750e+01 -1.399315357208251953e+01 -4.708029031753540039e-01 -7.623132467269897461e-01 -3.699348568916320801e-01 6.719279289245605469e-01
3.462000000000000000e+03 2.568108749389648438e+01 -1.559443092346191406e+01 -2.029217630624771118e-01 -2.470740973949432373e-01 -1.349987536668777466e-01 2.702588140964508057e-01
3.463000000000000000e+03 2.449533462524414062e+01 -1.126426315307617188e+01 -8.041548728942871094e-01 -1.333689570426940918e+00 -6.413533091545104980e-01 1.040122151374816895e+00
3.464000000000000000e+03 2.516623687744140625e+01 -1.270689773559570312e+01 -5.942546725273132324e-01 -1.020990610122680664e+00 -4.845735728740692139e-01 8.701874017715454102e-01
3.465000000000000000e+03 2.556309509277343750e+01 -1.336782169342041016e+01 -5.646417737007141113e-01 -7.990136146545410156e-01 -4.090966284275054932e-01 7.928662896156311035e-01
3.466000000000000000e+03 2.595065307617187500e+01 -1.390986061096191406e+01 -5.865756273269653320e-01 -6.254348754882812500e-01 -3.636031448841094971e-01 7.778904438018798828e-01
3.467000000000000000e+03 2.620536613464355469e+01 -1.446394062042236328e+01 -5.103873014450073242e-01 -5.076100230216979980e-01 -3.053991794586181641e-01 7.141331434249877930e-01
3.468000000000000000e+03 2.637091255187988281e+01 -1.507584285736083984e+01 -4.944338500499725342e-01 -3.806391060352325439e-01 -2.625218927860260010e-01 6.183987855911254883e-01
3.469000000000000000e+03 2.638264656066894531e+01 -1.612632179260253906e+01 -4.422708451747894287e-01 -1.867216676473617554e-01 -1.886977553367614746e-01 2.831613421440124512e-01
3.470000000000000000e+03 2.419656753540039062e+01 -1.239193534851074219e+01 -4.537213146686553955e-01 -1.473908066749572754e+00 -5.782888531684875488e-01 8.388640880584716797e-01
3.471000000000000000e+03 2.512793922424316406e+01 -1.461182594299316406e+01 -2.153706848621368408e-01 -6.612778902053833008e-01 -2.629945576190948486e-01 4.015129208564758301e-01
3.472000000000000000e+03 2.566095924377441406e+01 -1.495156669616699219e+01 -3.021462261676788330e-01 -4.689112603664398193e-01 -2.313172370195388794e-01 4.751154780387878418e-01
3.473000000000000000e+03 2.577541732788085938e+01 -1.432993030548095703e+01 -4.789317548274993896e-01 -6.245073080062866211e-01 -3.310317099094390869e-01 6.979078650474548340e-01
3.474000000000000000e+03 2.269077491760253906e+01 -9.641036033630371094e+00 -8.963411450386047363e-01 -2.064965963363647461e+00 -8.883921504020690918e-01 1.353852629661560059e+00
3.475000000000000000e+03 2.348543930053710938e+01 -1.093805503845214844e+01 -7.746537327766418457e-01 -1.917614459991455078e+00 -8.076804280281066895e-01 1.175338268280029297e+00
3.476000000000000000e+03 2.229273414611816406e+01 -8.991255760192871094e+00 -1.097721338272094727e+00 -2.216349363327026367e+00 -9.942212104797363281e-01 1.489773035049438477e+00
3.477000000000000000e+03 2.308835411071777344e+01 -1.029005146026611328e+01 -8.287274837493896484e-01 -1.949020504951477051e+00 -8.333244323730468750e-01 1.261753082275390625e+00
3.478000000000000000e+03 2.413209533691406250e+01 -1.057697391510009766e+01 -8.573045730590820312e-01 -1.505418062210083008e+00 -7.088167667388916016e-01 1.088157057762145996e+00
3.479000000000000000e+03 2.290665245056152344e+01 -8.576805114746093750e+00 -1.134449839591979980e+00 -1.734377741813659668e+00 -8.606482744216918945e-01 1.302307724952697754e+00
3.480000000000000000e+03 2.331559562683105469e+01 -9.244379997253417969e+00 -1.031769633293151855e+00 -1.706851124763488770e+00 -8.215862512588500977e-01 1.288768649101257324e+00
3.481000000000000000e+03 2.372407913208007812e+01 -9.911190032958984375e+00 -9.045299291610717773e-01 -1.650523185729980469e+00 -7.665159106254577637e-01 1.199280142784118652e+00
3.482000000000000000e+03 2.091797065734863281e+01 -7.169854164123535156e+00 -1.343447685241699219e+00 -2.066219329833984375e+00 -1.022900104522705078e+00 1.651519298553466797e+00
3.483000000000000000e+03 2.044657707214355469e+01 -6.570147991180419922e+00 -1.553987622261047363e+00 -2.113793373107910156e+00 -1.100334286689758301e+00 1.731872320175170898e+00
3.484000000000000000e+03 2.138868331909179688e+01 -7.768980979919433594e+00 -1.290198206901550293e+00 -2.056258678436279297e+00 -1.003937125205993652e+00 1.613801002502441406e+00
3.485000000000000000e+03 2.185866355895996094e+01 -8.367236137390136719e+00 -1.261995434761047363e+00 -2.180676937103271484e+00 -1.032801747322082520e+00 1.591595649719238281e+00
3.486000000000000000e+03 2.246022033691406250e+01 -7.935092449188232422e+00 -1.165943026542663574e+00 -1.818118810653686523e+00 -8.952185511589050293e-01 1.332605361938476562e+00
3.487000000000000000e+03 2.100666618347167969e+01 -6.085235118865966797e+00 -1.425434231758117676e+00 -1.745946168899536133e+00 -9.514141082763671875e-01 1.429971694946289062e+00
3.488000000000000000e+03 2.149188232421875000e+01 -6.702531337738037109e+00 -1.351180195808410645e+00 -1.794103980064392090e+00 -9.435852766036987305e-01 1.477136850357055664e+00
3.489000000000000000e+03 2.197641754150390625e+01 -7.319247722625732422e+00 -1.221110820770263672e+00 -1.853815793991088867e+00 -9.224780201911926270e-01 1.432092189788818359e+00
3.490000000000000000e+03 1.885587120056152344e+01 -4.930348396301269531e+00 -1.698773741722106934e+00 -1.678825020790100098e+00 -1.013279676437377930e+00 1.671676039695739746e+00
3.491000000000000000e+03 1.831238174438476562e+01 -4.393686294555664062e+00 -1.877466201782226562e+00 -1.655983209609985352e+00 -1.060034871101379395e+00 1.680037856101989746e+00
3.492000000000000000e+03 1.939846801757812500e+01 -5.466702461242675781e+00 -1.686570525169372559e+00 -1.737171649932861328e+00 -1.027122616767883301e+00 1.694340825080871582e+00
3.493000000000000000e+03 1.994004440307617188e+01 -6.002428531646728516e+00 -1.709003686904907227e+00 -1.961880564689636230e+00 -1.101265311241149902e+00 1.750949263572692871e+00
3.494000000000000000e+03 2.048459243774414062e+01 -5.500192165374755859e+00 -1.425506830215454102e+00 -1.755468010902404785e+00 -9.542924761772155762e-01 1.429426908493041992e+00
3.495000000000000000e+03 1.880515289306640625e+01 -3.840278863906860352e+00 -1.589917659759521484e+00 -1.468312382698059082e+00 -9.174690246582031250e-01 1.370539665222167969e+00
3.496000000000000000e+03 1.936590194702148438e+01 -4.393997669219970703e+00 -1.576689839363098145e+00 -1.553281307220458984e+00 -9.389913678169250488e-01 1.472182750701904297e+00
3.497000000000000000e+03 1.992575645446777344e+01 -4.947409152984619141e+00 -1.473949670791625977e+00 -1.696147799491882324e+00 -9.510292410850524902e-01 1.492798328399658203e+00
3.498000000000000000e+03 1.695117187500000000e+01 -2.380243301391601562e+00 -1.598505377769470215e+00 -1.135315418243408203e+00 -8.201462626457214355e-01 1.270432829856872559e+00
3.499000000000000000e+03 1.651630020141601562e+01 -2.979079723358154297e+00 -1.819132924079895020e+00 -1.109900355339050293e+00 -8.787099719047546387e-01 1.403022646903991699e+00
3.500000000000000000e+03 1.590384101867675781e+01 -2.523920059204101562e+00 -1.897768259048461914e+00 -1.052529215812683105e+00 -8.850892186164855957e-01 1.346185803413391113e+00
3.501000000000000000e+03 1.712716102600097656e+01 -3.436568260192871094e+00 -1.873077273368835449e+00 -1.194907784461975098e+00 -9.203954935073852539e-01 1.480118513107299805e+00
3.502000000000000000e+03 1.758174324035644531e+01 -2.852491855621337891e+00 -1.565784215927124023e+00 -1.305516242980957031e+00 -8.613901138305664062e-01 1.350496530532836914e+00
3.503000000000000000e+03 1.773609352111816406e+01 -3.896142244338989258e+00 -1.975245475769042969e+00 -1.449264168739318848e+00 -1.027352929115295410e+00 1.608974695205688477e+00
3.504000000000000000e+03 1.821038436889648438e+01 -3.326825857162475586e+00 -1.542426943778991699e+00 -1.427889466285705566e+00 -8.910949230194091797e-01 1.337847352027893066e+00
3.505000000000000000e+03 1.631900405883789062e+01 -1.910323858261108398e+00 -1.543353557586669922e+00 -1.051903963088989258e+00 -7.785772681236267090e-01 1.150764942169189453e+00
3.506000000000000000e+03 1.460399055480957031e+01 -1.730789542198181152e+00 -1.734724283218383789e+00 -6.818996071815490723e-01 -7.249871492385864258e-01 1.075327992439270020e+00
3.507000000000000000e+03 1.394003677368164062e+01 -1.356149435043334961e+00 -1.625941634178161621e+00 -6.124382019042968750e-01 -6.715139746665954590e-01 9.844886660575866699e-01
3.508000000000000000e+03 1.327490711212158203e+01 -9.841976165771484375e-01 -1.612899303436279297e+00 -5.634219646453857422e-01 -6.528963446617126465e-01 9.026184678077697754e-01
3.509000000000000000e+03 1.429506587982177734e+01 -7.068015336990356445e-01 -1.404701709747314453e+00 -7.155120372772216797e-01 -6.360641121864318848e-01 9.538660049438476562e-01
3.510000000000000000e+03 1.497913169860839844e+01 -1.092790365219116211e+00 -1.440393328666687012e+00 -8.549922108650207520e-01 -6.886156797409057617e-01 1.060527086257934570e+00
3.511000000000000000e+03 1.526644039154052734e+01 -2.107936620712280273e+00 -1.895667910575866699e+00 -8.780883550643920898e-01 -8.321268558502197266e-01 1.222119212150573730e+00
3.512000000000000000e+03 1.566169452667236328e+01 -1.481285929679870605e+00 -1.461632609367370605e+00 -9.846785664558410645e-01 -7.338933348655700684e-01 1.096375226974487305e+00
3.513000000000000000e+03 1.360982322692871094e+01 -3.235010504722595215e-01 -1.301661252975463867e+00 -6.524792909622192383e-01 -5.862421989440917969e-01 8.464669585227966309e-01
3.514000000000000000e+03 1.136861705780029297e+01 6.672526597976684570e-01 -1.075444936752319336e+00 -3.903796672821044922e-01 -4.397473931312561035e-01 5.847728252410888672e-01
3.515000000000000000e+03 1.043688488006591797e+01 2.462611943483352661e-01 -1.251260280609130859e+00 -2.735000252723693848e-01 -4.574280679225921631e-01 4.744149446487426758e-01
3.516000000000000000e+03 1.187135696411132812e+01 -3.428127467632293701e-01 -1.358312129974365234e+00 -3.287522196769714355e-01 -5.061193108558654785e-01 6.509559750556945801e-01
3.517000000000000000e+03 1.258574008941650391e+01 -6.459255814552307129e-01 -1.532022356986999512e+00 -4.464253783226013184e-01 -5.935343503952026367e-01 7.803330421447753906e-01
3.518000000000000000e+03 1.288842964172363281e+01 2.964896708726882935e-02 -1.201076269149780273e+00 -5.890026688575744629e-01 -5.370236635208129883e-01 7.774241566658020020e-01
3.519000000000000000e+03 1.060655117034912109e+01 9.770575761795043945e-01 -8.904806375503540039e-01 -3.727626502513885498e-01 -3.789729773998260498e-01 4.799593687057495117e-01
3.520000000000000000e+03 1.212970542907714844e+01 3.511690795421600342e-01 -1.132394552230834961e+00 -4.796164035797119141e-01 -4.836032688617706299e-01 7.142263650894165039e-01
3.521000000000000000e+03 1.115460968017578125e+01 -4.513646289706230164e-02 -1.240164160728454590e+00 -2.764249145984649658e-01 -4.549767374992370605e-01 5.785412192344665527e-01
3.522000000000000000e+03 9.852642059326171875e+00 1.127630591392517090e+00 -7.705271840095520020e-01 -3.032551407814025879e-01 -3.221347033977508545e-01 4.744617640972137451e-01
3.523000000000000000e+03 8.934872627258300781e+00 3.838182985782623291e-01 -6.838033199310302734e-01 -1.251232717186212540e-02 -2.088946998119354248e-01 1.220612451434135437e-01
3.524000000000000000e+03 8.173450469970703125e+00 3.805501461029052734e-01 -4.735549986362457275e-01 -2.061291411519050598e-02 -1.482503712177276611e-01 8.478611707687377930e-02
3.525000000000000000e+03 7.412311553955078125e+00 3.753647208213806152e-01 -3.255371153354644775e-01 -6.322187837213277817e-03 -9.955778717994689941e-02 5.995637178421020508e-02
3.526000000000000000e+03 6.650998592376708984e+00 3.733136355876922607e-01 -2.159702181816101074e-01 -7.364580873399972916e-03 -6.700044125318527222e-02 4.461238533258438110e-02
3.527000000000000000e+03 5.128288269042968750e+00 3.666210770606994629e-01 -7.296051830053329468e-02 -4.820073954761028290e-03 -2.333417721092700958e-02 2.440799586474895477e-02
3.528000000000000000e+03 4.367394924163818359e+00 3.671234846115112305e-01 -2.969462610781192780e-02 -2.660386497154831886e-03 -9.706503711640834808e-03 1.697411201894283295e-02
3.529000000000000000e+03 2.846046209335327148e+00 3.605891168117523193e-01 1.477568410336971283e-02 -3.358854446560144424e-03 3.425048897042870522e-03 4.752908833324909210e-03
3.530000000000000000e+03 2.087270975112915039e+00 3.584179878234863281e-01 1.735358498990535736e-02 -1.774267526343464851e-03 4.673795308917760849e-03 -4.440054181031882763e-04
3.531000000000000000e+03 2.412721395492553711e+00 1.098417997360229492e+00 -1.571254432201385498e-02 -1.326504349708557129e-02 -8.693275973200798035e-03 1.042000856250524521e-02
3.532000000000000000e+03 1.340976357460021973e+00 3.674286305904388428e-01 1.014688890427350998e-02 -1.665494404733181000e-03 2.544418442994356155e-03 -4.218733403831720352e-03
3.533000000000000000e+03 1.683374881744384766e+00 1.107428669929504395e+00 -4.223376512527465820e-03 -8.841294795274734497e-03 -3.919401671737432480e-03 -1.465211738832294941e-03
3.534000000000000000e+03 6.602545380592346191e-01 3.962357640266418457e-01 3.153014928102493286e-03 1.317980349995195866e-03 1.341298571787774563e-03 -2.972615417093038559e-03
3.535000000000000000e+03 3.572900295257568359e-01 9.584811329841613770e-01 1.360742899123579264e-04 6.520686671137809753e-03 1.997028244659304619e-03 -3.367751138284802437e-03
3.536000000000000000e+03 3.154548645019531250e+00 1.100589156150817871e+00 -3.550434112548828125e-02 -1.375164929777383804e-02 -1.477679703384637833e-02 2.570177055895328522e-02
3.537000000000000000e+03 3.606354475021362305e+00 3.667278885841369629e-01 -4.779159498866647482e-04 -2.361631719395518303e-03 -8.518642862327396870e-04 1.150515768676996231e-02
3.538000000000000000e+03 5.385946273803710938e+00 1.106621026992797852e+00 -1.541217118501663208e-01 -1.910880766808986664e-02 -5.196915566921234131e-02 8.442295342683792114e-02
3.539000000000000000e+03 5.889441967010498047e+00 3.716917037963867188e-01 -1.341500133275985718e-01 -3.537332173436880112e-03 -4.130620509386062622e-02 3.414174914360046387e-02
3.540000000000000000e+03 7.619125843048095703e+00 1.115364670753479004e+00 -4.141765236854553223e-01 -5.152663961052894592e-02 -1.397109478712081909e-01 1.902795284986495972e-01
3.541000000000000000e+03 8.363317489624023438e+00 1.120550155639648438e+00 -5.462720394134521484e-01 -6.072110682725906372e-02 -1.820979416370391846e-01 2.490584105253219604e-01
3.542000000000000000e+03 9.107789993286132812e+00 1.123818278312683105e+00 -7.241610884666442871e-01 -1.567789763212203979e-01 -2.642820179462432861e-01 3.786444067955017090e-01
3.543000000000000000e+03 9.696672439575195312e+00 3.876306116580963135e-01 -1.059488058090209961e+00 -1.545226573944091797e-01 -3.642032146453857422e-01 2.660017907619476318e-01
3.544000000000000000e+03 6.874760627746582031e+00 1.113313674926757812e+00 -3.069823384284973145e-01 -2.889308519661426544e-02 -1.007626280188560486e-01 1.442870348691940308e-01
3.545000000000000000e+03 6.130152225494384766e+00 1.111691713333129883e+00 -2.217334359884262085e-01 -2.676605060696601868e-02 -7.454984635114669800e-02 1.113333031535148621e-01
3.546000000000000000e+03 4.642001152038574219e+00 1.107123494148254395e+00 -1.015932708978652954e-01 -1.901006698608398438e-02 -3.618100285530090332e-02 6.235708668828010559e-02
3.547000000000000000e+03 3.897908926010131836e+00 1.106727957725524902e+00 -6.413137912750244141e-02 -1.433367002755403519e-02 -2.353951521217823029e-02 4.210152104496955872e-02
3.548000000000000000e+03 1.019601225852966309e+00 1.136235833168029785e+00 -1.784323249012231827e-04 -1.672728103585541248e-03 -5.553481169044971466e-04 -6.834044121205806732e-03
3.549000000000000000e+03 1.356510353088378906e+01 -2.044676303863525391e+00 -1.608023194421548396e-05 -3.840074714389629662e-05 -1.634429281693883240e-05 -2.052831951004918665e-05
3.550000000000000000e+03 1.321007442474365234e+01 -2.694024085998535156e+00 2.570938886492513120e-05 4.303873720346018672e-05 2.062443854811135679e-05 2.058542850136291236e-05
3.551000000000000000e+03 1.258673477172851562e+01 -2.342205762863159180e+00 -2.656120705069042742e-05 -4.791346145793795586e-05 -2.234239946119487286e-05 -2.310862328158691525e-05
3.552000000000000000e+03 1.420777034759521484e+01 -2.407426834106445312e+00 1.663224975345656276e-05 3.660210859379731119e-05 1.597030677658040076e-05 1.989654992939904332e-05
3.553000000000000000e+03 1.383262920379638672e+01 -3.045426130294799805e+00 -2.574721838755067438e-05 -3.934372216463088989e-05 -1.952728234755340964e-05 -1.897509173431899399e-05
3.554000000000000000e+03 1.445424365997314453e+01 -3.396085023880004883e+00 2.607071110105607659e-05 3.625367389759048820e-05 1.869731568149290979e-05 1.713995152385905385e-05
3.555000000000000000e+03 1.484949779510498047e+01 -2.769434452056884766e+00 -1.721489024930633605e-05 -3.326829391880892217e-05 -1.514495488663669676e-05 -1.908569720399100333e-05
3.556000000000000000e+03 1.292164993286132812e+01 -1.681509137153625488e+00 1.608547245268709958e-05 3.898900467902421951e-05 1.652234277571551502e-05 2.040105027845129371e-05
3.557000000000000000e+03 1.114702796936035156e+01 -1.674520134925842285e+00 -3.361486960784532130e-05 -4.505670585785992444e-05 -2.360147300350945443e-05 -2.358392157475464046e-05
3.558000000000000000e+03 1.155607700347900391e+01 -1.043098807334899902e+00 1.700506618362851441e-05 4.730922591988928616e-05 1.929428799485322088e-05 1.950424666574690491e-05
3.559000000000000000e+03 1.007052421569824219e+01 -1.379528045654296875e+00 4.632310083252377808e-05 4.704339880845509470e-05 2.800995025609154254e-05 2.353960098844254389e-06
3.560000000000000000e+03 1.091052532196044922e+01 -7.195191383361816406e-01 -1.276692000828916207e-05 -5.168876668903976679e-05 -1.933670682774391025e-05 -2.654449963301885873e-05
3.561000000000000000e+03 1.189208316802978516e+01 -2.005299091339111328e+00 2.669297100510448217e-05 4.377961886348202825e-05 2.114177732437383384e-05 2.283612411702051759e-05
3.562000000000000000e+03 1.224500656127929688e+01 -1.350578069686889648e+00 -1.565230377309489995e-05 -3.790583286900073290e-05 -1.606744081072974950e-05 -1.967987918760627508e-05
3.563000000000000000e+03 1.012131404876708984e+01 -8.739756941795349121e-01 -7.093415479175746441e-05 -2.330712413822766393e-05 -2.827238495228812099e-05 -3.074887717957608402e-05
3.564000000000000000e+03 1.027311420440673828e+01 -4.096257984638214111e-01 2.235918327642139047e-05 4.847497621085494757e-05 2.125024730048608035e-05 1.993927980947773904e-05
3.565000000000000000e+03 1.058933448791503906e+01 -1.247088074684143066e+00 3.167651811963878572e-05 2.322875843674410135e-05 1.647158387640956789e-05 4.154728230787441134e-05
3.566000000000000000e+03 8.909210205078125000e+00 -3.212539851665496826e-01 -4.757580973091535270e-05 4.537773565971292555e-05 -6.594228239009680692e-07 2.585913534858264029e-06
3.567000000000000000e+03 9.317807197570800781e+00 -1.205478549003601074e+00 -3.187378388247452676e-05 -6.852927617728710175e-05 -3.012091656273696572e-05 -4.248305776854977012e-05
3.568000000000000000e+03 9.460213661193847656e+00 -6.912539601325988770e-01 9.975280408980324864e-05 -1.631842314964160323e-05 2.503031464584637433e-05 3.442108936724252999e-05
3.569000000000000000e+03 8.266005516052246094e+00 -6.800254583358764648e-01 7.919752533780410886e-05 2.978676820930559188e-05 3.269528679084032774e-05 7.252109753608237952e-06
3.570000000000000000e+03 7.622209548950195312e+00 -4.054784178733825684e-01 -5.623951801680959761e-05 -5.641224925057031214e-05 -3.379553163540549576e-05 -4.618934690370224416e-05
3.571000000000000000e+03 6.825774669647216797e+00 -3.814763724803924561e-01 2.669377136044204235e-05 5.631619933410547674e-05 2.490299084456637502e-05 3.683021350298076868e-05
3.572000000000000000e+03 6.001619815826416016e+00 -3.739211261272430420e-01 -3.613175795180723071e-05 -6.003190355841070414e-05 -2.884909918066114187e-05 -4.343106047599576414e-05
3.573000000000000000e+03 5.174842834472656250e+00 -3.715220093727111816e-01 3.793860014411620796e-05 5.501375926542095840e-05 2.788570782286114991e-05 4.517673005466349423e-05
3.574000000000000000e+03 4.347759723663330078e+00 -3.725122809410095215e-01 -4.123845064896158874e-05 -4.007528332294896245e-05 -2.439411946397740394e-05 -4.004381480626761913e-05
3.575000000000000000e+03 3.520621299743652344e+00 -3.760701715946197510e-01 3.467376518528908491e-05 2.113616392307449132e-05 1.674297891440801322e-05 2.547887925175018609e-05
3.576000000000000000e+03 2.694509983062744141e+00 -3.805325925350189209e-01 -2.127854713762644678e-05 -8.306301424454431981e-06 -8.875455023371614516e-06 -1.103709655581042171e-05
3.577000000000000000e+03 1.143715500831604004e+00 -3.599454164505004883e-01 -5.570665962295606732e-06 -1.416512805008096620e-05 -5.920738203712971881e-06 -5.977652222100005019e-07
3.578000000000000000e+03 4.021799862384796143e-01 -5.506002306938171387e-01 6.345639121718704700e-06 1.246675674337893724e-05 5.643718850478762761e-06 7.390185146505245939e-06
3.579000000000000000e+03 7.210693359375000000e-01 -1.099945425987243652e+00 5.450579919852316380e-05 -4.094506948604248464e-06 1.512338803877355531e-05 8.207377504731994122e-06
3.580000000000000000e+03 8.506304740905761719e+00 -1.218084216117858887e+00 -8.998407793114893138e-06 1.151928299805149436e-04 3.185832611052319407e-05 2.913405660365242511e-05
3.581000000000000000e+03 7.803927898406982422e+00 -1.221213579177856445e+00 -5.382544986787252128e-05 -8.905573486117646098e-05 -4.286435796529985964e-05 -6.089104772399878129e-06
3.582000000000000000e+03 7.101232528686523438e+00 -1.145478367805480957e+00 6.603290967177599669e-05 5.352311200113035738e-05 3.586680759326554835e-05 3.362292409292422235e-05
3.583000000000000000e+03 6.317089557647705078e+00 -1.121476411819458008e+00 -3.790933624259196222e-05 -5.667116056429222226e-05 -2.837414831446949393e-05 -3.778653990593738854e-05
3.584000000000000000e+03 5.505225658416748047e+00 -1.113921165466308594e+00 3.654570173239335418e-05 4.950281072524376214e-05 2.581455373729113489e-05 4.054413147969171405e-05
3.585000000000000000e+03 4.690740108489990234e+00 -1.111521959304809570e+00 -4.908980918116867542e-05 -3.419678614591248333e-05 -2.498597859812434763e-05 -4.928012276650406420e-05
3.586000000000000000e+03 3.875948190689086914e+00 -1.112512230873107910e+00 6.833579391241073608e-05 1.133279511122964323e-05 2.390057670709211379e-05 4.477874244912527502e-05
3.587000000000000000e+03 3.061101198196411133e+00 -1.116070151329040527e+00 -7.200356776593253016e-05 -1.000874362944159657e-06 -2.190133454860188067e-05 -2.318831320735625923e-05
3.588000000000000000e+03 2.247281074523925781e+00 -1.120532631874084473e+00 4.031033677165396512e-05 1.484779841121053323e-05 1.654744119150564075e-05 7.643165190529543906e-06
3.589000000000000000e+03 1.882497906684875488e+00 -3.807797729969024658e-01 1.215769952978007495e-05 6.219037459231913090e-06 5.513021278602536768e-06 2.864812358893686906e-06
3.590000000000000000e+03 9.580569267272949219e+00 -2.457754313945770264e-01 -4.775090565090067685e-05 -5.323447840055450797e-05 -3.029561412404291332e-05 7.870404260756913573e-06
3.591000000000000000e+03 1.447560310363769531e+00 -1.120779752731323242e+00 -2.776369547063950449e-05 -2.067231071123387665e-05 -1.453080221835989505e-05 -2.143373967555817217e-05
3.592000000000000000e+03 5.497486877441406250e+01 -1.895712089538574219e+01 1.870665550231933594e+01 8.552557945251464844e+00 8.177763938903808594e+00 1.127846717834472656e+01
3.593000000000000000e+03 5.498239517211914062e+01 -1.897507476806640625e+01 1.417987346649169922e+01 1.961685371398925781e+01 1.013901805877685547e+01 1.665536880493164062e+01
3.594000000000000000e+03 5.499327087402343750e+01 -1.899122238159179688e+01 1.213793659210205078e+01 2.933860015869140625e+01 1.244296073913574219e+01 1.718299674987792969e+01
3.595000000000000000e+03 5.500708389282226562e+01 -1.900494194030761719e+01 9.641805648803710938e+00 3.782373046875000000e+01 1.423966026306152344e+01 1.578281116485595703e+01
3.596000000000000000e+03 5.502330398559570312e+01 -1.901570892333984375e+01 8.523290634155273438e+00 4.572950744628906250e+01 1.627583885192871094e+01 1.224798393249511719e+01
3.597000000000000000e+03 5.504130935668945312e+01 -1.902311515808105469e+01 7.542676448822021484e+00 5.099081039428710938e+01 1.756004524230957031e+01 7.697434425354003906e+00
3.598000000000000000e+03 5.506040954589843750e+01 -1.902687263488769531e+01 9.012688636779785156e+00 5.467761993408203125e+01 1.910709190368652344e+01 1.969617366790771484e+00
3.599000000000000000e+03 5.507987594604492188e+01 -1.902683830261230469e+01 1.088372802734375000e+01 5.532686996459960938e+01 1.986318016052246094e+01 -3.607998609542846680e+00
3.600000000000000000e+03 5.509896850585937500e+01 -1.902301597595214844e+01 1.492966461181640625e+01 5.400666809082031250e+01 2.068090057373046875e+01 -8.451711654663085938e+00
3.601000000000000000e+03 5.511694717407226562e+01 -1.901555061340332031e+01 1.958154296875000000e+01 5.069664001464843750e+01 2.108345413208007812e+01 -1.197670078277587891e+01
3.602000000000000000e+03 5.513312911987304688e+01 -1.900472831726074219e+01 2.467412948608398438e+01 4.641583251953125000e+01 2.132698822021484375e+01 -1.370865345001220703e+01
3.603000000000000000e+03 5.514689254760742188e+01 -1.899096107482910156e+01 2.950767517089843750e+01 4.174858856201171875e+01 2.137687873840332031e+01 -1.366236495971679688e+01
3.604000000000000000e+03 5.515771484375000000e+01 -1.897477912902832031e+01 3.310605621337890625e+01 3.776562881469726562e+01 2.126150512695312500e+01 -1.217609214782714844e+01
3.605000000000000000e+03 5.516518402099609375e+01 -1.895679855346679688e+01 3.637670135498046875e+01 3.517672348022460938e+01 2.146602821350097656e+01 -9.068415641784667969e+00
3.606000000000000000e+03 5.516900634765625000e+01 -1.893770980834960938e+01 3.707810211181640625e+01 3.245013427734375000e+01 2.085847091674804688e+01 -6.027212619781494141e+00
3.607000000000000000e+03 5.516903686523437500e+01 -1.891824150085449219e+01 3.764068603515625000e+01 3.369668960571289062e+01 2.140121269226074219e+01 -2.510526657104492188e+00
3.608000000000000000e+03 5.516527557373046875e+01 -1.889913940429687500e+01 3.579286956787109375e+01 3.401095581054687500e+01 2.094114685058593750e+01 9.645152091979980469e-01
3.609000000000000000e+03 5.515787124633789062e+01 -1.888113594055175781e+01 3.388780212402343750e+01 3.697696304321289062e+01 2.125942993164062500e+01 3.135791778564453125e+00
3.610000000000000000e+03 5.514710235595703125e+01 -1.886491584777832031e+01 3.034403800964355469e+01 4.045763015747070312e+01 2.124050140380859375e+01 4.641100406646728516e+00
3.611000000000000000e+03 5.513338088989257812e+01 -1.885110473632812500e+01 2.691037368774414062e+01 4.476477813720703125e+01 2.150254631042480469e+01 4.506348133087158203e+00
3.612000000000000000e+03 5.511723327636718750e+01 -1.884022903442382812e+01 2.265833091735839844e+01 4.843474578857421875e+01 2.132792282104492188e+01 3.047337293624877930e+00
3.613000000000000000e+03 5.509928131103515625e+01 -1.883270454406738281e+01 2.011263847351074219e+01 5.215215682983398438e+01 2.167943954467773438e+01 -3.204858601093292236e-01
3.614000000000000000e+03 5.508020401000976562e+01 -1.882881927490234375e+01 1.710146141052246094e+01 5.364538574218750000e+01 2.122405433654785156e+01 -4.735895156860351562e+00
3.615000000000000000e+03 5.506073379516601562e+01 -1.882872200012207031e+01 1.683032417297363281e+01 5.368782424926757812e+01 2.115544509887695312e+01 -9.932335853576660156e+00
3.616000000000000000e+03 5.504162216186523438e+01 -1.883241653442382812e+01 1.742481040954589844e+01 5.107697677612304688e+01 2.055053520202636719e+01 -1.522299194335937500e+01
3.617000000000000000e+03 5.502359390258789062e+01 -1.883976364135742188e+01 1.980434226989746094e+01 4.631519317626953125e+01 1.983586120605468750e+01 -1.971076011657714844e+01
3.618000000000000000e+03 5.500733947753906250e+01 -1.885047721862792969e+01 2.316314697265625000e+01 3.963965988159179688e+01 1.884084320068359375e+01 -2.272667121887207031e+01
3.619000000000000000e+03 5.499348068237304688e+01 -1.886415290832519531e+01 2.703412437438964844e+01 3.161685562133789062e+01 1.759529495239257812e+01 -2.379473686218261719e+01
3.620000000000000000e+03 5.498255157470703125e+01 -1.888026237487792969e+01 3.041460609436035156e+01 2.307329559326171875e+01 1.604636955261230469e+01 -2.272962379455566406e+01
3.621000000000000000e+03 5.497496795654296875e+01 -1.889819335937500000e+01 3.313522720336914062e+01 1.481121444702148438e+01 1.438393211364746094e+01 -1.924723243713378906e+01
3.622000000000000000e+03 5.497101974487304688e+01 -1.891725540161132812e+01 3.368595886230468750e+01 7.286949157714843750e+00 1.229187297821044922e+01 -1.403101348876953125e+01
3.623000000000000000e+03 5.497085571289062500e+01 -1.893672370910644531e+01 3.234569931030273438e+01 2.240982294082641602e+00 1.037600517272949219e+01 -3.887491464614868164e+00
