# el_label, x, y, sXX, sYY, sZZ, sXY
1.000000000000000000e+00 2.315773391723632812e+01 -1.121161365509033203e+01 -2.469227552413940430e+00 1.337471723556518555e+00 -3.395267128944396973e-01 -5.654352903366088867e-01
2.000000000000000000e+00 2.303659439086914062e+01 -1.105368137359619141e+01 1.984778285026550293e+00 9.449015855789184570e-01 8.789039850234985352e-01 -9.340899586677551270e-01
3.000000000000000000e+00 2.291545486450195312e+01 -1.089574909210205078e+01 2.145646698772907257e-02 -2.625852823257446289e-01 -7.233864068984985352e-02 -3.986486196517944336e-01
4.000000000000000000e+00 2.279431533813476562e+01 -1.073781681060791016e+01 3.547872602939605713e-01 -9.388326406478881836e-01 -1.752136051654815674e-01 2.846434116363525391e-01
5.000000000000000000e+00 2.311508941650390625e+01 -1.125152206420898438e+01 3.674693822860717773e+00 5.024714469909667969e+00 2.609822511672973633e+00 -6.151775836944580078e+00
6.000000000000000000e+00 2.296552085876464844e+01 -1.112019634246826172e+01 2.715182304382324219e+00 1.412409663200378418e+00 1.238277554512023926e+00 -2.318348407745361328e+00
7.000000000000000000e+00 2.281595230102539062e+01 -1.098886966705322266e+01 3.273464918136596680e+00 2.280734628438949585e-01 1.050461530685424805e+00 -1.880958318710327148e+00
8.000000000000000000e+00 2.266638565063476562e+01 -1.085754394531250000e+01 1.925172567367553711e+00 -5.779903531074523926e-01 4.041546583175659180e-01 -1.213972210884094238e+00
9.000000000000000000e+00 2.308103179931640625e+01 -1.129896926879882812e+01 1.113695526123046875e+01 3.349455595016479492e+00 4.345922946929931641e+00 -8.015288352966308594e+00
1.000000000000000000e+01 2.290875816345214844e+01 -1.119927406311035156e+01 6.956265926361083984e+00 1.469946503639221191e+00 2.527863740921020508e+00 -4.469024181365966797e+00
1.100000000000000000e+01 2.273648452758789062e+01 -1.109957981109619141e+01 5.460549354553222656e+00 -1.287123411893844604e-01 1.599551081657409668e+00 -2.765233755111694336e+00
1.200000000000000000e+01 2.256421089172363281e+01 -1.099988460540771484e+01 5.103372573852539062e+00 -1.028960704803466797e+00 1.222323536872863770e+00 -2.043037176132202148e+00
1.300000000000000000e+01 2.305686378479003906e+01 -1.135213851928710938e+01 1.818554306030273438e+01 1.709166049957275391e+00 5.968412876129150391e+00 -7.454324245452880859e+00
1.400000000000000000e+01 2.286847686767578125e+01 -1.128789043426513672e+01 1.150445556640625000e+01 -4.948420077562332153e-02 3.436491250991821289e+00 -4.729641437530517578e+00
1.500000000000000000e+01 2.268009185791015625e+01 -1.122364234924316406e+01 9.287506103515625000e+00 -9.156754016876220703e-01 2.511549234390258789e+00 -3.136296987533569336e+00
1.600000000000000000e+01 2.249170494079589844e+01 -1.115939426422119141e+01 7.566328048706054688e+00 -1.918658614158630371e+00 1.694300770759582520e+00 -2.221859931945800781e+00
1.700000000000000000e+01 2.304350852966308594e+01 -1.140899658203125000e+01 2.358264350891113281e+01 -8.017931133508682251e-02 7.050739288330078125e+00 -5.028835773468017578e+00
1.800000000000000000e+01 2.284621810913085938e+01 -1.138265419006347656e+01 1.604206848144531250e+01 -9.975876808166503906e-01 4.513344287872314453e+00 -3.411344051361083984e+00
1.900000000000000000e+01 2.264892768859863281e+01 -1.135631084442138672e+01 1.246374702453613281e+01 -2.165083885192871094e+00 3.089598894119262695e+00 -2.402089118957519531e+00
2.000000000000000000e+01 2.245163726806640625e+01 -1.132996749877929688e+01 1.081761264801025391e+01 -2.753451824188232422e+00 2.419248342514038086e+00 -1.447726964950561523e+00
2.100000000000000000e+01 2.304147911071777344e+01 -1.146736621856689453e+01 2.741985893249511719e+01 -1.304818540811538696e-01 8.186813354492187500e+00 -1.289525508880615234e+00
2.200000000000000000e+01 2.284283447265625000e+01 -1.147993659973144531e+01 1.914992523193359375e+01 -1.745682120323181152e+00 5.221272468566894531e+00 -1.122882246971130371e+00
2.300000000000000000e+01 2.264418983459472656e+01 -1.149250698089599609e+01 1.533885383605957031e+01 -2.502357244491577148e+00 3.850949048995971680e+00 -4.925438463687896729e-01
2.400000000000000000e+01 2.244554710388183594e+01 -1.150507736206054688e+01 1.283422851562500000e+01 -3.461097240447998047e+00 2.811939477920532227e+00 -1.842594444751739502e-01
2.500000000000000000e+01 2.305085182189941406e+01 -1.152501487731933594e+01 2.901253509521484375e+01 8.303033113479614258e-01 8.952851295471191406e+00 2.671969652175903320e+00
2.600000000000000000e+01 2.285845565795898438e+01 -1.157601737976074219e+01 2.106732749938964844e+01 -9.952317476272583008e-01 6.021628379821777344e+00 1.864404559135437012e+00
2.700000000000000000e+01 2.266605949401855469e+01 -1.162701988220214844e+01 1.685831451416015625e+01 -2.388417243957519531e+00 4.340969562530517578e+00 1.749608993530273438e+00
2.800000000000000000e+01 2.247366333007812500e+01 -1.167802238464355469e+01 1.415562248229980469e+01 -3.048112392425537109e+00 3.332252979278564453e+00 2.017285823822021484e+00
2.900000000000000000e+01 2.307126617431640625e+01 -1.157973575592041016e+01 2.879851913452148438e+01 3.683607578277587891e+00 9.744638442993164062e+00 6.324203968048095703e+00
3.000000000000000000e+01 2.289248085021972656e+01 -1.166721820831298828e+01 2.147199630737304688e+01 4.021337330341339111e-01 6.562238693237304688e+00 4.588815689086914062e+00
3.100000000000000000e+01 2.271369743347167969e+01 -1.175470161437988281e+01 1.724729347229003906e+01 -9.192097187042236328e-01 4.898425102233886719e+00 4.308501243591308594e+00
3.200000000000000000e+01 2.253491210937500000e+01 -1.184218406677246094e+01 1.449640274047851562e+01 -2.149510860443115234e+00 3.704067468643188477e+00 4.001142501831054688e+00
3.300000000000000000e+01 2.310194587707519531e+01 -1.162943458557128906e+01 2.722018051147460938e+01 7.127976894378662109e+00 1.030444717407226562e+01 8.842899322509765625e+00
3.400000000000000000e+01 2.294361305236816406e+01 -1.175005054473876953e+01 2.053336334228515625e+01 3.189186334609985352e+00 7.116765022277832031e+00 6.819741725921630859e+00
3.500000000000000000e+01 2.278528022766113281e+01 -1.187066650390625000e+01 1.676924705505371094e+01 8.124505281448364258e-01 5.274508953094482422e+00 6.176771640777587891e+00
3.600000000000000000e+01 2.262694740295410156e+01 -1.199128150939941406e+01 1.380939579010009766e+01 -6.387223303318023682e-02 4.123656749725341797e+00 6.015476703643798828e+00
3.700000000000000000e+01 2.314171218872070312e+01 -1.167220973968505859e+01 2.472161102294921875e+01 1.123587226867675781e+01 1.078724575042724609e+01 9.991812705993652344e+00
3.800000000000000000e+01 2.300989151000976562e+01 -1.182134246826171875e+01 1.899056243896484375e+01 6.212066650390625000e+00 7.560788631439208984e+00 8.091753005981445312e+00
3.900000000000000000e+01 2.287807083129882812e+01 -1.197047615051269531e+01 1.515625953674316406e+01 3.588325500488281250e+00 5.623375415802001953e+00 7.181523323059082031e+00
4.000000000000000000e+01 2.274625015258789062e+01 -1.211960792541503906e+01 1.297460079193115234e+01 1.531788587570190430e+00 4.351916790008544922e+00 6.982708454132080078e+00
4.100000000000000000e+01 2.318904685974121094e+01 -1.170642566680908203e+01 2.242085647583007812e+01 1.508205604553222656e+01 1.125087356567382812e+01 9.722787857055664062e+00
4.200000000000000000e+01 2.308878135681152344e+01 -1.187836742401123047e+01 1.678239631652832031e+01 9.383691787719726562e+00 7.849826812744140625e+00 8.234781265258789062e+00
4.300000000000000000e+01 2.298851585388183594e+01 -1.205031013488769531e+01 1.357024574279785156e+01 6.436363697052001953e+00 6.001982688903808594e+00 7.321752548217773438e+00
4.400000000000000000e+01 2.288825035095214844e+01 -1.222225284576416016e+01 1.090966415405273438e+01 3.942329883575439453e+00 4.455597877502441406e+00 6.531062126159667969e+00
4.500000000000000000e+01 2.324213600158691406e+01 -1.173077011108398438e+01 2.018438720703125000e+01 1.807208251953125000e+01 1.147694110870361328e+01 8.343087196350097656e+00
4.600000000000000000e+01 2.317726325988769531e+01 -1.191894245147705078e+01 1.517160034179687500e+01 1.226648330688476562e+01 8.231425285339355469e+00 7.346678733825683594e+00
4.700000000000000000e+01 2.311239242553710938e+01 -1.210711479187011719e+01 1.155658340454101562e+01 8.875692367553710938e+00 6.129682540893554688e+00 6.432765960693359375e+00
4.800000000000000000e+01 2.304751968383789062e+01 -1.229528808593750000e+01 9.408205986022949219e+00 6.837482452392578125e+00 4.873706340789794922e+00 5.823422431945800781e+00
4.900000000000000000e+01 2.329894828796386719e+01 -1.174431324005126953e+01 1.914964294433593750e+01 2.023167037963867188e+01 1.181439399719238281e+01 6.198902130126953125e+00
5.000000000000000000e+01 2.327195167541503906e+01 -1.194151496887207031e+01 1.377964687347412109e+01 1.408255481719970703e+01 8.358660697937011719e+00 5.611752510070800781e+00
5.100000000000000000e+01 2.324495697021484375e+01 -1.213871669769287109e+01 1.041999435424804688e+01 1.094566345214843750e+01 6.409697055816650391e+00 5.053696632385253906e+00
5.200000000000000000e+01 2.321795845031738281e+01 -1.233591842651367188e+01 8.080482482910156250e+00 8.509043693542480469e+00 4.976858139038085938e+00 4.363208770751953125e+00
5.300000000000000000e+01 2.335731124877929688e+01 -1.174653720855712891e+01 1.860253906250000000e+01 2.087699890136718750e+01 1.184386157989501953e+01 3.990192413330078125e+00
5.400000000000000000e+01 2.336922454833984375e+01 -1.194522190093994141e+01 1.355189895629882812e+01 1.533917903900146484e+01 8.667323112487792969e+00 3.327066898345947266e+00
5.500000000000000000e+01 2.338113594055175781e+01 -1.214390659332275391e+01 1.003634452819824219e+01 1.147758007049560547e+01 6.454177379608154297e+00 3.274807929992675781e+00
5.600000000000000000e+01 2.339304733276367188e+01 -1.234259033203125000e+01 7.286179542541503906e+00 9.503853797912597656e+00 5.037009716033935547e+00 2.722091197967529297e+00
5.700000000000000000e+01 2.341499137878417969e+01 -1.173735618591308594e+01 1.974910163879394531e+01 2.071628952026367188e+01 1.213961696624755859e+01 1.686878681182861328e+00
5.800000000000000000e+01 2.346535682678222656e+01 -1.192992019653320312e+01 1.349405574798583984e+01 1.515793704986572266e+01 8.595598220825195312e+00 1.413683056831359863e+00
5.900000000000000000e+01 2.351572036743164062e+01 -1.212248325347900391e+01 1.100347518920898438e+01 1.162479591369628906e+01 6.788481235504150391e+00 9.450111985206604004e-01
6.000000000000000000e+01 2.356608581542968750e+01 -1.231504726409912109e+01 7.612879753112792969e+00 8.737346649169921875e+00 4.905067920684814453e+00 1.330893039703369141e+00
6.100000000000000000e+01 2.346977996826171875e+01 -1.171712207794189453e+01 2.064456558227539062e+01 1.944555854797363281e+01 1.202703762054443359e+01 5.688923224806785583e-02
6.200000000000000000e+01 2.355666923522949219e+01 -1.189619541168212891e+01 1.525994586944580078e+01 1.412571144104003906e+01 8.815696716308593750e+00 -2.527188658714294434e-01
6.300000000000000000e+01 2.364356040954589844e+01 -1.207526969909667969e+01 1.141780090332031250e+01 1.078767490386962891e+01 6.661643028259277344e+00 -5.505040884017944336e-01
6.400000000000000000e+01 2.373044967651367188e+01 -1.225434303283691406e+01 9.945640563964843750e+00 8.565347671508789062e+00 5.553296089172363281e+00 -7.939816713333129883e-01
6.500000000000000000e+01 2.351958084106445312e+01 -1.168660831451416016e+01 2.259208488464355469e+01 1.746848487854003906e+01 1.201817035675048828e+01 -8.746724724769592285e-01
6.600000000000000000e+01 2.363967132568359375e+01 -1.184533882141113281e+01 1.685312080383300781e+01 1.251783275604248047e+01 8.811285972595214844e+00 -1.019779801368713379e+00
6.700000000000000000e+01 2.375975990295410156e+01 -1.200407028198242188e+01 1.313778686523437500e+01 9.264610290527343750e+00 6.720719337463378906e+00 -1.445619106292724609e+00
6.800000000000000000e+01 2.387985038757324219e+01 -1.216280174255371094e+01 1.084662055969238281e+01 7.734419822692871094e+00 5.574312210083007812e+00 -1.351707100868225098e+00
6.900000000000000000e+01 2.356248664855957031e+01 -1.164698219299316406e+01 2.462792205810546875e+01 1.563881111145019531e+01 1.208001995086669922e+01 -6.446959376335144043e-01
7.000000000000000000e+01 2.371118164062500000e+01 -1.177929687500000000e+01 1.868198394775390625e+01 1.006822681427001953e+01 8.625062942504882812e+00 -1.128963708877563477e+00
7.100000000000000000e+01 2.385987663269042969e+01 -1.191161155700683594e+01 1.485950565338134766e+01 8.107112884521484375e+00 6.889985561370849609e+00 -9.862915873527526855e-01
7.200000000000000000e+01 2.400857162475585938e+01 -1.204392528533935547e+01 1.215735530853271484e+01 4.845104217529296875e+00 5.100738048553466797e+00 -1.408413887023925781e+00
7.300000000000000000e+01 2.359685897827148438e+01 -1.159976196289062500e+01 2.644774627685546875e+01 1.276713562011718750e+01 1.176446437835693359e+01 3.666753172874450684e-01
7.400000000000000000e+01 2.376846694946289062e+01 -1.170059585571289062e+01 2.007040405273437500e+01 8.854721069335937500e+00 8.677537918090820312e+00 9.282077103853225708e-02
7.500000000000000000e+01 2.394007682800292969e+01 -1.180142974853515625e+01 1.646121215820312500e+01 5.620478153228759766e+00 6.624506950378417969e+00 -4.741996154189109802e-02
7.600000000000000000e+01 2.411168670654296875e+01 -1.190226364135742188e+01 1.354080581665039062e+01 4.405397891998291016e+00 5.383861064910888672e+00 -7.719051241874694824e-01
7.700000000000000000e+01 2.362137985229492188e+01 -1.154675388336181641e+01 2.740987396240234375e+01 1.126744461059570312e+01 1.160319519042968750e+01 2.192487239837646484e+00
7.800000000000000000e+01 2.380933570861816406e+01 -1.161224842071533203e+01 2.102613639831542969e+01 7.115094184875488281e+00 8.442369461059570312e+00 2.275648117065429688e+00
7.900000000000000000e+01 2.399729347229003906e+01 -1.167774295806884766e+01 1.698647117614746094e+01 4.879932403564453125e+00 6.559920787811279297e+00 1.280059814453125000e+00
8.000000000000000000e+01 2.418524932861328125e+01 -1.174323749542236328e+01 1.446325969696044922e+01 3.460445165634155273e+00 5.377111434936523438e+00 1.060116648674011230e+00
8.100000000000000000e+01 2.363511085510253906e+01 -1.148998546600341797e+01 2.754965400695800781e+01 1.020340824127197266e+01 1.132591915130615234e+01 5.161657333374023438e+00
8.200000000000000000e+01 2.383222198486328125e+01 -1.151763439178466797e+01 2.080241584777832031e+01 6.454613685607910156e+00 8.177108764648437500e+00 4.375679969787597656e+00
8.300000000000000000e+01 2.402933311462402344e+01 -1.154528331756591797e+01 1.673609733581542969e+01 4.771909236907958984e+00 6.452402114868164062e+00 3.753865480422973633e+00
8.400000000000000000e+01 2.422644424438476562e+01 -1.157293319702148438e+01 1.400014019012451172e+01 3.045620679855346680e+00 5.113728523254394531e+00 2.650327682495117188e+00
8.500000000000000000e+01 2.363752746582031250e+01 -1.143163013458251953e+01 2.625802803039550781e+01 1.009128856658935547e+01 1.090479469299316406e+01 8.115817070007324219e+00
8.600000000000000000e+01 2.383625030517578125e+01 -1.142037582397460938e+01 1.926708221435546875e+01 6.977833271026611328e+00 7.873474597930908203e+00 6.839019298553466797e+00
8.700000000000000000e+01 2.403497314453125000e+01 -1.140912055969238281e+01 1.574261569976806641e+01 4.946978569030761719e+00 6.206878185272216797e+00 5.784441947937011719e+00
8.800000000000000000e+01 2.423369407653808594e+01 -1.139786624908447266e+01 1.283559989929199219e+01 3.991669893264770508e+00 5.048181056976318359e+00 4.998137474060058594e+00
8.900000000000000000e+01 2.362853813171386719e+01 -1.137392044067382812e+01 2.341431617736816406e+01 1.118936729431152344e+01 1.038110446929931641e+01 1.089023685455322266e+01
9.000000000000000000e+01 2.382126617431640625e+01 -1.132419300079345703e+01 1.679485511779785156e+01 8.249804496765136719e+00 7.513398170471191406e+00 8.746689796447753906e+00
9.100000000000000000e+01 2.401399612426757812e+01 -1.127446556091308594e+01 1.341255092620849609e+01 5.996366977691650391e+00 5.822675228118896484e+00 7.382027626037597656e+00
9.200000000000000000e+01 2.420672416687011719e+01 -1.122473907470703125e+01 1.180307006835937500e+01 4.904811859130859375e+00 5.012364864349365234e+00 6.583872318267822266e+00
9.300000000000000000e+01 2.360848426818847656e+01 -1.131906509399414062e+01 1.932480049133300781e+01 1.342324066162109375e+01 9.824412345886230469e+00 1.271954536437988281e+01
9.400000000000000000e+01 2.378784370422363281e+01 -1.123276805877685547e+01 1.333767986297607422e+01 9.909289360046386719e+00 6.974090576171875000e+00 9.805200576782226562e+00
9.500000000000000000e+01 2.396720504760742188e+01 -1.114647102355957031e+01 1.070954322814941406e+01 7.662345409393310547e+00 5.511566638946533203e+00 8.227766990661621094e+00
9.600000000000000000e+01 2.414656448364257812e+01 -1.106017398834228516e+01 8.835946083068847656e+00 6.049721717834472656e+00 4.465700626373291016e+00 6.980879306793212891e+00
9.700000000000000000e+01 2.357813453674316406e+01 -1.126916408538818359e+01 1.435840702056884766e+01 1.612101554870605469e+01 9.143826484680175781e+00 1.315028953552246094e+01
9.800000000000000000e+01 2.373726272583007812e+01 -1.114959907531738281e+01 9.492149353027343750e+00 1.172556304931640625e+01 6.365313529968261719e+00 9.775735855102539062e+00
9.900000000000000000e+01 2.389639091491699219e+01 -1.103003501892089844e+01 7.488974094390869141e+00 9.270965576171875000e+00 5.027981758117675781e+00 7.924866199493408203e+00
1.000000000000000000e+02 2.405551910400390625e+01 -1.091047000885009766e+01 5.950635910034179688e+00 7.519413948059082031e+00 4.041015148162841797e+00 7.165911674499511719e+00
1.010000000000000000e+02 2.353865242004394531e+01 -1.122612571716308594e+01 8.961117744445800781e+00 1.831029701232910156e+01 8.181425094604492188e+00 1.207857799530029297e+01
1.020000000000000000e+02 2.367145729064941406e+01 -1.107786941528320312e+01 6.000460147857666016e+00 1.331633758544921875e+01 5.795039176940917969e+00 8.378623962402343750e+00
1.030000000000000000e+02 2.380426216125488281e+01 -1.092961311340332031e+01 4.088783264160156250e+00 1.035260772705078125e+01 4.332417488098144531e+00 7.017161846160888672e+00
1.040000000000000000e+02 2.393706893920898438e+01 -1.078135681152343750e+01 3.920510053634643555e+00 8.460265159606933594e+00 3.714232444763183594e+00 5.901760578155517578e+00
1.050000000000000000e+02 2.349154472351074219e+01 -1.119159889221191406e+01 4.831184387207031250e+00 1.982681083679199219e+01 7.397398948669433594e+00 9.260541915893554688e+00
1.060000000000000000e+02 2.359294700622558594e+01 -1.102032375335693359e+01 2.384291410446166992e+00 1.368435955047607422e+01 4.820595264434814453e+00 6.337048530578613281e+00
1.070000000000000000e+02 2.369434738159179688e+01 -1.084904861450195312e+01 2.133259773254394531e+00 1.073341274261474609e+01 3.860001564025878906e+00 5.030374526977539062e+00
1.080000000000000000e+02 2.379574775695800781e+01 -1.067777347564697266e+01 1.087679624557495117e+00 8.741664886474609375e+00 2.948803186416625977e+00 4.250697135925292969e+00
1.090000000000000000e+02 2.343861770629882812e+01 -1.116690254211425781e+01 1.012929677963256836e+00 1.924477958679199219e+01 6.077312469482421875e+00 5.608017444610595703e+00
1.100000000000000000e+02 2.350473403930664062e+01 -1.097916316986083984e+01 6.703328490257263184e-01 1.296214294433593750e+01 4.089742660522460938e+00 3.616639614105224609e+00
1.110000000000000000e+02 2.357085037231445312e+01 -1.079142475128173828e+01 4.627138376235961914e-02 9.811621665954589844e+00 2.957367658615112305e+00 2.802664279937744141e+00
1.120000000000000000e+02 2.363696670532226562e+01 -1.060368537902832031e+01 2.129972577095031738e-01 8.218158721923828125e+00 2.529346704483032227e+00 2.629514217376708984e+00
1.130000000000000000e+02 2.338189506530761719e+01 -1.115298366546630859e+01 -4.261115193367004395e-01 1.679389381408691406e+01 4.910334587097167969e+00 1.706896185874938965e+00
1.140000000000000000e+02 2.341019630432128906e+01 -1.095596504211425781e+01 -6.853191852569580078e-01 1.035063362121582031e+01 2.899594545364379883e+00 9.701160192489624023e-01
1.150000000000000000e+02 2.343849754333496094e+01 -1.075894546508789062e+01 -2.926615178585052490e-01 8.007272720336914062e+00 2.314383268356323242e+00 9.719372987747192383e-01
1.160000000000000000e+02 2.346679878234863281e+01 -1.056192684173583984e+01 -4.489411115646362305e-01 6.357531070709228516e+00 1.772577047348022461e+00 9.629836082458496094e-01
1.170000000000000000e+02 2.332354736328125000e+01 -1.115037345886230469e+01 -1.048137903213500977e+00 1.163343143463134766e+01 3.175587892532348633e+00 -1.434451103210449219e+00
1.180000000000000000e+02 2.331295204162597656e+01 -1.095161437988281250e+01 -4.195705354213714600e-01 6.750199317932128906e+00 1.899188518524169922e+00 -8.310543894767761230e-01
1.190000000000000000e+02 2.330235481262207031e+01 -1.075285530090332031e+01 -2.816032767295837402e-01 4.758863449096679688e+00 1.343178153038024902e+00 -1.411232650279998779e-01
1.200000000000000000e+02 2.329175758361816406e+01 -1.055409717559814453e+01 -3.164887428283691406e-01 4.366488933563232422e+00 1.215000033378601074e+00 2.008011639118194580e-01
1.210000000000000000e+02 2.326581001281738281e+01 -1.115917205810546875e+01 -1.508560031652450562e-01 4.471876621246337891e+00 1.296306133270263672e+00 -3.151097297668457031e+00
1.220000000000000000e+02 2.321672058105468750e+01 -1.096627902984619141e+01 6.292586028575897217e-02 1.698495864868164062e+00 5.284265279769897461e-01 -6.401647329330444336e-01
1.230000000000000000e+02 2.316763114929199219e+01 -1.077338695526123047e+01 -6.132606044411659241e-02 2.531837940216064453e+00 7.411535382270812988e-01 -9.562510251998901367e-02
1.240000000000000000e+02 2.311854171752929688e+01 -1.058049488067626953e+01 -2.846834659576416016e-01 1.409842371940612793e+00 3.375476896762847900e-01 -2.527235448360443115e-01
1.250000000000000000e+02 2.321088981628417969e+01 -1.117904376983642578e+01 -6.343302130699157715e-01 -5.457514286041259766e+00 -1.827553272247314453e+00 1.128787025809288025e-01
1.260000000000000000e+02 2.312518501281738281e+01 -1.099939918518066406e+01 4.803529381752014160e-02 2.139868885278701782e-01 7.860665023326873779e-02 7.024080157279968262e-01
1.270000000000000000e+02 2.303948211669921875e+01 -1.081975460052490234e+01 -4.254536330699920654e-01 -8.714804053306579590e-01 -3.890802264213562012e-01 2.189959734678268433e-01
1.280000000000000000e+02 2.295377922058105469e+01 -1.064010906219482422e+01 -2.203056663274765015e-01 -5.989659428596496582e-01 -2.457814812660217285e-01 5.481352210044860840e-01
1.290000000000000000e+02 1.664671516418457031e+01 -4.055796146392822266e+00 -2.474086761474609375e+00 -1.190500617027282715e+00 -1.099376201629638672e+00 1.745577096939086914e+00
1.300000000000000000e+02 1.605672454833984375e+01 -3.613803625106811523e+00 -2.360469341278076172e+00 -1.043587327003479004e+00 -1.021216988563537598e+00 1.610479354858398438e+00
1.310000000000000000e+02 1.505074691772460938e+01 -3.785051584243774414e+00 -2.181870460510253906e+00 -3.750138282775878906e-01 -7.670652866363525391e-01 1.195869207382202148e+00
1.320000000000000000e+02 1.676145553588867188e+01 -5.066381931304931641e+00 -2.176402568817138672e+00 -8.783590197563171387e-01 -9.164285063743591309e-01 1.653757452964782715e+00
1.330000000000000000e+02 1.619213485717773438e+01 -4.639872550964355469e+00 -2.148585796356201172e+00 -6.968080401420593262e-01 -8.536181449890136719e-01 1.446811437606811523e+00
1.340000000000000000e+02 1.562185287475585938e+01 -4.212639808654785156e+00 -2.211233854293823242e+00 -5.028026700019836426e-01 -8.142109513282775879e-01 1.277285099029541016e+00
1.350000000000000000e+02 1.723574447631835938e+01 -4.497066020965576172e+00 -2.336512804031372070e+00 -1.287174463272094727e+00 -1.087106227874755859e+00 1.852317452430725098e+00
1.360000000000000000e+02 1.546591091156005859e+01 -3.171455144882202148e+00 -2.172440767288208008e+00 -8.018489480018615723e-01 -8.922868967056274414e-01 1.401140451431274414e+00
1.370000000000000000e+02 1.831977081298828125e+01 -5.492505550384521484e+00 -2.391125440597534180e+00 -1.957043409347534180e+00 -1.304450631141662598e+00 2.224692821502685547e+00
1.380000000000000000e+02 1.780974006652832031e+01 -6.028855800628662109e+00 -2.119125366210937500e+00 -1.186100840568542480e+00 -9.915678501129150391e-01 1.808556914329528809e+00
1.390000000000000000e+02 1.730055999755859375e+01 -5.529824733734130859e+00 -2.184756040573120117e+00 -9.918430447578430176e-01 -9.529796838760375977e-01 1.790054202079772949e+00
1.400000000000000000e+02 1.831691551208496094e+01 -6.530111789703369141e+00 -1.908153772354125977e+00 -1.449383497238159180e+00 -1.007261157035827637e+00 1.907645344734191895e+00
1.410000000000000000e+02 1.882190132141113281e+01 -7.033396244049072266e+00 -1.759186863899230957e+00 -1.693134188652038574e+00 -1.035696268081665039e+00 2.025776386260986328e+00
1.420000000000000000e+02 1.936644935607910156e+01 -6.531159877777099609e+00 -2.212767839431762695e+00 -2.262902259826660156e+00 -1.342701077461242676e+00 2.380303144454956055e+00
1.430000000000000000e+02 1.779333305358886719e+01 -4.976417064666748047e+00 -2.278992176055908203e+00 -1.598545432090759277e+00 -1.163261294364929199e+00 2.000442266464233398e+00
1.440000000000000000e+02 1.884420585632324219e+01 -6.010818481445312500e+00 -2.452026844024658203e+00 -2.168079853057861328e+00 -1.386031985282897949e+00 2.327815055847167969e+00
1.450000000000000000e+02 1.982371139526367188e+01 -8.435155868530273438e+00 -8.663049340248107910e-01 -2.000583887100219727e+00 -8.600666522979736328e-01 1.820880770683288574e+00
1.460000000000000000e+02 2.049435806274414062e+01 -8.466798782348632812e+00 -1.198324680328369141e+00 -2.625307321548461914e+00 -1.147089600563049316e+00 2.028546094894409180e+00
1.470000000000000000e+02 1.917969322204589844e+01 -7.563635349273681641e+00 -1.572764396667480469e+00 -1.788726925849914551e+00 -1.008447408676147461e+00 2.048161506652832031e+00
1.480000000000000000e+02 2.066562271118164062e+01 -9.534359931945800781e+00 5.142418742179870605e-01 -2.423918485641479492e+00 -5.729029774665832520e-01 1.294640779495239258e+00
1.490000000000000000e+02 2.104621505737304688e+01 -8.831973075866699219e+00 -1.194813609123229980e+00 -2.824564933776855469e+00 -1.205813527107238770e+00 1.988423705101013184e+00
1.500000000000000000e+02 2.085565185546875000e+01 -8.137906074523925781e+00 -2.034242153167724609e+00 -3.233069419860839844e+00 -1.580193400382995605e+00 2.563497543334960938e+00
1.510000000000000000e+02 2.043091201782226562e+01 -7.611049175262451172e+00 -2.063784122467041016e+00 -3.133299827575683594e+00 -1.559125185012817383e+00 2.586810827255249023e+00
1.520000000000000000e+02 2.079001617431640625e+01 -9.377272605895996094e+00 2.441926151514053345e-01 -2.532536745071411133e+00 -6.865032911300659180e-01 1.571987628936767578e+00
1.530000000000000000e+02 2.086664962768554688e+01 -9.224957466125488281e+00 -2.660993933677673340e-01 -2.572983741760253906e+00 -8.517249226570129395e-01 1.703060626983642578e+00
1.540000000000000000e+02 2.107509994506835938e+01 -8.555168151855468750e+00 -1.647849082946777344e+00 -3.106030702590942383e+00 -1.426163911819458008e+00 2.338788509368896484e+00
1.550000000000000000e+02 2.146642494201660156e+01 -8.742730140686035156e+00 -1.727723836898803711e+00 -3.106574535369873047e+00 -1.450289487838745117e+00 2.409721136093139648e+00
1.560000000000000000e+02 1.946461296081542969e+01 -8.027696609497070312e+00 -1.212707161903381348e+00 -1.799216151237487793e+00 -9.035770297050476074e-01 1.902121543884277344e+00
1.570000000000000000e+02 1.991508293151855469e+01 -7.065327167510986328e+00 -2.048513650894165039e+00 -2.618430614471435547e+00 -1.400083303451538086e+00 2.421332359313964844e+00
1.580000000000000000e+02 2.097018241882324219e+01 -9.039791107177734375e+00 -8.536908626556396484e-01 -2.826841115951538086e+00 -1.104159593582153320e+00 1.901915431022644043e+00
1.590000000000000000e+02 2.133980751037597656e+01 -8.968132972717285156e+00 -1.116070508956909180e+00 -2.869830369949340820e+00 -1.195770263671875000e+00 2.074058294296264648e+00
1.600000000000000000e+02 2.072478103637695312e+01 -9.061123847961425781e+00 -5.387189984321594238e-01 -2.643142223358154297e+00 -9.545583724975585938e-01 1.674568414688110352e+00
1.610000000000000000e+02 2.105734634399414062e+01 -9.281601905822753906e+00 -3.108783662319183350e-01 -2.686412334442138672e+00 -8.991872072219848633e-01 1.673022508621215820e+00
1.620000000000000000e+02 2.017738723754882812e+01 -8.879823684692382812e+00 -4.448274672031402588e-01 -2.251300334930419922e+00 -8.088383674621582031e-01 1.665466427803039551e+00
1.630000000000000000e+02 1.965235137939453125e+01 -7.574572563171386719e+00 -1.727033138275146484e+00 -2.112344503402709961e+00 -1.151813268661499023e+00 2.188039779663085938e+00
1.640000000000000000e+02 2.012160873413085938e+01 -8.011513710021972656e+00 -1.584970593452453613e+00 -2.489572525024414062e+00 -1.222362875938415527e+00 2.118689060211181641e+00
1.650000000000000000e+02 2.120166969299316406e+01 -9.134595870971679688e+00 -8.502390384674072266e-01 -2.700137376785278320e+00 -1.065112948417663574e+00 1.958016514778137207e+00
1.660000000000000000e+02 2.092387962341308594e+01 -9.410117149353027344e+00 3.072040900588035583e-02 -2.618913173675537109e+00 -7.764577865600585938e-01 1.554159641265869141e+00
1.670000000000000000e+02 2.079582595825195312e+01 -9.502648353576660156e+00 3.869040012359619141e-01 -2.412960767745971680e+00 -6.078169941902160645e-01 1.241581916809082031e+00
1.680000000000000000e+02 2.047803306579589844e+01 -9.317270278930664062e+00 1.456070393323898315e-01 -2.408406019210815430e+00 -6.788396835327148438e-01 1.451417446136474609e+00
1.690000000000000000e+02 2.078492164611816406e+01 -8.748770713806152344e+00 -1.112805485725402832e+00 -2.831959009170532227e+00 -1.183429360389709473e+00 1.921336174011230469e+00
1.700000000000000000e+02 2.172182846069335938e+01 -9.046269416809082031e+00 -1.428803920745849609e+00 -3.123724699020385742e+00 -1.365758538246154785e+00 2.044339418411254883e+00
1.710000000000000000e+02 2.223325157165527344e+01 -9.898117065429687500e+00 -8.908511400222778320e-01 -2.918400764465332031e+00 -1.142775535583496094e+00 1.675502300262451172e+00
1.720000000000000000e+02 2.267006874084472656e+01 -1.057670497894287109e+01 -2.264559119939804077e-01 -1.531720280647277832e+00 -5.274528264999389648e-01 5.616319775581359863e-01
1.730000000000000000e+02 2.209649276733398438e+01 -1.182970046997070312e+01 1.141155719757080078e+01 -4.249110221862792969e+00 2.148733854293823242e+00 2.962540626525878906e+00
1.740000000000000000e+02 2.316424751281738281e+01 -1.264052200317382812e+01 5.684940814971923828e+00 6.567645549774169922e+00 3.675776004791259766e+00 4.231262683868408203e+00
1.750000000000000000e+02 2.406384086608886719e+01 -1.236313056945800781e+01 7.674729824066162109e+00 4.718326568603515625e+00 3.717916965484619141e+00 -1.855376482009887695e+00
1.760000000000000000e+02 2.438616180419921875e+01 -1.230579090118408203e+01 7.370985031127929688e+00 3.478622436523437500e+00 3.254882097244262695e+00 -1.995130300521850586e+00
1.770000000000000000e+02 2.367892265319824219e+01 -9.963205337524414062e+00 -6.386580467224121094e-01 4.762928009033203125e+00 1.237280964851379395e+00 1.497030854225158691e+00
1.780000000000000000e+02 2.424904823303222656e+01 -1.078623294830322266e+01 5.869736671447753906e+00 5.858662605285644531e+00 3.518519878387451172e+00 5.774621009826660156e+00
1.790000000000000000e+02 2.448595428466796875e+01 -1.122222232818603516e+01 9.457798957824707031e+00 3.162679672241210938e+00 3.786143541336059570e+00 4.938842296600341797e+00
1.800000000000000000e+02 2.308385467529296875e+01 -1.278369331359863281e+01 4.426810741424560547e+00 3.656719446182250977e+00 2.425059080123901367e+00 4.691536426544189453e+00
1.810000000000000000e+02 2.067806053161621094e+01 -9.773482322692871094e+00 9.875909090042114258e-01 -2.423789978027343750e+00 -4.308597445487976074e-01 1.253321170806884766e+00
1.820000000000000000e+02 2.165970611572265625e+01 -9.327053070068359375e+00 -1.020499467849731445e+00 -2.940772771835327148e+00 -1.188381671905517578e+00 1.886469244956970215e+00
1.830000000000000000e+02 2.115552711486816406e+01 -1.014080142974853516e+01 1.675500035285949707e+00 -2.722800254821777344e+00 -3.141900599002838135e-01 8.032433390617370605e-01
1.840000000000000000e+02 2.087887954711914062e+01 -1.011086368560791016e+01 1.649294495582580566e+00 -2.680135726928710938e+00 -3.092524111270904541e-01 9.606273770332336426e-01
1.850000000000000000e+02 2.297120857238769531e+01 -8.182930946350097656e+00 -9.688044190406799316e-01 8.374939560890197754e-01 -3.939313814043998718e-02 7.244263291358947754e-01
1.860000000000000000e+02 2.279473304748535156e+01 -8.307927131652832031e+00 -9.716915488243103027e-01 3.598791658878326416e-01 -1.835437119007110596e-01 7.445058822631835938e-01
1.870000000000000000e+02 2.289380645751953125e+01 -8.491174697875976562e+00 -9.477095603942871094e-01 6.861547231674194336e-01 -7.846643775701522827e-02 6.906249523162841797e-01
1.880000000000000000e+02 2.209672927856445312e+01 -8.779566764831542969e+00 -9.226162433624267578e-01 -1.271656394004821777e+00 -6.582818031311035156e-01 1.045101881027221680e+00
1.890000000000000000e+02 2.346325492858886719e+01 -9.559008598327636719e+00 -7.973639965057373047e-01 2.936024427413940430e+00 6.415981650352478027e-01 8.571715354919433594e-01
1.900000000000000000e+02 2.192595863342285156e+01 -8.902659416198730469e+00 -8.951159715652465820e-01 -1.820549011230468750e+00 -8.146994709968566895e-01 1.193455815315246582e+00
1.910000000000000000e+02 2.226701354980468750e+01 -9.382262229919433594e+00 -6.141934394836425781e-01 -1.335138201713562012e+00 -5.847994685173034668e-01 9.272626042366027832e-01
1.920000000000000000e+02 2.328118324279785156e+01 -8.715815544128417969e+00 -9.581624865531921387e-01 1.581468343734741211e+00 1.869917511940002441e-01 7.811007499694824219e-01
1.930000000000000000e+02 2.291238784790039062e+01 -1.003496932983398438e+01 -4.124130308628082275e-01 3.805183172225952148e-01 -9.568408131599426270e-03 3.876002132892608643e-01
1.940000000000000000e+02 2.292619895935058594e+01 -9.664669990539550781e+00 -5.436849594116210938e-01 6.552081704139709473e-01 3.345696628093719482e-02 3.868937790393829346e-01
1.950000000000000000e+02 2.277428436279296875e+01 -1.029204368591308594e+01 -3.421342074871063232e-01 -8.446522355079650879e-01 -3.560359179973602295e-01 5.941604971885681152e-01
1.960000000000000000e+02 2.440194702148437500e+01 -1.161362934112548828e+01 1.340168762207031250e+01 2.165601015090942383e+00 4.670186519622802734e+00 2.571349859237670898e+00
1.970000000000000000e+02 2.326643562316894531e+01 -1.035229682922363281e+01 -5.399498939514160156e-01 3.170782327651977539e+00 7.892497181892395020e-01 1.000950708985328674e-01
1.980000000000000000e+02 2.306094551086425781e+01 -1.039521217346191406e+01 -2.490213513374328613e-01 1.268783569335937500e+00 3.059286773204803467e-01 9.832306951284408569e-02
1.990000000000000000e+02 2.254319190979003906e+01 -1.040437412261962891e+01 -2.743672728538513184e-01 -1.966360569000244141e+00 -6.722183227539062500e-01 9.021887183189392090e-01
2.000000000000000000e+02 2.204846572875976562e+01 -1.123502635955810547e+01 8.193173408508300781e+00 -3.408665895462036133e+00 1.435352206230163574e+00 -4.135954678058624268e-01
2.010000000000000000e+02 2.227440643310546875e+01 -1.191125297546386719e+01 1.156118965148925781e+01 -3.674717664718627930e+00 2.365941762924194336e+00 3.150135278701782227e+00
2.020000000000000000e+02 2.262472724914550781e+01 -1.222457218170166016e+01 1.129869937896728516e+01 9.792428612709045410e-01 3.683382511138916016e+00 6.932352066040039062e+00
2.030000000000000000e+02 2.253908538818359375e+01 -1.230720424652099609e+01 1.052698993682861328e+01 1.922357827425003052e-01 3.215767860412597656e+00 6.877809524536132812e+00
2.040000000000000000e+02 2.362009620666503906e+01 -1.275794029235839844e+01 4.029127120971679688e+00 5.198783397674560547e+00 2.768373012542724609e+00 -1.997385174036026001e-02
2.050000000000000000e+02 2.122006034851074219e+01 -1.059203433990478516e+01 3.418454170227050781e+00 -3.043086051940917969e+00 1.126104220747947693e-01 5.130726099014282227e-01
2.060000000000000000e+02 2.182811164855957031e+01 -9.214017868041992188e+00 -1.270519018173217773e+00 -3.207812786102294922e+00 -1.343499541282653809e+00 2.167093753814697266e+00
2.070000000000000000e+02 2.213823509216308594e+01 -1.213636112213134766e+01 9.509654998779296875e+00 -3.708443641662597656e+00 1.740363240242004395e+00 3.883083343505859375e+00
2.080000000000000000e+02 2.223588943481445312e+01 -1.147459602355957031e+01 1.131226634979248047e+01 -3.763535499572753906e+00 2.264619350433349609e+00 2.374565452337265015e-01
2.090000000000000000e+02 2.225419235229492188e+01 -1.128558921813964844e+01 9.031014442443847656e+00 -3.218578100204467773e+00 1.743731021881103516e+00 -1.027943372726440430e+00
2.100000000000000000e+02 2.249809074401855469e+01 -1.071740245819091797e+01 1.960702180862426758e+00 -1.351118087768554688e+00 1.828752458095550537e-01 -5.809381604194641113e-01
2.110000000000000000e+02 2.236661529541015625e+01 -1.089463329315185547e+01 4.028294563293457031e+00 -1.705915451049804688e+00 6.967136859893798828e-01 -1.419492840766906738e+00
2.120000000000000000e+02 2.103888130187988281e+01 -1.001376438140869141e+01 1.406521320343017578e+00 -2.656764268875122070e+00 -3.750728666782379150e-01 9.956384897232055664e-01
2.130000000000000000e+02 2.110676002502441406e+01 -1.042579936981201172e+01 2.892352819442749023e+00 -2.957646608352661133e+00 -1.958811841905117035e-02 6.274822354316711426e-01
2.140000000000000000e+02 2.358082962036132812e+01 -1.249410820007324219e+01 6.173722267150878906e+00 6.782509803771972656e+00 3.886869668960571289e+00 8.833211660385131836e-01
2.150000000000000000e+02 2.344230270385742188e+01 -1.261979484558105469e+01 6.038983821868896484e+00 6.938171863555908203e+00 3.893146753311157227e+00 2.073874473571777344e+00
2.160000000000000000e+02 2.200036621093750000e+01 -1.195414066314697266e+01 1.070332717895507812e+01 -3.982198715209960938e+00 2.016338348388671875e+00 3.937989711761474609e+00
2.170000000000000000e+02 2.242554473876953125e+01 -1.242943859100341797e+01 8.626152038574218750e+00 -1.002008557319641113e+00 2.287243127822875977e+00 6.502455234527587891e+00
2.180000000000000000e+02 2.219280242919921875e+01 -1.042121028900146484e+01 9.701877832412719727e-01 -2.148481369018554688e+00 -3.534880578517913818e-01 3.091329038143157959e-01
2.190000000000000000e+02 2.152676963806152344e+01 -1.111357402801513672e+01 5.927003860473632812e+00 -3.737624406814575195e+00 6.568138599395751953e-01 3.057361841201782227e-01
2.200000000000000000e+02 2.216514015197753906e+01 -1.165050220489501953e+01 1.125607395172119141e+01 -3.896523952484130859e+00 2.207864999771118164e+00 1.591460347175598145e+00
2.210000000000000000e+02 2.382951354980468750e+01 -1.250774574279785156e+01 5.914882183074951172e+00 5.894259452819824219e+00 3.542742490768432617e+00 -9.688982367515563965e-01
2.220000000000000000e+02 2.339714431762695312e+01 -1.250170040130615234e+01 6.077569484710693359e+00 8.740320205688476562e+00 4.445366859436035156e+00 2.883954048156738281e+00
2.230000000000000000e+02 2.369390678405761719e+01 -9.421209335327148438e+00 -7.314596772193908691e-01 3.337625026702880859e+00 7.818496227264404297e-01 1.236185431480407715e+00
2.240000000000000000e+02 2.348561668395996094e+01 -1.033315467834472656e+01 -5.161621570587158203e-01 5.429357528686523438e+00 1.473958611488342285e+00 1.095172405242919922e+00
2.250000000000000000e+02 2.434889221191406250e+01 -1.098196506500244141e+01 7.947195053100585938e+00 4.938805580139160156e+00 3.865800142288208008e+00 6.702556133270263672e+00
2.260000000000000000e+02 2.412678909301757812e+01 -1.062847137451171875e+01 2.575849771499633789e+00 7.175233364105224609e+00 2.925324916839599609e+00 5.278525829315185547e+00
2.270000000000000000e+02 2.285234451293945312e+01 -9.846603393554687500e+00 -5.662245750427246094e-01 2.936419546604156494e-01 -8.177477866411209106e-02 4.133025705814361572e-01
2.280000000000000000e+02 2.396806716918945312e+01 -1.028620338439941406e+01 2.898763716220855713e-01 6.373162269592285156e+00 1.998911619186401367e+00 3.167379617691040039e+00
2.290000000000000000e+02 2.459511566162109375e+01 -1.099199390411376953e+01 8.035729408264160156e+00 3.263969659805297852e+00 3.389909744262695312e+00 5.286188125610351562e+00
2.300000000000000000e+02 2.432681274414062500e+01 -1.179366874694824219e+01 1.191529178619384766e+01 2.966245412826538086e+00 4.464461326599121094e+00 8.784434199333190918e-01
2.310000000000000000e+02 2.450804710388183594e+01 -1.143402957916259766e+01 1.089891529083251953e+01 2.374077081680297852e+00 3.981897592544555664e+00 3.500920057296752930e+00
2.320000000000000000e+02 2.425698661804199219e+01 -1.194651699066162109e+01 1.298112964630126953e+01 3.635203838348388672e+00 4.984899997711181641e+00 -1.004588723182678223e+00
2.330000000000000000e+02 2.435363006591796875e+01 -1.047565269470214844e+01 3.255314111709594727e+00 5.561179637908935547e+00 2.644948244094848633e+00 5.253399372100830078e+00
2.340000000000000000e+02 2.446385002136230469e+01 -1.064943218231201172e+01 3.418170928955078125e+00 5.154861927032470703e+00 2.571909904479980469e+00 4.930051803588867188e+00
2.350000000000000000e+02 2.202226638793945312e+01 -9.973563194274902344e+00 -2.154734879732131958e-01 -2.615344285964965820e+00 -8.492453098297119141e-01 1.146784663200378418e+00
2.360000000000000000e+02 2.178722000122070312e+01 -1.103889751434326172e+01 5.893534660339355469e+00 -3.321954488754272461e+00 7.714740037918090820e-01 -1.851573735475540161e-01
2.370000000000000000e+02 2.234763526916503906e+01 -1.006399917602539062e+01 -7.742764949798583984e-01 -2.714272499084472656e+00 -1.046564698219299316e+00 1.485995292663574219e+00
2.380000000000000000e+02 2.154992103576660156e+01 -9.164996147155761719e+00 -1.210780382156372070e+00 -3.083305358886718750e+00 -1.288225650787353516e+00 2.042865991592407227e+00
2.390000000000000000e+02 2.150455474853515625e+01 -9.434767723083496094e+00 -6.791229844093322754e-01 -2.842221975326538086e+00 -1.056403517723083496e+00 1.717884778976440430e+00
2.400000000000000000e+02 2.224323081970214844e+01 -1.022765541076660156e+01 6.781809777021408081e-02 -2.396465063095092773e+00 -6.985940337181091309e-01 7.996260523796081543e-01
2.410000000000000000e+02 2.203600502014160156e+01 -9.549163818359375000e+00 -1.161284565925598145e+00 -3.222326993942260742e+00 -1.315083503723144531e+00 2.011852025985717773e+00
2.420000000000000000e+02 2.335708045959472656e+01 -9.378767013549804688e+00 -7.866050601005554199e-01 2.271868467330932617e+00 4.455790221691131592e-01 7.244884967803955078e-01
2.430000000000000000e+02 2.277433013916015625e+01 -9.526300430297851562e+00 -5.722707509994506836e-01 1.377489268779754639e-01 -1.303565502166748047e-01 4.830154180526733398e-01
2.440000000000000000e+02 2.320932006835937500e+01 -1.015154361724853516e+01 -4.943867921829223633e-01 2.617468595504760742e+00 6.369245648384094238e-01 2.842576205730438232e-01
2.450000000000000000e+02 2.402679634094238281e+01 -9.962590217590332031e+00 -1.427223086357116699e-01 5.110547065734863281e+00 1.490347385406494141e+00 2.562018394470214844e+00
2.460000000000000000e+02 2.356876754760742188e+01 -9.751148223876953125e+00 -6.665177941322326660e-01 3.615407228469848633e+00 8.846668004989624023e-01 1.069367766380310059e+00
2.470000000000000000e+02 2.380056762695312500e+01 -9.603414535522460938e+00 -6.845369935035705566e-01 4.085085391998291016e+00 1.020164489746093750e+00 1.554245710372924805e+00
2.480000000000000000e+02 2.244127082824707031e+01 -8.554421424865722656e+00 -9.333474040031433105e-01 -3.155677914619445801e-01 -3.746745586395263672e-01 7.764064669609069824e-01
2.490000000000000000e+02 2.315809631347656250e+01 -9.029814720153808594e+00 -8.456571102142333984e-01 1.426211357116699219e+00 1.741662770509719849e-01 6.619793176651000977e-01
2.500000000000000000e+02 2.338153839111328125e+01 -8.892010688781738281e+00 -9.581841826438903809e-01 1.952841758728027344e+00 2.983972728252410889e-01 8.097480535507202148e-01
2.510000000000000000e+02 2.414488983154296875e+01 -1.013045024871826172e+01 6.762614250183105469e-01 5.686640739440917969e+00 1.908870697021484375e+00 3.476923227310180664e+00
2.520000000000000000e+02 2.425177192687988281e+01 -1.030316352844238281e+01 1.526356101036071777e+00 5.908858776092529297e+00 2.230564594268798828e+00 4.228754520416259766e+00
2.530000000000000000e+02 2.271012496948242188e+01 -8.621679306030273438e+00 -8.969630002975463867e-01 2.412378340959548950e-01 -1.967175453901290894e-01 6.749061942100524902e-01
2.540000000000000000e+02 2.307609558105468750e+01 -8.361458778381347656e+00 -1.002668976783752441e+00 8.532741069793701172e-01 -4.481846839189529419e-02 7.278472185134887695e-01
2.550000000000000000e+02 2.325347137451171875e+01 -9.204586029052734375e+00 -8.466250896453857422e-01 1.805965542793273926e+00 2.878021597862243652e-01 6.774927973747253418e-01
2.560000000000000000e+02 2.104598617553710938e+01 -9.552262306213378906e+00 2.123196274042129517e-01 -2.592757940292358398e+00 -7.141314744949340820e-01 1.320245146751403809e+00
2.570000000000000000e+02 2.138199234008789062e+01 -9.287284851074218750e+00 -7.898778915405273438e-01 -2.755499601364135742e+00 -1.063613176345825195e+00 1.718280911445617676e+00
2.580000000000000000e+02 2.139801597595214844e+01 -9.576736450195312500e+00 -1.198329627513885498e-01 -2.681795120239257812e+00 -8.404884338378906250e-01 1.390411853790283203e+00
2.590000000000000000e+02 2.252897644042968750e+01 -8.762627601623535156e+00 -8.648947477340698242e-01 -2.435784041881561279e-01 -3.325419425964355469e-01 7.060884833335876465e-01
2.600000000000000000e+02 2.226796913146972656e+01 -8.666226387023925781e+00 -8.995458483695983887e-01 -7.739582061767578125e-01 -5.020511746406555176e-01 8.536566495895385742e-01
2.610000000000000000e+02 2.214453506469726562e+01 -9.226501464843750000e+00 -6.864787340164184570e-01 -1.477106332778930664e+00 -6.490755081176757812e-01 9.929161071777343750e-01
2.620000000000000000e+02 2.203020858764648438e+01 -9.068894386291503906e+00 -7.016395926475524902e-01 -1.629338622093200684e+00 -6.992934346199035645e-01 1.111402273178100586e+00
2.630000000000000000e+02 2.132567787170410156e+01 -1.076632881164550781e+01 4.070198535919189453e+00 -3.256795883178710938e+00 2.440208196640014648e-01 2.636393308639526367e-01
2.640000000000000000e+02 2.169967842102050781e+01 -1.145442485809326172e+01 7.934493064880371094e+00 -4.189090251922607422e+00 1.123620867729187012e+00 7.448314428329467773e-01
2.650000000000000000e+02 2.211330986022949219e+01 -1.081469821929931641e+01 4.169935226440429688e+00 -2.368104219436645508e+00 5.405492782592773438e-01 -7.661802172660827637e-01
2.660000000000000000e+02 2.143061637878417969e+01 -1.094101142883300781e+01 5.055912971496582031e+00 -3.474555969238281250e+00 4.744070172309875488e-01 3.701136410236358643e-01
2.670000000000000000e+02 2.190018463134765625e+01 -1.179178333282470703e+01 9.755010604858398438e+00 -4.316983699798583984e+00 1.631408095359802246e+00 2.112513065338134766e+00
2.680000000000000000e+02 2.197331237792968750e+01 -1.153894138336181641e+01 9.861562728881835938e+00 -4.356335163116455078e+00 1.651568174362182617e+00 8.961763381958007812e-01
2.690000000000000000e+02 2.098811912536621094e+01 -1.026962184906005859e+01 2.211065530776977539e+00 -2.771962642669677734e+00 -1.682691127061843872e-01 8.922917246818542480e-01
2.700000000000000000e+02 2.286574935913085938e+01 -1.046487140655517578e+01 -4.020484387874603271e-01 -8.156084418296813965e-01 -3.652970790863037109e-01 4.786883592605590820e-01
2.710000000000000000e+02 2.313052177429199219e+01 -9.962992668151855469e+00 -5.453354716300964355e-01 1.875705122947692871e+00 3.991108834743499756e-01 2.558851242065429688e-01
2.720000000000000000e+02 2.250584220886230469e+01 -9.726165771484375000e+00 -5.789076089859008789e-01 -1.065999507904052734e+00 -4.934721589088439941e-01 7.566299438476562500e-01
2.730000000000000000e+02 2.265527153015136719e+01 -8.941952705383300781e+00 -7.585549950599670410e-01 -2.246858552098274231e-02 -2.343070656061172485e-01 6.709522008895874023e-01
2.740000000000000000e+02 2.248981857299804688e+01 -9.164134979248046875e+00 -7.179505825042724609e-01 -5.537588596343994141e-01 -3.815128207206726074e-01 7.444598674774169922e-01
2.750000000000000000e+02 2.301530456542968750e+01 -9.347273826599121094e+00 -7.131631970405578613e-01 1.051288008689880371e+00 1.014374643564224243e-01 5.246512889862060547e-01
2.760000000000000000e+02 2.382133674621582031e+01 -1.014976978302001953e+01 -6.559502333402633667e-02 5.750226497650146484e+00 1.705389499664306641e+00 2.356041431427001953e+00
2.770000000000000000e+02 2.404742240905761719e+01 -1.045216846466064453e+01 1.792746424674987793e+00 6.815288066864013672e+00 2.582410335540771484e+00 4.414177894592285156e+00
2.780000000000000000e+02 2.085714149475097656e+01 -9.659907341003417969e+00 6.062841415405273438e-01 -2.506568431854248047e+00 -5.700852870941162109e-01 1.274003267288208008e+00
2.790000000000000000e+02 2.161170196533203125e+01 -1.128486347198486328e+01 6.953520298004150391e+00 -3.921290397644042969e+00 9.096689224243164062e-01 6.492174863815307617e-01
2.800000000000000000e+02 2.188593673706054688e+01 -1.072625255584716797e+01 3.762265682220458984e+00 -2.684305667877197266e+00 3.233880102634429932e-01 -3.959596455097198486e-01
2.810000000000000000e+02 2.156698417663574219e+01 -1.065633869171142578e+01 3.497643709182739258e+00 -2.944619178771972656e+00 1.659073680639266968e-01 1.085106134414672852e-01
2.820000000000000000e+02 2.166909217834472656e+01 -9.780443191528320312e+00 -1.376526951789855957e-01 -2.645967721939086914e+00 -8.350861072540283203e-01 1.219563245773315430e+00
2.830000000000000000e+02 2.182279968261718750e+01 -9.936597824096679688e+00 1.459774225950241089e-01 -2.606833219528198242e+00 -7.382567524909973145e-01 1.027984023094177246e+00
2.840000000000000000e+02 2.285384750366210938e+01 -8.962688446044921875e+00 -8.111793398857116699e-01 4.623213112354278564e-01 -1.046574115753173828e-01 5.889365673065185547e-01
2.850000000000000000e+02 2.146672248840332031e+01 -1.045290470123291016e+01 2.613421678543090820e+00 -2.881891965866088867e+00 -8.054113388061523438e-02 2.992730438709259033e-01
2.860000000000000000e+02 2.132632827758789062e+01 -1.026749038696289062e+01 1.966652512550354004e+00 -2.721698522567749023e+00 -2.265138030052185059e-01 6.350170373916625977e-01
2.870000000000000000e+02 2.150146102905273438e+01 -9.878730773925781250e+00 4.203749001026153564e-01 -2.615303516387939453e+00 -6.584786176681518555e-01 9.966537952423095703e-01
2.880000000000000000e+02 2.334746360778808594e+01 -9.870192527770996094e+00 -6.745902299880981445e-01 3.022064447402954102e+00 7.042422294616699219e-01 6.389628648757934570e-01
2.890000000000000000e+02 2.313236808776855469e+01 -9.512805938720703125e+00 -7.242545485496520996e-01 1.540535211563110352e+00 2.448841780424118042e-01 5.202933549880981445e-01
2.900000000000000000e+02 2.290726089477539062e+01 -9.163682937622070312e+00 -7.627413272857666016e-01 7.073377966880798340e-01 -1.662106066942214966e-02 5.660243034362792969e-01
2.910000000000000000e+02 2.261728096008300781e+01 -8.432556152343750000e+00 -9.128761291503906250e-01 8.238830417394638062e-02 -2.491463422775268555e-01 6.433330774307250977e-01
2.920000000000000000e+02 2.218936538696289062e+01 -8.936841011047363281e+00 -8.502039313316345215e-01 -1.225251674652099609e+00 -6.226366758346557617e-01 1.000062465667724609e+00
2.930000000000000000e+02 2.231550216674804688e+01 -9.049387931823730469e+00 -7.222350835800170898e-01 -9.327578544616699219e-01 -4.964978694915771484e-01 9.143030643463134766e-01
2.940000000000000000e+02 2.298974037170410156e+01 -8.668780326843261719e+00 -9.064711928367614746e-01 7.827369570732116699e-01 -3.712027147412300110e-02 6.470955610275268555e-01
2.950000000000000000e+02 2.317980384826660156e+01 -8.538521766662597656e+00 -9.820307493209838867e-01 1.279916882514953613e+00 8.936583250761032104e-02 7.792465090751647949e-01
2.960000000000000000e+02 2.348372650146484375e+01 -9.066965103149414062e+00 -8.742508292198181152e-01 2.346344470977783203e+00 4.416280686855316162e-01 8.880464434623718262e-01
2.970000000000000000e+02 2.358816719055175781e+01 -9.242748260498046875e+00 -8.694996237754821777e-01 2.837193012237548828e+00 5.903080105781555176e-01 1.010404348373413086e+00
2.980000000000000000e+02 2.344303703308105469e+01 -1.008576869964599609e+01 -5.941067337989807129e-01 4.046315670013427734e+00 1.035662770271301270e+00 7.692629098892211914e-01
2.990000000000000000e+02 2.175971412658691406e+01 -9.491362571716308594e+00 -8.523305654525756836e-01 -2.883473873138427734e+00 -1.120741367340087891e+00 1.763447642326354980e+00
3.000000000000000000e+02 2.193275070190429688e+01 -9.381892204284667969e+00 -1.300962924957275391e+00 -3.330089569091796875e+00 -1.389315724372863770e+00 2.038521051406860352e+00
3.010000000000000000e+02 2.185594177246093750e+01 -9.658263206481933594e+00 -7.484346032142639160e-01 -2.907098054885864258e+00 -1.096659779548645020e+00 1.568172097206115723e+00
3.020000000000000000e+02 2.213878631591796875e+01 -9.717324256896972656e+00 -1.061388373374938965e+00 -3.132291555404663086e+00 -1.258103966712951660e+00 1.845925331115722656e+00
3.030000000000000000e+02 2.196054077148437500e+01 -9.811355590820312500e+00 -6.794747114181518555e-01 -2.795693159103393555e+00 -1.042550325393676758e+00 1.536195874214172363e+00
3.040000000000000000e+02 2.173722267150878906e+01 -1.014091300964355469e+01 9.109049439430236816e-01 -2.554389476776123047e+00 -4.930453598499298096e-01 6.309402585029602051e-01
3.050000000000000000e+02 2.122184562683105469e+01 -9.425294876098632812e+00 -3.117716610431671143e-01 -2.656063079833984375e+00 -8.903504014015197754e-01 1.592383623123168945e+00
3.060000000000000000e+02 2.134654617309570312e+01 -9.759236335754394531e+00 2.142082303762435913e-01 -2.570194959640502930e+00 -7.067959904670715332e-01 1.143282294273376465e+00
3.070000000000000000e+02 2.077931022644042969e+01 -9.943524360656738281e+00 1.393623709678649902e+00 -2.583680629730224609e+00 -3.570170700550079346e-01 1.137653827667236328e+00
3.080000000000000000e+02 2.119953727722167969e+01 -9.972019195556640625e+00 1.126494884490966797e+00 -2.650199651718139648e+00 -4.571114778518676758e-01 9.346974492073059082e-01
3.090000000000000000e+02 2.095755386352539062e+01 -9.843400001525878906e+00 9.813115000724792480e-01 -2.595203876495361328e+00 -4.841677248477935791e-01 1.096983671188354492e+00
3.100000000000000000e+02 2.169125556945800781e+01 -1.084499263763427734e+01 4.607956886291503906e+00 -3.119908809661865234e+00 4.464144706726074219e-01 -2.705064415931701660e-01
3.110000000000000000e+02 2.187457084655761719e+01 -1.139915275573730469e+01 8.426544189453125000e+00 -3.877463817596435547e+00 1.364724040031433105e+00 6.913378834724426270e-01
3.120000000000000000e+02 2.183123397827148438e+01 -1.123192310333251953e+01 7.239258766174316406e+00 -3.760473012924194336e+00 1.043635725975036621e+00 -1.291259527206420898e-01
3.130000000000000000e+02 2.180966758728027344e+01 -1.162343978881835938e+01 9.348903656005859375e+00 -4.253584861755371094e+00 1.528595566749572754e+00 1.784915566444396973e+00
3.140000000000000000e+02 2.248832893371582031e+01 -1.207400512695312500e+01 1.242852020263671875e+01 -1.042774796485900879e+00 3.415723800659179688e+00 5.624839305877685547e+00
3.150000000000000000e+02 2.275011062622070312e+01 -1.235258102416992188e+01 1.004782485961914062e+01 1.760291337966918945e+00 3.542434692382812500e+00 6.455122470855712891e+00
3.160000000000000000e+02 2.391029548645019531e+01 -9.787128448486328125e+00 -3.530356585979461670e-01 4.704469680786132812e+00 1.305430173873901367e+00 2.119688987731933594e+00
3.170000000000000000e+02 2.238676071166992188e+01 -9.549446105957031250e+00 -5.790281891822814941e-01 -1.168958067893981934e+00 -5.243958830833435059e-01 8.728922605514526367e-01
3.180000000000000000e+02 2.264586830139160156e+01 -9.339219093322753906e+00 -6.073120832443237305e-01 -2.831809520721435547e-01 -2.671479284763336182e-01 6.203964948654174805e-01
3.190000000000000000e+02 2.260291862487792969e+01 -9.920158386230468750e+00 -5.010344386100769043e-01 -9.988505840301513672e-01 -4.499655067920684814e-01 6.773290038108825684e-01
3.200000000000000000e+02 2.268342971801757812e+01 -1.011443042755126953e+01 -4.197585880756378174e-01 -9.450888037681579590e-01 -4.094541966915130615e-01 6.033445596694946289e-01
3.210000000000000000e+02 2.298894882202148438e+01 -1.021598720550537109e+01 -3.898811340332031250e-01 6.927168965339660645e-01 9.085073322057723999e-02 1.803212016820907593e-01
3.220000000000000000e+02 2.369683265686035156e+01 -1.037963485717773438e+01 -2.177191525697708130e-01 6.574315071105957031e+00 1.906978726387023926e+00 2.197318077087402344e+00
3.230000000000000000e+02 2.244926834106445312e+01 -1.022407150268554688e+01 -5.099614858627319336e-01 -2.295506000518798828e+00 -8.416402339935302734e-01 1.177821397781372070e+00
3.240000000000000000e+02 2.205469512939453125e+01 -1.103041076660156250e+01 5.943268299102783203e+00 -2.867835521697998047e+00 9.226298928260803223e-01 -9.818119406700134277e-01
3.250000000000000000e+02 2.386744499206542969e+01 -1.047711658477783203e+01 9.903477430343627930e-01 7.603673458099365234e+00 2.578206300735473633e+00 3.878120899200439453e+00
3.260000000000000000e+02 2.463078689575195312e+01 -1.187288093566894531e+01 1.014892578125000000e+01 1.192310571670532227e+00 3.402370929718017578e+00 8.601537346839904785e-01
3.270000000000000000e+02 2.457796669006347656e+01 -1.162938785552978516e+01 1.079870605468750000e+01 1.868343949317932129e+00 3.800115108489990234e+00 2.107190608978271484e+00
3.280000000000000000e+02 2.439468765258789062e+01 -1.186165428161621094e+01 1.149576091766357422e+01 2.436539173126220703e+00 4.179690361022949219e+00 -1.248253360390663147e-01
3.290000000000000000e+02 2.439846420288085938e+01 -1.203880786895751953e+01 1.149602699279785156e+01 3.246758460998535156e+00 4.422835826873779297e+00 -5.998350977897644043e-01
3.300000000000000000e+02 2.418327713012695312e+01 -1.211438274383544922e+01 1.091919612884521484e+01 4.250516891479492188e+00 4.550913810729980469e+00 -1.408891677856445312e+00
3.310000000000000000e+02 2.318318748474121094e+01 -1.250276184082031250e+01 6.043750762939453125e+00 7.063854217529296875e+00 3.932281494140625000e+00 3.661295890808105469e+00
3.320000000000000000e+02 2.293231773376464844e+01 -1.245183372497558594e+01 8.077116966247558594e+00 3.742177248001098633e+00 3.545788288116455078e+00 5.575825214385986328e+00
3.330000000000000000e+02 2.283110046386718750e+01 -1.261870574951171875e+01 5.962064266204833984e+00 1.972510933876037598e+00 2.380372524261474609e+00 5.283078193664550781e+00
3.340000000000000000e+02 2.239744949340820312e+01 -1.190716743469238281e+01 1.245854759216308594e+01 -2.356100082397460938e+00 3.030734300613403320e+00 3.785738468170166016e+00
3.350000000000000000e+02 2.232335853576660156e+01 -1.176187896728515625e+01 1.335958194732666016e+01 -4.119603157043457031e+00 2.771993637084960938e+00 2.224498510360717773e+00
3.360000000000000000e+02 2.229248809814453125e+01 -1.109073162078857422e+01 7.011557579040527344e+00 -2.422824859619140625e+00 1.376619696617126465e+00 -1.470178008079528809e+00
3.370000000000000000e+02 2.234781646728515625e+01 -1.210987186431884766e+01 1.068329906463623047e+01 -2.091438055038452148e+00 2.577558040618896484e+00 5.003367424011230469e+00
3.380000000000000000e+02 2.158655357360839844e+01 -9.586674690246582031e+00 -3.647798895835876465e-01 -2.762955665588378906e+00 -9.383206963539123535e-01 1.489799618721008301e+00
3.390000000000000000e+02 2.235261535644531250e+01 -1.054566001892089844e+01 1.207920551300048828e+00 -1.830737709999084473e+00 -1.868451535701751709e-01 -6.831181794404983521e-02
3.400000000000000000e+02 2.280435562133789062e+01 -8.786501884460449219e+00 -8.978205323219299316e-01 4.716196954250335693e-01 -1.278602480888366699e-01 6.804902553558349609e-01
3.410000000000000000e+02 2.307502174377441406e+01 -8.849328994750976562e+00 -9.118430018424987793e-01 1.163310885429382324e+00 7.544034719467163086e-02 6.650337576866149902e-01
3.420000000000000000e+02 2.324614906311035156e+01 -9.682384490966796875e+00 -6.684933900833129883e-01 2.151996374130249023e+00 4.450509250164031982e-01 5.158132910728454590e-01
3.430000000000000000e+02 2.216003990173339844e+01 -1.060890674591064453e+01 2.254132509231567383e+00 -2.016363620758056641e+00 7.133070379495620728e-02 -4.856544435024261475e-01
3.440000000000000000e+02 2.203963088989257812e+01 -1.140720367431640625e+01 9.210227966308593750e+00 -3.913072347640991211e+00 1.589146494865417480e+00 1.214705631136894226e-01
3.450000000000000000e+02 2.200578498840332031e+01 -1.017362594604492188e+01 4.886711537837982178e-01 -2.421357393264770508e+00 -5.798058509826660156e-01 7.154935598373413086e-01
3.460000000000000000e+02 2.172285079956054688e+01 -1.037305641174316406e+01 2.019194841384887695e+00 -2.603290557861328125e+00 -1.752286851406097412e-01 2.612575590610504150e-01
3.470000000000000000e+02 2.197032356262207031e+01 -1.037956142425537109e+01 1.333878874778747559e+00 -2.322951078414916992e+00 -2.967216372489929199e-01 1.638855189085006714e-01
3.480000000000000000e+02 2.195522689819335938e+01 -1.056585502624511719e+01 2.694166421890258789e+00 -2.380974054336547852e+00 9.395765513181686401e-02 -2.923416793346405029e-01
3.490000000000000000e+02 2.177149200439453125e+01 -1.057301807403564453e+01 3.003169775009155273e+00 -2.750714540481567383e+00 7.573653012514114380e-02 -1.099948436021804810e-01
3.500000000000000000e+02 2.235088348388671875e+01 -8.854480743408203125e+00 -8.465613722801208496e-01 -7.205858826637268066e-01 -4.701441824436187744e-01 8.337929844856262207e-01
3.510000000000000000e+02 2.114455795288085938e+01 -9.765911102294921875e+00 5.900053977966308594e-01 -2.619448423385620117e+00 -6.088328957557678223e-01 1.166535139083862305e+00
3.520000000000000000e+02 2.149296951293945312e+01 -1.007557487487792969e+01 1.148007869720458984e+00 -2.666381835937500000e+00 -4.555121660232543945e-01 7.408494949340820312e-01
3.530000000000000000e+02 2.305058097839355469e+01 -9.793110847473144531e+00 -5.498900413513183594e-01 1.384869933128356934e+00 2.504939734935760498e-01 3.501588106155395508e-01
3.540000000000000000e+02 2.135828399658203125e+01 -9.943213462829589844e+00 1.098024725914001465e+00 -2.627072811126708984e+00 -4.587144255638122559e-01 9.327671527862548828e-01
3.550000000000000000e+02 2.131757926940917969e+01 -7.648752212524414062e+00 -1.162561893463134766e+00 -1.567114591598510742e+00 -8.189029693603515625e-01 1.340921521186828613e+00
3.560000000000000000e+02 2.217542076110839844e+01 -7.469080448150634766e+00 -1.137280821800231934e+00 -3.727422654628753662e-01 -4.530069231986999512e-01 8.730707168579101562e-01
3.570000000000000000e+02 2.137401962280273438e+01 -6.559199810028076172e+00 -1.363507270812988281e+00 -9.713781476020812988e-01 -7.004656195640563965e-01 1.164318084716796875e+00
3.580000000000000000e+02 2.261016654968261719e+01 -8.091979026794433594e+00 -9.749814271926879883e-01 4.627006128430366516e-02 -2.786134183406829834e-01 7.101404070854187012e-01
3.590000000000000000e+02 2.275834083557128906e+01 -7.904550075531005859e+00 -1.091021060943603516e+00 3.645872771739959717e-01 -2.179301381111145020e-01 7.674889564514160156e-01
3.600000000000000000e+02 2.096566200256347656e+01 -6.041215896606445312e+00 -1.483283519744873047e+00 -1.067972421646118164e+00 -7.653767466545104980e-01 1.211754679679870605e+00
3.610000000000000000e+02 2.043014335632324219e+01 -6.557397365570068359e+00 -1.562888026237487793e+00 -1.915682911872863770e+00 -1.043571233749389648e+00 1.648074984550476074e+00
3.620000000000000000e+02 2.087382316589355469e+01 -7.120327949523925781e+00 -1.273827672004699707e+00 -1.719850420951843262e+00 -8.981034159660339355e-01 1.490986585617065430e+00
3.630000000000000000e+02 2.178245735168457031e+01 -7.042677402496337891e+00 -1.166183590888977051e+00 -7.012290358543395996e-01 -5.602238178253173828e-01 1.022755861282348633e+00
3.640000000000000000e+02 2.172189712524414062e+01 -8.488507270812988281e+00 -1.012647509574890137e+00 -1.680580735206604004e+00 -8.079684972763061523e-01 1.299926161766052246e+00
3.650000000000000000e+02 2.203970909118652344e+01 -8.651093482971191406e+00 -9.210539460182189941e-01 -1.371142745018005371e+00 -6.876590251922607422e-01 1.047427058219909668e+00
3.660000000000000000e+02 2.201726531982421875e+01 -8.382956504821777344e+00 -9.549639225006103516e-01 -9.996545314788818359e-01 -5.863855481147766113e-01 1.032380819320678711e+00
3.670000000000000000e+02 2.227213859558105469e+01 -8.414327621459960938e+00 -9.355370998382568359e-01 -5.915022492408752441e-01 -4.581118226051330566e-01 7.943063378334045410e-01
3.680000000000000000e+02 2.242276954650878906e+01 -8.245938301086425781e+00 -9.520734548568725586e-01 -2.173961699008941650e-01 -3.508408963680267334e-01 7.416686415672302246e-01
3.690000000000000000e+02 2.242075157165527344e+01 -7.818336009979248047e+00 -1.032526016235351562e+00 -1.194385588169097900e-01 -3.455893695354461670e-01 8.351929187774658203e-01
3.700000000000000000e+02 2.213206481933593750e+01 -8.085471153259277344e+00 -9.239938259124755859e-01 -6.763368844985961914e-01 -4.800992310047149658e-01 9.306643009185791016e-01
3.710000000000000000e+02 2.176358985900878906e+01 -7.957014560699462891e+00 -1.073202490806579590e+00 -1.316970825195312500e+00 -7.170520424842834473e-01 1.127074241638183594e+00
3.720000000000000000e+02 2.216054916381835938e+01 -8.551428794860839844e+00 -1.048570036888122559e+00 -8.294223546981811523e-01 -5.633977055549621582e-01 9.090573191642761230e-01
3.730000000000000000e+02 2.191065216064453125e+01 -8.706203460693359375e+00 -9.831852912902832031e-01 -1.759636998176574707e+00 -8.228467106819152832e-01 1.183394670486450195e+00
3.740000000000000000e+02 2.202198219299316406e+01 -8.559944152832031250e+00 -1.091955780982971191e+00 -1.312593936920166016e+00 -7.213649153709411621e-01 1.032060146331787109e+00
3.750000000000000000e+02 1.992575645446777344e+01 -4.947409152984619141e+00 -1.660931587219238281e+00 -1.366019964218139648e+00 -9.080854654312133789e-01 1.452036976814270020e+00
3.760000000000000000e+02 1.936590194702148438e+01 -4.393997669219970703e+00 -1.857027769088745117e+00 -1.351440429687500000e+00 -9.625404477119445801e-01 1.506162047386169434e+00
3.770000000000000000e+02 2.048459243774414062e+01 -5.500192165374755859e+00 -1.549999475479125977e+00 -1.261240124702453613e+00 -8.433718681335449219e-01 1.284851670265197754e+00
3.780000000000000000e+02 1.880515289306640625e+01 -3.840278863906860352e+00 -1.939460277557373047e+00 -1.353480935096740723e+00 -9.878823757171630859e-01 1.461379408836364746e+00
3.790000000000000000e+02 1.885587120056152344e+01 -4.930348396301269531e+00 -1.962622046470642090e+00 -1.791247248649597168e+00 -1.126160740852355957e+00 1.863928437232971191e+00
3.800000000000000000e+02 1.994004440307617188e+01 -6.002428531646728516e+00 -1.804433465003967285e+00 -1.871316313743591309e+00 -1.102724909782409668e+00 1.764474511146545410e+00
3.810000000000000000e+02 1.831238174438476562e+01 -4.393686294555664062e+00 -2.265548944473266602e+00 -1.855131745338439941e+00 -1.236204147338867188e+00 1.950048565864562988e+00
3.820000000000000000e+02 1.939846801757812500e+01 -5.466702461242675781e+00 -1.870780944824218750e+00 -1.759499192237854004e+00 -1.089084029197692871e+00 1.798222303390502930e+00
3.830000000000000000e+02 1.695117187500000000e+01 -2.380243301391601562e+00 -2.139990806579589844e+00 -1.242115497589111328e+00 -1.014631867408752441e+00 1.530298471450805664e+00
3.840000000000000000e+02 1.651630020141601562e+01 -2.979079723358154297e+00 -2.436279535293579102e+00 -1.395421147346496582e+00 -1.149510264396667480e+00 1.827310085296630859e+00
3.850000000000000000e+02 1.590384101867675781e+01 -2.523920059204101562e+00 -2.627062082290649414e+00 -1.376487731933593750e+00 -1.201064944267272949e+00 1.806082248687744141e+00
3.860000000000000000e+02 1.712716102600097656e+01 -3.436568260192871094e+00 -2.430841207504272461e+00 -1.451075077056884766e+00 -1.164574861526489258e+00 1.856345057487487793e+00
3.870000000000000000e+02 1.758174324035644531e+01 -2.852491855621337891e+00 -2.031570434570312500e+00 -1.367582559585571289e+00 -1.019745826721191406e+00 1.574222564697265625e+00
3.880000000000000000e+02 1.773609352111816406e+01 -3.896142244338989258e+00 -2.469824790954589844e+00 -1.685059905052185059e+00 -1.246465444564819336e+00 1.945110559463500977e+00
3.890000000000000000e+02 1.821038436889648438e+01 -3.326825857162475586e+00 -1.949649930000305176e+00 -1.417320966720581055e+00 -1.010091304779052734e+00 1.484834790229797363e+00
3.900000000000000000e+02 1.631900405883789062e+01 -1.910323858261108398e+00 -2.120885372161865234e+00 -1.194763183593750000e+00 -9.946945309638977051e-01 1.425725817680358887e+00
3.910000000000000000e+02 1.460399055480957031e+01 -1.730789542198181152e+00 -2.545461893081665039e+00 -9.467586874961853027e-01 -1.047666192054748535e+00 1.531830072402954102e+00
3.920000000000000000e+02 1.394003677368164062e+01 -1.356149435043334961e+00 -2.450288534164428711e+00 -8.711111545562744141e-01 -9.964199066162109375e-01 1.445749521255493164e+00
3.930000000000000000e+02 1.327490711212158203e+01 -9.841976165771484375e-01 -2.497848272323608398e+00 -8.297847509384155273e-01 -9.982898831367492676e-01 1.358170032501220703e+00
3.940000000000000000e+02 1.429506587982177734e+01 -7.068015336990356445e-01 -2.082178115844726562e+00 -9.128817915916442871e-01 -8.985179662704467773e-01 1.295713067054748535e+00
3.950000000000000000e+02 1.497913169860839844e+01 -1.092790365219116211e+00 -2.080195188522338867e+00 -1.055593252182006836e+00 -9.407365322113037109e-01 1.406578540802001953e+00
3.960000000000000000e+02 1.526644039154052734e+01 -2.107936620712280273e+00 -2.700330734252929688e+00 -1.177578091621398926e+00 -1.163372635841369629e+00 1.691871166229248047e+00
3.970000000000000000e+02 1.566169452667236328e+01 -1.481285929679870605e+00 -2.062240123748779297e+00 -1.177860975265502930e+00 -9.720302820205688477e-01 1.399757862091064453e+00
3.980000000000000000e+02 1.360982322692871094e+01 -3.235010504722595215e-01 -1.973208069801330566e+00 -8.547533154487609863e-01 -8.483884334564208984e-01 1.176032543182373047e+00
3.990000000000000000e+02 1.136861705780029297e+01 6.672526597976684570e-01 -1.761561036109924316e+00 -5.623452663421630859e-01 -6.971718668937683105e-01 8.703859448432922363e-01
4.000000000000000000e+02 1.043688488006591797e+01 2.462611943483352661e-01 -2.166153430938720703e+00 -4.511001408100128174e-01 -7.851760387420654297e-01 7.798002362251281738e-01
4.010000000000000000e+02 1.187135696411132812e+01 -3.428127467632293701e-01 -2.217918395996093750e+00 -5.068450570106506348e-01 -8.174290060997009277e-01 1.029332637786865234e+00
4.020000000000000000e+02 1.258574008941650391e+01 -6.459255814552307129e-01 -2.434530735015869141e+00 -6.696512103080749512e-01 -9.312545657157897949e-01 1.203807353973388672e+00
4.030000000000000000e+02 1.288842964172363281e+01 2.964896708726882935e-02 -1.864778161048889160e+00 -8.070284128189086914e-01 -8.015419840812683105e-01 1.107033133506774902e+00
4.040000000000000000e+02 1.060655117034912109e+01 9.770575761795043945e-01 -1.475635290145874023e+00 -5.688205361366271973e-01 -6.133367419242858887e-01 7.174541354179382324e-01
4.050000000000000000e+02 1.212970542907714844e+01 3.511690795421600342e-01 -1.799745440483093262e+00 -6.692402958869934082e-01 -7.406957149505615234e-01 1.050816416740417480e+00
4.060000000000000000e+02 1.115460968017578125e+01 -4.513646289706230164e-02 -2.077727794647216797e+00 -4.334866702556610107e-01 -7.533643245697021484e-01 9.407085776329040527e-01
4.070000000000000000e+02 9.852642059326171875e+00 1.127630591392517090e+00 -1.296452641487121582e+00 -4.828093349933624268e-01 -5.337786078453063965e-01 7.404639124870300293e-01
4.080000000000000000e+02 8.934872627258300781e+00 3.838182985782623291e-01 -1.287723779678344727e+00 -1.930526457726955414e-02 -3.921087384223937988e-01 2.001924812793731689e-01
4.090000000000000000e+02 8.173450469970703125e+00 3.805501163005828857e-01 -9.391756057739257812e-01 -3.138881549239158630e-02 -2.911693453788757324e-01 1.436574608087539673e-01
4.100000000000000000e+02 7.412311553955078125e+00 3.753646016120910645e-01 -6.872128248214721680e-01 -1.133875083178281784e-02 -2.095654755830764771e-01 1.036953404545783997e-01
4.110000000000000000e+02 6.650998115539550781e+00 3.733131885528564453e-01 -4.923594892024993896e-01 -9.304570965468883514e-03 -1.504992246627807617e-01 8.195232599973678589e-02
4.120000000000000000e+02 5.128285408020019531e+00 3.666158020496368408e-01 -2.187018841505050659e-01 -5.561422090977430344e-03 -6.727898865938186646e-02 5.084637552499771118e-02
4.130000000000000000e+02 4.367387771606445312e+00 3.671060204505920410e-01 -1.253911107778549194e-01 -6.159751676023006439e-03 -3.946525976061820984e-02 3.766976669430732727e-02
4.140000000000000000e+02 2.846023797988891602e+00 3.604519069194793701e-01 -9.707720018923282623e-03 -7.316287606954574585e-03 -5.107202101498842239e-03 1.627239771187305450e-02
4.150000000000000000e+02 2.087270259857177734e+00 3.580870926380157471e-01 1.160411629825830460e-02 -3.058781148865818977e-03 2.563600428402423859e-03 6.440286058932542801e-03
4.160000000000000000e+02 2.412720918655395508e+00 1.098087072372436523e+00 -4.835423827171325684e-02 -2.710111625492572784e-02 -2.263660542666912079e-02 3.829573467373847961e-02
4.170000000000000000e+02 1.683379054069519043e+00 1.107025504112243652e+00 -1.920878700911998749e-02 -2.036084979772567749e-02 -1.187089085578918457e-02 1.337719149887561798e-02
4.180000000000000000e+02 3.580766618251800537e-01 9.541204571723937988e-01 -1.469908980652689934e-03 6.215839646756649017e-03 1.423779176548123360e-03 -3.846997162327170372e-03
4.190000000000000000e+02 1.340980529785156250e+00 3.670255243778228760e-01 1.044063083827495575e-02 -4.747983533889055252e-03 1.707794261164963245e-03 -3.264267463237047195e-03
4.200000000000000000e+02 3.154525995254516602e+00 1.100451946258544922e+00 -9.333270043134689331e-02 -2.363663353025913239e-02 -3.509080037474632263e-02 6.778710335493087769e-02
4.210000000000000000e+02 3.606339454650878906e+00 3.666762709617614746e-01 -5.513344705104827881e-02 -2.695718780159950256e-03 -1.734874956309795380e-02 2.940179966390132904e-02
4.220000000000000000e+02 5.385943889617919922e+00 1.106615781784057617e+00 -3.262508213520050049e-01 -3.056976757943630219e-02 -1.070461794734001160e-01 1.637276858091354370e-01
4.230000000000000000e+02 5.889441013336181641e+00 3.716900944709777832e-01 -3.404093980789184570e-01 -7.547127548605203629e-03 -1.043869629502296448e-01 6.446652114391326904e-02
4.240000000000000000e+02 7.619125843048095703e+00 1.115364551544189453e+00 -7.699052095413208008e-01 -7.853506505489349365e-02 -2.545320987701416016e-01 3.235326409339904785e-01
4.250000000000000000e+02 8.363317489624023438e+00 1.120550155639648438e+00 -9.814281463623046875e-01 -9.240919351577758789e-02 -3.221512138843536377e-01 4.096803665161132812e-01
4.260000000000000000e+02 9.107789993286132812e+00 1.123818278312683105e+00 -1.259062170982360840e+00 -2.458038181066513062e-01 -4.514598250389099121e-01 6.119148135185241699e-01
4.270000000000000000e+02 9.696672439575195312e+00 3.876306116580963135e-01 -1.900132775306701660e+00 -2.556831836700439453e-01 -6.467447876930236816e-01 4.358465671539306641e-01
4.280000000000000000e+02 1.020380139350891113e+00 1.131703853607177734e+00 -6.142918486148118973e-03 -1.091079227626323700e-02 -5.116112995892763138e-03 -1.754743978381156921e-03
4.290000000000000000e+02 6.610335111618041992e-01 3.917038440704345703e-01 4.961568396538496017e-03 2.058687387034296989e-03 2.106076572090387344e-03 -2.298946026712656021e-03
4.300000000000000000e+02 6.874760627746582031e+00 1.113313198089599609e+00 -5.931562185287475586e-01 -4.380379989743232727e-02 -1.910880059003829956e-01 2.529451549053192139e-01
4.310000000000000000e+02 6.130151271820068359e+00 1.111690044403076172e+00 -4.466444551944732666e-01 -3.919260203838348389e-02 -1.457511186599731445e-01 2.056282013654708862e-01
4.320000000000000000e+02 4.641993999481201172e+00 1.107105970382690430e+00 -2.282569557428359985e-01 -2.895374782383441925e-02 -7.716321200132369995e-02 1.303278803825378418e-01
4.330000000000000000e+02 3.897893905639648438e+00 1.106676340103149414e+00 -1.529338657855987549e-01 -2.575776726007461548e-02 -5.360748618841171265e-02 9.637889266014099121e-02
4.340000000000000000e+02 1.356510353088378906e+01 -2.044676303863525391e+00 -2.003723621368408203e+00 -4.553729891777038574e-01 -7.377289533615112305e-01 9.812158346176147461e-01
4.350000000000000000e+02 1.321007442474365234e+01 -2.694024085998535156e+00 -1.932699799537658691e+00 -9.432634711265563965e-02 -6.081078648567199707e-01 7.159630656242370605e-01
4.360000000000000000e+02 1.258673477172851562e+01 -2.342205762863159180e+00 -1.845226526260375977e+00 -1.986662112176418304e-02 -5.595279335975646973e-01 6.223318576812744141e-01
4.370000000000000000e+02 1.420777034759521484e+01 -2.407426834106445312e+00 -2.155172824859619141e+00 -5.347746610641479492e-01 -8.069842457771301270e-01 1.109339356422424316e+00
4.380000000000000000e+02 1.383262920379638672e+01 -3.045426130294799805e+00 -1.975633025169372559e+00 -2.136485576629638672e-01 -6.567844748497009277e-01 8.744822144508361816e-01
4.390000000000000000e+02 1.445424365997314453e+01 -3.396085023880004883e+00 -2.083905935287475586e+00 -3.025855422019958496e-01 -7.159474492073059082e-01 1.063615083694458008e+00
4.400000000000000000e+02 1.484949779510498047e+01 -2.769434452056884766e+00 -2.133001089096069336e+00 -6.078440546989440918e-01 -8.222535252571105957e-01 1.226016163825988770e+00
4.410000000000000000e+02 1.292164993286132812e+01 -1.681509137153625488e+00 -1.782593965530395508e+00 -3.031223714351654053e-01 -6.257148981094360352e-01 8.177636265754699707e-01
4.420000000000000000e+02 1.245030021667480469e+01 -3.877867937088012695e+00 -1.737453818321228027e+00 4.216941595077514648e-01 -3.947279155254364014e-01 3.384185135364532471e-01
4.430000000000000000e+02 1.168606758117675781e+01 -1.263183403015136719e+01 2.658186674118041992e+00 2.819783687591552734e+00 1.643391132354736328e+00 9.225196242332458496e-01
4.440000000000000000e+02 1.266994857788085938e+01 -1.499128532409667969e+01 5.634643077850341797e+00 3.531422853469848633e+00 2.749819755554199219e+00 3.817709445953369141e+00
4.450000000000000000e+02 1.643752861022949219e+01 -1.337126159667968750e+01 8.086418151855468750e+00 8.514449596405029297e-01 2.681358814239501953e+00 1.828781127929687500e+00
4.460000000000000000e+02 1.523931598663330078e+01 -1.378199481964111328e+01 7.771189689636230469e+00 1.448907494544982910e+00 2.766029119491577148e+00 2.793694734573364258e+00
4.470000000000000000e+02 1.847110939025878906e+01 -1.324015235900878906e+01 7.309665203094482422e+00 1.696195304393768311e-01 2.243785381317138672e+00 9.065515398979187012e-01
4.480000000000000000e+02 1.729360389709472656e+01 -6.528588294982910156e+00 -1.713662624359130859e+00 -6.452772021293640137e-01 -7.076819539070129395e-01 1.558421850204467773e+00
4.490000000000000000e+02 1.627643966674804688e+01 -5.598736286163330078e+00 -1.937870144844055176e+00 -3.531692922115325928e-01 -6.873118281364440918e-01 1.350044131278991699e+00
4.500000000000000000e+02 1.344154644012451172e+01 -3.642236948013305664e+00 -1.916468501091003418e+00 1.251508742570877075e-01 -5.373952984809875488e-01 6.662812232971191406e-01
4.510000000000000000e+02 9.968546867370605469e+00 -2.076930761337280273e+00 -1.418538689613342285e+00 3.036080002784729004e-01 -3.344792127609252930e-01 6.131443008780479431e-02
4.520000000000000000e+02 8.980171203613281250e+00 -2.734514236450195312e+00 -1.254746437072753906e+00 3.811350762844085693e-01 -2.620834112167358398e-01 -1.880715042352676392e-01
4.530000000000000000e+02 3.636307239532470703e+00 -1.900827765464782715e+00 -3.920023739337921143e-01 -6.574241816997528076e-02 -1.373234391212463379e-01 -3.729915022850036621e-01
4.540000000000000000e+02 1.621003270149230957e+00 -1.074367713928222656e+01 2.129662409424781799e-02 -2.430788516998291016e+00 -7.228475809097290039e-01 -6.820008754730224609e-01
4.550000000000000000e+02 1.614585876464843750e+00 -1.763571166992187500e+01 1.524539291858673096e-01 -3.781024932861328125e+00 -1.088571310043334961e+00 -3.297353163361549377e-02
4.560000000000000000e+02 2.102719783782958984e+00 -2.492500305175781250e+01 7.609892636537551880e-02 -1.012660503387451172e+00 -2.809684872627258301e-01 1.368881702423095703e+00
4.570000000000000000e+02 7.299075722694396973e-01 -3.197774314880371094e+01 -2.059595659375190735e-02 1.743702530860900879e+00 5.169319510459899902e-01 2.140052318572998047e-01
4.580000000000000000e+02 1.932276844978332520e+00 -3.770941925048828125e+01 -5.259632319211959839e-02 2.283867359161376953e+00 6.693813204765319824e-01 6.174866482615470886e-02
4.590000000000000000e+02 6.433699727058410645e-01 -3.749927902221679688e+01 -2.550389245152473450e-02 2.630062103271484375e+00 7.813674807548522949e-01 3.758882638067007065e-03
4.600000000000000000e+02 6.149978637695312500e+00 -3.827170944213867188e+01 -2.814977467060089111e-01 1.287327647209167480e+00 3.017489612102508545e-01 1.911268085241317749e-01
4.610000000000000000e+02 1.104992866516113281e+01 -3.625886154174804688e+01 -6.627655625343322754e-01 3.695624172687530518e-01 -8.796094357967376709e-02 1.721513271331787109e-01
4.620000000000000000e+02 1.367073917388916016e+01 -3.033611106872558594e+01 -2.302987098693847656e+00 -5.227606892585754395e-01 -8.477243185043334961e-01 9.138129353523254395e-01
4.630000000000000000e+02 1.241078758239746094e+01 -2.965576362609863281e+01 -1.922850489616394043e+00 -5.688022971153259277e-01 -7.474958300590515137e-01 9.850879311561584473e-01
4.640000000000000000e+02 1.132362079620361328e+01 -2.875586700439453125e+01 -1.257479310035705566e+00 -4.444431662559509277e-01 -5.105767250061035156e-01 7.133151888847351074e-01
4.650000000000000000e+02 1.050730514526367188e+01 -2.975161170959472656e+01 -1.447885036468505859e+00 6.341502070426940918e-01 -2.441204488277435303e-01 3.875612318515777588e-01
4.660000000000000000e+02 1.037893009185791016e+01 -2.772211074829101562e+01 -6.233010292053222656e-01 2.634217143058776855e-01 -1.079637929797172546e-01 3.333445191383361816e-01
4.670000000000000000e+02 6.596401333808898926e-01 -2.629844665527343750e+01 -1.824667118489742279e-02 -1.512659311294555664e+00 -4.592717885971069336e-01 5.179731249809265137e-01
4.680000000000000000e+02 8.570440292358398438e+00 -2.217910766601562500e+01 6.402406096458435059e-01 9.115246772766113281e+00 2.926646232604980469e+00 1.680129408836364746e+00
4.690000000000000000e+02 9.423514366149902344e+00 -1.957154655456542969e+01 1.847989439964294434e+00 8.572540283203125000e+00 3.126158952713012695e+00 3.663640975952148438e+00
4.700000000000000000e+02 8.440068244934082031e+00 -1.916298103332519531e+01 1.747338771820068359e+00 6.650506019592285156e+00 2.519353389739990234e+00 2.240518808364868164e+00
4.710000000000000000e+02 1.069981765747070312e+01 -1.710081291198730469e+01 3.271980285644531250e+00 7.092134475708007812e+00 3.109234333038330078e+00 4.357453823089599609e+00
4.720000000000000000e+02 1.151775932312011719e+01 -1.591858005523681641e+01 5.025644779205322266e+00 5.542117118835449219e+00 3.170328617095947266e+00 4.291748046875000000e+00
4.730000000000000000e+02 1.199727916717529297e+01 -1.384313869476318359e+01 3.986332654953002930e+00 3.506480455398559570e+00 2.247843980789184570e+00 2.225653886795043945e+00
4.740000000000000000e+02 5.391862988471984863e-01 -1.070894241333007812e+01 7.289634086191654205e-03 -3.222957134246826172e+00 -9.647002816200256348e-01 -2.351491153240203857e-01
4.750000000000000000e+02 1.773888778686523438e+01 -3.765212249755859375e+01 -7.160444855690002441e-01 -3.489562869071960449e-01 -3.195002377033233643e-01 2.251090854406356812e-01
4.760000000000000000e+02 2.117873954772949219e+01 -3.768613815307617188e+01 -8.965742588043212891e-01 -2.772746682167053223e-01 -3.521546721458435059e-01 1.708410531282424927e-01
4.770000000000000000e+02 2.332208442687988281e+01 -3.117401123046875000e+01 -1.191641211509704590e+00 -1.979668065905570984e-02 -3.634313941001892090e-01 3.658684715628623962e-02
4.780000000000000000e+02 1.588611316680908203e+01 -3.265433883666992188e+01 -1.571242332458496094e+00 -3.467118144035339355e-01 -5.753862261772155762e-01 4.594457149505615234e-01
4.790000000000000000e+02 1.636589813232421875e+01 -3.121905899047851562e+01 -2.216168403625488281e+00 -2.009923160076141357e-01 -7.251482605934143066e-01 5.023804903030395508e-01
4.800000000000000000e+02 2.361927604675292969e+01 -3.865486526489257812e+01 -8.688579797744750977e-01 -2.488096058368682861e-01 -3.353002667427062988e-01 6.526228040456771851e-02
4.810000000000000000e+02 2.226515197753906250e+01 -3.577529907226562500e+01 -1.092882275581359863e+00 -1.669080257415771484e-01 -3.779370784759521484e-01 1.602320820093154907e-01
4.820000000000000000e+02 2.873107910156250000e+01 -3.192883491516113281e+01 -1.361847996711730957e+00 -2.681729383766651154e-02 -4.165996015071868896e-01 9.273023158311843872e-02
4.830000000000000000e+02 2.638682365417480469e+01 -3.874144363403320312e+01 -8.782432079315185547e-01 -1.809348762035369873e-01 -3.177534341812133789e-01 -2.683749981224536896e-02
4.840000000000000000e+02 3.314662170410156250e+01 -3.603043365478515625e+01 -1.148386478424072266e+00 -1.488707493990659714e-02 -3.489820659160614014e-01 -2.389282137155532837e-01
4.850000000000000000e+02 3.275000762939453125e+01 -3.259085845947265625e+01 -2.097952842712402344e+00 3.614866640418767929e-03 -6.283013820648193359e-01 2.901128232479095459e-01
4.860000000000000000e+02 3.142772483825683594e+01 -3.229444503784179688e+01 -1.641166567802429199e+00 -6.151038780808448792e-02 -5.108031034469604492e-01 2.061793059110641479e-01
4.870000000000000000e+02 3.534525680541992188e+01 -3.468210983276367188e+01 -1.529662370681762695e+00 -1.136480644345283508e-01 -4.929931461811065674e-01 2.789049968123435974e-02
4.880000000000000000e+02 3.776060104370117188e+01 -4.116360473632812500e+01 -8.591992259025573730e-01 1.813883900642395020e+00 2.864054143428802490e-01 1.897196024656295776e-01
4.890000000000000000e+02 3.968422698974609375e+01 -3.210117340087890625e+01 -6.745355725288391113e-01 1.306998014450073242e+00 1.897387206554412842e-01 6.169579029083251953e-01
4.900000000000000000e+02 3.552811431884765625e+01 -3.305869293212890625e+01 -2.918838977813720703e+00 -6.581655889749526978e-02 -8.953966498374938965e-01 1.082420721650123596e-02
4.910000000000000000e+02 3.410824203491210938e+01 -3.290906906127929688e+01 -2.663591146469116211e+00 -1.811149269342422485e-01 -8.534118533134460449e-01 1.912137120962142944e-01
4.920000000000000000e+02 4.225020217895507812e+01 -3.593770599365234375e+01 -1.461564183235168457e+00 4.790861606597900391e+00 9.987893104553222656e-01 7.337535023689270020e-01
4.930000000000000000e+02 4.260360717773437500e+01 -3.832342529296875000e+01 -1.507556796073913574e+00 4.533094406127929688e+00 9.076612591743469238e-01 5.298842787742614746e-01
4.940000000000000000e+02 4.090038681030273438e+01 -3.150086975097656250e+01 3.384151458740234375e-01 4.226855278015136719e+00 1.369581103324890137e+00 1.737003684043884277e+00
4.950000000000000000e+02 4.237194824218750000e+01 -2.803739547729492188e+01 8.378560543060302734e-01 1.334268474578857422e+01 4.254162311553955078e+00 8.228163719177246094e-01
4.960000000000000000e+02 4.219299697875976562e+01 -2.937463760375976562e+01 1.353318452835083008e+00 1.033119201660156250e+01 3.505353212356567383e+00 1.962604761123657227e+00
4.970000000000000000e+02 4.681370544433593750e+01 -4.096145629882812500e+01 -1.743006706237792969e+00 5.833927631378173828e+00 1.227276325225830078e+00 -1.299421116709709167e-02
4.980000000000000000e+02 5.003743743896484375e+01 -3.569400787353515625e+01 -5.924816131591796875e-01 6.256843090057373047e+00 1.699308514595031738e+00 -6.513788104057312012e-01
4.990000000000000000e+02 5.264229965209960938e+01 -3.008525466918945312e+01 2.252564907073974609e+00 5.687748432159423828e+00 2.382094144821166992e+00 -1.582120180130004883e+00
5.000000000000000000e+02 5.543725585937500000e+01 -2.933830451965332031e+01 1.248890161514282227e+00 7.317842483520507812e+00 2.570019721984863281e+00 2.287449240684509277e-01
5.010000000000000000e+02 5.529112243652343750e+01 -2.779013061523437500e+01 1.623251199722290039e+00 5.495725154876708984e+00 2.135692834854125977e+00 5.995649099349975586e-01
5.020000000000000000e+02 5.953614044189453125e+01 -2.461309242248535156e+01 2.951129436492919922e+00 1.855553627014160156e+00 1.442004919052124023e+00 2.248141527175903320e+00
5.030000000000000000e+02 5.487306976318359375e+01 -1.619653701782226562e+01 -5.758923053741455078e+00 -1.588708877563476562e+00 -2.204289674758911133e+00 2.198426961898803711e+00
5.040000000000000000e+02 5.642818069458007812e+01 -1.664056015014648438e+01 -5.724411964416503906e+00 -6.844557523727416992e-01 -1.922660350799560547e+00 1.225458383560180664e+00
5.050000000000000000e+02 5.195747756958007812e+01 -1.281417465209960938e+01 -6.937209367752075195e-01 8.532870411872863770e-01 4.786983877420425415e-02 3.905379772186279297e-01
5.060000000000000000e+02 5.091088867187500000e+01 -1.325884532928466797e+01 -1.325280308723449707e+00 2.471186161041259766e+00 3.437717556953430176e-01 5.842506885528564453e-01
5.070000000000000000e+02 4.854558563232421875e+01 -6.642990112304687500e+00 9.865473955869674683e-03 4.555040836334228516e+00 1.369471907615661621e+00 -1.019138455390930176e+00
5.080000000000000000e+02 4.621402359008789062e+01 -4.607553482055664062e-01 5.301894545555114746e-01 5.345901489257812500e+00 1.762827277183532715e+00 -2.016880750656127930e+00
5.090000000000000000e+02 4.561466217041015625e+01 7.206796407699584961e-01 7.225110530853271484e-01 5.591924667358398438e+00 1.894330739974975586e+00 -2.257593870162963867e+00
5.100000000000000000e+02 4.260946273803710938e+01 8.967788696289062500e+00 1.697587013244628906e+00 1.253992176055908203e+01 4.271252632141113281e+00 -3.437793731689453125e+00
5.110000000000000000e+02 4.070989990234375000e+01 1.178305244445800781e+01 1.536580324172973633e+00 1.074435424804687500e+01 3.684280395507812500e+00 -1.114316821098327637e+00
5.120000000000000000e+02 4.240623092651367188e+01 1.627745437622070312e+01 6.735500097274780273e-01 1.125075340270996094e+01 3.577291011810302734e+00 1.385357379913330078e+00
5.130000000000000000e+02 4.311546707153320312e+01 1.907426452636718750e+01 7.206849455833435059e-01 9.084261894226074219e+00 2.941484212875366211e+00 2.158039331436157227e+00
5.140000000000000000e+02 4.453119277954101562e+01 2.313567161560058594e+01 1.205448746681213379e+00 6.782471179962158203e+00 2.396375894546508789e+00 2.585597991943359375e+00
5.150000000000000000e+02 3.765161895751953125e+01 2.901506042480468750e+01 -3.836460113525390625e-01 4.907849311828613281e+00 1.357260942459106445e+00 -2.041688561439514160e-01
5.160000000000000000e+02 2.770468139648437500e+01 4.078070449829101562e+01 -8.366078734397888184e-01 3.284557819366455078e+00 7.343850135803222656e-01 -9.261065721511840820e-02
5.170000000000000000e+02 1.776912689208984375e+01 4.054180908203125000e+01 -3.452247381210327148e-01 1.477682352066040039e+00 3.397372663021087646e-01 -8.519459515810012817e-02
5.180000000000000000e+02 2.280006599426269531e+01 4.053796005249023438e+01 -5.542608499526977539e-01 2.352876186370849609e+00 5.395846366882324219e-01 -1.011439338326454163e-01
5.190000000000000000e+02 1.745998191833496094e+01 3.680333328247070312e+01 -2.713867127895355225e-01 1.375862240791320801e+00 3.313426673412322998e-01 -2.109262049198150635e-01
5.200000000000000000e+02 1.583997917175292969e+01 2.988399124145507812e+01 4.360808059573173523e-02 8.743212223052978516e-01 2.753787934780120850e-01 -3.176006376743316650e-01
5.210000000000000000e+02 1.607361412048339844e+01 2.134140777587890625e+01 4.840139150619506836e-01 5.617963671684265137e-01 3.137430846691131592e-01 -2.163659483194351196e-01
5.220000000000000000e+02 1.431715679168701172e+01 1.633815765380859375e+01 5.826535820960998535e-01 3.947343677282333374e-02 1.866381019353866577e-01 8.113542199134826660e-02
5.230000000000000000e+02 1.482016563415527344e+01 6.558176040649414062e+00 2.290598154067993164e-01 -5.175864100456237793e-01 -8.655797690153121948e-02 5.447782278060913086e-01
5.240000000000000000e+02 1.084050559997558594e+01 1.778105735778808594e+00 -1.074100136756896973e+00 -6.601337194442749023e-01 -5.202701687812805176e-01 8.413661718368530273e-01
5.250000000000000000e+02 1.394055843353271484e+01 3.113910853862762451e-01 -1.580008625984191895e+00 -9.017840623855590820e-01 -7.445377707481384277e-01 1.088767051696777344e+00
5.260000000000000000e+02 1.499646759033203125e+01 5.220990180969238281e-01 -1.303628325462341309e+00 -9.457134008407592773e-01 -6.748024821281433105e-01 1.013145923614501953e+00
5.270000000000000000e+02 1.569032096862792969e+01 1.070409938693046570e-01 -1.350533366203308105e+00 -9.712417721748352051e-01 -6.965325474739074707e-01 1.035035252571105957e+00
5.280000000000000000e+02 1.669589233398437500e+01 -1.332313537597656250e+00 -1.734567642211914062e+00 -1.108718633651733398e+00 -8.529859185218811035e-01 1.225776910781860352e+00
5.290000000000000000e+02 1.922344589233398438e+01 -3.309151411056518555e+00 -1.665173888206481934e+00 -1.075630545616149902e+00 -8.222413659095764160e-01 1.191117405891418457e+00
5.300000000000000000e+02 1.979692649841308594e+01 -3.866791248321533203e+00 -1.618353605270385742e+00 -9.985780119895935059e-01 -7.850794792175292969e-01 1.170460104942321777e+00
5.310000000000000000e+02 2.180502510070800781e+01 -6.031573772430419922e+00 -1.338786602020263672e+00 -3.137786090373992920e-01 -4.957695603370666504e-01 9.061385989189147949e-01
5.320000000000000000e+02 2.215592384338378906e+01 -5.533900737762451172e+00 -1.322795271873474121e+00 6.368157267570495605e-02 -3.777340948581695557e-01 8.030629158020019531e-01
5.330000000000000000e+02 2.338005447387695312e+01 -8.131504058837890625e+00 -1.059050083160400391e+00 1.551595568656921387e+00 1.477636545896530151e-01 8.297849297523498535e-01
5.340000000000000000e+02 2.499204254150390625e+01 -1.086772060394287109e+01 6.252859592437744141e+00 2.275282144546508789e+00 2.558442592620849609e+00 4.122834682464599609e+00
5.350000000000000000e+02 2.535463905334472656e+01 -1.291498851776123047e+01 2.726322650909423828e+00 3.572039604187011719e-01 9.250579476356506348e-01 -1.658611774444580078e+00
5.360000000000000000e+02 2.513611984252929688e+01 -1.192313003540039062e+01 7.815330505371093750e+00 5.069909691810607910e-01 2.496696472167968750e+00 3.810555934906005859e-01
5.370000000000000000e+02 2.387877845764160156e+01 -1.467287445068359375e+01 -1.038582515716552734e+01 -1.231836080551147461e+00 -3.485298395156860352e+00 3.629976272583007812e+00
5.380000000000000000e+02 2.204150581359863281e+01 -1.261107635498046875e+01 6.456087589263916016e+00 -2.222635269165039062e+00 1.270035624504089355e+00 5.398483753204345703e+00
5.390000000000000000e+02 2.220104980468750000e+01 -1.325468158721923828e+01 1.071808338165283203e+00 -1.500483036041259766e+00 -1.286024302244186401e-01 5.411688804626464844e+00
5.400000000000000000e+02 2.104326248168945312e+01 -1.376555156707763672e+01 -2.673222780227661133e+00 -1.478429317474365234e+00 -1.245495676994323730e+00 2.675095319747924805e+00
5.410000000000000000e+02 2.078407287597656250e+01 -1.042217159271240234e+01 2.976988554000854492e+00 -2.861984729766845703e+00 3.450115025043487549e-02 8.886080384254455566e-01
5.420000000000000000e+02 5.702233123779296875e+01 -3.601697158813476562e+01 -1.898260116577148438e-01 4.074081420898437500e+00 1.165276646614074707e+00 -1.773900151252746582e+00
5.430000000000000000e+02 5.746904373168945312e+01 -4.114302062988281250e+01 -1.948627978563308716e-01 3.405287027359008789e+00 9.631273150444030762e-01 -4.010489881038665771e-01
5.440000000000000000e+02 5.833283996582031250e+01 -3.469423294067382812e+01 8.499894738197326660e-01 2.472076892852783203e+00 9.966199398040771484e-01 -1.678267598152160645e+00
5.450000000000000000e+02 5.640191650390625000e+01 -3.252191925048828125e+01 2.230004072189331055e+00 7.405986309051513672e+00 2.890797138214111328e+00 -3.279502630233764648e+00
5.460000000000000000e+02 5.544482421875000000e+01 -3.357218170166015625e+01 7.113713026046752930e-01 5.710439205169677734e+00 1.926543116569519043e+00 -1.302485704421997070e+00
5.470000000000000000e+02 6.275516891479492188e+01 -3.735494613647460938e+01 4.841683506965637207e-01 2.394265681505203247e-01 2.170784771442413330e-01 -2.020046263933181763e-01
5.480000000000000000e+02 6.288258361816406250e+01 -3.485021591186523438e+01 -1.353663444519042969e+00 -1.730640679597854614e-01 -4.580182731151580811e-01 -1.678606122732162476e-01
5.490000000000000000e+02 6.546499633789062500e+01 -3.448095703125000000e+01 -1.235783457756042480e+00 1.331033371388912201e-02 -3.667419552803039551e-01 -9.175215661525726318e-02
5.500000000000000000e+02 6.394457244873046875e+01 -3.607646560668945312e+01 -2.058941721916198730e-01 1.523964572697877884e-02 -5.719636008143424988e-02 2.593462355434894562e-03
5.510000000000000000e+02 6.160481643676757812e+01 -3.521782684326171875e+01 -9.349753856658935547e-01 2.079387903213500977e-01 -2.181109786033630371e-01 -3.636198937892913818e-01
5.520000000000000000e+02 5.992873764038085938e+01 -3.534437179565429688e+01 -4.861709102988243103e-02 7.918251156806945801e-01 2.229624092578887939e-01 -9.896469116210937500e-01
5.530000000000000000e+02 6.888700866699218750e+01 -3.697226333618164062e+01 -2.357354760169982910e-02 2.928184509277343750e+00 8.713832497596740723e-01 9.276084303855895996e-01
5.540000000000000000e+02 7.028892517089843750e+01 -3.510620880126953125e+01 -4.865605533123016357e-01 4.292621135711669922e+00 1.141818165779113770e+00 1.090197443962097168e+00
5.550000000000000000e+02 7.006262207031250000e+01 -3.142610549926757812e+01 1.154562592506408691e+00 4.069394111633300781e+00 1.567187070846557617e+00 2.066555261611938477e+00
5.560000000000000000e+02 6.974534606933593750e+01 -3.359410476684570312e+01 -2.726815938949584961e-01 3.681064605712890625e+00 1.022514939308166504e+00 1.319069743156433105e+00
5.570000000000000000e+02 6.907557678222656250e+01 -3.228644561767578125e+01 7.009972929954528809e-01 2.275345563888549805e+00 8.929028511047363281e-01 1.286325335502624512e+00
5.580000000000000000e+02 7.871656799316406250e+01 -4.011897659301757812e+01 -1.085517108440399170e-01 7.630807876586914062e+00 2.256676912307739258e+00 1.196470558643341064e-01
5.590000000000000000e+02 7.777269744873046875e+01 -3.702468872070312500e+01 -1.827011555433273315e-01 7.444292545318603516e+00 2.178477287292480469e+00 -1.386804580688476562e-01
5.600000000000000000e+02 7.807249450683593750e+01 -3.015302085876464844e+01 1.189152449369430542e-01 6.667335987091064453e+00 2.035875320434570312e+00 -4.409133493900299072e-01
5.610000000000000000e+02 7.390629577636718750e+01 -2.592027854919433594e+01 1.102487087249755859e+00 8.694526672363281250e+00 2.939104080200195312e+00 4.919306039810180664e-01
5.620000000000000000e+02 7.805624389648437500e+01 -1.666714859008789062e+01 -1.331940442323684692e-01 7.611111640930175781e+00 2.243375301361083984e+00 -1.272799074649810791e-01
5.630000000000000000e+02 7.806299591064453125e+01 -9.585467338562011719e+00 -5.447390954941511154e-03 6.636960506439208984e+00 1.989453911781311035e+00 -4.634506106376647949e-01
5.640000000000000000e+02 7.811041259765625000e+01 -2.669398069381713867e+00 6.574656814336776733e-02 5.635839462280273438e+00 1.710475802421569824e+00 -3.571434319019317627e-01
5.650000000000000000e+02 7.814772033691406250e+01 4.210118770599365234e+00 1.111138090491294861e-01 5.653625011444091797e+00 1.729421734809875488e+00 3.038117587566375732e-01
5.660000000000000000e+02 7.828712463378906250e+01 1.113106536865234375e+01 -2.175178937613964081e-02 6.901318073272705078e+00 2.063869714736938477e+00 4.536541104316711426e-01
5.670000000000000000e+02 7.821985626220703125e+01 1.802910804748535156e+01 2.119094878435134888e-02 8.105623245239257812e+00 2.438044309616088867e+00 3.803388476371765137e-01
5.680000000000000000e+02 7.701512908935546875e+01 2.221321105957031250e+01 7.665780931711196899e-02 8.673716545104980469e+00 2.625112533569335938e+00 6.328033208847045898e-01
5.690000000000000000e+02 7.932452392578125000e+01 3.212833786010742188e+01 -1.457989960908889771e-02 1.166977977752685547e+01 3.496560096740722656e+00 1.442851424217224121e-01
5.700000000000000000e+02 7.919086456298828125e+01 3.746763229370117188e+01 1.640783436596393585e-02 1.184042930603027344e+01 3.557051181793212891e+00 -8.927032351493835449e-02
5.710000000000000000e+02 7.039083099365234375e+01 3.643492126464843750e+01 -3.735282719135284424e-01 4.484560012817382812e+00 1.233309507369995117e+00 -1.629565060138702393e-01
5.720000000000000000e+02 6.773197937011718750e+01 3.105074119567871094e+01 -6.452364921569824219e-01 7.578804492950439453e-01 3.379318863153457642e-02 1.805255413055419922e-01
5.730000000000000000e+02 6.684268188476562500e+01 3.221235656738281250e+01 -1.116260886192321777e+00 -1.318989992141723633e-01 -3.744479715824127197e-01 7.020750641822814941e-01
5.740000000000000000e+02 6.850256347656250000e+01 2.982061576843261719e+01 -1.148384138941764832e-01 2.478991746902465820e+00 7.092459797859191895e-01 -3.912329673767089844e-01
5.750000000000000000e+02 6.906951141357421875e+01 2.848785781860351562e+01 1.748689860105514526e-01 4.377614021301269531e+00 1.365744829177856445e+00 -7.525831460952758789e-01
5.760000000000000000e+02 6.973314666748046875e+01 2.569637870788574219e+01 2.039033621549606323e-01 7.296516418457031250e+00 2.250125885009765625e+00 -5.568230152130126953e-01
5.770000000000000000e+02 7.939070129394531250e+01 2.369113731384277344e+01 -5.382780916988849640e-03 9.344628334045410156e+00 2.801773786544799805e+00 2.134837359189987183e-01
5.780000000000000000e+02 6.345878219604492188e+01 3.506400299072265625e+01 -2.124108552932739258e+00 -7.107694745063781738e-01 -8.504634499549865723e-01 1.017165541648864746e+00
5.790000000000000000e+02 6.052628326416015625e+01 3.666984939575195312e+01 -1.403198122978210449e+00 -5.509722232818603516e-01 -5.862510800361633301e-01 4.476683437824249268e-01
5.800000000000000000e+02 6.228041076660156250e+01 3.583251953125000000e+01 -1.490190029144287109e+00 -2.851355671882629395e-01 -5.325976610183715820e-01 8.142076730728149414e-01
5.810000000000000000e+02 6.395507431030273438e+01 3.674592208862304688e+01 -7.274242043495178223e-01 -4.377793371677398682e-01 -3.495610654354095459e-01 4.602668285369873047e-01
5.820000000000000000e+02 5.716263198852539062e+01 3.586056900024414062e+01 -1.124003410339355469e+00 3.328575566411018372e-02 -3.272153139114379883e-01 -3.160997331142425537e-01
5.830000000000000000e+02 5.848445129394531250e+01 3.657960510253906250e+01 -1.332620859146118164e+00 -3.591634333133697510e-01 -5.075352787971496582e-01 1.334361881017684937e-01
5.840000000000000000e+02 4.905691528320312500e+01 3.513621139526367188e+01 -5.476981997489929199e-01 2.242540597915649414e+00 5.084527134895324707e-01 5.175381302833557129e-01
5.850000000000000000e+02 4.918051147460937500e+01 3.025053977966308594e+01 7.677909731864929199e-01 1.877943634986877441e+00 7.937204241752624512e-01 1.182441949844360352e+00
5.860000000000000000e+02 5.116125488281250000e+01 3.224829864501953125e+01 3.064636886119842529e-01 8.029624223709106445e-01 3.328278362751007080e-01 5.043649077415466309e-01
5.870000000000000000e+02 4.926604080200195312e+01 3.221721267700195312e+01 1.043100357055664062e-01 1.956712961196899414e+00 6.183068752288818359e-01 8.335064649581909180e-01
5.880000000000000000e+02 5.328139877319335938e+01 3.411888885498046875e+01 -3.497700691223144531e-01 2.456214576959609985e-01 -3.124458156526088715e-02 8.515580743551254272e-02
5.890000000000000000e+02 5.459732055664062500e+01 3.483707809448242188e+01 -5.577828884124755859e-01 1.135352998971939087e-01 -1.332742720842361450e-01 -1.213856190443038940e-01
5.900000000000000000e+02 3.860152816772460938e+01 3.735688018798828125e+01 -1.201894283294677734e+00 4.219673633575439453e+00 9.053338766098022461e-01 -6.443024426698684692e-02
5.910000000000000000e+02 4.262548828125000000e+01 3.824044036865234375e+01 -1.218547582626342773e+00 3.819964647293090820e+00 7.804251313209533691e-01 9.966982901096343994e-02
5.920000000000000000e+02 4.604567337036132812e+01 3.110786247253417969e+01 -8.320911228656768799e-02 3.471084356307983398e+00 1.016362547874450684e+00 9.004412293434143066e-01
5.930000000000000000e+02 4.515430450439453125e+01 2.442072105407714844e+01 1.215898036956787109e+00 5.724932193756103516e+00 2.082248926162719727e+00 2.482567787170410156e+00
5.940000000000000000e+02 4.584260940551757812e+01 2.565206527709960938e+01 1.156016588211059570e+00 4.799892425537109375e+00 1.786772727966308594e+00 2.264603376388549805e+00
5.950000000000000000e+02 4.728850173950195312e+01 2.804993820190429688e+01 1.143404483795166016e+00 3.341353893280029297e+00 1.345427513122558594e+00 1.875017404556274414e+00
5.960000000000000000e+02 4.710815429687500000e+01 3.214387130737304688e+01 -1.963656991720199585e-01 2.997750043869018555e+00 8.404152989387512207e-01 8.495553135871887207e-01
5.970000000000000000e+02 3.762456512451171875e+01 4.070146560668945312e+01 -1.280693531036376953e+00 4.147425651550292969e+00 8.600196242332458496e-01 -4.293445870280265808e-02
5.980000000000000000e+02 3.582682418823242188e+01 3.071837425231933594e+01 -5.778009295463562012e-01 4.549747943878173828e+00 1.191584110260009766e+00 -3.595337271690368652e-01
5.990000000000000000e+02 3.263166046142578125e+01 4.060166549682617188e+01 -1.110430121421813965e+00 3.926599979400634766e+00 8.448509573936462402e-01 -9.600997716188430786e-02
6.000000000000000000e+02 1.288884735107421875e+01 4.089194107055664062e+01 -1.774810254573822021e-01 5.117643475532531738e-01 1.002850010991096497e-01 -3.451850265264511108e-02
6.010000000000000000e+02 7.960834026336669922e+00 2.983878898620605469e+01 3.933813050389289856e-02 -4.639637470245361328e-01 -1.273876875638961792e-01 -1.154954060912132263e-01
6.020000000000000000e+02 8.575199127197265625e+00 2.309148025512695312e+01 1.815009117126464844e-01 -5.107383131980895996e-01 -9.877121448516845703e-02 -8.152879774570465088e-03
6.030000000000000000e+02 6.255508422851562500e+00 1.866443753242492676e+00 -4.774867892265319824e-01 -8.750177174806594849e-02 -1.694965660572052002e-01 3.347133398056030273e-01
6.040000000000000000e+02 1.164944744110107422e+01 1.390370249748229980e+00 -1.265323996543884277e+00 -7.228983640670776367e-01 -5.964667201042175293e-01 8.750374317169189453e-01
6.050000000000000000e+02 2.068948268890380859e+00 4.162813186645507812e+01 -6.954603642225265503e-02 -1.402596831321716309e+00 -4.416428506374359131e-01 -1.967696286737918854e-02
6.060000000000000000e+02 5.175362586975097656e+00 3.724529647827148438e+01 -5.189706571400165558e-03 -9.432427287101745605e-01 -2.845297157764434814e-01 -1.383710000663995743e-02
6.070000000000000000e+02 2.272991418838500977e+00 3.563460540771484375e+01 7.397991139441728592e-03 -1.420137047767639160e+00 -4.238217175006866455e-01 -7.011142373085021973e-02
6.080000000000000000e+02 1.917372345924377441e+00 2.886311149597167969e+01 8.720615878701210022e-03 -1.573595166206359863e+00 -4.694623649120330811e-01 -2.758566290140151978e-02
6.090000000000000000e+02 1.929848194122314453e+00 2.336062812805175781e+01 1.238453481346368790e-02 -1.592880368232727051e+00 -4.741487801074981689e-01 1.282182335853576660e-02
6.100000000000000000e+02 1.888289809226989746e+00 1.768677902221679688e+01 2.286796830594539642e-02 -1.456154823303222656e+00 -4.299860596656799316e-01 1.002960801124572754e-01
6.110000000000000000e+02 5.687757730484008789e-01 6.452405452728271484e+00 -2.468439983204007149e-03 -3.852326571941375732e-01 -1.163103282451629639e-01 7.786162197589874268e-02
6.120000000000000000e+02 1.701804518699645996e+00 9.309490203857421875e+00 1.020856015384197235e-02 -7.642764449119567871e-01 -2.262203544378280640e-01 2.296191304922103882e-01
6.130000000000000000e+02 4.803707122802734375e+00 2.649025440216064453e+00 -2.855615317821502686e-01 -1.327283829450607300e-01 -1.254869699478149414e-01 3.121722936630249023e-01
6.140000000000000000e+02 6.562442016601562500e+01 -2.204792594909667969e+01 -1.494575738906860352e+00 2.430001497268676758e-01 -3.754726648330688477e-01 -9.262393414974212646e-02
6.150000000000000000e+02 6.414852142333984375e+01 -2.135995292663574219e+01 -6.703356504440307617e-01 9.270396232604980469e-01 7.701119780540466309e-02 1.193992018699645996e+00
6.160000000000000000e+02 5.942336654663085938e+01 -1.585208511352539062e+01 -7.794883251190185547e-01 5.691807270050048828e-01 -6.309228390455245972e-02 4.758812189102172852e-01
6.170000000000000000e+02 7.002572631835937500e+01 -2.070957183837890625e+01 -2.216654300689697266e+00 3.213513135910034180e+00 2.990576326847076416e-01 -1.391179084777832031e+00
6.180000000000000000e+02 7.056861114501953125e+01 -2.172517395019531250e+01 -1.389600396156311035e+00 3.979909420013427734e+00 7.770926952362060547e-01 -1.065958976745605469e+00
6.190000000000000000e+02 7.222132110595703125e+01 -2.207357597351074219e+01 -1.559505224227905273e+00 8.216765403747558594e+00 1.997178196907043457e+00 -1.210867054760456085e-02
6.200000000000000000e+02 7.169134521484375000e+01 -2.396673011779785156e+01 1.141385078430175781e+00 1.072273731231689453e+01 3.559236764907836914e+00 -1.618893742561340332e+00
6.210000000000000000e+02 7.196310424804687500e+01 -2.606647109985351562e+01 6.423408985137939453e-01 1.237095546722412109e+01 3.903988838195800781e+00 -3.984476998448371887e-02
6.220000000000000000e+02 7.163594818115234375e+01 -2.848788261413574219e+01 1.405474543571472168e+00 1.157380294799804688e+01 3.893783092498779297e+00 2.141012907028198242e+00
6.230000000000000000e+02 7.155117797851562500e+01 -3.455387878417968750e+01 -6.588764190673828125e-01 5.386726856231689453e+00 1.418355107307434082e+00 5.986468791961669922e-01
6.240000000000000000e+02 7.929540252685546875e+01 -3.328762435913085938e+01 -5.501884967088699341e-02 7.148730754852294922e+00 2.128113508224487305e+00 -2.067392617464065552e-01
6.250000000000000000e+02 5.847142028808593750e+01 -2.543862724304199219e+01 2.567274093627929688e+00 2.163609981536865234e+00 1.419265270233154297e+00 2.193091869354248047e+00
6.260000000000000000e+02 6.067278289794921875e+01 -2.387793350219726562e+01 2.979357004165649414e+00 1.528734445571899414e+00 1.352427482604980469e+00 2.036344766616821289e+00
6.270000000000000000e+02 6.316191482543945312e+01 -2.291185379028320312e+01 6.996644139289855957e-01 3.554247319698333740e-01 3.165267407894134521e-01 7.239422798156738281e-01
6.280000000000000000e+02 6.440785980224609375e+01 -2.257125091552734375e+01 -4.066569507122039795e-01 2.334090024232864380e-01 -5.197438597679138184e-02 2.934991121292114258e-01
6.290000000000000000e+02 7.085466003417968750e+01 2.595112228393554688e+01 2.447216808795928955e-01 7.100561618804931641e+00 2.203584909439086914e+00 1.128812804818153381e-01
6.300000000000000000e+02 6.996042633056640625e+01 2.006480216979980469e+01 1.155829336494207382e-02 8.667057991027832031e+00 2.603584766387939453e+00 1.611289978027343750e-01
6.310000000000000000e+02 7.940966796875000000e+01 1.669461441040039062e+01 7.177751511335372925e-03 7.703533172607421875e+00 2.313213348388671875e+00 1.559155136346817017e-01
6.320000000000000000e+02 6.995402526855468750e+01 1.585365104675292969e+01 9.938510134816169739e-03 9.722382545471191406e+00 2.919696331024169922e+00 2.370398640632629395e-01
6.330000000000000000e+02 6.984259796142578125e+01 1.031623458862304688e+01 -2.224855422973632812e-01 8.944390296936035156e+00 2.616571426391601562e+00 -5.285955071449279785e-01
6.340000000000000000e+02 7.940446472167968750e+01 8.370770454406738281e+00 2.429677173495292664e-03 5.574819564819335938e+00 1.673174858093261719e+00 2.029079794883728027e-01
6.350000000000000000e+02 7.002490234375000000e+01 8.937822341918945312e+00 5.546715110540390015e-02 1.077731513977050781e+01 3.249834537506103516e+00 -9.247809052467346191e-01
6.360000000000000000e+02 7.019224548339843750e+01 7.542643547058105469e+00 3.736962080001831055e-01 1.285265445709228516e+01 3.967905282974243164e+00 -6.942864656448364258e-01
6.370000000000000000e+02 7.016706085205078125e+01 1.901479959487915039e+00 5.741388201713562012e-01 1.512178516387939453e+01 4.708776950836181641e+00 1.257428050041198730e+00
6.380000000000000000e+02 6.968955993652343750e+01 -8.976799249649047852e-01 8.550003767013549805e-01 1.245981979370117188e+01 3.994446039199829102e+00 2.734066247940063477e+00
6.390000000000000000e+02 6.715818023681640625e+01 -7.496680259704589844e+00 1.126675844192504883e+00 5.964916706085205078e+00 2.127477884292602539e+00 2.450795888900756836e+00
6.400000000000000000e+02 6.774829101562500000e+01 -6.211850643157958984e+00 1.082806944847106934e+00 6.912566184997558594e+00 2.398612022399902344e+00 2.625117301940917969e+00
6.410000000000000000e+02 6.703779602050781250e+01 -1.050730419158935547e+01 1.112744688987731934e+00 4.719103813171386719e+00 1.749554514884948730e+00 1.732327938079833984e+00
6.420000000000000000e+02 6.584838867187500000e+01 -1.003524303436279297e+01 1.363852024078369141e+00 4.352316856384277344e+00 1.714850664138793945e+00 2.251268148422241211e+00
6.430000000000000000e+02 6.508829498291015625e+01 -1.127738761901855469e+01 1.702925324440002441e+00 3.741281509399414062e+00 1.633262038230895996e+00 2.271872043609619141e+00
6.440000000000000000e+02 6.262130355834960938e+01 -2.070304489135742188e+01 -4.518081843852996826e-01 1.566427707672119141e+00 3.343858420848846436e-01 1.929672241210937500e+00
6.450000000000000000e+02 6.826658630371093750e+01 -2.137111282348632812e+01 -4.223599910736083984e+00 -1.790922731161117554e-01 -1.320807695388793945e+00 1.829356886446475983e-02
6.460000000000000000e+02 6.934658050537109375e+01 -1.984839057922363281e+01 -1.277357220649719238e+00 2.333061695098876953e+00 3.167113363742828369e-01 -1.205683112144470215e+00
6.470000000000000000e+02 6.689878845214843750e+01 -2.156921005249023438e+01 -3.568222284317016602e+00 -1.613313108682632446e-01 -1.118866086006164551e+00 -2.918008565902709961e-01
6.480000000000000000e+02 2.501496315002441406e+01 -1.387336730957031250e+01 -2.674174070358276367e+00 1.243153095245361328e+00 -4.293063282966613770e-01 -1.151592254638671875e+00
6.490000000000000000e+02 2.577610206604003906e+01 -1.348284244537353516e+01 2.339606881141662598e-01 5.762072801589965820e-01 2.430503964424133301e-01 -1.544656634330749512e+00
6.500000000000000000e+02 2.866135597229003906e+01 -1.682195472717285156e+01 -2.591150283813476562e+00 -2.094406783580780029e-01 -8.401772975921630859e-01 8.277845978736877441e-01
6.510000000000000000e+02 3.016715621948242188e+01 -1.610770797729492188e+01 -1.640269398689270020e+00 2.836568653583526611e-01 -4.069837331771850586e-01 3.394768014550209045e-02
6.520000000000000000e+02 3.119786071777343750e+01 -1.755637550354003906e+01 -1.785189986228942871e+00 6.465583294630050659e-02 -5.161602497100830078e-01 2.915236651897430420e-01
6.530000000000000000e+02 3.391786956787109375e+01 -1.659792709350585938e+01 -4.647144079208374023e-01 4.016591906547546387e-01 -1.891656592488288879e-02 -6.082977056503295898e-01
6.540000000000000000e+02 3.521929550170898438e+01 -1.541174793243408203e+01 4.540978968143463135e-01 1.361500024795532227e+00 5.446794033050537109e-01 -1.802955031394958496e+00
6.550000000000000000e+02 4.277343368530273438e+01 -1.912751960754394531e+01 1.852347135543823242e+00 9.532731056213378906e+00 3.415523529052734375e+00 -2.097380399703979492e+00
6.560000000000000000e+02 4.238201141357421875e+01 -2.282900047302246094e+01 2.766775369644165039e+00 1.832934188842773438e+01 6.328835487365722656e+00 -4.369165897369384766e+00
6.570000000000000000e+02 4.235493087768554688e+01 -2.405425834655761719e+01 4.121935665607452393e-01 1.667453765869140625e+01 5.126019477844238281e+00 -1.652657628059387207e+00
6.580000000000000000e+02 5.214870452880859375e+01 -2.725065612792968750e+01 2.063872575759887695e+00 5.100023269653320312e+00 2.149168729782104492e+00 -1.547510504722595215e+00
6.590000000000000000e+02 4.954776763916015625e+01 -3.164757156372070312e+01 1.064560174942016602e+00 6.168065071105957031e+00 2.169787406921386719e+00 -1.520937085151672363e+00
6.600000000000000000e+02 4.142228317260742188e+01 -3.377743148803710938e+01 -1.678339362144470215e+00 5.017834186553955078e+00 1.001848459243774414e+00 1.039658784866333008e+00
6.610000000000000000e+02 5.053643798828125000e+01 -8.843662261962890625e+00 1.550118476152420044e-01 3.573913574218750000e+00 1.118677616119384766e+00 -8.135852217674255371e-01
6.620000000000000000e+02 4.671673202514648438e+01 -1.013144397735595703e+01 -1.008174061775207520e+00 5.332004070281982422e+00 1.297149062156677246e+00 -4.043962061405181885e-01
6.630000000000000000e+02 3.978092575073242188e+01 -1.904106330871582031e+01 4.527452468872070312e+00 6.337884426116943359e+00 3.259601116180419922e+00 -4.951211452484130859e+00
6.640000000000000000e+02 4.058566665649414062e+01 -1.999987030029296875e+01 5.065509319305419922e+00 7.976766586303710938e+00 3.912682771682739258e+00 -6.651517391204833984e+00
6.650000000000000000e+02 5.163508224487304688e+01 -1.456535434722900391e+01 -2.221012830734252930e+00 1.725352525711059570e+00 -1.486981064081192017e-01 8.406502008438110352e-01
6.660000000000000000e+02 5.107016372680664062e+01 -1.629499244689941406e+01 -1.927612781524658203e+00 3.062377214431762695e+00 3.404293060302734375e-01 -8.740223944187164307e-02
6.670000000000000000e+02 5.170169830322265625e+01 -2.541957473754882812e+01 2.132657766342163086e+00 4.623382568359375000e+00 2.026812076568603516e+00 -1.473915696144104004e+00
6.680000000000000000e+02 5.746591567993164062e+01 -2.632228088378906250e+01 2.145194530487060547e+00 2.627482652664184570e+00 1.431803107261657715e+00 2.135776996612548828e+00
6.690000000000000000e+02 3.288883590698242188e+01 -1.425982856750488281e+01 -1.019614632241427898e-03 9.570457339286804199e-01 2.868078351020812988e-01 -9.557057619094848633e-01
6.700000000000000000e+02 2.655824089050292969e+01 -3.839180707931518555e+00 -6.693791747093200684e-01 2.377534151077270508e+00 5.124464631080627441e-01 7.142027616500854492e-01
6.710000000000000000e+02 3.762102127075195312e+01 -1.396031188964843750e+01 -1.075528338551521301e-01 4.075860977172851562e+00 1.190492391586303711e+00 -2.596196413040161133e+00
6.720000000000000000e+02 3.973943710327148438e+01 -3.127594232559204102e+00 -3.915318846702575684e-01 5.596631526947021484e+00 1.561529874801635742e+00 -1.001206755638122559e+00
6.730000000000000000e+02 3.202030181884765625e+01 5.479475498199462891e+00 8.380814790725708008e-01 4.219473838806152344e+00 1.517266511917114258e+00 -7.808726280927658081e-02
6.740000000000000000e+02 2.116379928588867188e+01 7.322136878967285156e+00 5.379187464714050293e-01 6.774256229400634766e-01 3.646033108234405518e-01 5.088342726230621338e-02
6.750000000000000000e+02 1.492782306671142578e+01 8.110154151916503906e+00 3.940370082855224609e-01 -4.062919914722442627e-01 -3.676497144624590874e-03 4.662750065326690674e-01
6.760000000000000000e+02 3.654772186279296875e+01 -1.659036636352539062e+01 1.123485088348388672e+00 1.615518450736999512e+00 8.217011094093322754e-01 -2.392264842987060547e+00
6.770000000000000000e+02 5.376203060150146484e-01 -1.772118186950683594e+01 2.466789446771144867e-02 -5.494060993194580078e+00 -1.640817999839782715e+00 -6.962765473872423172e-03
6.780000000000000000e+02 7.009577751159667969e-01 -2.339200019836425781e+01 2.236818708479404449e-02 -3.525246858596801758e+00 -1.050863623619079590e+00 4.580583870410919189e-01
6.790000000000000000e+02 8.771797180175781250e+00 -2.560633468627929688e+01 3.068850338459014893e-01 5.213559627532958984e+00 1.656133413314819336e+00 -2.947450280189514160e-01
6.800000000000000000e+02 6.691333055496215820e-01 -3.055795097351074219e+01 -6.497745215892791748e-02 1.211876988410949707e+00 3.440698683261871338e-01 3.057953417301177979e-01
6.810000000000000000e+02 7.935185241699218750e+01 -2.630011367797851562e+01 5.213161557912826538e-02 5.829504966735839844e+00 1.764490962028503418e+00 6.347987800836563110e-02
6.820000000000000000e+02 7.949948883056640625e+01 -2.223125648498535156e+01 -9.084644727408885956e-03 7.163029193878173828e+00 2.146183252334594727e+00 2.044741511344909668e-01
6.830000000000000000e+02 7.934862518310546875e+01 -1.248648738861083984e+01 -1.023564860224723816e-02 7.342432498931884766e+00 2.199659109115600586e+00 -1.641383916139602661e-01
6.840000000000000000e+02 6.928916931152343750e+01 -2.259322166442871094e+00 9.260186553001403809e-01 1.089962863922119141e+01 3.547694206237792969e+00 2.842941522598266602e+00
6.850000000000000000e+02 7.937771606445312500e+01 -5.519495964050292969e+00 6.419516168534755707e-03 5.449805259704589844e+00 1.636867523193359375e+00 -1.717052608728408813e-01
6.860000000000000000e+02 7.144602203369140625e+01 6.185748100280761719e+00 4.546377360820770264e-01 1.165213012695312500e+01 3.632030248641967773e+00 1.417836844921112061e-01
6.870000000000000000e+02 7.939226531982421875e+01 2.803377151489257812e+00 2.615657076239585876e-02 4.303678035736083984e+00 1.298950433731079102e+00 7.056088000535964966e-02
6.880000000000000000e+02 7.935113525390625000e+01 2.931251525878906250e+01 -2.103951759636402130e-03 1.101371860504150391e+01 3.303484439849853516e+00 2.304856032133102417e-01
6.890000000000000000e+02 2.982104492187500000e+01 3.103028869628906250e+01 -3.872420489788055420e-01 3.618500232696533203e+00 9.693774580955505371e-01 -6.061624288558959961e-01
6.900000000000000000e+02 2.751974678039550781e+01 3.225476837158203125e+01 -3.806309700012207031e-01 3.214363098144531250e+00 8.501196503639221191e-01 -5.735948085784912109e-01
6.910000000000000000e+02 3.049638175964355469e+01 2.224439048767089844e+01 6.390077471733093262e-01 3.820229768753051758e+00 1.337771296501159668e+00 -8.061601519584655762e-01
6.920000000000000000e+02 2.817494773864746094e+01 9.972951412200927734e-01 -4.746579378843307495e-02 2.857424020767211914e+00 8.429874777793884277e-01 1.903281062841415405e-01
6.930000000000000000e+02 3.744184112548828125e+01 5.795198440551757812e+00 1.032609224319458008e+00 6.618899822235107422e+00 2.295452594757080078e+00 -4.214788973331451416e-01
6.940000000000000000e+02 3.948333740234375000e+01 -9.202884435653686523e-01 -1.833633780479431152e-01 5.923055648803710938e+00 1.721907615661621094e+00 -9.374556541442871094e-01
6.950000000000000000e+02 4.572281265258789062e+01 -2.240991592407226562e+00 1.522497087717056274e-01 5.374511241912841797e+00 1.658028364181518555e+00 -1.718035459518432617e+00
6.960000000000000000e+02 4.884800338745117188e+01 -3.575576782226562500e+00 4.440042674541473389e-01 4.617888927459716797e+00 1.518568038940429688e+00 -1.540396332740783691e+00
6.970000000000000000e+02 4.429082107543945312e+01 3.079335689544677734e+00 8.930027484893798828e-01 6.624212741851806641e+00 2.255164623260498047e+00 -2.655184030532836914e+00
6.980000000000000000e+02 2.375079154968261719e+01 3.233436203002929688e+01 -2.726118266582489014e-01 2.527844429016113281e+00 6.765697598457336426e-01 -4.781765043735504150e-01
6.990000000000000000e+02 2.618100929260253906e+01 2.290704345703125000e+01 5.423442721366882324e-01 2.713188648223876953e+00 9.766598343849182129e-01 -7.241019606590270996e-01
7.000000000000000000e+02 2.446418952941894531e+01 1.871521759033203125e+01 8.950701355934143066e-01 2.159018039703369141e+00 9.162264466285705566e-01 -5.975656509399414062e-01
7.010000000000000000e+02 1.954026603698730469e+01 9.416894912719726562e+00 6.941653490066528320e-01 4.616875648498535156e-01 3.467558920383453369e-01 6.516880542039871216e-02
7.020000000000000000e+02 1.334376335144042969e+01 2.953340530395507812e+01 5.891501531004905701e-02 4.455095529556274414e-01 1.513273715972900391e-01 -2.496761679649353027e-01
7.030000000000000000e+02 7.196148872375488281e+00 3.220858383178710938e+01 1.178099401295185089e-02 -5.680373907089233398e-01 -1.668769121170043945e-01 -1.068447381258010864e-01
7.040000000000000000e+02 7.396365165710449219e+00 2.452259254455566406e+01 1.150373220443725586e-01 -6.597957611083984375e-01 -1.634275317192077637e-01 -2.995789051055908203e-02
7.050000000000000000e+02 1.365784549713134766e+01 2.684498786926269531e+01 1.816894263029098511e-01 4.250233471393585205e-01 1.820138245820999146e-01 -2.342879027128219604e-01
7.060000000000000000e+02 2.665018463134765625e+01 2.639046669006347656e+01 1.814186573028564453e-01 2.977583169937133789e+00 9.477005600929260254e-01 -7.296873927116394043e-01
7.070000000000000000e+02 3.207297897338867188e+01 2.223479843139648438e+01 6.066473126411437988e-01 4.310481071472167969e+00 1.475138425827026367e+00 -7.661667466163635254e-01
7.080000000000000000e+02 3.914014434814453125e+01 2.454374885559082031e+01 2.750204801559448242e-01 5.817915916442871094e+00 1.827880859375000000e+00 1.284964233636856079e-01
7.090000000000000000e+02 3.916604995727539062e+01 2.748644256591796875e+01 -1.637445241212844849e-01 5.276066780090332031e+00 1.533696651458740234e+00 2.710352651774883270e-02
7.100000000000000000e+02 2.047267198562622070e+00 3.158038330078125000e+01 1.667471020482480526e-03 -1.512985706329345703e+00 -4.533954858779907227e-01 -3.872822597622871399e-02
7.110000000000000000e+02 6.923250675201416016e+00 1.727753257751464844e+01 2.031800299882888794e-01 -7.838138937950134277e-01 -1.741901487112045288e-01 2.494371235370635986e-01
7.120000000000000000e+02 1.314298820495605469e+01 1.911413764953613281e+01 4.705274701118469238e-01 1.619082503020763397e-02 1.460154950618743896e-01 6.383887957781553268e-03
7.130000000000000000e+02 1.995114135742187500e+01 1.542341613769531250e+01 8.499671816825866699e-01 9.406717419624328613e-01 5.371916890144348145e-01 -2.178983837366104126e-01
7.140000000000000000e+02 3.050242805480957031e+01 1.750291633605957031e+01 1.133848071098327637e+00 3.789513587951660156e+00 1.477008581161499023e+00 -7.502650618553161621e-01
7.150000000000000000e+02 3.879429626464843750e+01 1.570309066772460938e+01 1.183161616325378418e+00 8.155961036682128906e+00 2.801736831665039062e+00 -2.942617237567901611e-01
7.160000000000000000e+02 3.718189239501953125e+01 1.653629875183105469e+01 1.252525687217712402e+00 6.841768264770507812e+00 2.428288221359252930e+00 -4.604543745517730713e-01
7.170000000000000000e+02 6.189537525177001953e+00 1.074618244171142578e+01 1.230852529406547546e-01 -7.301437854766845703e-01 -1.821175515651702881e-01 5.272887945175170898e-01
7.180000000000000000e+02 3.932741165161132812e+01 1.154691219329833984e+01 1.789064288139343262e+00 9.008603096008300781e+00 3.239300251007080078e+00 -8.778962492942810059e-01
7.190000000000000000e+02 4.226406478881835938e+01 1.041825485229492188e+01 1.280908584594726562e+00 1.423004627227783203e+01 4.653286457061767578e+00 -2.138477325439453125e+00
7.200000000000000000e+02 3.792533493041992188e+01 1.437158966064453125e+01 1.426048040390014648e+00 7.700998306274414062e+00 2.738113880157470703e+00 -5.614514946937561035e-01
7.210000000000000000e+02 1.856580018997192383e+00 1.628384590148925781e+01 1.922368071973323822e-02 -1.385603785514831543e+00 -4.099140465259552002e-01 1.260828375816345215e-01
7.220000000000000000e+02 1.996714591979980469e+01 5.555803775787353516e-01 -6.386455893516540527e-01 -1.105696186423301697e-01 -2.247645705938339233e-01 4.459449350833892822e-01
7.230000000000000000e+02 2.220092010498046875e+01 5.744317770004272461e-01 -4.825504124164581299e-01 6.907825469970703125e-01 6.246964260935783386e-02 2.640516757965087891e-01
7.240000000000000000e+02 4.385310745239257812e+01 6.299517154693603516e+00 1.963491201400756836e+00 8.683199882507324219e+00 3.194007396697998047e+00 -3.733829259872436523e+00
7.250000000000000000e+02 3.982545089721679688e+01 2.575978517532348633e+00 2.964681088924407959e-01 6.752439022064208984e+00 2.114672183990478516e+00 -1.001329302787780762e+00
7.260000000000000000e+02 2.602030181884765625e+01 -4.085884571075439453e+00 -7.728893756866455078e-01 2.243501663208007812e+00 4.411836564540863037e-01 7.316260933876037598e-01
7.270000000000000000e+02 3.638803482055664062e+01 -1.413033390045166016e+01 1.915683746337890625e-01 2.860113143920898438e+00 9.155044555664062500e-01 -2.235531806945800781e+00
7.280000000000000000e+02 4.512741470336914062e+01 -8.990024566650390625e+00 -9.753580689430236816e-01 5.603688240051269531e+00 1.388499021530151367e+00 -7.873175740242004395e-01
7.290000000000000000e+02 5.270070648193359375e+01 -1.404870605468750000e+01 -1.565246582031250000e+00 -6.212047338485717773e-01 -6.559354066848754883e-01 1.256313920021057129e+00
7.300000000000000000e+02 8.406082153320312500e+00 -1.888045787811279297e+00 -1.181927680969238281e+00 2.149674296379089355e-01 -2.900880873203277588e-01 -1.289819180965423584e-01
7.310000000000000000e+02 6.814865589141845703e+00 -1.868142485618591309e+00 -9.304782748222351074e-01 9.511108696460723877e-02 -2.506101429462432861e-01 -3.285804688930511475e-01
7.320000000000000000e+02 7.611966609954833984e+00 -1.872000694274902344e+00 -1.061519145965576172e+00 1.441025286912918091e-01 -2.752249836921691895e-01 -2.453418970108032227e-01
7.330000000000000000e+02 5.217153072357177734e+00 -1.878574967384338379e+00 -6.485472917556762695e-01 1.804833300411701202e-03 -1.940227299928665161e-01 -4.041602611541748047e-01
7.340000000000000000e+02 2.857682943344116211e+00 -1.952957510948181152e+00 -2.700383961200714111e-01 -1.110137701034545898e-01 -1.143156439065933228e-01 -3.198349475860595703e-01
7.350000000000000000e+02 3.000974178314208984e+00 -2.864326238632202148e+00 -2.785818278789520264e-01 -1.717868447303771973e-01 -1.351106017827987671e-01 -4.541139900684356689e-01
7.360000000000000000e+02 2.071818351745605469e+00 -2.026327848434448242e+00 -1.673036813735961914e-01 -1.492323428392410278e-01 -9.496080875396728516e-02 -2.514722049236297607e-01
7.370000000000000000e+02 1.263375997543334961e+00 -2.112208366394042969e+00 -6.974209845066070557e-02 -1.781165003776550293e-01 -7.435757666826248169e-02 -1.474305838346481323e-01
7.380000000000000000e+02 4.277338087558746338e-01 -2.186342954635620117e+00 -1.744780503213405609e-02 -9.239546209573745728e-02 -3.295297920703887939e-02 -4.693469405174255371e-02
7.390000000000000000e+02 2.011960029602050781e+00 -4.159117889404296875e+01 8.232969045639038086e-02 2.480498790740966797e+00 7.688485383987426758e-01 -2.341235615313053131e-02
7.400000000000000000e+02 4.640533447265625000e+00 -3.705345153808593750e+01 -2.671256363391876221e-01 1.666607618331909180e+00 4.198445975780487061e-01 3.338777124881744385e-01
7.410000000000000000e+02 7.720407247543334961e-01 -3.869958114624023438e+01 3.716323059052228928e-03 2.605117082595825195e+00 7.826499938964843750e-01 -1.708514615893363953e-02
7.420000000000000000e+02 7.194452881813049316e-01 -3.480051803588867188e+01 -4.007631912827491760e-02 2.391993761062622070e+00 7.055752873420715332e-01 1.219602599740028381e-01
7.430000000000000000e+02 7.539556622505187988e-01 -3.339810562133789062e+01 -1.948182657361030579e-02 2.107140779495239258e+00 6.262977123260498047e-01 1.760574281215667725e-01
7.440000000000000000e+02 6.321195960044860840e-01 -2.914213943481445312e+01 3.090099198743700981e-03 4.612185955047607422e-01 1.392926126718521118e-01 3.673765063285827637e-01
7.450000000000000000e+02 6.350805759429931641e-01 -2.772409248352050781e+01 -5.786345154047012329e-02 -4.553039669990539551e-01 -1.539502292871475220e-01 4.369854629039764404e-01
7.460000000000000000e+02 7.001442313194274902e-01 -2.485001754760742188e+01 2.728086709976196289e-02 -2.586385726928710938e+00 -7.677314281463623047e-01 5.057846307754516602e-01
7.470000000000000000e+02 6.460725665092468262e-01 -2.194929504394531250e+01 8.396209776401519775e-02 -4.372879981994628906e+00 -1.286675333976745605e+00 3.504233658313751221e-01
7.480000000000000000e+02 5.929663777351379395e-01 -2.052816772460937500e+01 3.167922794818878174e-02 -5.019203186035156250e+00 -1.496257305145263672e+00 2.124354392290115356e-01
7.490000000000000000e+02 1.766308307647705078e+00 -2.037583351135253906e+01 2.078659683465957642e-01 -3.214715003967285156e+00 -9.020547270774841309e-01 5.036376714706420898e-01
7.500000000000000000e+02 5.320315361022949219e-01 -1.632085037231445312e+01 3.307564184069633484e-02 -5.332055091857910156e+00 -1.589693784713745117e+00 -8.245545625686645508e-02
7.510000000000000000e+02 5.345561504364013672e-01 -1.491939067840576172e+01 1.657427474856376648e-02 -4.972802639007568359e+00 -1.486868619918823242e+00 -1.473247706890106201e-01
7.520000000000000000e+02 5.388949513435363770e-01 -1.351692199707031250e+01 1.924060843884944916e-02 -4.470133781433105469e+00 -1.335268020629882812e+00 -1.919476538896560669e-01
7.530000000000000000e+02 1.624267697334289551e+00 -1.351523494720458984e+01 6.442582607269287109e-02 -3.239392995834350586e+00 -9.524901509284973145e-01 -5.492427349090576172e-01
7.540000000000000000e+02 5.390384197235107422e-01 -9.309608459472656250e+00 5.978101398795843124e-04 -2.553064584732055664e+00 -7.657400369644165039e-01 -2.411680668592453003e-01
7.550000000000000000e+02 5.453869104385375977e-01 -7.910689830780029297e+00 -4.411594942212104797e-03 -1.898902535438537598e+00 -5.709941983222961426e-01 -2.317232638597488403e-01
7.560000000000000000e+02 3.660344123840332031e+00 -2.681480169296264648e+00 -3.830003440380096436e-01 -1.096397191286087036e-01 -1.477920114994049072e-01 -4.780391752719879150e-01
7.570000000000000000e+02 4.329315662384033203e+00 -3.504266500473022461e+00 -4.234502017498016357e-01 -1.385765373706817627e-01 -1.686080247163772583e-01 -6.473212838172912598e-01
7.580000000000000000e+02 7.125347137451171875e+01 -3.892587280273437500e+01 2.159273996949195862e-02 4.371700286865234375e+00 1.317987918853759766e+00 4.360324144363403320e-01
7.590000000000000000e+02 5.002178573608398438e+01 -3.950392913818359375e+01 -1.425273537635803223e+00 6.160650253295898438e+00 1.420613050460815430e+00 -2.305489778518676758e-01
7.600000000000000000e+02 3.208609771728515625e+01 -3.779726409912109375e+01 -8.272159099578857422e-01 -5.725378170609474182e-02 -2.653408944606781006e-01 -1.633096188306808472e-01
7.610000000000000000e+02 1.662213516235351562e+01 -4.108455276489257812e+01 -4.984292685985565186e-01 -2.963272631168365479e-01 -2.384269684553146362e-01 4.709383100271224976e-02
7.620000000000000000e+02 7.855850982666015625e+01 4.024514770507812500e+01 -1.803226172924041748e-01 1.124662971496582031e+01 3.319892168045043945e+00 -3.788395524024963379e-01
7.630000000000000000e+02 7.805063629150390625e+01 4.173821640014648438e+01 5.179105401039123535e-01 1.098856544494628906e+01 3.451942682266235352e+00 -1.455329209566116333e-01
7.640000000000000000e+02 7.879414367675781250e+01 3.882176589965820312e+01 -1.462791562080383301e-01 1.155958938598632812e+01 3.423993110656738281e+00 -2.202845662832260132e-01
7.650000000000000000e+02 7.705011749267578125e+01 3.800244140625000000e+01 -3.052135705947875977e-01 1.022792530059814453e+01 2.976813554763793945e+00 3.770907595753669739e-02
7.660000000000000000e+02 7.939822387695312500e+01 3.483865737915039062e+01 -2.985206246376037598e-02 1.204653644561767578e+01 3.605005264282226562e+00 8.106299489736557007e-02
7.670000000000000000e+02 7.799744415283203125e+01 3.369845962524414062e+01 -3.680451959371566772e-02 1.082256698608398438e+01 3.235728740692138672e+00 2.404226511716842651e-01
7.680000000000000000e+02 7.935284423828125000e+01 3.350338363647460938e+01 -6.438121665269136429e-03 1.188029098510742188e+01 3.562155961990356445e+00 1.202641129493713379e-01
7.690000000000000000e+02 7.933268737792968750e+01 3.072282791137695312e+01 -3.197368979454040527e-02 1.138750648498535156e+01 3.406659841537475586e+00 1.948919892311096191e-01
7.700000000000000000e+02 7.810872650146484375e+01 2.796334838867187500e+01 -2.115394547581672668e-02 9.964528083801269531e+00 2.983012437820434570e+00 5.582845807075500488e-01
7.710000000000000000e+02 7.937382507324218750e+01 2.650179290771484375e+01 -6.976289674639701843e-03 1.017495536804199219e+01 3.050393819808959961e+00 2.363710701465606689e-01
7.720000000000000000e+02 7.694010162353515625e+01 2.510291290283203125e+01 5.078085511922836304e-02 8.997482299804687500e+00 2.714478969573974609e+00 7.331182956695556641e-01
7.730000000000000000e+02 7.938249969482421875e+01 2.509674072265625000e+01 1.764055527746677399e-02 9.750309944152832031e+00 2.930385351181030273e+00 2.246367931365966797e-01
7.740000000000000000e+02 7.940016174316406250e+01 2.088801574707031250e+01 -5.434561055153608322e-03 8.613595008850097656e+00 2.582448244094848633e+00 1.807507723569869995e-01
7.750000000000000000e+02 7.940175628662109375e+01 1.948810005187988281e+01 1.638528145849704742e-02 8.291565895080566406e+00 2.492385387420654297e+00 1.695000827312469482e-01
7.760000000000000000e+02 7.821310424804687500e+01 1.943705177307128906e+01 1.138772070407867432e-02 8.338082313537597656e+00 2.504841089248657227e+00 3.939308226108551025e-01
7.770000000000000000e+02 7.940473175048828125e+01 1.808997726440429688e+01 -4.934658296406269073e-03 7.992411613464355469e+00 2.396243095397949219e+00 1.571757644414901733e-01
7.780000000000000000e+02 7.942109680175781250e+01 1.391512012481689453e+01 -5.910645239055156708e-03 7.112807750701904297e+00 2.132069110870361328e+00 1.612945348024368286e-01
7.790000000000000000e+02 7.942675781250000000e+01 1.252827358245849609e+01 3.931715153157711029e-03 6.784175395965576172e+00 2.036432266235351562e+00 1.657548546791076660e-01
7.800000000000000000e+02 7.942861938476562500e+01 1.114408874511718750e+01 -1.535615231841802597e-02 6.423935890197753906e+00 1.922574043273925781e+00 1.805340796709060669e-01
7.810000000000000000e+02 7.938173675537109375e+01 6.980597496032714844e+00 9.671016596257686615e-03 5.162342071533203125e+00 1.551604032516479492e+00 1.906592547893524170e-01
7.820000000000000000e+02 7.937260437011718750e+01 5.590198993682861328e+00 1.465250179171562195e-02 4.800900459289550781e+00 1.444665789604187012e+00 1.641379743814468384e-01
7.830000000000000000e+02 7.938145446777343750e+01 4.197416782379150391e+00 2.133142016828060150e-02 4.505065917968750000e+00 1.357919216156005859e+00 1.249870136380195618e-01
7.840000000000000000e+02 7.937928009033203125e+01 2.698913216590881348e-02 3.113500215113162994e-02 4.286481857299804688e+00 1.295284986495971680e+00 -5.376380681991577148e-02
7.850000000000000000e+02 7.937127685546875000e+01 -1.354858756065368652e+00 1.072219014167785645e-02 4.464970588684082031e+00 1.342707872390747070e+00 -9.886962920427322388e-02
7.860000000000000000e+02 7.812344360351562500e+01 -4.051074504852294922e+00 2.225774154067039490e-02 5.785336971282958984e+00 1.742278456687927246e+00 -3.974038362503051758e-01
7.870000000000000000e+02 7.937608337402343750e+01 -4.132142066955566406e+00 -9.727535652928054333e-04 5.076283454895019531e+00 1.522593140602111816e+00 -1.647554337978363037e-01
7.880000000000000000e+02 7.936472320556640625e+01 -8.301218032836914062e+00 6.183294113725423813e-03 6.226836681365966797e+00 1.869905948638916016e+00 -1.840731054544448853e-01
7.890000000000000000e+02 7.804676055908203125e+01 -1.098590564727783203e+01 -1.880022510886192322e-02 6.867092132568359375e+00 2.054487705230712891e+00 -4.530366659164428711e-01
7.900000000000000000e+02 7.935089874267578125e+01 -1.109122371673583984e+01 1.178591395728290081e-03 6.988627910614013672e+00 2.096941947937011719e+00 -1.753550469875335693e-01
7.910000000000000000e+02 7.934735870361328125e+01 -1.528938579559326172e+01 -2.757243998348712921e-02 7.908848762512207031e+00 2.364382982254028320e+00 -9.983970224857330322e-02
7.920000000000000000e+02 7.811961364746093750e+01 -1.811034965515136719e+01 -1.530207544565200806e-01 7.672622203826904297e+00 2.255880355834960938e+00 4.998186603188514709e-02
7.930000000000000000e+02 7.937462615966796875e+01 -1.810200691223144531e+01 -3.893880546092987061e-02 8.082600593566894531e+00 2.413098573684692383e+00 2.174426428973674774e-02
7.940000000000000000e+02 7.948610687255859375e+01 -2.358818054199218750e+01 -4.356057383120059967e-03 6.563405036926269531e+00 1.967714667320251465e+00 2.232639044523239136e-01
7.950000000000000000e+02 7.587058258056640625e+01 -2.613525962829589844e+01 7.164503931999206543e-01 7.385651111602783203e+00 2.430630445480346680e+00 3.857914209365844727e-01
7.960000000000000000e+02 7.942468261718750000e+01 -2.494656562805175781e+01 3.840604424476623535e-02 6.066936016082763672e+00 1.831602573394775391e+00 1.696706265211105347e-01
7.970000000000000000e+02 7.934689331054687500e+01 -2.908588218688964844e+01 8.549437671899795532e-02 5.968019008636474609e+00 1.816054105758666992e+00 -1.387598514556884766e-01
7.980000000000000000e+02 7.791461944580078125e+01 -3.154048538208007812e+01 2.633605152368545532e-02 6.913763999938964844e+00 2.082030057907104492e+00 -5.360853075981140137e-01
7.990000000000000000e+02 7.931027221679687500e+01 -3.188232421875000000e+01 5.478557199239730835e-02 6.740150451660156250e+00 2.038480758666992188e+00 -2.324994206428527832e-01
8.000000000000000000e+02 7.929512786865234375e+01 -3.607899475097656250e+01 -7.015467435121536255e-02 7.723231792449951172e+00 2.295923233032226562e+00 -8.494869619607925415e-02
8.010000000000000000e+02 7.922257232666015625e+01 -3.743938827514648438e+01 -2.429618500173091888e-02 7.777676582336425781e+00 2.326014041900634766e+00 -2.730792388319969177e-03
8.020000000000000000e+02 7.905698394775390625e+01 -3.878303146362304688e+01 -6.185495760291814804e-03 7.750787734985351562e+00 2.323380708694458008e+00 1.733198016881942749e-02
8.030000000000000000e+02 5.275101661682128906e+00 4.023326492309570312e+01 -5.958326160907745361e-02 -9.102258086204528809e-01 -2.909427285194396973e-01 1.507468335330486298e-02
8.040000000000000000e+02 6.949574279785156250e+01 3.858830261230468750e+01 -6.977280229330062866e-02 3.522970438003540039e+00 1.035959243774414062e+00 -1.330038160085678101e-01
8.050000000000000000e+02 3.801104426383972168e-01 2.172025442123413086e+00 -3.225479042157530785e-03 3.683193819597363472e-03 1.373144623357802629e-04 5.343692377209663391e-03
8.060000000000000000e+02 2.656820058822631836e+00 2.906942367553710938e+00 -1.065046265721321106e-01 -1.134537234902381897e-01 -6.598750501871109009e-02 1.475035399198532104e-01
8.070000000000000000e+02 1.717275738716125488e+00 6.495742797851562500e+00 -1.442649029195308685e-02 -4.333668053150177002e-01 -1.343379914760589600e-01 2.155964672565460205e-01
8.080000000000000000e+02 5.706126689910888672e-01 9.283119201660156250e+00 -5.395829211920499802e-04 -7.924511432647705078e-01 -2.378972172737121582e-01 8.253413438796997070e-02
8.090000000000000000e+02 5.907423496246337891e-01 1.209799385070800781e+01 5.280670011416077614e-04 -1.175672411918640137e+00 -3.525433242321014404e-01 7.038901001214981079e-02
8.100000000000000000e+02 1.760308623313903809e+00 1.208738040924072266e+01 1.984185352921485901e-02 -1.060669302940368652e+00 -3.122482299804687500e-01 2.010462135076522827e-01
8.110000000000000000e+02 6.224839091300964355e-01 1.632584571838378906e+01 7.226662710309028625e-03 -1.588259577751159668e+00 -4.743098914623260498e-01 4.273944348096847534e-02
8.120000000000000000e+02 6.315110921859741211e-01 1.773654174804687500e+01 1.406003255397081375e-03 -1.678875446319580078e+00 -5.032408237457275391e-01 3.326356038451194763e-02
8.130000000000000000e+02 6.479077935218811035e-01 2.197928047180175781e+01 4.228873644024133682e-03 -1.826110243797302246e+00 -5.465644001960754395e-01 9.011438116431236267e-03
8.140000000000000000e+02 6.438077092170715332e-01 2.339123535156250000e+01 8.989124908111989498e-04 -1.843927502632141113e+00 -5.529085397720336914e-01 3.429737640544772148e-03
8.150000000000000000e+02 6.349549889564514160e-01 2.479867553710937500e+01 3.797749988734722137e-03 -1.849476814270019531e+00 -5.537037253379821777e-01 -1.739602303132414818e-03
8.160000000000000000e+02 6.419196128845214844e-01 2.900450897216796875e+01 -2.826786600053310394e-03 -1.812847614288330078e+00 -5.447022914886474609e-01 -1.248892769217491150e-02
8.170000000000000000e+02 6.601531505584716797e-01 3.040309715270996094e+01 4.077679943293333054e-03 -1.785684108734130859e+00 -5.344819426536560059e-01 -1.445080712437629700e-02
8.180000000000000000e+02 1.984717130661010742e+00 3.022633743286132812e+01 3.160285996273159981e-03 -1.544059038162231445e+00 -4.622696340084075928e-01 -3.843334317207336426e-02
8.190000000000000000e+02 6.793982386589050293e-01 3.179717636108398438e+01 -1.555278664454817772e-03 -1.754974961280822754e+00 -5.269590616226196289e-01 -1.654881983995437622e-02
8.200000000000000000e+02 7.635341882705688477e-01 3.597458648681640625e+01 -6.395096890628337860e-03 -1.624329447746276855e+00 -4.892173409461975098e-01 -2.563824877142906189e-02
8.210000000000000000e+02 3.723773956298828125e+00 3.676744461059570312e+01 1.438291836529970169e-02 -1.213103294372558594e+00 -3.596161305904388428e-01 -7.333533465862274170e-02
8.220000000000000000e+02 1.026197433471679688e+00 3.868930816650390625e+01 -1.428277464583516121e-03 -1.496255636215209961e+00 -4.493051767349243164e-01 -4.510178416967391968e-02
8.230000000000000000e+02 1.402804136276245117e+00 4.005363082885742188e+01 1.705440878868103027e-02 -1.429519295692443848e+00 -4.237394630908966064e-01 -5.972065776586532593e-02
8.240000000000000000e+02 1.000395488739013672e+01 1.946054339408874512e+00 -9.608410596847534180e-01 -5.556033253669738770e-01 -4.549333155155181885e-01 7.768244147300720215e-01
8.250000000000000000e+02 9.205657958984375000e+00 1.890266537666320801e+00 -8.872827887535095215e-01 -4.211389720439910889e-01 -3.925265371799468994e-01 7.274636626243591309e-01
8.260000000000000000e+02 8.458909988403320312e+00 1.865383505821228027e+00 -8.795825839042663574e-01 -2.553021311759948730e-01 -3.404654264450073242e-01 6.366069316864013672e-01
8.270000000000000000e+02 7.718787193298339844e+00 2.569558858871459961e+00 -6.351934075355529785e-01 -2.602750062942504883e-01 -2.686405181884765625e-01 6.161900162696838379e-01
8.280000000000000000e+02 6.989409446716308594e+00 1.859804749488830566e+00 -6.011549830436706543e-01 -1.267924159765243530e-01 -2.183842062950134277e-01 4.153348803520202637e-01
8.290000000000000000e+02 4.787024974822998047e+00 1.883740782737731934e+00 -2.815753221511840820e-01 -7.136110216379165649e-02 -1.058809235692024231e-01 2.256896942853927612e-01
8.300000000000000000e+02 4.050856113433837891e+00 1.900802016258239746e+00 -2.038565427064895630e-01 -7.185193896293640137e-02 -8.271254599094390869e-02 1.774972975254058838e-01
8.310000000000000000e+02 3.318824291229248047e+00 1.929621338844299316e+00 -1.444959342479705811e-01 -6.277958303689956665e-02 -6.218265369534492493e-02 1.300055682659149170e-01
8.320000000000000000e+02 1.863522410392761230e+00 2.004888772964477539e+00 -5.310095101594924927e-02 -6.309805065393447876e-02 -3.485969826579093933e-02 6.058801338076591492e-02
8.330000000000000000e+02 1.127834677696228027e+00 2.082721948623657227e+00 -1.912124454975128174e-02 -4.409894719719886780e-02 -1.896605826914310455e-02 2.230276912450790405e-02
8.340000000000000000e+02 1.320136642456054688e+01 6.827516555786132812e-01 -1.491643905639648438e+00 -8.365446329116821289e-01 -6.984565854072570801e-01 1.041193366050720215e+00
8.350000000000000000e+02 1.537351417541503906e+01 1.122013688087463379e+00 -1.008065342903137207e+00 -8.942666053771972656e-01 -5.706995725631713867e-01 9.007892012596130371e-01
8.360000000000000000e+02 1.602609825134277344e+01 -8.894543051719665527e-01 -1.707918763160705566e+00 -1.073252201080322266e+00 -8.343513011932373047e-01 1.210773110389709473e+00
8.370000000000000000e+02 1.734178352355957031e+01 -1.807741880416870117e+00 -1.744820237159729004e+00 -1.130695343017578125e+00 -8.626546859741210938e-01 1.251363396644592285e+00
8.380000000000000000e+02 1.861644172668457031e+01 -2.782263994216918945e+00 -1.697200536727905273e+00 -1.113782405853271484e+00 -8.432948589324951172e-01 1.223288536071777344e+00
8.390000000000000000e+02 2.091474533081054688e+01 -4.990598201751708984e+00 -1.466411709785461426e+00 -7.351961731910705566e-01 -6.604823470115661621e-01 1.053673624992370605e+00
8.400000000000000000e+02 2.219972991943359375e+01 -6.535320758819580078e+00 -1.298132419586181641e+00 -9.300670772790908813e-02 -4.173417389392852783e-01 8.916079998016357422e-01
8.410000000000000000e+02 2.259032821655273438e+01 -7.032993793487548828e+00 -1.188087344169616699e+00 2.282335758209228516e-01 -2.879561483860015869e-01 8.158949613571166992e-01
8.420000000000000000e+02 2.343631553649902344e+01 -8.384477615356445312e+00 -1.019109845161437988e+00 1.780821323394775391e+00 2.285134494304656982e-01 8.340144753456115723e-01
8.430000000000000000e+02 2.370850372314453125e+01 -8.940182685852050781e+00 -9.335322380065917969e-01 2.633735418319702148e+00 5.100609064102172852e-01 1.075213432312011719e+00
8.440000000000000000e+02 2.460040664672851562e+01 -1.030217075347900391e+01 2.574988603591918945e+00 4.522199630737304688e+00 2.129156351089477539e+00 4.368435859680175781e+00
8.450000000000000000e+02 2.166396903991699219e+01 -1.187767887115478516e+01 8.980151176452636719e+00 -4.340268135070800781e+00 1.391964912414550781e+00 2.877506732940673828e+00
8.460000000000000000e+02 2.151259040832519531e+01 -1.154407978057861328e+01 7.683963775634765625e+00 -4.269746303558349609e+00 1.024265170097351074e+00 1.443245172500610352e+00
8.470000000000000000e+02 2.121861839294433594e+01 -1.155776214599609375e+01 6.851346969604492188e+00 -4.229074001312255859e+00 7.866818904876708984e-01 1.827549457550048828e+00
8.480000000000000000e+02 2.094162750244140625e+01 -1.131269931793212891e+01 5.717844963073730469e+00 -3.923189878463745117e+00 5.383965373039245605e-01 1.516106963157653809e+00
8.490000000000000000e+02 2.117033004760742188e+01 -1.109312248229980469e+01 5.373544692993164062e+00 -3.722377777099609375e+00 4.953500628471374512e-01 8.034310340881347656e-01
8.500000000000000000e+02 2.034185409545898438e+01 -1.060254001617431641e+01 3.275287151336669922e+00 -2.730961561203002930e+00 1.632976531982421875e-01 1.268393158912658691e+00
8.510000000000000000e+02 2.060607910156250000e+01 -1.029308128356933594e+01 2.431483030319213867e+00 -2.612922430038452148e+00 -5.443183332681655884e-02 1.104882121086120605e+00
8.520000000000000000e+02 2.011096954345703125e+01 -1.013087368011474609e+01 1.977103114128112793e+00 -2.290411710739135742e+00 -9.399256855249404907e-02 1.181737899780273438e+00
8.530000000000000000e+02 2.015073204040527344e+01 -9.625884056091308594e+00 9.044975638389587402e-01 -2.218981981277465820e+00 -3.943453431129455566e-01 1.298755884170532227e+00
8.540000000000000000e+02 2.067932701110839844e+01 -1.056148242950439453e+01 3.235009193420410156e+00 -2.874207258224487305e+00 1.082405969500541687e-01 1.023566484451293945e+00
8.550000000000000000e+02 1.945152091979980469e+01 -8.804605484008789062e+00 -2.668985128402709961e-01 -1.623806715011596680e+00 -5.672115683555603027e-01 1.618363499641418457e+00
8.560000000000000000e+02 1.908000755310058594e+01 -8.379921913146972656e+00 -6.867527961730957031e-01 -1.448518753051757812e+00 -6.405814886093139648e-01 1.697262406349182129e+00
8.570000000000000000e+02 1.870261764526367188e+01 -7.948686122894287109e+00 -1.036324381828308105e+00 -1.267051339149475098e+00 -6.910127401351928711e-01 1.686965346336364746e+00
8.580000000000000000e+02 1.679666137695312500e+01 -6.049795627593994141e+00 -1.880532503128051758e+00 -4.928131401538848877e-01 -7.120037078857421875e-01 1.452158451080322266e+00
8.590000000000000000e+02 1.578844165802001953e+01 -6.084757804870605469e+00 -1.692100048065185547e+00 8.837978541851043701e-02 -4.811160564422607422e-01 1.082247138023376465e+00
8.600000000000000000e+02 1.526865196228027344e+01 -5.662164211273193359e+00 -1.752071857452392578e+00 1.597930043935775757e-01 -4.776836633682250977e-01 9.668565392494201660e-01
8.610000000000000000e+02 1.462277030944824219e+01 -4.358006000518798828e+00 -2.012766599655151367e+00 -2.627095207571983337e-02 -6.117112636566162109e-01 9.311700463294982910e-01
8.620000000000000000e+02 1.220972347259521484e+01 -2.975658178329467773e+00 -1.764840245246887207e+00 2.207987606525421143e-01 -4.632124602794647217e-01 4.106846749782562256e-01
8.630000000000000000e+02 1.378799057006835938e+01 -5.412533283233642578e+00 -1.637652993202209473e+00 5.746858716011047363e-01 -3.188901245594024658e-01 5.056691169738769531e-01
8.640000000000000000e+02 9.192337036132812500e+00 -1.923407435417175293e+00 -1.319944381713867188e+00 2.753815948963165283e-01 -3.133688271045684814e-01 -2.893650904297828674e-02
8.650000000000000000e+02 7.093658447265625000e+01 -3.053300094604492188e+01 1.367910742759704590e+00 7.115066528320312500e+00 2.544893026351928711e+00 2.463175773620605469e+00
8.660000000000000000e+02 6.680856323242187500e+01 -3.389639663696289062e+01 -8.075111508369445801e-01 3.335447013378143311e-01 -1.421899348497390747e-01 4.063596948981285095e-02
8.670000000000000000e+02 6.408081054687500000e+01 -3.463497161865234375e+01 -1.414898514747619629e+00 1.030204668641090393e-01 -3.935634195804595947e-01 -2.591393887996673584e-01
8.680000000000000000e+02 6.473117065429687500e+01 3.435117721557617188e+01 -1.984593033790588379e+00 -8.889086842536926270e-01 -8.620505332946777344e-01 1.183257699012756348e+00
8.690000000000000000e+02 6.946560668945312500e+01 2.710185813903808594e+01 2.175099104642868042e-01 5.993010997772216797e+00 1.863156199455261230e+00 -7.707225680351257324e-01
8.700000000000000000e+02 6.993981933593750000e+01 2.286979866027832031e+01 8.564692735671997070e-02 8.315995216369628906e+00 2.520492553710937500e+00 3.869615122675895691e-02
8.710000000000000000e+02 6.988018035888671875e+01 2.428096771240234375e+01 1.514789015054702759e-01 8.033761978149414062e+00 2.455572366714477539e+00 -2.232134938240051270e-01
8.720000000000000000e+02 6.996318817138671875e+01 1.866199684143066406e+01 4.078936297446489334e-03 8.968544960021972656e+00 2.691787004470825195e+00 1.773462593555450439e-01
8.730000000000000000e+02 6.993389129638671875e+01 1.444565010070800781e+01 2.333172708749771118e-01 1.025508975982666016e+01 3.146522045135498047e+00 5.188853144645690918e-01
8.740000000000000000e+02 6.983706665039062500e+01 1.305639743804931641e+01 5.428802222013473511e-02 9.259996414184570312e+00 2.794285297393798828e+00 6.765942573547363281e-01
8.750000000000000000e+02 7.138085174560546875e+01 4.761002540588378906e+00 2.307490706443786621e-01 1.233950710296630859e+01 3.771076917648315430e+00 3.829288184642791748e-01
8.760000000000000000e+02 6.999557495117187500e+01 4.900124967098236084e-01 8.024915456771850586e-01 1.428450489044189453e+01 4.526098728179931641e+00 2.259149551391601562e+00
8.770000000000000000e+02 6.882573699951171875e+01 -3.599617242813110352e+00 1.002955079078674316e+00 9.547075271606445312e+00 3.165009021759033203e+00 2.838550567626953125e+00
8.780000000000000000e+02 6.831189727783203125e+01 -4.917727470397949219e+00 1.136655569076538086e+00 8.253825187683105469e+00 2.817144155502319336e+00 2.792096376419067383e+00
8.790000000000000000e+02 6.944940185546875000e+01 -8.158443450927734375e+00 5.182437300682067871e-01 6.673883438110351562e+00 2.157638072967529297e+00 1.221574306488037109e+00
8.800000000000000000e+02 6.416131591796875000e+01 -1.242013835906982422e+01 2.020048379898071289e+00 2.990957975387573242e+00 1.503301978111267090e+00 2.214802503585815430e+00
8.810000000000000000e+02 6.191769409179687500e+01 -1.431152343750000000e+01 1.629183769226074219e+00 1.468733787536621094e+00 9.293752908706665039e-01 1.534787416458129883e+00
8.820000000000000000e+02 5.799569320678710938e+01 -1.647965431213378906e+01 -3.293852806091308594e+00 2.951563894748687744e-02 -9.793011546134948730e-01 4.627741277217864990e-01
8.830000000000000000e+02 5.096526718139648438e+01 -1.017045402526855469e+01 -1.819394901394844055e-02 2.949388742446899414e+00 8.793584108352661133e-01 -5.569951534271240234e-01
8.840000000000000000e+02 5.012674713134765625e+01 -7.515893936157226562e+00 1.947184205055236816e-01 3.985895872116088867e+00 1.254184365272521973e+00 -1.036669850349426270e+00
8.850000000000000000e+02 4.970930862426757812e+01 -6.194013118743896484e+00 3.143490254878997803e-01 4.345713615417480469e+00 1.398018836975097656e+00 -1.236394286155700684e+00
8.860000000000000000e+02 4.773408126831054688e+01 -4.089333057403564453e+00 2.320876419544219971e-01 4.818874359130859375e+00 1.515288591384887695e+00 -1.483576178550720215e+00
8.870000000000000000e+02 4.784753799438476562e+01 -1.030603408813476562e+00 6.957983970642089844e-01 4.654344081878662109e+00 1.605042695999145508e+00 -1.956047654151916504e+00
8.880000000000000000e+02 4.725685882568359375e+01 2.040879279375076294e-01 9.519066810607910156e-01 4.990847110748291016e+00 1.782826185226440430e+00 -2.251831769943237305e+00
8.890000000000000000e+02 4.663809967041015625e+01 1.431316852569580078e+00 1.120474696159362793e+00 5.335054874420166016e+00 1.936658859252929688e+00 -2.475254058837890625e+00
8.900000000000000000e+02 4.599650573730468750e+01 2.651319503784179688e+00 1.248588442802429199e+00 5.560527801513671875e+00 2.042734861373901367e+00 -2.742181777954101562e+00
8.910000000000000000e+02 4.458469772338867188e+01 5.063810348510742188e+00 1.786752820014953613e+00 7.099215507507324219e+00 2.665790557861328125e+00 -3.516057491302490234e+00
8.920000000000000000e+02 4.317204284667968750e+01 7.593800544738769531e+00 1.726172447204589844e+00 1.020114135742187500e+01 3.578194141387939453e+00 -3.782654285430908203e+00
8.930000000000000000e+02 4.211688613891601562e+01 1.189956665039062500e+01 6.204804182052612305e-01 1.358343410491943359e+01 4.261174201965332031e+00 -5.060550570487976074e-01
8.940000000000000000e+02 4.219432067871093750e+01 1.483921813964843750e+01 3.084683120250701904e-01 1.152813148498535156e+01 3.550980091094970703e+00 8.106861710548400879e-01
8.950000000000000000e+02 4.273100662231445312e+01 1.769014930725097656e+01 6.149351596832275391e-01 1.011153221130371094e+01 3.217940092086791992e+00 1.957931637763977051e+00
8.960000000000000000e+02 4.399622344970703125e+01 2.180013847351074219e+01 1.053671956062316895e+00 7.686387538909912109e+00 2.622017860412597656e+00 2.459189176559448242e+00
8.970000000000000000e+02 4.652710723876953125e+01 2.687094688415527344e+01 1.213792204856872559e+00 4.078715801239013672e+00 1.587752461433410645e+00 2.063936471939086914e+00
8.980000000000000000e+02 4.820802307128906250e+01 2.916487312316894531e+01 9.611382484436035156e-01 2.532991886138916016e+00 1.048238992691040039e+00 1.514408349990844727e+00
8.990000000000000000e+02 5.017186355590820312e+01 3.126638984680175781e+01 5.476911067962646484e-01 1.343016743659973145e+00 5.672123432159423828e-01 8.699624538421630859e-01
9.000000000000000000e+02 5.595892333984375000e+01 3.537139892578125000e+01 -9.992738962173461914e-01 -8.902321755886077881e-02 -3.264891505241394043e-01 -1.534635424613952637e-01
9.010000000000000000e+02 2.224388504028320312e+01 -1.404485607147216797e+01 -9.699288368225097656e+00 -1.468505501747131348e+00 -3.350338220596313477e+00 4.512370109558105469e+00
9.020000000000000000e+02 2.503812789916992188e+01 -1.524475479125976562e+01 -6.650397777557373047e+00 -9.719406366348266602e-01 -2.286701440811157227e+00 2.341766119003295898e+00
9.030000000000000000e+02 2.621763038635253906e+01 -1.587121391296386719e+01 -4.153645038604736328e+00 -4.591471254825592041e-01 -1.383837699890136719e+00 1.605444550514221191e+00
9.040000000000000000e+02 2.778727149963378906e+01 -1.553904914855957031e+01 -2.537905931472778320e+00 1.252801567316055298e-01 -7.237877249717712402e-01 3.281695544719696045e-01
9.050000000000000000e+02 2.991560935974121094e+01 -1.723631286621093750e+01 -2.070441961288452148e+00 -6.797028332948684692e-02 -6.415236592292785645e-01 5.371602177619934082e-01
9.060000000000000000e+02 3.519946670532226562e+01 -1.784040260314941406e+01 -7.951539754867553711e-01 1.629317104816436768e-01 -1.896666735410690308e-01 -3.925710022449493408e-01
9.070000000000000000e+02 3.656291198730468750e+01 -1.786491012573242188e+01 6.584696173667907715e-01 4.001971781253814697e-01 3.176000416278839111e-01 -9.431978464126586914e-01
9.080000000000000000e+02 3.931821823120117188e+01 -1.780741500854492188e+01 2.876646280288696289e+00 5.683170318603515625e+00 2.567945003509521484e+00 -3.738858699798583984e+00
9.090000000000000000e+02 4.274859619140625000e+01 -2.172953605651855469e+01 4.910885810852050781e+00 1.491245651245117188e+01 5.947002410888671875e+00 -4.656834602355957031e+00
9.100000000000000000e+02 4.388221740722656250e+01 -2.342063522338867188e+01 3.219408750534057617e+00 1.124668025970458984e+01 4.339826583862304688e+00 -3.434257268905639648e+00
9.110000000000000000e+02 4.236138534545898438e+01 -2.666896629333496094e+01 5.571521073579788208e-02 1.323541927337646484e+01 3.987340450286865234e+00 -1.570915877819061279e-01
9.120000000000000000e+02 3.837505340576171875e+01 -3.259128952026367188e+01 -1.817456364631652832e+00 2.618330717086791992e-01 -4.666869640350341797e-01 -7.609403878450393677e-02
9.130000000000000000e+02 3.697579956054687500e+01 -3.295526885986328125e+01 -2.658017396926879883e+00 -1.601697951555252075e-01 -8.454561233520507812e-01 -1.636984497308731079e-01
9.140000000000000000e+02 3.242568969726562500e+01 -3.398352813720703125e+01 -1.745078802108764648e+00 -3.507870435714721680e-02 -5.340472459793090820e-01 -1.763640493154525757e-01
9.150000000000000000e+02 2.851747512817382812e+01 -3.361574935913085938e+01 -1.329574704170227051e+00 3.284059092402458191e-02 -3.890202343463897705e-01 5.168148502707481384e-02
9.160000000000000000e+02 2.592837333679199219e+01 -3.162337112426757812e+01 -1.253633856773376465e+00 1.624128199182450771e-03 -3.756029009819030762e-01 8.173237740993499756e-02
9.170000000000000000e+02 2.456928634643554688e+01 -3.140388298034667969e+01 -1.220962166786193848e+00 2.193635702133178711e-02 -3.597077429294586182e-01 5.655417218804359436e-02
9.180000000000000000e+02 2.215821838378906250e+01 -3.121967887878417969e+01 -1.269041895866394043e+00 3.174209594726562500e-02 -3.711899518966674805e-01 1.440287847071886063e-02
9.190000000000000000e+02 1.931707572937011719e+01 -3.171519470214843750e+01 -1.685210347175598145e+00 -6.057766452431678772e-02 -5.237364172935485840e-01 1.814635992050170898e-01
9.200000000000000000e+02 1.778484725952148438e+01 -3.149191284179687500e+01 -1.997934222221374512e+00 -1.358649581670761108e-01 -6.401397585868835449e-01 3.145521879196166992e-01
9.210000000000000000e+02 9.482303619384765625e+00 -2.668010330200195312e+01 -1.717714220285415649e-01 1.739072203636169434e+00 4.701902270317077637e-01 -4.678544104099273682e-01
9.220000000000000000e+02 8.351860046386718750e+00 -2.348049926757812500e+01 4.107531309127807617e-01 7.576556205749511719e+00 2.396192789077758789e+00 7.623182535171508789e-01
9.230000000000000000e+02 8.915265083312988281e+00 -2.085962104797363281e+01 1.469305396080017090e+00 9.755601882934570312e+00 3.367472171783447266e+00 2.846100091934204102e+00
9.240000000000000000e+02 1.002865505218505859e+01 -1.832877922058105469e+01 2.278349876403808594e+00 7.588742733001708984e+00 2.960127830505371094e+00 3.839180946350097656e+00
9.250000000000000000e+02 1.020800209045410156e+01 -1.533917617797851562e+01 3.180803775787353516e+00 4.370784759521484375e+00 2.265476465225219727e+00 2.042993545532226562e+00
9.260000000000000000e+02 1.398330020904541016e+01 -1.431817245483398438e+01 6.738858699798583984e+00 2.271404266357421875e+00 2.703078985214233398e+00 3.356058359146118164e+00
9.270000000000000000e+02 2.092625617980957031e+01 -1.187538623809814453e+01 6.477451801300048828e+00 -4.225569248199462891e+00 6.755648255348205566e-01 2.617904663085937500e+00
9.280000000000000000e+02 2.151819992065429688e+01 -1.216744899749755859e+01 8.324310302734375000e+00 -4.078866958618164062e+00 1.273633003234863281e+00 3.717371940612792969e+00
9.290000000000000000e+02 1.977865982055664062e+01 -1.345881462097167969e+01 4.133975028991699219e+00 -2.581403553485870361e-01 1.162750363349914551e+00 7.458202838897705078e-01
9.300000000000000000e+02 2.073680114746093750e+01 -1.120159244537353516e+01 5.172374248504638672e+00 -3.650435209274291992e+00 4.565816521644592285e-01 1.517697453498840332e+00
9.310000000000000000e+02 2.072519493103027344e+01 -1.089230918884277344e+01 4.360065937042236328e+00 -3.308489561080932617e+00 3.154729604721069336e-01 1.066046833992004395e+00
9.320000000000000000e+02 2.039349174499511719e+01 -9.906396865844726562e+00 1.423381447792053223e+00 -2.400600671768188477e+00 -2.931657731533050537e-01 1.241388320922851562e+00
9.330000000000000000e+02 2.048846817016601562e+01 -1.010261917114257812e+01 1.924120187759399414e+00 -2.446020841598510742e+00 -1.565701812505722046e-01 1.188454389572143555e+00
9.340000000000000000e+02 1.975506401062011719e+01 -9.890359878540039062e+00 1.515640854835510254e+00 -1.938463568687438965e+00 -1.268468201160430908e-01 1.364029169082641602e+00
9.350000000000000000e+02 1.903664970397949219e+01 -9.152120590209960938e+00 3.956751227378845215e-01 -1.269091129302978516e+00 -2.620248198509216309e-01 1.504082560539245605e+00
9.360000000000000000e+02 2.158643531799316406e+01 -1.170078563690185547e+01 8.111104011535644531e+00 -4.304259777069091797e+00 1.142053365707397461e+00 1.959157586097717285e+00
9.370000000000000000e+02 2.136153030395507812e+01 -1.169686508178710938e+01 7.559336662292480469e+00 -4.424258708953857422e+00 9.405233860015869141e-01 1.998907566070556641e+00
9.380000000000000000e+02 2.428767204284667969e+01 -9.810287475585937500e+00 3.410829901695251465e-01 4.819055080413818359e+00 1.548041462898254395e+00 3.043358087539672852e+00
9.390000000000000000e+02 2.421657943725585938e+01 -9.191098213195800781e+00 -4.707071781158447266e-01 3.715169191360473633e+00 9.733386039733886719e-01 2.013327360153198242e+00
9.400000000000000000e+02 2.445261955261230469e+01 -1.015293025970458984e+01 1.728203773498535156e+00 4.974864482879638672e+00 2.010920524597167969e+00 4.208744049072265625e+00
9.410000000000000000e+02 2.435513687133789062e+01 -9.998058319091796875e+00 6.675565242767333984e-01 5.083236217498779297e+00 1.725237846374511719e+00 3.481883287429809570e+00
9.420000000000000000e+02 2.512180519104003906e+01 -1.022673606872558594e+01 3.560002088546752930e+00 3.058983087539672852e+00 1.985695481300354004e+00 4.237453937530517578e+00
9.430000000000000000e+02 2.326260375976562500e+01 -7.860669136047363281e+00 -1.109773635864257812e+00 1.238143086433410645e+00 3.851085901260375977e-02 8.211020231246948242e-01
9.440000000000000000e+02 2.388913726806640625e+01 -8.655307769775390625e+00 -8.929368853569030762e-01 2.703935384750366211e+00 5.432995557785034180e-01 1.238558530807495117e+00
9.450000000000000000e+02 2.406626319885253906e+01 -9.426010131835937500e+00 -4.299447238445281982e-01 4.015689849853515625e+00 1.075723528861999512e+00 2.059172630310058594e+00
9.460000000000000000e+02 2.420097160339355469e+01 -9.602700233459472656e+00 -2.076172977685928345e-01 4.369031429290771484e+00 1.248424172401428223e+00 2.414425134658813477e+00
9.470000000000000000e+02 1.827282714843750000e+01 -7.492094993591308594e+00 -1.272617459297180176e+00 -1.043147206306457520e+00 -6.947293877601623535e-01 1.692453742027282715e+00
9.480000000000000000e+02 1.528392124176025391e+01 -7.461005210876464844e+00 -8.346456885337829590e-01 7.425622940063476562e-01 -2.762503176927566528e-02 7.440057396888732910e-01
9.490000000000000000e+02 1.981063270568847656e+01 -9.223130226135253906e+00 2.930334508419036865e-01 -1.901952862739562988e+00 -4.826758205890655518e-01 1.486350417137145996e+00
9.500000000000000000e+02 1.872552680969238281e+01 -1.229698371887207031e+01 4.599838256835937500e+00 -2.532103061676025391e-01 1.303988337516784668e+00 1.818917155265808105e+00
9.510000000000000000e+02 1.867199707031250000e+01 -9.521264076232910156e+00 9.096982479095458984e-01 -9.867406487464904785e-01 -2.311272360384464264e-02 1.370293855667114258e+00
9.520000000000000000e+02 1.773570632934570312e+01 -7.924510478973388672e+00 -8.343457579612731934e-01 -5.059086084365844727e-01 -4.020763337612152100e-01 1.436924695968627930e+00
9.530000000000000000e+02 1.728259468078613281e+01 -1.275293159484863281e+01 6.780578613281250000e+00 7.587832212448120117e-01 2.261808633804321289e+00 1.252466440200805664e+00
9.540000000000000000e+02 2.255320739746093750e+01 -6.042523860931396484e+00 -1.267119646072387695e+00 3.487656414508819580e-01 -2.755061984062194824e-01 7.664899230003356934e-01
9.550000000000000000e+02 2.297639274597167969e+01 -7.508451461791992188e+00 -1.136790275573730469e+00 7.613379359245300293e-01 -1.126357093453407288e-01 7.912836074829101562e-01
9.560000000000000000e+02 2.071357917785644531e+01 -3.909004449844360352e+00 -1.428174734115600586e+00 -5.426971912384033203e-01 -5.912615656852722168e-01 9.116761088371276855e-01
9.570000000000000000e+02 2.139818954467773438e+01 -5.524315357208251953e+00 -1.396650075912475586e+00 -5.717836618423461914e-01 -5.905300974845886230e-01 9.661999344825744629e-01
9.580000000000000000e+02 2.328689575195312500e+01 -6.028934001922607422e+00 -1.223665237426757812e+00 1.022074222564697266e+00 -6.047729775309562683e-02 7.549269199371337891e-01
9.590000000000000000e+02 2.294049263000488281e+01 -6.530582904815673828e+00 -1.257357358932495117e+00 7.144835591316223145e-01 -1.628621518611907959e-01 7.763957381248474121e-01
9.600000000000000000e+02 1.573060035705566406e+01 -5.175816535949707031e+00 -2.004619598388671875e+00 -2.193315029144287109e-01 -6.671853661537170410e-01 1.205608963966369629e+00
9.610000000000000000e+02 1.677603340148925781e+01 -6.993615627288818359e+00 -1.369180679321289062e+00 -1.553043872117996216e-01 -4.573455154895782471e-01 1.279519915580749512e+00
9.620000000000000000e+02 1.404521179199218750e+01 -3.985638856887817383e+00 -1.963087677955627441e+00 4.600570723414421082e-02 -5.751245617866516113e-01 8.066742420196533203e-01
9.630000000000000000e+02 1.517886447906494141e+01 -4.761827945709228516e+00 -1.996183872222900391e+00 -1.200757324695587158e-01 -6.348778605461120605e-01 1.070969939231872559e+00
9.640000000000000000e+02 1.419648742675781250e+01 -4.885224342346191406e+00 -1.813749313354492188e+00 2.831135690212249756e-01 -4.591907262802124023e-01 7.143751978874206543e-01
9.650000000000000000e+02 1.778699302673339844e+01 -7.011645317077636719e+00 -1.554952383041381836e+00 -8.352498412132263184e-01 -7.170606851577758789e-01 1.621629595756530762e+00
9.660000000000000000e+02 1.571679878234863281e+01 -7.957431316375732422e+00 -5.456051826477050781e-01 7.316876649856567383e-01 5.582475289702415466e-02 8.265385031700134277e-01
9.670000000000000000e+02 1.305611419677734375e+01 -4.194654464721679688e+00 -1.773914933204650879e+00 3.788083195686340332e-01 -4.185319840908050537e-01 4.660586118698120117e-01
9.680000000000000000e+02 1.151622962951660156e+01 -2.656149387359619141e+00 -1.656278133392333984e+00 2.533973753452301025e-01 -4.208642244338989258e-01 2.887881994247436523e-01
9.690000000000000000e+02 1.282934284210205078e+01 -3.305469989776611328e+00 -1.832363724708557129e+00 1.738403439521789551e-01 -4.975570142269134521e-01 5.345577001571655273e-01
9.700000000000000000e+02 1.182856559753417969e+01 -3.582476615905761719e+00 -1.652816057205200195e+00 4.317220151424407959e-01 -3.663282096385955811e-01 2.174818664789199829e-01
9.710000000000000000e+02 8.403321266174316406e+00 3.303756237030029297e+00 -5.583030581474304199e-01 -4.162495434284210205e-01 -2.923657894134521484e-01 7.407028675079345703e-01
9.720000000000000000e+02 8.439077377319335938e+00 2.584386348724365234e+00 -6.643303632736206055e-01 -3.613567352294921875e-01 -3.077061474323272705e-01 6.938741207122802734e-01
9.730000000000000000e+02 1.699594020843505859e+00 7.913147926330566406e+00 -5.462477449327707291e-03 -5.969070792198181152e-01 -1.807108670473098755e-01 2.345548570156097412e-01
9.740000000000000000e+02 5.521677494049072266e+00 1.874054789543151855e+00 -3.739297091960906982e-01 -8.311986178159713745e-02 -1.371148675680160522e-01 2.820510566234588623e-01
9.750000000000000000e+02 9.165657043457031250e+00 2.638924121856689453e+00 -7.346967458724975586e-01 -4.567082524299621582e-01 -3.574215173721313477e-01 7.611702680587768555e-01
9.760000000000000000e+02 7.723803520202636719e+00 1.857859134674072266e+00 -7.260309457778930664e-01 -1.527949571609497070e-01 -2.636477649211883545e-01 4.896466135978698730e-01
9.770000000000000000e+02 6.992054939270019531e+00 2.579691648483276367e+00 -5.297993421554565430e-01 -1.939174830913543701e-01 -2.171150445938110352e-01 5.117576122283935547e-01
9.780000000000000000e+02 7.708574295043945312e+00 3.277370452880859375e+00 -4.888713657855987549e-01 -3.487606644630432129e-01 -2.512896060943603516e-01 6.705284118652343750e-01
9.790000000000000000e+02 1.874095678329467773e+00 3.871776103973388672e+00 -5.097778886556625366e-02 -1.784733384847640991e-01 -6.883534044027328491e-02 1.502768099308013916e-01
9.800000000000000000e+02 4.130882263183593750e+00 3.437022447586059570e+00 -2.085411399602890015e-01 -1.884380429983139038e-01 -1.190937533974647522e-01 3.197761178016662598e-01
9.810000000000000000e+02 1.285138726234436035e+00 3.222851514816284180e+00 -3.295867145061492920e-02 -1.193387582898139954e-01 -4.568922892212867737e-02 8.267168700695037842e-02
9.820000000000000000e+02 2.593441009521484375e+00 1.964404821395874023e+00 -9.831463545560836792e-02 -6.061917543411254883e-02 -4.768014326691627502e-02 9.573942422866821289e-02
9.830000000000000000e+02 1.955487370491027832e+00 2.967519998550415039e+00 -7.700759917497634888e-02 -1.089308634400367737e-01 -5.578153952956199646e-02 1.187709048390388489e-01
9.840000000000000000e+02 2.584908866882324219e+01 -1.208400726318359375e+01 4.625423908233642578e+00 -5.296272039413452148e-02 1.371738314628601074e+00 -3.427525162696838379e-01
9.850000000000000000e+02 2.386704635620117188e+01 -1.322275829315185547e+01 -6.315482854843139648e-01 3.217576503753662109e+00 7.758084535598754883e-01 -3.821062147617340088e-01
9.860000000000000000e+02 2.306436729431152344e+01 -1.325932025909423828e+01 -6.427550911903381348e-01 1.354929089546203613e+00 2.136521935462951660e-01 3.593475103378295898e+00
9.870000000000000000e+02 2.478427314758300781e+01 -1.253856945037841797e+01 5.293141365051269531e+00 1.948411107063293457e+00 2.172465801239013672e+00 -1.850726127624511719e+00
9.880000000000000000e+02 2.467619895935058594e+01 -1.313646888732910156e+01 1.474806904792785645e+00 2.439477682113647461e+00 1.174285411834716797e+00 -1.887266993522644043e+00
9.890000000000000000e+02 2.616200256347656250e+01 -1.154193019866943359e+01 5.112490177154541016e+00 -1.924709230661392212e-01 1.476005792617797852e+00 7.948993444442749023e-01
9.900000000000000000e+02 2.548484802246093750e+01 -1.129215049743652344e+01 6.587163448333740234e+00 7.338408231735229492e-01 2.196301221847534180e+00 2.522331714630126953e+00
9.910000000000000000e+02 1.674847602844238281e+01 2.495946884155273438e-01 -1.115695834159851074e+00 -8.816739320755004883e-01 -5.992109179496765137e-01 8.920965790748596191e-01
9.920000000000000000e+02 1.242843818664550781e+01 1.033261299133300781e+00 -1.431534528732299805e+00 -7.673177719116210938e-01 -6.596556901931762695e-01 9.661605954170227051e-01
9.930000000000000000e+02 1.464224147796630859e+01 -8.294329047203063965e-02 -1.638958334922790527e+00 -9.648644328117370605e-01 -7.811468243598937988e-01 1.153646230697631836e+00
9.940000000000000000e+02 1.533598423004150391e+01 -4.824162125587463379e-01 -1.684302687644958496e+00 -1.031372427940368652e+00 -8.147025108337402344e-01 1.183373451232910156e+00
9.950000000000000000e+02 1.798089599609375000e+01 -2.289394378662109375e+00 -1.730206727981567383e+00 -1.146104216575622559e+00 -8.628932833671569824e-01 1.242384791374206543e+00
9.960000000000000000e+02 2.035977363586425781e+01 -4.429265975952148438e+00 -1.553292512893676758e+00 -9.147506952285766602e-01 -7.404129505157470703e-01 1.118282675743103027e+00
9.970000000000000000e+02 2.015889549255371094e+01 -3.343391418457031250e+00 -1.452021121978759766e+00 -6.939746141433715820e-01 -6.437987089157104492e-01 9.428322911262512207e-01
9.980000000000000000e+02 2.173058891296386719e+01 -5.013142108917236328e+00 -1.356901049613952637e+00 -1.543096601963043213e-01 -4.533632099628448486e-01 8.242542147636413574e-01
9.990000000000000000e+02 2.124672698974609375e+01 -4.471587657928466797e+00 -1.394112229347229004e+00 -3.794150352478027344e-01 -5.320581793785095215e-01 8.709650635719299316e-01
1.000000000000000000e+03 1.770071029663085938e+01 -1.250648140907287598e+00 -1.453294038772583008e+00 -9.776988029479980469e-01 -7.292978763580322266e-01 1.033552408218383789e+00
1.001000000000000000e+03 1.833947944641113281e+01 -1.738172054290771484e+00 -1.466046929359436035e+00 -9.342559576034545898e-01 -7.200908660888671875e-01 1.024792075157165527e+00
1.002000000000000000e+03 1.957874107360839844e+01 -2.787888050079345703e+00 -1.465699911117553711e+00 -7.929756045341491699e-01 -6.776026487350463867e-01 9.771263003349304199e-01
1.003000000000000000e+03 1.151813507080078125e+01 -4.192822933197021484e+00 -1.553878188133239746e+00 6.222842931747436523e-01 -2.794781625270843506e-01 5.278402939438819885e-02
1.004000000000000000e+03 6.015709400177001953e+00 -1.871438980102539062e+00 -7.873420715332031250e-01 4.876093193888664246e-02 -2.215743362903594971e-01 -3.837705254554748535e-01
1.005000000000000000e+03 7.478016376495361328e+00 -2.617128133773803711e+00 -9.981188178062438965e-01 2.300131171941757202e-01 -2.304317206144332886e-01 -3.783398568630218506e-01
1.006000000000000000e+03 4.424011230468750000e+00 -1.886271595954895020e+00 -5.181244015693664551e-01 -3.033884614706039429e-02 -1.645389795303344727e-01 -3.973770737648010254e-01
1.007000000000000000e+03 5.932247161865234375e+00 -2.620214700698852539e+00 -7.368651032447814941e-01 7.715299725532531738e-02 -1.979136317968368530e-01 -5.165936350822448730e-01
1.008000000000000000e+03 8.236433982849121094e+00 -2.655277967453002930e+00 -1.139015793800354004e+00 3.108492195606231689e-01 -2.484499812126159668e-01 -2.895599305629730225e-01
1.009000000000000000e+03 5.878113269805908203e+00 -3.374787092208862305e+00 -6.940305233001708984e-01 1.060174927115440369e-01 -1.764039099216461182e-01 -6.448693275451660156e-01
1.010000000000000000e+03 6.619926452636718750e+00 -3.355126380920410156e+00 -8.110199570655822754e-01 2.037048041820526123e-01 -1.821945458650588989e-01 -5.911839604377746582e-01
1.011000000000000000e+03 1.619527935981750488e+00 -9.377494812011718750e+00 -6.899849046021699905e-03 -1.984400391578674316e+00 -5.973901152610778809e-01 -6.761131882667541504e-01
1.012000000000000000e+03 5.677955150604248047e-01 -6.503233432769775391e+00 1.032472471706569195e-03 -1.290003538131713867e+00 -3.866913318634033203e-01 -2.240379303693771362e-01
1.013000000000000000e+03 6.164109706878662109e-01 -5.057050704956054688e+00 -1.819240488111972809e-02 -7.660322785377502441e-01 -2.352674156427383423e-01 -1.982620954513549805e-01
1.014000000000000000e+03 5.501037836074829102e-01 -3.595526218414306641e+00 -3.698212280869483948e-02 -3.920630216598510742e-01 -1.287135332822799683e-01 -1.361043602228164673e-01
1.015000000000000000e+03 1.204752540588378906e+01 2.116188287734985352e+00 -9.484768509864807129e-01 -7.917170524597167969e-01 -5.220581889152526855e-01 8.898088335990905762e-01
1.016000000000000000e+03 1.355204677581787109e+01 1.322948336601257324e+00 -1.173041701316833496e+00 -8.612039685249328613e-01 -6.102737188339233398e-01 9.548307657241821289e-01
1.017000000000000000e+03 1.428694057464599609e+01 9.265406131744384766e-01 -1.235985517501831055e+00 -9.092186689376831055e-01 -6.435612440109252930e-01 9.960467219352722168e-01
1.018000000000000000e+03 1.074523639678955078e+01 -2.353377103805541992e+00 -1.545430779457092285e+00 2.924714982509613037e-01 -3.758877813816070557e-01 1.618868410587310791e-01
1.019000000000000000e+03 1.185436630249023438e+01 -5.003241539001464844e+00 -1.463982343673706055e+00 7.807570099830627441e-01 -2.049675881862640381e-01 2.331390045583248138e-02
1.020000000000000000e+03 1.044437694549560547e+01 -3.067072868347167969e+00 -1.479110717773437500e+00 4.523014128208160400e-01 -3.080427944660186768e-01 -3.961375914514064789e-03
1.021000000000000000e+03 5.530429458618164062e+01 -3.076418304443359375e+01 1.692635297775268555e+00 8.750988960266113281e+00 3.133087158203125000e+00 -1.395177721977233887e+00
1.022000000000000000e+03 6.949423980712890625e+01 -2.173532295227050781e+01 -1.988777041435241699e+00 1.263206720352172852e+00 -2.176710963249206543e-01 -4.633396863937377930e-01
1.023000000000000000e+03 6.539834594726562500e+01 -2.091984367370605469e+01 -1.648862123489379883e+00 8.727636933326721191e-01 -2.328295409679412842e-01 9.540926218032836914e-01
1.024000000000000000e+03 6.189295578002929688e+01 -2.326932144165039062e+01 2.199963569641113281e+00 9.344024658203125000e-01 9.403098225593566895e-01 1.473320722579956055e+00
1.025000000000000000e+03 6.037054061889648438e+01 -2.285104179382324219e+01 1.590884208679199219e+00 1.603555560111999512e+00 9.583319425582885742e-01 1.778682231903076172e+00
1.026000000000000000e+03 5.656050491333007812e+01 -2.724005126953125000e+01 1.622561931610107422e+00 4.326547622680664062e+00 1.784732937812805176e+00 1.856105327606201172e+00
1.027000000000000000e+03 5.334411239624023438e+01 -2.667116165161132812e+01 1.951892018318176270e+00 4.849109649658203125e+00 2.040300607681274414e+00 -8.767203688621520996e-01
1.028000000000000000e+03 7.107322692871093750e+01 -2.286961555480957031e+01 3.116148114204406738e-01 6.206161022186279297e+00 1.955332756042480469e+00 -1.879193067550659180e+00
1.029000000000000000e+03 7.826854705810546875e+01 -2.461297416687011719e+01 1.622687429189682007e-01 6.732779979705810547e+00 2.068514585494995117e+00 5.009079575538635254e-01
1.030000000000000000e+03 7.199298095703125000e+01 -3.000251960754394531e+01 1.012052297592163086e+00 9.008619308471679688e+00 3.006201267242431641e+00 1.467833399772644043e+00
1.031000000000000000e+03 5.915950012207031250e+01 -2.350780487060546875e+01 2.139251470565795898e+00 1.637999892234802246e+00 1.133175373077392578e+00 1.795653343200683594e+00
1.032000000000000000e+03 7.179031372070312500e+01 -2.725559806823730469e+01 3.589981496334075928e-01 1.285642910003662109e+01 3.964628219604492188e+00 1.093570113182067871e+00
1.033000000000000000e+03 7.284724426269531250e+01 -2.762570571899414062e+01 1.541475296020507812e+00 9.945667266845703125e+00 3.446142673492431641e+00 7.386363148689270020e-01
1.034000000000000000e+03 6.798742675781250000e+01 -3.308247375488281250e+01 -5.531612038612365723e-02 9.417582750320434570e-01 2.659326493740081787e-01 5.853445529937744141e-01
1.035000000000000000e+03 7.084391784667968750e+01 -3.293633651733398438e+01 -3.323569595813751221e-01 5.562966823577880859e+00 1.569182872772216797e+00 1.283690690994262695e+00
1.036000000000000000e+03 5.579781723022460938e+01 -2.570613288879394531e+01 1.853434920310974121e+00 3.525100469589233398e+00 1.613560557365417480e+00 7.991537451744079590e-01
1.037000000000000000e+03 7.163862609863281250e+01 -2.097540092468261719e+01 -1.852292656898498535e+00 6.652388572692871094e+00 1.440028786659240723e+00 -1.227352499961853027e+00
1.038000000000000000e+03 7.278413391113281250e+01 -2.856653213500976562e+01 1.262454390525817871e+00 9.154889106750488281e+00 3.125202894210815430e+00 5.139375925064086914e-01
1.039000000000000000e+03 5.372572708129882812e+01 -2.908777809143066406e+01 1.862946629524230957e+00 6.145479679107666016e+00 2.402528047561645508e+00 -1.441745996475219727e+00
1.040000000000000000e+03 5.333649444580078125e+01 -3.132044219970703125e+01 2.128260135650634766e+00 5.629814624786376953e+00 2.327422380447387695e+00 -1.077233195304870605e+00
1.041000000000000000e+03 5.687149429321289062e+01 -2.498082351684570312e+01 2.118596076965332031e+00 2.607585430145263672e+00 1.417854428291320801e+00 1.588955044746398926e+00
1.042000000000000000e+03 6.863098907470703125e+01 -3.418183517456054688e+01 -3.913570046424865723e-01 2.350775957107543945e+00 5.878257155418395996e-01 1.075983285903930664e+00
1.043000000000000000e+03 6.770215606689453125e+01 -3.503433990478515625e+01 -2.726558744907379150e-01 1.557970643043518066e+00 3.855944275856018066e-01 8.973373174667358398e-01
1.044000000000000000e+03 6.556312561035156250e+01 -3.630286407470703125e+01 9.778601676225662231e-02 5.602526068687438965e-01 1.974115818738937378e-01 2.989484071731567383e-01
1.045000000000000000e+03 6.043487930297851562e+01 -3.804612350463867188e+01 4.305126965045928955e-01 1.455792069435119629e+00 5.658914446830749512e-01 -9.866424798965454102e-01
1.046000000000000000e+03 6.472850036621093750e+01 -3.974575042724609375e+01 9.362944364547729492e-01 9.003146886825561523e-01 5.509827136993408203e-01 5.286056920886039734e-02
1.047000000000000000e+03 5.721418762207031250e+01 -3.353592300415039062e+01 1.805557012557983398e+00 4.187417030334472656e+00 1.797892212867736816e+00 -2.802764177322387695e+00
1.048000000000000000e+03 7.516171264648437500e+01 -2.873419570922851562e+01 7.105728983879089355e-01 7.720331192016601562e+00 2.529271125793457031e+00 -3.167165517807006836e-01
1.049000000000000000e+03 7.262369537353515625e+01 -2.500020790100097656e+01 1.188565611839294434e+00 1.072779655456542969e+01 3.574908733367919922e+00 -2.305482774972915649e-01
1.050000000000000000e+03 5.799852752685546875e+01 -2.422145080566406250e+01 2.326774358749389648e+00 1.808710575103759766e+00 1.240645408630371094e+00 1.727602601051330566e+00
1.051000000000000000e+03 5.732897949218750000e+01 -2.162163925170898438e+01 9.778621196746826172e-01 1.171464323997497559e+00 6.447979211807250977e-01 1.423957228660583496e+00
1.052000000000000000e+03 6.139488220214843750e+01 -1.606886863708496094e+01 -1.039884909987449646e-01 1.619383096694946289e+00 4.546183645725250244e-01 1.411866068840026855e+00
1.053000000000000000e+03 7.186371612548828125e+01 -3.227107620239257812e+01 -5.392520427703857422e-01 6.753745555877685547e+00 1.864348053932189941e+00 4.948303997516632080e-01
1.054000000000000000e+03 4.517576599121093750e+01 -3.062502479553222656e+01 5.901157855987548828e-01 7.601098537445068359e+00 2.457364320755004883e+00 -1.286593079566955566e+00
1.055000000000000000e+03 4.510595321655273438e+01 -2.927107810974121094e+01 1.064604640007019043e+00 8.270939826965332031e+00 2.800663232803344727e+00 -1.234825015068054199e+00
1.056000000000000000e+03 8.840929985046386719e+00 -2.748345375061035156e+01 -1.073641538619995117e+00 2.783067464828491211e+00 5.128278136253356934e-01 3.729133009910583496e-01
1.057000000000000000e+03 3.788582229614257812e+01 -1.798920059204101562e+01 3.128920555114746094e+00 2.507408142089843750e+00 1.690898537635803223e+00 -2.738665103912353516e+00
1.058000000000000000e+03 1.169736480712890625e+01 -3.077593040466308594e+01 -1.509543418884277344e+00 1.214267499744892120e-02 -4.492202103137969971e-01 3.986931741237640381e-01
1.059000000000000000e+03 1.499974727630615234e+01 -3.084382629394531250e+01 -2.325199127197265625e+00 -3.139586448669433594e-01 -7.917473316192626953e-01 7.010053992271423340e-01
1.060000000000000000e+03 4.120992660522460938e+01 -1.838797950744628906e+01 1.737381935119628906e+00 8.732610702514648438e+00 3.140997886657714844e+00 -3.827765464782714844e+00
1.061000000000000000e+03 4.145956039428710938e+01 -2.093972587585449219e+01 6.088853836059570312e+00 1.419493770599365234e+01 6.085137367248535156e+00 -6.939868450164794922e+00
1.062000000000000000e+03 3.250951004028320312e+01 -1.774831199645996094e+01 -1.610570073127746582e+00 8.343140780925750732e-02 -4.581415951251983643e-01 6.189337372779846191e-02
1.063000000000000000e+03 3.276408004760742188e+01 -1.535087776184082031e+01 -3.623159825801849365e-01 6.231893301010131836e-01 7.826200127601623535e-02 -7.052077054977416992e-01
1.064000000000000000e+03 4.082333755493164062e+01 -1.727675247192382812e+01 8.107246756553649902e-01 7.939656257629394531e+00 2.625114440917968750e+00 -3.323496818542480469e+00
1.065000000000000000e+03 7.014801025390625000e+00 -2.293092918395996094e+01 1.088240146636962891e+00 4.621294498443603516e+00 1.712860465049743652e+00 1.778809428215026855e+00
1.066000000000000000e+03 4.232826995849609375e+01 -2.534433174133300781e+01 3.826087415218353271e-01 1.428508090972900391e+01 4.400307178497314453e+00 -7.061926126480102539e-01
1.067000000000000000e+03 3.857168197631835938e+01 -3.418364715576171875e+01 -1.106601595878601074e+00 8.560751080513000488e-01 -7.515795528888702393e-02 8.981761336326599121e-01
1.068000000000000000e+03 2.279920578002929688e+01 -3.215307235717773438e+01 -1.348800063133239746e+00 2.668577432632446289e-02 -3.966342806816101074e-01 7.260563969612121582e-02
1.069000000000000000e+03 2.400078201293945312e+01 -3.276463699340820312e+01 -1.294185161590576172e+00 5.987949203699827194e-03 -3.864591419696807861e-01 9.904276579618453979e-02
1.070000000000000000e+03 4.294153976440429688e+01 -3.309759140014648438e+01 -1.286545753479003906e+00 6.019503593444824219e+00 1.419887423515319824e+00 2.255593687295913696e-01
1.071000000000000000e+03 4.231268692016601562e+01 -3.108202552795410156e+01 2.377797663211822510e-01 7.318943023681640625e+00 2.267016887664794922e+00 1.134306073188781738e+00
1.072000000000000000e+03 1.725922584533691406e+01 -7.462639808654785156e+00 -1.099664092063903809e+00 -3.107503652572631836e-01 -4.231243133544921875e-01 1.375043869018554688e+00
1.073000000000000000e+03 6.265800476074218750e+00 -1.840927696228027344e+01 1.422459244728088379e+00 2.608132123947143555e+00 1.209177374839782715e+00 8.665180206298828125e-01
1.074000000000000000e+03 7.449602603912353516e+00 -2.171918678283691406e+01 1.485310435295104980e+00 5.769011020660400391e+00 2.176296472549438477e+00 1.763823032379150391e+00
1.075000000000000000e+03 8.991185188293457031e+00 -1.789613914489746094e+01 2.100917816162109375e+00 6.125632762908935547e+00 2.467965126037597656e+00 2.790867090225219727e+00
1.076000000000000000e+03 3.703520584106445312e+01 -3.459922409057617188e+01 -1.316876053810119629e+00 3.291409611701965332e-01 -2.963205277919769287e-01 4.788682460784912109e-01
1.077000000000000000e+03 1.894503974914550781e+01 -3.357822418212890625e+01 -1.348909139633178711e+00 -2.335742264986038208e-01 -4.747450053691864014e-01 3.382330238819122314e-01
1.078000000000000000e+03 1.968045997619628906e+01 -1.101288604736328125e+01 3.645721673965454102e+00 -2.088708400726318359e+00 4.671040177345275879e-01 1.749598860740661621e+00
1.079000000000000000e+03 1.862357330322265625e+01 -8.766450881958007812e+00 -1.001652255654335022e-01 -1.016537904739379883e+00 -3.350109457969665527e-01 1.457425475120544434e+00
1.080000000000000000e+03 2.085003089904785156e+01 -3.161184120178222656e+01 -1.493230342864990234e+00 -8.026290684938430786e-02 -4.720479846000671387e-01 9.788084775209426880e-02
1.081000000000000000e+03 4.350790405273437500e+01 -2.439990234375000000e+01 1.787326812744140625e+00 1.346451759338378906e+01 4.575553417205810547e+00 -3.152102708816528320e+00
1.082000000000000000e+03 3.009805297851562500e+01 -3.207687759399414062e+01 -1.443538784980773926e+00 6.144990399479866028e-02 -4.146266877651214600e-01 1.646275073289871216e-01
1.083000000000000000e+03 3.169876289367675781e+01 -3.516292572021484375e+01 -1.358897805213928223e+00 -4.228978604078292847e-02 -4.203562736511230469e-01 -2.055641263723373413e-01
1.084000000000000000e+03 3.376151275634765625e+01 -3.442382049560546875e+01 -1.712124586105346680e+00 -6.071187090128660202e-03 -5.154587626457214355e-01 -1.659757643938064575e-01
1.085000000000000000e+03 1.447271347045898438e+01 -3.215064239501953125e+01 -1.602248668670654297e+00 -4.208971858024597168e-01 -6.069437265396118164e-01 5.261233448982238770e-01
1.086000000000000000e+03 2.542561340332031250e+01 -3.321612930297851562e+01 -1.263654828071594238e+00 9.265903383493423462e-03 -3.763166666030883789e-01 6.842029094696044922e-02
1.087000000000000000e+03 1.310513591766357422e+01 -3.149594306945800781e+01 -1.583209395408630371e+00 -3.515138924121856689e-01 -5.804169774055480957e-01 4.984926581382751465e-01
1.088000000000000000e+03 2.742824363708496094e+01 -1.636973190307617188e+01 -3.409363746643066406e+00 -3.769896030426025391e-01 -1.135905981063842773e+00 1.076661825180053711e+00
1.089000000000000000e+03 2.569273185729980469e+01 -1.459424781799316406e+01 -4.409571170806884766e+00 6.738516092300415039e-01 -1.120715975761413574e+00 -1.653051376342773438e-01
1.090000000000000000e+03 3.522266387939453125e+01 -1.661574554443359375e+01 1.925689131021499634e-01 6.064904928207397461e-01 2.397178262472152710e-01 -1.135194540023803711e+00
1.091000000000000000e+03 3.384663009643554688e+01 -1.781877899169921875e+01 -1.401382446289062500e+00 8.708938211202621460e-02 -3.942879140377044678e-01 -1.267885416746139526e-01
1.092000000000000000e+03 3.264200210571289062e+01 -1.651273155212402344e+01 -9.444088339805603027e-01 3.360891044139862061e-01 -1.824959218502044678e-01 -2.510991990566253662e-01
1.093000000000000000e+03 2.669931221008300781e+01 -1.515925216674804688e+01 -3.655477523803710938e+00 2.269873917102813721e-01 -1.028547048568725586e+00 3.973776102066040039e-01
1.094000000000000000e+03 2.732950210571289062e+01 -3.181303787231445312e+01 -1.312660098075866699e+00 4.028686322271823883e-03 -3.925894200801849365e-01 1.012427061796188354e-01
1.095000000000000000e+03 2.987781906127929688e+01 -3.372383117675781250e+01 -1.466603994369506836e+00 6.823612842708826065e-03 -4.379341304302215576e-01 -4.005762562155723572e-02
1.096000000000000000e+03 7.817652702331542969e+00 -2.473243713378906250e+01 4.923054873943328857e-01 5.454219341278076172e+00 1.783957362174987793e+00 9.056594371795654297e-01
1.097000000000000000e+03 3.139602470397949219e+01 -1.634573745727539062e+01 -1.273190617561340332e+00 3.003762662410736084e-01 -2.918443083763122559e-01 -9.815494716167449951e-02
1.098000000000000000e+03 2.699205780029296875e+01 -3.357938385009765625e+01 -1.288659214973449707e+00 -1.308630127459764481e-02 -3.905236423015594482e-01 2.412036992609500885e-02
1.099000000000000000e+03 9.657278060913085938e+00 -2.852048110961914062e+01 -1.166359305381774902e+00 1.188539862632751465e+00 6.654178258031606674e-03 2.657712697982788086e-01
1.100000000000000000e+03 4.358558654785156250e+01 -2.662352561950683594e+01 9.930189847946166992e-01 1.218803024291992188e+01 3.954314708709716797e+00 -9.886234998703002930e-01
1.101000000000000000e+03 4.164479064941406250e+01 -1.935381317138671875e+01 2.261717081069946289e+00 1.161815452575683594e+01 4.163961410522460938e+00 -4.271354198455810547e+00
1.102000000000000000e+03 4.342237472534179688e+01 -2.541920852661132812e+01 6.220396161079406738e-01 1.319244575500488281e+01 4.144345760345458984e+00 -1.685340285301208496e+00
1.103000000000000000e+03 2.056613731384277344e+01 -3.458312225341796875e+01 -1.185152411460876465e+00 -1.733513176441192627e-01 -4.075511395931243896e-01 2.623256742954254150e-01
1.104000000000000000e+03 5.715148544311523438e+01 4.092755126953125000e+01 -2.205945402383804321e-01 -3.588036298751831055e-01 -1.738194525241851807e-01 1.232343316078186035e-01
1.105000000000000000e+03 5.634676361083984375e+01 -2.364531707763671875e+01 1.832642197608947754e+00 2.024140119552612305e+00 1.157034635543823242e+00 9.335277080535888672e-01
1.106000000000000000e+03 5.856473922729492188e+01 -1.777048492431640625e+01 -1.998154997825622559e+00 6.434217691421508789e-01 -4.064199626445770264e-01 1.911155462265014648e+00
1.107000000000000000e+03 5.632845306396484375e+01 3.838919830322265625e+01 -6.639018654823303223e-01 -6.155017763376235962e-02 -2.176356166601181030e-01 2.682650089263916016e-01
1.108000000000000000e+03 6.070795440673828125e+01 -1.511913681030273438e+01 6.889004111289978027e-01 9.427261948585510254e-01 4.894879758358001709e-01 1.046690106391906738e+00
1.109000000000000000e+03 4.093243408203125000e+01 1.017463874816894531e+01 1.969554424285888672e+00 1.062375545501708984e+01 3.777992963790893555e+00 -1.323822379112243652e+00
1.110000000000000000e+03 4.209949874877929688e+01 1.337819194793701172e+01 3.236123621463775635e-01 1.218843650817871094e+01 3.753614664077758789e+00 3.516387939453125000e-01
1.111000000000000000e+03 7.075515747070312500e+01 3.083493041992187500e+01 -7.799815535545349121e-01 5.387039661407470703e+00 1.382117390632629395e+00 2.902998030185699463e-01
1.112000000000000000e+03 6.708525848388671875e+01 3.451689147949218750e+01 -1.050439238548278809e+00 1.280018568038940430e+00 6.887380033731460571e-02 1.643204092979431152e-01
1.113000000000000000e+03 3.987328720092773438e+01 1.874871444702148438e+01 8.397788405418395996e-01 7.866272449493408203e+00 2.611815452575683594e+00 4.102494120597839355e-01
1.114000000000000000e+03 4.089705657958984375e+01 1.668602371215820312e+01 8.706489205360412598e-01 9.258399963378906250e+00 3.038714647293090820e+00 6.208155155181884766e-01
1.115000000000000000e+03 7.025110626220703125e+01 6.137777328491210938e+00 2.230816483497619629e-01 1.353664112091064453e+01 4.127916812896728516e+00 -8.529072999954223633e-02
1.116000000000000000e+03 7.404800415039062500e+01 7.966415882110595703e+00 9.473917633295059204e-02 9.120990753173828125e+00 2.764719009399414062e+00 9.185600280761718750e-01
1.117000000000000000e+03 7.794089508056640625e+01 3.229730987548828125e+01 -1.061739400029182434e-01 1.059727859497070312e+01 3.147331476211547852e+00 3.552016317844390869e-01
1.118000000000000000e+03 7.936305999755859375e+01 3.615178298950195312e+01 -7.419574260711669922e-02 1.202441501617431641e+01 3.585065841674804688e+00 -4.713397845625877380e-02
1.119000000000000000e+03 7.930905914306640625e+01 -3.469464874267578125e+01 4.052511882036924362e-03 7.498893737792968750e+00 2.250883817672729492e+00 -1.665738821029663086e-01
1.120000000000000000e+03 7.932933044433593750e+01 -2.767945671081542969e+01 2.377537637948989868e-02 5.786859512329101562e+00 1.743190407752990723e+00 -6.158682983368635178e-03
1.121000000000000000e+03 7.946649932861328125e+01 -2.087418365478515625e+01 -2.818375080823898315e-02 7.651977062225341797e+00 2.287137985229492188e+00 1.547887176275253296e-01
1.122000000000000000e+03 7.542910766601562500e+01 -2.242080688476562500e+01 -2.724091410636901855e-01 7.671744346618652344e+00 2.219800472259521484e+00 8.227276802062988281e-01
1.123000000000000000e+03 7.798963165283203125e+01 -2.590484237670898438e+01 2.413096427917480469e-01 6.618432998657226562e+00 2.057922840118408203e+00 3.143709003925323486e-01
1.124000000000000000e+03 7.934451293945312500e+01 -3.048700141906738281e+01 -2.177746593952178955e-02 6.310657501220703125e+00 1.886664032936096191e+00 -1.792857497930526733e-01
1.125000000000000000e+03 7.796081542968750000e+01 -3.444910812377929688e+01 -1.582053750753402710e-01 7.261319637298583984e+00 2.130934238433837891e+00 -3.750047683715820312e-01
1.126000000000000000e+03 7.786905670166015625e+01 -3.300922012329101562e+01 -4.824589937925338745e-02 7.092084884643554688e+00 2.113151788711547852e+00 -5.118985176086425781e-01
1.127000000000000000e+03 7.608611297607421875e+01 -3.779768753051757812e+01 -3.186187744140625000e-01 7.049382686614990234e+00 2.019229173660278320e+00 -2.314016371965408325e-01
1.128000000000000000e+03 7.745137786865234375e+01 -3.819784164428710938e+01 -1.085820198059082031e-01 7.335679531097412109e+00 2.168129205703735352e+00 3.170033171772956848e-02
1.129000000000000000e+03 7.665183258056640625e+01 -3.914996337890625000e+01 -1.481669694185256958e-01 7.281983375549316406e+00 2.140144824981689453e+00 -3.753217682242393494e-02
1.130000000000000000e+03 7.799351501464843750e+01 -4.164311981201171875e+01 1.535107642412185669e-01 7.566597938537597656e+00 2.316032648086547852e+00 4.286233335733413696e-02
1.131000000000000000e+03 7.820816802978515625e+01 2.084925842285156250e+01 3.773613646626472473e-02 8.574382781982421875e+00 2.583635568618774414e+00 4.263705909252166748e-01
1.132000000000000000e+03 7.939708709716796875e+01 2.228841972351074219e+01 2.080353721976280212e-02 8.963042259216308594e+00 2.695153951644897461e+00 1.968547850847244263e-01
1.133000000000000000e+03 7.826238250732421875e+01 1.386313247680664062e+01 -1.759145222604274750e-02 7.427928924560546875e+00 2.223101139068603516e+00 3.826863169670104980e-01
1.134000000000000000e+03 7.941526794433593750e+01 1.530328369140625000e+01 -1.977196428924798965e-03 7.414670944213867188e+00 2.223808050155639648e+00 1.510385125875473022e-01
1.135000000000000000e+03 7.800860595703125000e+01 3.083239555358886719e+01 -9.020581841468811035e-02 1.038166618347167969e+01 3.087438106536865234e+00 4.586273729801177979e-01
1.136000000000000000e+03 7.936461639404296875e+01 2.790603065490722656e+01 3.520073369145393372e-03 1.060004234313964844e+01 3.181068658828735352e+00 2.295261174440383911e-01
1.137000000000000000e+03 7.815563201904296875e+01 2.511303138732910156e+01 1.074330043047666550e-02 9.389275550842285156e+00 2.820005655288696289e+00 5.379722714424133301e-01
1.138000000000000000e+03 7.818045043945312500e+01 2.368427848815917969e+01 3.824168443679809570e-02 9.099265098571777344e+00 2.741252183914184570e+00 5.005632042884826660e-01
1.139000000000000000e+03 7.707775115966796875e+01 1.515389728546142578e+01 -2.740415371954441071e-02 7.923879623413085938e+00 2.368942737579345703e+00 5.145899057388305664e-01
1.140000000000000000e+03 7.824615478515625000e+01 1.524119949340820312e+01 -5.205195862799882889e-03 7.661748886108398438e+00 2.296963214874267578e+00 3.774263858795166016e-01
1.141000000000000000e+03 7.823158264160156250e+01 1.662964820861816406e+01 -2.407548716291785240e-03 7.885393619537353516e+00 2.364895820617675781e+00 3.605361878871917725e-01
1.142000000000000000e+03 7.827915954589843750e+01 1.249164676666259766e+01 -2.517784759402275085e-02 7.179747104644775391e+00 2.146370649337768555e+00 4.238745868206024170e-01
1.143000000000000000e+03 7.257557678222656250e+01 9.185251235961914062e+00 -1.752023696899414062e-01 9.782002449035644531e+00 2.882040023803710938e+00 7.808690667152404785e-01
1.144000000000000000e+03 7.822305297851562500e+01 8.401249885559082031e+00 1.789163611829280853e-02 6.387570381164550781e+00 1.921638607978820801e+00 5.414869785308837891e-01
1.145000000000000000e+03 7.942225646972656250e+01 9.759458541870117188e+00 -1.455991994589567184e-03 6.012003898620605469e+00 1.803164362907409668e+00 2.030507326126098633e-01
1.146000000000000000e+03 7.685916137695312500e+01 7.093605995178222656e+00 1.218064352869987488e-01 7.117373943328857422e+00 2.171754121780395508e+00 7.483307123184204102e-01
1.147000000000000000e+03 7.941687774658203125e+01 -1.949817657470703125e+01 -2.200204692780971527e-02 7.953702449798583984e+00 2.379510164260864258e+00 9.150428324937820435e-02
1.148000000000000000e+03 7.847550201416015625e+01 -2.336988639831542969e+01 -7.164175622165203094e-04 6.931440353393554688e+00 2.079217195510864258e+00 5.857791900634765625e-01
1.149000000000000000e+03 7.934794616699218750e+01 -1.388497447967529297e+01 -1.036128215491771698e-02 7.658935070037841797e+00 2.294572114944458008e+00 -1.420922428369522095e-01
1.150000000000000000e+03 7.937352752685546875e+01 -6.908595085144042969e+00 -5.495697841979563236e-04 5.835424423217773438e+00 1.750462532043457031e+00 -1.771183013916015625e-01
1.151000000000000000e+03 7.812165069580078125e+01 7.736666500568389893e-02 1.191505044698715210e-01 5.412363529205322266e+00 1.659454226493835449e+00 -1.042437106370925903e-01
1.152000000000000000e+03 7.939119720458984375e+01 1.411947488784790039e+00 2.554561197757720947e-02 4.225867748260498047e+00 1.275424122810363770e+00 1.144921220839023590e-02
1.153000000000000000e+03 7.807395172119140625e+01 2.938719177246093750e+01 -3.321127593517303467e-02 1.020429515838623047e+01 3.051325082778930664e+00 5.027303695678710938e-01
1.154000000000000000e+03 7.712136840820312500e+01 3.539802932739257812e+01 -2.085556089878082275e-01 1.001778507232666016e+01 2.942769050598144531e+00 2.044233828783035278e-01
1.155000000000000000e+03 7.827417755126953125e+01 9.773308753967285156e+00 -3.922657296061515808e-02 6.652121067047119141e+00 1.983868360519409180e+00 4.926912784576416016e-01
1.156000000000000000e+03 7.248764038085937500e+01 4.751475334167480469e+00 5.570228695869445801e-01 1.086561203002929688e+01 3.426790714263916016e+00 6.380768418312072754e-01
1.157000000000000000e+03 7.818048095703125000e+01 1.442479491233825684e+00 1.306436955928802490e-01 5.402779102325439453e+00 1.660026907920837402e+00 4.743866249918937683e-02
1.158000000000000000e+03 7.680952453613281250e+01 1.388137787580490112e-01 3.037721812725067139e-01 6.548449039459228516e+00 2.055666446685791016e+00 -1.007996797561645508e-01
1.159000000000000000e+03 7.809305572509765625e+01 -1.286209344863891602e+00 1.063365116715431213e-01 5.492609500885009766e+00 1.679683804512023926e+00 -2.529709339141845703e-01
1.160000000000000000e+03 7.937240600585937500e+01 -2.742404937744140625e+00 2.510576322674751282e-02 4.734850406646728516e+00 1.427986860275268555e+00 -1.400992125272750854e-01
1.161000000000000000e+03 7.809016418457031250e+01 -8.184096336364746094e+00 -5.399593617767095566e-03 6.410319805145263672e+00 1.921476125717163086e+00 -4.649190306663513184e-01
1.162000000000000000e+03 7.813106536865234375e+01 -5.419352531433105469e+00 1.755468919873237610e-02 5.952246189117431641e+00 1.790940165519714355e+00 -4.266896843910217285e-01
1.163000000000000000e+03 7.935626220703125000e+01 -9.696466445922851562e+00 -7.217004429548978806e-03 6.615711212158203125e+00 1.982548236846923828e+00 -1.811400502920150757e-01
1.164000000000000000e+03 7.805242919921875000e+01 -1.522257900238037109e+01 -9.801420569419860840e-02 7.476422786712646484e+00 2.213522434234619141e+00 -2.755309045314788818e-01
1.165000000000000000e+03 7.804523468017578125e+01 -1.238618755340576172e+01 -2.750411257147789001e-02 7.085698127746582031e+00 2.117458105087280273e+00 -4.247677624225616455e-01
1.166000000000000000e+03 7.935202026367187500e+01 -1.669732475280761719e+01 -2.288141846656799316e-02 8.057662010192871094e+00 2.410434246063232422e+00 -4.617295414209365845e-02
1.167000000000000000e+03 7.839312744140625000e+01 -2.087165832519531250e+01 -1.160095855593681335e-01 7.496086120605468750e+00 2.214022874832153320e+00 4.161174297332763672e-01
1.168000000000000000e+03 7.824328613281250000e+01 -1.952767753601074219e+01 -1.534578204154968262e-01 7.648177623748779297e+00 2.248415946960449219e+00 2.492808550596237183e-01
1.169000000000000000e+03 7.112133789062500000e+01 1.315505409240722656e+01 -1.616483479738235474e-01 9.255732536315917969e+00 2.728225231170654297e+00 3.450573235750198364e-02
1.170000000000000000e+03 5.044905471801757812e+01 -1.501618194580078125e+01 -2.108076572418212891e+00 3.474119186401367188e+00 4.098128080368041992e-01 3.259325027465820312e-01
1.171000000000000000e+03 5.362688064575195312e+01 -1.525277519226074219e+01 -3.379390001296997070e+00 -1.502670884132385254e+00 -1.464618206024169922e+00 2.045233726501464844e+00
1.172000000000000000e+03 5.214561843872070312e+01 3.325888442993164062e+01 -3.909535706043243408e-02 4.567103087902069092e-01 1.252844929695129395e-01 2.890996932983398438e-01
1.173000000000000000e+03 4.753793716430664062e+01 3.338834381103515625e+01 -3.906556665897369385e-01 2.720315933227539062e+00 6.988980770111083984e-01 7.097902297973632812e-01
1.174000000000000000e+03 6.585904693603515625e+01 3.333244705200195312e+01 -1.504452109336853027e+00 -6.304256916046142578e-01 -6.404633522033691406e-01 1.074577331542968750e+00
1.175000000000000000e+03 7.102695465087890625e+01 2.448448562622070312e+01 2.810606062412261963e-01 7.700643539428710938e+00 2.394511222839355469e+00 1.553643047809600830e-01
1.176000000000000000e+03 6.975901031494140625e+01 1.168646907806396484e+01 -4.233658611774444580e-01 8.185834884643554688e+00 2.328740596771240234e+00 1.550963968038558960e-01
1.177000000000000000e+03 4.727629089355468750e+01 -2.857167005538940430e+00 3.122907280921936035e-01 4.934148788452148438e+00 1.573931813240051270e+00 -1.696007370948791504e+00
1.178000000000000000e+03 6.652962493896484375e+01 -8.770334243774414062e+00 1.205585241317749023e+00 5.112688064575195312e+00 1.895481944084167480e+00 2.326759576797485352e+00
1.179000000000000000e+03 7.014785003662109375e+01 2.889414215087890625e+01 -2.357619702816009521e-01 5.275506973266601562e+00 1.511923551559448242e+00 7.328961044549942017e-02
1.180000000000000000e+03 6.307509613037109375e+01 -1.342106437683105469e+01 2.015335083007812500e+00 2.143677473068237305e+00 1.247703790664672852e+00 1.970303654670715332e+00
1.181000000000000000e+03 6.522143554687500000e+01 -1.322470378875732422e+01 1.340924739837646484e+00 3.107943534851074219e+00 1.334660530090332031e+00 1.517420768737792969e+00
1.182000000000000000e+03 6.996134948730468750e+01 1.725847625732421875e+01 2.039081417024135590e-02 9.315534591674804688e+00 2.800777673721313477e+00 2.046610563993453979e-01
1.183000000000000000e+03 4.050450515747070312e+01 1.510927104949951172e+01 9.313888549804687500e-01 9.812326431274414062e+00 3.223114728927612305e+00 2.141805887222290039e-01
1.184000000000000000e+03 4.585770034790039062e+01 2.899393463134765625e+01 3.456219434738159180e-01 3.931835889816284180e+00 1.283237338066101074e+00 1.229182481765747070e+00
1.185000000000000000e+03 4.324919891357421875e+01 2.387123107910156250e+01 7.855690717697143555e-01 6.342522144317626953e+00 2.138427257537841797e+00 1.571246027946472168e+00
1.186000000000000000e+03 4.703968811035156250e+01 3.011993598937988281e+01 2.783592045307159424e-01 3.184823274612426758e+00 1.038954734802246094e+00 1.174881339073181152e+00
1.187000000000000000e+03 4.386420440673828125e+01 2.526772880554199219e+01 6.665269136428833008e-01 5.705774784088134766e+00 1.911690473556518555e+00 1.637355327606201172e+00
1.188000000000000000e+03 6.889090728759765625e+01 3.175236320495605469e+01 -1.000157117843627930e+00 3.065604448318481445e+00 6.196341514587402344e-01 5.609748512506484985e-02
1.189000000000000000e+03 6.807920074462890625e+01 3.313696670532226562e+01 -1.085721969604492188e+00 2.035578012466430664e+00 2.849568128585815430e-01 6.412041932344436646e-02
1.190000000000000000e+03 4.807344055175781250e+01 -9.714899063110351562e+00 -6.529887914657592773e-01 4.676264286041259766e+00 1.206982731819152832e+00 -3.706621527671813965e-01
1.191000000000000000e+03 4.353387832641601562e+01 2.044165039062500000e+01 7.991151213645935059e-01 8.345688819885253906e+00 2.743441104888916016e+00 2.323164224624633789e+00
1.192000000000000000e+03 4.928780746459960938e+01 -4.878023147583007812e+00 3.753405213356018066e-01 4.550328731536865234e+00 1.477700710296630859e+00 -1.388858318328857422e+00
1.193000000000000000e+03 4.736505889892578125e+01 -7.063945293426513672e+00 -2.652613818645477295e-01 4.887464046478271484e+00 1.386660695075988770e+00 -9.436597824096679688e-01
1.194000000000000000e+03 6.081030654907226562e+01 -1.801390075683593750e+01 -1.118999719619750977e+00 1.658893227577209473e+00 1.619680523872375488e-01 2.116316556930541992e+00
1.195000000000000000e+03 4.222594451904296875e+01 2.102267074584960938e+01 7.885246276855468750e-01 7.757158756256103516e+00 2.563704967498779297e+00 1.542196631431579590e+00
1.196000000000000000e+03 7.112264251708984375e+01 1.180037784576416016e+01 -6.067292094230651855e-01 9.739704132080078125e+00 2.739892244338989258e+00 1.469233334064483643e-01
1.197000000000000000e+03 5.242460632324218750e+01 -1.590918540954589844e+01 -2.858280897140502930e+00 1.195573329925537109e+00 -4.988122582435607910e-01 5.374389290809631348e-01
1.198000000000000000e+03 6.265239334106445312e+01 -1.517883110046386719e+01 6.799494624137878418e-01 1.964168190956115723e+00 7.932353019714355469e-01 1.537497043609619141e+00
1.199000000000000000e+03 4.045948410034179688e+01 1.343628025054931641e+01 9.715465307235717773e-01 1.031653118133544922e+01 3.386423349380493164e+00 -4.524694979190826416e-01
1.200000000000000000e+03 7.050556945800781250e+01 -2.488125801086425781e+00 6.134544014930725098e-01 1.032853794097900391e+01 3.282597780227661133e+00 1.599565744400024414e+00
1.201000000000000000e+03 7.021948242187500000e+01 3.319664001464843750e+00 1.609158515930175781e-01 1.421133613586425781e+01 4.311675548553466797e+00 4.188809096813201904e-01
1.202000000000000000e+03 4.168624877929687500e+01 4.629485607147216797e+00 7.364724874496459961e-01 7.997181892395019531e+00 2.620096206665039062e+00 -1.837454915046691895e+00
1.203000000000000000e+03 4.815237045288085938e+01 -5.351104736328125000e+00 1.530641317367553711e-01 4.702620506286621094e+00 1.456705451011657715e+00 -1.268384695053100586e+00
1.204000000000000000e+03 4.837379837036132812e+01 -2.291288137435913086e+00 5.425206422805786133e-01 4.619900226593017578e+00 1.548726201057434082e+00 -1.714812397956848145e+00
1.205000000000000000e+03 7.056825256347656250e+01 2.742558670043945312e+01 4.707490280270576477e-02 6.308720111846923828e+00 1.906738519668579102e+00 5.799228325486183167e-02
1.206000000000000000e+03 6.999903106689453125e+01 -3.864838838577270508e+00 6.810972094535827637e-01 9.314340591430664062e+00 2.998631238937377930e+00 1.769529461860656738e+00
1.207000000000000000e+03 4.530945205688476562e+01 3.857218980789184570e+00 1.532026410102844238e+00 6.110676765441894531e+00 2.292810916900634766e+00 -3.080791234970092773e+00
1.208000000000000000e+03 4.513616561889648438e+01 2.770875549316406250e+01 5.107966065406799316e-01 4.436791896820068359e+00 1.484276533126831055e+00 1.421851634979248047e+00
1.209000000000000000e+03 6.005347442626953125e+01 -1.694161415100097656e+01 -1.357548475265502930e+00 1.385281801223754883e+00 8.320008404552936554e-03 1.507245659828186035e+00
1.210000000000000000e+03 4.677094650268554688e+01 -1.650298833847045898e+00 3.930006623268127441e-01 5.150271892547607422e+00 1.662981867790222168e+00 -1.888623237609863281e+00
1.211000000000000000e+03 6.888906097412109375e+01 -6.521403312683105469e+00 6.926822662353515625e-01 7.390513420104980469e+00 2.424958705902099609e+00 1.862814784049987793e+00
1.212000000000000000e+03 4.933219909667968750e+01 -9.278849601745605469e+00 -2.870520353317260742e-01 4.047931671142578125e+00 1.128263950347900391e+00 -4.834000468254089355e-01
1.213000000000000000e+03 6.830171203613281250e+01 -7.834856033325195312e+00 7.793547511100769043e-01 6.380850315093994141e+00 2.148061513900756836e+00 1.856112241744995117e+00
1.214000000000000000e+03 7.023571014404296875e+01 4.730444431304931641e+00 1.645877398550510406e-02 1.343624305725097656e+01 4.035810470581054688e+00 1.943989694118499756e-01
1.215000000000000000e+03 7.131416320800781250e+01 9.054850578308105469e+00 -1.173871681094169617e-01 1.042363071441650391e+01 3.091873168945312500e+00 4.517423808574676514e-01
1.216000000000000000e+03 7.119020843505859375e+01 1.044578361511230469e+01 -6.397865414619445801e-01 9.886518478393554688e+00 2.774019479751586914e+00 3.630703687667846680e-01
1.217000000000000000e+03 4.176328659057617188e+01 1.961147880554199219e+01 6.543365120887756348e-01 8.433729171752929688e+00 2.726419687271118164e+00 1.350794672966003418e+00
1.218000000000000000e+03 6.776489257812500000e+01 -1.234769248962402344e+01 8.645136356353759766e-01 4.262576580047607422e+00 1.538127064704895020e+00 9.721779823303222656e-01
1.219000000000000000e+03 4.977729034423828125e+01 -1.060644626617431641e+01 -4.311180710792541504e-01 3.648234844207763672e+00 9.651350378990173340e-01 -1.691682636737823486e-01
1.220000000000000000e+03 5.141977691650390625e+01 -1.149876308441162109e+01 -8.137562125921249390e-02 2.118096113204956055e+00 6.110161542892456055e-01 -1.893630325794219971e-01
1.221000000000000000e+03 5.029448318481445312e+01 -1.193516731262207031e+01 -8.101831078529357910e-01 3.131053686141967773e+00 6.962611675262451172e-01 2.411228120326995850e-01
1.222000000000000000e+03 5.014065551757812500e+01 3.311640930175781250e+01 -9.871029853820800781e-02 1.583316922187805176e+00 4.453819692134857178e-01 5.876727104187011719e-01
1.223000000000000000e+03 6.945568847656250000e+01 -5.204165458679199219e+00 6.763836741447448730e-01 8.303623199462890625e+00 2.694001913070678711e+00 1.814314603805541992e+00
1.224000000000000000e+03 4.461367034912109375e+01 2.646961212158203125e+01 7.135093808174133301e-01 5.143085956573486328e+00 1.756978631019592285e+00 1.663989186286926270e+00
1.225000000000000000e+03 4.120520782470703125e+01 8.484277725219726562e+00 1.612141489982604980e+00 1.009370136260986328e+01 3.511752843856811523e+00 -1.522087574005126953e+00
1.226000000000000000e+03 4.183671951293945312e+01 6.887866973876953125e+00 1.304567575454711914e+00 9.417688369750976562e+00 3.216676950454711914e+00 -2.148103952407836914e+00
1.227000000000000000e+03 4.354491424560546875e+01 4.279968261718750000e+00 1.023311972618103027e+00 7.512459278106689453e+00 2.560731410980224609e+00 -2.645512819290161133e+00
1.228000000000000000e+03 4.273065948486328125e+01 5.529522895812988281e+00 1.168013930320739746e+00 8.261653900146484375e+00 2.828900337219238281e+00 -2.558140277862548828e+00
1.229000000000000000e+03 4.815633773803710938e+01 3.128123664855957031e+01 1.951428353786468506e-01 2.510732650756835938e+00 8.117626309394836426e-01 9.913586974143981934e-01
1.230000000000000000e+03 6.995426177978515625e+01 2.146606254577636719e+01 9.028212167322635651e-03 8.403506278991699219e+00 2.523760557174682617e+00 1.389006972312927246e-01
1.231000000000000000e+03 7.111699676513671875e+01 2.304112625122070312e+01 1.927192062139511108e-01 8.104059219360351562e+00 2.489033460617065430e+00 2.055872231721878052e-01
1.232000000000000000e+03 4.329881286621093750e+01 2.297781467437744141e+00 5.046129226684570312e-01 6.804166316986083984e+00 2.192633628845214844e+00 -2.134243726730346680e+00
1.233000000000000000e+03 7.818946838378906250e+01 2.820144176483154297e+00 8.487588912248611450e-02 5.485255718231201172e+00 1.671039581298828125e+00 1.819014102220535278e-01
1.234000000000000000e+03 7.115850830078125000e+01 2.162062072753906250e+01 8.009739965200424194e-02 8.418688774108886719e+00 2.549635887145996094e+00 2.970318496227264404e-01
1.235000000000000000e+03 7.590865325927734375e+01 1.504597473144531250e+01 -3.408152237534523010e-02 8.196513175964355469e+00 2.448729276657104492e+00 6.226785182952880859e-01
1.236000000000000000e+03 7.118090820312500000e+01 1.879429054260253906e+01 3.690795972943305969e-02 8.834984779357910156e+00 2.661567687988281250e+00 4.179553687572479248e-01
1.237000000000000000e+03 1.245188832283020020e+00 -3.997156524658203125e+01 -4.974659159779548645e-02 2.514521121978759766e+00 7.394323945045471191e-01 -7.324190437793731689e-02
1.238000000000000000e+03 8.352246880531311035e-01 3.734505844116210938e+01 1.509243715554475784e-02 -1.564732789993286133e+00 -4.648921191692352295e-01 -3.860375657677650452e-02
1.239000000000000000e+03 7.257990241050720215e-01 3.458802413940429688e+01 6.570852827280759811e-03 -1.674432873725891113e+00 -5.003585815429687500e-01 -2.815964818000793457e-02
1.240000000000000000e+03 6.996588110923767090e-01 3.319135665893554688e+01 2.601708285510540009e-03 -1.720612883567810059e+00 -5.154033303260803223e-01 -1.811285130679607391e-02
1.241000000000000000e+03 6.283329725265502930e-01 2.760467720031738281e+01 6.165847182273864746e-03 -1.834512233734130859e+00 -5.485039353370666504e-01 -9.433296509087085724e-03
1.242000000000000000e+03 6.262439489364624023e-01 2.620356369018554688e+01 -1.685486757196485996e-03 -1.846822738647460938e+00 -5.545524954795837402e-01 -3.945238422602415085e-03
1.243000000000000000e+03 7.000314593315124512e-01 -3.617838287353515625e+01 -2.474854514002799988e-02 2.574056386947631836e+00 7.647923827171325684e-01 5.375752225518226624e-02
1.244000000000000000e+03 2.327241897583007812e+00 -3.359190750122070312e+01 -1.150017529726028442e-01 1.848320603370666504e+00 5.199956297874450684e-01 4.283894002437591553e-01
1.245000000000000000e+03 3.093098163604736328e+00 2.610014152526855469e+01 1.660028845071792603e-02 -1.378092527389526367e+00 -4.084476828575134277e-01 -1.943659968674182892e-02
1.246000000000000000e+03 3.148234605789184570e+00 2.476260566711425781e+01 2.806654945015907288e-02 -1.370765686035156250e+00 -4.028097391128540039e-01 -2.133322879672050476e-03
1.247000000000000000e+03 2.170939207077026367e+00 3.429851150512695312e+01 1.122603472322225571e-02 -1.455415606498718262e+00 -4.332568943500518799e-01 -5.006649345159530640e-02
1.248000000000000000e+03 2.099707365036010742e+00 3.293468093872070312e+01 6.991957779973745346e-03 -1.479705929756164551e+00 -4.418142139911651611e-01 -4.818962514400482178e-02
1.249000000000000000e+03 2.770091533660888672e+00 3.795024490356445312e+01 2.340904623270034790e-02 -1.306839585304260254e+00 -3.850291669368743896e-01 -7.932668179273605347e-02
1.250000000000000000e+03 3.733549833297729492e+00 3.896059799194335938e+01 -7.529790978878736496e-03 -1.247013688087463379e+00 -3.763630390167236328e-01 -3.905162215232849121e-02
1.251000000000000000e+03 1.844818592071533203e+00 -2.926293754577636719e+01 -1.270209699869155884e-01 7.166897654533386230e-01 1.769006401300430298e-01 9.741293191909790039e-01
1.252000000000000000e+03 6.467173099517822266e+00 -2.413877868652343750e+01 5.241525173187255859e-01 3.508044481277465820e+00 1.209659099578857422e+00 1.912973880767822266e+00
1.253000000000000000e+03 2.154259681701660156e+00 -3.630492401123046875e+01 -1.427188813686370850e-01 2.173144578933715820e+00 6.091277003288269043e-01 1.436716914176940918e-01
1.254000000000000000e+03 6.461005806922912598e-01 2.056436920166015625e+01 1.571742235682904720e-03 -1.795402884483337402e+00 -5.381493568420410156e-01 1.527605578303337097e-02
1.255000000000000000e+03 6.396721005439758301e-01 1.914955329895019531e+01 6.712920032441616058e-03 -1.747395157814025879e+00 -5.222046971321105957e-01 2.422631531953811646e-02
1.256000000000000000e+03 6.121556162834167480e-01 1.491617202758789062e+01 1.268634456209838390e-03 -1.474607944488525391e+00 -4.420017898082733154e-01 5.238241329789161682e-02
1.257000000000000000e+03 6.016889810562133789e-01 1.350651454925537109e+01 6.981748156249523163e-03 -1.336652398109436035e+00 -3.989011943340301514e-01 6.171215325593948364e-02
1.258000000000000000e+03 5.679367184638977051e-01 7.872732639312744141e+00 -7.500854553654789925e-05 -5.853314995765686035e-01 -1.756219416856765747e-01 8.144190162420272827e-02
1.259000000000000000e+03 1.601125597953796387e+00 -1.626963233947753906e+01 1.312648355960845947e-01 -3.760113716125488281e+00 -1.088654637336730957e+00 -2.495659440755844116e-01
1.260000000000000000e+03 3.155541658401489258e+00 -2.150946617126464844e+01 4.871835708618164062e-01 -1.077536463737487793e+00 -1.771058738231658936e-01 1.099922657012939453e+00
1.261000000000000000e+03 3.222757101058959961e+00 -3.870487976074218750e+01 -1.211107596755027771e-01 2.241191148757934570e+00 6.360241174697875977e-01 9.775584936141967773e-02
1.262000000000000000e+03 4.080144405364990234e+00 -3.384433746337890625e+01 -3.992406129837036133e-01 1.695283770561218262e+00 3.888129293918609619e-01 6.251155734062194824e-01
1.263000000000000000e+03 2.148553848266601562e+00 -3.499190521240234375e+01 -1.282041072845458984e-01 2.022886514663696289e+00 5.684047341346740723e-01 3.084075748920440674e-01
1.264000000000000000e+03 2.212426900863647461e+00 -3.207398223876953125e+01 -1.984496116638183594e-01 1.610981345176696777e+00 4.237595200538635254e-01 6.106139421463012695e-01
1.265000000000000000e+03 1.878266334533691406e+00 -2.787442016601562500e+01 -1.142857521772384644e-01 9.004081785678863525e-02 -7.273479830473661423e-03 1.143285512924194336e+00
1.266000000000000000e+03 1.938000321388244629e+00 -2.644799041748046875e+01 -8.605264127254486084e-02 -4.298064112663269043e-01 -1.547577232122421265e-01 1.252420186996459961e+00
1.267000000000000000e+03 3.503332853317260742e+00 -2.296121215820312500e+01 5.080503225326538086e-01 -2.259605973958969116e-01 8.462692052125930786e-02 1.580788254737854004e+00
1.268000000000000000e+03 2.678555011749267578e+00 -1.621907234191894531e+01 3.387392163276672363e-01 -2.341050624847412109e+00 -6.006934046745300293e-01 -3.253302574157714844e-01
1.269000000000000000e+03 5.567568540573120117e-01 -1.912159729003906250e+01 5.806585028767585754e-02 -5.397774696350097656e+00 -1.601912617683410645e+00 1.033409684896469116e-01
1.270000000000000000e+03 2.774335622787475586e+00 -1.883013153076171875e+01 3.904178142547607422e-01 -2.037531375885009766e+00 -4.941340386867523193e-01 2.906858325004577637e-01
1.271000000000000000e+03 2.714500427246093750e+00 -1.212871742248535156e+01 1.256527900695800781e-01 -1.895999312400817871e+00 -5.311039686203002930e-01 -9.021786451339721680e-01
1.272000000000000000e+03 5.400053858757019043e-01 -1.211219978332519531e+01 5.908635444939136505e-03 -3.872563838958740234e+00 -1.159996628761291504e+00 -2.215476036071777344e-01
1.273000000000000000e+03 1.624714970588684082e+00 -1.212635231018066406e+01 4.950777068734169006e-02 -2.865972280502319336e+00 -8.449394106864929199e-01 -6.294317245483398438e-01
1.274000000000000000e+03 1.704090356826782227e+00 -6.659838199615478516e+00 -4.475927352905273438e-02 -1.102900981903076172e+00 -3.442980647087097168e-01 -6.121746897697448730e-01
1.275000000000000000e+03 3.300648450851440430e+00 -4.401468753814697266e+00 -2.648371756076812744e-01 -3.359220623970031738e-01 -1.802277714014053345e-01 -6.993668079376220703e-01
1.276000000000000000e+03 1.476426124572753906e+00 -3.326635837554931641e+00 -7.682907581329345703e-02 -3.685121238231658936e-01 -1.336023658514022827e-01 -3.057440817356109619e-01
1.277000000000000000e+03 5.681658983230590820e-01 4.989459037780761719e+00 -8.754197508096694946e-03 -2.081211656332015991e-01 -6.506261229515075684e-02 6.368859857320785522e-02
1.278000000000000000e+03 6.329225063323974609e+00 4.140880584716796875e+00 -3.084494471549987793e-01 -3.326628208160400391e-01 -1.923336684703826904e-01 5.847710371017456055e-01
1.279000000000000000e+03 1.724802136421203613e+00 1.069731235504150391e+01 1.138064917176961899e-02 -9.180030822753906250e-01 -2.719867229461669922e-01 2.190449386835098267e-01
1.280000000000000000e+03 5.789431333541870117e-01 1.069070434570312500e+01 5.274261813610792160e-03 -9.928967952728271484e-01 -2.962867617607116699e-01 7.711194455623626709e-02
1.281000000000000000e+03 1.794728398323059082e+00 1.348348426818847656e+01 1.785771548748016357e-02 -1.187063932418823242e+00 -3.507618606090545654e-01 1.788081228733062744e-01
1.282000000000000000e+03 1.934053421020507812e+00 2.052130508422851562e+01 2.112478017807006836e-02 -1.551149845123291016e+00 -4.590075016021728516e-01 5.129230394959449768e-02
1.283000000000000000e+03 1.914398431777954102e+00 1.909981727600097656e+01 1.765577308833599091e-02 -1.510527133941650391e+00 -4.478614330291748047e-01 7.481036335229873657e-02
1.284000000000000000e+03 1.897795557975769043e+00 2.475707626342773438e+01 8.327859453856945038e-03 -1.605750679969787598e+00 -4.792268574237823486e-01 -2.906863755924860016e-06
1.285000000000000000e+03 5.431825256347656250e+01 -3.801916122436523438e+01 -7.423644065856933594e-01 5.415074348449707031e+00 1.401812911033630371e+00 -7.817839384078979492e-01
1.286000000000000000e+03 1.337913131713867188e+01 -1.335310840606689453e+01 5.000226497650146484e+00 2.432187557220458984e+00 2.229724168777465820e+00 2.268415212631225586e+00
1.287000000000000000e+03 2.059407424926757812e+01 -1.078781127929687500e+01 3.851980686187744141e+00 -3.053844928741455078e+00 2.394406795501708984e-01 1.300072193145751953e+00
1.288000000000000000e+03 2.153894233703613281e+01 -1.236016941070556641e+01 7.623641967773437500e+00 -3.557910919189453125e+00 1.219719290733337402e+00 4.673087596893310547e+00
1.289000000000000000e+03 1.990025138854980469e+01 -1.051504325866699219e+01 2.813288927078247070e+00 -2.206629991531372070e+00 1.819976568222045898e-01 1.473168253898620605e+00
1.290000000000000000e+03 2.461651611328125000e+01 -9.728326797485351562e+00 7.050464153289794922e-01 4.289672851562500000e+00 1.498415827751159668e+00 3.301701068878173828e+00
1.291000000000000000e+03 2.351980590820312500e+01 -8.582740783691406250e+00 -9.825459122657775879e-01 2.065034151077270508e+00 3.247464597225189209e-01 8.832015991210937500e-01
1.292000000000000000e+03 2.395180702209472656e+01 -8.882101058959960938e+00 -8.180788159370422363e-01 3.033739328384399414e+00 6.646981835365295410e-01 1.392110466957092285e+00
1.293000000000000000e+03 2.400798988342285156e+01 -7.576122760772705078e+00 -1.082501292228698730e+00 2.054457664489746094e+00 2.915869355201721191e-01 1.093780636787414551e+00
1.294000000000000000e+03 2.362060737609863281e+01 -8.764380455017089844e+00 -9.439883828163146973e-01 2.360159873962402344e+00 4.248514473438262939e-01 9.768459200859069824e-01
1.295000000000000000e+03 2.394264793395996094e+01 -9.257212638854980469e+00 -7.376146316528320312e-01 3.544888496398925781e+00 8.421821594238281250e-01 1.570972204208374023e+00
1.296000000000000000e+03 2.590482521057128906e+01 -1.078014945983886719e+01 4.359628677368164062e+00 1.100839376449584961e+00 1.638140439987182617e+00 2.813711166381835938e+00
1.297000000000000000e+03 1.940513610839843750e+01 -9.534543991088867188e+00 9.495589733123779297e-01 -1.606928348541259766e+00 -1.972108334302902222e-01 1.430420398712158203e+00
1.298000000000000000e+03 1.956684303283691406e+01 -1.158535766601562500e+01 4.171086311340332031e+00 -1.724907755851745605e+00 7.338535785675048828e-01 2.156638860702514648e+00
1.299000000000000000e+03 2.124274444580078125e+01 -1.189586734771728516e+01 7.251105785369873047e+00 -4.388102054595947266e+00 8.589012026786804199e-01 2.778636693954467773e+00
1.300000000000000000e+03 1.819047737121582031e+01 -8.361105918884277344e+00 -4.650631248950958252e-01 -7.407488822937011719e-01 -3.617435991764068604e-01 1.483977556228637695e+00
1.301000000000000000e+03 1.832617759704589844e+01 -1.054722118377685547e+01 2.403064966201782227e+00 -5.973040461540222168e-01 5.417283177375793457e-01 1.489855170249938965e+00
1.302000000000000000e+03 1.805760955810546875e+01 -1.121776962280273438e+01 3.278634309768676758e+00 -9.380270540714263916e-02 9.554494619369506836e-01 1.613897800445556641e+00
1.303000000000000000e+03 1.898960685729980469e+01 -9.888507843017578125e+00 1.596919894218444824e+00 -1.228110074996948242e+00 1.106429398059844971e-01 1.485875248908996582e+00
1.304000000000000000e+03 1.578684329986572266e+01 -7.004601001739501953e+00 -1.211044192314147949e+00 4.025167822837829590e-01 -2.425582259893417358e-01 9.489015340805053711e-01
1.305000000000000000e+03 1.628894805908203125e+01 -6.530563831329345703e+00 -1.523300766944885254e+00 -2.849424816668033600e-02 -4.655385017395019531e-01 1.200253009796142578e+00
1.306000000000000000e+03 1.388550376892089844e+01 -6.297307968139648438e+00 -1.358494997024536133e+00 8.183400034904479980e-01 -1.620464920997619629e-01 4.202566444873809814e-01
1.307000000000000000e+03 1.364043807983398438e+01 -4.530084133148193359e+00 -1.824118375778198242e+00 3.465563058853149414e-01 -4.432686269283294678e-01 5.885463953018188477e-01
1.308000000000000000e+03 2.326266479492187500e+01 -5.068910121917724609e+00 -1.214322805404663086e+00 9.849804639816284180e-01 -6.880270689725875854e-02 6.751012802124023438e-01
1.309000000000000000e+03 2.251038551330566406e+01 -5.041393756866455078e+00 -1.277519106864929199e+00 4.288308620452880859e-01 -2.546064853668212891e-01 7.027516961097717285e-01
1.310000000000000000e+03 2.290564918518066406e+01 -5.551959037780761719e+00 -1.271077513694763184e+00 7.008511424064636230e-01 -1.710678935050964355e-01 7.198674678802490234e-01
1.311000000000000000e+03 1.473679733276367188e+01 -5.262695312500000000e+00 -1.825609683990478516e+00 2.373092174530029297e-01 -4.764901101589202881e-01 8.349334001541137695e-01
1.312000000000000000e+03 1.481809902191162109e+01 -6.145781993865966797e+00 -1.529545187950134277e+00 5.162230730056762695e-01 -3.039966225624084473e-01 7.366954088211059570e-01
1.313000000000000000e+03 1.430458164215087891e+01 -5.769559383392333984e+00 -1.573758125305175781e+00 5.333037972450256348e-01 -3.121362924575805664e-01 6.172890663146972656e-01
1.314000000000000000e+03 1.459721469879150391e+01 -1.288462448120117188e+01 5.408137321472167969e+00 1.845275640487670898e+00 2.176023960113525391e+00 1.731196284294128418e+00
1.315000000000000000e+03 1.486143016815185547e+01 -7.006828784942626953e+00 -1.098269581794738770e+00 7.847318053245544434e-01 -9.406134486198425293e-02 6.449311375617980957e-01
1.316000000000000000e+03 1.116222000122070312e+01 -3.309109210968017578e+00 -1.583975911140441895e+00 4.555514156818389893e-01 -3.385273516178131104e-01 1.042550802230834961e-01
1.317000000000000000e+03 1.271033287048339844e+01 -4.738417625427246094e+00 -1.644465565681457520e+00 6.216673851013183594e-01 -3.068394660949707031e-01 2.812577486038208008e-01
1.318000000000000000e+03 8.575822830200195312e+00 -4.243512630462646484e+00 -1.087087631225585938e+00 5.968691706657409668e-01 -1.470655500888824463e-01 -5.065311789512634277e-01
1.319000000000000000e+03 1.019033432006835938e+01 -3.787504673004150391e+00 -1.393035411834716797e+00 5.951820015907287598e-01 -2.393560111522674561e-01 -1.663137376308441162e-01
1.320000000000000000e+03 5.533239841461181641e+00 2.625501394271850586e+00 -3.565431833267211914e-01 -1.406118869781494141e-01 -1.491465270519256592e-01 3.660086691379547119e-01
1.321000000000000000e+03 2.769071817398071289e+00 3.915700435638427734e+00 -9.743401408195495605e-02 -2.138181328773498535e-01 -9.337564557790756226e-02 2.276577353477478027e-01
1.322000000000000000e+03 3.363170623779296875e+00 2.792634963989257812e+00 -1.469294279813766479e-01 -1.321624070405960083e-01 -8.372754603624343872e-02 1.974095404148101807e-01
1.323000000000000000e+03 4.076413631439208984e+00 2.693340539932250977e+00 -2.117709815502166748e-01 -1.298500448465347290e-01 -1.024863049387931824e-01 2.539624571800231934e-01
1.324000000000000000e+03 5.545066356658935547e+00 3.389226675033569336e+00 -3.168585598468780518e-01 -2.255433499813079834e-01 -1.627205759286880493e-01 4.533018171787261963e-01
1.325000000000000000e+03 6.281774520874023438e+00 3.353746175765991211e+00 -3.818779587745666504e-01 -2.407013475894927979e-01 -1.867737919092178345e-01 5.156410932540893555e-01
1.326000000000000000e+03 9.057641029357910156e+00 3.322325944900512695e+00 -5.477735400199890137e-01 -5.073288083076477051e-01 -3.165307044982910156e-01 7.941148877143859863e-01
1.327000000000000000e+03 6.263796329498291016e+00 2.603262186050415039e+00 -4.437505900859832764e-01 -1.704197973012924194e-01 -1.842511147260665894e-01 4.461047053337097168e-01
1.328000000000000000e+03 7.002046585083007812e+00 3.300252437591552734e+00 -4.481558501720428467e-01 -2.835045456886291504e-01 -2.194981127977371216e-01 5.960420370101928711e-01
1.329000000000000000e+03 9.938384056091308594e+00 2.796172618865966797e+00 -7.002053856849670410e-01 -5.969367623329162598e-01 -3.891426324844360352e-01 8.307402133941650391e-01
1.330000000000000000e+03 2.053435516357421875e+01 -2.814313411712646484e+00 -1.295928239822387695e+00 -3.861417472362518311e-01 -5.046210289001464844e-01 7.679902911186218262e-01
1.331000000000000000e+03 1.637536430358886719e+01 -3.242670893669128418e-01 -1.398753404617309570e+00 -9.901052713394165039e-01 -7.166575789451599121e-01 1.037302494049072266e+00
1.332000000000000000e+03 1.466738224029541016e+01 1.541830658912658691e+00 -9.505382180213928223e-01 -8.820999264717102051e-01 -5.497914552688598633e-01 8.907858133316040039e-01
1.333000000000000000e+03 1.704747962951660156e+01 -7.782156467437744141e-01 -1.430058836936950684e+00 -9.887180924415588379e-01 -7.256330847740173340e-01 1.045580029487609863e+00
1.334000000000000000e+03 1.714084625244140625e+01 8.325677514076232910e-01 -8.723470568656921387e-01 -7.605773806571960449e-01 -4.898773431777954102e-01 7.542697787284851074e-01
1.335000000000000000e+03 1.280047321319580078e+01 1.714103579521179199e+00 -1.061994791030883789e+00 -8.241066336631774902e-01 -5.658304095268249512e-01 9.141243696212768555e-01
1.336000000000000000e+03 1.896894264221191406e+01 -2.250426292419433594e+00 -1.473064422607421875e+00 -8.861628770828247070e-01 -7.077681422233581543e-01 1.000327467918395996e+00
1.337000000000000000e+03 2.108513641357421875e+01 -3.386311769485473633e+00 -1.304040789604187012e+00 -2.323865741491317749e-01 -4.609282016754150391e-01 7.433494925498962402e-01
1.338000000000000000e+03 1.871556472778320312e+01 -1.182440280914306641e+00 -1.230600118637084961e+00 -7.405826449394226074e-01 -5.913548469543457031e-01 8.374423384666442871e-01
1.339000000000000000e+03 1.807512092590332031e+01 -6.871858239173889160e-01 -1.198011755943298340e+00 -8.021712899208068848e-01 -6.000549197196960449e-01 8.620179295539855957e-01
1.340000000000000000e+03 2.208138847351074219e+01 -4.508357524871826172e+00 -1.298214793205261230e+00 1.750074326992034912e-01 -3.369622230529785156e-01 7.093886137008666992e-01
1.341000000000000000e+03 2.160431671142578125e+01 -3.955528974533081055e+00 -1.300794124603271484e+00 -3.054446354508399963e-02 -3.994016051292419434e-01 7.254175543785095215e-01
1.342000000000000000e+03 1.127727985382080078e+01 -4.803915500640869141e+00 -1.408280253410339355e+00 7.810547351837158203e-01 -1.881676614284515381e-01 -8.884453773498535156e-02
1.343000000000000000e+03 5.152505397796630859e+00 -2.648416757583618164e+00 -5.994706749916076660e-01 -4.709406755864620209e-03 -1.812540292739868164e-01 -5.378968715667724609e-01
1.344000000000000000e+03 7.350247859954833984e+00 -3.365509033203125000e+00 -9.430620074272155762e-01 3.032903969287872314e-01 -1.919314861297607422e-01 -5.290368795394897461e-01
1.345000000000000000e+03 4.383073329925537109e+00 -2.678454399108886719e+00 -4.748471081256866455e-01 -6.467729061841964722e-02 -1.618573218584060669e-01 -5.160175561904907227e-01
1.346000000000000000e+03 7.243284225463867188e+00 -4.129000186920166016e+00 -8.741633892059326172e-01 3.784203529357910156e-01 -1.487229168415069580e-01 -6.522089838981628418e-01
1.347000000000000000e+03 2.268980264663696289e+00 -3.069405078887939453e+00 -1.899586021900177002e-01 -2.532265782356262207e-01 -1.329555511474609375e-01 -4.138428270816802979e-01
1.348000000000000000e+03 3.846914768218994141e+00 -7.134222507476806641e+00 -1.880961060523986816e-01 -4.999956786632537842e-01 -2.064275294542312622e-01 -1.063904166221618652e+00
1.349000000000000000e+03 1.849840164184570312e+00 -5.273596286773681641e+00 -8.403972536325454712e-02 -7.100544571876525879e-01 -2.382282614707946777e-01 -5.394482612609863281e-01
1.350000000000000000e+03 1.250126934051513672e+01 2.804631948471069336e+00 -6.742088794708251953e-01 -8.045023083686828613e-01 -4.436133503913879395e-01 8.505659103393554688e-01
1.351000000000000000e+03 1.394519329071044922e+01 1.961273193359375000e+00 -8.648099899291992188e-01 -8.649189472198486328e-01 -5.189186930656433105e-01 8.800648450851440430e-01
1.352000000000000000e+03 1.184042358398437500e+01 3.228078603744506836e+00 -5.671934485435485840e-01 -7.839679718017578125e-01 -4.053484201431274414e-01 8.545999526977539062e-01
1.353000000000000000e+03 1.128648757934570312e+01 2.578013658523559570e+00 -7.854805588722229004e-01 -7.300250530242919922e-01 -4.546516835689544678e-01 8.548457026481628418e-01
1.354000000000000000e+03 9.711566925048828125e+00 -2.871464729309082031e+00 -1.380973458290100098e+00 4.325896799564361572e-01 -2.845151424407958984e-01 -1.017324402928352356e-01
1.355000000000000000e+03 1.606608200073242188e+01 6.934130191802978516e-01 -1.069042563438415527e+00 -8.961310982704162598e-01 -5.895521044731140137e-01 8.948922753334045410e-01
1.356000000000000000e+03 1.995250129699707031e+01 -2.252696990966796875e+00 -1.282505989074707031e+00 -5.358374714851379395e-01 -5.455030202865600586e-01 7.890716791152954102e-01
1.357000000000000000e+03 2.829890823364257812e+01 -1.325938701629638672e+01 5.138211846351623535e-01 1.355410069227218628e-01 1.948086619377136230e-01 -7.429975271224975586e-01
1.358000000000000000e+03 9.061697959899902344e+00 -1.385257625579833984e+01 1.910161137580871582e+00 2.963494062423706055e+00 1.462096571922302246e+00 4.344544410705566406e-01
1.359000000000000000e+03 9.588569641113281250e+00 -1.662959480285644531e+01 3.029765367507934570e+00 5.239794254302978516e+00 2.480867862701416016e+00 2.685286521911621094e+00
1.360000000000000000e+03 9.478734970092773438e+00 -3.633811950683593750e+00 -1.283534169197082520e+00 5.463919639587402344e-01 -2.211426496505737305e-01 -2.619125545024871826e-01
1.361000000000000000e+03 2.679093170166015625e+01 -1.183258342742919922e+01 3.377122879028320312e+00 -1.228364855051040649e-01 9.762858748435974121e-01 1.699112653732299805e-01
1.362000000000000000e+03 2.409844589233398438e+01 -1.399507999420166016e+01 -4.463114738464355469e+00 1.033580541610717773e+00 -1.028860211372375488e+00 5.697709321975708008e-01
1.363000000000000000e+03 7.236180877685546875e+01 1.328936767578125000e+01 -2.000918090343475342e-01 9.176012039184570312e+00 2.692776203155517578e+00 4.137293398380279541e-01
1.364000000000000000e+03 3.157451820373535156e+01 -1.520200634002685547e+01 -6.792091727256774902e-01 5.082693696022033691e-01 -5.128194391727447510e-02 -4.667038321495056152e-01
1.365000000000000000e+03 2.319256782531738281e+01 -3.415998458862304688e+01 -1.220859050750732422e+00 -5.624721944332122803e-02 -3.831318616867065430e-01 1.404143571853637695e-01
1.366000000000000000e+03 2.478931617736816406e+01 -3.479903793334960938e+01 -1.208287596702575684e+00 -5.424517393112182617e-02 -3.787598311901092529e-01 7.088320702314376831e-02
1.367000000000000000e+03 2.895104980468750000e+01 -1.582763767242431641e+01 -2.129941463470458984e+00 1.584908366203308105e-01 -5.914351940155029297e-01 1.129275485873222351e-01
1.368000000000000000e+03 2.643289184570312500e+01 -3.521656417846679688e+01 -1.186859965324401855e+00 -4.566197469830513000e-02 -3.697565793991088867e-01 9.938241913914680481e-03
1.369000000000000000e+03 3.042760276794433594e+01 -3.642905426025390625e+01 -1.128064274787902832e+00 -3.692577406764030457e-02 -3.494970202445983887e-01 -1.968271434307098389e-01
1.370000000000000000e+03 4.470664978027343750e+01 -2.820659637451171875e+00 -7.840097695589065552e-02 5.561834335327148438e+00 1.645029902458190918e+00 -1.589936733245849609e+00
1.371000000000000000e+03 4.518214035034179688e+01 -1.113471984863281250e+00 2.471519410610198975e-01 5.595343589782714844e+00 1.752748727798461914e+00 -1.882145524024963379e+00
1.372000000000000000e+03 4.497674560546875000e+01 1.898478269577026367e+00 8.308644294738769531e-01 6.061660289764404297e+00 2.067757368087768555e+00 -2.476928234100341797e+00
1.373000000000000000e+03 6.163716888427734375e+01 -2.227938270568847656e+01 8.313879966735839844e-01 1.439005494117736816e+00 6.811180710792541504e-01 1.760273218154907227e+00
1.374000000000000000e+03 4.852865600585937500e+01 -1.106997108459472656e+01 -9.165909290313720703e-01 4.503153324127197266e+00 1.075968742370605469e+00 -2.436293847858905792e-02
1.375000000000000000e+03 4.796831011772155762e-01 3.542145013809204102e+00 -1.317191589623689651e-02 -7.806134968996047974e-02 -2.736997976899147034e-02 3.675965964794158936e-02
1.376000000000000000e+03 2.908627128601074219e+01 -3.505489730834960938e+01 -1.275567770004272461e+00 -3.982812538743019104e-02 -3.946187496185302734e-01 -9.939371049404144287e-02
1.377000000000000000e+03 4.620983886718750000e+01 -3.388515710830688477e+00 5.789049714803695679e-02 5.214653015136718750e+00 1.581763029098510742e+00 -1.580810189247131348e+00
1.378000000000000000e+03 7.714865112304687500e+01 1.109817886352539062e+01 -6.545422226190567017e-02 7.437878608703613281e+00 2.211727380752563477e+00 6.581377387046813965e-01
1.379000000000000000e+03 4.893251419067382812e+01 -7.955644607543945312e+00 -9.892392903566360474e-02 4.355559825897216797e+00 1.276990771293640137e+00 -7.908464074134826660e-01
1.380000000000000000e+03 4.360782241821289062e+01 2.763462066650390625e+01 2.096442133188247681e-01 4.962991237640380859e+00 1.551790595054626465e+00 1.026219487190246582e+00
1.381000000000000000e+03 4.444098663330078125e+01 -2.511904335021972656e+01 2.174926996231079102e+00 1.063615226745605469e+01 3.843323707580566406e+00 -2.667912006378173828e+00
1.382000000000000000e+03 4.490750885009765625e+01 -2.638004302978515625e+01 1.904118299484252930e+00 9.550869941711425781e+00 3.436496257781982422e+00 -1.768245816230773926e+00
1.383000000000000000e+03 6.672811889648437500e+01 -2.050785446166992188e+01 -1.868865728378295898e+00 2.556541562080383301e-01 -4.839634895324707031e-01 9.320882558822631836e-01
1.384000000000000000e+03 6.390008926391601562e+01 -1.424772453308105469e+01 1.214301347732543945e+00 2.368819952011108398e+00 1.074936389923095703e+00 1.592911124229431152e+00
1.385000000000000000e+03 4.701454925537109375e+01 -5.795193195343017578e+00 -1.364832669496536255e-01 4.961019039154052734e+00 1.447360754013061523e+00 -1.162211418151855469e+00
1.386000000000000000e+03 7.270034027099609375e+01 6.170886993408203125e+00 3.855126500129699707e-01 1.029023075103759766e+01 3.202723026275634766e+00 6.570488214492797852e-01
1.387000000000000000e+03 7.327680969238281250e+01 -2.677335739135742188e+01 1.314205169677734375e+00 9.513532638549804688e+00 3.248321294784545898e+00 3.210382163524627686e-01
1.388000000000000000e+03 7.686685943603515625e+01 -2.980429077148437500e+01 2.948444485664367676e-01 7.042623519897460938e+00 2.201240301132202148e+00 -4.646261036396026611e-01
1.389000000000000000e+03 4.770803070068359375e+01 -8.374984741210937500e+00 -4.675420820713043213e-01 4.789883136749267578e+00 1.296702265739440918e+00 -6.418985724449157715e-01
1.390000000000000000e+03 7.572917938232421875e+01 2.506325531005859375e+01 7.555652409791946411e-02 8.615208625793457031e+00 2.607229471206665039e+00 8.408801555633544922e-01
1.391000000000000000e+03 7.133267974853515625e+01 3.335916519165039062e+00 5.293839573860168457e-01 1.251317024230957031e+01 3.912766218185424805e+00 8.894168734550476074e-01
1.392000000000000000e+03 7.793392181396484375e+01 -3.577213287353515625e+01 -1.196782961487770081e-01 7.339091777801513672e+00 2.165823936462402344e+00 -2.325885742902755737e-01
1.393000000000000000e+03 7.343326568603515625e+01 -3.820110321044921875e+01 -2.511948347091674805e-01 5.575312137603759766e+00 1.597235202789306641e+00 1.113103628158569336e-01
1.394000000000000000e+03 7.286543273925781250e+01 -3.167814445495605469e+01 -9.478162974119186401e-02 7.009026050567626953e+00 2.074273347854614258e+00 1.676834002137184143e-02
1.395000000000000000e+03 7.704581451416015625e+01 1.794661712646484375e+01 1.712417043745517731e-02 8.221412658691406250e+00 2.471560955047607422e+00 5.241388082504272461e-01
1.396000000000000000e+03 7.820899963378906250e+01 3.489865875244140625e+01 -1.785240322351455688e-01 1.100400352478027344e+01 3.247643709182739258e+00 1.290015727281570435e-01
1.397000000000000000e+03 7.650435638427734375e+01 3.243222808837890625e+01 -2.266905307769775391e-01 9.422606468200683594e+00 2.758774757385253906e+00 4.695027768611907959e-01
1.398000000000000000e+03 7.714430236816406250e+01 -2.407680702209472656e+01 1.825069338083267212e-01 7.119209766387939453e+00 2.190515041351318359e+00 7.869936823844909668e-01
1.399000000000000000e+03 7.808111572265625000e+01 -2.878493118286132812e+01 1.786280721426010132e-01 6.544164180755615234e+00 2.016837596893310547e+00 -2.541663050651550293e-01
1.400000000000000000e+03 7.422919464111328125e+01 -2.931651687622070312e+01 8.352429866790771484e-01 8.008322715759277344e+00 2.653069734573364258e+00 -1.025003865361213684e-01
1.401000000000000000e+03 7.851235198974609375e+01 -2.213338851928710938e+01 -6.579664349555969238e-02 7.245082855224609375e+00 2.153785943984985352e+00 5.193680524826049805e-01
1.402000000000000000e+03 7.469620513916015625e+01 -2.506093978881835938e+01 1.004078865051269531e+00 8.277907371520996094e+00 2.784595727920532227e+00 6.032652258872985840e-01
1.403000000000000000e+03 7.795604705810546875e+01 -2.733504104614257812e+01 2.784647643566131592e-01 6.577561855316162109e+00 2.056807994842529297e+00 6.819063331931829453e-03
1.404000000000000000e+03 7.652211761474609375e+01 -3.662103271484375000e+01 -2.622031271457672119e-01 6.939068794250488281e+00 2.003059625625610352e+00 -1.883048564195632935e-01
1.405000000000000000e+03 7.547776794433593750e+01 -2.419035911560058594e+01 5.264874100685119629e-01 7.578123092651367188e+00 2.431383132934570312e+00 9.006868600845336914e-01
1.406000000000000000e+03 7.667023468017578125e+01 -3.431052017211914062e+01 -1.873495429754257202e-01 7.054689884185791016e+00 2.060202121734619141e+00 -4.136514663696289062e-01
1.407000000000000000e+03 7.475632476806640625e+01 -3.246646881103515625e+01 -2.965188622474670410e-01 7.144539833068847656e+00 2.054406166076660156e+00 -5.339319705963134766e-01
1.408000000000000000e+03 7.819930267333984375e+01 2.226331520080566406e+01 2.130490355193614960e-02 8.831068992614746094e+00 2.655712127685546875e+00 4.627512395381927490e-01
1.409000000000000000e+03 7.703804779052734375e+01 1.936424255371093750e+01 5.329563841223716736e-02 8.363605499267578125e+00 2.525070428848266602e+00 5.580054521560668945e-01
1.410000000000000000e+03 7.698344421386718750e+01 2.365094184875488281e+01 5.785879865288734436e-02 8.838028907775878906e+00 2.668766260147094727e+00 6.918807029724121094e-01
1.411000000000000000e+03 7.703032684326171875e+01 2.078708267211914062e+01 4.704351723194122314e-02 8.526396751403808594e+00 2.572032213211059570e+00 5.894007682800292969e-01
1.412000000000000000e+03 7.712714385986328125e+01 1.242988204956054688e+01 -6.235431879758834839e-02 7.603058815002441406e+00 2.262211322784423828e+00 5.956975221633911133e-01
1.413000000000000000e+03 7.710083007812500000e+01 1.378380680084228516e+01 -4.743623733520507812e-02 7.778452396392822266e+00 2.319304943084716797e+00 5.634611845016479492e-01
1.414000000000000000e+03 7.228766632080078125e+01 2.321309280395507812e+01 2.143098115921020508e-01 8.084805488586425781e+00 2.489734649658203125e+00 4.665569365024566650e-01
1.415000000000000000e+03 7.813135528564453125e+01 2.654109954833984375e+01 1.388560049235820770e-02 9.674639701843261719e+00 2.906557559967041016e+00 5.474749803543090820e-01
1.416000000000000000e+03 7.593376159667968750e+01 1.367934036254882812e+01 -9.400161355733871460e-02 8.134025573730468750e+00 2.412007093429565430e+00 6.265683770179748535e-01
1.417000000000000000e+03 7.685174560546875000e+01 -2.251545906066894531e+01 -9.583936631679534912e-02 7.371710300445556641e+00 2.182761192321777344e+00 8.162258267402648926e-01
1.418000000000000000e+03 7.687413024902343750e+01 2.799364852905273438e+01 -2.845116145908832550e-02 9.331625938415527344e+00 2.790952444076538086e+00 7.372140884399414062e-01
1.419000000000000000e+03 7.730521392822265625e+01 -2.102305412292480469e+01 -2.685711979866027832e-01 7.468008995056152344e+00 2.159831285476684570e+00 5.639303326606750488e-01
1.420000000000000000e+03 7.545831298828125000e+01 -9.394839286804199219e+00 6.794278044253587723e-03 6.729042530059814453e+00 2.020750999450683594e+00 -6.201673746109008789e-01
1.421000000000000000e+03 7.677411651611328125e+01 -1.373352813720703125e+01 -1.184999197721481323e-01 7.005233287811279297e+00 2.066020011901855469e+00 -5.176991820335388184e-01
1.422000000000000000e+03 7.383260345458984375e+01 -6.960045337677001953e+00 9.040474891662597656e-02 7.270269870758056641e+00 2.208202362060546875e+00 -3.332647085189819336e-01
1.423000000000000000e+03 7.687079620361328125e+01 -6.685918807983398438e+00 2.452874183654785156e-02 6.533704280853271484e+00 1.967469930648803711e+00 -5.837304592132568359e-01
1.424000000000000000e+03 7.810437774658203125e+01 5.614757537841796875e+00 7.229878753423690796e-02 5.880360603332519531e+00 1.785797834396362305e+00 4.334773719310760498e-01
1.425000000000000000e+03 7.678075408935546875e+01 5.619810581207275391e+00 2.030392140150070190e-01 6.984130382537841797e+00 2.156150817871093750e+00 6.371430158615112305e-01
1.426000000000000000e+03 7.780669403076171875e+01 3.701034164428710938e+01 -1.054928377270698547e-01 1.105886459350585938e+01 3.286011695861816406e+00 3.230842202901840210e-02
1.427000000000000000e+03 7.565435791015625000e+01 2.941093444824218750e+01 -1.902510225772857666e-01 8.797304153442382812e+00 2.582116127014160156e+00 7.705865502357482910e-01
1.428000000000000000e+03 7.813793182373046875e+01 7.014792919158935547e+00 5.566212907433509827e-02 6.121249198913574219e+00 1.853073477745056152e+00 5.073667764663696289e-01
1.429000000000000000e+03 7.572783660888671875e+01 7.511937618255615234e+00 1.014498099684715271e-01 7.923884391784667969e+00 2.407600164413452148e+00 8.597211241722106934e-01
1.430000000000000000e+03 7.685366058349609375e+01 -2.647041320800781250e+00 1.282752752304077148e-01 6.439180374145507812e+00 1.970236778259277344e+00 -4.035134613513946533e-01
1.431000000000000000e+03 7.675833129882812500e+01 -9.484652519226074219e+00 -8.809010498225688934e-03 6.682239532470703125e+00 2.002029180526733398e+00 -6.100202798843383789e-01
1.432000000000000000e+03 7.674081420898437500e+01 -1.666855430603027344e+01 -3.026984930038452148e-01 7.276583671569824219e+00 2.092165470123291016e+00 -2.343339920043945312e-01
1.433000000000000000e+03 7.649101257324218750e+01 3.412734603881835938e+01 -2.203992009162902832e-01 9.518065452575683594e+00 2.789299964904785156e+00 2.974268496036529541e-01
1.434000000000000000e+03 7.437310791015625000e+01 3.304870223999023438e+01 -4.353899955749511719e-01 8.004392623901367188e+00 2.270700693130493164e+00 3.198724389076232910e-01
1.435000000000000000e+03 7.674713897705078125e+01 3.085824584960937500e+01 -1.612123697996139526e-01 9.558319091796875000e+00 2.819132089614868164e+00 5.701553225517272949e-01
1.436000000000000000e+03 7.705908203125000000e+01 1.654204368591308594e+01 1.147177070379257202e-02 8.066465377807617188e+00 2.423381090164184570e+00 5.275658965110778809e-01
1.437000000000000000e+03 7.715082550048828125e+01 9.785749435424804688e+00 -4.634958133101463318e-02 7.232327461242675781e+00 2.155793190002441406e+00 6.870114207267761230e-01
1.438000000000000000e+03 7.805191040039062500e+01 -1.379577350616455078e+01 -6.141070649027824402e-02 7.293929576873779297e+00 2.169755697250366211e+00 -3.700428307056427002e-01
1.439000000000000000e+03 7.678411865234375000e+01 -1.516880321502685547e+01 -2.078267782926559448e-01 7.142305374145507812e+00 2.080343484878540039e+00 -4.142278134822845459e-01
1.440000000000000000e+03 7.811985015869140625e+01 -6.794425487518310547e+00 1.847710460424423218e-02 6.171356678009033203e+00 1.856950163841247559e+00 -4.585313498973846436e-01
1.441000000000000000e+03 7.680773925781250000e+01 -8.067109107971191406e+00 2.685435349121689796e-03 6.595071315765380859e+00 1.979327082633972168e+00 -5.971787571907043457e-01
1.442000000000000000e+03 7.674808502197265625e+01 -1.248781681060791016e+00 2.607683241367340088e-01 6.566644191741943359e+00 2.048223733901977539e+00 -2.685403227806091309e-01
1.443000000000000000e+03 7.816230010986328125e+01 3.593890380859375000e+01 -1.155352592468261719e-01 1.109600543975830078e+01 3.294141054153442383e+00 6.381462514400482178e-02
1.444000000000000000e+03 7.701165771484375000e+01 1.478509545326232910e+00 2.422280162572860718e-01 6.410324096679687500e+00 1.995765686035156250e+00 8.852149546146392822e-02
1.445000000000000000e+03 7.596405792236328125e+01 1.537684321403503418e+00 3.832838535308837891e-01 7.174920082092285156e+00 2.267461299896240234e+00 1.428993195295333862e-01
1.446000000000000000e+03 7.693642425537109375e+01 4.154899597167968750e+00 2.304404526948928833e-01 6.667591094970703125e+00 2.069409370422363281e+00 4.657083451747894287e-01
1.447000000000000000e+03 7.687940979003906250e+01 -5.346259117126464844e+00 6.820185482501983643e-02 6.460964202880859375e+00 1.958749890327453613e+00 -5.534509420394897461e-01
1.448000000000000000e+03 7.685585021972656250e+01 -4.011562347412109375e+00 7.010941207408905029e-02 6.411461353302001953e+00 1.944471240043640137e+00 -4.805219769477844238e-01
1.449000000000000000e+03 7.673114013671875000e+01 -1.231455612182617188e+01 -6.913507729768753052e-02 6.883523941040039062e+00 2.044316768646240234e+00 -5.786834955215454102e-01
1.450000000000000000e+03 7.672025299072265625e+01 -1.090153026580810547e+01 -2.910011634230613708e-02 6.774396419525146484e+00 2.023588895797729492e+00 -6.086931824684143066e-01
1.451000000000000000e+03 7.685029602050781250e+01 -1.819429397583007812e+01 -3.783193230628967285e-01 7.417699813842773438e+00 2.111814260482788086e+00 1.424654480069875717e-02
1.452000000000000000e+03 7.705989074707031250e+01 -1.967785072326660156e+01 -3.610154688358306885e-01 7.491747379302978516e+00 2.139219522476196289e+00 3.409444093704223633e-01
1.453000000000000000e+03 3.397650527954101562e+01 -1.542337417602539062e+01 -3.045194596052169800e-02 8.524774909019470215e-01 2.466076761484146118e-01 -1.046801090240478516e+00
1.454000000000000000e+03 7.116370391845703125e+01 1.596249294281005859e+01 1.240749955177307129e-01 9.298447608947753906e+00 2.826756715774536133e+00 5.483627915382385254e-01
1.455000000000000000e+03 7.129224395751953125e+01 1.887505173683166504e+00 9.597374200820922852e-01 1.226320075988769531e+01 3.966881275177001953e+00 1.054935812950134277e+00
1.456000000000000000e+03 7.119415283203125000e+01 4.114853739738464355e-01 9.968104958534240723e-01 1.191192436218261719e+01 3.872620344161987305e+00 1.058833003044128418e+00
1.457000000000000000e+03 7.117355346679687500e+01 2.020818328857421875e+01 2.968435361981391907e-02 8.602022171020507812e+00 2.589511871337890625e+00 3.761160969734191895e-01
1.458000000000000000e+03 7.117748260498046875e+01 1.737862396240234375e+01 3.004108741879463196e-02 9.046019554138183594e+00 2.722818136215209961e+00 4.379869699478149414e-01
1.459000000000000000e+03 7.234354400634765625e+01 2.177419090270996094e+01 1.491738706827163696e-01 8.322807312011718750e+00 2.541594266891479492e+00 4.802068173885345459e-01
1.460000000000000000e+03 7.470804595947265625e+01 1.916454696655273438e+01 9.301978349685668945e-02 8.450424194335937500e+00 2.563033103942871094e+00 6.763724684715270996e-01
1.461000000000000000e+03 7.236497497558593750e+01 2.034938049316406250e+01 7.416325807571411133e-02 8.547843933105468750e+00 2.586601972579956055e+00 5.241375565528869629e-01
1.462000000000000000e+03 6.768954467773437500e+01 -9.155092239379882812e+00 9.095277190208435059e-01 5.538822174072265625e+00 1.934504985809326172e+00 1.793148756027221680e+00
1.463000000000000000e+03 7.002231597900390625e+01 -6.838934421539306641e+00 4.526051580905914307e-01 7.423247814178466797e+00 2.362756013870239258e+00 1.153760313987731934e+00
1.464000000000000000e+03 4.397568893432617188e+01 1.152643084526062012e+00 4.401313960552215576e-01 6.234293937683105469e+00 2.002327680587768555e+00 -2.104829311370849609e+00
1.465000000000000000e+03 4.298109817504882812e+01 4.087291657924652100e-01 1.349965184926986694e-01 6.342918395996093750e+00 1.943374395370483398e+00 -1.751057863235473633e+00
1.466000000000000000e+03 3.749321222305297852e+00 -1.619331932067871094e+01 5.680373311042785645e-01 -1.000106930732727051e+00 -1.296208947896957397e-01 -2.982799112796783447e-01
1.467000000000000000e+03 3.518076324462890625e+01 -1.425362491607666016e+01 1.842002272605895996e-01 2.044669151306152344e+00 6.686608195304870605e-01 -1.878996491432189941e+00
1.468000000000000000e+03 6.945046997070312500e+01 3.393675994873046875e+01 -9.025402665138244629e-01 3.761067390441894531e+00 8.575581312179565430e-01 -5.556914582848548889e-02
1.469000000000000000e+03 2.638345718383789062e+01 -1.306256961822509766e+01 1.611502647399902344e+00 8.676573634147644043e-02 5.094805359840393066e-01 -1.216374039649963379e+00
1.470000000000000000e+03 1.873117685317993164e+00 2.750182723999023438e+01 4.798656795173883438e-03 -1.591923832893371582e+00 -4.761375784873962402e-01 -1.939664781093597412e-02
1.471000000000000000e+03 3.319131851196289062e+00 3.000569534301757812e+01 9.276266209781169891e-03 -1.303475022315979004e+00 -3.882596492767333984e-01 -4.451749473810195923e-02
1.472000000000000000e+03 5.966473102569580078e+00 2.911945152282714844e+01 2.936329506337642670e-02 -8.462082743644714355e-01 -2.450534850358963013e-01 -8.018641918897628784e-02
1.473000000000000000e+03 3.444407701492309570e+00 3.133404922485351562e+01 9.282736107707023621e-03 -1.276837468147277832e+00 -3.802663981914520264e-01 -5.874690786004066467e-02
1.474000000000000000e+03 1.869634985923767090e+00 2.613745689392089844e+01 8.751502260565757751e-03 -1.604611039161682129e+00 -4.787578582763671875e-01 -1.402973569929599762e-02
1.475000000000000000e+03 3.092374801635742188e+00 2.739924049377441406e+01 1.238238904625177383e-02 -1.370760440826416016e+00 -4.075134098529815674e-01 -3.031842969357967377e-02
1.476000000000000000e+03 3.163297891616821289e+00 2.869039535522460938e+01 1.643957570195198059e-02 -1.334410667419433594e+00 -3.953913152217864990e-01 -4.175614193081855774e-02
1.477000000000000000e+03 3.564530849456787109e+00 3.398822402954101562e+01 1.082234457135200500e-02 -1.203954577445983887e+00 -3.579396605491638184e-01 -7.097466289997100830e-02
1.478000000000000000e+03 3.485877990722656250e+00 3.265848922729492188e+01 1.225303485989570618e-02 -1.251088857650756836e+00 -3.716507554054260254e-01 -6.444463133811950684e-02
1.479000000000000000e+03 3.471671342849731445e+00 -3.565977478027343750e+01 -2.553781569004058838e-01 1.918603181838989258e+00 4.989674985408782959e-01 3.222703635692596436e-01
1.480000000000000000e+03 1.963886141777038574e+00 -3.063750648498535156e+01 -2.071601301431655884e-01 1.246991157531738281e+00 3.119493126869201660e-01 7.806729078292846680e-01
1.481000000000000000e+03 2.923947095870971680e+00 -2.937593269348144531e+01 -3.425770699977874756e-01 1.071632504463195801e+00 2.187166363000869751e-01 1.275901198387145996e+00
1.482000000000000000e+03 5.641158103942871094e+00 -2.643455505371093750e+01 -3.807329535484313965e-01 2.260733366012573242e+00 5.640001296997070312e-01 1.952378988265991211e+00
1.483000000000000000e+03 1.942151069641113281e+00 2.194508171081542969e+01 1.197242271155118942e-02 -1.577866435050964355e+00 -4.697681963443756104e-01 2.794568799436092377e-02
1.484000000000000000e+03 3.224674224853515625e+00 2.336909103393554688e+01 2.286519855260848999e-02 -1.364460945129394531e+00 -4.024787247180938721e-01 1.704010926187038422e-02
1.485000000000000000e+03 2.706451177597045898e+00 -1.076691532135009766e+01 3.783995658159255981e-02 -1.659085869789123535e+00 -4.863737821578979492e-01 -9.606918692588806152e-01
1.486000000000000000e+03 1.612059831619262695e+00 -1.489587497711181641e+01 1.028017923235893250e-01 -3.556580305099487305e+00 -1.036133527755737305e+00 -4.248068928718566895e-01
1.487000000000000000e+03 1.666967511177062988e+00 -1.899766159057617188e+01 1.914454847574234009e-01 -3.611238479614257812e+00 -1.025937914848327637e+00 2.013284265995025635e-01
1.488000000000000000e+03 3.237515926361083984e+00 2.192446517944335938e+01 4.183787479996681213e-02 -1.349406957626342773e+00 -3.922707140445709229e-01 4.631744325160980225e-02
1.489000000000000000e+03 2.904648303985595703e+00 1.207788085937500000e+01 3.986943140625953674e-02 -9.686854481697082520e-01 -2.786448001861572266e-01 3.037662208080291748e-01
1.490000000000000000e+03 4.369125843048095703e+00 1.753555870056152344e+01 9.269925206899642944e-02 -1.093606233596801758e+00 -3.002721071243286133e-01 1.991696506738662720e-01
1.491000000000000000e+03 3.214431285858154297e+00 2.047561836242675781e+01 4.391560703516006470e-02 -1.330153465270996094e+00 -3.858713507652282715e-01 8.038390427827835083e-02
1.492000000000000000e+03 1.917787075042724609e+00 -2.179739570617675781e+01 2.352628111839294434e-01 -2.552956342697143555e+00 -6.953080892562866211e-01 8.344044089317321777e-01
1.493000000000000000e+03 7.928580760955810547e+00 -2.045146942138671875e+01 1.607470273971557617e+00 6.395395755767822266e+00 2.400859832763671875e+00 1.930057048797607422e+00
1.494000000000000000e+03 1.636727333068847656e+00 -8.021446228027343750e+00 -1.914058811962604523e-02 -1.534512519836425781e+00 -4.660959541797637939e-01 -6.588535308837890625e-01
1.495000000000000000e+03 5.862573623657226562e+00 -4.137137889862060547e+00 -6.496182680130004883e-01 1.381393224000930786e-01 -1.534436792135238647e-01 -7.587498426437377930e-01
1.496000000000000000e+03 2.892164468765258789e+00 5.154086112976074219e+00 -7.963483780622482300e-02 -3.283460736274719238e-01 -1.223942711949348450e-01 3.037020564079284668e-01
1.497000000000000000e+03 2.813817024230957031e+00 7.999267578125000000e+00 7.257079705595970154e-04 -6.124675273895263672e-01 -1.835225373506546021e-01 3.533356785774230957e-01
1.498000000000000000e+03 1.824213266372680664e+00 1.488445281982421875e+01 2.389622665941715240e-02 -1.296077013015747070e+00 -3.816542625427246094e-01 1.531124711036682129e-01
1.499000000000000000e+03 3.074213266372680664e+00 1.622890090942382812e+01 5.424974113702774048e-02 -1.213231444358825684e+00 -3.476945161819458008e-01 1.941540539264678955e-01
1.500000000000000000e+03 2.811354160308837891e+00 9.362403869628906250e+00 1.598747074604034424e-02 -7.387396693229675293e-01 -2.168256640434265137e-01 3.454107046127319336e-01
1.501000000000000000e+03 2.815589427947998047e+00 -6.881193161010742188e+00 -1.147406399250030518e-01 -8.111922144889831543e-01 -2.777798473834991455e-01 -8.950297832489013672e-01
1.502000000000000000e+03 2.125731945037841797e+00 -2.332575798034667969e+01 2.102236747741699219e-01 -1.680767655372619629e+00 -4.411631822586059570e-01 1.197153091430664062e+00
1.503000000000000000e+03 3.122473001480102539e+00 -2.808413124084472656e+01 -2.707551419734954834e-01 8.391503691673278809e-01 1.705185621976852417e-01 1.562811493873596191e+00
1.504000000000000000e+03 2.701448917388916016e+00 -9.441282272338867188e+00 -7.503193803131580353e-03 -1.396536827087402344e+00 -4.212119877338409424e-01 -9.785268306732177734e-01
1.505000000000000000e+03 2.717798709869384766e+00 -8.150317192077636719e+00 -5.745251476764678955e-02 -1.112205862998962402e+00 -3.508974909782409668e-01 -9.507403969764709473e-01
1.506000000000000000e+03 2.712335586547851562e+00 -1.487625598907470703e+01 2.326630502939224243e-01 -2.242749929428100586e+00 -6.030260920524597168e-01 -5.773351788520812988e-01
1.507000000000000000e+03 3.734915256500244141e+00 -3.193298721313476562e+01 -4.742631018161773682e-01 1.539418935775756836e+00 3.195467293262481689e-01 8.828163743019104004e-01
1.508000000000000000e+03 6.534219741821289062e+00 -2.708859252929687500e+01 -7.756646275520324707e-01 2.618891477584838867e+00 5.529680848121643066e-01 1.731972098350524902e+00
1.509000000000000000e+03 4.734303951263427734e+00 -2.237314033508300781e+01 8.807769417762756348e-01 1.185575604438781738e+00 6.199057698249816895e-01 1.617229700088500977e+00
1.510000000000000000e+03 4.256000041961669922e+00 -2.430533409118652344e+01 3.197637200355529785e-01 9.131645560264587402e-01 3.698784708976745605e-01 1.908103466033935547e+00
1.511000000000000000e+03 2.728115320205688477e+00 -1.350917243957519531e+01 1.747717857360839844e-01 -2.105167865753173828e+00 -5.791188478469848633e-01 -7.505815625190734863e-01
1.512000000000000000e+03 2.180722713470458984e+00 -4.079205513000488281e+00 -1.446800231933593750e-01 -4.365333914756774902e-01 -1.743640154600143433e-01 -4.883265793323516846e-01
1.513000000000000000e+03 2.847810029983520508e+00 1.071500396728515625e+01 3.376006707549095154e-02 -8.604229688644409180e-01 -2.479988783597946167e-01 3.282737433910369873e-01
1.514000000000000000e+03 2.960871696472167969e+00 1.345745182037353516e+01 5.061951279640197754e-02 -1.065468549728393555e+00 -3.044547140598297119e-01 2.706788182258605957e-01
1.515000000000000000e+03 3.177940130233764648e+00 1.903906059265136719e+01 5.003298446536064148e-02 -1.303036808967590332e+00 -3.759011626243591309e-01 1.170656606554985046e-01
1.516000000000000000e+03 6.887854766845703125e+01 -9.489493370056152344e+00 6.572154164314270020e-01 5.843403339385986328e+00 1.950185537338256836e+00 1.232981324195861816e+00
1.517000000000000000e+03 4.518267059326171875e+01 -2.418913078308105469e+01 2.450749397277832031e+00 9.720278739929199219e+00 3.651308298110961914e+00 -2.329260826110839844e+00
1.518000000000000000e+03 7.567402648925781250e+01 -2.691491842269897461e+00 2.277866601943969727e-01 7.083390235900878906e+00 2.193352937698364258e+00 -3.614761829376220703e-01
1.519000000000000000e+03 7.093347167968750000e+01 -1.059516191482543945e+00 7.502388358116149902e-01 1.132367897033691406e+01 3.622175216674804688e+00 1.313896775245666504e+00
1.520000000000000000e+03 1.809738731384277344e+01 -3.508099746704101562e+01 -1.028522968292236328e+00 -3.108091056346893311e-01 -4.017996191978454590e-01 3.433184325695037842e-01
1.521000000000000000e+03 4.191561889648437500e+01 2.456063461303710938e+01 4.620257914066314697e-01 6.071278095245361328e+00 1.959991216659545898e+00 9.644170403480529785e-01
1.522000000000000000e+03 1.736932182312011719e+01 -3.305820083618164062e+01 -1.469544410705566406e+00 -2.699269056320190430e-01 -5.218414068222045898e-01 4.268403053283691406e-01
1.523000000000000000e+03 4.132191467285156250e+01 1.817467880249023438e+01 7.562616467475891113e-01 9.054673194885253906e+00 2.943280458450317383e+00 9.206660389900207520e-01
1.524000000000000000e+03 4.370118331909179688e+01 -2.937850570678710938e+01 1.058217525482177734e+00 8.811892509460449219e+00 2.961032867431640625e+00 -9.134162068367004395e-01
1.525000000000000000e+03 4.271963119506835938e+01 2.244164085388183594e+01 8.464042544364929199e-01 7.030404090881347656e+00 2.363042354583740234e+00 1.627778768539428711e+00
1.526000000000000000e+03 4.037964630126953125e+01 2.020524787902832031e+01 7.270197272300720215e-01 7.623089790344238281e+00 2.505032777786254883e+00 6.429230570793151855e-01
1.527000000000000000e+03 4.623198318481445312e+01 3.299662780761718750e+01 -5.295867919921875000e-01 3.385053634643554688e+00 8.566400408744812012e-01 6.470272541046142578e-01
1.528000000000000000e+03 4.090323257446289062e+01 2.162682342529296875e+01 6.600459218025207520e-01 7.152064800262451172e+00 2.343633174896240234e+00 8.646643757820129395e-01
1.529000000000000000e+03 8.378962516784667969e+00 -1.625719451904296875e+01 2.116388082504272461e+00 3.852892160415649414e+00 1.790784001350402832e+00 1.296448230743408203e+00
1.530000000000000000e+03 4.219067764282226562e+01 -1.683097267150878906e+01 -6.544893234968185425e-02 8.410281181335449219e+00 2.503449678421020508e+00 -2.364840984344482422e+00
1.531000000000000000e+03 4.984004974365234375e+01 -1.666258239746093750e+01 -1.451875090599060059e+00 4.219320297241210938e+00 8.302335143089294434e-01 -2.298009693622589111e-01
1.532000000000000000e+03 7.059796905517578125e+01 -5.521178245544433594e+00 4.159333109855651855e-01 8.221733093261718750e+00 2.591300010681152344e+00 1.074440002441406250e+00
1.533000000000000000e+03 4.254567718505859375e+01 3.454536437988281250e+00 6.232154965400695801e-01 7.280162811279296875e+00 2.371013402938842773e+00 -2.051017761230468750e+00
1.534000000000000000e+03 4.233335113525390625e+01 -2.008756065368652344e+01 2.473185777664184570e+00 1.198310947418212891e+01 4.336888790130615234e+00 -3.115581512451171875e+00
1.535000000000000000e+03 4.390798950195312500e+01 -1.749887466430664062e+01 1.174170970916748047e-01 8.482536315917968750e+00 2.579986095428466797e+00 -1.252539157867431641e+00
1.536000000000000000e+03 6.958262634277343750e+01 3.034304428100585938e+01 -7.047476768493652344e-01 4.134760856628417969e+00 1.029003858566284180e+00 7.115060091018676758e-02
1.537000000000000000e+03 7.143271636962890625e+01 7.622875690460205078e+00 3.948772549629211426e-01 1.093590450286865234e+01 3.399234533309936523e+00 3.526231646537780762e-01
1.538000000000000000e+03 7.561514282226562500e+01 -3.369731903076171875e+01 -3.296033740043640137e-01 7.198630809783935547e+00 2.060708284378051758e+00 -4.305457174777984619e-01
1.539000000000000000e+03 4.248265457153320312e+01 2.624115371704101562e+01 3.022058904170989990e-01 5.490095615386962891e+00 1.737690448760986328e+00 9.104027748107910156e-01
1.540000000000000000e+03 4.081156539916992188e+01 2.677604293823242188e+01 3.056352771818637848e-02 5.407707691192626953e+00 1.631481289863586426e+00 4.079412221908569336e-01
1.541000000000000000e+03 3.935727310180664062e+01 6.692762374877929688e+00 1.247647762298583984e+00 7.858238697052001953e+00 2.731765985488891602e+00 -8.344873785972595215e-01
1.542000000000000000e+03 4.066329956054687500e+01 5.833125114440917969e+00 9.991219639778137207e-01 8.247859001159667969e+00 2.774094104766845703e+00 -1.273864984512329102e+00
1.543000000000000000e+03 7.060442352294921875e+01 -8.473154067993164062e+00 3.472745418548583984e-01 6.744756698608398438e+00 2.127609252929687500e+00 6.429419517517089844e-01
1.544000000000000000e+03 6.117020416259765625e+01 -1.996216964721679688e+01 -5.418469905853271484e-01 1.656609177589416504e+00 3.344286680221557617e-01 2.208800077438354492e+00
1.545000000000000000e+03 5.084907531738281250e+01 3.434234619140625000e+01 -3.187534213066101074e-01 1.235987544059753418e+00 2.751702368259429932e-01 4.379284381866455078e-01
1.546000000000000000e+03 4.890420532226562500e+01 3.345193481445312500e+01 -3.349933028221130371e-01 2.235533952713012695e+00 5.701622366905212402e-01 7.042255401611328125e-01
1.547000000000000000e+03 5.464477539062500000e+01 -2.626358985900878906e+01 1.764844298362731934e+00 4.032948017120361328e+00 1.739337682723999023e+00 1.001141965389251709e-01
1.548000000000000000e+03 5.412083053588867188e+01 -2.498770332336425781e+01 1.936560630798339844e+00 3.599193572998046875e+00 1.660726308822631836e+00 -2.065328061580657959e-01
1.549000000000000000e+03 2.027880096435546875e+01 -1.199177074432373047e+01 4.853276729583740234e+00 -3.194110631942749023e+00 4.977497756481170654e-01 3.048936605453491211e+00
1.550000000000000000e+03 1.291487503051757812e+01 -1.233711719512939453e+01 3.277117252349853516e+00 2.646548509597778320e+00 1.777099728584289551e+00 1.242372035980224609e+00
1.551000000000000000e+03 4.143477630615234375e+01 2.306000900268554688e+01 6.167141199111938477e-01 6.643595695495605469e+00 2.178092956542968750e+00 9.148266911506652832e-01
1.552000000000000000e+03 6.630467224121093750e+01 -1.193901252746582031e+01 1.309294462203979492e+00 3.805507659912109375e+00 1.534440636634826660e+00 1.569224953651428223e+00
1.553000000000000000e+03 6.831281280517578125e+01 -1.086518955230712891e+01 8.185428380966186523e-01 5.060729503631591797e+00 1.763781785964965820e+00 1.152555584907531738e+00
1.554000000000000000e+03 7.990857601165771484e+00 -2.925635528564453125e+01 -1.336551189422607422e+00 2.014232397079467773e+00 2.033043503761291504e-01 8.543969392776489258e-01
1.555000000000000000e+03 6.485790252685546875e+01 -1.864840126037597656e+01 -5.578482747077941895e-01 1.513943314552307129e+00 2.868285179138183594e-01 1.612018108367919922e+00
1.556000000000000000e+03 5.371453857421875000e+01 -3.280178070068359375e+01 1.278924107551574707e+00 6.324699401855468750e+00 2.281086921691894531e+00 -6.566716432571411133e-01
1.557000000000000000e+03 5.738780593872070312e+01 -3.833100891113281250e+01 -2.653890550136566162e-01 3.560933113098144531e+00 9.886632561683654785e-01 -1.188290476799011230e+00
1.558000000000000000e+03 7.657223510742187500e+01 -3.305812454223632812e+01 -2.148073613643646240e-01 7.140869617462158203e+00 2.077818632125854492e+00 -5.827569365501403809e-01
1.559000000000000000e+03 5.523630142211914062e+01 -2.441565895080566406e+01 1.920845746994018555e+00 2.750814676284790039e+00 1.401498079299926758e+00 4.449795484542846680e-01
1.560000000000000000e+03 3.892732620239257812e+01 1.309159755706787109e+01 1.549256920814514160e+00 8.663283348083496094e+00 3.063762187957763672e+00 -6.413524150848388672e-01
1.561000000000000000e+03 3.993814849853515625e+01 -3.401116943359375000e+01 -1.088768362998962402e+00 2.851039648056030273e+00 5.286813378334045410e-01 1.319841265678405762e+00
1.562000000000000000e+03 6.812297821044921875e+01 -2.022593879699707031e+01 -1.328905105590820312e+00 4.491353332996368408e-01 -2.639309167861938477e-01 -2.981435954570770264e-01
1.563000000000000000e+03 7.218486022949218750e+01 2.468593025207519531e+01 2.615317702293395996e-01 7.733461856842041016e+00 2.398498058319091797e+00 4.877311885356903076e-01
1.564000000000000000e+03 7.201144409179687500e+01 2.620154380798339844e+01 1.586521416902542114e-01 7.317517757415771484e+00 2.242851018905639648e+00 5.257455706596374512e-01
1.565000000000000000e+03 6.758230590820312500e+01 -1.385591697692871094e+01 7.263157367706298828e-01 3.709403514862060547e+00 1.330715775489807129e+00 7.183023691177368164e-01
1.566000000000000000e+03 3.954455184936523438e+01 9.996298789978027344e+00 1.904735803604125977e+00 8.924824714660644531e+00 3.248868227005004883e+00 -9.218722581863403320e-01
1.567000000000000000e+03 7.275647735595703125e+01 7.683835983276367188e+00 2.150018513202667236e-01 9.955822944641113281e+00 3.051247358322143555e+00 7.473804950714111328e-01
1.568000000000000000e+03 7.232189178466796875e+01 -3.628955078125000000e+01 -3.935317993164062500e-01 5.354360103607177734e+00 1.488248467445373535e+00 4.625808298587799072e-01
1.569000000000000000e+03 1.124985790252685547e+01 -3.215766525268554688e+01 -1.268188953399658203e+00 3.458240032196044922e-01 -2.767094969749450684e-01 2.199198305606842041e-01
1.570000000000000000e+03 1.381180381774902344e+01 -3.358452224731445312e+01 -1.151054501533508301e+00 -2.791393399238586426e-01 -4.290581345558166504e-01 3.163291513919830322e-01
1.571000000000000000e+03 5.629244232177734375e+01 -2.150787734985351562e+01 1.101709127426147461e+00 9.906043410301208496e-01 6.276940107345581055e-01 9.432587027549743652e-01
1.572000000000000000e+03 4.909134292602539062e+01 -1.242128086090087891e+01 -1.248383283615112305e+00 4.241520404815673828e+00 8.979410529136657715e-01 2.437185198068618774e-01
1.573000000000000000e+03 3.724103164672851562e+01 -3.643144989013671875e+01 -9.348967671394348145e-01 9.146919250488281250e-01 -6.061458960175514221e-03 6.254259943962097168e-01
1.574000000000000000e+03 6.649477386474609375e+01 -1.931363105773925781e+01 -6.549133658409118652e-01 9.676262140274047852e-01 9.381384402513504028e-02 8.786833286285400391e-01
1.575000000000000000e+03 6.161603164672851562e+01 4.045737075805664062e+01 7.803102582693099976e-02 -4.604679644107818604e-01 -1.147310808300971985e-01 1.010931134223937988e-01
1.576000000000000000e+03 7.665731048583984375e+01 -3.095219230651855469e+01 1.076955646276473999e-01 7.089851856231689453e+00 2.159264326095581055e+00 -6.233347058296203613e-01
1.577000000000000000e+03 7.320151519775390625e+01 -2.975221824645996094e+01 7.632214426994323730e-01 8.546169281005859375e+00 2.792817354202270508e+00 -2.622598595917224884e-02
1.578000000000000000e+03 7.235765075683593750e+01 1.466895484924316406e+01 -6.417423486709594727e-03 8.991385459899902344e+00 2.695490598678588867e+00 4.012636840343475342e-01
1.579000000000000000e+03 7.114604187011718750e+01 1.454587841033935547e+01 2.406220436096191406e-01 9.091076850891113281e+00 2.799509763717651367e+00 4.347242712974548340e-01
1.580000000000000000e+03 4.345211791992187500e+01 -2.067904663085937500e+01 3.458626031875610352e+00 1.049668979644775391e+01 4.186594963073730469e+00 -2.231122732162475586e+00
1.581000000000000000e+03 4.275727462768554688e+01 2.963200950622558594e+01 -2.573948502540588379e-01 4.671057701110839844e+00 1.324098825454711914e+00 5.932227969169616699e-01
1.582000000000000000e+03 7.500976562500000000e+01 -2.691286849975585938e+01 1.057815790176391602e+00 7.982663631439208984e+00 2.712143898010253906e+00 1.801562607288360596e-01
1.583000000000000000e+03 3.917070770263671875e+01 -3.560379791259765625e+01 -1.130414366722106934e+00 2.280675411224365234e+00 3.450783193111419678e-01 1.140453338623046875e+00
1.584000000000000000e+03 7.298368072509765625e+01 -1.626202583312988281e+01 -5.920983552932739258e-01 5.999289035797119141e+00 1.622157216072082520e+00 -7.513887286186218262e-01
1.585000000000000000e+03 3.144790887832641602e+00 -2.666500473022460938e+01 -1.882146447896957397e-01 4.046654105186462402e-01 6.493523716926574707e-02 1.756257653236389160e+00
1.586000000000000000e+03 9.376164436340332031e+00 -3.045867538452148438e+01 -1.371295094490051270e+00 1.175614237785339355e+00 -5.870426073670387268e-02 3.616870641708374023e-01
1.587000000000000000e+03 9.742534637451171875e+00 -3.218975830078125000e+01 -1.234941959381103516e+00 8.683096766471862793e-01 -1.099896654486656189e-01 3.115863502025604248e-01
1.588000000000000000e+03 7.173351287841796875e+01 2.774993705749511719e+01 -7.148552685976028442e-02 6.764071464538574219e+00 2.007775783538818359e+00 5.276736021041870117e-01
1.589000000000000000e+03 7.427665710449218750e+01 3.183194160461425781e+01 -5.169110298156738281e-01 7.897696971893310547e+00 2.214235782623291016e+00 5.041649937629699707e-01
1.590000000000000000e+03 5.193233489990234375e+01 3.560528182983398438e+01 -4.203860461711883545e-01 9.051185250282287598e-01 1.454197466373443604e-01 3.635807335376739502e-01
1.591000000000000000e+03 3.966799545288085938e+01 8.329061508178710938e+00 1.666120767593383789e+00 8.594436645507812500e+00 3.078167200088500977e+00 -9.454157948493957520e-01
1.592000000000000000e+03 3.916928482055664062e+01 -1.635550689697265625e+01 2.802811563014984131e-01 5.546676635742187500e+00 1.748087406158447266e+00 -3.073901653289794922e+00
1.593000000000000000e+03 3.648281478881835938e+01 -1.533485412597656250e+01 2.985791563987731934e-01 2.628475904464721680e+00 8.781164884567260742e-01 -2.479223251342773438e+00
1.594000000000000000e+03 4.974807357788085938e+01 -1.373410224914550781e+01 -1.654063701629638672e+00 3.889790296554565430e+00 6.707180142402648926e-01 4.595155417919158936e-01
1.595000000000000000e+03 1.638450622558593750e+01 -1.194285774230957031e+01 4.497661590576171875e+00 1.223871231079101562e+00 1.716459870338439941e+00 1.340028166770935059e+00
1.596000000000000000e+03 5.600777053833007812e+01 -1.790112113952636719e+01 -2.199507713317871094e+00 -1.051914811134338379e+00 -9.754267334938049316e-01 1.361236810684204102e+00
1.597000000000000000e+03 5.723123550415039062e+01 -1.872143745422363281e+01 -1.283537030220031738e+00 -9.552018344402313232e-02 -4.137171506881713867e-01 1.862212061882019043e+00
1.598000000000000000e+03 5.444457244873046875e+01 -1.741943359375000000e+01 -2.680619955062866211e+00 -6.412204504013061523e-01 -9.965521097183227539e-01 3.802883327007293701e-01
1.599000000000000000e+03 8.807556152343750000e+00 -1.503871059417724609e+01 2.143078565597534180e+00 3.396936893463134766e+00 1.662004590034484863e+00 8.991963267326354980e-01
1.600000000000000000e+03 1.561923217773437500e+01 -1.242909145355224609e+01 4.990051746368408203e+00 1.507022976875305176e+00 1.949122428894042969e+00 1.434519648551940918e+00
1.601000000000000000e+03 1.402853393554687500e+01 -1.196233654022216797e+01 3.493506193161010742e+00 2.047298431396484375e+00 1.662241339683532715e+00 1.211892485618591309e+00
1.602000000000000000e+03 4.053114318847656250e+01 -1.603016281127929688e+01 1.027687042951583862e-01 7.084427833557128906e+00 2.156158924102783203e+00 -2.873224258422851562e+00
1.603000000000000000e+03 6.290919876098632812e+01 -2.179996681213378906e+01 1.444086246192455292e-02 1.099019885063171387e+00 3.340382277965545654e-01 1.544420361518859863e+00
1.604000000000000000e+03 6.514917755126953125e+01 -1.977647972106933594e+01 -1.011993885040283203e+00 1.143365502357482910e+00 3.941148892045021057e-02 1.653977990150451660e+00
1.605000000000000000e+03 7.322944641113281250e+01 -2.132506752014160156e+01 -1.157535314559936523e+00 7.472045898437500000e+00 1.894353151321411133e+00 1.255574971437454224e-01
1.606000000000000000e+03 7.366313934326171875e+01 -2.407670783996582031e+01 8.654803037643432617e-01 8.196190834045410156e+00 2.718501329421997070e+00 5.735894441604614258e-01
1.607000000000000000e+03 4.386028289794921875e+01 -3.088370704650878906e+01 7.918403297662734985e-02 8.290717124938964844e+00 2.510970354080200195e+00 -5.914393067359924316e-01
1.608000000000000000e+03 8.257700920104980469e+00 -2.829029464721679688e+01 -1.298738241195678711e+00 2.343292236328125000e+00 3.133661448955535889e-01 9.546357393264770508e-01
1.609000000000000000e+03 7.101452827453613281e+00 -2.592399787902832031e+01 -1.537287086248397827e-01 3.238191127777099609e+00 9.253387451171875000e-01 1.704420089721679688e+00
1.610000000000000000e+03 4.430004882812500000e+01 -2.238097572326660156e+01 3.327100038528442383e+00 1.029298114776611328e+01 4.086024284362792969e+00 -2.382912397384643555e+00
1.611000000000000000e+03 4.261120605468750000e+01 -1.799267578125000000e+01 5.419293045997619629e-01 9.801072120666503906e+00 3.102900505065917969e+00 -2.295184373855590820e+00
1.612000000000000000e+03 6.721055603027343750e+01 3.739155960083007812e+01 -1.027385070919990540e-01 1.765462636947631836e+00 4.988172352313995361e-01 -6.906096637248992920e-02
1.613000000000000000e+03 6.509546661376953125e+01 3.928255462646484375e+01 1.104000583291053772e-01 3.934401571750640869e-01 1.511520594358444214e-01 7.917943596839904785e-02
1.614000000000000000e+03 6.853887176513671875e+01 3.560406875610351562e+01 -6.724638342857360840e-01 2.806432247161865234e+00 6.401905417442321777e-01 -2.109435349702835083e-01
1.615000000000000000e+03 4.875737190246582031e+00 -4.028849029541015625e+01 -8.305428177118301392e-02 1.666205286979675293e+00 4.749453067779541016e-01 1.713700294494628906e-01
1.616000000000000000e+03 5.289655685424804688e+01 -1.733575439453125000e+01 -2.245988368988037109e+00 1.052532315254211426e+00 -3.580368161201477051e-01 -1.618907451629638672e-01
1.617000000000000000e+03 5.411197280883789062e+01 -3.448936462402343750e+01 1.836544424295425415e-01 6.288057804107666016e+00 1.941513657569885254e+00 -9.850496649742126465e-01
1.618000000000000000e+03 5.519196319580078125e+01 -3.586286544799804688e+01 -3.750096857547760010e-01 5.351737022399902344e+00 1.493018269538879395e+00 -1.019890666007995605e+00
1.619000000000000000e+03 2.411246299743652344e+01 -8.481568336486816406e+00 -8.844506144523620605e-01 2.747332334518432617e+00 5.588645339012145996e-01 1.440643429756164551e+00
1.620000000000000000e+03 2.458032608032226562e+01 -9.467757225036621094e+00 3.250786364078521729e-01 4.037835597991943359e+00 1.308874249458312988e+00 2.876842975616455078e+00
1.621000000000000000e+03 2.540706443786621094e+01 -9.838000297546386719e+00 2.153733015060424805e+00 2.752591133117675781e+00 1.471897244453430176e+00 3.473904371261596680e+00
1.622000000000000000e+03 2.101052474975585938e+01 -1.162094879150390625e+01 6.317328453063964844e+00 -4.181766510009765625e+00 6.406686305999755859e-01 2.051561594009399414e+00
1.623000000000000000e+03 2.106710433959960938e+01 -1.245073604583740234e+01 5.341650009155273438e+00 -4.165485858917236328e+00 3.528491556644439697e-01 4.156383037567138672e+00
1.624000000000000000e+03 2.544261169433593750e+01 -1.049530124664306641e+01 4.138061523437500000e+00 1.875883817672729492e+00 1.804183602333068848e+00 3.444263219833374023e+00
1.625000000000000000e+03 2.332161712646484375e+01 -6.968050003051757812e+00 -1.183218240737915039e+00 1.122193217277526855e+00 -1.830751448869705200e-02 8.276288509368896484e-01
1.626000000000000000e+03 2.056005287170410156e+01 -1.149681091308593750e+01 5.261418342590332031e+00 -3.819816350936889648e+00 4.324805140495300293e-01 2.161409616470336914e+00
1.627000000000000000e+03 2.015858078002929688e+01 -1.154094791412353516e+01 4.829449653625488281e+00 -2.785546302795410156e+00 6.131709814071655273e-01 2.390347957611083984e+00
1.628000000000000000e+03 2.532239723205566406e+01 -9.150281906127929688e+00 6.926324963569641113e-01 3.129134893417358398e+00 1.146530151367187500e+00 2.891076326370239258e+00
1.629000000000000000e+03 1.772803497314453125e+01 -8.823686599731445312e+00 8.451101183891296387e-02 -2.748649418354034424e-01 -5.710617825388908386e-02 1.316691279411315918e+00
1.630000000000000000e+03 1.625288200378417969e+01 -7.473340511322021484e+00 -9.382385015487670898e-01 2.957009971141815186e-01 -1.927612423896789551e-01 1.054440140724182129e+00
1.631000000000000000e+03 2.366643905639648438e+01 -6.451724052429199219e+00 -1.209158420562744141e+00 1.407018899917602539e+00 5.935814604163169861e-02 8.219426274299621582e-01
1.632000000000000000e+03 1.531385326385498047e+01 -6.557078838348388672e+00 -1.360408902168273926e+00 4.463343322277069092e-01 -2.742223441600799561e-01 8.590189814567565918e-01
1.633000000000000000e+03 1.448798847198486328e+01 -1.069359016418457031e+01 2.055746793746948242e+00 1.732869982719421387e+00 1.136584997177124023e+00 7.320927381515502930e-01
1.634000000000000000e+03 1.672970581054687500e+01 -7.944552898406982422e+00 -6.686101555824279785e-01 1.699273735284805298e-01 -1.496048271656036377e-01 1.132088780403137207e+00
1.635000000000000000e+03 1.326489543914794922e+01 -5.065542697906494141e+00 -1.630017161369323730e+00 5.834530591964721680e-01 -3.139692544937133789e-01 4.037137329578399658e-01
1.636000000000000000e+03 1.212370681762695312e+01 -4.446278095245361328e+00 -1.586843967437744141e+00 6.101678013801574707e-01 -2.930028736591339111e-01 1.612594872713088989e-01
1.637000000000000000e+03 1.337909412384033203e+01 -5.954953670501708984e+00 -1.391694426536560059e+00 8.063241839408874512e-01 -1.756110787391662598e-01 3.195131123065948486e-01
1.638000000000000000e+03 1.240497016906738281e+01 -5.259902477264404297e+00 -1.454036951065063477e+00 7.854378819465637207e-01 -2.005797028541564941e-01 1.149606779217720032e-01
1.639000000000000000e+03 1.087786388397216797e+01 -3.973679304122924805e+00 -1.471355438232421875e+00 6.161120533943176270e-01 -2.565730214118957520e-01 -5.771477147936820984e-02
1.640000000000000000e+03 2.362892532348632812e+01 -5.544566154479980469e+00 -1.211770057678222656e+00 1.268452048301696777e+00 1.700461097061634064e-02 7.352308630943298340e-01
1.641000000000000000e+03 1.847932624816894531e+01 -9.967655181884765625e+00 1.615192174911499023e+00 -7.876566648483276367e-01 2.482606470584869385e-01 1.422393202781677246e+00
1.642000000000000000e+03 1.252392387390136719e+01 -6.051723957061767578e+00 -1.245744585990905762e+00 9.954847693443298340e-01 -7.507794350385665894e-02 4.588214308023452759e-02
1.643000000000000000e+03 1.439767074584960938e+01 -6.624498844146728516e+00 -1.210031151771545410e+00 7.864493727684020996e-01 -1.270745098590850830e-01 5.485650300979614258e-01
1.644000000000000000e+03 1.574194812774658203e+01 -1.115933322906494141e+01 3.072839260101318359e+00 1.376595973968505859e+00 1.334830522537231445e+00 1.017889976501464844e+00
1.645000000000000000e+03 9.123368263244628906e+00 3.982931613922119141e+00 -4.116113185882568359e-01 -5.468286275863647461e-01 -2.875319719314575195e-01 7.961434125900268555e-01
1.646000000000000000e+03 8.394202232360839844e+00 4.078203678131103516e+00 -3.804714679718017578e-01 -4.882467985153198242e-01 -2.606154680252075195e-01 7.643269300460815430e-01
1.647000000000000000e+03 1.674057769775390625e+01 -8.922206878662109375e+00 2.298089414834976196e-01 4.507932066917419434e-01 2.041806429624557495e-01 1.065835475921630859e+00
1.648000000000000000e+03 7.687320709228515625e+00 3.960462093353271484e+00 -4.004995822906494141e-01 -4.016792774200439453e-01 -2.406536489725112915e-01 7.029764056205749512e-01
1.649000000000000000e+03 5.543715476989746094e+00 4.158960819244384766e+00 -2.567052841186523438e-01 -2.928968369960784912e-01 -1.648806333541870117e-01 4.979794621467590332e-01
1.650000000000000000e+03 4.779739379882812500e+00 4.183663368225097656e+00 -2.112066447734832764e-01 -2.874295413494110107e-01 -1.495908498764038086e-01 4.398044645786285400e-01
1.651000000000000000e+03 4.455030441284179688e+00 5.815921783447265625e+00 -1.094906255602836609e-01 -4.155581295490264893e-01 -1.575146168470382690e-01 4.661363363265991211e-01
1.652000000000000000e+03 4.815763473510742188e+00 3.416894912719726562e+00 -2.495108991861343384e-01 -1.996404528617858887e-01 -1.347454041242599487e-01 3.698160946369171143e-01
1.653000000000000000e+03 4.760863780975341797e+00 4.998975753784179688e+00 -1.741132140159606934e-01 -3.464356660842895508e-01 -1.561646610498428345e-01 4.799731671810150146e-01
1.654000000000000000e+03 5.536296367645263672e+00 4.947619438171386719e+00 -2.043426632881164551e-01 -3.654208779335021973e-01 -1.709290593862533569e-01 5.375826358795166016e-01
1.655000000000000000e+03 3.909322500228881836e+00 5.042578220367431641e+00 -1.241309270262718201e-01 -3.418374955654144287e-01 -1.397905349731445312e-01 3.910322487354278564e-01
1.656000000000000000e+03 3.506668567657470703e+00 3.656694173812866211e+00 -1.477561891078948975e-01 -2.066983729600906372e-01 -1.063363701105117798e-01 2.749829292297363281e-01
1.657000000000000000e+03 1.727047443389892578e+00 5.050138473510742188e+00 -3.398238122463226318e-02 -2.843361794948577881e-01 -9.549556672573089600e-02 1.786208301782608032e-01
1.658000000000000000e+03 1.618937492370605469e+01 2.310178041458129883e+00 -5.396418571472167969e-01 -7.256100177764892578e-01 -3.795755505561828613e-01 6.943430304527282715e-01
1.659000000000000000e+03 8.773103713989257812e+00 -3.498617887496948242e+00 -1.187506914138793945e+00 4.873713254928588867e-01 -2.100406736135482788e-01 -3.559545278549194336e-01
1.660000000000000000e+03 1.066479206085205078e+01 -4.643038749694824219e+00 -1.364042639732360840e+00 7.623528242111206055e-01 -1.805069446563720703e-01 -2.018433958292007446e-01
1.661000000000000000e+03 1.741950225830078125e+01 -2.107407897710800171e-01 -1.162460327148437500e+00 -8.556008934974670410e-01 -6.054183244705200195e-01 8.740947246551513672e-01
1.662000000000000000e+03 1.781110000610351562e+01 3.687052428722381592e-01 -9.203597903251647949e-01 -7.016851902008056641e-01 -4.866135120391845703e-01 7.353192567825317383e-01
1.663000000000000000e+03 2.188920974731445312e+01 -2.342544794082641602e+00 -1.052096366882324219e+00 3.380351066589355469e-01 -2.142183780670166016e-01 5.066042542457580566e-01
1.664000000000000000e+03 2.147584152221679688e+01 -2.864383220672607422e+00 -1.177908182144165039e+00 7.237266004085540771e-02 -3.316606581211090088e-01 6.136593818664550781e-01
1.665000000000000000e+03 1.934330558776855469e+01 -1.705760478973388672e+00 -1.257778525352478027e+00 -6.426561474800109863e-01 -5.701304078102111816e-01 8.167674541473388672e-01
1.666000000000000000e+03 1.973917961120605469e+01 -1.151810884475708008e+00 -1.063430547714233398e+00 -4.176842570304870605e-01 -4.443344175815582275e-01 6.595763564109802246e-01
1.667000000000000000e+03 8.067739486694335938e+00 -3.410227298736572266e+00 -1.055837869644165039e+00 3.992903828620910645e-01 -1.969642490148544312e-01 -4.428765773773193359e-01
1.668000000000000000e+03 5.118571281433105469e+00 -3.428624391555786133e+00 -5.569744706153869629e-01 -6.813413463532924652e-03 -1.691363602876663208e-01 -6.739670634269714355e-01
1.669000000000000000e+03 8.593425750732421875e+00 -5.377589225769042969e+00 -9.396100044250488281e-01 7.372260093688964844e-01 -6.071521341800689697e-02 -6.793076992034912109e-01
1.670000000000000000e+03 6.856692314147949219e+00 -4.765288829803466797e+00 -7.537339329719543457e-01 3.631244897842407227e-01 -1.171828210353851318e-01 -7.879621386528015137e-01
1.671000000000000000e+03 4.350339889526367188e+00 -4.436256408691406250e+00 -4.026916325092315674e-01 -1.575266271829605103e-01 -1.680654734373092651e-01 -7.932013869285583496e-01
1.672000000000000000e+03 3.521314620971679688e+00 -3.428172111511230469e+00 -3.266824185848236084e-01 -1.990604400634765625e-01 -1.577228605747222900e-01 -5.633937120437622070e-01
1.673000000000000000e+03 4.149679660797119141e+00 -6.081788539886474609e+00 -2.904670536518096924e-01 -2.914075553417205811e-01 -1.745623797178268433e-01 -9.807235598564147949e-01
1.674000000000000000e+03 3.069206237792968750e+00 -5.628691196441650391e+00 -1.996114403009414673e-01 -5.338790416717529297e-01 -2.200471460819244385e-01 -8.201361894607543945e-01
1.675000000000000000e+03 2.198604583740234375e+01 -3.444286108016967773e+00 -1.203350901603698730e+00 2.639419138431549072e-01 -2.818226814270019531e-01 6.090532541275024414e-01
1.676000000000000000e+03 1.936444664001464844e+01 -1.027777290344238281e+01 2.177782058715820312e+00 -1.616629719734191895e+00 1.683457046747207642e-01 1.440131187438964844e+00
1.677000000000000000e+03 1.293770408630371094e+01 3.495517969131469727e+00 -4.339129328727722168e-01 -7.995204925537109375e-01 -3.700300157070159912e-01 8.103754520416259766e-01
1.678000000000000000e+03 1.321732425689697266e+01 2.382296085357666016e+00 -7.803014516830444336e-01 -8.366434574127197266e-01 -4.850834608078002930e-01 8.656181693077087402e-01
1.679000000000000000e+03 2.287690353393554688e+01 -4.553404331207275391e+00 -1.229559063911437988e+00 7.233663201332092285e-01 -1.518578082323074341e-01 6.363191008567810059e-01
1.680000000000000000e+03 2.245378112792968750e+01 -4.009537220001220703e+00 -1.216008543968200684e+00 4.908605217933654785e-01 -2.175443917512893677e-01 6.158047318458557129e-01
1.681000000000000000e+03 2.713245201110839844e+01 -1.449122810363769531e+01 -2.152078628540039062e+00 4.330493211746215820e-01 -5.157087445259094238e-01 -7.257727384567260742e-01
1.682000000000000000e+03 2.802343368530273438e+01 -1.466656875610351562e+01 -1.680168509483337402e+00 3.593468964099884033e-01 -3.962464928627014160e-01 -4.512312412261962891e-01
1.683000000000000000e+03 1.069017791748046875e+01 3.236414670944213867e+00 -5.827249884605407715e-01 -6.872698068618774414e-01 -3.809984326362609863e-01 8.472923636436462402e-01
1.684000000000000000e+03 9.113655090332031250e+00 -5.769169807434082031e+00 -9.378578662872314453e-01 8.817301392555236816e-01 -1.683831587433815002e-02 -6.521613001823425293e-01
1.685000000000000000e+03 7.922446250915527344e+00 -4.170977592468261719e+00 -9.705991744995117188e-01 4.637917876243591309e-01 -1.520422101020812988e-01 -6.040673851966857910e-01
1.686000000000000000e+03 1.754783248901367188e+01 1.428099155426025391e+00 -6.512282490730285645e-01 -6.211202144622802734e-01 -3.817045390605926514e-01 6.402196288108825684e-01
1.687000000000000000e+03 2.637914848327636719e+01 -1.402374267578125000e+01 -1.217219233512878418e+00 5.502334237098693848e-01 -2.000957280397415161e-01 -1.148725032806396484e+00
1.688000000000000000e+03 1.911134147644042969e+01 -6.177663803100585938e-01 -1.015574932098388672e+00 -5.287330746650695801e-01 -4.632924199104309082e-01 6.856393814086914062e-01
1.689000000000000000e+03 1.846858024597167969e+01 -1.134131997823715210e-01 -9.706364274024963379e-01 -6.303132176399230957e-01 -4.802848696708679199e-01 7.077234983444213867e-01
1.690000000000000000e+03 1.577348423004150391e+01 1.717566251754760742e+00 -7.611523270606994629e-01 -8.208883404731750488e-01 -4.746122062206268311e-01 7.897593975067138672e-01
1.691000000000000000e+03 2.092782211303710938e+01 -2.282878637313842773e+00 -1.146824359893798828e+00 -1.176382899284362793e-01 -3.793388009071350098e-01 6.217372417449951172e-01
1.692000000000000000e+03 2.034700202941894531e+01 -1.710333108901977539e+00 -1.107220649719238281e+00 -2.718541920185089111e-01 -4.137224555015563965e-01 6.403273940086364746e-01
1.693000000000000000e+03 1.507602596282958984e+01 2.151022911071777344e+00 -6.910622715950012207e-01 -8.319982886314392090e-01 -4.569181799888610840e-01 8.004415631294250488e-01
1.694000000000000000e+03 1.693592834472656250e+01 -1.140448665618896484e+01 3.790196657180786133e+00 9.573740363121032715e-01 1.424271225929260254e+00 1.211177468299865723e+00
1.695000000000000000e+03 3.037795257568359375e+01 -1.500166320800781250e+01 -9.052821993827819824e-01 4.103533923625946045e-01 -1.484786421060562134e-01 -4.256704747676849365e-01
1.696000000000000000e+03 1.021710395812988281e+01 3.995264291763305664e+00 -4.171728789806365967e-01 -6.536626815795898438e-01 -3.212506473064422607e-01 8.349491953849792480e-01
1.697000000000000000e+03 9.632074356079101562e+00 3.515190124511718750e+00 -4.964838027954101562e-01 -5.884085893630981445e-01 -3.254677355289459229e-01 8.159154653549194336e-01
1.698000000000000000e+03 3.176506423950195312e+01 -1.410788249969482422e+01 -9.433089196681976318e-02 6.930487751960754395e-01 1.796153634786605835e-01 -7.943037748336791992e-01
1.699000000000000000e+03 1.218194484710693359e+01 3.918178081512451172e+00 -3.709709346294403076e-01 -7.662634849548339844e-01 -3.411703407764434814e-01 8.152009844779968262e-01
1.700000000000000000e+03 1.141337871551513672e+01 3.836019515991210938e+00 -4.164417386054992676e-01 -7.447068095207214355e-01 -3.483445644378662109e-01 8.429449796676635742e-01
1.701000000000000000e+03 6.787861633300781250e+01 -1.897896194458007812e+01 -5.553827881813049316e-01 1.583739757537841797e+00 3.085070848464965820e-01 4.097748547792434692e-02
1.702000000000000000e+03 6.009364700317382812e+01 -2.166302108764648438e+01 6.278584003448486328e-01 1.600458502769470215e+00 6.684950590133666992e-01 1.934677004814147949e+00
1.703000000000000000e+03 1.964827919006347656e+01 -1.225720500946044922e+01 4.638230800628662109e+00 -1.395928502082824707e+00 9.726906418800354004e-01 2.590713262557983398e+00
1.704000000000000000e+03 2.914670181274414062e+01 -1.476079463958740234e+01 -1.128015518188476562e+00 3.349532485008239746e-01 -2.379186898469924927e-01 -4.284411072731018066e-01
1.705000000000000000e+03 6.521250152587890625e+01 -1.600010871887207031e+01 3.160479366779327393e-01 2.434402465820312500e+00 8.251351118087768555e-01 1.274536371231079102e+00
1.706000000000000000e+03 1.240484046936035156e+01 -7.010742187500000000e+00 -8.865529894828796387e-01 1.244128704071044922e+00 1.072727143764495850e-01 -7.021412253379821777e-02
1.707000000000000000e+03 7.838903427124023438e+00 -1.364566802978515625e+01 1.330606818199157715e+00 2.199869871139526367e+00 1.059143066406250000e+00 -1.343416869640350342e-01
1.708000000000000000e+03 4.257036209106445312e+01 -1.397453308105468750e+00 -1.463267654180526733e-01 6.023526668548583984e+00 1.763159990310668945e+00 -1.476892232894897461e+00
1.709000000000000000e+03 4.555163574218750000e+01 -5.005538940429687500e+00 -2.580861449241638184e-01 5.290853977203369141e+00 1.509830355644226074e+00 -1.295181035995483398e+00
1.710000000000000000e+03 2.770675849914550781e+01 -1.394849681854248047e+01 -4.986636638641357422e-01 2.202948778867721558e-01 -8.351063728332519531e-02 -9.227840304374694824e-01
1.711000000000000000e+03 7.582154273986816406e+00 -1.476601028442382812e+01 1.493018865585327148e+00 2.431735515594482422e+00 1.177426338195800781e+00 1.919730752706527710e-01
1.712000000000000000e+03 1.048548889160156250e+01 -1.402024841308593750e+01 2.856106281280517578e+00 3.633466482162475586e+00 1.946871757507324219e+00 1.389395594596862793e+00
1.713000000000000000e+03 4.468859100341796875e+01 3.039461326599121094e+01 -1.519355028867721558e-01 4.072196960449218750e+00 1.176078438758850098e+00 8.345194458961486816e-01
1.714000000000000000e+03 1.773596572875976562e+01 -1.194547080993652344e+01 4.477073192596435547e+00 5.274487137794494629e-01 1.501356482505798340e+00 1.307950019836425781e+00
1.715000000000000000e+03 1.883906936645507812e+01 -1.149075603485107422e+01 3.824284553527832031e+00 -9.733675122261047363e-01 8.552750945091247559e-01 1.835888028144836426e+00
1.716000000000000000e+03 4.311677169799804688e+01 -2.526445150375366211e+00 -2.258300036191940308e-01 5.798344135284423828e+00 1.671754240989685059e+00 -1.453716874122619629e+00
1.717000000000000000e+03 3.101609611511230469e+01 -1.191205596923828125e+01 8.459292054176330566e-01 8.669605851173400879e-01 5.138669610023498535e-01 -5.721133351325988770e-01
1.718000000000000000e+03 2.875288200378417969e+01 -1.240381050109863281e+01 1.330838203430175781e+00 1.601813733577728271e-01 4.473058879375457764e-01 -4.011718630790710449e-01
1.719000000000000000e+03 4.459938812255859375e+01 1.594951748847961426e-02 3.329909741878509521e-01 5.904349803924560547e+00 1.871202349662780762e+00 -1.984647870063781738e+00
1.720000000000000000e+03 4.518198394775390625e+01 -3.876229047775268555e+00 -1.532764285802841187e-01 5.395913600921630859e+00 1.572791099548339844e+00 -1.446260213851928711e+00
1.721000000000000000e+03 4.663625335693359375e+01 -4.572250843048095703e+00 -1.228372100740671158e-02 5.064269065856933594e+00 1.515595674514770508e+00 -1.389703750610351562e+00
1.722000000000000000e+03 4.232013320922851562e+01 1.500776648521423340e+00 2.435957193374633789e-01 6.643347263336181641e+00 2.066082954406738281e+00 -1.703309774398803711e+00
1.723000000000000000e+03 7.238764190673828125e+01 1.193809318542480469e+01 -4.211809039115905762e-01 9.357068061828613281e+00 2.680766105651855469e+00 3.910741209983825684e-01
1.724000000000000000e+03 7.381883239746093750e+01 5.787751197814941406e+00 4.113649129867553711e-01 9.432284355163574219e+00 2.953094720840454102e+00 8.092824220657348633e-01
1.725000000000000000e+03 7.243568420410156250e+01 3.369040250778198242e+00 6.865008473396301270e-01 1.101906394958496094e+01 3.511669397354125977e+00 7.462481856346130371e-01
1.726000000000000000e+03 4.644117355346679688e+01 -8.739361763000488281e+00 -7.489531636238098145e-01 5.264301300048828125e+00 1.354604363441467285e+00 -6.967111229896545410e-01
1.727000000000000000e+03 4.719686126708984375e+01 -1.155451869964599609e+01 -1.233579039573669434e+00 5.358848094940185547e+00 1.237580657005310059e+00 -1.759796440601348877e-01
1.728000000000000000e+03 7.479045104980468750e+01 1.221812820434570312e+01 -2.019952982664108276e-01 8.536284446716308594e+00 2.500286817550659180e+00 6.980925798416137695e-01
1.729000000000000000e+03 7.464305114746093750e+01 -5.020068287849426270e-01 5.634470582008361816e-01 8.126407623291015625e+00 2.606956481933593750e+00 -1.605354063212871552e-02
1.730000000000000000e+03 7.443209838867187500e+01 4.870482444763183594e+00 4.678916037082672119e-01 8.795943260192871094e+00 2.779150485992431641e+00 7.270560264587402344e-01
1.731000000000000000e+03 7.702732086181640625e+01 2.796761751174926758e+00 2.291516363620758057e-01 6.432934284210205078e+00 1.998625755310058594e+00 2.600914835929870605e-01
1.732000000000000000e+03 7.708693695068359375e+01 8.466410636901855469e+00 -2.184083685278892517e-02 7.141757011413574219e+00 2.135974884033203125e+00 7.141948938369750977e-01
1.733000000000000000e+03 7.492559814453125000e+01 9.629099845886230469e+00 -1.061856299638748169e-01 8.527196884155273438e+00 2.526303529739379883e+00 9.200310707092285156e-01
1.734000000000000000e+03 7.550086212158203125e+01 -7.932585239410400391e+00 2.410446107387542725e-02 6.799639225006103516e+00 2.047123193740844727e+00 -5.923788547515869141e-01
1.735000000000000000e+03 7.234763336181640625e+01 -4.594429016113281250e+00 2.814341783523559570e-01 8.394435882568359375e+00 2.602761030197143555e+00 2.950451672077178955e-01
1.736000000000000000e+03 7.600202941894531250e+01 1.102860355377197266e+01 -1.135077029466629028e-01 7.970143795013427734e+00 2.356990814208984375e+00 7.780631780624389648e-01
1.737000000000000000e+03 7.560984802246093750e+01 -5.348400115966796875e+00 1.035920307040214539e-01 6.999033927917480469e+00 2.130787849426269531e+00 -5.279722213745117188e-01
1.738000000000000000e+03 7.417610931396484375e+01 -3.756025552749633789e+00 2.644556760787963867e-01 7.844311237335205078e+00 2.432630062103271484e+00 -2.661487460136413574e-01
1.739000000000000000e+03 7.354603576660156250e+01 1.904974365234375000e+01 6.583917140960693359e-02 8.577829360961914062e+00 2.593100547790527344e+00 6.487799286842346191e-01
1.740000000000000000e+03 7.354805755615234375e+01 1.619909095764160156e+01 3.027719259262084961e-02 8.674518585205078125e+00 2.611438751220703125e+00 5.876685976982116699e-01
1.741000000000000000e+03 7.353569030761718750e+01 2.048010826110839844e+01 1.154875904321670532e-01 8.455530166625976562e+00 2.571305513381958008e+00 6.315113306045532227e-01
1.742000000000000000e+03 7.554001617431640625e+01 -1.510221672058105469e+01 -2.942759096622467041e-01 6.847023010253906250e+00 1.965824127197265625e+00 -5.303308367729187012e-01
1.743000000000000000e+03 7.010464477539062500e+01 -9.772983551025390625e+00 4.365943670272827148e-01 6.114803791046142578e+00 1.965419411659240723e+00 6.585242152214050293e-01
1.744000000000000000e+03 7.538042449951171875e+01 -1.230392932891845703e+01 -7.915984839200973511e-02 6.659790039062500000e+00 1.974189043045043945e+00 -6.395571827888488770e-01
1.745000000000000000e+03 7.760099792480468750e+01 -2.213414382934570312e+01 -1.480826586484909058e-01 7.329851150512695312e+00 2.154530525207519531e+00 7.220398187637329102e-01
1.746000000000000000e+03 7.506819152832031250e+01 -2.005551147460937500e+01 -8.355333209037780762e-01 7.389468193054199219e+00 1.966180562973022461e+00 2.454481124877929688e-01
1.747000000000000000e+03 7.674185180664062500e+01 -2.736366653442382812e+01 5.609956383705139160e-01 7.103375911712646484e+00 2.299311399459838867e+00 5.128338187932968140e-02
1.748000000000000000e+03 7.592575073242187500e+01 -2.798345565795898438e+01 7.160479426383972168e-01 7.322793960571289062e+00 2.411652565002441406e+00 -8.521576225757598877e-02
1.749000000000000000e+03 7.385346221923828125e+01 -2.229946899414062500e+01 -6.686100363731384277e-01 8.045111656188964844e+00 2.212950706481933594e+00 5.359334349632263184e-01
1.750000000000000000e+03 7.754914093017578125e+01 -2.309050750732421875e+01 4.898575600236654282e-03 7.221143245697021484e+00 2.167812585830688477e+00 7.402917742729187012e-01
1.751000000000000000e+03 7.662863159179687500e+01 -2.517961120605468750e+01 5.258359313011169434e-01 7.266440391540527344e+00 2.337682723999023438e+00 5.611228942871093750e-01
1.752000000000000000e+03 7.457734680175781250e+01 -2.323762321472167969e+01 -6.718460470438003540e-02 7.998499393463134766e+00 2.379394531250000000e+00 1.015205621719360352e+00
1.753000000000000000e+03 7.483534240722656250e+01 3.667773437500000000e+01 -2.863632738590240479e-01 8.212548255920410156e+00 2.377855539321899414e+00 5.220702290534973145e-02
1.754000000000000000e+03 7.102004241943359375e+01 3.454280471801757812e+01 -7.860778570175170898e-01 5.227261543273925781e+00 1.332355141639709473e+00 -8.347890526056289673e-02
1.755000000000000000e+03 7.466910552978515625e+01 2.203502655029296875e+01 1.512807756662368774e-01 8.401153564453125000e+00 2.565730333328247070e+00 7.123845815658569336e-01
1.756000000000000000e+03 7.344767761230468750e+01 2.336582565307617188e+01 2.139135599136352539e-01 8.155807495117187500e+00 2.510916471481323242e+00 6.554765105247497559e-01
1.757000000000000000e+03 7.452571868896484375e+01 2.498410224914550781e+01 1.502044647932052612e-01 8.243826866149902344e+00 2.518209218978881836e+00 8.145112395286560059e-01
1.758000000000000000e+03 7.689929199218750000e+01 2.655690002441406250e+01 5.877299699932336807e-04 9.180595397949218750e+00 2.754354953765869141e+00 7.647991776466369629e-01
1.759000000000000000e+03 6.694576263427734375e+01 -1.728253746032714844e+01 -2.271789684891700745e-02 2.071495532989501953e+00 6.146333217620849609e-01 6.493727564811706543e-01
1.760000000000000000e+03 7.175254058837890625e+01 -1.633946037292480469e+01 -4.750307500362396240e-01 5.241714477539062500e+00 1.430005192756652832e+00 -7.644498348236083984e-01
1.761000000000000000e+03 7.373271179199218750e+01 -3.318135452270507812e+01 -4.828396141529083252e-01 7.050807476043701172e+00 1.970390319824218750e+00 -5.648989230394363403e-02
1.762000000000000000e+03 7.556262969970703125e+01 -3.586492156982421875e+01 -4.135462939739227295e-01 7.004176139831542969e+00 1.977188944816589355e+00 -1.984314173460006714e-01
1.763000000000000000e+03 7.664013671875000000e+01 -3.551213836669921875e+01 -2.968276441097259521e-01 7.091317653656005859e+00 2.038347005844116211e+00 -3.663024008274078369e-01
1.764000000000000000e+03 7.684545135498046875e+01 2.941061210632324219e+01 -1.203749030828475952e-01 9.488073348999023438e+00 2.810309410095214844e+00 6.978094577789306641e-01
1.765000000000000000e+03 7.566035461425781250e+01 2.655505752563476562e+01 1.625511422753334045e-02 8.647553443908691406e+00 2.599142551422119141e+00 8.621316552162170410e-01
1.766000000000000000e+03 7.582509613037109375e+01 -3.178462219238281250e+01 3.446966037154197693e-02 7.259744167327880859e+00 2.188264131546020508e+00 -6.302446722984313965e-01
1.767000000000000000e+03 7.391271209716796875e+01 -3.112186813354492188e+01 2.705076336860656738e-01 7.722654819488525391e+00 2.397948741912841797e+00 -1.948486864566802979e-01
1.768000000000000000e+03 7.493213653564453125e+01 -3.053770256042480469e+01 3.564250767230987549e-01 7.561559200286865234e+00 2.375395298004150391e+00 -5.539735555648803711e-01
1.769000000000000000e+03 7.358043670654296875e+01 3.025350379943847656e+01 -4.588751494884490967e-01 7.518393516540527344e+00 2.117855548858642578e+00 6.408653259277343750e-01
1.770000000000000000e+03 7.564823150634765625e+01 4.745949506759643555e-01 4.435412287712097168e-01 7.395836830139160156e+00 2.351813316345214844e+00 1.171067636460065842e-02
1.771000000000000000e+03 6.599872589111328125e+01 -1.428936195373535156e+01 8.931295871734619141e-01 3.013736486434936523e+00 1.172059774398803711e+00 1.102600574493408203e+00
1.772000000000000000e+03 7.253147125244140625e+01 3.893633484840393066e-01 8.962754607200622559e-01 1.015614318847656250e+01 3.315725564956665039e+00 5.590176582336425781e-01
1.773000000000000000e+03 7.237345886230468750e+01 1.892520713806152344e+01 5.704619735479354858e-02 8.669681549072265625e+00 2.618018150329589844e+00 5.601172447204589844e-01
1.774000000000000000e+03 7.237176513671875000e+01 1.749984169006347656e+01 6.632310897111892700e-02 8.835718154907226562e+00 2.670612335205078125e+00 6.041992902755737305e-01
1.775000000000000000e+03 4.375600814819335938e+01 3.337170410156250000e+01 -7.358073592185974121e-01 3.975807189941406250e+00 9.719999432563781738e-01 4.254869222640991211e-01
1.776000000000000000e+03 4.616371917724609375e+01 -7.431052207946777344e+00 -5.577191114425659180e-01 5.211893081665039062e+00 1.396252155303955078e+00 -8.986792564392089844e-01
1.777000000000000000e+03 3.808793258666992188e+01 9.921676635742187500e+00 1.842033863067626953e+00 7.577881336212158203e+00 2.825974702835083008e+00 -6.687580347061157227e-01
1.778000000000000000e+03 3.854392290115356445e+00 -1.487718009948730469e+01 4.471131563186645508e-01 -1.016398549079895020e+00 -1.707856059074401855e-01 -5.848348140716552734e-01
1.779000000000000000e+03 4.530885219573974609e+00 2.190436172485351562e+01 7.309541106224060059e-02 -1.135632872581481934e+00 -3.187612295150756836e-01 5.774102732539176941e-02
1.780000000000000000e+03 5.430942058563232422e+00 -2.051288032531738281e+01 1.222404837608337402e+00 1.933934092521667480e+00 9.469016790390014648e-01 1.268380880355834961e+00
1.781000000000000000e+03 2.920413494110107422e+00 -2.014739036560058594e+01 5.272082686424255371e-01 -1.620514392852783203e+00 -3.279918432235717773e-01 6.790487170219421387e-01
1.782000000000000000e+03 2.694084644317626953e+00 -1.753365898132324219e+01 3.704204857349395752e-01 -2.280142784118652344e+00 -5.729166865348815918e-01 -1.613235799595713615e-03
1.783000000000000000e+03 5.065836429595947266e+00 -1.838132858276367188e+01 1.070673346519470215e+00 8.700881600379943848e-01 5.822284817695617676e-01 4.958504438400268555e-01
1.784000000000000000e+03 7.426913261413574219e+00 -2.770279121398925781e+01 -1.006742954254150391e+00 2.649467706680297852e+00 4.928174018859863281e-01 1.254335880279541016e+00
1.785000000000000000e+03 7.869985103607177734e+00 -1.750301170349121094e+01 1.949188947677612305e+00 4.351250648498535156e+00 1.890131950378417969e+00 1.502617835998535156e+00
1.786000000000000000e+03 5.079635143280029297e+00 -1.955067443847656250e+01 1.100116133689880371e+00 1.164959311485290527e+00 6.795226335525512695e-01 8.916484713554382324e-01
1.787000000000000000e+03 3.336369752883911133e+00 -2.533772087097167969e+01 1.110152676701545715e-01 2.024247050285339355e-01 9.403199702501296997e-02 1.805849909782409668e+00
1.788000000000000000e+03 6.044838905334472656e+00 -2.536264038085937500e+01 1.734702289104461670e-01 2.789444923400878906e+00 8.888745903968811035e-01 1.941977381706237793e+00
1.789000000000000000e+03 4.391204833984375000e+00 2.486888122558593750e+01 4.325790330767631531e-02 -1.160247802734375000e+00 -3.350969552993774414e-01 -1.113740541040897369e-02
1.790000000000000000e+03 4.331340789794921875e+00 2.846525764465332031e+01 1.337482035160064697e-02 -1.137573480606079102e+00 -3.372596204280853271e-01 -4.831129312515258789e-02
1.791000000000000000e+03 4.284909248352050781e+00 1.615061569213867188e+01 9.163643419742584229e-02 -1.061772704124450684e+00 -2.910408675670623779e-01 2.451166063547134399e-01
1.792000000000000000e+03 4.432741165161132812e+00 1.896178054809570312e+01 8.786541968584060669e-02 -1.117971539497375488e+00 -3.090318143367767334e-01 1.486019790172576904e-01
1.793000000000000000e+03 3.131527185440063477e+00 1.762244796752929688e+01 4.945008829236030579e-02 -1.264133691787719727e+00 -3.644050657749176025e-01 1.548053175210952759e-01
1.794000000000000000e+03 3.013649225234985352e+00 1.484503650665283203e+01 4.986543208360671997e-02 -1.147800326347351074e+00 -3.293804824352264404e-01 2.320907562971115112e-01
1.795000000000000000e+03 4.028320789337158203e+00 1.206784820556640625e+01 7.440935075283050537e-02 -8.925479650497436523e-01 -2.454416006803512573e-01 3.818674087524414062e-01
1.796000000000000000e+03 4.101130962371826172e+00 1.342222213745117188e+01 8.400349318981170654e-02 -9.632142782211303711e-01 -2.637632191181182861e-01 3.408776521682739258e-01
1.797000000000000000e+03 3.786514759063720703e+00 -9.484085083007812500e+00 -8.444049395620822906e-03 -7.913131713867187500e-01 -2.399271726608276367e-01 -1.160635232925415039e+00
1.798000000000000000e+03 3.860643863677978516e+00 -1.348778152465820312e+01 3.440769016742706299e-01 -1.010740756988525391e+00 -1.999991685152053833e-01 -8.432598710060119629e-01
1.799000000000000000e+03 4.317584991455078125e+00 2.611791038513183594e+01 2.873058058321475983e-02 -1.161641716957092285e+00 -3.398733437061309814e-01 -2.579785324633121490e-02
1.800000000000000000e+03 4.572617530822753906e+00 2.345580291748046875e+01 5.395802855491638184e-02 -1.136664867401123047e+00 -3.248120546340942383e-01 1.739475689828395844e-02
1.801000000000000000e+03 4.949694633483886719e+00 3.110445785522460938e+01 1.664439588785171509e-02 -9.975221753120422363e-01 -2.942633330821990967e-01 -7.078266143798828125e-02
1.802000000000000000e+03 6.070924282073974609e+00 3.559032440185546875e+01 -2.162770740687847137e-02 -7.509824633598327637e-01 -2.317830473184585571e-01 -6.372374296188354492e-02
1.803000000000000000e+03 3.801962137222290039e+00 3.535391998291015625e+01 1.168704871088266373e-02 -1.191318035125732422e+00 -3.538892865180969238e-01 -5.238613858819007874e-02
1.804000000000000000e+03 3.093262195587158203e+00 -3.052731132507324219e+01 -3.562642633914947510e-01 1.329834103584289551e+00 2.920709550380706787e-01 1.081189274787902832e+00
1.805000000000000000e+03 5.494527339935302734e+00 -2.958063888549804688e+01 -9.430248141288757324e-01 1.889298558235168457e+00 2.838821411132812500e-01 1.399424552917480469e+00
1.806000000000000000e+03 3.797104358673095703e+00 -1.077462863922119141e+01 8.361930400133132935e-02 -9.273481369018554688e-01 -2.531186342239379883e-01 -1.130460381507873535e+00
1.807000000000000000e+03 3.957036495208740234e+00 1.074306678771972656e+01 5.462587997317314148e-02 -8.116779327392578125e-01 -2.271156162023544312e-01 4.140058755874633789e-01
1.808000000000000000e+03 4.794344902038574219e+00 -5.309133529663085938e+00 -4.213921427726745605e-01 -1.040873751044273376e-01 -1.576438546180725098e-01 -9.238438010215759277e-01
1.809000000000000000e+03 5.153692245483398438e+00 3.482595825195312500e+01 2.130704524461179972e-04 -9.391569495201110840e-01 -2.816831767559051514e-01 -5.041738972067832947e-02
1.810000000000000000e+03 4.667482852935791016e+00 2.968445587158203125e+01 2.304392494261264801e-02 -1.061735033988952637e+00 -3.116073310375213623e-01 -6.339313834905624390e-02
1.811000000000000000e+03 3.855833768844604492e+00 -2.989343070983886719e+01 -5.093629360198974609e-01 1.393005609512329102e+00 2.650927901268005371e-01 1.325618624687194824e+00
1.812000000000000000e+03 3.900680780410766602e+00 8.146484375000000000e+00 7.744099711999297142e-04 -6.178306937217712402e-01 -1.851168721914291382e-01 4.477666318416595459e-01
1.813000000000000000e+03 5.264662170410156250e+01 -2.416226387023925781e+01 2.009270191192626953e+00 3.600233316421508789e+00 1.682851076126098633e+00 -9.247755408287048340e-01
1.814000000000000000e+03 4.650711441040039062e+01 -2.479476356506347656e+01 2.608771800994873047e+00 7.714783668518066406e+00 3.097066640853881836e+00 -2.477314233779907227e+00
1.815000000000000000e+03 1.296043205261230469e+01 -9.315331459045410156e+00 4.996060132980346680e-01 1.818396806716918945e+00 6.954008340835571289e-01 1.461949050426483154e-01
1.816000000000000000e+03 3.508330154418945312e+01 -1.313890743255615234e+01 2.355411797761917114e-01 2.256976366043090820e+00 7.477552890777587891e-01 -1.752735614776611328e+00
1.817000000000000000e+03 4.504575729370117188e+01 -2.785722160339355469e+01 1.542309403419494629e+00 8.960053443908691406e+00 3.150708675384521484e+00 -1.753687024116516113e+00
1.818000000000000000e+03 4.645314407348632812e+01 -2.777027320861816406e+01 1.787876963615417480e+00 7.679170608520507812e+00 2.840114116668701172e+00 -1.927654743194580078e+00
1.819000000000000000e+03 7.014949035644531250e+01 3.236708831787109375e+01 -1.012537360191345215e+00 4.564810276031494141e+00 1.065681815147399902e+00 6.498444825410842896e-02
1.820000000000000000e+03 4.072649383544921875e+01 3.610422849655151367e+00 4.780644774436950684e-01 7.333145141601562500e+00 2.343363046646118164e+00 -1.247516036033630371e+00
1.821000000000000000e+03 4.157519912719726562e+01 2.574782609939575195e+00 3.195782303810119629e-01 7.097144603729248047e+00 2.225016832351684570e+00 -1.590625166893005371e+00
1.822000000000000000e+03 3.774778366088867188e+01 -1.520605659484863281e+01 2.043088078498840332e-01 3.874246597290039062e+00 1.223566651344299316e+00 -2.739088535308837891e+00
1.823000000000000000e+03 3.784944152832031250e+01 -1.653122711181640625e+01 7.312650680541992188e-01 3.894351720809936523e+00 1.387685060501098633e+00 -3.307641029357910156e+00
1.824000000000000000e+03 7.350855255126953125e+01 2.191338157653808594e+01 1.455102413892745972e-01 8.352714538574218750e+00 2.549467563629150391e+00 6.359216570854187012e-01
1.825000000000000000e+03 5.452020645141601562e+01 -1.979367637634277344e+01 1.581453531980514526e-01 8.492929339408874512e-01 3.022314906120300293e-01 1.611846089363098145e-01
1.826000000000000000e+03 7.225897979736328125e+01 -1.145359039306640625e+01 1.012075319886207581e-01 6.141890525817871094e+00 1.872929453849792480e+00 -2.673185467720031738e-01
1.827000000000000000e+03 7.117414093017578125e+01 -4.183816909790039062e+00 4.473085701465606689e-01 8.902587890625000000e+00 2.804969072341918945e+00 9.152927398681640625e-01
1.828000000000000000e+03 7.173780822753906250e+01 -2.782739162445068359e+00 5.024967193603515625e-01 9.490408897399902344e+00 2.997871875762939453e+00 7.016515731811523438e-01
1.829000000000000000e+03 4.774225711822509766e+00 -1.624172782897949219e+01 7.513989210128784180e-01 1.263163331896066666e-02 2.292091697454452515e-01 -1.800316721200942993e-01
1.830000000000000000e+03 7.223690795898437500e+01 -7.536220073699951172e+00 1.786475926637649536e-01 7.231332778930664062e+00 2.222994089126586914e+00 9.319525212049484253e-02
1.831000000000000000e+03 7.097927093505859375e+01 -1.127335357666015625e+01 2.643799781799316406e-01 5.839377403259277344e+00 1.831127285957336426e+00 8.970490843057632446e-02
1.832000000000000000e+03 3.593021011352539062e+01 2.252928352355957031e+01 5.155149102210998535e-01 5.421303749084472656e+00 1.781045556068420410e+00 -4.828886091709136963e-01
1.833000000000000000e+03 4.567470169067382812e+01 -2.299207878112792969e+01 2.978094577789306641e+00 8.610385894775390625e+00 3.476544141769409180e+00 -2.616395950317382812e+00
1.834000000000000000e+03 4.401932525634765625e+01 -1.953100967407226562e+01 1.546057462692260742e+00 9.820274353027343750e+00 3.409899711608886719e+00 -1.707408666610717773e+00
1.835000000000000000e+03 4.781044387817382812e+01 -1.297527599334716797e+01 -1.467723131179809570e+00 5.301189422607421875e+00 1.150039911270141602e+00 6.892360746860504150e-02
1.836000000000000000e+03 3.935667800903320312e+01 1.724957466125488281e+01 9.619153738021850586e-01 8.219124794006347656e+00 2.754312038421630859e+00 1.057789847254753113e-01
1.837000000000000000e+03 3.768585586547851562e+01 1.250278091430664062e+01 1.770039916038513184e+00 7.393517017364501953e+00 2.749067068099975586e+00 -7.050688266754150391e-01
1.838000000000000000e+03 8.001929283142089844e+00 -2.663089752197265625e+01 -8.296827673912048340e-01 3.465541839599609375e+00 7.907577157020568848e-01 1.269916176795959473e+00
1.839000000000000000e+03 5.005559444427490234e+00 -2.549766731262207031e+01 1.423639208078384399e-01 1.978565692901611328e+00 6.362788677215576172e-01 2.127714395523071289e+00
1.840000000000000000e+03 7.114316558837890625e+01 -7.176471710205078125e+00 2.774604856967926025e-01 7.394817352294921875e+00 2.301683425903320312e+00 5.842070579528808594e-01
1.841000000000000000e+03 6.717008972167968750e+01 -3.645993041992187500e+01 1.073474511504173279e-01 1.436767458915710449e+00 4.632344543933868408e-01 7.246518135070800781e-01
1.842000000000000000e+03 6.965582275390625000e+01 -1.109724235534667969e+01 5.076673030853271484e-01 5.436192035675048828e+00 1.783157825469970703e+00 5.713067054748535156e-01
1.843000000000000000e+03 2.122731399536132812e+01 -1.316276454925537109e+01 1.697512269020080566e+00 -3.313036680221557617e+00 -4.846572875976562500e-01 4.504967689514160156e+00
1.844000000000000000e+03 3.894314956665039062e+01 2.089208221435546875e+01 7.054015398025512695e-01 6.750160694122314453e+00 2.236668586730957031e+00 1.588961780071258545e-01
1.845000000000000000e+03 3.780585098266601562e+01 1.794683074951171875e+01 1.052103519439697266e+00 6.995476722717285156e+00 2.414273977279663086e+00 -3.019016981124877930e-01
1.846000000000000000e+03 5.756959152221679688e+01 -2.290538597106933594e+01 1.652946472167968750e+00 1.535570383071899414e+00 9.565550684928894043e-01 1.472216963768005371e+00
1.847000000000000000e+03 5.467574310302734375e+01 -2.332719039916992188e+01 1.721173048019409180e+00 2.501964569091796875e+00 1.266941308975219727e+00 7.357183098793029785e-02
1.848000000000000000e+03 7.441579437255859375e+01 2.652539634704589844e+01 1.817860081791877747e-02 8.145436286926269531e+00 2.449084281921386719e+00 8.781295418739318848e-01
1.849000000000000000e+03 5.149647521972656250e+01 -1.757977485656738281e+01 -1.420437097549438477e+00 2.679779052734375000e+00 3.778026103973388672e-01 -4.007251858711242676e-01
1.850000000000000000e+03 5.303268814086914062e+01 -1.877670860290527344e+01 -6.832033395767211914e-01 1.167563557624816895e+00 1.453080475330352783e-01 -4.834719598293304443e-01
1.851000000000000000e+03 7.582679748535156250e+01 4.069000244140625000e+01 3.001394495368003845e-02 9.619832038879394531e+00 2.894953966140747070e+00 3.452224731445312500e-01
1.852000000000000000e+03 7.519698333740234375e+01 3.871746063232421875e+01 -1.857144683599472046e-01 8.658117294311523438e+00 2.541720628738403320e+00 1.172232851386070251e-01
1.853000000000000000e+03 5.017169952392578125e+01 -2.863660049438476562e+01 1.984313964843750000e+00 5.773006916046142578e+00 2.327196359634399414e+00 -1.948501706123352051e+00
1.854000000000000000e+03 4.184582138061523438e+01 -1.565121555328369141e+01 -5.930188298225402832e-01 7.746869087219238281e+00 2.146155118942260742e+00 -2.204761028289794922e+00
1.855000000000000000e+03 4.046532821655273438e+01 2.502839469909667969e+01 2.908657491207122803e-01 5.873124599456787109e+00 1.849197149276733398e+00 4.484619498252868652e-01
1.856000000000000000e+03 5.858273983001708984e+00 -2.237759780883789062e+01 1.119579076766967773e+00 2.843116044998168945e+00 1.188808560371398926e+00 1.787497162818908691e+00
1.857000000000000000e+03 6.325550556182861328e+00 -2.119719123840332031e+01 1.406414866447448730e+00 3.324284553527832031e+00 1.419209837913513184e+00 1.549042820930480957e+00
1.858000000000000000e+03 5.883304595947265625e+01 -2.227420234680175781e+01 1.198601365089416504e+00 1.461672067642211914e+00 7.980820536613464355e-01 1.735344648361206055e+00
1.859000000000000000e+03 5.697203826904296875e+01 -2.059837532043457031e+01 3.606055676937103271e-01 5.478783249855041504e-01 2.725451886653900146e-01 1.468079566955566406e+00
1.860000000000000000e+03 6.214089202880859375e+01 -1.699956130981445312e+01 -5.227134823799133301e-01 1.982285499572753906e+00 4.378716051578521729e-01 1.734307289123535156e+00
1.861000000000000000e+03 3.644294738769531250e+01 1.523386955261230469e+01 1.440740346908569336e+00 6.561520099639892578e+00 2.400678157806396484e+00 -5.899540781974792480e-01
1.862000000000000000e+03 7.319584655761718750e+01 2.641095924377441406e+01 1.090199425816535950e-01 7.690898418426513672e+00 2.339975595474243164e+00 7.608448863029479980e-01
1.863000000000000000e+03 7.297506713867187500e+01 2.805713844299316406e+01 -1.761905252933502197e-01 7.391036510467529297e+00 2.164453744888305664e+00 7.633535861968994141e-01
1.864000000000000000e+03 1.187528228759765625e+01 -3.873929595947265625e+01 -4.119375944137573242e-01 1.919809877872467041e-01 -6.598697602748870850e-02 1.027494296431541443e-01
1.865000000000000000e+03 1.683139038085937500e+01 -3.593782043457031250e+01 -8.689214587211608887e-01 -3.296128213405609131e-01 -3.595602810382843018e-01 3.331088125705718994e-01
1.866000000000000000e+03 8.874955177307128906e+00 -2.913725280761718750e+01 -1.483087182044982910e+00 1.940715432167053223e+00 1.372884958982467651e-01 5.693727731704711914e-01
1.867000000000000000e+03 1.163694858551025391e+01 -3.364141082763671875e+01 -1.029867053031921387e+00 3.076356649398803711e-01 -2.166694402694702148e-01 2.052027285099029541e-01
1.868000000000000000e+03 1.288246917724609375e+01 -3.516209030151367188e+01 -7.855868339538574219e-01 -2.658412232995033264e-02 -2.436512857675552368e-01 2.147285789251327515e-01
1.869000000000000000e+03 3.795082855224609375e+01 1.128940105438232422e+01 1.854432463645935059e+00 7.616417884826660156e+00 2.841254949569702148e+00 -6.685410141944885254e-01
1.870000000000000000e+03 3.505350112915039062e+01 -3.651861572265625000e+01 -9.541410803794860840e-01 3.159539997577667236e-01 -1.914561390876770020e-01 8.869265019893646240e-02
1.871000000000000000e+03 3.624793624877929688e+01 1.867188072204589844e+01 1.036763787269592285e+00 6.090102195739746094e+00 2.138059854507446289e+00 -4.921669363975524902e-01
1.872000000000000000e+03 6.915310668945312500e+01 -1.380016517639160156e+01 3.970188200473785400e-01 4.392257690429687500e+00 1.436782956123352051e+00 1.926991045475006104e-01
1.873000000000000000e+03 7.149738311767578125e+01 3.285726928710937500e+01 -7.874614000320434570e-01 5.774449348449707031e+00 1.496096372604370117e+00 1.510146856307983398e-01
1.874000000000000000e+03 4.697422027587890625e+01 -2.350954055786132812e+01 2.604897975921630859e+00 7.183507919311523438e+00 2.936521768569946289e+00 -2.181287288665771484e+00
1.875000000000000000e+03 7.428942871093750000e+01 -2.765449333190917969e+01 1.257569909095764160e+00 8.109185218811035156e+00 2.810026407241821289e+00 2.096030414104461670e-01
1.876000000000000000e+03 6.417452239990234375e+01 -1.695316696166992188e+01 -1.100541055202484131e-01 2.124929428100585938e+00 6.044626235961914062e-01 1.564038515090942383e+00
1.877000000000000000e+03 7.268186950683593750e+01 -3.388402557373046875e+01 -4.424344301223754883e-01 6.184340000152587891e+00 1.722571730613708496e+00 3.139927685260772705e-01
1.878000000000000000e+03 7.467522430419921875e+01 -3.459463500976562500e+01 -4.124528467655181885e-01 6.703191757202148438e+00 1.887221574783325195e+00 -3.115275502204895020e-01
1.879000000000000000e+03 7.390609741210937500e+00 -1.875969314575195312e+01 1.694311022758483887e+00 4.501578807830810547e+00 1.858766913414001465e+00 1.537721991539001465e+00
1.880000000000000000e+03 5.329496383666992188e+01 -2.290274238586425781e+01 1.666379094123840332e+00 2.676977872848510742e+00 1.303007125854492188e+00 -4.553322792053222656e-01
1.881000000000000000e+03 5.001658248901367188e+01 3.716577911376953125e+01 -7.573072314262390137e-01 1.810791730880737305e+00 3.160453736782073975e-01 3.485408127307891846e-01
1.882000000000000000e+03 5.936542892456054688e+01 -1.898728752136230469e+01 -8.840065598487854004e-01 1.196314930915832520e+00 9.369252622127532959e-02 2.209905147552490234e+00
1.883000000000000000e+03 7.073650360107421875e+01 -3.686976623535156250e+01 -2.865234315395355225e-01 4.272016048431396484e+00 1.195647835731506348e+00 7.195650339126586914e-01
1.884000000000000000e+03 7.356130981445312500e+01 -3.547009658813476562e+01 -5.618059635162353516e-01 6.227603435516357422e+00 1.699739217758178711e+00 6.201961636543273926e-02
1.885000000000000000e+03 7.130516052246093750e+01 2.929951095581054688e+01 -4.701945781707763672e-01 6.156531333923339844e+00 1.705901026725769043e+00 4.576666057109832764e-01
1.886000000000000000e+03 7.430712890625000000e+01 2.812454986572265625e+01 -1.171629130840301514e-01 8.029592514038085938e+00 2.373728990554809570e+00 8.395903110504150391e-01
1.887000000000000000e+03 6.823546600341796875e+01 4.111678314208984375e+01 2.340221703052520752e-01 2.355827331542968750e+00 7.769548296928405762e-01 -3.758125752210617065e-02
1.888000000000000000e+03 1.533302783966064453e+01 -3.420904159545898438e+01 -1.105122923851013184e+00 -3.436094224452972412e-01 -4.346196949481964111e-01 3.868059217929840088e-01
1.889000000000000000e+03 4.332955360412597656e+00 -2.867025375366210938e+01 -5.639708042144775391e-01 1.464863419532775879e+00 2.702677845954895020e-01 1.641226530075073242e+00
1.890000000000000000e+03 5.024785995483398438e+01 -1.782216453552246094e+01 -8.612164855003356934e-01 3.962847948074340820e+00 9.304894208908081055e-01 -5.542398691177368164e-01
1.891000000000000000e+03 6.715388774871826172e+00 -3.028467941284179688e+01 -1.107316970825195312e+00 1.829870343208312988e+00 2.167659848928451538e-01 1.023853063583374023e+00
1.892000000000000000e+03 5.679643630981445312e+00 -1.661897277832031250e+01 1.103592038154602051e+00 1.295319795608520508e+00 7.196735739707946777e-01 1.311698704957962036e-01
1.893000000000000000e+03 3.776812076568603516e+00 -1.742054367065429688e+01 6.635964512825012207e-01 -9.103005528450012207e-01 -7.401122152805328369e-02 2.120254002511501312e-02
1.894000000000000000e+03 5.314864635467529297e+00 -2.343852806091308594e+01 7.031565904617309570e-01 2.143540143966674805e+00 8.540090322494506836e-01 1.921913623809814453e+00
1.895000000000000000e+03 8.072358131408691406e+00 -3.229043197631835938e+01 -1.071491360664367676e+00 1.332448601722717285e+00 7.828716933727264404e-02 4.844368100166320801e-01
1.896000000000000000e+03 1.015343093872070312e+01 -3.413968276977539062e+01 -9.034442901611328125e-01 5.780699253082275391e-01 -9.761229902505874634e-02 2.051239460706710815e-01
1.897000000000000000e+03 6.387028121948242188e+01 -2.020577621459960938e+01 -8.796600103378295898e-01 1.408827066421508789e+00 1.587501317262649536e-01 1.703598976135253906e+00
1.898000000000000000e+03 6.294993591308593750e+01 -1.792667007446289062e+01 -6.652163267135620117e-01 1.920251250267028809e+00 3.765105009078979492e-01 1.959995388984680176e+00
1.899000000000000000e+03 5.239604949951171875e+01 4.107308959960937500e+01 -6.632993221282958984e-01 1.126077413558959961e+00 1.388334333896636963e-01 1.077670231461524963e-01
1.900000000000000000e+03 4.741831207275390625e+01 -2.230096244812011719e+01 2.434140920639038086e+00 6.728481769561767578e+00 2.748786687850952148e+00 -1.994373798370361328e+00
1.901000000000000000e+03 5.384261703491210938e+01 -2.792178153991699219e+01 1.628738999366760254e+00 5.842375755310058594e+00 2.241334438323974609e+00 -9.156449437141418457e-01
1.902000000000000000e+03 4.852415084838867188e+01 -1.428467845916748047e+01 -1.669446706771850586e+00 5.097529411315917969e+00 1.028424859046936035e+00 1.143760830163955688e-01
1.903000000000000000e+03 3.771326065063476562e+01 -3.860728073120117188e+01 -8.820676207542419434e-01 1.638914346694946289e+00 2.270540148019790649e-01 5.298978090286254883e-01
1.904000000000000000e+03 4.031706619262695312e+01 -3.731214523315429688e+01 -1.317841529846191406e+00 3.105580568313598633e+00 5.363216996192932129e-01 6.537168622016906738e-01
1.905000000000000000e+03 6.171372985839843750e+01 -4.098697280883789062e+01 8.382971286773681641e-01 1.332212090492248535e+00 6.511527895927429199e-01 -1.912068724632263184e-01
1.906000000000000000e+03 5.985158920288085938e+01 -2.031051063537597656e+01 -2.467922270298004150e-01 1.468747973442077637e+00 3.665867447853088379e-01 2.143241882324218750e+00
1.907000000000000000e+03 3.837567901611328125e+01 1.942132568359375000e+01 8.409614562988281250e-01 7.012825965881347656e+00 2.356136322021484375e+00 -5.185754597187042236e-02
1.908000000000000000e+03 4.494536209106445312e+01 3.195648384094238281e+01 -4.861672222614288330e-01 3.937145233154296875e+00 1.035293340682983398e+00 7.082424163818359375e-01
1.909000000000000000e+03 4.736189651489257812e+01 -1.844866752624511719e+01 3.126999139785766602e-01 6.489932060241699219e+00 2.040789604187011719e+00 -8.113825917243957520e-01
1.910000000000000000e+03 7.245342254638671875e+01 1.058487224578857422e+01 -4.508301913738250732e-01 9.748522758483886719e+00 2.789307832717895508e+00 5.929322242736816406e-01
1.911000000000000000e+03 2.448397827148437500e+01 -8.066744804382324219e+00 -8.226550221443176270e-01 2.659557104110717773e+00 5.510706305503845215e-01 1.530019640922546387e+00
1.912000000000000000e+03 2.484541130065917969e+01 -1.005473327636718750e+01 2.061497926712036133e+00 4.065574645996093750e+00 1.838121771812438965e+00 4.064657688140869141e+00
1.913000000000000000e+03 2.456838417053222656e+01 -8.909308433532714844e+00 -3.198167681694030762e-01 3.406746149063110352e+00 9.260788559913635254e-01 2.205862998962402344e+00
1.914000000000000000e+03 2.404077911376953125e+01 -6.805114746093750000e+00 -1.128417372703552246e+00 1.786179780960083008e+00 1.973287314176559448e-01 9.684800505638122559e-01
1.915000000000000000e+03 2.578643989562988281e+01 -1.008093357086181641e+01 2.989205598831176758e+00 1.932812690734863281e+00 1.476605534553527832e+00 3.202042579650878906e+00
1.916000000000000000e+03 2.019145011901855469e+01 -1.112075328826904297e+01 4.168138980865478516e+00 -2.791435956954956055e+00 4.130109846591949463e-01 1.788050889968872070e+00
1.917000000000000000e+03 2.063965606689453125e+01 -1.176674365997314453e+01 5.810702323913574219e+00 -4.056984901428222656e+00 5.261152386665344238e-01 2.654641151428222656e+00
1.918000000000000000e+03 1.349650859832763672e+01 -6.896116256713867188e+00 -9.941002726554870605e-01 1.075437903404235840e+00 2.440131269395351410e-02 2.487666904926300049e-01
1.919000000000000000e+03 1.290451431274414062e+01 -5.587675571441650391e+00 -1.463009953498840332e+00 8.445654511451721191e-01 -1.855333447456359863e-01 2.240112870931625366e-01
1.920000000000000000e+03 1.449600124359130859e+01 -8.813725471496582031e+00 1.570058017969131470e-01 1.397430777549743652e+00 4.663309454917907715e-01 4.887620806694030762e-01
1.921000000000000000e+03 1.165266132354736328e+01 -5.544908523559570312e+00 -1.291623115539550781e+00 9.328764081001281738e-01 -1.076240092515945435e-01 -8.965861797332763672e-02
1.922000000000000000e+03 1.292411422729492188e+01 -6.532731056213378906e+00 -1.128624677658081055e+00 1.090467095375061035e+00 -1.144725736230611801e-02 1.224082186818122864e-01
1.923000000000000000e+03 2.399247360229492188e+01 -5.967150688171386719e+00 -1.157990217208862305e+00 1.567693352699279785e+00 1.229109466075897217e-01 8.367794156074523926e-01
1.924000000000000000e+03 2.397998619079589844e+01 -5.083360195159912109e+00 -1.139844179153442383e+00 1.459396719932556152e+00 9.586573392152786255e-02 7.203172445297241211e-01
1.925000000000000000e+03 2.363550758361816406e+01 -4.598984241485595703e+00 -1.162731885910034180e+00 1.219853758811950684e+00 1.713656447827816010e-02 6.384615898132324219e-01
1.926000000000000000e+03 1.444139385223388672e+01 -7.398998737335205078e+00 -8.019936084747314453e-01 9.911745786666870117e-01 5.675429105758666992e-02 4.896434545516967773e-01
1.927000000000000000e+03 1.514424800872802734e+01 -8.422781944274902344e+00 -1.121017709374427795e-01 1.063783526420593262e+00 2.855045199394226074e-01 6.543607115745544434e-01
1.928000000000000000e+03 1.619651603698730469e+01 -8.460952758789062500e+00 -1.422804594039916992e-01 6.191000938415527344e-01 1.430459022521972656e-01 9.444902539253234863e-01
1.929000000000000000e+03 1.475684928894042969e+01 -7.869699954986572266e+00 -5.662947893142700195e-01 1.066834211349487305e+00 1.501618176698684692e-01 5.508961677551269531e-01
1.930000000000000000e+03 1.214825153350830078e+01 -5.727800846099853516e+00 -1.336866259574890137e+00 9.138962626457214355e-01 -1.268909871578216553e-01 -1.102256705053150654e-03
1.931000000000000000e+03 9.997027397155761719e+00 -4.504786014556884766e+00 -1.271948933601379395e+00 7.271924018859863281e-01 -1.634269505739212036e-01 -3.118873238563537598e-01
1.932000000000000000e+03 1.263277721405029297e+01 -7.697268486022949219e+00 -5.680245161056518555e-01 1.412482857704162598e+00 2.533374726772308350e-01 -6.405273918062448502e-03
1.933000000000000000e+03 1.405534458160400391e+01 -7.095746517181396484e+00 -9.896484613418579102e-01 1.039714694023132324e+00 1.501986850053071976e-02 3.838107883930206299e-01
1.934000000000000000e+03 5.868927001953125000e+00 5.564555644989013672e+00 -1.568898707628250122e-01 -4.382792115211486816e-01 -1.785507202148437500e-01 5.835715532302856445e-01
1.935000000000000000e+03 2.431409072875976562e+01 -5.511236667633056641e+00 -1.122708559036254883e+00 1.704415917396545410e+00 1.745122224092483521e-01 8.095957636833190918e-01
1.936000000000000000e+03 4.005633354187011719e+00 4.134681701660156250e+00 -1.529845893383026123e-01 -2.608207464218139648e-01 -1.241415962576866150e-01 3.451143205165863037e-01
1.937000000000000000e+03 5.347431182861328125e+00 6.258589744567871094e+00 -9.124575555324554443e-02 -4.870305657386779785e-01 -1.734828948974609375e-01 5.589753389358520508e-01
1.938000000000000000e+03 7.705035686492919922e+00 5.646206855773925781e+00 -1.539647281169891357e-01 -5.348030924797058105e-01 -2.066303342580795288e-01 7.286831140518188477e-01
1.939000000000000000e+03 6.263518810272216797e+00 4.920401573181152344e+00 -2.306853681802749634e-01 -3.970037698745727539e-01 -1.883067488670349121e-01 6.125555038452148438e-01
1.940000000000000000e+03 8.170450210571289062e+00 4.875018596649169922e+00 -2.609496116638183594e-01 -5.156912803649902344e-01 -2.329922765493392944e-01 7.456086874008178711e-01
1.941000000000000000e+03 7.051165103912353516e+00 4.024699687957763672e+00 -3.488380014896392822e-01 -3.630374073982238770e-01 -2.135626226663589478e-01 6.408456563949584961e-01
1.942000000000000000e+03 9.263405799865722656e+00 -4.405786991119384766e+00 -1.177242636680603027e+00 6.589852571487426758e-01 -1.554772257804870605e-01 -4.253778159618377686e-01
1.943000000000000000e+03 9.655364990234375000e+00 -6.690679550170898438e+00 -7.853441238403320312e-01 1.135731220245361328e+00 1.051161289215087891e-01 -6.495231389999389648e-01
1.944000000000000000e+03 1.595120143890380859e+01 3.343819856643676758e+00 -2.914320230484008789e-01 -6.626824140548706055e-01 -2.862343192100524902e-01 6.328853368759155273e-01
1.945000000000000000e+03 1.646142768859863281e+01 1.280663251876831055e+00 -8.156352639198303223e-01 -7.964546680450439453e-01 -4.836269617080688477e-01 7.778970599174499512e-01
1.946000000000000000e+03 7.464460849761962891e+00 -5.351976394653320312e+00 -7.753692865371704102e-01 5.181779861450195312e-01 -7.715739309787750244e-02 -8.317585587501525879e-01
1.947000000000000000e+03 5.168654918670654297e+00 -4.180784702301025391e+00 -5.349829792976379395e-01 -2.946853870525956154e-03 -1.613789498805999756e-01 -7.861183881759643555e-01
1.948000000000000000e+03 2.655163002014160156e+01 -1.098435211181640625e+01 4.060911178588867188e+00 3.200776875019073486e-01 1.314296722412109375e+00 1.781332135200500488e+00
1.949000000000000000e+03 2.940801429748535156e+01 -1.369974136352539062e+01 -1.025361418724060059e-01 3.484460711479187012e-01 7.377298176288604736e-02 -6.760110259056091309e-01
1.950000000000000000e+03 6.562083244323730469e+00 -4.121781349182128906e+00 -7.512089610099792480e-01 2.440014779567718506e-01 -1.521622538566589355e-01 -7.323749065399169922e-01
1.951000000000000000e+03 6.186830520629882812e+00 -5.346895694732666016e+00 -6.010422706604003906e-01 2.406305521726608276e-01 -1.081235185265541077e-01 -9.368357062339782715e-01
1.952000000000000000e+03 5.539882659912109375e+00 -4.781563758850097656e+00 -5.604006648063659668e-01 9.254967421293258667e-02 -1.403552889823913574e-01 -8.538969755172729492e-01
1.953000000000000000e+03 8.126690864562988281e+00 -4.821235656738281250e+00 -9.318800568580627441e-01 5.927090048789978027e-01 -1.017513275146484375e-01 -6.673670411109924316e-01
1.954000000000000000e+03 2.134456062316894531e+01 -1.747263193130493164e+00 -1.000530481338500977e+00 1.520594805479049683e-01 -2.545413076877593994e-01 5.079966187477111816e-01
1.955000000000000000e+03 2.592890739440917969e+01 -1.260059547424316406e+01 3.328747987747192383e+00 8.302010595798492432e-02 1.023530483245849609e+00 -1.062579274177551270e+00
1.956000000000000000e+03 2.285216140747070312e+01 -3.514597892761230469e+00 -1.130726218223571777e+00 7.606477737426757812e-01 -1.110235378146171570e-01 5.413731932640075684e-01
1.957000000000000000e+03 1.365653705596923828e+01 3.039359331130981445e+00 -5.299807190895080566e-01 -8.225175738334655762e-01 -4.057494699954986572e-01 8.039656877517700195e-01
1.958000000000000000e+03 9.881136894226074219e+00 -5.219204902648925781e+00 -1.156937360763549805e+00 8.430188298225402832e-01 -9.417556226253509521e-02 -4.248163104057312012e-01
1.959000000000000000e+03 1.952791023254394531e+01 -3.942324593663215637e-02 -8.213532567024230957e-01 -3.261044919490814209e-01 -3.442373275756835938e-01 5.538937449455261230e-01
1.960000000000000000e+03 2.618414878845214844e+01 -1.033072185516357422e+01 3.401583194732666016e+00 1.232681393623352051e+00 1.390279412269592285e+00 2.667599678039550781e+00
1.961000000000000000e+03 1.821962738037109375e+01 9.645340442657470703e-01 -7.071846723556518555e-01 -5.443686842918395996e-01 -3.754659891128540039e-01 6.082255244255065918e-01
1.962000000000000000e+03 2.015777397155761719e+01 -5.865223407745361328e-01 -8.811324238777160645e-01 -1.819291114807128906e-01 -3.189184665679931641e-01 5.329393148422241211e-01
1.963000000000000000e+03 1.436913776397705078e+01 2.590478897094726562e+00 -6.200590729713439941e-01 -8.307799696922302246e-01 -4.352517127990722656e-01 8.043876290321350098e-01
1.964000000000000000e+03 1.340160083770751953e+01 4.182053089141845703e+00 -2.597339153289794922e-01 -7.713291049003601074e-01 -3.093189001083374023e-01 7.603895664215087891e-01
1.965000000000000000e+03 1.789966964721679688e+01 -9.695541381835937500e+00 1.237697243690490723e+00 -2.764391303062438965e-01 2.883774340152740479e-01 1.322738885879516602e+00
1.966000000000000000e+03 1.733660316467285156e+01 -1.082351875305175781e+01 2.641807794570922852e+00 5.043603777885437012e-01 9.438504576683044434e-01 1.287576198577880859e+00
1.967000000000000000e+03 1.412272453308105469e+01 3.678316116333007812e+00 -3.322227001190185547e-01 -7.790074944496154785e-01 -3.333690464496612549e-01 7.451413273811340332e-01
1.968000000000000000e+03 3.306869125366210938e+01 -1.323697471618652344e+01 3.098896443843841553e-01 1.292318940162658691e+00 4.806625843048095703e-01 -1.155714631080627441e+00
1.969000000000000000e+03 3.401300048828125000e+01 -1.431788444519042969e+01 2.338897883892059326e-01 1.315813422203063965e+00 4.649109542369842529e-01 -1.415625452995300293e+00
1.970000000000000000e+03 1.025195693969726562e+01 5.326541423797607422e+00 -1.596874445676803589e-01 -6.672497987747192383e-01 -2.480811774730682373e-01 8.074887394905090332e-01
1.971000000000000000e+03 1.550472164154052734e+01 2.751163005828857422e+00 -4.784646630287170410e-01 -7.582864165306091309e-01 -3.710253238677978516e-01 7.135860919952392578e-01
1.972000000000000000e+03 1.481798267364501953e+01 3.205744743347167969e+00 -4.067242443561553955e-01 -7.741616964340209961e-01 -3.542657792568206787e-01 7.286346554756164551e-01
1.973000000000000000e+03 2.076569938659667969e+01 -1.159778952598571777e+00 -9.432258605957031250e-01 -3.042499907314777374e-02 -2.920952439308166504e-01 5.148198604583740234e-01
1.974000000000000000e+03 7.483855438232421875e+01 1.090666675567626953e+01 -2.078284919261932373e-01 8.613126754760742188e+00 2.521589517593383789e+00 8.202462792396545410e-01
1.975000000000000000e+03 3.200996398925781250e+01 -1.302474975585937500e+01 3.237476944923400879e-01 9.881411790847778320e-01 3.935666680335998535e-01 -9.043126702308654785e-01
1.976000000000000000e+03 1.822007179260253906e+01 -9.202406883239746094e+00 5.586115121841430664e-01 -6.414215564727783203e-01 -2.484302408993244171e-02 1.406816840171813965e+00
1.977000000000000000e+03 1.634266853332519531e+01 -1.081931686401367188e+01 2.632535219192504883e+00 1.113085985183715820e+00 1.123686313629150391e+00 1.056233406066894531e+00
1.978000000000000000e+03 4.478187942504882812e+01 -2.128597640991210938e+01 3.424027442932128906e+00 9.705888748168945312e+00 3.938974857330322266e+00 -2.104510545730590820e+00
1.979000000000000000e+03 7.618624877929687500e+01 -2.330403327941894531e+01 3.037810511887073517e-02 7.545106887817382812e+00 2.272645473480224609e+00 9.220843911170959473e-01
1.980000000000000000e+03 3.901968765258789062e+01 -1.501221847534179688e+01 -9.620303660631179810e-02 5.350301742553710938e+00 1.576229691505432129e+00 -2.943102598190307617e+00
1.981000000000000000e+03 4.132742404937744141e+00 -2.632880401611328125e+01 -1.192923411726951599e-01 1.184695243835449219e+00 3.196208775043487549e-01 2.017359018325805664e+00
1.982000000000000000e+03 3.060273170471191406e+01 -1.393495559692382812e+01 -1.943583786487579346e-01 5.300486087799072266e-01 1.007070690393447876e-01 -6.511217355728149414e-01
1.983000000000000000e+03 4.415527725219726562e+01 -1.782499551773071289e+00 -8.242093957960605621e-03 5.758107185363769531e+00 1.724959492683410645e+00 -1.654730319976806641e+00
1.984000000000000000e+03 4.224790191650390625e+01 -4.382968902587890625e+00 -4.924679398536682129e-01 5.668515682220458984e+00 1.552814364433288574e+00 -1.241715908050537109e+00
1.985000000000000000e+03 8.907744407653808594e+00 5.301735401153564453e+00 -1.984669119119644165e-01 -5.840903520584106445e-01 -2.347671836614608765e-01 7.855409979820251465e-01
1.986000000000000000e+03 3.892910766601562500e+01 3.378873586654663086e+00 4.469445049762725830e-01 6.704777240753173828e+00 2.145516633987426758e+00 -7.526341080665588379e-01
1.987000000000000000e+03 3.810221862792968750e+01 8.495449066162109375e+00 1.630596995353698730e+00 7.304959774017333984e+00 2.680666923522949219e+00 -5.520693063735961914e-01
1.988000000000000000e+03 5.534604644775390625e+01 -1.902033233642578125e+01 -4.807948172092437744e-01 -1.194088682532310486e-01 -1.800611019134521484e-01 6.584340333938598633e-01
1.989000000000000000e+03 5.407053756713867188e+01 -2.242349815368652344e+01 1.533280849456787109e+00 2.354254245758056641e+00 1.166260480880737305e+00 -2.098655402660369873e-01
1.990000000000000000e+03 1.763357162475585938e+01 -1.024018478393554688e+01 1.895150780677795410e+00 9.840738028287887573e-02 5.980674624443054199e-01 1.356938362121582031e+00
1.991000000000000000e+03 1.322707939147949219e+01 -1.015560245513916016e+01 1.161621093750000000e+00 1.956517577171325684e+00 9.354416131973266602e-01 3.025812208652496338e-01
1.992000000000000000e+03 2.888094425201416016e+00 6.585983276367187500e+00 -4.145398736000061035e-02 -4.649906456470489502e-01 -1.519333869218826294e-01 3.477036356925964355e-01
1.993000000000000000e+03 4.374423599243164062e+01 -3.450621366500854492e+00 -2.754517197608947754e-01 5.644044876098632812e+00 1.610578060150146484e+00 -1.413585543632507324e+00
1.994000000000000000e+03 3.649988937377929688e+01 1.120635414123535156e+01 1.806480050086975098e+00 6.501235008239746094e+00 2.492314338684082031e+00 -6.160700321197509766e-01
1.995000000000000000e+03 4.204365921020507812e+01 -3.135158300399780273e+00 -3.670987486839294434e-01 5.789651393890380859e+00 1.626765727996826172e+00 -1.285677790641784668e+00
1.996000000000000000e+03 4.470059585571289062e+01 -6.510175228118896484e+00 -6.000362634658813477e-01 5.461671829223632812e+00 1.458490610122680664e+00 -1.103337287902832031e+00
1.997000000000000000e+03 4.586994171142578125e+01 -6.187668800354003906e+00 -3.716419041156768799e-01 5.242665290832519531e+00 1.461307048797607422e+00 -1.129900932312011719e+00
1.998000000000000000e+03 4.063414382934570312e+01 1.668180346488952637e+00 1.466881483793258667e-01 6.670046329498291016e+00 2.045020341873168945e+00 -1.180106997489929199e+00
1.999000000000000000e+03 4.358446121215820312e+01 -6.942057609558105469e-01 7.115967571735382080e-02 5.984075546264648438e+00 1.816570639610290527e+00 -1.731092572212219238e+00
2.000000000000000000e+03 7.354790496826171875e+01 1.761978721618652344e+01 9.118714928627014160e-02 8.582818984985351562e+00 2.602201938629150391e+00 6.494113206863403320e-01
2.001000000000000000e+03 1.040679740905761719e+01 -1.274762630462646484e+01 2.157033681869506836e+00 2.808369636535644531e+00 1.489621043205261230e+00 5.296199917793273926e-01
2.002000000000000000e+03 5.767983436584472656e+00 -1.321002388000488281e+01 7.133256793022155762e-01 6.396900415420532227e-01 4.059047102928161621e-01 -7.795151472091674805e-01
2.003000000000000000e+03 6.103158473968505859e+00 -3.412982559204101562e+01 -6.441121101379394531e-01 1.431058168411254883e+00 2.360838055610656738e-01 5.348348021507263184e-01
2.004000000000000000e+03 6.931164550781250000e+01 -1.245338344573974609e+01 5.018526911735534668e-01 4.867603302001953125e+00 1.610836863517761230e+00 3.971964120864868164e-01
2.005000000000000000e+03 6.634367370605468750e+01 -1.551200199127197266e+01 4.560380578041076660e-01 2.716510295867919922e+00 9.517645239830017090e-01 8.672791719436645508e-01
2.006000000000000000e+03 6.137043762207031250e+01 -2.117040252685546875e+01 4.629259556531906128e-02 1.580169558525085449e+00 4.879386425018310547e-01 2.040629148483276367e+00
2.007000000000000000e+03 7.559631347656250000e+01 3.076259994506835938e+01 -2.793880701065063477e-01 8.817700386047363281e+00 2.561493873596191406e+00 6.750854253768920898e-01
2.008000000000000000e+03 4.135375213623046875e+01 6.951292753219604492e-01 2.620280720293521881e-02 6.506001949310302734e+00 1.959661364555358887e+00 -1.384081482887268066e+00
2.009000000000000000e+03 7.583926391601562500e+01 2.213696479797363281e+01 9.494605660438537598e-02 8.537361145019531250e+00 2.589692115783691406e+00 7.219198942184448242e-01
2.010000000000000000e+03 7.562781524658203125e+01 2.802380371093750000e+01 -7.730752974748611450e-02 8.735498428344726562e+00 2.597457408905029297e+00 8.583005666732788086e-01
2.011000000000000000e+03 3.865504074096679688e+01 5.279620647430419922e+00 8.661237359046936035e-01 7.076780796051025391e+00 2.382871389389038086e+00 -6.666705012321472168e-01
2.012000000000000000e+03 7.576812744140625000e+01 3.970592975616455078e+00 3.792894482612609863e-01 7.540494918823242188e+00 2.375935316085815430e+00 5.514956116676330566e-01
2.013000000000000000e+03 7.579445648193359375e+01 2.358777999877929688e+01 1.216807141900062561e-01 8.569095611572265625e+00 2.607232809066772461e+00 7.681189775466918945e-01
2.014000000000000000e+03 7.586004638671875000e+01 2.070065689086914062e+01 9.829426556825637817e-02 8.465726852416992188e+00 2.569206237792968750e+00 6.759703159332275391e-01
2.015000000000000000e+03 7.563622283935546875e+01 -2.078444480895996094e+01 -6.162879467010498047e-01 7.545253276824951172e+00 2.078689575195312500e+00 5.077279210090637207e-01
2.016000000000000000e+03 7.598144531250000000e+01 -1.978345108032226562e+01 -5.994945764541625977e-01 7.473742485046386719e+00 2.062274456024169922e+00 3.190654218196868896e-01
2.017000000000000000e+03 7.476651000976562500e+01 -2.155101013183593750e+01 -6.854405403137207031e-01 7.663127422332763672e+00 2.093306064605712891e+00 6.875095963478088379e-01
2.018000000000000000e+03 7.429713439941406250e+01 -1.504542255401611328e+01 -3.693395256996154785e-01 6.475222110748291016e+00 1.831764698028564453e+00 -6.305227875709533691e-01
2.019000000000000000e+03 7.552327728271484375e+01 -1.372729682922363281e+01 -1.849783211946487427e-01 6.739586830139160156e+00 1.966382503509521484e+00 -6.108337640762329102e-01
2.020000000000000000e+03 7.596551513671875000e+01 1.233792495727539062e+01 -1.275983154773712158e-01 8.091708183288574219e+00 2.389233112335205078e+00 7.144367694854736328e-01
2.021000000000000000e+03 7.589086151123046875e+01 1.643617248535156250e+01 -2.344211330637335777e-03 8.265577316284179688e+00 2.478969812393188477e+00 5.942621827125549316e-01
2.022000000000000000e+03 7.236254119873046875e+01 1.607806205749511719e+01 1.377122849225997925e-01 8.819435119628906250e+00 2.687144279479980469e+00 5.657680034637451172e-01
2.023000000000000000e+03 7.511658477783203125e+01 8.436576843261718750e+00 2.209286019206047058e-02 8.421571731567382812e+00 2.533099174499511719e+00 9.226486086845397949e-01
2.024000000000000000e+03 7.477194213867187500e+01 6.659562587738037109e+00 2.547213137149810791e-01 8.578729629516601562e+00 2.650035142898559570e+00 8.647106289863586426e-01
2.025000000000000000e+03 7.429758453369140625e+01 -7.976368904113769531e+00 4.846163466572761536e-02 6.984748363494873047e+00 2.109962940216064453e+00 -4.899995923042297363e-01
2.026000000000000000e+03 7.460930633544921875e+01 -5.972861766815185547e+00 9.904807060956954956e-02 7.245576381683349609e+00 2.203387260437011719e+00 -4.545861780643463135e-01
2.027000000000000000e+03 7.604222106933593750e+01 9.764245033264160156e+00 -7.072655856609344482e-02 7.867842674255371094e+00 2.339134693145751953e+00 8.314037919044494629e-01
2.028000000000000000e+03 7.377964782714843750e+01 9.390613555908203125e+00 -1.467092931270599365e-01 9.264447212219238281e+00 2.735321283340454102e+00 8.484907746315002441e-01
2.029000000000000000e+03 7.464115142822265625e+01 3.686866760253906250e+00 5.624579787254333496e-01 8.590148925781250000e+00 2.745782136917114258e+00 6.203244924545288086e-01
2.030000000000000000e+03 7.364054107666015625e+01 2.143976449966430664e+00 7.953069806098937988e-01 9.507964134216308594e+00 3.090981245040893555e+00 5.328146219253540039e-01
2.031000000000000000e+03 7.590444183349609375e+01 2.698835372924804688e+00 4.161542654037475586e-01 7.332835197448730469e+00 2.324697017669677734e+00 3.571110963821411133e-01
2.032000000000000000e+03 7.551511383056640625e+01 -4.019691944122314453e+00 1.553242057561874390e-01 7.086048603057861328e+00 2.172411918640136719e+00 -4.804682433605194092e-01
2.033000000000000000e+03 7.355847930908203125e+01 -5.129245281219482422e+00 1.898043453693389893e-01 7.788051128387451172e+00 2.393356561660766602e+00 -1.865458637475967407e-01
2.034000000000000000e+03 7.564311218261718750e+01 -6.574090480804443359e+00 4.944638535380363464e-02 6.837734699249267578e+00 2.066154241561889648e+00 -5.671491026878356934e-01
2.035000000000000000e+03 7.587933349609375000e+01 1.784700965881347656e+01 5.203802511096000671e-02 8.323094367980957031e+00 2.512539863586425781e+00 6.290236115455627441e-01
2.036000000000000000e+03 7.587081909179687500e+01 1.927099800109863281e+01 5.347270891070365906e-02 8.415477752685546875e+00 2.540684938430786133e+00 6.417298316955566406e-01
2.037000000000000000e+03 7.533913421630859375e+01 -1.083901691436767578e+01 -3.335976973176002502e-02 6.672134399414062500e+00 1.991632342338562012e+00 -6.305676102638244629e-01
2.038000000000000000e+03 7.348148345947265625e+01 -1.174282264709472656e+01 -5.014996509999036789e-03 6.362205505371093750e+00 1.907157182693481445e+00 -5.038579106330871582e-01
2.039000000000000000e+03 7.418503570556640625e+01 -1.255311965942382812e+01 -9.807003289461135864e-02 6.453455448150634766e+00 1.906615614891052246e+00 -6.114234328269958496e-01
2.040000000000000000e+03 7.569171905517578125e+01 -1.855269050598144531e+01 -6.002092361450195312e-01 7.247906208038330078e+00 1.994309186935424805e+00 -1.932445913553237915e-02
2.041000000000000000e+03 7.016274261474609375e+01 -1.902163314819335938e+01 -1.151021957397460938e+00 3.863240003585815430e+00 8.136653900146484375e-01 -1.174250006675720215e+00
2.042000000000000000e+03 7.366227722167968750e+01 -1.966811180114746094e+01 -1.222632527351379395e+00 7.052911281585693359e+00 1.749083638191223145e+00 -2.508921921253204346e-01
2.043000000000000000e+03 7.478927612304687500e+01 2.460697889328002930e+00 6.101770401000976562e-01 8.311134338378906250e+00 2.676393508911132812e+00 4.140359759330749512e-01
2.044000000000000000e+03 7.473559570312500000e+01 1.492623424530029297e+01 -6.120900437235832214e-02 8.474759101867675781e+00 2.524065017700195312e+00 5.970323681831359863e-01
2.045000000000000000e+03 7.475783538818359375e+01 1.355809116363525391e+01 -1.378616392612457275e-01 8.523307800292968750e+00 2.515633821487426758e+00 6.608605980873107910e-01
2.046000000000000000e+03 7.359621429443359375e+01 -1.733319401741027832e+00 5.443279147148132324e-01 8.663598060607910156e+00 2.762377738952636719e+00 5.825330689549446106e-02
2.047000000000000000e+03 7.547946929931640625e+01 -1.534110784530639648e+00 3.370371162891387939e-01 7.338690280914306641e+00 2.302718162536621094e+00 -2.391252815723419189e-01
2.048000000000000000e+03 7.229546356201171875e+01 -1.242328286170959473e+00 6.995769739151000977e-01 9.818439483642578125e+00 3.155404806137084961e+00 4.693516790866851807e-01
2.049000000000000000e+03 7.445880889892578125e+01 2.950248336791992188e+01 -3.118440508842468262e-01 8.077944755554199219e+00 2.329830169677734375e+00 8.158161640167236328e-01
2.050000000000000000e+03 7.394620513916015625e+01 -1.061355018615722656e+01 9.672134183347225189e-03 6.575327873229980469e+00 1.975499987602233887e+00 -5.225779414176940918e-01
2.051000000000000000e+03 7.261714935302734375e+01 -1.028448677062988281e+01 9.818705171346664429e-02 6.469674587249755859e+00 1.970358490943908691e+00 -2.323319315910339355e-01
2.052000000000000000e+03 7.304440307617187500e+01 -1.503918743133544922e+01 -3.346790969371795654e-01 5.962004184722900391e+00 1.688197612762451172e+00 -6.653834581375122070e-01
2.053000000000000000e+03 7.503652954101562500e+01 -1.761973571777343750e+01 -6.476491093635559082e-01 7.037692070007324219e+00 1.917012929916381836e+00 -2.768240272998809814e-01
2.054000000000000000e+03 4.635573196411132812e+01 -3.075666046142578125e+01 6.738325953483581543e-01 7.190418720245361328e+00 2.359275341033935547e+00 -1.387638807296752930e+00
2.055000000000000000e+03 7.471469879150390625e+01 3.464096069335937500e+01 -3.903356194496154785e-01 8.156949996948242188e+00 2.329984426498413086e+00 2.305957823991775513e-01
2.056000000000000000e+03 7.279917907714843750e+01 3.482152557373046875e+01 -5.489806532859802246e-01 6.616238117218017578e+00 1.820177316665649414e+00 2.037252299487590790e-02
2.057000000000000000e+03 7.100765991210937500e+01 -1.983559417724609375e+01 -1.448562979698181152e+00 4.716855525970458984e+00 9.804877042770385742e-01 -1.292189240455627441e+00
2.058000000000000000e+03 7.417636108398437500e+01 -2.065256690979003906e+01 -1.105696439743041992e+00 7.550110340118408203e+00 1.933324098587036133e+00 2.051172554492950439e-01
2.059000000000000000e+03 3.563026809692382812e+01 1.728018569946289062e+01 1.218368411064147949e+00 5.943655967712402344e+00 2.148607254028320312e+00 -6.040772795677185059e-01
2.060000000000000000e+03 7.530043792724609375e+01 3.217050933837890625e+01 -3.123025596141815186e-01 8.615264892578125000e+00 2.490888833999633789e+00 5.111687779426574707e-01
2.061000000000000000e+03 6.515252590179443359e+00 3.062977981567382812e+01 2.537311241030693054e-02 -7.067703008651733398e-01 -2.044191658496856689e-01 -9.839876741170883179e-02
2.062000000000000000e+03 5.989920616149902344e+00 -2.827764320373535156e+01 -8.879020810127258301e-01 2.103848218917846680e+00 3.647838532924652100e-01 1.538110375404357910e+00
2.063000000000000000e+03 4.303798675537109375e+00 2.733384132385253906e+01 3.128395974636077881e-02 -1.152912259101867676e+00 -3.364884853363037109e-01 -4.288896545767784119e-02
2.064000000000000000e+03 5.298753261566162109e+00 2.786660194396972656e+01 2.807878330349922180e-02 -9.690837860107421875e-01 -2.823015153408050537e-01 -6.069004908204078674e-02
2.065000000000000000e+03 3.788685607910156250e+01 7.104753494262695312e+00 1.373540997505187988e+00 7.076608180999755859e+00 2.535044670104980469e+00 -4.803597629070281982e-01
2.066000000000000000e+03 9.164110183715820312e+00 -1.268128490447998047e+01 1.543097496032714844e+00 2.553754091262817383e+00 1.229055523872375488e+00 1.888252561911940575e-03
2.067000000000000000e+03 4.914880275726318359e+00 -1.077897262573242188e+01 1.602299511432647705e-01 -1.712018996477127075e-01 -3.291584085673093796e-03 -1.186948657035827637e+00
2.068000000000000000e+03 6.301358699798583984e+00 2.479914283752441406e+01 7.777426391839981079e-02 -8.619885444641113281e-01 -2.352642863988876343e-01 -1.506403461098670959e-02
2.069000000000000000e+03 5.928026199340820312e+00 2.337866783142089844e+01 9.195194393396377563e-02 -9.233592152595520020e-01 -2.494221776723861694e-01 1.819567009806632996e-02
2.070000000000000000e+03 6.114289283752441406e+00 -1.552794742584228516e+01 1.171108245849609375e+00 1.473747253417968750e+00 7.934566140174865723e-01 -1.071988567709922791e-01
2.071000000000000000e+03 5.012981414794921875e+00 -1.510208320617675781e+01 7.678849101066589355e-01 1.533006280660629272e-01 2.763556540012359619e-01 -4.736135303974151611e-01
2.072000000000000000e+03 6.691482543945312500e+00 -1.713097000122070312e+01 1.519114732742309570e+00 2.569427728652954102e+00 1.226562738418579102e+00 6.441782116889953613e-01
2.073000000000000000e+03 4.186276912689208984e+00 1.478750991821289062e+01 9.422221034765243530e-02 -1.020976424217224121e+00 -2.780262529850006104e-01 2.939877212047576904e-01
2.074000000000000000e+03 5.623002052307128906e+00 1.741907501220703125e+01 1.401502788066864014e-01 -9.380396604537963867e-01 -2.393668144941329956e-01 2.280882298946380615e-01
2.075000000000000000e+03 5.507595539093017578e+00 1.603179359436035156e+01 1.444929987192153931e-01 -9.267565608024597168e-01 -2.346790730953216553e-01 2.860789597034454346e-01
2.076000000000000000e+03 4.484803676605224609e+00 2.041941642761230469e+01 8.168538659811019897e-02 -1.131599903106689453e+00 -3.149743676185607910e-01 1.015872806310653687e-01
2.077000000000000000e+03 5.361013889312744141e+00 2.562732505798339844e+01 4.544591903686523438e-02 -9.937387108802795410e-01 -2.844878435134887695e-01 -2.905835397541522980e-02
2.078000000000000000e+03 5.220910072326660156e+00 1.336438941955566406e+01 1.295036822557449341e-01 -8.731201291084289551e-01 -2.230849266052246094e-01 3.929974138736724854e-01
2.079000000000000000e+03 3.890519142150878906e+00 -1.862158012390136719e+01 6.850318312644958496e-01 -6.415367126464843750e-01 1.304853335022926331e-02 4.111855626106262207e-01
2.080000000000000000e+03 4.390597343444824219e+00 -2.110900306701660156e+01 8.966425657272338867e-01 6.369901299476623535e-01 4.600898027420043945e-01 1.264793992042541504e+00
2.081000000000000000e+03 3.789615869522094727e+00 -1.210829830169677734e+01 2.123817354440689087e-01 -1.026483654975891113e+00 -2.442305684089660645e-01 -1.024815678596496582e+00
2.082000000000000000e+03 6.740990638732910156e+00 -1.342279815673828125e+01 9.211603999137878418e-01 1.335700750350952148e+00 6.770583391189575195e-01 -5.621724724769592285e-01
2.083000000000000000e+03 4.933603286743164062e+00 -2.743134307861328125e+01 -5.620719790458679199e-01 1.857671618461608887e+00 3.886798620223999023e-01 1.901373147964477539e+00
2.084000000000000000e+03 6.321984767913818359e+00 3.424881362915039062e+01 -1.056013442575931549e-02 -6.944867968559265137e-01 -2.115140706300735474e-01 -9.411798417568206787e-02
2.085000000000000000e+03 5.814334392547607422e+00 2.183594894409179688e+01 1.082737222313880920e-01 -9.464724659919738770e-01 -2.514596283435821533e-01 6.776711344718933105e-02
2.086000000000000000e+03 5.745014667510986328e+00 2.034477615356445312e+01 1.241564452648162842e-01 -9.476468563079833984e-01 -2.470471262931823730e-01 1.133860647678375244e-01
2.087000000000000000e+03 4.880587100982666016e+00 -3.102851486206054688e+01 -6.993266344070434570e-01 1.622629046440124512e+00 2.769907116889953613e-01 1.095095992088317871e+00
2.088000000000000000e+03 6.341979026794433594e+00 -3.197989654541015625e+01 -9.125505089759826660e-01 1.627504110336303711e+00 2.144861072301864624e-01 8.427938222885131836e-01
2.089000000000000000e+03 8.230264663696289062e+00 -3.429653167724609375e+01 -8.612502217292785645e-01 1.070182085037231445e+00 6.267955154180526733e-02 3.453012406826019287e-01
2.090000000000000000e+03 5.851231765747070312e+01 -2.101114654541015625e+01 4.337622821331024170e-01 1.217147588729858398e+00 4.952729642391204834e-01 1.897771120071411133e+00
2.091000000000000000e+03 5.063049793243408203e+00 1.076874637603759766e+01 9.081037342548370361e-02 -7.729011178016662598e-01 -2.046272158622741699e-01 4.787616729736328125e-01
2.092000000000000000e+03 3.906550168991088867e+00 9.439929962158203125e+00 3.537468239665031433e-02 -7.206638455390930176e-01 -2.055867463350296021e-01 4.366288483142852783e-01
2.093000000000000000e+03 4.998324394226074219e+00 9.511619567871093750e+00 5.472286045551300049e-02 -7.014068365097045898e-01 -1.940051913261413574e-01 5.113920569419860840e-01
2.094000000000000000e+03 5.442673206329345703e+00 -1.409918594360351562e+01 6.778151988983154297e-01 4.049206674098968506e-01 3.248207569122314453e-01 -6.398893594741821289e-01
2.095000000000000000e+03 4.938731193542480469e+00 8.291135787963867188e+00 1.469504460692405701e-02 -6.246154904365539551e-01 -1.829761415719985962e-01 5.298274755477905273e-01
2.096000000000000000e+03 2.670852088928222656e+01 -1.042315292358398438e+01 3.149541139602661133e+00 8.342903256416320801e-01 1.195149421691894531e+00 2.073917388916015625e+00
2.097000000000000000e+03 2.975552940368652344e+01 -1.273961925506591797e+01 7.030580639839172363e-01 4.181330204010009766e-01 3.363573253154754639e-01 -6.009017825126647949e-01
2.098000000000000000e+03 3.767374038696289062e+00 -8.267921447753906250e+00 -9.868887066841125488e-02 -6.505362391471862793e-01 -2.247675210237503052e-01 -1.133593201637268066e+00
2.099000000000000000e+03 4.994346618652343750e+00 -6.602351665496826172e+00 -3.568524420261383057e-01 -6.407495588064193726e-02 -1.262782216072082520e-01 -1.095698714256286621e+00
2.100000000000000000e+03 5.556133270263671875e+00 -7.227828502655029297e+00 -3.225291371345520020e-01 1.351615041494369507e-01 -5.621028691530227661e-02 -1.154030680656433105e+00
2.101000000000000000e+03 4.493524551391601562e+01 -7.720352172851562500e+00 -7.565951943397521973e-01 5.520486354827880859e+00 1.429167389869689941e+00 -9.713925123214721680e-01
2.102000000000000000e+03 7.282404327392578125e+01 -6.343620300292968750e+00 1.525163650512695312e-01 7.605221271514892578e+00 2.327321290969848633e+00 -1.815792871639132500e-03
2.103000000000000000e+03 3.450151062011718750e+01 -3.862010192871093750e+01 -7.269197106361389160e-01 3.848884701728820801e-01 -1.026093661785125732e-01 -3.843560442328453064e-02
2.104000000000000000e+03 7.355384063720703125e+01 1.479856872558593750e+01 -2.716015093028545380e-02 8.723424911499023438e+00 2.608879566192626953e+00 5.806784629821777344e-01
2.105000000000000000e+03 3.886357498168945312e+01 -1.373836135864257812e+01 -5.060524940490722656e-01 5.101938724517822266e+00 1.378765940666198730e+00 -2.492125511169433594e+00
2.106000000000000000e+03 4.650229644775390625e+01 -1.336758995056152344e+01 -1.485571742057800293e+00 6.068675994873046875e+00 1.374931335449218750e+00 -2.457493096590042114e-01
2.107000000000000000e+03 7.295745086669921875e+01 -9.075564384460449219e+00 9.811521321535110474e-02 6.806222915649414062e+00 2.071301460266113281e+00 -2.332237064838409424e-01
2.108000000000000000e+03 6.338616180419921875e+01 -1.605920791625976562e+01 1.826549321413040161e-01 2.105166912078857422e+00 6.863465309143066406e-01 1.571535944938659668e+00
2.109000000000000000e+03 6.168111038208007812e+01 -1.884781265258789062e+01 -8.048660755157470703e-01 1.800409913063049316e+00 2.986631393432617188e-01 2.222218275070190430e+00
2.110000000000000000e+03 1.497518825531005859e+01 -1.155452060699462891e+01 3.412108898162841797e+00 1.718796849250793457e+00 1.539271712303161621e+00 1.100681185722351074e+00
2.111000000000000000e+03 5.801819610595703125e+01 -1.982727050781250000e+01 -3.381120264530181885e-01 7.367434501647949219e-01 1.195894256234169006e-01 1.913396596908569336e+00
2.112000000000000000e+03 5.622726058959960938e+01 -1.976904869079589844e+01 -7.820641994476318359e-02 -3.085418976843357086e-02 -3.271818161010742188e-02 1.146412730216979980e+00
2.113000000000000000e+03 6.354618835449218750e+01 -1.901346206665039062e+01 -6.971799135208129883e-01 1.714773178100585938e+00 3.052779734134674072e-01 2.004487276077270508e+00
2.114000000000000000e+03 6.231135177612304688e+01 -1.965091896057128906e+01 -6.799633502960205078e-01 1.781374454498291016e+00 3.304233253002166748e-01 2.084559917449951172e+00
2.115000000000000000e+03 6.603514099121093750e+01 -1.824310684204101562e+01 -3.315638005733489990e-01 1.644111514091491699e+00 3.937643170356750488e-01 1.062592983245849609e+00
2.116000000000000000e+03 7.172866058349609375e+01 -5.892116069793701172e+00 2.645405828952789307e-01 7.925221920013427734e+00 2.456928730010986328e+00 4.340378940105438232e-01
2.117000000000000000e+03 7.326596832275390625e+01 -7.908157825469970703e+00 1.051077544689178467e-01 7.105853080749511719e+00 2.163288116455078125e+00 -2.082424312829971313e-01
2.118000000000000000e+03 4.759991073608398438e+01 -3.093293190002441406e+01 8.593823313713073730e-01 6.777156829833984375e+00 2.290961742401123047e+00 -1.656251549720764160e+00
2.119000000000000000e+03 5.281159973144531250e+01 -2.830533981323242188e+01 2.187684059143066406e+00 5.304403781890869141e+00 2.247626304626464844e+00 -1.487567901611328125e+00
2.120000000000000000e+03 7.246154785156250000e+01 1.940267801284790039e+00 8.953039646148681641e-01 1.070629596710205078e+01 3.480479955673217773e+00 7.268055677413940430e-01
2.121000000000000000e+03 7.389277648925781250e+01 7.244081497192382812e-01 7.420298457145690918e-01 8.939210891723632812e+00 2.904372215270996094e+00 2.646458148956298828e-01
2.122000000000000000e+03 6.472317218780517578e+00 -1.447229194641113281e+01 1.033746123313903809e+00 1.459746956825256348e+00 7.480478882789611816e-01 -3.018217086791992188e-01
2.123000000000000000e+03 7.260100555419921875e+01 3.679944229125976562e+01 -3.849065303802490234e-01 6.355001926422119141e+00 1.791028618812561035e+00 -4.136410728096961975e-02
2.124000000000000000e+03 4.436217880249023438e+01 -3.247586822509765625e+01 -5.549179911613464355e-01 7.106652259826660156e+00 1.965520262718200684e+00 -4.439719915390014648e-01
2.125000000000000000e+03 7.356945800781250000e+01 1.342715644836425781e+01 -1.906439363956451416e-01 8.852684020996093750e+00 2.598612070083618164e+00 5.153971910476684570e-01
2.126000000000000000e+03 7.461319732666015625e+01 2.349195861816406250e+01 1.455945819616317749e-01 8.351652145385742188e+00 2.549174070358276367e+00 7.682428359985351562e-01
2.127000000000000000e+03 4.785726165771484375e+01 -2.509715652465820312e+01 2.431306362152099609e+00 6.738338470458984375e+00 2.750893354415893555e+00 -2.231900215148925781e+00
2.128000000000000000e+03 4.630804443359375000e+01 -2.623842811584472656e+01 2.193355798721313477e+00 8.329999923706054688e+00 3.157006502151489258e+00 -2.394248008728027344e+00
2.129000000000000000e+03 3.791099929809570312e+01 2.582293701171875000e+01 4.584239795804023743e-02 5.374116897583007812e+00 1.625987768173217773e+00 -1.555612981319427490e-01
2.130000000000000000e+03 7.239805603027343750e+01 3.899207305908203125e+01 -3.714828938245773315e-02 6.076404571533203125e+00 1.811776876449584961e+00 -3.489363566040992737e-02
2.131000000000000000e+03 7.285974884033203125e+01 -2.309566307067871094e+01 -1.733455061912536621e-01 8.051304817199707031e+00 2.363387823104858398e+00 8.436544537544250488e-01
2.132000000000000000e+03 1.938303184509277344e+01 -3.627790069580078125e+01 -9.666260480880737305e-01 -3.098710179328918457e-01 -3.829491138458251953e-01 2.707198560237884521e-01
2.133000000000000000e+03 6.860420989990234375e+01 -3.891395950317382812e+01 3.729814887046813965e-01 2.614728212356567383e+00 8.963128924369812012e-01 5.959751605987548828e-01
2.134000000000000000e+03 7.334619140625000000e+01 2.485770416259765625e+01 1.768632680177688599e-01 7.957360744476318359e+00 2.440267086029052734e+00 7.111479043960571289e-01
2.135000000000000000e+03 7.206431388854980469e+00 -1.591324043273925781e+01 1.572943806648254395e+00 2.628208160400390625e+00 1.260345578193664551e+00 4.432207942008972168e-01
2.136000000000000000e+03 7.055960083007812500e+01 -1.379926490783691406e+01 1.536945849657058716e-01 5.029742240905761719e+00 1.555031061172485352e+00 -1.899896860122680664e-01
2.137000000000000000e+03 5.561603546142578125e+01 -2.253076362609863281e+01 1.537896752357482910e+00 1.648977041244506836e+00 9.560621380805969238e-01 6.035755872726440430e-01
2.138000000000000000e+03 3.611865234375000000e+01 -1.190144062042236328e+01 -2.034718357026576996e-02 3.285589933395385742e+00 9.795728325843811035e-01 -1.799635529518127441e+00
2.139000000000000000e+03 6.461631774902343750e+01 -1.513090419769287109e+01 6.601206064224243164e-01 2.460599422454833984e+00 9.362159967422485352e-01 1.403525233268737793e+00
2.140000000000000000e+03 5.368918228149414062e+01 -2.387051773071289062e+01 1.847040772438049316e+00 3.043495655059814453e+00 1.467160940170288086e+00 -3.935622572898864746e-01
2.141000000000000000e+03 5.290264511108398438e+01 -2.537635231018066406e+01 1.990070700645446777e+00 4.059670448303222656e+00 1.814922332763671875e+00 -8.939248919486999512e-01
2.142000000000000000e+03 7.011096954345703125e+00 -2.889606475830078125e+01 -1.240230798721313477e+00 2.231334686279296875e+00 2.973311543464660645e-01 1.274629831314086914e+00
2.143000000000000000e+03 7.453257751464843750e+01 3.064251708984375000e+01 -3.451195955276489258e-01 8.077723503112792969e+00 2.319781303405761719e+00 6.586496829986572266e-01
2.144000000000000000e+03 3.942724227905273438e+01 3.068946266174316406e+01 -5.891067981719970703e-01 4.774010181427001953e+00 1.255470991134643555e+00 1.553559862077236176e-02
2.145000000000000000e+03 4.068777084350585938e+01 2.870573043823242188e+01 -2.695854306221008301e-01 5.037571907043457031e+00 1.430395841598510742e+00 2.914524972438812256e-01
2.146000000000000000e+03 4.299093627929687500e+01 3.564490127563476562e+01 -1.022660851478576660e+00 3.865283966064453125e+00 8.527869582176208496e-01 2.285332232713699341e-01
2.147000000000000000e+03 1.255522251129150391e+01 -1.132557106018066406e+01 1.988939404487609863e+00 2.335145235061645508e+00 1.297225356101989746e+00 5.035639405250549316e-01
2.148000000000000000e+03 7.294554138183593750e+01 -3.215954303741455078e+00 4.232133328914642334e-01 8.700227737426757812e+00 2.737032413482666016e+00 1.309241503477096558e-01
2.149000000000000000e+03 4.753849029541015625e+01 -1.510768032073974609e+01 -1.395701408386230469e+00 5.895165443420410156e+00 1.349839091300964355e+00 -2.005418688058853149e-01
2.150000000000000000e+03 4.385865020751953125e+01 -3.494157028198242188e+01 -1.498850584030151367e+00 5.961421489715576172e+00 1.338771224021911621e+00 2.733121514320373535e-01
2.151000000000000000e+03 4.569588851928710938e+01 -3.184501075744628906e+01 6.067334208637475967e-03 7.275588035583496094e+00 2.184496641159057617e+00 -1.151760339736938477e+00
2.152000000000000000e+03 4.308234405517578125e+01 -1.526847362518310547e+01 -9.498088359832763672e-01 7.782740116119384766e+00 2.049879312515258789e+00 -1.623669624328613281e+00
2.153000000000000000e+03 3.657535171508789062e+01 9.925596237182617188e+00 1.717178106307983398e+00 6.445261001586914062e+00 2.448731660842895508e+00 -4.776869416236877441e-01
2.154000000000000000e+03 4.742197799682617188e+01 4.105404281616210938e+01 -1.013904333114624023e+00 2.599043130874633789e+00 4.755416512489318848e-01 1.092462092638015747e-01
2.155000000000000000e+03 4.577515411376953125e+01 3.591395568847656250e+01 -9.156746864318847656e-01 3.239725112915039062e+00 6.972150802612304688e-01 4.656442999839782715e-01
2.156000000000000000e+03 4.503147506713867188e+01 -1.685686302185058594e+01 -3.546448647975921631e-01 7.908311367034912109e+00 2.266099929809570312e+00 -1.024318933486938477e+00
2.157000000000000000e+03 4.928561401367187500e+01 -1.547639751434326172e+01 -1.620473504066467285e+00 4.685197830200195312e+00 9.194173216819763184e-01 -1.477148290723562241e-02
2.158000000000000000e+03 4.910902404785156250e+01 -1.811831855773925781e+01 -3.898728191852569580e-01 5.009704589843750000e+00 1.385949611663818359e+00 -6.499618291854858398e-01
2.159000000000000000e+03 7.195879364013671875e+01 3.127546882629394531e+01 -7.706285119056701660e-01 6.352286338806152344e+00 1.674497365951538086e+00 4.132683277130126953e-01
2.160000000000000000e+03 2.426971626281738281e+01 -8.243030548095703125e+00 -8.911795616149902344e-01 2.675891637802124023e+00 5.354136228561401367e-01 1.433879852294921875e+00
2.161000000000000000e+03 2.571036529541015625e+01 -9.397796630859375000e+00 1.495333075523376465e+00 2.564842462539672852e+00 1.218052625656127930e+00 2.983572721481323242e+00
2.162000000000000000e+03 1.903754806518554688e+01 -1.081303596496582031e+01 2.917613506317138672e+00 -1.269662499427795410e+00 4.943853020668029785e-01 1.650555014610290527e+00
2.163000000000000000e+03 1.397305774688720703e+01 -7.597768783569335938e+00 -6.766155362129211426e-01 1.194004058837890625e+00 1.552165746688842773e-01 3.562928438186645508e-01
2.164000000000000000e+03 7.847013473510742188e+00 -7.335185527801513672e+00 -4.738206863403320312e-01 8.735002279281616211e-01 1.199038550257682800e-01 -9.877842068672180176e-01
2.165000000000000000e+03 1.111143302917480469e+01 -5.419430732727050781e+00 -1.278203606605529785e+00 9.381991028785705566e-01 -1.020013466477394104e-01 -2.132441997528076172e-01
2.166000000000000000e+03 2.436557006835937500e+01 -6.329609870910644531e+00 -1.114076375961303711e+00 1.881174325942993164e+00 2.301293611526489258e-01 9.501056671142578125e-01
2.167000000000000000e+03 2.435884857177734375e+01 -4.643560886383056641e+00 -1.078314542770385742e+00 1.633416891098022461e+00 1.665307134389877319e-01 6.913875341415405273e-01
2.168000000000000000e+03 1.376272773742675781e+01 -9.103822708129882812e+00 3.678241372108459473e-01 1.611570835113525391e+00 5.938184857368469238e-01 2.679259181022644043e-01
2.169000000000000000e+03 2.107464790344238281e+01 5.881476998329162598e-01 -5.487264394760131836e-01 2.719050645828247070e-01 -8.304641395807266235e-02 3.383148014545440674e-01
2.170000000000000000e+03 2.613098526000976562e+01 -9.668449401855468750e+00 2.097684383392333984e+00 1.940912723541259766e+00 1.211579084396362305e+00 2.820477008819580078e+00
2.171000000000000000e+03 1.608274269104003906e+01 -1.017918205261230469e+01 1.707110524177551270e+00 1.047635912895202637e+00 8.264239430427551270e-01 9.173443317413330078e-01
2.172000000000000000e+03 1.563450622558593750e+01 -9.030228614807128906e+00 4.189870357513427734e-01 1.046499490737915039e+00 4.396459758281707764e-01 7.577254176139831543e-01
2.173000000000000000e+03 9.200231552124023438e+00 -5.130779266357421875e+00 -1.048274755477905273e+00 7.701220512390136719e-01 -8.344583213329315186e-02 -5.503577589988708496e-01
2.174000000000000000e+03 8.502006530761718750e+00 -8.882194519042968750e+00 -6.299719959497451782e-02 1.307296872138977051e+00 3.732899129390716553e-01 -9.208434820175170898e-01
2.175000000000000000e+03 2.465842819213867188e+01 -5.086574077606201172e+00 -1.040652513504028320e+00 1.830507040023803711e+00 2.369563430547714233e-01 7.990117669105529785e-01
2.176000000000000000e+03 5.004861831665039062e+00 7.191115379333496094e+00 -4.529290273785591125e-02 -5.441493988037109375e-01 -1.768326908349990845e-01 5.398219227790832520e-01
2.177000000000000000e+03 6.556274414062500000e+00 5.978280544281005859e+00 -1.167093813419342041e-01 -5.040079355239868164e-01 -1.862151920795440674e-01 6.461554169654846191e-01
2.178000000000000000e+03 9.577175140380859375e+00 4.637221813201904297e+00 -2.901855707168579102e-01 -6.128490567207336426e-01 -2.709103822708129883e-01 8.069452643394470215e-01
2.179000000000000000e+03 2.584655380249023438e+01 -8.171298980712890625e+00 4.479721933603286743e-02 2.645600795745849609e+00 8.071194291114807129e-01 2.147364139556884766e+00
2.180000000000000000e+03 7.431045055389404297e+00 4.561723232269287109e+00 -2.968197464942932129e-01 -4.349967837333679199e-01 -2.195449620485305786e-01 6.990198493003845215e-01
2.181000000000000000e+03 6.119907379150390625e+00 6.677652835845947266e+00 -7.196590304374694824e-02 -5.356003046035766602e-01 -1.822698563337326050e-01 6.171060204505920410e-01
2.182000000000000000e+03 6.989694118499755859e+00 5.231418132781982422e+00 -2.148768305778503418e-01 -4.577665328979492188e-01 -2.017930150032043457e-01 6.697667837142944336e-01
2.183000000000000000e+03 2.850197410583496094e+01 -1.122961997985839844e+01 2.041482448577880859e+00 2.817909717559814453e-01 6.969820261001586914e-01 2.697139382362365723e-01
2.184000000000000000e+03 2.847675323486328125e+01 -1.016202545166015625e+01 1.912367820739746094e+00 8.170409798622131348e-01 8.188226222991943359e-01 9.659368395805358887e-01
2.185000000000000000e+03 2.326460266113281250e+01 -4.071271419525146484e+00 -1.146646380424499512e+00 9.909134507179260254e-01 -4.671989753842353821e-02 5.832499265670776367e-01
2.186000000000000000e+03 7.509654045104980469e+00 -6.596966743469238281e+00 -6.192902922630310059e-01 6.707952618598937988e-01 1.545148901641368866e-02 -9.711096286773681641e-01
2.187000000000000000e+03 7.001321792602539062e+00 -7.253753662109375000e+00 -4.245392382144927979e-01 5.995500087738037109e-01 5.250324308872222900e-02 -1.089869976043701172e+00
2.188000000000000000e+03 1.052558898925781250e+01 -5.328709602355957031e+00 -1.202350497245788574e+00 8.965770602226257324e-01 -9.173204004764556885e-02 -3.257397413253784180e-01
2.189000000000000000e+03 6.239933013916015625e+00 -6.673267364501953125e+00 -4.549889862537384033e-01 3.245556950569152832e-01 -3.912998735904693604e-02 -1.099810123443603516e+00
2.190000000000000000e+03 5.547611713409423828e+00 -5.986794948577880859e+00 -4.445116519927978516e-01 7.268732041120529175e-02 -1.115472987294197083e-01 -1.027822494506835938e+00
2.191000000000000000e+03 1.687046813964843750e+01 1.873288393020629883e+00 -5.997705459594726562e-01 -6.827772855758666992e-01 -3.847643435001373291e-01 6.660434007644653320e-01
2.192000000000000000e+03 1.641696929931640625e+01 3.926850318908691406e+00 -1.294023692607879639e-01 -5.564070940017700195e-01 -2.057428508996963501e-01 5.545407533645629883e-01
2.193000000000000000e+03 1.728496742248535156e+01 2.479540109634399414e+00 -4.044484496116638184e-01 -5.526411533355712891e-01 -2.871268689632415771e-01 5.716270804405212402e-01
2.194000000000000000e+03 2.060200500488281250e+01 -8.160267025232315063e-03 -7.119981050491333008e-01 3.984498977661132812e-02 -2.016459405422210693e-01 4.249837994575500488e-01
2.195000000000000000e+03 1.661276245117187500e+01 2.903250932693481445e+00 -3.520094752311706543e-01 -6.167889833450317383e-01 -2.906395196914672852e-01 6.038130521774291992e-01
2.196000000000000000e+03 2.639632797241210938e+01 -1.227729797363281250e+01 3.257972002029418945e+00 -1.722287684679031372e-01 9.257230162620544434e-01 -3.961741626262664795e-01
2.197000000000000000e+03 2.697988891601562500e+01 -1.348083972930908203e+01 3.922787606716156006e-01 2.061478346586227417e-01 1.795279830694198608e-01 -1.005743861198425293e+00
2.198000000000000000e+03 9.783408164978027344e+00 -5.944393634796142578e+00 -9.582921266555786133e-01 9.887466430664062500e-01 9.136353619396686554e-03 -5.651770234107971191e-01
2.199000000000000000e+03 8.088263511657714844e+00 -6.004287242889404297e+00 -7.555345892906188965e-01 7.420715093612670898e-01 -4.038915503770112991e-03 -8.445509076118469238e-01
2.200000000000000000e+03 8.368219375610351562e+00 6.052924156188964844e+00 -1.021877303719520569e-01 -5.812687277793884277e-01 -2.050369381904602051e-01 7.429004311561584473e-01
2.201000000000000000e+03 2.239327812194824219e+01 -2.936013221740722656e+00 -1.094591498374938965e+00 5.500389337539672852e-01 -1.633657962083816528e-01 5.202605724334716797e-01
2.202000000000000000e+03 2.233081436157226562e+01 -1.816348433494567871e+00 -9.237612485885620117e-01 6.015404462814331055e-01 -9.666623175144195557e-02 4.252282679080963135e-01
2.203000000000000000e+03 2.282970809936523438e+01 -2.427216053009033203e+00 -9.821045398712158203e-01 8.034355640411376953e-01 -5.360070616006851196e-02 4.460064768791198730e-01
2.204000000000000000e+03 1.732268142700195312e+01 -9.330924034118652344e+00 7.731420993804931641e-01 1.689129024744033813e-01 2.826164960861206055e-01 1.247711896896362305e+00
2.205000000000000000e+03 1.492924118041992188e+01 -9.524987220764160156e+00 9.006055593490600586e-01 1.372272968292236328e+00 6.818635463714599609e-01 6.316697001457214355e-01
2.206000000000000000e+03 2.368335342407226562e+01 -3.598974227905273438e+00 -1.063601016998291016e+00 1.224953770637512207e+00 4.840581119060516357e-02 5.369282960891723633e-01
2.207000000000000000e+03 2.328167343139648438e+01 -3.024687528610229492e+00 -1.027757048606872559e+00 1.018108487129211426e+00 -2.894565695896744728e-03 4.864219725131988525e-01
2.208000000000000000e+03 1.796375274658203125e+01 2.045989513397216797e+00 -4.563420414924621582e-01 -4.759840071201324463e-01 -2.796978056430816650e-01 5.333466529846191406e-01
2.209000000000000000e+03 1.888119125366210938e+01 4.763903915882110596e-01 -7.608429789543151855e-01 -4.415229260921478271e-01 -3.607097566127777100e-01 5.819005370140075684e-01
2.210000000000000000e+03 1.931278800964355469e+01 1.086793184280395508e+00 -5.726126432418823242e-01 -2.542559206485748291e-01 -2.480605691671371460e-01 4.714188277721405029e-01
2.211000000000000000e+03 1.398271465301513672e+01 4.834213256835937500e+00 -9.961981326341629028e-02 -7.102093100547790527e-01 -2.429487407207489014e-01 6.899103522300720215e-01
2.212000000000000000e+03 2.178973007202148438e+01 -1.203201293945312500e+00 -8.576380014419555664e-01 3.981924355030059814e-01 -1.378336697816848755e-01 4.122162163257598877e-01
2.213000000000000000e+03 1.464993095397949219e+01 4.302163600921630859e+00 -1.666686683893203735e-01 -7.073612809181213379e-01 -2.622089684009552002e-01 6.728711724281311035e-01
2.214000000000000000e+03 7.366002655029296875e+01 1.074551868438720703e+01 -2.977011799812316895e-01 9.110918045043945312e+00 2.643965244293212891e+00 7.503459453582763672e-01
2.215000000000000000e+03 1.096339321136474609e+01 4.627343654632568359e+00 -2.668114006519317627e-01 -7.141452431678771973e-01 -2.942869961261749268e-01 8.176882863044738770e-01
2.216000000000000000e+03 1.259414196014404297e+01 4.722187995910644531e+00 -1.805966347455978394e-01 -7.533081173896789551e-01 -2.801714241504669189e-01 7.736850976943969727e-01
2.217000000000000000e+03 3.083920288085937500e+01 -1.291391468048095703e+01 4.440548717975616455e-01 6.428737640380859375e-01 3.260785937309265137e-01 -7.358022332191467285e-01
2.218000000000000000e+03 2.726185989379882812e+01 -1.130113887786865234e+01 3.208366155624389648e+00 4.303354769945144653e-02 9.754198789596557617e-01 7.262453436851501465e-01
2.219000000000000000e+03 7.322547912597656250e+01 -1.861373901367187500e+01 -1.113220691680908203e+00 6.603027820587158203e+00 1.646942138671875000e+00 -5.033378601074218750e-01
2.220000000000000000e+03 6.921434020996093750e+01 -1.643269157409667969e+01 -3.571593761444091797e-02 3.514207124710083008e+00 1.043547391891479492e+00 -2.903847396373748779e-01
2.221000000000000000e+03 4.445666122436523438e+01 -5.362294673919677734e+00 -4.330990314483642578e-01 5.489244461059570312e+00 1.516843557357788086e+00 -1.253419518470764160e+00
2.222000000000000000e+03 4.333459472656250000e+01 -5.584030151367187500e+00 -6.038976907730102539e-01 5.602855682373046875e+00 1.499687314033508301e+00 -1.205814123153686523e+00
2.223000000000000000e+03 4.876393890380859375e+01 -2.275387954711914062e+01 2.213764667510986328e+00 5.485310077667236328e+00 2.309722423553466797e+00 -1.825309038162231445e+00
2.224000000000000000e+03 5.037340545654296875e+01 -2.704974746704101562e+01 2.155206918716430664e+00 5.423364162445068359e+00 2.273571252822875977e+00 -1.921921968460083008e+00
2.225000000000000000e+03 4.040793228149414062e+01 -1.090660020709037781e-01 -9.101211279630661011e-02 6.199139595031738281e+00 1.832438230514526367e+00 -1.095218062400817871e+00
2.226000000000000000e+03 4.021348476409912109e+00 6.849750041961669922e+00 -4.486591741442680359e-02 -5.070437192916870117e-01 -1.655728965997695923e-01 4.554909169673919678e-01
2.227000000000000000e+03 1.357531261444091797e+01 -1.103958988189697266e+01 2.170228242874145508e+00 2.166254758834838867e+00 1.300944924354553223e+00 7.182047963142395020e-01
2.228000000000000000e+03 1.532311439514160156e+01 -1.033067035675048828e+01 1.778462886810302734e+00 1.474603056907653809e+00 9.759197831153869629e-01 8.283419609069824219e-01
2.229000000000000000e+03 1.330840969085693359e+01 5.443672657012939453e+00 -2.067846432328224182e-02 -6.981412172317504883e-01 -2.156459093093872070e-01 7.019355893135070801e-01
2.230000000000000000e+03 1.177547550201416016e+01 5.456903934478759766e+00 -8.545816689729690552e-02 -7.187154293060302734e-01 -2.412520796060562134e-01 7.732394933700561523e-01
2.231000000000000000e+03 4.215040206909179688e+01 -5.703415870666503906e+00 -6.519516706466674805e-01 5.626768112182617188e+00 1.492444992065429688e+00 -1.206659793853759766e+00
2.232000000000000000e+03 3.868725204467773438e+01 -1.252527904510498047e+01 -5.428741574287414551e-01 4.953369617462158203e+00 1.323148727416992188e+00 -2.260544300079345703e+00
2.233000000000000000e+03 4.281648254394531250e+01 -1.411268520355224609e+01 -1.216260552406311035e+00 7.285369873046875000e+00 1.820732712745666504e+00 -1.516525387763977051e+00
2.234000000000000000e+03 4.199192428588867188e+01 -3.244211375713348389e-01 -4.562629759311676025e-02 6.219998359680175781e+00 1.852311730384826660e+00 -1.452348828315734863e+00
2.235000000000000000e+03 3.897108078002929688e+01 1.582182049751281738e+00 1.349558979272842407e-01 6.300597190856933594e+00 1.930665969848632812e+00 -7.817556858062744141e-01
2.236000000000000000e+03 3.972711563110351562e+01 7.658643126487731934e-01 1.405703835189342499e-02 6.301187515258789062e+00 1.894573330879211426e+00 -9.806048274040222168e-01
2.237000000000000000e+03 4.611602020263671875e+01 -2.183044242858886719e+01 2.679300546646118164e+00 7.601664066314697266e+00 3.084289312362670898e+00 -1.924449920654296875e+00
2.238000000000000000e+03 4.605061721801757812e+01 -1.214291954040527344e+01 -1.413483977317810059e+00 6.015844345092773438e+00 1.380708098411560059e+00 -3.416903018951416016e-01
2.239000000000000000e+03 4.525683593750000000e+01 -1.031839847564697266e+01 -1.197896122932434082e+00 5.864767074584960938e+00 1.400061249732971191e+00 -6.703909039497375488e-01
2.240000000000000000e+03 3.644516754150390625e+01 7.371241092681884766e+00 1.373915195465087891e+00 6.221294403076171875e+00 2.278563022613525391e+00 -3.517480492591857910e-01
2.241000000000000000e+03 3.794757461547851562e+01 4.046804428100585938e+00 6.010553240776062012e-01 6.492099285125732422e+00 2.127946376800537109e+00 -5.478610992431640625e-01
2.242000000000000000e+03 5.532189941406250000e+01 -2.072395515441894531e+01 7.169464826583862305e-01 9.735385179519653320e-01 5.071455240249633789e-01 4.321942031383514404e-01
2.243000000000000000e+03 6.771488189697265625e+01 -1.530392646789550781e+01 4.042710959911346436e-01 3.189697742462158203e+00 1.078190684318542480e+00 4.037421643733978271e-01
2.244000000000000000e+03 7.584858703613281250e+01 -2.992871856689453125e+01 4.148353040218353271e-01 7.307673454284667969e+00 2.316752672195434570e+00 -4.738829135894775391e-01
2.245000000000000000e+03 9.186508178710937500e+00 2.899482345581054688e+01 4.623097181320190430e-02 -2.936989367008209229e-01 -7.424038648605346680e-02 -1.396110057830810547e-01
2.246000000000000000e+03 8.848161697387695312e+00 3.137522506713867188e+01 2.345472574234008789e-02 -2.701553702354431152e-01 -7.401020079851150513e-02 -1.439637541770935059e-01
2.247000000000000000e+03 3.975521087646484375e+01 4.547282695770263672e+00 6.887474060058593750e-01 7.279968261718750000e+00 2.390614748001098633e+00 -9.658258557319641113e-01
2.248000000000000000e+03 1.128770160675048828e+01 -1.047413444519042969e+01 9.523438811302185059e-01 2.143696546554565430e+00 9.288120865821838379e-01 -9.481084346771240234e-02
2.249000000000000000e+03 1.145343685150146484e+01 -1.151462936401367188e+01 1.805807232856750488e+00 2.446050882339477539e+00 1.275557398796081543e+00 3.032571673393249512e-01
2.250000000000000000e+03 7.466915130615234375e+01 -1.911886978149414062e+01 -9.570904970169067383e-01 7.212450981140136719e+00 1.876608133316040039e+00 -6.442051380872726440e-02
2.251000000000000000e+03 7.472223663330078125e+01 1.632042503356933594e+01 3.110492229461669922e-02 8.443069458007812500e+00 2.542252302169799805e+00 6.451025605201721191e-01
2.252000000000000000e+03 7.471457672119140625e+01 1.773631858825683594e+01 4.318264499306678772e-02 8.474075317382812500e+00 2.555177211761474609e+00 6.471992135047912598e-01
2.253000000000000000e+03 7.349820709228515625e+01 4.683823585510253906e+00 5.822037458419799805e-01 9.829294204711914062e+00 3.123449325561523438e+00 7.342523932456970215e-01
2.254000000000000000e+03 7.353401947021484375e+01 3.464988946914672852e+00 6.754040122032165527e-01 9.740278244018554688e+00 3.124704599380493164e+00 6.387028098106384277e-01
2.255000000000000000e+03 7.360088348388671875e+01 1.208128070831298828e+01 -3.110827803611755371e-01 9.064242362976074219e+00 2.625947713851928711e+00 6.433559060096740723e-01
2.256000000000000000e+03 7.464926910400390625e+01 -2.425984382629394531e+00 3.480251133441925049e-01 7.821205139160156250e+00 2.450769186019897461e+00 -2.628268003463745117e-01
2.257000000000000000e+03 7.420510101318359375e+01 -1.627006721496582031e+01 -5.924643874168395996e-01 6.559694766998291016e+00 1.790169000625610352e+00 -5.833337306976318359e-01
2.258000000000000000e+03 7.418963623046875000e+01 -9.284295082092285156e+00 2.183703519403934479e-02 6.778192520141601562e+00 2.040008783340454102e+00 -5.030795931816101074e-01
2.259000000000000000e+03 7.176636505126953125e+01 -8.782175064086914062e+00 2.096881270408630371e-01 6.798285961151123047e+00 2.102392196655273438e+00 1.754808872938156128e-01
2.260000000000000000e+03 7.050525665283203125e+01 -1.507425785064697266e+01 -1.641111448407173157e-02 4.683109760284423828e+00 1.400009512901306152e+00 -3.944900333881378174e-01
2.261000000000000000e+03 7.423600769042968750e+01 -1.822574615478515625e+01 -8.756337761878967285e-01 6.892355442047119141e+00 1.805016517639160156e+00 -3.319683969020843506e-01
2.262000000000000000e+03 7.408023834228515625e+01 -1.734068298339843750e+01 -7.297394275665283203e-01 6.644044399261474609e+00 1.774291515350341797e+00 -5.041697621345520020e-01
2.263000000000000000e+03 8.426495552062988281e+00 2.163112640380859375e+01 2.052816301584243774e-01 -5.506470203399658203e-01 -1.036096140742301941e-01 4.835857450962066650e-02
2.264000000000000000e+03 6.912024688720703125e+01 -1.884477424621582031e+01 -6.603594422340393066e-01 2.253924369812011719e+00 4.780694842338562012e-01 -7.563576698303222656e-01
2.265000000000000000e+03 7.778307914733886719e+00 3.385293960571289062e+01 -1.492821238934993744e-02 -4.431545734405517578e-01 -1.374248415231704712e-01 -1.059339866042137146e-01
2.266000000000000000e+03 9.195003509521484375e+00 -1.152458572387695312e+01 1.042179107666015625e+00 2.109232425689697266e+00 9.454234838485717773e-01 -3.833696246147155762e-01
2.267000000000000000e+03 6.795442199707031250e+01 -1.773809242248535156e+01 -2.116813212633132935e-01 2.179659366607666016e+00 5.903934240341186523e-01 9.493452310562133789e-02
2.268000000000000000e+03 6.775370597839355469e+00 1.583620262145996094e+01 2.040760815143585205e-01 -7.906380295753479004e-01 -1.759685873985290527e-01 3.119905889034271240e-01
2.269000000000000000e+03 5.347448348999023438e+00 1.469391918182373047e+01 1.390130221843719482e-01 -9.050747752189636230e-01 -2.298185229301452637e-01 3.394124805927276611e-01
2.270000000000000000e+03 6.484246253967285156e+00 1.453162670135498047e+01 1.884111911058425903e-01 -8.051415681838989258e-01 -1.850191056728363037e-01 3.746310174465179443e-01
2.271000000000000000e+03 5.768426418304443359e+00 -8.146162986755371094e+00 -2.417268604040145874e-01 2.119813710451126099e-01 -8.923647925257682800e-03 -1.220380663871765137e+00
2.272000000000000000e+03 4.892826557159423828e+00 -9.471875190734863281e+00 -1.099438313394784927e-02 -1.735031157732009888e-01 -5.534924939274787903e-02 -1.239161133766174316e+00
2.273000000000000000e+03 6.296974182128906250e+00 1.328278255462646484e+01 1.705956012010574341e-01 -7.966117262840270996e-01 -1.878048330545425415e-01 4.231845438480377197e-01
2.274000000000000000e+03 5.145657539367675781e+00 1.204715824127197266e+01 1.071430891752243042e-01 -8.264049291610717773e-01 -2.157785445451736450e-01 4.396810829639434814e-01
2.275000000000000000e+03 6.935074806213378906e+00 1.878012275695800781e+01 1.863870471715927124e-01 -7.845872044563293457e-01 -1.794600486755371094e-01 1.773578822612762451e-01
2.276000000000000000e+03 5.687262058258056641e+00 1.886905097961425781e+01 1.376016885042190552e-01 -9.445189237594604492e-01 -2.420751601457595825e-01 1.713775247335433960e-01
2.277000000000000000e+03 4.030823135375976562e+01 -1.474256801605224609e+01 -6.748672723770141602e-01 6.425611495971679688e+00 1.725223302841186523e+00 -2.574278593063354492e+00
2.278000000000000000e+03 4.137105560302734375e+01 -1.317815113067626953e+01 -1.147780776023864746e+00 6.554856300354003906e+00 1.622122645378112793e+00 -1.928325772285461426e+00
2.279000000000000000e+03 3.466361236572265625e+01 1.938199806213378906e+01 9.796935319900512695e-01 5.325192928314208984e+00 1.891465902328491211e+00 -6.506874561309814453e-01
2.280000000000000000e+03 7.225970268249511719e+00 2.830472755432128906e+01 4.656192660331726074e-02 -6.285450458526611328e-01 -1.745949387550354004e-01 -8.968234062194824219e-02
2.281000000000000000e+03 6.305466651916503906e+00 2.690384674072265625e+01 5.804629996418952942e-02 -8.111194372177124023e-01 -2.259219437837600708e-01 -6.126969680190086365e-02
2.282000000000000000e+03 7.932011127471923828e+00 6.853473663330078125e+00 -2.586302720010280609e-02 -5.953978300094604492e-01 -1.863782554864883423e-01 7.136775255203247070e-01
2.283000000000000000e+03 5.047754287719726562e+01 -1.902870750427246094e+01 -5.940161272883415222e-02 3.785393476486206055e+00 1.117797493934631348e+00 -8.838977813720703125e-01
2.284000000000000000e+03 6.286133766174316406e+00 1.200567626953125000e+01 1.577900350093841553e-01 -7.649804949760437012e-01 -1.821571290493011475e-01 4.857220947742462158e-01
2.285000000000000000e+03 1.111474800109863281e+01 -7.779049873352050781e+00 -4.655877351760864258e-01 1.469451308250427246e+00 3.011590540409088135e-01 -4.103406071662902832e-01
2.286000000000000000e+03 7.064616680145263672e+00 -1.128465270996093750e+01 5.140978097915649414e-01 1.158936500549316406e+00 5.019102692604064941e-01 -9.384262561798095703e-01
2.287000000000000000e+03 5.856154441833496094e+00 -1.214729595184326172e+01 4.901760518550872803e-01 5.395573377609252930e-01 3.089199960231781006e-01 -9.663659334182739258e-01
2.288000000000000000e+03 8.006658554077148438e+00 -1.253055858612060547e+01 1.085885286331176758e+00 1.913304805755615234e+00 8.997570276260375977e-01 -4.669008851051330566e-01
2.289000000000000000e+03 4.779093265533447266e+00 -8.303579330444335938e+00 -1.503831148147583008e-01 -2.060333192348480225e-01 -1.069249287247657776e-01 -1.207522511482238770e+00
2.290000000000000000e+03 7.456123352050781250e+00 8.921494483947753906e+00 9.070889651775360107e-02 -6.548975110054016113e-01 -1.692565828561782837e-01 6.342449188232421875e-01
2.291000000000000000e+03 4.876865386962890625e+00 -1.329053592681884766e+01 5.162063837051391602e-01 -1.340453475713729858e-01 1.146483197808265686e-01 -8.781459331512451172e-01
2.292000000000000000e+03 3.649160003662109375e+01 1.237682056427001953e+01 1.740691184997558594e+00 6.622474670410156250e+00 2.508949756622314453e+00 -6.466400027275085449e-01
2.293000000000000000e+03 3.694095993041992188e+01 1.337689018249511719e+01 1.674194574356079102e+00 6.962641716003417969e+00 2.591050863265991211e+00 -7.021182775497436523e-01
2.294000000000000000e+03 4.751668453216552734e+00 -7.340832710266113281e+00 -2.491906881332397461e-01 -1.709542572498321533e-01 -1.260434836149215698e-01 -1.150597691535949707e+00
2.295000000000000000e+03 5.105988693237304688e+01 -3.085453987121582031e+01 1.649279952049255371e+00 5.681001186370849609e+00 2.199084281921386719e+00 -1.391270041465759277e+00
2.296000000000000000e+03 7.501473236083984375e+01 1.312424302101135254e+00 5.651734471321105957e-01 8.029415130615234375e+00 2.578376531600952148e+00 2.271885573863983154e-01
2.297000000000000000e+03 1.671906661987304688e+01 -1.040547466278076172e+01 2.061902284622192383e+00 8.611459732055664062e-01 8.769145011901855469e-01 1.098659276962280273e+00
2.298000000000000000e+03 4.616223907470703125e+01 -1.634781455993652344e+01 -8.143653869628906250e-01 6.935093402862548828e+00 1.836218476295471191e+00 -5.151612162590026855e-01
2.299000000000000000e+03 4.343852233886718750e+01 -1.638443756103515625e+01 -5.497274994850158691e-01 8.490365028381347656e+00 2.382191181182861328e+00 -1.510017037391662598e+00
2.300000000000000000e+03 7.070764160156250000e+01 -1.253371715545654297e+01 2.372502982616424561e-01 5.387866973876953125e+00 1.687535166740417480e+00 -2.389092929661273956e-02
2.301000000000000000e+03 7.292587280273437500e+01 3.313464736938476562e+01 -6.219654679298400879e-01 6.912483215332031250e+00 1.887155413627624512e+00 2.667818367481231689e-01
2.302000000000000000e+03 3.657171630859375000e+01 8.626413345336914062e+00 1.574670672416687012e+00 6.426867961883544922e+00 2.400461673736572266e+00 -4.225107133388519287e-01
2.303000000000000000e+03 7.134808349609375000e+01 -1.002864456176757812e+01 2.453612685203552246e-01 6.306318759918212891e+00 1.965504050254821777e+00 1.515840739011764526e-01
2.304000000000000000e+03 4.470830917358398438e+01 -1.846906280517578125e+01 8.714226484298706055e-01 8.475765228271484375e+00 2.804156303405761719e+00 -1.309214591979980469e+00
2.305000000000000000e+03 4.827099990844726562e+01 -1.596841239929199219e+01 -1.342133879661560059e+00 5.435914516448974609e+00 1.228134155273437500e+00 -1.935014724731445312e-01
2.306000000000000000e+03 5.112583541870117188e+01 -2.799197006225585938e+01 2.249022483825683594e+00 5.382543563842773438e+00 2.289469718933105469e+00 -1.853842020034790039e+00
2.307000000000000000e+03 5.247509002685546875e+01 -2.309503364562988281e+01 1.788453698158264160e+00 3.211080551147460938e+00 1.499860286712646484e+00 -9.642163515090942383e-01
2.308000000000000000e+03 3.684251022338867188e+01 2.015447425842285156e+01 8.357332348823547363e-01 6.101947307586669922e+00 2.081304073333740234e+00 -3.762637674808502197e-01
2.309000000000000000e+03 3.526751327514648438e+01 2.091307449340820312e+01 7.478538751602172852e-01 5.431128025054931641e+00 1.853694558143615723e+00 -5.721037387847900391e-01
2.310000000000000000e+03 3.310787582397460938e+01 -1.168895339965820312e+01 4.725460112094879150e-01 1.769157409667968750e+00 6.725110411643981934e-01 -1.098563909530639648e+00
2.311000000000000000e+03 7.314067840576171875e+01 -1.273334789276123047e+01 -5.224092304706573486e-02 6.133662223815917969e+00 1.824426412582397461e+00 -5.225461721420288086e-01
2.312000000000000000e+03 3.747202682495117188e+01 -1.278318500518798828e+01 -2.603804767131805420e-01 4.051672458648681641e+00 1.137387514114379883e+00 -2.198880434036254883e+00
2.313000000000000000e+03 3.371709823608398438e+01 -1.243444824218750000e+01 3.638192713260650635e-01 1.812465786933898926e+00 6.528854966163635254e-01 -1.285062551498413086e+00
2.314000000000000000e+03 3.819421768188476562e+01 2.317352676391601562e+01 4.321476519107818604e-01 5.904772758483886719e+00 1.901076078414916992e+00 -7.375639677047729492e-02
2.315000000000000000e+03 4.349592971801757812e+01 -6.754562854766845703e+00 -7.181242108345031738e-01 5.619718551635742188e+00 1.470478296279907227e+00 -1.139318943023681641e+00
2.316000000000000000e+03 4.369811248779296875e+01 -7.932807922363281250e+00 -9.051512479782104492e-01 5.672472476959228516e+00 1.430196404457092285e+00 -1.054843425750732422e+00
2.317000000000000000e+03 7.185457611083984375e+01 -1.383086776733398438e+01 -4.245426133275032043e-02 5.546428680419921875e+00 1.651192307472229004e+00 -4.526107609272003174e-01
2.318000000000000000e+03 6.635625457763671875e+01 -3.798179244995117188e+01 4.900390505790710449e-01 1.239477872848510742e+00 5.188550949096679688e-01 4.658528566360473633e-01
2.319000000000000000e+03 5.467482376098632812e+01 -2.168137359619140625e+01 1.196474790573120117e+00 1.539795637130737305e+00 8.208811283111572266e-01 9.742920100688934326e-02
2.320000000000000000e+03 1.485503387451171875e+01 -3.605471801757812500e+01 -7.470178008079528809e-01 -2.296877801418304443e-01 -2.930116653442382812e-01 2.368333488702774048e-01
2.321000000000000000e+03 1.963253021240234375e+01 -3.981827926635742188e+01 -7.034019231796264648e-01 -3.497464358806610107e-01 -3.159445226192474365e-01 1.106656342744827271e-01
2.322000000000000000e+03 3.675725555419921875e+01 2.417774200439453125e+01 2.860784530639648438e-01 5.458880901336669922e+00 1.723487854003906250e+00 -3.490735590457916260e-01
2.323000000000000000e+03 3.955041122436523438e+01 2.231528663635253906e+01 5.614144206047058105e-01 6.571748256683349609e+00 2.139948844909667969e+00 3.346406519412994385e-01
2.324000000000000000e+03 3.331522369384765625e+01 -4.112614440917968750e+01 -5.887765288352966309e-01 1.618269532918930054e-01 -1.280848830938339233e-01 -2.140781097114086151e-02
2.325000000000000000e+03 4.015892791748046875e+01 3.453896713256835938e+01 -1.004437208175659180e+00 4.315402984619140625e+00 9.932897686958312988e-01 8.350881747901439667e-03
2.326000000000000000e+03 4.509878921508789062e+01 -3.400082778930664062e+01 -1.140774965286254883e+00 6.684263706207275391e+00 1.663046598434448242e+00 -4.172795414924621582e-01
2.327000000000000000e+03 4.252986907958984375e+01 -8.106265068054199219e+00 -9.361711144447326660e-01 5.728395462036132812e+00 1.437667369842529297e+00 -1.164756536483764648e+00
2.328000000000000000e+03 5.172724151611328125e+01 -1.892374801635742188e+01 -4.681707024574279785e-01 2.533893346786499023e+00 6.197167634963989258e-01 -7.847180366516113281e-01
2.329000000000000000e+03 5.360239410400390625e+01 -2.147744750976562500e+01 1.161319375038146973e+00 2.031171321868896484e+00 9.577472209930419922e-01 -3.377465903759002686e-01
2.330000000000000000e+03 7.431056976318359375e+01 -1.379329395294189453e+01 -1.936982572078704834e-01 6.440243244171142578e+00 1.873963594436645508e+00 -6.375880837440490723e-01
2.331000000000000000e+03 4.528433990478515625e+01 -2.017505455017089844e+01 2.064629316329956055e+00 8.310420989990234375e+00 3.112514972686767578e+00 -1.292691826820373535e+00
2.332000000000000000e+03 4.694951248168945312e+01 -1.957833862304687500e+01 1.146523356437683105e+00 6.815474510192871094e+00 2.388599395751953125e+00 -1.007598042488098145e+00
2.333000000000000000e+03 6.794123840332031250e+01 -4.122676849365234375e+01 7.225777506828308105e-01 2.217277050018310547e+00 8.819564580917358398e-01 1.690412908792495728e-01
2.334000000000000000e+03 2.473459815979003906e+01 -7.534156322479248047e+00 -8.479980230331420898e-01 2.497424840927124023e+00 4.948280453681945801e-01 1.448836684226989746e+00
2.335000000000000000e+03 2.478175735473632812e+01 -6.645179748535156250e+00 -9.677326083183288574e-01 2.199735403060913086e+00 3.696008026599884033e-01 1.170350074768066406e+00
2.336000000000000000e+03 2.435462570190429688e+01 -8.601280212402343750e+00 -7.015761137008666992e-01 3.000528573989868164e+00 6.896857619285583496e-01 1.695691704750061035e+00
2.337000000000000000e+03 2.478834915161132812e+01 -8.364796638488769531e+00 -5.476631522178649902e-01 2.958343029022216797e+00 7.232038974761962891e-01 1.871526956558227539e+00
2.338000000000000000e+03 2.557846260070800781e+01 -8.692799568176269531e+00 3.822862207889556885e-01 2.825908422470092773e+00 9.624584317207336426e-01 2.488748788833618164e+00
2.339000000000000000e+03 1.205304908752441406e+01 -6.193264007568359375e+00 -1.150798082351684570e+00 1.050870656967163086e+00 -2.997821383178234100e-02 -7.498589158058166504e-02
2.340000000000000000e+03 1.047652435302734375e+01 -6.065042495727539062e+00 -1.038709282875061035e+00 1.063284397125244141e+00 7.372518535703420639e-03 -4.198299646377563477e-01
2.341000000000000000e+03 2.605552482604980469e+01 -8.939199447631835938e+00 9.499964118003845215e-01 2.419861316680908203e+00 1.010957241058349609e+00 2.565025806427001953e+00
2.342000000000000000e+03 1.416958236694335938e+01 -8.172288894653320312e+00 -3.084740638732910156e-01 1.265842556953430176e+00 2.872105538845062256e-01 3.629326522350311279e-01
2.343000000000000000e+03 1.409820079803466797e+01 -9.874670982360839844e+00 1.126692414283752441e+00 1.792742252349853516e+00 8.758304119110107422e-01 5.190809965133666992e-01
2.344000000000000000e+03 2.465003204345703125e+01 -5.870781898498535156e+00 -1.049439311027526855e+00 1.954088568687438965e+00 2.713947594165802002e-01 9.435834884643554688e-01
2.345000000000000000e+03 3.231663131713867188e+01 -1.122360229492187500e+01 6.637514829635620117e-01 1.600975871086120605e+00 6.794182062149047852e-01 -7.536473274230957031e-01
2.346000000000000000e+03 2.696861457824707031e+01 -9.628689765930175781e+00 2.060559034347534180e+00 1.458691358566284180e+00 1.055775165557861328e+00 2.242664575576782227e+00
2.347000000000000000e+03 2.505661582946777344e+01 -4.702118396759033203e+00 -9.694193601608276367e-01 1.960426688194274902e+00 2.973022162914276123e-01 7.713313102722167969e-01
2.348000000000000000e+03 2.478582572937011719e+01 -4.226501464843750000e+00 -9.818791151046752930e-01 1.802400469779968262e+00 2.461564242839813232e-01 6.739818453788757324e-01
2.349000000000000000e+03 7.250790596008300781e+00 6.402165412902832031e+00 -8.393460512161254883e-02 -5.518649220466613770e-01 -1.907398551702499390e-01 6.855993270874023438e-01
2.350000000000000000e+03 5.785849094390869141e+00 7.399515151977539062e+00 -2.401463501155376434e-02 -5.760778784751892090e-01 -1.800277531147003174e-01 5.907202363014221191e-01
2.351000000000000000e+03 2.403815841674804688e+01 -4.142294406890869141e+00 -1.073258042335510254e+00 1.432341337203979492e+00 1.077250018715858459e-01 6.104573607444763184e-01
2.352000000000000000e+03 2.684234046936035156e+01 -1.263953781127929688e+01 2.379494428634643555e+00 -1.205220222473144531e-01 6.776916980743408203e-01 -7.339793443679809570e-01
2.353000000000000000e+03 9.535891532897949219e+00 5.916996479034423828e+00 -9.049982577562332153e-02 -6.370989680290222168e-01 -2.182796448469161987e-01 7.784475088119506836e-01
2.354000000000000000e+03 6.844578742980957031e+00 -5.989241123199462891e+00 -6.150213479995727539e-01 4.713772833347320557e-01 -4.309322685003280640e-02 -9.655028581619262695e-01
2.355000000000000000e+03 6.757776737213134766e+00 -8.905797958374023438e+00 -8.274320513010025024e-02 7.005581259727478027e-01 1.853444874286651611e-01 -1.165775179862976074e+00
2.356000000000000000e+03 1.335500144958496094e+01 -7.608734607696533203e+00 -6.693419218063354492e-01 1.301975846290588379e+00 1.897901594638824463e-01 1.413020342588424683e-01
2.357000000000000000e+03 1.350411033630371094e+01 -8.361360549926757812e+00 -1.650687009096145630e-01 1.505019307136535645e+00 4.019851684570312500e-01 2.226957529783248901e-01
2.358000000000000000e+03 1.690758895874023438e+01 4.472002029418945312e+00 4.864131100475788116e-03 -4.319852590560913086e-01 -1.281363368034362793e-01 4.850388169288635254e-01
2.359000000000000000e+03 1.228652858734130859e+01 -1.036221122741699219e+01 1.184302449226379395e+00 2.124864101409912109e+00 9.927499890327453613e-01 1.638450175523757935e-01
2.360000000000000000e+03 1.583573341369628906e+01 4.410227298736572266e+00 -7.443422824144363403e-02 -5.908645987510681152e-01 -1.995896548032760620e-01 5.715202093124389648e-01
2.361000000000000000e+03 1.530150032043457031e+01 3.810810327529907227e+00 -2.292688339948654175e-01 -6.965699791908264160e-01 -2.777516245841979980e-01 6.533435583114624023e-01
2.362000000000000000e+03 2.121197700500488281e+01 -5.982366204261779785e-01 -7.853896021842956543e-01 2.174918055534362793e-01 -1.703693419694900513e-01 4.155254065990447998e-01
2.363000000000000000e+03 1.864254570007324219e+01 1.583930373191833496e+00 -5.080093145370483398e-01 -3.734511435031890869e-01 -2.644381225109100342e-01 5.033664107322692871e-01
2.364000000000000000e+03 2.414064216613769531e+01 -3.135411024093627930e+00 -9.598508477210998535e-01 1.448025226593017578e+00 1.464522927999496460e-01 5.037223696708679199e-01
2.365000000000000000e+03 2.374723625183105469e+01 -2.535943031311035156e+00 -9.200819134712219238e-01 1.251821756362915039e+00 9.952194988727569580e-02 4.364607334136962891e-01
2.366000000000000000e+03 1.907724952697753906e+01 2.236300468444824219e+00 -3.306404948234558105e-01 -1.982379853725433350e-01 -1.586635410785675049e-01 4.099489152431488037e-01
2.367000000000000000e+03 2.330105590820312500e+01 -1.913701295852661133e+00 -8.620067238807678223e-01 1.051644921302795410e+00 5.689145997166633606e-02 3.913026452064514160e-01
2.368000000000000000e+03 2.226844978332519531e+01 -6.469596624374389648e-01 -7.153888940811157227e-01 6.485767364501953125e-01 -2.004363946616649628e-02 3.386263549327850342e-01
2.369000000000000000e+03 7.558574676513671875e+00 1.421578693389892578e+01 2.309283614158630371e-01 -7.205852270126342773e-01 -1.468970477581024170e-01 3.968540132045745850e-01
2.370000000000000000e+03 2.168928146362304688e+01 -2.167204767465591431e-02 -6.333984732627868652e-01 4.502126574516296387e-01 -5.495574325323104858e-02 3.303162455558776855e-01
2.371000000000000000e+03 8.141050338745117188e+00 1.733288764953613281e+01 2.581086456775665283e-01 -6.540403962135314941e-01 -1.187795326113700867e-01 2.375739961862564087e-01
2.372000000000000000e+03 1.464807510375976562e+01 5.446533679962158203e+00 4.733194410800933838e-02 -6.197556853294372559e-01 -1.717271208763122559e-01 6.128759980201721191e-01
2.373000000000000000e+03 1.807323646545410156e+01 3.821577787399291992e+00 -6.824798136949539185e-02 -2.882978618144989014e-01 -1.069637537002563477e-01 4.078203439712524414e-01
2.374000000000000000e+03 8.623065948486328125e+00 7.135385513305664062e+00 1.037775445729494095e-02 -6.180419921875000000e-01 -1.822992712259292603e-01 7.211457490921020508e-01
2.375000000000000000e+03 4.157092666625976562e+01 -2.031035423278808594e+00 -2.678240537643432617e-01 5.917672157287597656e+00 1.694954514503479004e+00 -1.278967261314392090e+00
2.376000000000000000e+03 4.222464370727539062e+01 -6.970961093902587891e+00 -8.187718987464904785e-01 5.647662162780761719e+00 1.448667049407958984e+00 -1.168681025505065918e+00
2.377000000000000000e+03 4.523743820190429688e+01 -1.357557392120361328e+01 -1.420220732688903809e+00 6.832993507385253906e+00 1.623831748962402344e+00 -6.206635236740112305e-01
2.378000000000000000e+03 4.640754318237304688e+01 -1.733025360107421875e+01 -2.978238463401794434e-01 7.114372253417968750e+00 2.044964551925659180e+00 -7.855741977691650391e-01
2.379000000000000000e+03 1.698595809936523438e+01 -9.869547843933105469e+00 1.424917817115783691e+00 5.187366008758544922e-01 5.830963253974914551e-01 1.127832055091857910e+00
2.380000000000000000e+03 3.211500167846679688e+01 -1.204812812805175781e+01 6.165638566017150879e-01 1.233750700950622559e+00 5.550943613052368164e-01 -8.862876296043395996e-01
2.381000000000000000e+03 3.096589469909667969e+01 -9.742692947387695312e+00 9.997887015342712402e-01 1.535008430480957031e+00 7.604391574859619141e-01 1.065982598811388016e-02
2.382000000000000000e+03 4.328147125244140625e+01 -4.391388416290283203e+00 -4.264853894710540771e-01 5.650316715240478516e+00 1.567149400711059570e+00 -1.310504674911499023e+00
2.383000000000000000e+03 4.100811767578125000e+01 -3.544707298278808594e+00 -4.447451531887054443e-01 5.694751739501953125e+00 1.575001955032348633e+00 -1.153997659683227539e+00
2.384000000000000000e+03 4.102238082885742188e+01 -1.032552123069763184e+00 -1.901589781045913696e-01 6.092389583587646484e+00 1.770669221878051758e+00 -1.226792454719543457e+00
2.385000000000000000e+03 3.401319885253906250e+01 -1.331133270263671875e+01 2.094416320323944092e-01 1.763356208801269531e+00 5.918393731117248535e-01 -1.480109572410583496e+00
2.386000000000000000e+03 2.784028816223144531e+01 -1.071777534484863281e+01 2.563755512237548828e+00 3.991596698760986328e-01 8.888745307922363281e-01 1.020678520202636719e+00
2.387000000000000000e+03 2.999940872192382812e+01 -1.185468387603759766e+01 1.163098335266113281e+00 5.740165114402770996e-01 5.211344957351684570e-01 -3.596633672714233398e-01
2.388000000000000000e+03 1.154584312438964844e+01 -6.051196098327636719e+00 -1.171677827835083008e+00 1.054833412170410156e+00 -3.505332395434379578e-02 -1.786369681358337402e-01
2.389000000000000000e+03 1.135988140106201172e+01 -6.481431484222412109e+00 -9.882330298423767090e-01 1.152657985687255859e+00 4.932748526334762573e-02 -2.900277972221374512e-01
2.390000000000000000e+03 4.380054473876953125e+01 -9.132971763610839844e+00 -1.094736218452453613e+00 5.884063720703125000e+00 1.436798214912414551e+00 -1.007705330848693848e+00
2.391000000000000000e+03 4.011621475219726562e+01 -1.346825027465820312e+01 -7.705920934677124023e-01 6.002367019653320312e+00 1.569532394409179688e+00 -2.329667329788208008e+00
2.392000000000000000e+03 7.048112487792968750e+01 -1.777243995666503906e+01 -6.970586776733398438e-01 4.172429561614990234e+00 1.042611241340637207e+00 -9.455083608627319336e-01
2.393000000000000000e+03 8.703434944152832031e+00 -7.298668384552001953e+00 -5.543272495269775391e-01 1.079929590225219727e+00 1.576807051897048950e-01 -8.633158206939697266e-01
2.394000000000000000e+03 1.031746482849121094e+01 -1.157558059692382812e+01 1.367894768714904785e+00 2.366389513015747070e+00 1.120285272598266602e+00 -1.712825708091259003e-02
2.395000000000000000e+03 8.841414451599121094e+00 -6.460344314575195312e+00 -7.543246746063232422e-01 9.566158652305603027e-01 6.068735942244529724e-02 -7.793760299682617188e-01
2.396000000000000000e+03 1.002196311950683594e+01 6.660217761993408203e+00 1.245840452611446381e-02 -6.520780324935913086e-01 -1.918859034776687622e-01 7.548861503601074219e-01
2.397000000000000000e+03 3.814970016479492188e+01 6.616583466529846191e-01 2.761518582701683044e-02 5.904184818267822266e+00 1.779539942741394043e+00 -6.585150361061096191e-01
2.398000000000000000e+03 4.007350540161132812e+01 -3.984624385833740234e+00 -4.763183891773223877e-01 5.576455593109130859e+00 1.530041217803955078e+00 -1.077612757682800293e+00
2.399000000000000000e+03 7.240135192871093750e+00 2.317111206054687500e+01 1.366439312696456909e-01 -7.038180828094482422e-01 -1.701522469520568848e-01 1.340166665613651276e-02
2.400000000000000000e+03 8.663365364074707031e+00 2.458632469177246094e+01 1.463085711002349854e-01 -4.830641746520996094e-01 -1.010266840457916260e-01 -4.792369157075881958e-02
2.401000000000000000e+03 3.738431167602539062e+01 1.354168891906738281e+00 1.359925717115402222e-01 5.818676948547363281e+00 1.786400914192199707e+00 -4.914494454860687256e-01
2.402000000000000000e+03 3.626175689697265625e+01 -1.298012542724609375e+01 2.228936646133661270e-03 3.191223859786987305e+00 9.580358266830444336e-01 -2.100553750991821289e+00
2.403000000000000000e+03 7.177378845214843750e+01 -1.772202682495117188e+01 -8.822491765022277832e-01 5.348191738128662109e+00 1.339782714843750000e+00 -9.732651710510253906e-01
2.404000000000000000e+03 7.299373626708984375e+01 -1.747132682800292969e+01 -8.852967023849487305e-01 6.241445541381835938e+00 1.606844663619995117e+00 -7.109967470169067383e-01
2.405000000000000000e+03 6.414643287658691406e+00 -1.006238460540771484e+01 1.284189969301223755e-01 5.970886349678039551e-01 2.176522910594940186e-01 -1.166316509246826172e+00
2.406000000000000000e+03 8.116847991943359375e+00 -1.142952156066894531e+01 7.677941322326660156e-01 1.702416062355041504e+00 7.410630583763122559e-01 -6.907284259796142578e-01
2.407000000000000000e+03 4.647052001953125000e+01 -1.460202026367187500e+01 -1.405496597290039062e+00 6.400163650512695312e+00 1.498400211334228516e+00 -2.891805469989776611e-01
2.408000000000000000e+03 4.511203384399414062e+01 -1.152066898345947266e+01 -1.375867605209350586e+00 6.112531185150146484e+00 1.420999050140380859e+00 -6.117251515388488770e-01
2.409000000000000000e+03 3.724216079711914062e+01 2.945995569229125977e+00 3.996559977531433105e-01 6.042335987091064453e+00 1.932597637176513672e+00 -4.352579712867736816e-01
2.410000000000000000e+03 4.402412414550781250e+01 -1.382511806488037109e+01 -1.337871074676513672e+00 7.127593040466308594e+00 1.736916542053222656e+00 -1.069878935813903809e+00
2.411000000000000000e+03 8.170639991760253906e+00 1.871632957458496094e+01 2.387030720710754395e-01 -6.387036442756652832e-01 -1.200001686811447144e-01 1.774682849645614624e-01
2.412000000000000000e+03 6.602598571777343750e+01 -1.660544967651367188e+01 1.292814314365386963e-01 2.338860750198364258e+00 7.404426336288452148e-01 9.768416285514831543e-01
2.413000000000000000e+03 6.915471649169921875e+01 -1.512564086914062500e+01 2.220198959112167358e-01 4.008340835571289062e+00 1.269108176231384277e+00 -4.087475314736366272e-02
2.414000000000000000e+03 6.793717956542968750e+01 -1.657910537719726562e+01 1.016349941492080688e-01 2.868098258972167969e+00 8.909199833869934082e-01 1.875540167093276978e-01
2.415000000000000000e+03 6.791210651397705078e+00 9.470746994018554688e+00 1.007452756166458130e-01 -6.786010265350341797e-01 -1.733567118644714355e-01 6.003497838973999023e-01
2.416000000000000000e+03 6.892157554626464844e+00 8.276305198669433594e+00 4.171920567750930786e-02 -6.280032992362976074e-01 -1.758852303028106689e-01 6.349084973335266113e-01
2.417000000000000000e+03 6.011683940887451172e+00 -1.098577976226806641e+01 2.683367431163787842e-01 5.075194239616394043e-01 2.327568382024765015e-01 -1.142778635025024414e+00
2.418000000000000000e+03 4.904982757568359375e+01 -2.484959983825683594e+01 2.432469844818115234e+00 5.485330104827880859e+00 2.375339984893798828e+00 -2.088400602340698242e+00
2.419000000000000000e+03 5.132048034667968750e+01 -2.636082267761230469e+01 2.263392210006713867e+00 4.959967613220214844e+00 2.167007923126220703e+00 -1.681056737899780273e+00
2.420000000000000000e+03 4.839589309692382812e+01 -1.883602905273437500e+01 2.694502770900726318e-01 5.565219879150390625e+00 1.750401139259338379e+00 -8.372704982757568359e-01
2.421000000000000000e+03 4.865848922729492188e+01 -1.707746696472167969e+01 -8.383839130401611328e-01 5.319581985473632812e+00 1.344359397888183594e+00 -4.575004875659942627e-01
2.422000000000000000e+03 7.198885345458984375e+01 -1.262687110900878906e+01 5.896054580807685852e-02 5.827900409698486328e+00 1.766058325767517090e+00 -3.380886316299438477e-01
2.423000000000000000e+03 9.465921401977539062e+00 7.835589885711669922e+00 9.153735637664794922e-02 -6.432200670242309570e-01 -1.655048131942749023e-01 7.121254801750183105e-01
2.424000000000000000e+03 7.314442443847656250e+01 3.164048576354980469e+01 -6.204077601432800293e-01 7.190455913543701172e+00 1.971014499664306641e+00 4.476281404495239258e-01
2.425000000000000000e+03 1.139733028411865234e+01 2.855590057373046875e+01 7.682411372661590576e-02 4.809843003749847412e-02 3.747676312923431396e-02 -1.783704757690429688e-01
2.426000000000000000e+03 5.167086791992187500e+01 -2.172814941406250000e+01 1.388790249824523926e+00 3.203324317932128906e+00 1.377634406089782715e+00 -1.047266602516174316e+00
2.427000000000000000e+03 5.327178192138671875e+01 -2.021517562866210938e+01 5.715276002883911133e-01 1.648096442222595215e+00 6.658871769905090332e-01 -4.160473942756652832e-01
2.428000000000000000e+03 7.320225715637207031e+00 1.218650531768798828e+01 2.011619508266448975e-01 -7.210610508918762207e-01 -1.559697240591049194e-01 4.967488944530487061e-01
2.429000000000000000e+03 3.303767395019531250e+01 2.005963134765625000e+01 8.995488882064819336e-01 4.674260616302490234e+00 1.672142863273620605e+00 -7.386522293090820312e-01
2.430000000000000000e+03 3.494704437255859375e+01 1.596072673797607422e+01 1.380025863647460938e+00 5.702443122863769531e+00 2.124740839004516602e+00 -6.625046730041503906e-01
2.431000000000000000e+03 3.488572692871093750e+01 -1.205624008178710938e+01 1.914954632520675659e-01 2.552613019943237305e+00 8.232325911521911621e-01 -1.593986153602600098e+00
2.432000000000000000e+03 4.775276947021484375e+01 -2.961101150512695312e+01 1.534082412719726562e+00 6.731856822967529297e+00 2.479781866073608398e+00 -1.883897066116333008e+00
2.433000000000000000e+03 4.867432022094726562e+01 -2.682794952392578125e+01 2.221331596374511719e+00 6.078415393829345703e+00 2.489923954010009766e+00 -2.142333984375000000e+00
2.434000000000000000e+03 4.773434066772460938e+01 -2.752197074890136719e+01 2.117371082305908203e+00 6.888319015502929688e+00 2.701707124710083008e+00 -2.343470573425292969e+00
2.435000000000000000e+03 5.026544952392578125e+01 -2.435792160034179688e+01 2.250161170959472656e+00 4.931103229522705078e+00 2.154379367828369141e+00 -1.776660323143005371e+00
2.436000000000000000e+03 4.118209075927734375e+01 -1.190655708312988281e+01 -1.115089058876037598e+00 6.164975166320800781e+00 1.514965772628784180e+00 -1.760324954986572266e+00
2.437000000000000000e+03 7.209001159667968750e+01 -1.907668495178222656e+01 -1.392199873924255371e+00 6.017109870910644531e+00 1.387472987174987793e+00 -9.584987759590148926e-01
2.438000000000000000e+03 4.942100524902343750e+01 -2.776753044128417969e+01 2.266289234161376953e+00 5.800014495849609375e+00 2.419891119003295898e+00 -2.150827884674072266e+00
2.439000000000000000e+03 5.062736129760742188e+01 -2.962648773193359375e+01 1.929320931434631348e+00 5.756382465362548828e+00 2.305711030960083008e+00 -1.848985314369201660e+00
2.440000000000000000e+03 5.029718780517578125e+01 -3.305140686035156250e+01 6.069105267524719238e-01 6.030683994293212891e+00 1.991278290748596191e+00 -1.089672327041625977e+00
2.441000000000000000e+03 4.158057022094726562e+01 -1.442806625366210938e+01 -9.221476912498474121e-01 7.133138656616210938e+00 1.863297224044799805e+00 -2.099773645401000977e+00
2.442000000000000000e+03 4.380774307250976562e+01 -1.033754825592041016e+01 -1.255279064178466797e+00 6.085347175598144531e+00 1.449020504951477051e+00 -9.821581244468688965e-01
2.443000000000000000e+03 4.553783035278320312e+01 -1.769631958007812500e+01 -7.183790206909179688e-02 7.698616027832031250e+00 2.288033485412597656e+00 -8.062964677810668945e-01
2.444000000000000000e+03 4.581083297729492188e+01 -1.912998962402343750e+01 1.076480031013488770e+00 7.924245834350585938e+00 2.700217723846435547e+00 -1.123320817947387695e+00
2.445000000000000000e+03 4.653691864013671875e+01 -2.069098472595214844e+01 2.246017694473266602e+00 7.395281314849853516e+00 2.892389774322509766e+00 -1.464776039123535156e+00
2.446000000000000000e+03 4.847270965576171875e+01 -2.857734107971191406e+01 1.752991437911987305e+00 6.538356781005859375e+00 2.487404346466064453e+00 -2.072772264480590820e+00
2.447000000000000000e+03 4.949159622192382812e+01 -2.944845390319824219e+01 1.861333131790161133e+00 5.907110691070556641e+00 2.330533266067504883e+00 -1.891428828239440918e+00
2.448000000000000000e+03 6.910927772521972656e+00 -1.233907413482666016e+01 7.655178308486938477e-01 1.259262919425964355e+00 6.074342131614685059e-01 -7.586315870285034180e-01
2.449000000000000000e+03 8.543704986572265625e+00 2.772066879272460938e+01 7.229177653789520264e-02 -4.510416686534881592e-01 -1.136249676346778870e-01 -1.052532047033309937e-01
2.450000000000000000e+03 7.188193321228027344e+00 2.578653335571289062e+01 7.900942116975784302e-02 -6.853411793708801270e-01 -1.818995177745819092e-01 -5.526893213391304016e-02
2.451000000000000000e+03 5.049556732177734375e+01 -2.030108833312988281e+01 7.516175508499145508e-01 3.879190921783447266e+00 1.389242529869079590e+00 -1.156251072883605957e+00
2.452000000000000000e+03 4.925262451171875000e+01 -2.020109939575195312e+01 9.504188299179077148e-01 4.785820484161376953e+00 1.720871925354003906e+00 -1.212381005287170410e+00
2.453000000000000000e+03 3.746675491333007812e+01 2.167647171020507812e+01 6.125856041908264160e-01 6.097522258758544922e+00 2.013032197952270508e+00 -2.229667454957962036e-01
2.454000000000000000e+03 7.309774780273437500e+01 -1.384758853912353516e+01 -1.593644320964813232e-01 6.043997287750244141e+00 1.765389919281005859e+00 -5.874114632606506348e-01
2.455000000000000000e+03 3.621923065185546875e+01 2.713553237915039062e+01 -1.299029141664505005e-01 4.944221496582031250e+00 1.444295644760131836e+00 -3.832569420337677002e-01
2.456000000000000000e+03 9.700034141540527344e+00 3.315494918823242188e+01 -2.099315263330936432e-02 -1.042461916804313660e-01 -3.757180273532867432e-02 -1.396027505397796631e-01
2.457000000000000000e+03 4.572077178955078125e+01 -1.543220615386962891e+01 -1.139100909233093262e+00 7.039581775665283203e+00 1.770144224166870117e+00 -6.321001648902893066e-01
2.458000000000000000e+03 5.152048110961914062e+01 -2.424376487731933594e+01 2.059149026870727539e+00 4.079140186309814453e+00 1.841486692428588867e+00 -1.347670793533325195e+00
2.459000000000000000e+03 8.539648056030273438e+00 2.616380691528320312e+01 9.503892064094543457e-02 -4.774072766304016113e-01 -1.147105097770690918e-01 -8.451065421104431152e-02
2.460000000000000000e+03 3.488785934448242188e+01 1.127439689636230469e+01 1.665474534034729004e+00 5.606636524200439453e+00 2.181633234024047852e+00 -5.153750777244567871e-01
2.461000000000000000e+03 3.508336639404296875e+01 9.946959495544433594e+00 1.620190024375915527e+00 5.633651733398437500e+00 2.176152467727661133e+00 -4.581204950809478760e-01
2.462000000000000000e+03 8.559621810913085938e+00 -3.648513412475585938e+01 -5.419078469276428223e-01 8.489030599594116211e-01 9.209857136011123657e-02 2.184702903032302856e-01
2.463000000000000000e+03 7.202441406250000000e+01 -4.126382827758789062e+01 9.815250337123870850e-02 4.711865901947021484e+00 1.443005561828613281e+00 1.126947030425071716e-01
2.464000000000000000e+03 2.874047279357910156e+01 -3.787530517578125000e+01 -9.526024460792541504e-01 -1.637140661478042603e-01 -3.348949551582336426e-01 -1.256328225135803223e-01
2.465000000000000000e+03 4.241329956054687500e+01 -4.109556961059570312e+01 -1.489475488662719727e+00 4.223764896392822266e+00 8.202867507934570312e-01 1.732184886932373047e-01
2.466000000000000000e+03 2.770088386535644531e+01 -3.616048812866210938e+01 -1.135967493057250977e+00 -5.247587710618972778e-02 -3.565329909324645996e-01 -6.494170427322387695e-02
2.467000000000000000e+03 7.982885837554931641e+00 -4.124530029296875000e+01 -1.951207220554351807e-01 9.493604898452758789e-01 2.262719273567199707e-01 3.314788639545440674e-02
2.468000000000000000e+03 6.334784030914306641e+00 -3.634717941284179688e+01 -4.047371149063110352e-01 1.336016654968261719e+00 2.793838679790496826e-01 3.031636774539947510e-01
2.469000000000000000e+03 3.407439041137695312e+01 1.798306655883789062e+01 1.165092349052429199e+00 5.193453311920166016e+00 1.907563686370849609e+00 -7.048767805099487305e-01
2.470000000000000000e+03 6.998081207275390625e+00 3.785003662109375000e+01 -4.390069469809532166e-02 -5.311453342437744141e-01 -1.725138127803802490e-01 -3.641971573233604431e-02
2.471000000000000000e+03 5.171418762207031250e+01 -3.214285659790039062e+01 1.249441027641296387e+00 5.988475322723388672e+00 2.171374797821044922e+00 -1.168977618217468262e+00
2.472000000000000000e+03 4.674896621704101562e+01 3.822086334228515625e+01 -9.610894918441772461e-01 2.855344533920288086e+00 5.682765245437622070e-01 3.224694132804870605e-01
2.473000000000000000e+03 2.609896469116210938e+01 -3.679404067993164062e+01 -1.055106997489929199e+00 -1.303504258394241333e-01 -3.556372225284576416e-01 -1.028770022094249725e-02
2.474000000000000000e+03 2.529736900329589844e+01 -7.407773971557617188e+00 -6.408575773239135742e-01 2.571776151657104492e+00 5.792756080627441406e-01 1.604521512985229492e+00
2.475000000000000000e+03 2.527934646606445312e+01 -6.808716773986816406e+00 -7.804809212684631348e-01 2.379917621612548828e+00 4.798309803009033203e-01 1.330533266067504883e+00
2.476000000000000000e+03 2.531866264343261719e+01 -7.989309787750244141e+00 -3.495832681655883789e-01 2.760065555572509766e+00 7.231447100639343262e-01 1.932419538497924805e+00
2.477000000000000000e+03 2.494208145141601562e+01 -5.458531856536865234e+00 -1.005771517753601074e+00 2.006139755249023438e+00 3.001104891300201416e-01 9.014073610305786133e-01
2.478000000000000000e+03 2.650085639953613281e+01 -9.984312057495117188e+00 2.552427530288696289e+00 1.407985329627990723e+00 1.188123941421508789e+00 2.495727777481079102e+00
2.479000000000000000e+03 2.696498870849609375e+01 -8.720451354980468750e+00 1.073818325996398926e+00 1.988956093788146973e+00 9.188323616981506348e-01 2.124567508697509766e+00
2.480000000000000000e+03 2.529478645324707031e+01 -5.121442794799804688e+00 -9.145445227622985840e-01 2.090837001800537109e+00 3.528877496719360352e-01 8.841423988342285156e-01
2.481000000000000000e+03 2.734473800659179688e+01 -1.015765762329101562e+01 2.562360048294067383e+00 8.430507183074951172e-01 1.021623253822326660e+00 1.736708045005798340e+00
2.482000000000000000e+03 3.042369270324707031e+01 -1.054111576080322266e+01 1.235340118408203125e+00 1.069476127624511719e+00 6.914448738098144531e-01 7.775082252919673920e-03
2.483000000000000000e+03 1.276587772369384766e+01 -8.501730918884277344e+00 -1.351606100797653198e-01 1.615652203559875488e+00 4.441474974155426025e-01 -1.276921294629573822e-02
2.484000000000000000e+03 1.181928443908691406e+01 -7.165633201599121094e+00 -7.364709973335266113e-01 1.353600621223449707e+00 1.851388961076736450e-01 -2.219503968954086304e-01
2.485000000000000000e+03 8.717092514038085938e+00 -8.146018028259277344e+00 -2.988583743572235107e-01 1.246381282806396484e+00 2.842568755149841309e-01 -8.845301866531372070e-01
2.486000000000000000e+03 9.554488182067871094e+00 -7.487377166748046875e+00 -5.312829613685607910e-01 1.254315972328186035e+00 2.169099003076553345e-01 -7.125159502029418945e-01
2.487000000000000000e+03 6.807661056518554688e+00 7.107535839080810547e+00 -2.987589128315448761e-02 -5.786169767379760742e-01 -1.825478672981262207e-01 6.573680639266967773e-01
2.488000000000000000e+03 8.945157051086425781e+00 6.473691940307617188e+00 -4.880072921514511108e-02 -6.160804629325866699e-01 -1.994643658399581909e-01 7.541964054107666016e-01
2.489000000000000000e+03 2.572089576721191406e+01 -4.864545822143554688e+00 -8.414829373359680176e-01 2.209165573120117188e+00 4.103047847747802734e-01 8.643726706504821777e-01
2.490000000000000000e+03 2.497586059570312500e+01 -3.279064893722534180e+00 -8.786846399307250977e-01 1.824191570281982422e+00 2.836520969867706299e-01 5.551535487174987793e-01
2.491000000000000000e+03 2.975709152221679688e+01 -1.115096282958984375e+01 1.422491192817687988e+00 6.865112185478210449e-01 6.327007412910461426e-01 -4.203803092241287231e-02
2.492000000000000000e+03 1.196551704406738281e+01 -8.596096038818359375e+00 -5.817522853612899780e-02 1.670814037322998047e+00 4.837916493415832520e-01 -1.850759685039520264e-01
2.493000000000000000e+03 1.703177452087402344e+01 3.500957489013671875e+00 -1.867785602807998657e-01 -4.898121058940887451e-01 -2.029771953821182251e-01 5.257738232612609863e-01
2.494000000000000000e+03 1.590038013458251953e+01 5.536012172698974609e+00 1.261634677648544312e-01 -4.893449544906616211e-01 -1.089544445276260376e-01 5.103145241737365723e-01
2.495000000000000000e+03 1.769369888305664062e+01 3.115142345428466797e+00 -2.303054034709930420e-01 -4.196416437625885010e-01 -1.949841231107711792e-01 4.800827503204345703e-01
2.496000000000000000e+03 1.838183593750000000e+01 2.701318025588989258e+00 -2.727764546871185303e-01 -3.225990235805511475e-01 -1.786126494407653809e-01 4.462303817272186279e-01
2.497000000000000000e+03 1.187737655639648438e+01 -7.811284065246582031e+00 -5.271790623664855957e-01 1.496917247772216797e+00 2.909214794635772705e-01 -2.326337695121765137e-01
2.498000000000000000e+03 2.425400352478027344e+01 -2.044899702072143555e+00 -8.025534152984619141e-01 1.479657888412475586e+00 2.031313478946685791e-01 4.011751711368560791e-01
2.499000000000000000e+03 1.976313400268554688e+01 1.723809838294982910e+00 -3.935968875885009766e-01 -5.324406176805496216e-02 -1.340522766113281250e-01 3.779168128967285156e-01
2.500000000000000000e+03 1.741101264953613281e+01 4.107674121856689453e+00 -4.229873791337013245e-02 -3.658113479614257812e-01 -1.224330216646194458e-01 4.510573148727416992e-01
2.501000000000000000e+03 1.645074272155761719e+01 5.001163005828857422e+00 5.489907041192054749e-02 -4.709809422492980957e-01 -1.248245686292648315e-01 4.881108403205871582e-01
2.502000000000000000e+03 1.524621391296386719e+01 4.915900230407714844e+00 -2.046394348144531250e-02 -6.123975515365600586e-01 -1.898584514856338501e-01 5.908013582229614258e-01
2.503000000000000000e+03 1.090811347961425781e+01 6.178412437438964844e+00 -6.612979341298341751e-03 -6.829646229743957520e-01 -2.068732678890228271e-01 7.629241943359375000e-01
2.504000000000000000e+03 9.554686546325683594e+00 8.841897964477539062e+00 1.815879791975021362e-01 -6.432225108146667480e-01 -1.384903639554977417e-01 6.635803580284118652e-01
2.505000000000000000e+03 3.600644683837890625e+01 -9.946007728576660156e+00 -4.927203431725502014e-02 3.517572879791259766e+00 1.040490269660949707e+00 -1.385046243667602539e+00
2.506000000000000000e+03 3.601968002319335938e+01 -1.089072704315185547e+01 -5.549859628081321716e-02 3.454529762268066406e+00 1.019709348678588867e+00 -1.631772398948669434e+00
2.507000000000000000e+03 2.381301879882812500e+01 -1.394756078720092773e+00 -7.383200526237487793e-01 1.285222172737121582e+00 1.640706211328506470e-01 3.408829271793365479e-01
2.508000000000000000e+03 6.720355987548828125e+00 -8.094379425048828125e+00 -2.909808158874511719e-01 6.074782013893127441e-01 9.494922310113906860e-02 -1.152036428451538086e+00
2.509000000000000000e+03 1.115608310699462891e+01 -7.029498100280761719e+00 -8.113715648651123047e-01 1.300121903419494629e+00 1.466251015663146973e-01 -3.691249489784240723e-01
2.510000000000000000e+03 1.042583084106445312e+01 -6.849422454833984375e+00 -7.769915461540222168e-01 1.215395689010620117e+00 1.315212249755859375e-01 -5.119713544845581055e-01
2.511000000000000000e+03 2.280721092224121094e+01 -1.280693173408508301e+00 -7.934262156486511230e-01 8.448913693428039551e-01 1.543954387307167053e-02 3.550092875957489014e-01
2.512000000000000000e+03 1.952305221557617188e+01 2.929702520370483398e+00 -1.581066250801086426e-01 -8.204846642911434174e-03 -4.989344254136085510e-02 3.257591724395751953e-01
2.513000000000000000e+03 3.375605773925781250e+01 -1.075220298767089844e+01 3.948425352573394775e-01 2.301907300949096680e+00 8.090249300003051758e-01 -1.088656783103942871e+00
2.514000000000000000e+03 2.278505897521972656e+01 -7.561305910348892212e-02 -5.739728212356567383e-01 8.858032822608947754e-01 9.354913234710693359e-02 2.736173868179321289e-01
2.515000000000000000e+03 2.332336616516113281e+01 -7.344759702682495117e-01 -6.594172120094299316e-01 1.089599728584289551e+00 1.290547698736190796e-01 3.032183051109313965e-01
2.516000000000000000e+03 2.388563537597656250e+01 -1.761630475521087646e-01 -5.234907269477844238e-01 1.326253294944763184e+00 2.408287823200225830e-01 2.538296580314636230e-01
2.517000000000000000e+03 1.193446922302246094e+01 -6.666554450988769531e+00 -1.023689031600952148e+00 1.198016881942749023e+00 5.229834094643592834e-02 -1.390254646539688110e-01
2.518000000000000000e+03 4.098744583129882812e+01 -7.448170185089111328e+00 -8.096750974655151367e-01 5.535799980163574219e+00 1.417837500572204590e+00 -1.272126913070678711e+00
2.519000000000000000e+03 2.909544944763183594e+01 -1.063987922668457031e+01 1.763350605964660645e+00 6.931759715080261230e-01 7.369579672813415527e-01 4.676031768321990967e-01
2.520000000000000000e+03 4.060814666748046875e+01 -2.596299409866333008e+00 -3.611744344234466553e-01 5.785058498382568359e+00 1.627165198326110840e+00 -1.121040940284729004e+00
2.521000000000000000e+03 4.109278869628906250e+01 -5.516004562377929688e+00 -6.374993324279785156e-01 5.555178642272949219e+00 1.475303769111633301e+00 -1.177486658096313477e+00
2.522000000000000000e+03 4.629990386962890625e+01 -1.820453262329101562e+01 3.070300519466400146e-01 7.234722137451171875e+00 2.262525796890258789e+00 -7.601435184478759766e-01
2.523000000000000000e+03 1.408007812500000000e+01 6.033073902130126953e+00 1.196366697549819946e-01 -6.214187145233154297e-01 -1.505346149206161499e-01 6.198092103004455566e-01
2.524000000000000000e+03 4.044980239868164062e+01 -4.853552341461181641e+00 -5.634584426879882812e-01 5.523040294647216797e+00 1.487874627113342285e+00 -1.112446427345275879e+00
2.525000000000000000e+03 3.133600234985351562e+01 -1.095792007446289062e+01 9.699134230613708496e-01 1.227625608444213867e+00 6.592617034912109375e-01 -4.412138462066650391e-01
2.526000000000000000e+03 4.537709808349609375e+01 -1.457869815826416016e+01 -1.288592576980590820e+00 6.936194419860839844e+00 1.694280505180358887e+00 -6.528088450431823730e-01
2.527000000000000000e+03 2.872280883789062500e+01 -8.315898895263671875e+00 9.155894517898559570e-01 1.813442230224609375e+00 8.187095522880554199e-01 1.238945603370666504e+00
2.528000000000000000e+03 7.178672790527343750e+01 -1.505705070495605469e+01 -2.079436331987380981e-01 5.384273529052734375e+00 1.552899003028869629e+00 -5.958913564682006836e-01
2.529000000000000000e+03 1.118759059906005859e+01 -9.503807067871093750e+00 4.064629971981048584e-01 1.879620432853698730e+00 6.858250498771667480e-01 -2.944438159465789795e-01
2.530000000000000000e+03 6.920692443847656250e+01 -1.769512748718261719e+01 -3.778947591781616211e-01 2.958227396011352539e+00 7.740997672080993652e-01 -5.482341051101684570e-01
2.531000000000000000e+03 1.266673851013183594e+01 6.213082313537597656e+00 7.570134848356246948e-02 -6.771062016487121582e-01 -1.804214417934417725e-01 6.977064609527587891e-01
2.532000000000000000e+03 6.368452548980712891e+00 7.736936569213867188e+00 4.247616976499557495e-03 -6.038022041320800781e-01 -1.798663735389709473e-01 6.260124444961547852e-01
2.533000000000000000e+03 8.861886978149414062e+00 1.051950073242187500e+01 2.337958961725234985e-01 -6.493387222290039062e-01 -1.246628537774085999e-01 5.895540714263916016e-01
2.534000000000000000e+03 1.030265331268310547e+01 -8.517177581787109375e+00 -1.753381788730621338e-01 1.565712213516235352e+00 4.171122014522552490e-01 -5.863066911697387695e-01
2.535000000000000000e+03 3.506283569335937500e+01 8.705524444580078125e+00 1.495077848434448242e+00 5.556861400604248047e+00 2.115581750869750977e+00 -3.451449871063232422e-01
2.536000000000000000e+03 3.524216079711914062e+01 3.949908256530761719e+00 6.214321255683898926e-01 5.434002876281738281e+00 1.816630482673645020e+00 -1.765419989824295044e-01
2.537000000000000000e+03 7.092587471008300781e+00 -9.635108947753906250e+00 7.167121767997741699e-02 8.943750858306884766e-01 2.898139059543609619e-01 -1.110162734985351562e+00
2.538000000000000000e+03 4.237872695922851562e+01 -1.037374210357666016e+01 -1.192918777465820312e+00 6.082206249237060547e+00 1.466786265373229980e+00 -1.309284329414367676e+00
2.539000000000000000e+03 4.960557556152343750e+01 -2.604691123962402344e+01 2.335169553756713867e+00 5.560307502746582031e+00 2.368643045425415039e+00 -2.096292972564697266e+00
2.540000000000000000e+03 2.793897628784179688e+01 -1.185557937622070312e+01 2.148494005203247070e+00 1.926114968955516815e-02 6.503264904022216797e-01 -3.701750561594963074e-02
2.541000000000000000e+03 2.918728637695312500e+01 -1.168679237365722656e+01 1.546531200408935547e+00 3.585174977779388428e-01 5.715146064758300781e-01 -1.091669872403144836e-01
2.542000000000000000e+03 1.009772396087646484e+01 2.630776786804199219e+01 1.308432519435882568e-01 -2.090070694684982300e-01 -2.344914525747299194e-02 -1.185145154595375061e-01
2.543000000000000000e+03 9.888228416442871094e+00 2.785714721679687500e+01 8.422004431486129761e-02 -2.035509347915649414e-01 -3.579926490783691406e-02 -1.476454138755798340e-01
2.544000000000000000e+03 4.806316757202148438e+01 -3.246462249755859375e+01 3.128482103347778320e-01 6.531937599182128906e+00 2.053435802459716797e+00 -1.299289822578430176e+00
2.545000000000000000e+03 1.139667892456054688e+01 8.305416107177734375e+00 2.443764060735702515e-01 -6.198046207427978516e-01 -1.126284599304199219e-01 6.476477980613708496e-01
2.546000000000000000e+03 4.824593734741210938e+01 -2.396668815612792969e+01 2.478128194808959961e+00 6.136487007141113281e+00 2.584384441375732422e+00 -2.165922641754150391e+00
2.547000000000000000e+03 3.915584945678710938e+01 -4.409155368804931641e+00 -4.712834656238555908e-01 5.331715583801269531e+00 1.458129644393920898e+00 -9.596033096313476562e-01
2.548000000000000000e+03 3.814099884033203125e+01 2.313660383224487305e+00 2.719616591930389404e-01 6.211330890655517578e+00 1.944987773895263672e+00 -6.199489831924438477e-01
2.549000000000000000e+03 7.958226680755615234e+00 1.129901409149169922e+01 2.106567919254302979e-01 -6.842147707939147949e-01 -1.420674026012420654e-01 5.452554821968078613e-01
2.550000000000000000e+03 4.248045349121093750e+01 -1.166827297210693359e+01 -1.313726902008056641e+00 6.385515689849853516e+00 1.521536707878112793e+00 -1.398711204528808594e+00
2.551000000000000000e+03 4.748047637939453125e+01 -1.729394912719726562e+01 -5.375501513481140137e-01 6.228439331054687500e+00 1.707266688346862793e+00 -5.118095874786376953e-01
2.552000000000000000e+03 8.149590492248535156e+00 -1.034277534484863281e+01 3.500990569591522217e-01 1.460544705390930176e+00 5.431931614875793457e-01 -8.587445616722106934e-01
2.553000000000000000e+03 9.190142631530761719e+00 -1.037019538879394531e+01 5.072644352912902832e-01 1.784385442733764648e+00 6.874949336051940918e-01 -6.371932625770568848e-01
2.554000000000000000e+03 9.251738548278808594e+00 1.726022720336914062e+01 3.263406753540039062e-01 -5.245355367660522461e-01 -5.945846438407897949e-02 2.266815453767776489e-01
2.555000000000000000e+03 7.007635116577148438e+00 2.025859260559082031e+01 1.731056123971939087e-01 -7.747623324394226074e-01 -1.804970204830169678e-01 1.219823136925697327e-01
2.556000000000000000e+03 4.250442504882812500e+01 -9.167656898498535156e+00 -1.087448835372924805e+00 5.842684745788574219e+00 1.426570773124694824e+00 -1.223662614822387695e+00
2.557000000000000000e+03 3.985190200805664062e+01 -8.118922233581542969e+00 -7.596738934516906738e-01 5.283253669738769531e+00 1.357073903083801270e+00 -1.327726244926452637e+00
2.558000000000000000e+03 3.730014801025390625e+01 -1.168434333801269531e+01 -2.923329472541809082e-01 4.100260734558105469e+00 1.142378330230712891e+00 -1.993831396102905273e+00
2.559000000000000000e+03 3.709881210327148438e+01 -1.066700458526611328e+01 -3.061633110046386719e-01 4.067010879516601562e+00 1.128254175186157227e+00 -1.688340902328491211e+00
2.560000000000000000e+03 8.134841918945312500e+00 9.651499748229980469e+00 1.667920053005218506e-01 -6.611701846122741699e-01 -1.483134478330612183e-01 6.257594227790832520e-01
2.561000000000000000e+03 8.673585891723632812e+00 7.936952114105224609e+00 8.024060726165771484e-02 -6.338734030723571777e-01 -1.660898476839065552e-01 7.010540962219238281e-01
2.562000000000000000e+03 5.065253448486328125e+01 -2.551946830749511719e+01 2.269230365753173828e+00 4.884100437164306641e+00 2.145999193191528320e+00 -1.811290383338928223e+00
2.563000000000000000e+03 4.936234283447265625e+01 -1.909220695495605469e+01 2.647036015987396240e-01 4.756756305694580078e+00 1.506438016891479492e+00 -8.984678387641906738e-01
2.564000000000000000e+03 4.777829742431640625e+01 -2.110516166687011719e+01 1.828454256057739258e+00 6.096953392028808594e+00 2.377622127532958984e+00 -1.538148522377014160e+00
2.565000000000000000e+03 1.314734554290771484e+01 8.327293395996093750e+00 3.244782388210296631e-01 -5.420462489128112793e-01 -6.527039408683776855e-02 5.663318634033203125e-01
2.566000000000000000e+03 7.247788429260253906e+00 1.037838745117187500e+01 1.592512577772140503e-01 -6.935425996780395508e-01 -1.602873951196670532e-01 5.747558474540710449e-01
2.567000000000000000e+03 3.509291458129882812e+01 2.522694778442382812e+01 1.630769520998001099e-01 4.914799213409423828e+00 1.523362874984741211e+00 -5.388810038566589355e-01
2.568000000000000000e+03 1.209530448913574219e+01 -9.453239440917968750e+00 4.238421022891998291e-01 1.892943859100341797e+00 6.950358152389526367e-01 -9.293715655803680420e-02
2.569000000000000000e+03 1.025433254241943359e+01 -1.047562026977539062e+01 7.881734967231750488e-01 2.032269477844238281e+00 8.461329340934753418e-01 -3.618962466716766357e-01
2.570000000000000000e+03 8.001239776611328125e+00 1.535191154479980469e+01 2.648376226425170898e-01 -6.786325573921203613e-01 -1.241384819149971008e-01 3.382479846477508545e-01
2.571000000000000000e+03 3.816334915161132812e+01 -1.029081058502197266e+01 -5.252346992492675781e-01 4.663686275482177734e+00 1.241535544395446777e+00 -1.729016065597534180e+00
2.572000000000000000e+03 4.654920578002929688e+01 -3.327423858642578125e+01 -3.784201741218566895e-01 6.735370159149169922e+00 1.907084941864013672e+00 -9.088513851165771484e-01
2.573000000000000000e+03 1.037347316741943359e+01 3.021710586547851562e+01 4.432430118322372437e-02 -7.547396421432495117e-02 -9.344900026917457581e-03 -1.778442561626434326e-01
2.574000000000000000e+03 3.921701431274414062e+01 -2.472053289413452148e+00 -3.222098946571350098e-01 5.583457469940185547e+00 1.578374147415161133e+00 -9.126492738723754883e-01
2.575000000000000000e+03 8.725140571594238281e+00 1.215696239471435547e+01 2.796860337257385254e-01 -6.485986113548278809e-01 -1.106737628579139709e-01 5.013191699981689453e-01
2.576000000000000000e+03 8.019267082214355469e+00 1.280756568908691406e+01 2.497008144855499268e-01 -6.819179058074951172e-01 -1.296651214361190796e-01 4.722531735897064209e-01
2.577000000000000000e+03 3.418715667724609375e+01 1.465498828887939453e+01 1.531317114830017090e+00 5.361772060394287109e+00 2.067926883697509766e+00 -6.832526922225952148e-01
2.578000000000000000e+03 3.564555740356445312e+01 1.399174690246582031e+01 1.605275630950927734e+00 6.151207447052001953e+00 2.326944828033447266e+00 -6.540598273277282715e-01
2.579000000000000000e+03 4.460106277465820312e+01 -1.590937805175781250e+01 -8.103436231613159180e-01 7.662996292114257812e+00 2.055795907974243164e+00 -9.476723074913024902e-01
2.580000000000000000e+03 4.262033462524414062e+01 -1.291111660003662109e+01 -1.302634239196777344e+00 6.825878620147705078e+00 1.656973242759704590e+00 -1.488070368766784668e+00
2.581000000000000000e+03 3.378604888916015625e+01 9.849609375000000000e+00 1.544925332069396973e+00 5.082146644592285156e+00 1.988121509552001953e+00 -3.882685601711273193e-01
2.582000000000000000e+03 5.015961456298828125e+01 -2.298759078979492188e+01 2.027856588363647461e+00 4.549073696136474609e+00 1.973079085350036621e+00 -1.654599070549011230e+00
2.583000000000000000e+03 5.183939361572265625e+01 -2.034292602539062500e+01 7.184813618659973145e-01 2.683469772338867188e+00 1.020585298538208008e+00 -9.124255776405334473e-01
2.584000000000000000e+03 4.904656219482421875e+01 -2.142404556274414062e+01 1.654591083526611328e+00 5.158714771270751953e+00 2.043991804122924805e+00 -1.529599666595458984e+00
2.585000000000000000e+03 3.346429824829101562e+01 1.667158508300781250e+01 1.292435407638549805e+00 4.991121292114257812e+00 1.885066986083984375e+00 -7.330388426780700684e-01
2.586000000000000000e+03 8.606060981750488281e+00 -3.879887390136718750e+01 -3.118477761745452881e-01 8.542023897171020508e-01 1.627063900232315063e-01 1.308017373085021973e-01
2.587000000000000000e+03 3.991917037963867188e+01 -1.221876144409179688e+01 -9.076790213584899902e-01 5.644918441772460938e+00 1.421171784400939941e+00 -2.035003423690795898e+00
2.588000000000000000e+03 3.617679977416992188e+01 6.158183574676513672e+00 1.124154806137084961e+00 6.018612861633300781e+00 2.142830371856689453e+00 -2.699535191059112549e-01
2.589000000000000000e+03 3.666744232177734375e+01 5.045321583747863770e-01 4.771007224917411804e-02 5.468148231506347656e+00 1.654757499694824219e+00 -4.168806970119476318e-01
2.590000000000000000e+03 3.889315414428710938e+01 -3.384993076324462891e+00 -3.895570039749145508e-01 5.443828105926513672e+00 1.516281366348266602e+00 -8.924521207809448242e-01
2.591000000000000000e+03 5.253822326660156250e+01 -3.495138549804687500e+01 -1.469970913603901863e-03 5.914461135864257812e+00 1.773897409439086914e+00 -6.625325679779052734e-01
2.592000000000000000e+03 1.012112140655517578e+01 2.464484214782714844e+01 1.781779974699020386e-01 -2.459293752908706665e-01 -2.032541483640670776e-02 -7.792488485574722290e-02
2.593000000000000000e+03 5.272005462646484375e+01 -2.212685394287109375e+01 1.454767107963562012e+00 2.589325189590454102e+00 1.213227629661560059e+00 -7.671804428100585938e-01
2.594000000000000000e+03 7.505334472656250000e+01 -4.034530639648437500e+01 -4.061254113912582397e-02 6.346517562866210938e+00 1.891771554946899414e+00 -1.308985948562622070e-01
2.595000000000000000e+03 9.698473930358886719e+00 3.803841018676757812e+01 -8.398880809545516968e-02 -1.023773327469825745e-01 -5.590984225273132324e-02 -8.100312948226928711e-02
2.596000000000000000e+03 2.416658592224121094e+01 -3.655537033081054688e+01 -1.048060536384582520e+00 -1.346303522586822510e-01 -3.548072576522827148e-01 7.186253368854522705e-02
2.597000000000000000e+03 2.705210876464843750e+01 -4.117084503173828125e+01 -7.579463124275207520e-01 -2.324783354997634888e-01 -2.971273958683013916e-01 -3.538405150175094604e-02
2.598000000000000000e+03 5.231352233886718750e+01 -3.341696929931640625e+01 9.672971367835998535e-01 5.928373336791992188e+00 2.068701028823852539e+00 -9.650990962982177734e-01
2.599000000000000000e+03 4.250442123413085938e+01 4.106663894653320312e+01 -1.293398380279541016e+00 3.824166774749755859e+00 7.592305541038513184e-01 3.883491456508636475e-02
2.600000000000000000e+03 2.638150215148925781e+01 -8.450201034545898438e+00 6.214997768402099609e-01 2.357988834381103516e+00 8.938465714454650879e-01 2.241858243942260742e+00
2.601000000000000000e+03 2.616074752807617188e+01 -7.705101966857910156e+00 -6.497966498136520386e-02 2.521635293960571289e+00 7.369966506958007812e-01 1.883144974708557129e+00
2.602000000000000000e+03 2.795749664306640625e+01 -9.660940170288085938e+00 1.881681919097900391e+00 1.072805762290954590e+00 8.863462805747985840e-01 1.453888058662414551e+00
2.603000000000000000e+03 2.665523529052734375e+01 -7.960376739501953125e+00 3.498256504535675049e-01 2.360895395278930664e+00 8.132162690162658691e-01 1.999745488166809082e+00
2.604000000000000000e+03 2.653098487854003906e+01 -9.237669944763183594e+00 1.573112845420837402e+00 1.925560832023620605e+00 1.049602150917053223e+00 2.465292692184448242e+00
2.605000000000000000e+03 2.500516319274902344e+01 -6.141452789306640625e+00 -9.527317881584167480e-01 2.145423412322998047e+00 3.578074872493743896e-01 1.064013719558715820e+00
2.606000000000000000e+03 2.072194099426269531e+01 3.090592145919799805e+00 -6.762465834617614746e-02 3.434767425060272217e-01 8.275562524795532227e-02 2.255560457706451416e-01
2.607000000000000000e+03 2.043051147460937500e+01 1.172194361686706543e+00 -4.692696332931518555e-01 9.602250158786773682e-02 -1.119741350412368774e-01 3.520394265651702881e-01
2.608000000000000000e+03 2.526583290100097656e+01 -3.842532157897949219e+00 -8.892217874526977539e-01 1.972677111625671387e+00 3.250366151332855225e-01 6.465075612068176270e-01
2.609000000000000000e+03 2.157616806030273438e+01 1.208632111549377441e+00 -3.927002847194671631e-01 4.933202862739562988e-01 3.018600307404994965e-02 2.619271278381347656e-01
2.610000000000000000e+03 9.311241149902343750e+00 -9.291835784912109375e+00 9.213089942932128906e-02 1.560135006904602051e+00 4.956797659397125244e-01 -7.585077285766601562e-01
2.611000000000000000e+03 2.551237869262695312e+01 -2.880099534988403320e+00 -7.751787900924682617e-01 2.016490221023559570e+00 3.723934590816497803e-01 5.249108076095581055e-01
2.612000000000000000e+03 2.551676750183105469e+01 -4.368049144744873047e+00 -8.663727045059204102e-01 2.097347974777221680e+00 3.692926168441772461e-01 7.573592662811279297e-01
2.613000000000000000e+03 1.031840896606445312e+01 7.564372539520263672e+00 1.119884178042411804e-01 -6.546719074249267578e-01 -1.628050506114959717e-01 7.179690599441528320e-01
2.614000000000000000e+03 1.837184333801269531e+01 4.669589996337890625e+00 1.066211983561515808e-01 -1.397165060043334961e-01 -9.928593412041664124e-03 3.383342921733856201e-01
2.615000000000000000e+03 1.879609298706054688e+01 3.417399883270263672e+00 -1.052973866462707520e-01 -1.571277081966400146e-01 -7.872752845287322998e-02 3.665648698806762695e-01
2.616000000000000000e+03 2.023179054260253906e+01 2.392036676406860352e+00 -2.274710088968276978e-01 1.385272592306137085e-01 -2.668312191963195801e-02 2.944277822971343994e-01
2.617000000000000000e+03 2.518560981750488281e+01 -2.231456756591796875e+00 -7.377410531044006348e-01 1.867486834526062012e+00 3.389237523078918457e-01 4.416474997997283936e-01
2.618000000000000000e+03 2.464153289794921875e+01 -2.677051782608032227e+00 -8.531584143638610840e-01 1.660904049873352051e+00 2.423236966133117676e-01 4.670269489288330078e-01
2.619000000000000000e+03 1.720499420166015625e+01 5.560878753662109375e+00 1.967377811670303345e-01 -2.828402817249298096e-01 -2.583075314760208130e-02 3.969091773033142090e-01
2.620000000000000000e+03 1.920884895324707031e+01 4.195017814636230469e+00 6.446002423763275146e-02 2.634205296635627747e-02 2.724062278866767883e-02 2.875280082225799561e-01
2.621000000000000000e+03 2.480585479736328125e+01 -1.557393193244934082e+00 -6.817684769630432129e-01 1.702296495437622070e+00 3.061583936214447021e-01 3.628894090652465820e-01
2.622000000000000000e+03 2.968477439880371094e+01 -1.004770374298095703e+01 1.434890031814575195e+00 1.064642190933227539e+00 7.498596906661987305e-01 4.523655772209167480e-01
2.623000000000000000e+03 2.905557441711425781e+01 -9.614475250244140625e+00 1.510227322578430176e+00 1.160778999328613281e+00 8.013018965721130371e-01 8.723204731941223145e-01
2.624000000000000000e+03 8.026240348815917969e+00 8.267923355102539062e+00 7.594612240791320801e-02 -6.344469189643859863e-01 -1.675502359867095947e-01 6.742982864379882812e-01
2.625000000000000000e+03 1.723418045043945312e+01 6.979272365570068359e+00 3.801631331443786621e-01 -1.615536361932754517e-01 6.558284908533096313e-02 3.395062983036041260e-01
2.626000000000000000e+03 3.961473464965820312e+01 -5.405826568603515625e+00 -5.500761270523071289e-01 5.352336406707763672e+00 1.440678119659423828e+00 -1.087569832801818848e+00
2.627000000000000000e+03 4.030986022949218750e+01 -6.369303703308105469e+00 -6.829206943511962891e-01 5.434111118316650391e+00 1.425357222557067871e+00 -1.174150943756103516e+00
2.628000000000000000e+03 2.437235069274902344e+01 -8.696472644805908203e-01 -6.076700687408447266e-01 1.519200563430786133e+00 2.734591662883758545e-01 3.054570555686950684e-01
2.629000000000000000e+03 1.360507583618164062e+01 6.706328392028808594e+00 1.907987445592880249e-01 -6.032139062881469727e-01 -1.237245500087738037e-01 6.214630007743835449e-01
2.630000000000000000e+03 1.231789207458496094e+01 7.195881366729736328e+00 1.726061403751373291e-01 -6.432595252990722656e-01 -1.411960124969482422e-01 6.724709272384643555e-01
2.631000000000000000e+03 3.414306640625000000e+01 -9.699275970458984375e+00 3.199034333229064941e-01 2.744006872177124023e+00 9.191730618476867676e-01 -9.448469877243041992e-01
2.632000000000000000e+03 3.020978355407714844e+01 -9.377892494201660156e+00 1.127094507217407227e+00 1.466266632080078125e+00 7.780083417892456055e-01 4.298009872436523438e-01
2.633000000000000000e+03 2.450047302246093750e+01 3.948203623294830322e-01 -3.838916420936584473e-01 1.568945169448852539e+00 3.555160462856292725e-01 2.183454036712646484e-01
2.634000000000000000e+03 1.545407867431640625e+01 7.076325416564941406e+00 3.229970335960388184e-01 -4.099889099597930908e-01 -2.609756030142307281e-02 4.684939384460449219e-01
2.635000000000000000e+03 1.533266258239746094e+01 6.042908668518066406e+00 1.807258427143096924e-01 -5.118369460105895996e-01 -9.933333098888397217e-02 5.253536105155944824e-01
2.636000000000000000e+03 1.128030872344970703e+01 7.230968952178955078e+00 1.249839290976524353e-01 -6.605150103569030762e-01 -1.606593281030654907e-01 7.101572155952453613e-01
2.637000000000000000e+03 9.807015419006347656e+00 9.928030967712402344e+00 2.536008059978485107e-01 -6.249823570251464844e-01 -1.114144697785377502e-01 6.092774868011474609e-01
2.638000000000000000e+03 3.846657562255859375e+01 -1.137680625915527344e+01 -6.015697121620178223e-01 4.784519195556640625e+00 1.254884839057922363e+00 -1.936197400093078613e+00
2.639000000000000000e+03 3.875063705444335938e+01 -8.702426910400390625e+00 -6.181098818778991699e-01 4.936309337615966797e+00 1.295459866523742676e+00 -1.419134378433227539e+00
2.640000000000000000e+03 3.856614685058593750e+01 -1.778562784194946289e+00 -2.474893629550933838e-01 5.574513912200927734e+00 1.598107337951660156e+00 -7.712805867195129395e-01
2.641000000000000000e+03 5.034944915771484375e+01 -2.160610198974609375e+01 1.527341604232788086e+00 4.065104484558105469e+00 1.677733898162841797e+00 -1.370784163475036621e+00
2.642000000000000000e+03 7.049699401855468750e+01 -1.639006805419921875e+01 -2.683037519454956055e-01 4.459275722503662109e+00 1.257291674613952637e+00 -6.492270827293395996e-01
2.643000000000000000e+03 1.025827312469482422e+01 -9.453250885009765625e+00 2.283451408147811890e-01 1.796171665191650391e+00 6.073550581932067871e-01 -5.120639204978942871e-01
2.644000000000000000e+03 1.034815692901611328e+01 -7.658447742462158203e+00 -5.266174674034118652e-01 1.388309597969055176e+00 2.585076093673706055e-01 -5.742183327674865723e-01
2.645000000000000000e+03 8.007619857788085938e+00 -8.181173324584960938e+00 -2.892079651355743408e-01 1.011355400085449219e+00 2.166442424058914185e-01 -1.027740120887756348e+00
2.646000000000000000e+03 4.385605239868164062e+01 -1.269660663604736328e+01 -1.422778606414794922e+00 6.760672092437744141e+00 1.601368069648742676e+00 -1.029863953590393066e+00
2.647000000000000000e+03 4.379769515991210938e+01 -1.152826499938964844e+01 -1.379284143447875977e+00 6.406329631805419922e+00 1.508113622665405273e+00 -1.007783889770507812e+00
2.648000000000000000e+03 4.096634292602539062e+01 -1.058952808380126953e+01 -1.071850657463073730e+00 5.809686660766601562e+00 1.421350717544555664e+00 -1.578636050224304199e+00
2.649000000000000000e+03 3.663266754150390625e+01 -8.357447385787963867e-01 -9.410059452056884766e-02 5.266200065612792969e+00 1.551629781723022461e+00 -4.549903571605682373e-01
2.650000000000000000e+03 3.798417282104492188e+01 -9.197549819946289062e-01 -1.479624956846237183e-01 5.592725753784179688e+00 1.633428931236267090e+00 -6.689579486846923828e-01
2.651000000000000000e+03 3.597451019287109375e+01 -1.350902199745178223e+00 -1.126818284392356873e-01 5.007628440856933594e+00 1.468483924865722656e+00 -3.598102033138275146e-01
2.652000000000000000e+03 3.688277435302734375e+01 4.583667278289794922e+00 7.357432842254638672e-01 6.168884754180908203e+00 2.071388244628906250e+00 -3.519143462181091309e-01
2.653000000000000000e+03 8.511416435241699219e+00 1.369308853149414062e+01 2.821855843067169189e-01 -6.461875438690185547e-01 -1.092005819082260132e-01 4.250951409339904785e-01
2.654000000000000000e+03 8.684247970581054688e+00 1.630911445617675781e+01 2.915180027484893799e-01 -6.066455841064453125e-01 -9.453826397657394409e-02 2.892474234104156494e-01
2.655000000000000000e+03 4.008456420898437500e+01 -1.730116128921508789e+00 -2.664755880832672119e-01 5.851035594940185547e+00 1.675367951393127441e+00 -1.025428771972656250e+00
2.656000000000000000e+03 9.418769836425781250e+00 1.859137916564941406e+01 3.038155436515808105e-01 -4.758815765380859375e-01 -5.161980539560317993e-02 1.609732210636138916e-01
2.657000000000000000e+03 9.763192176818847656e+00 2.152391433715820312e+01 2.558969557285308838e-01 -3.661258220672607422e-01 -3.306865692138671875e-02 2.315356396138668060e-02
2.658000000000000000e+03 4.155757141113281250e+01 -8.602933883666992188e+00 -9.832874536514282227e-01 5.721009254455566406e+00 1.421316504478454590e+00 -1.295555472373962402e+00
2.659000000000000000e+03 7.107576847076416016e+00 2.172797966003417969e+01 1.534571945667266846e-01 -7.470768094062805176e-01 -1.780858784914016724e-01 6.116977706551551819e-02
2.660000000000000000e+03 1.156869125366210938e+01 1.604143524169921875e+01 4.518030583858489990e-01 -3.089732527732849121e-01 4.284894466400146484e-02 2.244102954864501953e-01
2.661000000000000000e+03 1.098945140838623047e+01 1.758794212341308594e+01 3.963444232940673828e-01 -3.181878626346588135e-01 2.344696968793869019e-02 1.619110256433486938e-01
2.662000000000000000e+03 8.663898468017578125e+00 8.803561210632324219e+00 1.423635035753250122e-01 -6.471794247627258301e-01 -1.514447778463363647e-01 6.602651476860046387e-01
2.663000000000000000e+03 9.983094215393066406e+00 2.304079246520996094e+01 2.302018702030181885e-01 -3.005208075046539307e-01 -2.109568193554878235e-02 -2.937253937125205994e-02
2.664000000000000000e+03 7.254642486572265625e+00 1.317783927917480469e+01 2.108845561742782593e-01 -7.356743216514587402e-01 -1.574369221925735474e-01 4.445479810237884521e-01
2.665000000000000000e+03 4.808373641967773438e+01 -1.994583320617675781e+01 1.214183688163757324e+00 5.943250656127929688e+00 2.147230148315429688e+00 -1.153387546539306641e+00
2.666000000000000000e+03 3.966767501831054688e+01 -1.100222206115722656e+01 -8.236843943595886230e-01 5.387238025665283203e+00 1.369065999984741211e+00 -1.837788105010986328e+00
2.667000000000000000e+03 3.921267318725585938e+01 -7.017677307128906250e+00 -6.156029105186462402e-01 5.141476631164550781e+00 1.357762098312377930e+00 -1.199121356010437012e+00
2.668000000000000000e+03 3.485705947875976562e+01 -1.096006870269775391e+01 2.189487665891647339e-01 2.744062900543212891e+00 8.889034986495971680e-01 -1.365234255790710449e+00
2.669000000000000000e+03 3.321691513061523438e+01 -9.450209617614746094e+00 4.911457002162933350e-01 2.409781455993652344e+00 8.702781200408935547e-01 -6.616809964179992676e-01
2.670000000000000000e+03 9.334760665893554688e+00 1.305898380279541016e+01 3.236530721187591553e-01 -5.931190848350524902e-01 -8.083981275558471680e-02 4.453800916671752930e-01
2.671000000000000000e+03 3.338977813720703125e+01 1.331307029724121094e+01 1.583031535148620605e+00 4.946592807769775391e+00 1.958887338638305664e+00 -6.017610430717468262e-01
2.672000000000000000e+03 3.500700759887695312e+01 1.266997146606445312e+01 1.693361043930053711e+00 5.714364051818847656e+00 2.222317457199096680e+00 -6.173948049545288086e-01
2.673000000000000000e+03 3.508728027343750000e+01 -9.873446464538574219e+00 9.500620514154434204e-02 3.195775032043457031e+00 9.872343540191650391e-01 -1.220928192138671875e+00
2.674000000000000000e+03 3.243601226806640625e+01 1.864390182495117188e+01 1.106727361679077148e+00 4.550767898559570312e+00 1.697248578071594238e+00 -7.892678380012512207e-01
2.675000000000000000e+03 1.146957778930664062e+01 2.292944908142089844e+01 2.732461094856262207e-01 -7.380560040473937988e-02 5.983215570449829102e-02 -7.356949150562286377e-02
2.676000000000000000e+03 1.177235126495361328e+01 2.658865547180175781e+01 1.562336534261703491e-01 8.480077236890792847e-02 7.231032848358154297e-02 -1.658691316843032837e-01
2.677000000000000000e+03 3.495070648193359375e+01 6.380528926849365234e+00 1.118721723556518555e+00 5.447157859802246094e+00 1.969763755798339844e+00 -2.264489978551864624e-01
2.678000000000000000e+03 3.365833663940429688e+01 2.162834358215332031e+01 6.546377539634704590e-01 4.793410301208496094e+00 1.634414315223693848e+00 -7.045109868049621582e-01
2.679000000000000000e+03 3.430373382568359375e+01 2.846947097778320312e+01 -2.589163780212402344e-01 4.484863281250000000e+00 1.267784118652343750e+00 -5.287445187568664551e-01
2.680000000000000000e+03 5.319220733642578125e+01 -4.095224380493164062e+01 -1.273279070854187012e+00 5.558442592620849609e+00 1.285549044609069824e+00 -2.046240717172622681e-01
2.681000000000000000e+03 5.180590057373046875e+01 -3.702933883666992188e+01 -8.092551827430725098e-01 6.099289894104003906e+00 1.587010383605957031e+00 -4.816501736640930176e-01
2.682000000000000000e+03 3.375753784179687500e+01 8.873198509216308594e+00 1.396677136421203613e+00 5.038363456726074219e+00 1.930512189865112305e+00 -3.311874866485595703e-01
2.683000000000000000e+03 1.009596729278564453e+01 3.538622283935546875e+01 -6.936128437519073486e-02 -3.459492698311805725e-02 -3.118686191737651825e-02 -1.189862340688705444e-01
2.684000000000000000e+03 3.027179908752441406e+01 -3.990216064453125000e+01 -7.502413988113403320e-01 -9.006256610155105591e-02 -2.520911991596221924e-01 -8.122514933347702026e-02
2.685000000000000000e+03 4.730962371826171875e+01 -3.508699417114257812e+01 -8.939006328582763672e-01 6.325543403625488281e+00 1.629492878913879395e+00 -6.725242733955383301e-01
2.686000000000000000e+03 5.120223999023437500e+01 -3.430083465576171875e+01 7.043842971324920654e-02 6.137508392333984375e+00 1.862384080886840820e+00 -7.564601302146911621e-01
2.687000000000000000e+03 2.578543472290039062e+01 -6.786538124084472656e+00 -6.169019341468811035e-01 2.496558189392089844e+00 5.638968348503112793e-01 1.438842773437500000e+00
2.688000000000000000e+03 2.585321998596191406e+01 -7.289293289184570312e+00 -3.724219501018524170e-01 2.544671773910522461e+00 6.516749262809753418e-01 1.700936079025268555e+00
2.689000000000000000e+03 2.583404922485351562e+01 -6.301518440246582031e+00 -6.932231783866882324e-01 2.402239322662353516e+00 5.127048492431640625e-01 1.259704351425170898e+00
2.690000000000000000e+03 2.520808219909667969e+01 -5.737416744232177734e+00 -9.285439848899841309e-01 2.145713806152343750e+00 3.651509284973144531e-01 1.012737751007080078e+00
2.691000000000000000e+03 2.749972152709960938e+01 -9.130439758300781250e+00 1.539960026741027832e+00 1.549446702003479004e+00 9.268220067024230957e-01 1.883240222930908203e+00
2.692000000000000000e+03 2.550751495361328125e+01 -5.848949432373046875e+00 -8.353878259658813477e-01 2.252515554428100586e+00 4.251382946968078613e-01 1.075963973999023438e+00
2.693000000000000000e+03 2.724051284790039062e+01 -8.114748954772949219e+00 6.902588009834289551e-01 2.091814756393432617e+00 8.346220850944519043e-01 1.859508275985717773e+00
2.694000000000000000e+03 1.113496112823486328e+01 -8.603742599487304688e+00 -1.455540806055068970e-01 1.680241465568542480e+00 4.604062139987945557e-01 -3.889553844928741455e-01
2.695000000000000000e+03 2.630589866638183594e+01 -5.226926326751708984e+00 -6.957719326019287109e-01 2.388194322586059570e+00 5.077267289161682129e-01 9.925946593284606934e-01
2.696000000000000000e+03 2.694216346740722656e+01 -2.905173540115356445e+00 -5.800231695175170898e-01 2.464511632919311523e+00 5.653465390205383301e-01 5.718589425086975098e-01
2.697000000000000000e+03 3.183523559570312500e+01 -1.007703113555908203e+01 8.119807839393615723e-01 1.742392659187316895e+00 7.663120627403259277e-01 -3.229155838489532471e-01
2.698000000000000000e+03 2.091743850708007812e+01 1.816657423973083496e+00 -3.048946857452392578e-01 3.141891658306121826e-01 2.788348356261849403e-03 2.756871283054351807e-01
2.699000000000000000e+03 2.852960586547851562e+01 -9.170989990234375000e+00 1.449275612831115723e+00 1.354267239570617676e+00 8.410628437995910645e-01 1.256148219108581543e+00
2.700000000000000000e+03 2.142753982543945312e+01 2.487739801406860352e+00 -1.493080407381057739e-01 5.205996632575988770e-01 1.113874912261962891e-01 2.056776881217956543e-01
2.701000000000000000e+03 2.577182769775390625e+01 -1.808285832405090332e+00 -6.240306496620178223e-01 2.077799320220947266e+00 4.361306428909301758e-01 4.106742143630981445e-01
2.702000000000000000e+03 2.578999328613281250e+01 -3.496369600296020508e+00 -7.817973494529724121e-01 2.137570858001708984e+00 4.067320525646209717e-01 6.269811987876892090e-01
2.703000000000000000e+03 1.878483581542968750e+01 5.575424671173095703e+00 2.666519880294799805e-01 2.693554945290088654e-02 8.807625621557235718e-02 2.684692442417144775e-01
2.704000000000000000e+03 1.795599174499511719e+01 6.263471126556396484e+00 3.216643333435058594e-01 -8.754611760377883911e-02 7.023546099662780762e-02 3.032909333705902100e-01
2.705000000000000000e+03 1.754782676696777344e+01 4.807512760162353516e+00 9.778478741645812988e-02 -2.763148248195648193e-01 -5.355900898575782776e-02 3.986146748065948486e-01
2.706000000000000000e+03 3.628502655029296875e+01 -9.062645912170410156e+00 -1.627670675516128540e-01 3.871799707412719727e+00 1.112709760665893555e+00 -1.233895301818847656e+00
2.707000000000000000e+03 1.998559570312500000e+01 3.660096883773803711e+00 1.685130991972982883e-03 1.687201708555221558e-01 5.112158879637718201e-02 2.488566190004348755e-01
2.708000000000000000e+03 3.143251419067382812e+01 -8.939433097839355469e+00 7.621927261352539062e-01 1.992528915405273438e+00 8.264164924621582031e-01 5.221578478813171387e-02
2.709000000000000000e+03 7.875469684600830078e+00 -9.380561828613281250e+00 1.717251725494861603e-02 1.179187893867492676e+00 3.589081168174743652e-01 -1.002380609512329102e+00
2.710000000000000000e+03 1.787788963317871094e+01 7.867991447448730469e+00 5.089573860168457031e-01 2.514780499041080475e-02 1.602315604686737061e-01 2.433279454708099365e-01
2.711000000000000000e+03 2.540637588500976562e+01 -1.079306602478027344e+00 -5.570011138916015625e-01 1.923296570777893066e+00 4.098886251449584961e-01 3.364652395248413086e-01
2.712000000000000000e+03 3.452624130249023438e+01 -8.684274673461914062e+00 1.582904309034347534e-01 3.182776451110839844e+00 1.002320051193237305e+00 -8.220845460891723633e-01
2.713000000000000000e+03 3.683448410034179688e+01 -9.745904922485351562e+00 -2.711585164070129395e-01 4.073367595672607422e+00 1.140662789344787598e+00 -1.493565440177917480e+00
2.714000000000000000e+03 2.274797058105468750e+01 1.191661477088928223e+00 -3.368096351623535156e-01 9.236612915992736816e-01 1.760554909706115723e-01 2.044419646263122559e-01
2.715000000000000000e+03 2.210486030578613281e+01 1.852118253707885742e+00 -2.380709499120712280e-01 7.217369079589843750e-01 1.450997889041900635e-01 2.032341212034225464e-01
2.716000000000000000e+03 3.278102493286132812e+01 -1.038319492340087891e+01 6.404307484626770020e-01 1.903479337692260742e+00 7.631730437278747559e-01 -7.032999992370605469e-01
2.717000000000000000e+03 3.066584014892578125e+01 -8.638484001159667969e+00 8.512573838233947754e-01 1.865835428237915039e+00 8.151278495788574219e-01 3.641522228717803955e-01
2.718000000000000000e+03 9.481348037719726562e+00 -8.350906372070312500e+00 -2.610741853713989258e-01 1.381119966506958008e+00 3.360137343406677246e-01 -7.456783056259155273e-01
2.719000000000000000e+03 1.049869155883789062e+01 8.558515548706054688e+00 2.084995508193969727e-01 -6.359924674034118652e-01 -1.282478719949722290e-01 6.642941832542419434e-01
2.720000000000000000e+03 2.498585700988769531e+01 -3.405556976795196533e-01 -4.749191105365753174e-01 1.756649851799011230e+00 3.845192193984985352e-01 2.678260505199432373e-01
2.721000000000000000e+03 1.189602184295654297e+01 1.699675178527832031e+01 4.333281219005584717e-01 -2.351066917181015015e-01 5.946643278002738953e-02 1.663298308849334717e-01
2.722000000000000000e+03 9.054116249084472656e+00 1.463787651062011719e+01 3.195621967315673828e-01 -5.910768508911132812e-01 -8.145438879728317261e-02 3.661103248596191406e-01
2.723000000000000000e+03 1.598147869110107422e+01 6.693628787994384766e+00 2.946552932262420654e-01 -3.841198682785034180e-01 -2.683936804533004761e-02 4.459084272384643555e-01
2.724000000000000000e+03 1.442157077789306641e+01 7.136949062347412109e+00 2.822158634662628174e-01 -5.176581144332885742e-01 -7.063267379999160767e-02 5.426654219627380371e-01
2.725000000000000000e+03 1.155246639251708984e+01 9.274076461791992188e+00 3.086453378200531006e-01 -5.768586397171020508e-01 -8.046398311853408813e-02 5.939276218414306641e-01
2.726000000000000000e+03 1.011377239227294922e+01 1.244158363342285156e+01 3.630232214927673340e-01 -5.590168237686157227e-01 -5.879808589816093445e-02 4.609393179416656494e-01
2.727000000000000000e+03 1.227989768981933594e+01 8.220711708068847656e+00 2.733068466186523438e-01 -5.877032279968261719e-01 -9.431892633438110352e-02 6.172898411750793457e-01
2.728000000000000000e+03 2.048170089721679688e+01 4.416338920593261719e+00 1.508575975894927979e-01 3.660720884799957275e-01 1.550789028406143188e-01 1.848129332065582275e-01
2.729000000000000000e+03 3.229462814331054688e+01 -9.207215309143066406e+00 6.500499248504638672e-01 2.137534618377685547e+00 8.362753391265869141e-01 -3.063490092754364014e-01
2.730000000000000000e+03 3.655274581909179688e+01 1.959367632865905762e+00 2.492051869630813599e-01 5.648477554321289062e+00 1.769304752349853516e+00 -3.662377595901489258e-01
2.731000000000000000e+03 3.627300262451171875e+01 3.486107826232910156e+00 5.203064084053039551e-01 5.762221813201904297e+00 1.884758472442626953e+00 -3.017311096191406250e-01
2.732000000000000000e+03 3.744623184204101562e+01 -6.475440502166748047e+00 -3.786329329013824463e-01 4.669757366180419922e+00 1.287337422370910645e+00 -9.788637161254882812e-01
2.733000000000000000e+03 3.928486633300781250e+01 -9.831461906433105469e+00 -7.671456336975097656e-01 5.148128032684326172e+00 1.314294695854187012e+00 -1.617226004600524902e+00
2.734000000000000000e+03 3.772047805786132812e+01 -9.248051643371582031e+00 -4.556536674499511719e-01 4.492810249328613281e+00 1.211147069931030273e+00 -1.474669933319091797e+00
2.735000000000000000e+03 3.539825820922851562e+01 -8.845530509948730469e+00 3.143858048133552074e-04 3.532766819000244141e+00 1.059924364089965820e+00 -1.050575137138366699e+00
2.736000000000000000e+03 4.050305557250976562e+01 -9.301156044006347656e+00 -9.140161275863647461e-01 5.539574623107910156e+00 1.387667655944824219e+00 -1.463639616966247559e+00
2.737000000000000000e+03 3.376833343505859375e+01 7.341773986816406250e+00 1.231368422508239746e+00 5.007766723632812500e+00 1.871740579605102539e+00 -1.966963708400726318e-01
2.738000000000000000e+03 3.501218414306640625e+01 7.508022785186767578e+00 1.319778084754943848e+00 5.542967796325683594e+00 2.058823585510253906e+00 -2.746135294437408447e-01
2.739000000000000000e+03 9.509342193603515625e+00 1.150331115722656250e+01 3.012887835502624512e-01 -6.105732321739196777e-01 -9.278534352779388428e-02 5.274301171302795410e-01
2.740000000000000000e+03 3.139360809326171875e+01 1.627702903747558594e+01 1.280668854713439941e+00 4.099388122558593750e+00 1.614017128944396973e+00 -7.091900110244750977e-01
2.741000000000000000e+03 3.273717498779296875e+01 1.542569541931152344e+01 1.408194065093994141e+00 4.665048599243164062e+00 1.821972846984863281e+00 -6.957840919494628906e-01
2.742000000000000000e+03 3.418189239501953125e+01 4.368618011474609375e+00 6.962484121322631836e-01 5.034117698669433594e+00 1.719109892845153809e+00 -1.084917411208152771e-01
2.743000000000000000e+03 3.576119232177734375e+01 5.007872104644775391e+00 8.436461687088012695e-01 5.730054855346679688e+00 1.972110271453857422e+00 -2.297785282135009766e-01
2.744000000000000000e+03 3.234520339965820312e+01 1.210608005523681641e+01 1.527978897094726562e+00 4.515817165374755859e+00 1.813138842582702637e+00 -5.260159373283386230e-01
2.745000000000000000e+03 1.300173568725585938e+01 2.267197036743164062e+01 3.445714116096496582e-01 1.578845232725143433e-01 1.507367789745330811e-01 -1.196471378207206726e-01
2.746000000000000000e+03 1.534233093261718750e+01 2.421943855285644531e+01 3.354946970939636230e-01 6.019068360328674316e-01 2.812204658985137939e-01 -2.642464935779571533e-01
2.747000000000000000e+03 3.142849349975585938e+01 2.079490661621093750e+01 7.872981429100036621e-01 4.100769042968750000e+00 1.466420173645019531e+00 -7.946040034294128418e-01
2.748000000000000000e+03 2.870004844665527344e+01 1.993186187744140625e+01 8.812710046768188477e-01 3.357220649719238281e+00 1.271547436714172363e+00 -7.769663929939270020e-01
2.749000000000000000e+03 3.029126167297363281e+01 2.457804679870605469e+01 3.264060318470001221e-01 3.770926713943481445e+00 1.229199886322021484e+00 -7.881968021392822266e-01
2.750000000000000000e+03 3.083256721496582031e+01 2.717866516113281250e+01 9.227625094354152679e-03 3.847510814666748047e+00 1.157021522521972656e+00 -7.255297899246215820e-01
2.751000000000000000e+03 3.713608932495117188e+01 -1.582646489143371582e+00 -1.715025901794433594e-01 5.276798248291015625e+00 1.531588792800903320e+00 -5.385525822639465332e-01
2.752000000000000000e+03 3.758700180053710938e+01 -2.486827373504638672e+00 -2.570164501667022705e-01 5.267828941345214844e+00 1.503243684768676758e+00 -6.739159226417541504e-01
2.753000000000000000e+03 1.111372566223144531e+01 2.134913253784179688e+01 3.223984539508819580e-01 -1.797079890966415405e-01 4.280713945627212524e-02 -3.739984240382909775e-03
2.754000000000000000e+03 4.830264282226562500e+01 -3.713684463500976562e+01 -1.241997838020324707e+00 6.277300834655761719e+00 1.510590910911560059e+00 -3.901517689228057861e-01
2.755000000000000000e+03 1.190045166015625000e+01 3.184711837768554688e+01 -7.641103584319353104e-03 2.784675359725952148e-01 8.124793320894241333e-02 -2.151394039392471313e-01
2.756000000000000000e+03 1.304661464691162109e+01 3.442276763916015625e+01 -9.105094522237777710e-02 5.160123109817504883e-01 1.274884045124053955e-01 -1.888160854578018188e-01
2.757000000000000000e+03 9.545516967773437500e+00 2.006141853332519531e+01 2.853929698467254639e-01 -4.263573586940765381e-01 -4.228932037949562073e-02 8.815795928239822388e-02
2.758000000000000000e+03 2.730734443664550781e+01 -7.512740135192871094e+00 2.763206660747528076e-01 2.285907983779907227e+00 7.686685919761657715e-01 1.651047468185424805e+00
2.759000000000000000e+03 2.628780364990234375e+01 -6.281529903411865234e+00 -5.588128566741943359e-01 2.473152875900268555e+00 5.743019580841064453e-01 1.320044755935668945e+00
2.760000000000000000e+03 2.540206718444824219e+01 -6.280776500701904297e+00 -8.471763134002685547e-01 2.305856466293334961e+00 4.376040697097778320e-01 1.183574199676513672e+00
2.761000000000000000e+03 2.791277694702148438e+01 -8.044935226440429688e+00 7.635871767997741699e-01 1.985922098159790039e+00 8.248527646064758301e-01 1.609751224517822266e+00
2.762000000000000000e+03 3.107617378234863281e+01 -7.866079330444335938e+00 6.005100011825561523e-01 2.261442184448242188e+00 8.585857152938842773e-01 3.396337926387786865e-01
2.763000000000000000e+03 2.619705963134765625e+01 -4.660050868988037109e+00 -7.348613142967224121e-01 2.316228866577148438e+00 4.744102656841278076e-01 8.623035550117492676e-01
2.764000000000000000e+03 2.671388816833496094e+01 -4.479285240173339844e+00 -6.342496871948242188e-01 2.438386440277099609e+00 5.412410497665405273e-01 8.367766737937927246e-01
2.765000000000000000e+03 2.634924697875976562e+01 -3.185203075408935547e+00 -6.825375556945800781e-01 2.306104898452758789e+00 4.870701730251312256e-01 5.966978073120117188e-01
2.766000000000000000e+03 2.394679832458496094e+01 1.120883107185363770e+00 -2.890836596488952637e-01 1.368208646774291992e+00 3.237374722957611084e-01 1.769268512725830078e-01
2.767000000000000000e+03 2.334389305114746094e+01 5.135728120803833008e-01 -4.308099150657653809e-01 1.129785656929016113e+00 2.096927464008331299e-01 2.243058532476425171e-01
2.768000000000000000e+03 1.966844177246093750e+01 4.994843006134033203e+00 2.096343636512756348e-01 1.873084008693695068e-01 1.190828308463096619e-01 2.181473225355148315e-01
2.769000000000000000e+03 3.811702346801757812e+01 -7.607027053833007812e+00 -5.043334960937500000e-01 4.765715599060058594e+00 1.278414607048034668e+00 -1.192574977874755859e+00
2.770000000000000000e+03 2.734526824951171875e+01 -5.004444122314453125e+00 -4.529949128627777100e-01 2.547041654586791992e+00 6.282140016555786133e-01 9.550163745880126953e-01
2.771000000000000000e+03 1.937155342102050781e+01 6.413968086242675781e+00 4.018689990043640137e-01 2.221886366605758667e-01 1.872172951698303223e-01 1.833669990301132202e-01
2.772000000000000000e+03 2.019862365722656250e+01 5.788670539855957031e+00 3.505758047103881836e-01 3.825167715549468994e-01 2.199277728796005249e-01 1.530448943376541138e-01
2.773000000000000000e+03 1.927757072448730469e+01 7.890138626098632812e+00 5.673334002494812012e-01 3.025569021701812744e-01 2.609671056270599365e-01 1.481085270643234253e-01
2.774000000000000000e+03 2.640078353881835938e+01 -1.413557291030883789e+00 -5.140740871429443359e-01 2.286134481430053711e+00 5.316181182861328125e-01 3.848256766796112061e-01
2.775000000000000000e+03 2.608675765991210938e+01 -2.510917901992797852e+00 -6.663094758987426758e-01 2.201738595962524414e+00 4.606287777423858643e-01 5.008438229560852051e-01
2.776000000000000000e+03 2.266024589538574219e+01 2.515842676162719727e+00 -9.351874887943267822e-02 9.451861381530761719e-01 2.555002272129058838e-01 1.466154009103775024e-01
2.777000000000000000e+03 1.414850807189941406e+01 7.799752712249755859e+00 3.305369615554809570e-01 -4.936794042587280273e-01 -4.894273728132247925e-02 5.311443805694580078e-01
2.778000000000000000e+03 1.309492588043212891e+01 9.162220001220703125e+00 3.877490460872650146e-01 -4.902613162994384766e-01 -3.075368329882621765e-02 5.264751911163330078e-01
2.779000000000000000e+03 1.550264358520507812e+01 8.997675895690917969e+00 4.952926337718963623e-01 -2.551718056201934814e-01 7.203624397516250610e-02 3.751875460147857666e-01
2.780000000000000000e+03 1.512444591522216797e+01 7.524466037750244141e+00 3.519255220890045166e-01 -4.129425883293151855e-01 -1.830512098968029022e-02 4.766780734062194824e-01
2.781000000000000000e+03 2.605716133117675781e+01 -6.219668984413146973e-01 -4.315363466739654541e-01 2.159052133560180664e+00 5.182546973228454590e-01 3.069628179073333740e-01
2.782000000000000000e+03 2.196364593505859375e+01 3.182698965072631836e+00 3.658161498606204987e-03 7.359897494316101074e-01 2.218943685293197632e-01 1.546133607625961304e-01
2.783000000000000000e+03 1.397065639495849609e+01 8.536347389221191406e+00 3.827684223651885986e-01 -4.643021821975708008e-01 -2.446012385189533234e-02 5.050284266471862793e-01
2.784000000000000000e+03 1.232781505584716797e+01 9.132728576660156250e+00 3.480124175548553467e-01 -5.453264117240905762e-01 -5.919418856501579285e-02 5.695410966873168945e-01
2.785000000000000000e+03 2.102890777587890625e+01 5.201426029205322266e+00 2.879463434219360352e-01 5.552222728729248047e-01 2.529505789279937744e-01 1.213778331875801086e-01
2.786000000000000000e+03 2.566199684143066406e+01 1.841179430484771729e-01 -3.422319293022155762e-01 1.997905611991882324e+00 4.967020750045776367e-01 2.393027096986770630e-01
2.787000000000000000e+03 3.632853317260742188e+01 -7.246003150939941406e+00 -2.325050383806228638e-01 4.187786579132080078e+00 1.186584472656250000e+00 -9.027189016342163086e-01
2.788000000000000000e+03 1.055988883972167969e+01 1.474743843078613281e+01 4.043178856372833252e-01 -4.523261785507202148e-01 -1.440248545259237289e-02 3.300898075103759766e-01
2.789000000000000000e+03 1.474906444549560547e+01 8.774431228637695312e+00 4.509104192256927490e-01 -3.793056905269622803e-01 2.148141898214817047e-02 4.418557286262512207e-01
2.790000000000000000e+03 1.246955680847167969e+01 2.102980995178222656e+01 3.735868632793426514e-01 7.516540121287107468e-03 1.143310219049453735e-01 -4.065066948533058167e-02
2.791000000000000000e+03 1.073089218139648438e+01 9.554070472717285156e+00 2.880936264991760254e-01 -6.031719446182250977e-01 -9.452349692583084106e-02 6.053242087364196777e-01
2.792000000000000000e+03 1.038523864746093750e+01 1.662836837768554688e+01 3.796747624874114990e-01 -4.222133159637451172e-01 -1.276156585663557053e-02 2.298838347196578979e-01
2.793000000000000000e+03 3.527246475219726562e+01 -7.959739685058593750e+00 2.610453870147466660e-03 3.613466978073120117e+00 1.084823250770568848e+00 -8.746690154075622559e-01
2.794000000000000000e+03 3.628535079956054688e+01 -2.048868656158447266e+00 -1.671178042888641357e-01 5.007922649383544922e+00 1.452241420745849609e+00 -4.513362348079681396e-01
2.795000000000000000e+03 3.363108062744140625e+01 -8.444224357604980469e+00 3.114013969898223877e-01 2.875964403152465820e+00 9.562097191810607910e-01 -5.796416401863098145e-01
2.796000000000000000e+03 3.266619491577148438e+01 -8.332917213439941406e+00 4.730450212955474854e-01 2.560458421707153320e+00 9.100510478019714355e-01 -2.619898021221160889e-01
2.797000000000000000e+03 3.505297088623046875e+01 1.570326328277587891e+00 2.157080471515655518e-01 5.110084533691406250e+00 1.597737789154052734e+00 -1.870400011539459229e-01
2.798000000000000000e+03 3.589527893066406250e+01 1.069027900695800781e+00 1.324812918901443481e-01 5.328079700469970703e+00 1.638168334960937500e+00 -2.831769585609436035e-01
2.799000000000000000e+03 3.860058212280273438e+01 -5.934516906738281250e+00 -5.078153610229492188e-01 5.070493698120117188e+00 1.368803501129150391e+00 -1.019951462745666504e+00
2.800000000000000000e+03 3.565301513671875000e+01 2.490353345870971680e+00 3.500383496284484863e-01 5.429153919219970703e+00 1.733757615089416504e+00 -2.319565564393997192e-01
2.801000000000000000e+03 3.465081787109375000e+01 5.341983318328857422e+00 9.045026898384094238e-01 5.289147377014160156e+00 1.858094930648803711e+00 -1.492639631032943726e-01
2.802000000000000000e+03 1.077345561981201172e+01 1.991661643981933594e+01 3.287211060523986816e-01 -2.705712020397186279e-01 1.744497194886207581e-02 6.347659975290298462e-02
2.803000000000000000e+03 1.156010913848876953e+01 1.845485115051269531e+01 4.141044318675994873e-01 -2.092839777469635010e-01 6.144613772630691528e-02 1.041375398635864258e-01
2.804000000000000000e+03 3.285257339477539062e+01 9.374174118041992188e+00 1.420737624168395996e+00 4.575353145599365234e+00 1.798827171325683594e+00 -3.291720151901245117e-01
2.805000000000000000e+03 3.210968017578125000e+01 1.017017936706542969e+01 1.422308206558227539e+00 4.326637744903564453e+00 1.724683761596679688e+00 -3.583978116512298584e-01
2.806000000000000000e+03 1.149112510681152344e+01 1.498658847808837891e+01 4.500472843647003174e-01 -3.565349876880645752e-01 2.805368788540363312e-02 2.789858579635620117e-01
2.807000000000000000e+03 3.117505455017089844e+01 1.106535720825195312e+01 1.387313604354858398e+00 3.980757951736450195e+00 1.610421419143676758e+00 -4.250687658786773682e-01
2.808000000000000000e+03 3.187885093688964844e+01 1.425111484527587891e+01 1.451993465423583984e+00 4.295423984527587891e+00 1.724225282669067383e+00 -6.532981991767883301e-01
2.809000000000000000e+03 3.202104187011718750e+01 1.732745170593261719e+01 1.189910650253295898e+00 4.415484428405761719e+00 1.681618452072143555e+00 -7.562619447708129883e-01
2.810000000000000000e+03 3.253987884521484375e+01 -5.320972919464111328e+00 5.828512087464332581e-02 3.370118618011474609e+00 1.028521180152893066e+00 4.983868822455406189e-02
2.811000000000000000e+03 3.316040802001953125e+01 8.013476371765136719e+00 1.272636055946350098e+00 4.734587192535400391e+00 1.802166938781738281e+00 -2.604648470878601074e-01
2.812000000000000000e+03 1.454703521728515625e+01 2.218341255187988281e+01 4.079323410987854004e-01 3.731190264225006104e-01 2.343154102563858032e-01 -1.736938059329986572e-01
2.813000000000000000e+03 1.143879413604736328e+01 1.279927921295166016e+01 4.439983665943145752e-01 -4.495489597320556641e-01 -1.665179035626351833e-03 3.926986455917358398e-01
2.814000000000000000e+03 1.067202377319335938e+01 1.331756401062011719e+01 3.929876685142517090e-01 -4.824549257755279541e-01 -2.684017643332481384e-02 3.994981050491333008e-01
2.815000000000000000e+03 1.579572868347167969e+01 2.678896522521972656e+01 2.077374905347824097e-01 7.682073712348937988e-01 2.927834689617156982e-01 -3.226345181465148926e-01
2.816000000000000000e+03 1.636020660400390625e+01 3.327987289428710938e+01 -1.140087023377418518e-01 1.066906213760375977e+00 2.858692407608032227e-01 -2.987529635429382324e-01
2.817000000000000000e+03 3.427824783325195312e+01 2.337474441528320312e+01 4.279126524925231934e-01 4.901308059692382812e+00 1.598766207695007324e+00 -6.417381763458251953e-01
2.818000000000000000e+03 1.197431182861328125e+01 1.962668800354003906e+01 4.036380648612976074e-01 -1.197366043925285339e-01 8.517044037580490112e-02 3.805551305413246155e-02
2.819000000000000000e+03 1.057481479644775391e+01 1.858562850952148438e+01 3.685634136199951172e-01 -3.366316854953765869e-01 9.579516947269439697e-03 1.304662972688674927e-01
2.820000000000000000e+03 2.649376296997070312e+01 -7.350407123565673828e+00 -9.316760301589965820e-02 2.442962884902954102e+00 7.049385905265808105e-01 1.724292397499084473e+00
2.821000000000000000e+03 2.811338233947753906e+01 -8.658199310302734375e+00 1.152726650238037109e+00 1.668695807456970215e+00 8.464267253875732422e-01 1.550058007240295410e+00
2.822000000000000000e+03 2.931546592712402344e+01 -8.172901153564453125e+00 8.471514582633972168e-01 1.858925700187683105e+00 8.118231296539306641e-01 9.587256312370300293e-01
2.823000000000000000e+03 2.858358383178710938e+01 -7.777245044708251953e+00 7.087433934211730957e-01 1.969408154487609863e+00 8.034454584121704102e-01 1.294405460357666016e+00
2.824000000000000000e+03 2.658920860290527344e+01 -6.780886173248291016e+00 -2.461305260658264160e-01 2.446791887283325195e+00 6.601983904838562012e-01 1.498147010803222656e+00
2.825000000000000000e+03 2.627512359619140625e+01 -7.067725658416748047e+00 -2.407438904047012329e-01 2.471657752990722656e+00 6.692741513252258301e-01 1.621737957000732422e+00
2.826000000000000000e+03 2.633236885070800781e+01 -5.775545597076416016e+00 -6.118044853210449219e-01 2.416814327239990234e+00 5.415029525756835938e-01 1.155280470848083496e+00
2.827000000000000000e+03 2.585536956787109375e+01 -5.348209381103515625e+00 -7.839462757110595703e-01 2.279400825500488281e+00 4.486363530158996582e-01 9.925897717475891113e-01
2.828000000000000000e+03 3.181812477111816406e+01 -8.156433105468750000e+00 5.778084397315979004e-01 2.334367275238037109e+00 8.736527562141418457e-01 2.264493145048618317e-02
2.829000000000000000e+03 2.844899177551269531e+01 -7.183094024658203125e+00 3.989925682544708252e-01 2.229403495788574219e+00 7.885188460350036621e-01 1.259318232536315918e+00
2.830000000000000000e+03 2.706574058532714844e+01 -1.059030055999755859e+00 -4.061331748962402344e-01 2.492581367492675781e+00 6.259344220161437988e-01 3.507916033267974854e-01
2.831000000000000000e+03 2.459671401977539062e+01 1.748359680175781250e+00 -1.353501230478286743e-01 1.608739495277404785e+00 4.420168101787567139e-01 1.402515023946762085e-01
2.832000000000000000e+03 2.332931518554687500e+01 1.828796505928039551e+00 -1.867545992136001587e-01 1.161543846130371094e+00 2.924367487430572510e-01 1.576562672853469849e-01
2.833000000000000000e+03 2.124207305908203125e+01 3.817886829376220703e+00 8.192748576402664185e-02 5.359228253364562988e-01 1.853550821542739868e-01 1.570198237895965576e-01
2.834000000000000000e+03 2.903548431396484375e+01 -8.711282730102539062e+00 1.106410026550292969e+00 1.615545272827148438e+00 8.165865540504455566e-01 1.062506675720214844e+00
2.835000000000000000e+03 2.990140914916992188e+01 -7.203971862792968750e+00 5.175200700759887695e-01 2.237273931503295898e+00 8.264381885528564453e-01 7.957688570022583008e-01
2.836000000000000000e+03 1.994709014892578125e+01 7.171730995178222656e+00 4.980380833148956299e-01 4.178341031074523926e-01 2.747616469860076904e-01 1.203357428312301636e-01
2.837000000000000000e+03 1.385440444946289062e+01 9.322349548339843750e+00 4.393721520900726318e-01 -4.313063919544219971e-01 2.419729717075824738e-03 4.724332392215728760e-01
2.838000000000000000e+03 1.162598609924316406e+01 1.144681072235107422e+01 4.223459661006927490e-01 -4.873711168766021729e-01 -1.950754411518573761e-02 4.687083661556243896e-01
2.839000000000000000e+03 1.860998916625976562e+01 7.115411758422851562e+00 4.551599919795989990e-01 1.204931214451789856e-01 1.726959347724914551e-01 2.175056189298629761e-01
2.840000000000000000e+03 1.862755584716796875e+01 8.722079277038574219e+00 6.123846769332885742e-01 2.268043011426925659e-01 2.517566978931427002e-01 1.538403481245040894e-01
2.841000000000000000e+03 1.032439231872558594e+01 1.095056247711181641e+01 3.307012021541595459e-01 -5.827084183692932129e-01 -7.560216635465621948e-02 5.406792163848876953e-01
2.842000000000000000e+03 3.814834213256835938e+01 -4.801001548767089844e+00 -4.150745272636413574e-01 5.085311412811279297e+00 1.401071071624755859e+00 -9.071536660194396973e-01
2.843000000000000000e+03 2.180741119384765625e+01 4.577667713165283203e+00 2.218373566865921021e-01 7.457933425903320312e-01 2.902892231941223145e-01 1.071493700146675110e-01
2.844000000000000000e+03 2.323795127868652344e+01 3.190934419631958008e+00 5.300737917423248291e-02 1.174666881561279297e+00 3.683022558689117432e-01 1.053379774093627930e-01
2.845000000000000000e+03 1.626614189147949219e+01 9.008397102355957031e+00 5.268062353134155273e-01 -1.544032394886016846e-01 1.117208972573280334e-01 3.212828040122985840e-01
2.846000000000000000e+03 3.789286041259765625e+01 -3.600202322006225586e+00 -3.382167220115661621e-01 5.145835876464843750e+00 1.442285776138305664e+00 -7.673307657241821289e-01
2.847000000000000000e+03 3.678226852416992188e+01 -3.974369764328002930e+00 -2.766292393207550049e-01 4.832413673400878906e+00 1.366735219955444336e+00 -6.280885338783264160e-01
2.848000000000000000e+03 1.350520229339599609e+01 1.108792591094970703e+01 5.064295530319213867e-01 -3.475844860076904297e-01 4.765351861715316772e-02 4.003304839134216309e-01
2.849000000000000000e+03 2.675199127197265625e+01 -2.162492871284484863e-01 -3.187543153762817383e-01 2.393641710281372070e+00 6.224662065505981445e-01 2.799620926380157471e-01
2.850000000000000000e+03 2.669867897033691406e+01 -2.173612833023071289e+00 -5.613844394683837891e-01 2.389618635177612305e+00 5.484702587127685547e-01 4.677268862724304199e-01
2.851000000000000000e+03 3.468486022949218750e+01 -4.104977130889892578e+00 -1.334341168403625488e-01 4.198863029479980469e+00 1.219628691673278809e+00 -3.117503523826599121e-01
2.852000000000000000e+03 3.478354644775390625e+01 -7.199153900146484375e+00 -2.675310010090470314e-03 3.640577077865600586e+00 1.091370463371276855e+00 -6.451648473739624023e-01
2.853000000000000000e+03 2.517529869079589844e+01 9.749453663825988770e-01 -2.444063574075698853e-01 1.822577357292175293e+00 4.734513163566589355e-01 1.847259253263473511e-01
2.854000000000000000e+03 2.712984085083007812e+01 -3.615771770477294922e+00 -5.713360905647277832e-01 2.524268150329589844e+00 5.858796238899230957e-01 6.791577339172363281e-01
2.855000000000000000e+03 2.162339591979980469e+01 6.053057670593261719e+00 4.345273971557617188e-01 7.879388928413391113e-01 3.667398691177368164e-01 6.605115532875061035e-02
2.856000000000000000e+03 2.252959823608398438e+01 3.892634153366088867e+00 1.449650526046752930e-01 9.507673978805541992e-01 3.287197351455688477e-01 9.862683713436126709e-02
2.857000000000000000e+03 3.656460189819335938e+01 -2.918489217758178711e+00 -2.318837642669677734e-01 4.908023834228515625e+00 1.402842044830322266e+00 -5.120537877082824707e-01
2.858000000000000000e+03 3.706142425537109375e+01 -8.266178131103515625e+00 -3.129265010356903076e-01 4.297100067138671875e+00 1.195252060890197754e+00 -1.205760836601257324e+00
2.859000000000000000e+03 1.245406150817871094e+01 9.928829193115234375e+00 3.945647478103637695e-01 -5.019838213920593262e-01 -3.222573176026344299e-02 5.205674171447753906e-01
2.860000000000000000e+03 3.379807281494140625e+01 -7.465745449066162109e+00 1.837434023618698120e-01 3.226182699203491211e+00 1.022977828979492188e+00 -4.735918641090393066e-01
2.861000000000000000e+03 3.468436431884765625e+01 2.967799186706542969e+00 4.415746033191680908e-01 5.121004581451416016e+00 1.668773770332336426e+00 -1.410074234008789062e-01
2.862000000000000000e+03 3.699067687988281250e+01 -5.218111038208007812e+00 -3.196848332881927490e-01 4.686567306518554688e+00 1.310064792633056641e+00 -7.637814879417419434e-01
2.863000000000000000e+03 3.528731536865234375e+01 2.413534820079803467e-01 5.311293900012969971e-02 5.028220653533935547e+00 1.524400115013122559e+00 -2.294138818979263306e-01
2.864000000000000000e+03 3.601544189453125000e+01 -2.403845041990280151e-01 -2.324429899454116821e-02 5.173081398010253906e+00 1.544951081275939941e+00 -3.308340013027191162e-01
2.865000000000000000e+03 3.286807250976562500e+01 -7.504437446594238281e+00 3.334495723247528076e-01 2.843014478683471680e+00 9.529392123222351074e-01 -2.002559602260589600e-01
2.866000000000000000e+03 1.343791580200195312e+01 1.721949195861816406e+01 5.148096680641174316e-01 -3.217392787337303162e-02 1.447907239198684692e-01 8.348225802183151245e-02
2.867000000000000000e+03 1.260739231109619141e+01 1.627895927429199219e+01 4.889479577541351318e-01 -1.923217475414276123e-01 8.898786455392837524e-02 1.728094071149826050e-01
2.868000000000000000e+03 1.088771247863769531e+01 1.190209007263183594e+01 3.890472948551177979e-01 -5.173159837722778320e-01 -3.848060220479965210e-02 4.725453555583953857e-01
2.869000000000000000e+03 3.210094451904296875e+01 8.523297309875488281e+00 1.270424485206604004e+00 4.310612678527832031e+00 1.674311161041259766e+00 -2.471822500228881836e-01
2.870000000000000000e+03 1.246854019165039062e+01 1.440279197692871094e+01 4.970559179782867432e-01 -2.854309082031250000e-01 6.348750740289688110e-02 2.705393731594085693e-01
2.871000000000000000e+03 1.446442699432373047e+01 1.033631706237792969e+01 5.207500457763671875e-01 -3.142324388027191162e-01 6.195527315139770508e-02 3.937306106090545654e-01
2.872000000000000000e+03 1.580860519409179688e+01 7.728589534759521484e+00 4.046369791030883789e-01 -3.126670122146606445e-01 2.759098634123802185e-02 4.044462740421295166e-01
2.873000000000000000e+03 3.310874557495117188e+01 4.826159000396728516e+00 7.799599170684814453e-01 4.658214569091796875e+00 1.631452322006225586e+00 -5.798085778951644897e-02
2.874000000000000000e+03 3.413469314575195312e+01 2.030221462249755859e+00 2.906602025032043457e-01 4.862754821777343750e+00 1.546024441719055176e+00 -9.111623466014862061e-02
2.875000000000000000e+03 3.363419723510742188e+01 5.652832031250000000e+00 8.961238265037536621e-01 4.864805221557617188e+00 1.728278636932373047e+00 -1.175030171871185303e-01
2.876000000000000000e+03 2.730826759338378906e+01 9.847332239151000977e-01 -1.098255515098571777e-01 2.547505140304565430e+00 7.313038706779479980e-01 1.990819722414016724e-01
2.877000000000000000e+03 1.333787441253662109e+01 1.524262619018554688e+01 5.432298779487609863e-01 -1.469931602478027344e-01 1.188710182905197144e-01 1.924270987510681152e-01
2.878000000000000000e+03 1.173179340362548828e+01 2.467621612548828125e+01 2.224501520395278931e-01 3.003009036183357239e-02 7.574407011270523071e-02 -1.251121312379837036e-01
2.879000000000000000e+03 3.111026191711425781e+01 9.227968215942382812e+00 1.280322313308715820e+00 3.914390802383422852e+00 1.558413863182067871e+00 -3.033665716648101807e-01
2.880000000000000000e+03 3.041644477844238281e+01 1.529236698150634766e+01 1.349674701690673828e+00 3.793205022811889648e+00 1.542863845825195312e+00 -6.854074597358703613e-01
2.881000000000000000e+03 3.094076347351074219e+01 1.309976196289062500e+01 1.435398340225219727e+00 3.937778949737548828e+00 1.611953139305114746e+00 -5.745005607604980469e-01
2.882000000000000000e+03 1.251205730438232422e+01 1.793117141723632812e+01 4.595249295234680176e-01 -1.292974501848220825e-01 9.906824678182601929e-02 9.130907803773880005e-02
2.883000000000000000e+03 2.998507308959960938e+01 1.191625308990478516e+01 1.352343320846557617e+00 3.574662208557128906e+00 1.478101730346679688e+00 -4.663929343223571777e-01
2.884000000000000000e+03 2.728585624694824219e+01 -6.934149742126464844e+00 1.419741380959749222e-02 2.371747970581054688e+00 7.157835960388183594e-01 1.478301167488098145e+00
2.885000000000000000e+03 2.904850196838378906e+01 -6.888794898986816406e+00 3.573145866394042969e-01 2.302439689636230469e+00 7.979263067245483398e-01 1.049333691596984863e+00
2.886000000000000000e+03 2.245996475219726562e+01 5.389641761779785156e+00 3.687744736671447754e-01 9.740537405014038086e-01 4.028484821319580078e-01 4.237895458936691284e-02
2.887000000000000000e+03 2.073011398315429688e+01 6.564942836761474609e+00 4.669938087463378906e-01 5.441514849662780762e-01 3.033435940742492676e-01 8.445629477500915527e-02
2.888000000000000000e+03 3.051779556274414062e+01 -6.918573379516601562e+00 3.982491791248321533e-01 2.479771614074707031e+00 8.634061813354492188e-01 5.381844639778137207e-01
2.889000000000000000e+03 2.680726242065429688e+01 -5.112534999847412109e+00 -5.719357132911682129e-01 2.461849689483642578e+00 5.669741630554199219e-01 9.937453269958496094e-01
2.890000000000000000e+03 2.735152244567871094e+01 -1.866403698921203613e+00 -4.590085744857788086e-01 2.572638988494873047e+00 6.340891122817993164e-01 4.411357641220092773e-01
2.891000000000000000e+03 1.182767295837402344e+01 1.017729949951171875e+01 3.771772980690002441e-01 -5.294082760810852051e-01 -4.566930606961250305e-02 5.328865051269531250e-01
2.892000000000000000e+03 3.153520584106445312e+01 -7.216954708099365234e+00 4.303987324237823486e-01 2.557124376296997070e+00 8.962569236755371094e-01 2.340358495712280273e-01
2.893000000000000000e+03 2.593158531188964844e+01 1.563199162483215332e+00 -9.743335843086242676e-02 2.105924844741821289e+00 6.025474071502685547e-01 1.552638113498687744e-01
2.894000000000000000e+03 1.570307350158691406e+01 8.383349418640136719e+00 4.702010452747344971e-01 -2.760094106197357178e-01 5.825748667120933533e-02 3.928881287574768066e-01
2.895000000000000000e+03 1.517937469482421875e+01 1.043782997131347656e+01 5.701572895050048828e-01 -2.161037623882293701e-01 1.062160581350326538e-01 3.387869894504547119e-01
2.896000000000000000e+03 1.708119010925292969e+01 8.581271171569824219e+00 5.301234722137451172e-01 -6.462972611188888550e-02 1.396481245756149292e-01 2.830568850040435791e-01
2.897000000000000000e+03 3.553548431396484375e+01 -6.495160102844238281e+00 -1.349099725484848022e-01 4.039055347442626953e+00 1.171243667602539062e+00 -6.964037418365478516e-01
2.898000000000000000e+03 1.518843364715576172e+01 1.543131732940673828e+01 6.280522346496582031e-01 1.050084009766578674e-01 2.199181914329528809e-01 7.966361939907073975e-02
2.899000000000000000e+03 1.111248111724853516e+01 1.051892566680908203e+01 3.477005362510681152e-01 -5.525470376014709473e-01 -6.145395338535308838e-02 5.445942282676696777e-01
2.900000000000000000e+03 2.381651687622070312e+01 3.856847524642944336e+00 1.760128289461135864e-01 1.384783387184143066e+00 4.682388901710510254e-01 5.706896632909774780e-02
2.901000000000000000e+03 2.394397544860839844e+01 2.487021446228027344e+00 -4.924231767654418945e-02 1.395361900329589844e+00 4.038358628749847412e-01 1.069468781352043152e-01
2.902000000000000000e+03 3.474065017700195312e+01 -5.989069938659667969e-01 -2.110296487808227539e-02 4.762367725372314453e+00 1.422379374504089355e+00 -1.767664700746536255e-01
2.903000000000000000e+03 3.530440139770507812e+01 -1.551993131637573242e+00 -1.038812547922134399e-01 4.810836791992187500e+00 1.412086606025695801e+00 -2.922751903533935547e-01
2.904000000000000000e+03 2.757230186462402344e+01 -2.655672311782836914e+00 -4.816050231456756592e-01 2.637091398239135742e+00 6.466459035873413086e-01 5.350567698478698730e-01
2.905000000000000000e+03 3.449568176269531250e+01 6.945407390594482422e-01 1.060689091682434082e-01 4.853379726409912109e+00 1.487834572792053223e+00 -1.344828158617019653e-01
2.906000000000000000e+03 2.746147346496582031e+01 8.333306014537811279e-02 -2.325590699911117554e-01 2.607373952865600586e+00 7.124444246292114258e-01 2.589164674282073975e-01
2.907000000000000000e+03 2.459046745300292969e+01 3.185177564620971680e+00 9.789821505546569824e-02 1.628403425216674805e+00 5.178905129432678223e-01 7.103399932384490967e-02
2.908000000000000000e+03 3.558051681518554688e+01 -3.157171726226806641e+00 -1.892228871583938599e-01 4.642298698425292969e+00 1.335922718048095703e+00 -3.878085315227508545e-01
2.909000000000000000e+03 3.462524032592773438e+01 -6.396954059600830078e+00 -1.936557143926620483e-02 3.764023542404174805e+00 1.123397350311279297e+00 -4.583731889724731445e-01
2.910000000000000000e+03 1.190748977661132812e+01 1.366319370269775391e+01 4.461558461189270020e-01 -3.928015828132629395e-01 1.600628718733787537e-02 3.438231050968170166e-01
2.911000000000000000e+03 1.118880558013916016e+01 1.411426925659179688e+01 4.342170059680938721e-01 -4.214845895767211914e-01 3.819729434326291084e-03 3.423324823379516602e-01
2.912000000000000000e+03 3.365963745117187500e+01 3.420013427734375000e+00 5.237367749214172363e-01 4.803362369537353516e+00 1.598129749298095703e+00 -6.025700643658638000e-02
2.913000000000000000e+03 3.141531181335449219e+01 7.440135478973388672e+00 1.076778650283813477e+00 4.011529922485351562e+00 1.526492595672607422e+00 -1.648649871349334717e-01
2.914000000000000000e+03 3.265921020507812500e+01 7.133149147033691406e+00 1.072869658470153809e+00 4.479626655578613281e+00 1.665748953819274902e+00 -1.747814118862152100e-01
2.915000000000000000e+03 3.573010635375976562e+01 -5.384567737579345703e+00 -1.899330615997314453e-01 4.293772220611572266e+00 1.231151700019836426e+00 -5.975610017776489258e-01
2.916000000000000000e+03 1.620397377014160156e+01 1.653224563598632812e+01 6.613158583641052246e-01 3.210949897766113281e-01 2.947232723236083984e-01 -3.566348925232887268e-02
2.917000000000000000e+03 3.013931465148925781e+01 8.215373992919921875e+00 1.072311639785766602e+00 3.524772644042968750e+00 1.379125237464904785e+00 -2.140817493200302124e-01
2.918000000000000000e+03 1.528196525573730469e+01 1.751987075805664062e+01 5.938114523887634277e-01 2.428699582815170288e-01 2.510044276714324951e-01 -2.127101644873619080e-02
2.919000000000000000e+03 1.305950450897216797e+01 9.931491851806640625e+00 4.355582892894744873e-01 -4.507189691066741943e-01 -4.548202734440565109e-03 4.906451106071472168e-01
2.920000000000000000e+03 1.268360328674316406e+01 1.339171028137207031e+01 5.091841816902160645e-01 -2.981760501861572266e-01 6.330243498086929321e-02 3.197233080863952637e-01
2.921000000000000000e+03 3.314758682250976562e+01 2.467720985412597656e+00 3.537474274635314941e-01 4.538397789001464844e+00 1.467643618583679199e+00 -1.931078918278217316e-02
2.922000000000000000e+03 2.926128005981445312e+01 -7.534835815429687500e+00 5.989227294921875000e-01 2.116314649581909180e+00 8.145712018013000488e-01 9.888429641723632812e-01
2.923000000000000000e+03 3.144352531433105469e+01 4.417387008666992188e+00 6.352687478065490723e-01 4.006292343139648438e+00 1.392468333244323730e+00 -1.970701152458786964e-03
2.924000000000000000e+03 2.682946395874023438e+01 -7.080465793609619141e+00 -7.645110040903091431e-02 2.406661033630371094e+00 6.990629434585571289e-01 1.550218582153320312e+00
2.925000000000000000e+03 3.121090126037597656e+01 -6.645127773284912109e+00 3.287808597087860107e-01 2.657602548599243164e+00 8.959150314331054688e-01 3.774936199188232422e-01
2.926000000000000000e+03 2.779150962829589844e+01 -6.854485034942626953e+00 1.111624464392662048e-01 2.356262207031250000e+00 7.402274012565612793e-01 1.365346670150756836e+00
2.927000000000000000e+03 2.736368560791015625e+01 -5.680904388427734375e+00 -3.514559268951416016e-01 2.509500265121459961e+00 6.474132537841796875e-01 1.131383061408996582e+00
2.928000000000000000e+03 3.078629875183105469e+01 -5.240836620330810547e+00 6.718116253614425659e-02 2.955316781997680664e+00 9.067494273185729980e-01 4.711031019687652588e-01
2.929000000000000000e+03 2.966776847839355469e+01 -6.569922447204589844e+00 3.029521703720092773e-01 2.443839788436889648e+00 8.240376114845275879e-01 8.305762410163879395e-01
2.930000000000000000e+03 3.031745529174804688e+01 -6.253006458282470703e+00 2.483634650707244873e-01 2.616558074951171875e+00 8.594765067100524902e-01 6.188790798187255859e-01
2.931000000000000000e+03 2.002826881408691406e+01 8.513286590576171875e+00 6.606764197349548340e-01 5.155155062675476074e-01 3.528575897216796875e-01 7.192182540893554688e-02
2.932000000000000000e+03 1.622978591918945312e+01 9.955780029296875000e+00 6.029649376869201660e-01 -9.549608081579208374e-02 1.522406637668609619e-01 2.762737274169921875e-01
2.933000000000000000e+03 2.775694847106933594e+01 -7.407253384590148926e-01 -3.108994662761688232e-01 2.706752061843872070e+00 7.187557816505432129e-01 3.280650675296783447e-01
2.934000000000000000e+03 2.319421005249023438e+01 8.100786209106445312e+00 7.154104709625244141e-01 1.286332845687866211e+00 6.005229949951171875e-01 -8.220838010311126709e-02
2.935000000000000000e+03 2.086715316772460938e+01 8.539667129516601562e+00 6.873383522033691406e-01 7.193725705146789551e-01 4.220132827758789062e-01 1.838059164583683014e-02
2.936000000000000000e+03 1.229141139984130859e+01 1.102507972717285156e+01 4.343099594116210938e-01 -4.594660699367523193e-01 -7.546835578978061676e-03 4.691072106361389160e-01
2.937000000000000000e+03 1.373545742034912109e+01 1.015680885314941406e+01 4.823706448078155518e-01 -3.808148801326751709e-01 3.046672604978084564e-02 4.330045282840728760e-01
2.938000000000000000e+03 3.372263717651367188e+01 -6.584875583648681641e+00 8.794494718313217163e-02 3.428182840347290039e+00 1.054838299751281738e+00 -2.977759838104248047e-01
2.939000000000000000e+03 1.538325405120849609e+01 9.713935852050781250e+00 5.168604850769042969e-01 -2.473529428243637085e-01 8.085227012634277344e-02 3.678190708160400391e-01
2.940000000000000000e+03 3.141289710998535156e+01 -2.228789806365966797e+00 -1.146468222141265869e-01 3.597082376480102539e+00 1.044730663299560547e+00 2.285950332880020142e-01
2.941000000000000000e+03 3.456661224365234375e+01 -5.500715732574462891e+00 -6.574406474828720093e-02 3.872093200683593750e+00 1.141904711723327637e+00 -3.564017117023468018e-01
2.942000000000000000e+03 3.565404510498046875e+01 -4.182610511779785156e+00 -1.974236071109771729e-01 4.463007926940917969e+00 1.279675364494323730e+00 -4.559100270271301270e-01
2.943000000000000000e+03 3.398693084716796875e+01 -1.634975075721740723e-01 3.207470476627349854e-02 4.580859661102294922e+00 1.383880257606506348e+00 -9.321651607751846313e-02
2.944000000000000000e+03 2.796180152893066406e+01 -5.644016265869140625e+00 -2.099431306123733521e-01 2.558840513229370117e+00 7.046692371368408203e-01 1.061278223991394043e+00
2.945000000000000000e+03 2.313666534423828125e+01 4.579421043395996094e+00 2.781017124652862549e-01 1.175239801406860352e+00 4.360024333000183105e-01 6.449255347251892090e-02
2.946000000000000000e+03 2.333782577514648438e+01 6.044169425964355469e+00 4.854317903518676758e-01 1.261592388153076172e+00 5.241072177886962891e-01 -3.612769301980733871e-03
2.947000000000000000e+03 3.359623336791992188e+01 -5.785422801971435547e+00 3.520991653203964233e-02 3.553669929504394531e+00 1.076663970947265625e+00 -1.969753354787826538e-01
2.948000000000000000e+03 3.286497116088867188e+01 6.223053932189941406e+00 1.000224351882934570e+00 4.519494056701660156e+00 1.655915498733520508e+00 -1.097349971532821655e-01
2.949000000000000000e+03 2.683428573608398438e+01 2.973477363586425781e+00 2.006715685129165649e-01 2.426508188247680664e+00 7.881538867950439453e-01 8.250537514686584473e-02
2.950000000000000000e+03 2.463362693786621094e+01 5.240890502929687500e+00 4.230859577655792236e-01 1.677322149276733398e+00 6.301224231719970703e-01 -2.517722547054290771e-03
2.951000000000000000e+03 2.510234832763671875e+01 4.010839939117431641e+00 2.378472536802291870e-01 1.783985137939453125e+00 6.065497398376464844e-01 3.561115264892578125e-02
2.952000000000000000e+03 3.071146774291992188e+01 6.195129871368408203e+00 8.687937855720520020e-01 3.754123449325561523e+00 1.386875152587890625e+00 -8.990853279829025269e-02
2.953000000000000000e+03 2.643466377258300781e+01 6.944493651390075684e-01 -2.035452574491500854e-01 2.273604631423950195e+00 6.210178136825561523e-01 2.063294500112533569e-01
2.954000000000000000e+03 2.544520378112792969e+01 4.906265735626220703e+00 4.013358652591705322e-01 1.959279894828796387e+00 7.081847190856933594e-01 -8.911433629691600800e-03
2.955000000000000000e+03 3.166425323486328125e+01 1.886062741279602051e+00 2.359321862459182739e-01 3.988038301467895508e+00 1.267191171646118164e+00 7.401587814092636108e-02
2.956000000000000000e+03 3.102072143554687500e+01 3.331571817398071289e+00 4.325418174266815186e-01 3.803788423538208008e+00 1.270899057388305664e+00 4.456693679094314575e-02
2.957000000000000000e+03 1.428793334960937500e+01 1.429054832458496094e+01 5.939930081367492676e-01 -8.552494645118713379e-02 1.525404304265975952e-01 1.859586536884307861e-01
2.958000000000000000e+03 3.258272552490234375e+01 3.894711017608642578e+00 5.857521891593933105e-01 4.412565231323242188e+00 1.499495267868041992e+00 -2.184041030704975128e-02
2.959000000000000000e+03 3.210497283935546875e+01 2.905938863754272461e+00 4.037657082080841064e-01 4.209581375122070312e+00 1.384004116058349609e+00 3.418174386024475098e-02
2.960000000000000000e+03 1.296540641784667969e+01 1.187632274627685547e+01 5.051860809326171875e-01 -3.597770333290100098e-01 4.362272098660469055e-02 3.845800459384918213e-01
2.961000000000000000e+03 1.788844490051269531e+01 9.678694725036621094e+00 6.575056314468383789e-01 1.564643532037734985e-01 2.441909909248352051e-01 1.652782559394836426e-01
2.962000000000000000e+03 1.511763668060302734e+01 1.977520179748535156e+01 5.265927314758300781e-01 3.411255776882171631e-01 2.603154778480529785e-01 -1.196175664663314819e-01
2.963000000000000000e+03 1.381125640869140625e+01 2.051670265197753906e+01 4.446276426315307617e-01 1.792427152395248413e-01 1.871611177921295166e-01 -7.913520932197570801e-02
2.964000000000000000e+03 1.606080436706542969e+01 1.285876560211181641e+01 6.815528273582458496e-01 6.386151909828186035e-02 2.236243039369583130e-01 1.578921973705291748e-01
2.965000000000000000e+03 2.949111747741699219e+01 1.408424568176269531e+01 1.316617369651794434e+00 3.476976394653320312e+00 1.438078165054321289e+00 -5.870004296302795410e-01
2.966000000000000000e+03 2.864964675903320312e+01 1.273498725891113281e+01 1.289375185966491699e+00 3.103709459304809570e+00 1.317925453186035156e+00 -4.704777896404266357e-01
2.967000000000000000e+03 2.631301307678222656e+01 1.550673198699951172e+01 1.107813954353332520e+00 2.505332231521606445e+00 1.083943843841552734e+00 -5.603501796722412109e-01
2.968000000000000000e+03 2.568884468078613281e+01 1.710186958312988281e+01 1.040888667106628418e+00 2.414813280105590820e+00 1.036710619926452637e+00 -5.941267609596252441e-01
2.969000000000000000e+03 2.677136421203613281e+01 -6.310976505279541016e+00 -3.400866687297821045e-01 2.453068971633911133e+00 6.338946819305419922e-01 1.339182972908020020e+00
2.970000000000000000e+03 2.786141204833984375e+01 -7.414278507232666016e+00 3.622694313526153564e-01 2.213544130325317383e+00 7.727440595626831055e-01 1.512362241744995117e+00
2.971000000000000000e+03 2.786380386352539062e+01 -6.308829784393310547e+00 -5.182463675737380981e-02 2.451971769332885742e+00 7.200441360473632812e-01 1.213636755943298340e+00
2.972000000000000000e+03 2.682743072509765625e+01 -5.726574897766113281e+00 -4.879315793514251709e-01 2.485451459884643555e+00 5.992559790611267090e-01 1.148491263389587402e+00
2.973000000000000000e+03 3.010628890991210938e+01 -5.578863143920898438e+00 8.701517432928085327e-02 2.774478912353515625e+00 8.584482669830322266e-01 6.329160332679748535e-01
2.974000000000000000e+03 3.100637245178222656e+01 -5.941464900970458984e+00 1.846909672021865845e-01 2.845113277435302734e+00 9.089413285255432129e-01 4.202239513397216797e-01
2.975000000000000000e+03 2.805362510681152344e+01 -1.583946824073791504e+00 -3.575948774814605713e-01 2.779298067092895508e+00 7.265110015869140625e-01 3.937684297561645508e-01
2.976000000000000000e+03 2.726373481750488281e+01 -4.311975955963134766e+00 -5.295071601867675781e-01 2.542418956756591797e+00 6.038735508918762207e-01 8.100101947784423828e-01
2.977000000000000000e+03 3.274145889282226562e+01 -6.023346900939941406e+00 1.224498003721237183e-01 3.247853279113769531e+00 1.011090993881225586e+00 -1.956124790012836456e-02
2.978000000000000000e+03 3.287202453613281250e+01 -6.739658355712890625e+00 2.177763730287551880e-01 3.101951599121093750e+00 9.959183931350708008e-01 -1.305104196071624756e-01
2.979000000000000000e+03 2.880172348022460938e+01 -1.422224879264831543e+00 -2.745196223258972168e-01 2.967409610748291016e+00 8.078669905662536621e-01 3.739677667617797852e-01
2.980000000000000000e+03 3.311881637573242188e+01 -4.312381744384765625e+00 -4.740878194570541382e-02 3.740801095962524414e+00 1.108017683029174805e+00 -2.931297197937965393e-02
2.981000000000000000e+03 3.195016860961914062e+01 -6.284480094909667969e+00 2.230131775140762329e-01 2.971350908279418945e+00 9.583092331886291504e-01 1.359351873397827148e-01
2.982000000000000000e+03 3.448666000366210938e+01 -1.500003218650817871e+00 -8.223468810319900513e-02 4.540508270263671875e+00 1.337482094764709473e+00 -1.529766470193862915e-01
2.983000000000000000e+03 3.355301284790039062e+01 -1.580532193183898926e+00 -6.920380890369415283e-02 4.277991771697998047e+00 1.262636423110961914e+00 -5.253742635250091553e-02
2.984000000000000000e+03 2.382935714721679688e+01 7.450504302978515625e+00 6.658922433853149414e-01 1.469809889793395996e+00 6.407105922698974609e-01 -8.131980150938034058e-02
2.985000000000000000e+03 2.197666549682617188e+01 7.062355995178222656e+00 5.549731254577636719e-01 9.347168207168579102e-01 4.469069838523864746e-01 9.811178781092166901e-03
2.986000000000000000e+03 2.767567062377929688e+01 2.877660751342773438e+00 2.080216556787490845e-01 2.679018735885620117e+00 8.661121129989624023e-01 8.986963331699371338e-02
2.987000000000000000e+03 2.529557037353515625e+01 2.405109167098999023e+00 9.650684893131256104e-03 1.859573125839233398e+00 5.607671141624450684e-01 1.029421761631965637e-01
2.988000000000000000e+03 3.267178726196289062e+01 1.496809005737304688e+00 2.018912881612777710e-01 4.327555656433105469e+00 1.358834147453308105e+00 3.323513641953468323e-02
2.989000000000000000e+03 3.336984634399414062e+01 -5.052391052246093750e+00 -1.034756191074848175e-02 3.627869844436645508e+00 1.085256695747375488e+00 -9.469810128211975098e-02
2.990000000000000000e+03 1.281741714477539062e+01 1.055294036865234375e+01 4.464417695999145508e-01 -4.438454806804656982e-01 7.788779330439865589e-04 4.645266234874725342e-01
2.991000000000000000e+03 2.584282875061035156e+01 8.956223487854003906e+00 8.984219431877136230e-01 2.144169330596923828e+00 9.127773642539978027e-01 -1.928713172674179077e-01
2.992000000000000000e+03 3.290307617187500000e+01 -3.521781921386718750e+00 -8.621925115585327148e-02 3.796769857406616211e+00 1.113165259361267090e+00 5.106896907091140747e-02
2.993000000000000000e+03 1.518603897094726562e+01 1.116768169403076172e+01 6.038596034049987793e-01 -1.486149579286575317e-01 1.365733891725540161e-01 2.785320281982421875e-01
2.994000000000000000e+03 2.424565315246582031e+01 6.609077453613281250e+00 6.093929409980773926e-01 1.572521686553955078e+00 6.545743942260742188e-01 -6.298045814037322998e-02
2.995000000000000000e+03 2.382982444763183594e+01 5.154298782348632812e+00 3.913767635822296143e-01 1.407911419868469238e+00 5.397864580154418945e-01 2.333854883909225464e-02
2.996000000000000000e+03 1.220284557342529297e+01 1.236388969421386719e+01 4.778219163417816162e-01 -3.985193669795989990e-01 2.379076369106769562e-02 3.967692852020263672e-01
2.997000000000000000e+03 2.605155754089355469e+01 2.886556863784790039e+00 1.168918758630752563e-01 2.085610866546630859e+00 6.607508063316345215e-01 8.271399885416030884e-02
2.998000000000000000e+03 2.589588165283203125e+01 5.801651954650878906e+00 5.600298047065734863e-01 2.100129365921020508e+00 7.980477213859558105e-01 -4.688569158315658569e-02
2.999000000000000000e+03 1.817929458618164062e+01 1.634717178344726562e+01 7.430925369262695312e-01 6.460063457489013672e-01 4.167296588420867920e-01 -1.441370397806167603e-01
3.000000000000000000e+03 1.762955474853515625e+01 1.174204254150390625e+01 7.361276149749755859e-01 2.652338445186614990e-01 3.004084527492523193e-01 9.617700427770614624e-02
3.001000000000000000e+03 1.709421920776367188e+01 1.060054779052734375e+01 6.733825802803039551e-01 1.052919328212738037e-01 2.336023598909378052e-01 1.875860989093780518e-01
3.002000000000000000e+03 1.360522747039794922e+01 1.300975418090820312e+01 5.507502555847167969e-01 -2.301069051027297974e-01 9.619300067424774170e-02 2.900506556034088135e-01
3.003000000000000000e+03 3.022673797607421875e+01 1.006067848205566406e+01 1.276076555252075195e+00 3.667254447937011719e+00 1.482999324798583984e+00 -3.349397778511047363e-01
3.004000000000000000e+03 2.916719245910644531e+01 1.066219425201416016e+01 1.218687891960144043e+00 3.199787855148315430e+00 1.325542688369750977e+00 -3.634074628353118896e-01
3.005000000000000000e+03 2.811778450012207031e+01 2.555418014526367188e-01 -1.599386483430862427e-01 2.805538654327392578e+00 7.936800122261047363e-01 2.486376464366912842e-01
3.006000000000000000e+03 1.425103282928466797e+01 1.840377044677734375e+01 5.346991419792175293e-01 1.352358758449554443e-01 2.009804993867874146e-01 -1.257150527089834213e-02
3.007000000000000000e+03 2.917066764831542969e+01 -1.230681464076042175e-01 -1.362375020980834961e-01 3.113111972808837891e+00 8.930622935295104980e-01 2.527636289596557617e-01
3.008000000000000000e+03 2.916998672485351562e+01 9.344760894775390625e+00 1.138186335563659668e+00 3.182476043701171875e+00 1.296198725700378418e+00 -2.740255594253540039e-01
3.009000000000000000e+03 2.776586341857910156e+01 4.736742019653320312e+00 4.694114923477172852e-01 2.672443628311157227e+00 9.425565600395202637e-01 -1.744095608592033386e-02
3.010000000000000000e+03 2.600296211242675781e+01 1.414887332916259766e+01 1.165951132774353027e+00 2.378468275070190430e+00 1.063325762748718262e+00 -4.796264171600341797e-01
3.011000000000000000e+03 2.793342590332031250e+01 1.509871196746826172e+01 1.193954706192016602e+00 2.943568706512451172e+00 1.241257071495056152e+00 -5.829209685325622559e-01
3.012000000000000000e+03 2.882829093933105469e+01 2.186389350891113281e+01 6.837413311004638672e-01 3.468370437622070312e+00 1.245633602142333984e+00 -8.113623857498168945e-01
3.013000000000000000e+03 2.944907951354980469e+01 -5.911913871765136719e+00 1.025468707084655762e-01 2.597897052764892578e+00 8.101331591606140137e-01 8.332852125167846680e-01
3.014000000000000000e+03 2.826077651977539062e+01 -6.599304676055908203e+00 1.088434383273124695e-01 2.399357318878173828e+00 7.524602413177490234e-01 1.214693069458007812e+00
3.015000000000000000e+03 2.924489974975585938e+01 -5.237090110778808594e+00 -6.341265887022018433e-02 2.721734285354614258e+00 7.974964976310729980e-01 7.867738604545593262e-01
3.016000000000000000e+03 2.783890724182128906e+01 -4.156648159027099609e+00 -4.331515431404113770e-01 2.661391973495483398e+00 6.684721112251281738e-01 7.596756219863891602e-01
3.017000000000000000e+03 2.884406471252441406e+01 -6.777785420417785645e-01 -2.252833843231201172e-01 3.009444236755371094e+00 8.352482318878173828e-01 2.991691827774047852e-01
3.018000000000000000e+03 2.824170494079589844e+01 -2.445019483566284180e+00 -3.818866014480590820e-01 2.799311637878417969e+00 7.252275347709655762e-01 5.007270574569702148e-01
3.019000000000000000e+03 2.910245704650878906e+01 -3.151391983032226562e+00 -2.913742661476135254e-01 2.960762739181518555e+00 8.008165359497070312e-01 5.430163145065307617e-01
3.020000000000000000e+03 2.868273735046386719e+01 1.776036173105239868e-01 -1.177976578474044800e-01 3.033020973205566406e+00 8.745670318603515625e-01 2.442326247692108154e-01
3.021000000000000000e+03 2.908019828796386719e+01 -3.937304973602294922e+00 -2.540833652019500732e-01 2.901922464370727539e+00 7.943517565727233887e-01 6.314270496368408203e-01
3.022000000000000000e+03 3.174603462219238281e+01 -5.617651462554931641e+00 1.305567622184753418e-01 3.068572044372558594e+00 9.597386717796325684e-01 2.428543418645858765e-01
3.023000000000000000e+03 2.773259544372558594e+01 -3.419516801834106445e+00 -4.754263460636138916e-01 2.657510995864868164e+00 6.546253561973571777e-01 6.459672451019287109e-01
3.024000000000000000e+03 3.362644195556640625e+01 1.112194538116455078e+00 1.620810180902481079e-01 4.581988811492919922e+00 1.423220992088317871e+00 -4.511265084147453308e-02
3.025000000000000000e+03 3.377463531494140625e+01 -3.327335834503173828e+00 -1.013903021812438965e-01 4.066864490509033203e+00 1.189642310142517090e+00 -1.091740652918815613e-01
3.026000000000000000e+03 2.837002372741699219e+01 1.840067744255065918e+00 7.195747643709182739e-02 2.915641069412231445e+00 8.962795734405517578e-01 1.444468051195144653e-01
3.027000000000000000e+03 2.742002487182617188e+01 1.936743497848510742e+00 2.964252233505249023e-02 2.590018272399902344e+00 7.858982682228088379e-01 1.371914744377136230e-01
3.028000000000000000e+03 2.748636627197265625e+01 5.634906291961669922e+00 5.895351767539978027e-01 2.607564449310302734e+00 9.591298699378967285e-01 -5.253409594297409058e-02
3.029000000000000000e+03 2.880449867248535156e+01 -6.231826305389404297e+00 1.050224453210830688e-01 2.483557224273681641e+00 7.765739560127258301e-01 1.024207353591918945e+00
3.030000000000000000e+03 3.454782485961914062e+01 -2.389986038208007812e+00 -1.195786148309707642e-01 4.440389156341552734e+00 1.296243190765380859e+00 -2.080982178449630737e-01
3.031000000000000000e+03 3.327120590209960938e+01 -6.801882982254028320e-01 -2.222745306789875031e-02 4.299894332885742188e+00 1.283300042152404785e+00 5.295303650200366974e-03
3.032000000000000000e+03 1.579048156738281250e+01 1.072866344451904297e+01 6.323020458221435547e-01 -8.797641098499298096e-02 1.632976830005645752e-01 2.607454657554626465e-01
3.033000000000000000e+03 1.521292018890380859e+01 1.355557060241699219e+01 6.383939385414123535e-01 -5.904918070882558823e-03 1.897467076778411865e-01 1.713665127754211426e-01
3.034000000000000000e+03 1.459653568267822266e+01 1.245034599304199219e+01 6.010666489601135254e-01 -1.527336835861206055e-01 1.344998925924301147e-01 2.658325433731079102e-01
3.035000000000000000e+03 3.017835617065429688e+01 4.898200988769531250e+00 6.479544639587402344e-01 3.517114400863647461e+00 1.249520659446716309e+00 -3.159748390316963196e-02
3.036000000000000000e+03 2.991209983825683594e+01 3.666722536087036133e+00 4.256316721439361572e-01 3.428629636764526367e+00 1.156278371810913086e+00 3.429260104894638062e-02
3.037000000000000000e+03 2.230932044982910156e+01 8.731883049011230469e+00 7.499836683273315430e-01 1.109945297241210938e+00 5.579786896705627441e-01 -5.418130382895469666e-02
3.038000000000000000e+03 2.133895683288574219e+01 9.442705154418945312e+00 7.720865011215209961e-01 8.748512268066406250e-01 4.940813183784484863e-01 -4.249581322073936462e-02
3.039000000000000000e+03 2.478407096862792969e+01 8.079437255859375000e+00 7.633087038993835449e-01 1.802666783332824707e+00 7.697926759719848633e-01 -1.411371082067489624e-01
3.040000000000000000e+03 2.494011878967285156e+01 6.089085102081298828e+00 5.790156722068786621e-01 1.805305719375610352e+00 7.152964472770690918e-01 -4.137592017650604248e-02
3.041000000000000000e+03 2.616512107849121094e+01 4.604249477386474609e+00 3.853200376033782959e-01 2.118011236190795898e+00 7.509993910789489746e-01 -2.441999968141317368e-03
3.042000000000000000e+03 2.662222290039062500e+01 5.280681610107421875e+00 5.240823030471801758e-01 2.327630043029785156e+00 8.555137515068054199e-01 -2.926524728536605835e-02
3.043000000000000000e+03 3.422631454467773438e+01 -4.735267639160156250e+00 -7.732550799846649170e-02 3.957865238189697266e+00 1.164161920547485352e+00 -2.639449536800384521e-01
3.044000000000000000e+03 3.390676879882812500e+01 -4.084974288940429688e+00 -9.123296290636062622e-02 3.961152553558349609e+00 1.160975813865661621e+00 -1.292086243629455566e-01
3.045000000000000000e+03 1.977722930908203125e+01 1.283170890808105469e+01 8.412316441535949707e-01 7.310681939125061035e-01 4.716899394989013672e-01 -9.605420380830764771e-02
3.046000000000000000e+03 1.698206520080566406e+01 1.549603366851806641e+01 7.124773859977722168e-01 3.839660286903381348e-01 3.289330303668975830e-01 -3.241157531738281250e-02
3.047000000000000000e+03 1.739930725097656250e+01 1.762609291076660156e+01 6.816606521606445312e-01 5.829944014549255371e-01 3.793965280055999756e-01 -1.423173397779464722e-01
3.048000000000000000e+03 2.203998565673828125e+01 1.045462131500244141e+01 8.660867810249328613e-01 1.116816759109497070e+00 5.948711037635803223e-01 -1.206419691443443298e-01
3.049000000000000000e+03 2.784427833557128906e+01 1.129686069488525391e+01 1.201242804527282715e+00 2.815017700195312500e+00 1.204878091812133789e+00 -3.659203946590423584e-01
3.050000000000000000e+03 2.787570953369140625e+01 8.855978012084960938e+00 1.011298537254333496e+00 2.781306266784667969e+00 1.137781381607055664e+00 -2.397042661905288696e-01
3.051000000000000000e+03 1.867729377746582031e+01 1.506883811950683594e+01 8.008059263229370117e-01 6.747870445251464844e-01 4.426778852939605713e-01 -1.203365400433540344e-01
3.052000000000000000e+03 1.600868034362792969e+01 1.456146526336669922e+01 6.755821108818054199e-01 1.679867953062057495e-01 2.530706524848937988e-01 7.080271840095520020e-02
3.053000000000000000e+03 1.752182769775390625e+01 2.015344619750976562e+01 5.883252620697021484e-01 7.734810709953308105e-01 4.085418879985809326e-01 -2.558739185333251953e-01
3.054000000000000000e+03 2.929279327392578125e+01 7.026013374328613281e+00 8.963091373443603516e-01 3.218679666519165039e+00 1.234496593475341797e+00 -1.415107250213623047e-01
3.055000000000000000e+03 2.218816947937011719e+01 3.022553443908691406e+01 -8.566312491893768311e-02 2.134142875671386719e+00 6.145439147949218750e-01 -4.858807027339935303e-01
3.056000000000000000e+03 2.808373451232910156e+01 2.413341522216796875e+01 3.955082297325134277e-01 3.266078472137451172e+00 1.098475933074951172e+00 -7.841142416000366211e-01
3.057000000000000000e+03 3.243437576293945312e+01 2.411644744873046875e+01 3.578212559223175049e-01 4.348793983459472656e+00 1.411984682083129883e+00 -7.338424324989318848e-01
3.058000000000000000e+03 2.730277824401855469e+01 -6.325033187866210938e+00 -2.036075741052627563e-01 2.465501785278320312e+00 6.785682439804077148e-01 1.288582801818847656e+00
3.059000000000000000e+03 2.860216903686523438e+01 -5.510609149932861328e+00 -1.098292395472526550e-01 2.601864337921142578e+00 7.476105690002441406e-01 9.526706337928771973e-01
3.060000000000000000e+03 3.125940132141113281e+01 -4.154154300689697266e+00 -5.553991347551345825e-02 3.276611089706420898e+00 9.663213491439819336e-01 3.452934622764587402e-01
3.061000000000000000e+03 3.053169250488281250e+01 -4.522843360900878906e+00 -4.194245859980583191e-02 3.061506509780883789e+00 9.058691859245300293e-01 4.739229381084442139e-01
3.062000000000000000e+03 2.844008445739746094e+01 -4.017154216766357422e+00 -3.406584560871124268e-01 2.767087459564208984e+00 7.279286980628967285e-01 7.047838568687438965e-01
3.063000000000000000e+03 2.897146987915039062e+01 8.301206231117248535e-01 -1.696766354143619537e-02 3.105274915695190430e+00 9.264921545982360840e-01 2.008835077285766602e-01
3.064000000000000000e+03 2.894961547851562500e+01 -2.279708385467529297e+00 -3.005996644496917725e-01 2.991771221160888672e+00 8.073514699935913086e-01 4.478677511215209961e-01
3.065000000000000000e+03 3.022762489318847656e+01 -1.094004511833190918e+00 -1.388817429542541504e-01 3.407015800476074219e+00 9.804401993751525879e-01 2.843367457389831543e-01
3.066000000000000000e+03 2.837787437438964844e+01 -3.257011175155639648e+00 -3.881907761096954346e-01 2.806880712509155273e+00 7.256069779396057129e-01 5.977936983108520508e-01
3.067000000000000000e+03 3.320538330078125000e+01 1.950325816869735718e-01 6.062867864966392517e-02 4.374836444854736328e+00 1.330639600753784180e+00 7.533656433224678040e-03
3.068000000000000000e+03 2.791290664672851562e+01 -4.892093658447265625e+00 -3.464736342430114746e-01 2.617759227752685547e+00 6.813856959342956543e-01 9.003940224647521973e-01
3.069000000000000000e+03 2.396072578430175781e+01 8.974130630493164062e+00 8.375364542007446289e-01 1.574185252189636230e+00 7.235165238380432129e-01 -1.391814798116683960e-01
3.070000000000000000e+03 2.687349128723144531e+01 3.776707172393798828e+00 2.985074520111083984e-01 2.408415079116821289e+00 8.120767474174499512e-01 3.581842407584190369e-02
3.071000000000000000e+03 2.930440139770507812e+01 1.632644057273864746e+00 9.497755020856857300e-02 3.214955329895019531e+00 9.929798841476440430e-01 1.501942276954650879e-01
3.072000000000000000e+03 3.087870597839355469e+01 -9.705634117126464844e-01 -1.056044101715087891e-01 3.579309463500976562e+00 1.042111515998840332e+00 2.286850363016128540e-01
3.073000000000000000e+03 1.862409973144531250e+01 1.169771003723144531e+01 7.815462946891784668e-01 4.391125440597534180e-01 3.661976456642150879e-01 3.013807162642478943e-02
3.074000000000000000e+03 2.043735885620117188e+01 1.014816570281982422e+01 7.774862051010131836e-01 7.138579487800598145e-01 4.474032223224639893e-01 -2.227051369845867157e-02
3.075000000000000000e+03 3.270931625366210938e+01 -2.670133113861083984e+00 -9.034687280654907227e-02 3.898553371429443359e+00 1.142461895942687988e+00 7.256679236888885498e-02
3.076000000000000000e+03 2.728148460388183594e+01 1.352904605865478516e+01 1.207393288612365723e+00 2.686077356338500977e+00 1.168041229248046875e+00 -4.929085373878479004e-01
3.077000000000000000e+03 2.887932586669921875e+01 4.962684631347656250e+00 5.925460457801818848e-01 3.106150150299072266e+00 1.109608888626098633e+00 -2.401348948478698730e-02
3.078000000000000000e+03 1.681908988952636719e+01 1.217191600799560547e+01 6.916327476501464844e-01 1.236886233091354370e-01 2.445964068174362183e-01 1.434467434883117676e-01
3.079000000000000000e+03 2.529267692565917969e+01 1.299776268005371094e+01 1.100369930267333984e+00 2.126240968704223633e+00 9.679832458496093750e-01 -3.824777305126190186e-01
3.080000000000000000e+03 3.151840209960937500e+01 -4.903408527374267578e+00 3.304320201277732849e-02 3.203307151794433594e+00 9.709051251411437988e-01 2.894572019577026367e-01
3.081000000000000000e+03 2.517611694335937500e+01 7.046316146850585938e+00 7.186630368232727051e-01 1.894108414649963379e+00 7.838314175605773926e-01 -1.007397398352622986e-01
3.082000000000000000e+03 2.653058052062988281e+01 1.217869377136230469e+01 1.148924708366394043e+00 2.439649343490600586e+00 1.076572179794311523e+00 -4.025227725505828857e-01
3.083000000000000000e+03 1.895748519897460938e+01 1.393332576751708984e+01 8.251307606697082520e-01 6.568008661270141602e-01 4.445794820785522461e-01 -9.293421357870101929e-02
3.084000000000000000e+03 3.064050292968750000e+01 2.267096996307373047e+00 2.577234804630279541e-01 3.662415742874145508e+00 1.176041722297668457e+00 9.510267525911331177e-02
3.085000000000000000e+03 2.631870460510253906e+01 6.896599769592285156e+00 7.487335205078125000e-01 2.236233949661254883e+00 8.954902291297912598e-01 -1.054417416453361511e-01
3.086000000000000000e+03 2.690044021606445312e+01 1.003243160247802734e+01 1.081221818923950195e+00 2.523447751998901367e+00 1.081400871276855469e+00 -2.800935208797454834e-01
3.087000000000000000e+03 2.483140182495117188e+01 9.927407264709472656e+00 9.569448232650756836e-01 1.857385516166687012e+00 8.442990779876708984e-01 -2.162157744169235229e-01
3.088000000000000000e+03 2.113728904724121094e+01 1.109064006805419922e+01 8.729885220527648926e-01 9.303550124168395996e-01 5.410030484199523926e-01 -1.048281863331794739e-01
3.089000000000000000e+03 2.377373695373535156e+01 1.078134250640869141e+01 9.591821432113647461e-01 1.593595862388610840e+00 7.658333778381347656e-01 -2.090906053781509399e-01
3.090000000000000000e+03 1.716855621337890625e+01 2.315231132507324219e+01 4.226725101470947266e-01 8.588398098945617676e-01 3.844536840915679932e-01 -3.253214657306671143e-01
3.091000000000000000e+03 1.878361511230468750e+01 2.161724472045898438e+01 5.550324916839599609e-01 1.063222289085388184e+00 4.854764342308044434e-01 -3.675240576267242432e-01
3.092000000000000000e+03 4.889366531372070312e+01 -3.409476089477539062e+01 -2.666797637939453125e-01 6.401896953582763672e+00 1.840565085411071777e+00 -9.532525539398193359e-01
3.093000000000000000e+03 2.156397247314453125e+01 2.469446563720703125e+01 3.654327392578125000e-01 1.777521371841430664e+00 6.428862214088439941e-01 -5.323366522789001465e-01
3.094000000000000000e+03 2.167384338378906250e+01 2.165139198303222656e+01 6.046932935714721680e-01 1.650969147682189941e+00 6.766987442970275879e-01 -5.050508379936218262e-01
3.095000000000000000e+03 2.987699890136718750e+01 -4.897691249847412109e+00 -4.796525835990905762e-02 2.877090215682983398e+00 8.487374782562255859e-01 6.362568736076354980e-01
3.096000000000000000e+03 3.205921936035156250e+01 -3.806134939193725586e+00 -6.108481809496879578e-02 3.552178859710693359e+00 1.047328233718872070e+00 1.735022962093353271e-01
3.097000000000000000e+03 2.958378028869628906e+01 -4.239602088928222656e+00 -1.666699796915054321e-01 2.939224958419799805e+00 8.317664861679077148e-01 6.054891943931579590e-01
3.098000000000000000e+03 3.100352668762207031e+01 -1.609373807907104492e+00 -1.324273645877838135e-01 3.548504829406738281e+00 1.024823307991027832e+00 2.508360147476196289e-01
3.099000000000000000e+03 2.849536323547363281e+01 -4.754327297210693359e+00 -2.619336843490600586e-01 2.717374086380004883e+00 7.366321086883544922e-01 8.196295499801635742e-01
3.100000000000000000e+03 2.970823478698730469e+01 4.275776743888854980e-01 -2.730831317603588104e-02 3.323198795318603516e+00 9.887671470642089844e-01 2.047102153301239014e-01
3.101000000000000000e+03 3.196446228027343750e+01 -1.629465818405151367e+00 -9.119164198637008667e-02 3.811720371246337891e+00 1.116158604621887207e+00 1.609790474176406860e-01
3.102000000000000000e+03 3.183419609069824219e+01 -4.421747326850891113e-01 -1.380354538559913635e-02 3.923274755477905273e+00 1.172841429710388184e+00 1.212169155478477478e-01
3.103000000000000000e+03 2.962280464172363281e+01 2.586220979690551758e+00 2.542970776557922363e-01 3.317767620086669922e+00 1.071619391441345215e+00 9.257832914590835571e-02
3.104000000000000000e+03 2.301432228088378906e+01 9.743640899658203125e+00 8.699721097946166992e-01 1.330340027809143066e+00 6.600936651229858398e-01 -1.354313343763351440e-01
3.105000000000000000e+03 3.019426536560058594e+01 -3.781037569046020508e+00 -1.489739269018173218e-01 3.108103990554809570e+00 8.877390027046203613e-01 4.880343675613403320e-01
3.106000000000000000e+03 1.815424156188964844e+01 1.343855094909667969e+01 7.807798981666564941e-01 4.745134115219116211e-01 3.765879869461059570e-01 -5.602443125098943710e-03
3.107000000000000000e+03 1.978377151489257812e+01 1.091802597045898438e+01 8.018547892570495605e-01 6.184511184692382812e-01 4.260917901992797852e-01 -1.739290356636047363e-02
3.108000000000000000e+03 2.340680122375488281e+01 1.270331954956054688e+01 1.001106500625610352e+00 1.582273602485656738e+00 7.750140428543090820e-01 -2.745111882686614990e-01
3.109000000000000000e+03 2.749846839904785156e+01 6.556699752807617188e+00 7.744036316871643066e-01 2.657909393310546875e+00 1.029693841934204102e+00 -9.185261279344558716e-02
3.110000000000000000e+03 2.847367095947265625e+01 6.022144794464111328e+00 7.217816114425659180e-01 2.994943380355834961e+00 1.115017533302307129e+00 -8.431740105152130127e-02
3.111000000000000000e+03 2.683592796325683594e+01 8.063266754150390625e+00 8.684902787208557129e-01 2.388246774673461914e+00 9.770211577415466309e-01 -1.809773594141006470e-01
3.112000000000000000e+03 3.023984909057617188e+01 1.242667317390441895e+00 9.193373471498489380e-02 3.497333049774169922e+00 1.076779961585998535e+00 1.493709087371826172e-01
3.113000000000000000e+03 2.570661354064941406e+01 1.099248409271240234e+01 1.065420746803283691e+00 2.160730123519897461e+00 9.678452610969543457e-01 -3.035360872745513916e-01
3.114000000000000000e+03 2.779866218566894531e+01 3.809360742568969727e+00 3.758526146411895752e-01 2.734127283096313477e+00 9.329939484596252441e-01 4.988946393132209778e-02
3.115000000000000000e+03 1.675586700439453125e+01 1.369640445709228516e+01 7.206057906150817871e-01 2.377702891826629639e-01 2.875128388404846191e-01 6.248534470796585083e-02
3.116000000000000000e+03 2.798775482177734375e+01 7.616413116455078125e+00 9.137846827507019043e-01 2.818547248840332031e+00 1.119699597358703613e+00 -1.584521830081939697e-01
3.117000000000000000e+03 1.885439491271972656e+01 1.290964794158935547e+01 8.035612702369689941e-01 5.531681776046752930e-01 4.070188403129577637e-01 -3.521075472235679626e-02
3.118000000000000000e+03 1.966967391967773438e+01 1.706144905090332031e+01 7.974951267242431641e-01 9.776890277862548828e-01 5.325552821159362793e-01 -2.662568390369415283e-01
3.119000000000000000e+03 1.883502197265625000e+01 1.872592926025390625e+01 7.145757675170898438e-01 9.289194941520690918e-01 4.930485486984252930e-01 -2.914206981658935547e-01
3.120000000000000000e+03 3.225834274291992188e+01 4.809565842151641846e-01 7.506608217954635620e-02 4.113096714019775391e+00 1.256448745727539062e+00 7.468201220035552979e-02
3.121000000000000000e+03 2.688646125793457031e+01 4.566786289215087891e+00 4.036437571048736572e-01 2.444795608520507812e+00 8.545317649841308594e-01 -7.893410511314868927e-03
3.122000000000000000e+03 2.881737709045410156e+01 3.811903715133666992e+00 4.130689203739166260e-01 3.069315671920776367e+00 1.044715404510498047e+00 4.140896350145339966e-02
3.123000000000000000e+03 2.272300720214843750e+01 1.154469013214111328e+01 9.578941464424133301e-01 1.330671072006225586e+00 6.865695714950561523e-01 -2.011488527059555054e-01
3.124000000000000000e+03 2.413332366943359375e+01 1.387699222564697266e+01 1.059726357460021973e+00 1.831141948699951172e+00 8.672605156898498535e-01 -3.779161870479583740e-01
3.125000000000000000e+03 1.346785354614257812e+01 2.458811378479003906e+01 2.623502910137176514e-01 3.064642846584320068e-01 1.706443727016448975e-01 -1.951100826263427734e-01
3.126000000000000000e+03 1.742647933959960938e+01 1.282014274597167969e+01 7.607229351997375488e-01 3.054696917533874512e-01 3.198577761650085449e-01 4.865928366780281067e-02
3.127000000000000000e+03 2.967511749267578125e+01 -2.103080034255981445e+00 -2.358631491661071777e-01 3.181039333343505859e+00 8.835528492927551270e-01 3.945563435554504395e-01
3.128000000000000000e+03 3.012519836425781250e+01 -2.686122655868530273e-01 -7.975646108388900757e-02 3.422927856445312500e+00 1.002951383590698242e+00 2.301606088876724243e-01
3.129000000000000000e+03 3.179644584655761719e+01 -2.981620073318481445e+00 -1.019654050469398499e-01 3.600714683532714844e+00 1.049624800682067871e+00 2.202504128217697144e-01
3.130000000000000000e+03 2.906884384155273438e+01 -4.589289665222167969e+00 -1.943973451852798462e-01 2.787720680236816406e+00 7.779969573020935059e-01 7.397973537445068359e-01
3.131000000000000000e+03 2.862193107604980469e+01 2.778336763381958008e+00 2.254563570022583008e-01 3.002463817596435547e+00 9.683760404586791992e-01 8.624232560396194458e-02
3.132000000000000000e+03 3.246644210815429688e+01 -1.017024040222167969e+00 -3.331015631556510925e-02 4.041153430938720703e+00 1.202353000640869141e+00 7.526572793722152710e-02
3.133000000000000000e+03 3.096923446655273438e+01 -1.504161208868026733e-01 -2.256601117551326752e-02 3.649112462997436523e+00 1.087963938713073730e+00 1.824536919593811035e-01
3.134000000000000000e+03 2.454053688049316406e+01 1.187022686004638672e+01 1.045288324356079102e+00 1.854449510574340820e+00 8.699213266372680664e-01 -3.009397387504577637e-01
3.135000000000000000e+03 2.987999153137207031e+01 -2.962867021560668945e+00 -2.150481194257736206e-01 3.151015520095825195e+00 8.807902336120605469e-01 4.478011131286621094e-01
3.136000000000000000e+03 3.265538787841796875e+01 -1.801000833511352539e+00 -7.965126633644104004e-02 3.981359004974365234e+00 1.170512318611145020e+00 8.463820815086364746e-02
3.137000000000000000e+03 2.074134445190429688e+01 1.262613868713378906e+01 8.875303268432617188e-01 9.248257875442504883e-01 5.437068343162536621e-01 -1.458978801965713501e-01
3.138000000000000000e+03 2.035591125488281250e+01 1.160565376281738281e+01 8.575780391693115234e-01 7.872013449668884277e-01 4.934338033199310303e-01 -8.454297482967376709e-02
3.139000000000000000e+03 1.634486961364746094e+01 1.879233360290527344e+01 6.185334920883178711e-01 4.749024212360382080e-01 3.280307650566101074e-01 -1.417437493801116943e-01
3.140000000000000000e+03 1.996507835388183594e+01 1.403072929382324219e+01 8.654557466506958008e-01 8.538227677345275879e-01 5.157835483551025391e-01 -1.609720736742019653e-01
3.141000000000000000e+03 1.761551284790039062e+01 1.444970417022705078e+01 7.511175274848937988e-01 4.229772090911865234e-01 3.522284328937530518e-01 -2.415079995989799500e-02
3.142000000000000000e+03 2.144021797180175781e+01 1.542731952667236328e+01 9.017918109893798828e-01 1.243392109870910645e+00 6.435551643371582031e-01 -3.039803802967071533e-01
3.143000000000000000e+03 2.139776229858398438e+01 1.721256256103515625e+01 8.558022379875183105e-01 1.340387344360351562e+00 6.588568687438964844e-01 -3.655635714530944824e-01
3.144000000000000000e+03 2.594157600402832031e+01 1.992166328430175781e+01 7.895138263702392578e-01 2.561940908432006836e+00 1.005436420440673828e+00 -6.704171895980834961e-01
3.145000000000000000e+03 2.180960464477539062e+01 1.885513305664062500e+01 7.993050217628479004e-01 1.515076637268066406e+00 6.943144798278808594e-01 -4.575925469398498535e-01
3.146000000000000000e+03 2.015002250671386719e+01 2.310946655273437500e+01 4.744888842105865479e-01 1.397191166877746582e+00 5.615040063858032227e-01 -4.497772157192230225e-01
3.147000000000000000e+03 3.037843704223632812e+01 -1.871986150741577148e+00 -1.659917682409286499e-01 3.386653900146484375e+00 9.661986231803894043e-01 3.061959147453308105e-01
3.148000000000000000e+03 3.096507072448730469e+01 -3.392400979995727539e+00 -1.181044727563858032e-01 3.336812496185302734e+00 9.656123518943786621e-01 3.394429385662078857e-01
3.149000000000000000e+03 3.065012168884277344e+01 -2.635270118713378906e+00 -1.589758694171905518e-01 3.357730150222778320e+00 9.596263170242309570e-01 3.406008481979370117e-01
3.150000000000000000e+03 3.123692703247070312e+01 8.458496332168579102e-01 8.660207688808441162e-02 3.792043924331665039e+00 1.163593769073486328e+00 1.287579983472824097e-01
3.151000000000000000e+03 3.144239425659179688e+01 -1.156676292419433594e+00 -8.741606026887893677e-02 3.679623126983642578e+00 1.077662110328674316e+00 1.899219453334808350e-01
3.152000000000000000e+03 1.957748794555664062e+01 1.178622150421142578e+01 8.328027725219726562e-01 6.313472390174865723e-01 4.392450153827667236e-01 -3.763118386268615723e-02
3.153000000000000000e+03 2.171690368652343750e+01 1.218215847015380859e+01 9.227675795555114746e-01 1.129865169525146484e+00 6.157898306846618652e-01 -1.808354705572128296e-01
3.154000000000000000e+03 2.501293182373046875e+01 1.493380451202392578e+01 1.062719106674194336e+00 2.096659898757934570e+00 9.478136897087097168e-01 -4.601153433322906494e-01
3.155000000000000000e+03 2.227590370178222656e+01 1.342723655700683594e+01 9.647997021675109863e-01 1.300253152847290039e+00 6.795158386230468750e-01 -2.610321938991546631e-01
3.156000000000000000e+03 2.110776710510253906e+01 1.388922977447509766e+01 9.121453762054443359e-01 1.087674856185913086e+00 5.999460816383361816e-01 -2.323696166276931763e-01
3.157000000000000000e+03 2.895881080627441406e+01 1.666319656372070312e+01 1.168483614921569824e+00 3.324736595153808594e+00 1.347966074943542480e+00 -7.001636624336242676e-01
3.158000000000000000e+03 1.796294212341308594e+01 2.664626121520996094e+01 2.333256751298904419e-01 1.121197342872619629e+00 4.063569307327270508e-01 -3.886823654174804688e-01
3.159000000000000000e+03 1.858329010009765625e+01 2.463777542114257812e+01 3.566246032714843750e-01 1.144474387168884277e+00 4.503297209739685059e-01 -3.949029147624969482e-01
3.160000000000000000e+03 2.291190147399902344e+01 1.484004497528076172e+01 9.590256810188293457e-01 1.558351755142211914e+00 7.552132606506347656e-01 -3.593637645244598389e-01
3.161000000000000000e+03 2.401853561401367188e+01 1.613306808471679688e+01 9.836369156837463379e-01 1.876815319061279297e+00 8.581356406211853027e-01 -4.678610861301422119e-01
3.162000000000000000e+03 2.742521858215332031e+01 1.827480697631835938e+01 1.013852596282958984e+00 2.940044879913330078e+00 1.186169266700744629e+00 -6.922239065170288086e-01
3.163000000000000000e+03 2.731122970581054688e+01 2.115291213989257812e+01 7.284682989120483398e-01 2.939477205276489258e+00 1.100383639335632324e+00 -7.423697113990783691e-01
3.164000000000000000e+03 3.057535171508789062e+01 1.924619293212890625e+01 9.969282746315002441e-01 3.863644599914550781e+00 1.458171844482421875e+00 -7.990562319755554199e-01
3.165000000000000000e+03 2.457793235778808594e+01 2.157067298889160156e+01 6.398753523826599121e-01 2.292489290237426758e+00 8.797093629837036133e-01 -6.454497575759887695e-01
3.166000000000000000e+03 2.300394058227539062e+01 1.759561347961425781e+01 9.170638322830200195e-01 1.741339802742004395e+00 7.975211143493652344e-01 -4.750168323516845703e-01
3.167000000000000000e+03 2.312481689453125000e+01 2.022345161437988281e+01 7.102187275886535645e-01 1.887459635734558105e+00 7.793034911155700684e-01 -5.525643825531005859e-01
3.168000000000000000e+03 2.028939437866210938e+01 2.009370422363281250e+01 6.794693470001220703e-01 1.285444259643554688e+00 5.894740819931030273e-01 -4.040498733520507812e-01
3.169000000000000000e+03 2.314942550659179688e+01 2.316352844238281250e+01 4.932920038700103760e-01 2.040455341339111328e+00 7.601241469383239746e-01 -5.862122178077697754e-01
3.170000000000000000e+03 2.477151870727539062e+01 2.473364830017089844e+01 3.682865798473358154e-01 2.489866256713867188e+00 8.574458956718444824e-01 -6.860404610633850098e-01
3.171000000000000000e+03 1.986141777038574219e+01 2.605162239074707031e+01 2.714880108833312988e-01 1.513394594192504883e+00 5.354647636413574219e-01 -4.709060192108154297e-01
3.172000000000000000e+03 3.314472961425781250e+01 2.624667739868164062e+01 6.481475383043289185e-02 4.434862613677978516e+00 1.349903225898742676e+00 -6.654919385910034180e-01
3.173000000000000000e+03 7.470894622802734375e+01 -3.700495910644531250e+01 -2.888090014457702637e-01 6.324378490447998047e+00 1.810670733451843262e+00 -1.283411234617233276e-01
3.174000000000000000e+03 3.365325546264648438e+01 3.240248107910156250e+01 -6.890608072280883789e-01 4.176901817321777344e+00 1.046352267265319824e+00 -4.347190260887145996e-01
3.175000000000000000e+03 3.214396667480468750e+01 2.976416969299316406e+01 -3.440101444721221924e-01 4.051336765289306641e+00 1.112197995185852051e+00 -5.948563814163208008e-01
3.176000000000000000e+03 2.089615821838378906e+01 2.804100036621093750e+01 1.246775761246681213e-01 1.784237265586853027e+00 5.726744532585144043e-01 -4.977958798408508301e-01
3.177000000000000000e+03 3.773025131225585938e+01 3.283576583862304688e+01 -8.608482480049133301e-01 4.511057376861572266e+00 1.095062732696533203e+00 -1.710841357707977295e-01
3.178000000000000000e+03 8.389506340026855469e+00 4.097096633911132812e+01 -8.565919846296310425e-02 -3.338933289051055908e-01 -1.258657574653625488e-01 -2.314894460141658783e-02
3.179000000000000000e+03 4.576523971557617188e+01 -3.802333068847656250e+01 -1.539440035820007324e+00 5.727639198303222656e+00 1.256459712982177734e+00 -8.567645400762557983e-02
3.180000000000000000e+03 2.292102813720703125e+01 -4.114867019653320312e+01 -7.361239790916442871e-01 -3.214082121849060059e-01 -3.172596395015716553e-01 4.620099440217018127e-02
3.181000000000000000e+03 4.158043289184570312e+01 3.206871414184570312e+01 -6.995381116867065430e-01 4.405049800872802734e+00 1.111653447151184082e+00 2.483553290367126465e-01
3.182000000000000000e+03 7.241143798828125000e+01 4.131282424926757812e+01 1.154514923691749573e-01 6.043041706085205078e+00 1.847548007965087891e+00 -1.627893373370170593e-02
3.183000000000000000e+03 1.520155715942382812e+01 -3.837181091308593750e+01 -5.743529796600341797e-01 -2.168303728103637695e-01 -2.373550087213516235e-01 1.836749613285064697e-01
3.184000000000000000e+03 2.299883079528808594e+01 2.647543525695800781e+01 2.244203388690948486e-01 2.183985948562622070e+00 7.225219011306762695e-01 -5.930565595626831055e-01
3.185000000000000000e+03 1.231488227844238281e+01 -4.129555130004882812e+01 -3.363405466079711914e-01 1.140224188566207886e-01 -6.669543683528900146e-02 3.179097920656204224e-02
3.186000000000000000e+03 4.544726562500000000e+01 -3.568924331665039062e+01 -1.285825133323669434e+00 6.053974628448486328e+00 1.430444836616516113e+00 -6.359242647886276245e-02
3.187000000000000000e+03 2.840248298645019531e+01 2.849814605712890625e+01 -6.044334918260574341e-02 3.373806476593017578e+00 9.940089583396911621e-01 -7.081962823867797852e-01
3.188000000000000000e+03 1.849888038635253906e+01 2.922046279907226562e+01 5.168735235929489136e-02 1.340929508209228516e+00 4.177850484848022461e-01 -4.039870798587799072e-01
3.189000000000000000e+03 1.331435298919677734e+01 3.767007827758789062e+01 -1.664945781230926514e-01 5.877611637115478516e-01 1.263799816370010376e-01 -1.148579940199851990e-01
3.190000000000000000e+03 2.111716461181640625e+01 3.486380386352539062e+01 -3.278865814208984375e-01 2.003974676132202148e+00 5.028263926506042480e-01 -3.151462376117706299e-01
3.191000000000000000e+03 2.406399536132812500e+01 3.688204193115234375e+01 -5.206413865089416504e-01 2.562456130981445312e+00 6.125444173812866211e-01 -2.910260260105133057e-01
3.192000000000000000e+03 2.807537460327148438e+01 3.742979049682617188e+01 -7.791699171066284180e-01 3.314612865447998047e+00 7.606329321861267090e-01 -2.661212682723999023e-01
3.193000000000000000e+03 3.217737579345703125e+01 3.696694564819335938e+01 -9.848192334175109863e-01 3.913232088088989258e+00 8.785238862037658691e-01 -2.746176123619079590e-01
3.194000000000000000e+03 1.951491165161132812e+01 3.198733901977539062e+01 -1.075187474489212036e-01 1.609118223190307617e+00 4.504798352718353271e-01 -3.841109871864318848e-01
3.195000000000000000e+03 3.552233123779296875e+01 3.523453903198242188e+01 -1.002709150314331055e+00 4.256590843200683594e+00 9.761645197868347168e-01 -2.444334477186203003e-01
3.196000000000000000e+03 2.452882575988769531e+01 2.834012413024902344e+01 2.580799907445907593e-02 2.583165645599365234e+00 7.826920747756958008e-01 -6.251231431961059570e-01
3.197000000000000000e+03 3.104853630065917969e+01 3.376977920532226562e+01 -6.926925778388977051e-01 3.795481681823730469e+00 9.308367371559143066e-01 -4.496767222881317139e-01
3.198000000000000000e+03 2.822770881652832031e+01 3.450849914550781250e+01 -6.315659284591674805e-01 3.328155994415283203e+00 8.089770674705505371e-01 -4.407772719860076904e-01
3.199000000000000000e+03 2.607292747497558594e+01 3.028433799743652344e+01 -1.899524778127670288e-01 2.907189369201660156e+00 8.151710629463195801e-01 -6.193845868110656738e-01
3.200000000000000000e+03 2.571799468994140625e+01 3.401503753662109375e+01 -4.561841189861297607e-01 2.856942892074584961e+00 7.202276587486267090e-01 -4.659675359725952148e-01
3.201000000000000000e+03 2.091138648986816406e+01 -1.053929996490478516e+01 3.246896028518676758e+00 -2.994672775268554688e+00 7.566695660352706909e-02 7.682979106903076172e-01
3.202000000000000000e+03 2.099254608154296875e+01 -1.067588710784912109e+01 3.771332740783691406e+00 -3.191798448562622070e+00 1.738602668046951294e-01 6.871200203895568848e-01
3.203000000000000000e+03 2.104321289062500000e+01 -1.094382381439208984e+01 4.666939258575439453e+00 -3.462227106094360352e+00 3.614136874675750732e-01 8.772825002670288086e-01
3.204000000000000000e+03 2.129413604736328125e+01 -1.124318695068359375e+01 6.088450431823730469e+00 -3.902270555496215820e+00 6.558538675308227539e-01 9.904882907867431641e-01
3.205000000000000000e+03 2.140558242797851562e+01 -1.139709854125976562e+01 6.974158287048339844e+00 -4.177287578582763672e+00 8.390612006187438965e-01 1.014925122261047363e+00
3.206000000000000000e+03 2.176971626281738281e+01 -1.205687141418457031e+01 8.767222404479980469e+00 -4.025631427764892578e+00 1.422477245330810547e+00 3.517153024673461914e+00
3.207000000000000000e+03 2.185298538208007812e+01 -1.225356769561767578e+01 9.299654006958007812e+00 -3.761794567108154297e+00 1.661357879638671875e+00 4.687562942504882812e+00
3.208000000000000000e+03 2.366414451599121094e+01 -7.322239398956298828e+00 -1.150545239448547363e+00 1.602602839469909668e+00 1.356172859668731689e-01 9.008103013038635254e-01
3.209000000000000000e+03 2.377085685729980469e+01 -7.992473125457763672e+00 -1.072824120521545410e+00 1.971557021141052246e+00 2.696198821067810059e-01 1.023703336715698242e+00
3.210000000000000000e+03 2.393166923522949219e+01 -8.331622123718261719e+00 -1.004948735237121582e+00 2.386220455169677734e+00 4.143814742565155029e-01 1.176203012466430664e+00
3.211000000000000000e+03 2.376694679260253906e+01 -8.475332260131835938e+00 -9.829543828964233398e-01 2.317382812500000000e+00 4.003285169601440430e-01 1.064968466758728027e+00
3.212000000000000000e+03 2.382517623901367188e+01 -9.091956138610839844e+00 -7.744088172912597656e-01 3.107886314392089844e+00 7.000432610511779785e-01 1.359359264373779297e+00
3.213000000000000000e+03 2.500442695617675781e+01 -9.719415664672851562e+00 1.496511340141296387e+00 3.621475934982299805e+00 1.535396218299865723e+00 3.575116634368896484e+00
3.214000000000000000e+03 2.476410293579101562e+01 -1.048644161224365234e+01 3.938480138778686523e+00 4.177892208099365234e+00 2.434911727905273438e+00 5.183430671691894531e+00
3.215000000000000000e+03 2.321462059020996094e+01 -1.405743312835693359e+01 -8.853318214416503906e+00 -1.156979918479919434e+00 -3.003089427947998047e+00 3.710962057113647461e+00
3.216000000000000000e+03 5.622251510620117188e+01 -3.464626312255859375e+01 4.196695387363433838e-01 5.434473991394042969e+00 1.756242990493774414e+00 -1.738963723182678223e+00
3.217000000000000000e+03 5.526334762573242188e+01 -3.225018310546875000e+01 2.068032026290893555e+00 7.686892509460449219e+00 2.926477432250976562e+00 -1.852552890777587891e+00
3.218000000000000000e+03 2.142521476745605469e+01 -1.266302585601806641e+01 5.352550506591796875e+00 -3.615164756774902344e+00 5.212156176567077637e-01 4.844348907470703125e+00
3.219000000000000000e+03 2.142768859863281250e+01 -1.200313663482666016e+01 7.684777736663818359e+00 -4.259013175964355469e+00 1.027729272842407227e+00 2.903740167617797852e+00
3.220000000000000000e+03 2.132035446166992188e+01 -1.227675151824951172e+01 6.767385482788085938e+00 -4.192952156066894531e+00 7.723301053047180176e-01 3.814945936203002930e+00
3.221000000000000000e+03 2.037181472778320312e+01 -1.087570190429687500e+01 3.712449312210083008e+00 -2.782840728759765625e+00 2.788825631141662598e-01 1.444439768791198730e+00
3.222000000000000000e+03 2.078470230102539062e+01 -1.061244106292724609e+01 3.497864723205566406e+00 -3.072229623794555664e+00 1.276905685663223267e-01 9.186444878578186035e-01
3.223000000000000000e+03 2.079546928405761719e+01 -1.078969860076904297e+01 3.731205701828002930e+00 -3.132626295089721680e+00 1.795738786458969116e-01 1.042304515838623047e+00
3.224000000000000000e+03 2.082835960388183594e+01 -1.069959735870361328e+01 3.754812240600585938e+00 -3.172142982482910156e+00 1.748007982969284058e-01 1.004283189773559570e+00
3.225000000000000000e+03 2.055081939697265625e+01 -1.105876255035400391e+01 4.649618625640869141e+00 -3.230476617813110352e+00 4.257425367832183838e-01 1.665069937705993652e+00
3.226000000000000000e+03 2.091600799560546875e+01 -1.083740425109863281e+01 4.163876533508300781e+00 -3.333220720291137695e+00 2.491967827081680298e-01 9.085703492164611816e-01
3.227000000000000000e+03 2.071634674072265625e+01 -1.073231220245361328e+01 3.694283008575439453e+00 -3.074116468429565430e+00 1.860499531030654907e-01 1.003388643264770508e+00
3.228000000000000000e+03 2.110661315917968750e+01 -1.142024517059326172e+01 6.311744213104248047e+00 -4.124100685119628906e+00 6.562931537628173828e-01 1.390839934349060059e+00
3.229000000000000000e+03 2.094110107421875000e+01 -1.215855216979980469e+01 6.139606952667236328e+00 -4.045722007751464844e+00 6.281655430793762207e-01 3.268557786941528320e+00
3.230000000000000000e+03 2.065110206604003906e+01 -1.238119697570800781e+01 5.025193214416503906e+00 -3.854867696762084961e+00 3.510976731777191162e-01 3.883128166198730469e+00
3.231000000000000000e+03 2.023475074768066406e+01 -1.283180427551269531e+01 3.942004203796386719e+00 -1.974094033241271973e+00 5.903730392456054688e-01 3.165163516998291016e+00
3.232000000000000000e+03 6.708942890167236328e+00 -2.608044385910034180e+00 -8.695679306983947754e-01 1.509331464767456055e-01 -2.155904322862625122e-01 -4.651377499103546143e-01
3.233000000000000000e+03 2.443318748474121094e+01 -7.130282402038574219e+00 -1.021497488021850586e+00 2.175903558731079102e+00 3.463217914104461670e-01 1.166681051254272461e+00
3.234000000000000000e+03 7.361188507080078125e+01 -2.827791786193847656e+01 1.108970761299133301e+00 8.635582923889160156e+00 2.923366069793701172e+00 -1.465076357126235962e-01
3.235000000000000000e+03 4.367500686645507812e+01 -2.798748016357421875e+01 1.501862168312072754e+00 1.006254959106445312e+01 3.469323635101318359e+00 -2.556215226650238037e-01
3.236000000000000000e+03 5.428364944458007812e+01 -1.868812561035156250e+01 -7.213838696479797363e-01 3.647840321063995361e-01 -1.069799512624740601e-01 6.027190014719963074e-02
3.237000000000000000e+03 7.765411376953125000e+00 3.571030044555664062e+01 -5.334544926881790161e-02 -4.371976256370544434e-01 -1.471629291772842407e-01 -8.162813633680343628e-02
3.238000000000000000e+03 2.079751586914062500e+01 -1.154630088806152344e+01 5.990553855895996094e+00 -3.998240470886230469e+00 5.976940989494323730e-01 1.930622816085815430e+00
3.239000000000000000e+03 2.057576179504394531e+01 -1.063700580596923828e+01 3.365022897720336914e+00 -2.900094985961914062e+00 1.394784003496170044e-01 1.149534344673156738e+00
3.240000000000000000e+03 2.068898010253906250e+01 -1.064882373809814453e+01 3.676231384277343750e+00 -3.022734880447387695e+00 1.960488855838775635e-01 1.122706294059753418e+00
3.241000000000000000e+03 5.182316207885742188e+01 -2.901720428466796875e+01 1.988180041313171387e+00 5.474849700927734375e+00 2.238909006118774414e+00 -1.642671108245849609e+00
3.242000000000000000e+03 2.458770370483398438e+01 -9.968464851379394531e+00 1.383728623390197754e+00 4.430627346038818359e+00 1.744306802749633789e+00 3.727394580841064453e+00
3.243000000000000000e+03 2.455914497375488281e+01 -9.184151649475097656e+00 -1.681017875671386719e-01 3.719933271408081055e+00 1.065549373626708984e+00 2.416078329086303711e+00
3.244000000000000000e+03 2.499939155578613281e+01 -9.394149780273437500e+00 7.962234616279602051e-01 3.446142673492431641e+00 1.272709846496582031e+00 3.058838844299316406e+00
3.245000000000000000e+03 2.372192573547363281e+01 -8.283656120300292969e+00 -1.037919521331787109e+00 2.118543863296508789e+00 3.241873085498809814e-01 1.014964222908020020e+00
3.246000000000000000e+03 2.406692695617675781e+01 -8.091670036315917969e+00 -1.014644742012023926e+00 2.429667949676513672e+00 4.245069622993469238e-01 1.266071319580078125e+00
3.247000000000000000e+03 5.574240875244140625e+01 3.671687698364257812e+01 -8.806678652763366699e-01 1.698495447635650635e-01 -2.132454961538314819e-01 2.121046185493469238e-02
3.248000000000000000e+03 6.577403259277343750e+01 3.582898330688476562e+01 -8.081296086311340332e-01 3.890157639980316162e-01 -1.257341653108596802e-01 1.980397701263427734e-01
3.249000000000000000e+03 2.743139648437500000e+01 -1.289708900451660156e+01 1.454432010650634766e+00 9.348609484732151031e-03 4.391341805458068848e-01 -7.715862989425659180e-01
3.250000000000000000e+03 2.734470939636230469e+01 -1.229643344879150391e+01 2.248777866363525391e+00 -9.481978416442871094e-02 6.461874842643737793e-01 -3.150148093700408936e-01
3.251000000000000000e+03 2.488431167602539062e+01 -8.807998657226562500e+00 -1.439085006713867188e-01 3.285881757736206055e+00 9.425919651985168457e-01 2.334365606307983398e+00
3.252000000000000000e+03 2.424789237976074219e+01 -8.897031784057617188e+00 -6.157246232032775879e-01 3.320029497146606445e+00 8.112914562225341797e-01 1.809960007667541504e+00
3.253000000000000000e+03 2.495754432678222656e+01 -9.090034484863281250e+00 2.276630550622940063e-01 3.377342462539672852e+00 1.081501603126525879e+00 2.670867919921875000e+00
3.254000000000000000e+03 5.369115447998046875e+01 3.652940750122070312e+01 -7.226118445396423340e-01 5.905642509460449219e-01 -3.961428254842758179e-02 3.153183758258819580e-01
3.255000000000000000e+03 2.122138404846191406e+01 -1.209497165679931641e+01 7.046779155731201172e+00 -4.521863460540771484e+00 7.574747204780578613e-01 3.267915964126586914e+00
3.256000000000000000e+03 6.922210216522216797e+00 -2.000297355651855469e+01 1.581909537315368652e+00 4.230726718902587891e+00 1.743790864944458008e+00 1.459821820259094238e+00
3.257000000000000000e+03 2.361269950866699219e+00 3.689333724975585938e+01 -4.683859646320343018e-03 -1.389237761497497559e+00 -4.181764721870422363e-01 -5.867958441376686096e-02
3.258000000000000000e+03 7.656656646728515625e+01 3.660886383056640625e+01 -2.055515199899673462e-01 9.620024681091308594e+00 2.824342012405395508e+00 1.896212100982666016e-01
3.259000000000000000e+03 3.117821502685546875e+01 -3.385465621948242188e+01 -1.609887361526489258e+00 1.039714068174362183e-01 -4.517747759819030762e-01 -5.053818598389625549e-02
3.260000000000000000e+03 4.648506546020507812e+01 -2.927983665466308594e+01 1.347807288169860840e+00 7.434806346893310547e+00 2.634784221649169922e+00 -1.943704962730407715e+00
3.261000000000000000e+03 2.172476387023925781e+01 -3.315073013305664062e+01 -1.337771534919738770e+00 -6.061760708689689636e-02 -4.195167422294616699e-01 1.988373398780822754e-01
3.262000000000000000e+03 1.684742546081542969e+01 -3.450360107421875000e+01 -1.104388356208801270e+00 -3.165363669395446777e-01 -4.262773990631103516e-01 3.756777048110961914e-01
3.263000000000000000e+03 7.265457153320312500e+01 -2.026368141174316406e+01 -1.604312062263488770e+00 6.967226028442382812e+00 1.608874201774597168e+00 -4.075421392917633057e-01
3.264000000000000000e+03 6.895368957519531250e+01 -3.538975524902343750e+01 -2.155444622039794922e-01 2.930786371231079102e+00 8.145726323127746582e-01 1.146047353744506836e+00
3.265000000000000000e+03 2.464638328552246094e+01 -8.662657737731933594e+00 -4.385139048099517822e-01 3.173841714859008789e+00 8.205983638763427734e-01 2.027493238449096680e+00
3.266000000000000000e+03 2.431550407409667969e+01 -7.806462287902832031e+00 -9.627460837364196777e-01 2.443704128265380859e+00 4.442873895168304443e-01 1.302696108818054199e+00
3.267000000000000000e+03 4.047451496124267578e+00 -1.985203170776367188e+01 8.201591968536376953e-01 -1.976849436759948730e-01 1.867422759532928467e-01 7.892014384269714355e-01
3.268000000000000000e+03 7.630284881591796875e+01 -2.158144378662109375e+01 -3.866789340972900391e-01 7.533862590789794922e+00 2.144155025482177734e+00 7.520637512207031250e-01
3.269000000000000000e+03 2.515345954895019531e+01 -8.486167907714843750e+00 -1.679988354444503784e-01 3.064342975616455078e+00 8.689032196998596191e-01 2.249651432037353516e+00
3.270000000000000000e+03 7.252308654785156250e+01 2.970229911804199219e+01 -4.647148251533508301e-01 6.938017368316650391e+00 1.941990733146667480e+00 6.322120428085327148e-01
3.271000000000000000e+03 1.722486686706542969e+01 -8.400455474853515625e+00 -2.854557633399963379e-01 -3.823243314400315285e-03 -8.678369969129562378e-02 1.240238904953002930e+00
3.272000000000000000e+03 5.278445816040039062e+01 3.853475189208984375e+01 -5.710520744323730469e-01 9.602578878402709961e-01 1.167617440223693848e-01 2.864806056022644043e-01
3.273000000000000000e+03 4.727218627929687500e+01 3.494781494140625000e+01 -7.238655686378479004e-01 2.849049568176269531e+00 6.375551819801330566e-01 5.176592469215393066e-01
3.274000000000000000e+03 1.252214717864990234e+01 -3.271293258666992188e+01 -1.215786576271057129e+00 -1.202392205595970154e-01 -4.008077383041381836e-01 3.036123216152191162e-01
3.275000000000000000e+03 5.144433975219726562e+01 -2.302167320251464844e+01 1.896038651466369629e+00 3.778594493865966797e+00 1.702389955520629883e+00 -1.234480857849121094e+00
3.276000000000000000e+03 6.515124511718750000e+01 -1.759792709350585938e+01 -2.427739500999450684e-01 1.930687189102172852e+00 5.063740015029907227e-01 1.400412201881408691e+00
3.277000000000000000e+03 2.448400497436523438e+01 -8.329598426818847656e+00 -7.348157763481140137e-01 2.857857942581176758e+00 6.369126439094543457e-01 1.670247316360473633e+00
3.278000000000000000e+03 2.483899497985839844e+01 -7.981318473815917969e+00 -6.684952974319458008e-01 2.779670000076293945e+00 6.333523988723754883e-01 1.689748644828796387e+00
3.279000000000000000e+03 7.690199279785156250e+01 -2.859404563903808594e+01 3.300793170928955078e-01 6.975468158721923828e+00 2.191664218902587891e+00 -3.337973952293395996e-01
3.280000000000000000e+03 4.813202857971191406e+00 3.365316772460937500e+01 -2.228862605988979340e-03 -1.029207825660705566e+00 -3.094310164451599121e-01 -5.875941738486289978e-02
3.281000000000000000e+03 4.565100479125976562e+01 3.426313018798828125e+01 -7.139047980308532715e-01 3.445466756820678711e+00 8.194686174392700195e-01 5.698404312133789062e-01
3.282000000000000000e+03 2.588636970520019531e+01 -5.826454162597656250e+00 -7.609493732452392578e-01 2.358361244201660156e+00 4.792235493659973145e-01 1.123647212982177734e+00
3.283000000000000000e+03 5.917691707611083984e+00 -9.217858314514160156e+00 -2.589610777795314789e-02 3.689378201961517334e-01 1.029125154018402100e-01 -1.231661558151245117e+00
3.284000000000000000e+03 4.766971588134765625e+01 -2.631173515319824219e+01 2.369633436203002930e+00 6.681269645690917969e+00 2.715270996093750000e+00 -2.282275438308715820e+00
3.285000000000000000e+03 4.425942230224609375e+01 -1.489912414550781250e+01 -1.217495441436767578e+00 7.553531169891357422e+00 1.900810718536376953e+00 -9.802818298339843750e-01
3.286000000000000000e+03 4.503045654296875000e+01 -1.254409790039062500e+01 -1.490072369575500488e+00 6.537067413330078125e+00 1.514098525047302246e+00 -6.587464809417724609e-01
3.287000000000000000e+03 2.956632041931152344e+01 -9.026918411254882812e+00 1.178872227668762207e+00 1.487071275711059570e+00 7.997830510139465332e-01 7.795439958572387695e-01
3.288000000000000000e+03 2.683562850952148438e+01 -7.505139350891113281e+00 1.442464739084243774e-01 2.348782539367675781e+00 7.479087114334106445e-01 1.731077909469604492e+00
3.289000000000000000e+03 4.876413345336914062e+01 -3.040598869323730469e+01 1.280147433280944824e+00 6.254647254943847656e+00 2.260438442230224609e+00 -1.733952760696411133e+00
3.290000000000000000e+03 7.605804443359375000e+01 8.581142425537109375e+00 -2.072157338261604309e-02 7.693378925323486328e+00 2.301797151565551758e+00 8.483164310455322266e-01
3.291000000000000000e+03 5.991662979125976562e+00 -1.959362983703613281e+01 1.403919458389282227e+00 2.617404699325561523e+00 1.206397175788879395e+00 1.117817521095275879e+00
3.292000000000000000e+03 8.024600028991699219e+00 -3.058955001831054688e+01 -1.322242617607116699e+00 1.743080973625183105e+00 1.262515187263488770e-01 7.508912682533264160e-01
3.293000000000000000e+03 7.549559783935546875e+01 5.361264705657958984e+00 3.312266469001770020e-01 7.946963787078857422e+00 2.483457088470458984e+00 7.620384693145751953e-01
3.294000000000000000e+03 4.876293659210205078e+00 -1.726195907592773438e+01 9.982169270515441895e-01 4.741705656051635742e-01 4.417162537574768066e-01 1.654046922922134399e-01
3.295000000000000000e+03 4.421959304809570312e+01 -4.299413204193115234e+00 -3.321970403194427490e-01 5.527006149291992188e+00 1.558442711830139160e+00 -1.360791206359863281e+00
3.296000000000000000e+03 1.628542709350585938e+01 -9.512423515319824219e+00 9.801251888275146484e-01 9.100389480590820312e-01 5.670492053031921387e-01 9.671455025672912598e-01
3.297000000000000000e+03 7.544527435302734375e+01 -1.649354171752929688e+01 -4.737799465656280518e-01 6.971192836761474609e+00 1.949223875999450684e+00 -3.806417584419250488e-01
3.298000000000000000e+03 4.018102264404296875e+01 2.363378524780273438e+01 4.384414851665496826e-01 6.312481880187988281e+00 2.025276899337768555e+00 4.822815954685211182e-01
3.299000000000000000e+03 5.878082275390625000e+00 3.302451324462890625e+01 -1.389532233588397503e-03 -7.889815568923950195e-01 -2.371113151311874390e-01 -8.014918118715286255e-02
3.300000000000000000e+03 4.868234634399414062e+00 3.247734451293945312e+01 2.110730111598968506e-02 -9.909740686416625977e-01 -2.909600436687469482e-01 -7.924284785985946655e-02
3.301000000000000000e+03 2.448363113403320312e+01 -3.700407981872558594e+00 -9.859774708747863770e-01 1.631544470787048340e+00 1.936700791120529175e-01 5.780758857727050781e-01
3.302000000000000000e+03 2.621920204162597656e+01 -6.719900131225585938e+00 -4.161809086799621582e-01 2.477747917175292969e+00 6.184701323509216309e-01 1.474224209785461426e+00
3.303000000000000000e+03 7.214889526367187500e+00 -1.037478351593017578e+01 2.495610713958740234e-01 1.063200592994689941e+00 3.938284814357757568e-01 -1.036537885665893555e+00
3.304000000000000000e+03 2.547676086425781250e+01 -5.486294746398925781e+00 -8.882691860198974609e-01 2.203861713409423828e+00 3.946777284145355225e-01 9.782004356384277344e-01
3.305000000000000000e+03 1.329458332061767578e+01 7.483816146850585938e+00 2.562263906002044678e-01 -5.798571705818176270e-01 -9.708923846483230591e-02 5.993518233299255371e-01
3.306000000000000000e+03 9.298327445983886719e+00 7.032770633697509766e+00 2.918539568781852722e-02 -6.412913799285888672e-01 -1.836317926645278931e-01 7.379779815673828125e-01
3.307000000000000000e+03 7.469516754150390625e+01 2.059624481201171875e+01 9.365868568420410156e-02 8.465097427368164062e+00 2.567626953125000000e+00 6.901965141296386719e-01
3.308000000000000000e+03 4.728296661376953125e+01 -1.617235946655273438e+01 -1.045701742172241211e+00 6.325671672821044922e+00 1.583990931510925293e+00 -4.648506343364715576e-01
3.309000000000000000e+03 4.829298496246337891e+00 -1.207542610168457031e+01 3.051723539829254150e-01 -2.403760254383087158e-01 1.943890191614627838e-02 -1.083753347396850586e+00
3.310000000000000000e+03 7.396183013916015625e+00 -8.571966171264648438e+00 -1.978438645601272583e-01 8.692509531974792480e-01 2.014221400022506714e-01 -1.064441323280334473e+00
3.311000000000000000e+03 3.037905883789062500e+01 -7.599702835083007812e+00 5.986019372940063477e-01 2.201701879501342773e+00 8.400911688804626465e-01 5.875427722930908203e-01
3.312000000000000000e+03 3.386059188842773438e+01 6.452099800109863281e+00 1.105642080307006836e+00 5.047589778900146484e+00 1.845969557762145996e+00 -1.623379141092300415e-01
3.313000000000000000e+03 3.884561157226562500e+01 -1.100103184580802917e-01 -8.638997375965118408e-02 5.922917366027832031e+00 1.750958323478698730e+00 -7.831442952156066895e-01
3.314000000000000000e+03 1.106479358673095703e+01 -6.043339729309082031e+00 -1.079915761947631836e+00 1.083589673042297363e+00 1.102189533412456512e-03 -2.952476739883422852e-01
3.315000000000000000e+03 7.461672306060791016e+00 7.625550270080566406e+00 2.097975090146064758e-02 -6.135723590850830078e-01 -1.777777820825576782e-01 6.738469600677490234e-01
3.316000000000000000e+03 2.997319793701171875e+01 -8.332144737243652344e+00 8.441769480705261230e-01 1.878183126449584961e+00 8.167080283164978027e-01 6.994017958641052246e-01
3.317000000000000000e+03 1.460452365875244141e+01 9.515963554382324219e+00 4.814776778221130371e-01 -3.376862108707427979e-01 4.313744232058525085e-02 4.114492237567901611e-01
3.318000000000000000e+03 3.736389923095703125e+01 -1.538455486297607422e-01 -5.460671707987785339e-02 5.559401988983154297e+00 1.651438593864440918e+00 -5.254592895507812500e-01
3.319000000000000000e+03 5.796221256256103516e+00 8.189396858215332031e+00 1.730790175497531891e-02 -6.210961937904357910e-01 -1.811364889144897461e-01 5.829370617866516113e-01
3.320000000000000000e+03 3.333450698852539062e+01 1.096571063995361328e+01 1.572446227073669434e+00 4.868200778961181641e+00 1.932194232940673828e+00 -4.645729660987854004e-01
3.321000000000000000e+03 8.282006263732910156e+00 2.016999053955078125e+01 2.278079390525817871e-01 -5.981017947196960449e-01 -1.110881567001342773e-01 1.065440550446510315e-01
3.322000000000000000e+03 4.125425720214843750e+01 -4.523181438446044922e+00 -5.339149832725524902e-01 5.665705680847167969e+00 1.539537191390991211e+00 -1.187508702278137207e+00
3.323000000000000000e+03 3.210102462768554688e+01 -7.468623638153076172e+00 4.240862727165222168e-01 2.639464139938354492e+00 9.190651178359985352e-01 3.318037465214729309e-02
3.324000000000000000e+03 3.213127517700195312e+01 -6.882318496704101562e+00 2.911365032196044922e-01 2.845804929733276367e+00 9.410824179649353027e-01 8.790963888168334961e-02
3.325000000000000000e+03 6.271576881408691406e+00 8.841567993164062500e+00 5.180347338318824768e-02 -6.524917483329772949e-01 -1.802064776420593262e-01 5.885648131370544434e-01
3.326000000000000000e+03 1.658435058593750000e+01 6.199627399444580078e+00 2.653607428073883057e-01 -3.373589515686035156e-01 -2.159946411848068237e-02 4.191357195377349854e-01
3.327000000000000000e+03 3.230658721923828125e+01 -4.586081981658935547e+00 -7.605602033436298370e-03 3.444072008132934570e+00 1.030939936637878418e+00 1.402595192193984985e-01
3.328000000000000000e+03 9.908974647521972656e+00 1.394090270996093750e+01 3.613098263740539551e-01 -5.400350093841552734e-01 -5.361755564808845520e-02 3.918891549110412598e-01
3.329000000000000000e+03 1.436593246459960938e+01 1.132223320007324219e+01 5.571478605270385742e-01 -2.458033412694931030e-01 9.340334683656692505e-02 3.328697085380554199e-01
3.330000000000000000e+03 1.552735042572021484e+01 1.197629356384277344e+01 6.279084682464599609e-01 -5.652652680873870850e-02 1.714145839214324951e-01 2.293090969324111938e-01
3.331000000000000000e+03 5.990385532379150391e+00 9.620558738708496094e+00 8.524186164140701294e-02 -6.886937022209167480e-01 -1.810355484485626221e-01 5.633681416511535645e-01
3.332000000000000000e+03 9.760703086853027344e+00 1.556108760833740234e+01 3.438690304756164551e-01 -5.157912373542785645e-01 -5.157665908336639404e-02 3.068894445896148682e-01
3.333000000000000000e+03 3.548969650268554688e+01 -8.972449898719787598e-01 -6.196176633238792419e-02 4.930286407470703125e+00 1.460497379302978516e+00 -2.905406355857849121e-01
3.334000000000000000e+03 1.652518272399902344e+01 7.525201320648193359e+00 4.125881791114807129e-01 -2.438265681266784668e-01 5.062848329544067383e-02 3.697004318237304688e-01
3.335000000000000000e+03 2.657637596130371094e+01 2.219689130783081055e+00 2.115131169557571411e-02 2.302520513534545898e+00 6.971015334129333496e-01 1.279732882976531982e-01
3.336000000000000000e+03 1.632581710815429688e+01 1.135913372039794922e+01 6.545274257659912109e-01 2.040423452854156494e-02 2.024794965982437134e-01 2.021427154541015625e-01
3.337000000000000000e+03 2.597328186035156250e+01 3.763717412948608398e+00 2.411113530397415161e-01 2.088065385818481445e+00 6.987529993057250977e-01 3.867279365658760071e-02
3.338000000000000000e+03 3.542303848266601562e+01 -2.297865390777587891e+00 -1.549872905015945435e-01 4.702705383300781250e+00 1.364315509796142578e+00 -3.064405024051666260e-01
3.339000000000000000e+03 2.049045372009277344e+01 7.825605392456054688e+00 5.937430262565612793e-01 5.651783943176269531e-01 3.476764261722564697e-01 6.844507902860641479e-02
3.340000000000000000e+03 3.364598464965820312e+01 -2.496662616729736328e+00 -9.142573177814483643e-02 4.165607452392578125e+00 1.222254514694213867e+00 -6.750221550464630127e-02
3.341000000000000000e+03 3.465849304199218750e+01 -3.237754583358764648e+00 -1.283154189586639404e-01 4.327375411987304688e+00 1.259718060493469238e+00 -2.535350024700164795e-01
3.342000000000000000e+03 2.434410095214843750e+01 4.499871253967285156e+00 2.801764309406280518e-01 1.556066989898681641e+00 5.508730411529541016e-01 2.493878640234470367e-02
3.343000000000000000e+03 2.833398628234863281e+01 -3.518017530441284180e-01 -2.302804589271545410e-01 2.869070053100585938e+00 7.916368842124938965e-01 2.937842309474945068e-01
3.344000000000000000e+03 2.166115760803222656e+01 7.961481571197509766e+00 6.686569452285766602e-01 9.108963012695312500e-01 4.738659560680389404e-01 -8.840690366923809052e-03
3.345000000000000000e+03 2.953672599792480469e+01 -1.298946499824523926e+00 -1.867907345294952393e-01 3.211248397827148438e+00 9.073372483253479004e-01 3.327580690383911133e-01
3.346000000000000000e+03 2.293586921691894531e+01 7.096376895904541016e+00 5.921756029129028320e-01 1.178809523582458496e+00 5.312955379486083984e-01 -3.209094703197479248e-02
3.347000000000000000e+03 1.889021682739257812e+01 1.044140434265136719e+01 7.353457808494567871e-01 4.097456037998199463e-01 3.435274064540863037e-01 6.887944787740707397e-02
3.348000000000000000e+03 2.944238471984863281e+01 -6.015960574150085449e-01 -1.724292635917663574e-01 3.181531906127929688e+00 9.027307629585266113e-01 2.869186997413635254e-01
3.349000000000000000e+03 1.114702796936035156e+01 -1.674520134925842285e+00 -1.538998246192932129e+00 7.904504239559173584e-02 -4.379859566688537598e-01 3.247464299201965332e-01
3.350000000000000000e+03 1.155607700347900391e+01 -1.043098807334899902e+00 -1.593355298042297363e+00 -1.753807663917541504e-01 -5.306208133697509766e-01 5.548375844955444336e-01
3.351000000000000000e+03 1.007052421569824219e+01 -1.379528045654296875e+00 -1.421354413032531738e+00 1.780305653810501099e-01 -3.729971647262573242e-01 1.841339170932769775e-01
3.352000000000000000e+03 1.091052532196044922e+01 -7.195191383361816406e-01 -1.397805929183959961e+00 -1.290803104639053345e-01 -4.580658674240112305e-01 4.540047347545623779e-01
3.353000000000000000e+03 1.189208316802978516e+01 -2.005299091339111328e+00 -1.696304202079772949e+00 2.734471857547760010e-02 -5.006878376007080078e-01 4.990002810955047607e-01
3.354000000000000000e+03 1.224500656127929688e+01 -1.350578069686889648e+00 -1.666150569915771484e+00 -2.086181193590164185e-01 -5.624306201934814453e-01 6.551099419593811035e-01
3.355000000000000000e+03 1.012131404876708984e+01 -8.739756941795349121e-01 -1.338264107704162598e+00 1.019233688712120056e-01 -3.709022402763366699e-01 2.263923585414886475e-01
3.356000000000000000e+03 1.027311420440673828e+01 -4.096257984638214111e-01 -1.069440364837646484e+00 -1.010548789054155350e-02 -3.238637447357177734e-01 2.735520005226135254e-01
3.357000000000000000e+03 1.058933448791503906e+01 -1.247088074684143066e+00 -1.433161258697509766e+00 1.176423132419586182e-01 -3.946556746959686279e-01 2.459417581558227539e-01
3.358000000000000000e+03 8.909210205078125000e+00 -3.212539851665496826e-01 -1.256829023361206055e+00 1.862080022692680359e-02 -3.714624643325805664e-01 4.944573622196912766e-03
3.359000000000000000e+03 9.317807197570800781e+00 -1.205478549003601074e+00 -1.285329461097717285e+00 1.951660364866256714e-01 -3.270490467548370361e-01 8.079040050506591797e-02
3.360000000000000000e+03 9.460213661193847656e+00 -6.912539601325988770e-01 -1.257323384284973145e+00 1.190163120627403259e-01 -3.414921164512634277e-01 1.706199049949645996e-01
3.361000000000000000e+03 8.266005516052246094e+00 -6.800254583358764648e-01 -1.245973587036132812e+00 3.650266677141189575e-02 -3.628412783145904541e-01 -1.970339380204677582e-02
3.362000000000000000e+03 7.622209548950195312e+00 -4.054784178733825684e-01 -1.231748700141906738e+00 5.327045451849699020e-03 -3.679264783859252930e-01 -5.668705701828002930e-02
3.363000000000000000e+03 6.825774669647216797e+00 -3.814763724803924561e-01 -1.113235235214233398e+00 1.348610315471887589e-02 -3.299247622489929199e-01 -7.374250143766403198e-02
3.364000000000000000e+03 6.001619815826416016e+00 -3.739211261272430420e-01 -9.451279044151306152e-01 -5.414551123976707458e-03 -2.851627469062805176e-01 -9.662350267171859741e-02
3.365000000000000000e+03 5.174842834472656250e+00 -3.715220093727111816e-01 -7.329882979393005371e-01 4.025282338261604309e-03 -2.186889052391052246e-01 -9.045197814702987671e-02
3.366000000000000000e+03 4.347759723663330078e+00 -3.725122809410095215e-01 -5.267002582550048828e-01 -9.872042573988437653e-03 -1.609716862440109253e-01 -9.340420365333557129e-02
3.367000000000000000e+03 3.520621299743652344e+00 -3.760701715946197510e-01 -3.239943683147430420e-01 -4.860110115259885788e-03 -9.865634143352508545e-02 -7.464914768934249878e-02
3.368000000000000000e+03 2.694509983062744141e+00 -3.805325925350189209e-01 -1.633814871311187744e-01 -1.520156953483819962e-02 -5.357491597533226013e-02 -5.812400951981544495e-02
3.369000000000000000e+03 1.143715500831604004e+00 -3.599454164505004883e-01 -1.629133010283112526e-03 -8.913287892937660217e-03 -3.162726294249296188e-03 -4.088939633220434189e-03
3.370000000000000000e+03 4.021799862384796143e-01 -5.506002306938171387e-01 1.260366872884333134e-03 4.243369214236736298e-03 1.651120837777853012e-03 2.277341904118657112e-03
3.371000000000000000e+03 7.210693359375000000e-01 -1.099945425987243652e+00 -1.776424236595630646e-02 -1.248928438872098923e-02 -9.076057933270931244e-03 -1.300504431128501892e-02
3.372000000000000000e+03 8.506304740905761719e+00 -1.218084216117858887e+00 -1.221575975418090820e+00 1.145699620246887207e-01 -3.321017920970916748e-01 -2.904189005494117737e-02
3.373000000000000000e+03 7.803927898406982422e+00 -1.221213579177856445e+00 -1.130841255187988281e+00 8.727409690618515015e-02 -3.130701482295989990e-01 -1.501986831426620483e-01
3.374000000000000000e+03 7.101232528686523438e+00 -1.145478367805480957e+00 -1.032153010368347168e+00 6.229060888290405273e-02 -2.909587323665618896e-01 -1.907805055379867554e-01
3.375000000000000000e+03 6.317089557647705078e+00 -1.121476411819458008e+00 -9.092934131622314453e-01 2.010249346494674683e-02 -2.667572796344757080e-01 -2.402613908052444458e-01
3.376000000000000000e+03 5.505225658416748047e+00 -1.113921165466308594e+00 -7.510187029838562012e-01 8.218681439757347107e-03 -2.228399962186813354e-01 -2.572017610073089600e-01
3.377000000000000000e+03 4.690740108489990234e+00 -1.111521959304809570e+00 -5.917311310768127441e-01 -1.674769073724746704e-02 -1.825436502695083618e-01 -2.641249597072601318e-01
3.378000000000000000e+03 3.875948190689086914e+00 -1.112512230873107910e+00 -4.264870584011077881e-01 -2.602819725871086121e-02 -1.357545703649520874e-01 -2.405158281326293945e-01
3.379000000000000000e+03 3.061101198196411133e+00 -1.116070151329040527e+00 -2.824959456920623779e-01 -4.991461336612701416e-02 -9.972316771745681763e-02 -2.074550837278366089e-01
3.380000000000000000e+03 2.247281074523925781e+00 -1.120532631874084473e+00 -1.522015631198883057e-01 -6.266590207815170288e-02 -6.446024030447006226e-02 -1.426818668842315674e-01
3.381000000000000000e+03 1.882497906684875488e+00 -3.807797729969024658e-01 -4.912621900439262390e-02 -1.027929130941629410e-02 -1.782165281474590302e-02 -2.722730115056037903e-02
3.382000000000000000e+03 9.580569267272949219e+00 -2.457754313945770264e-01 -1.047117114067077637e+00 2.686033025383949280e-02 -3.060770332813262939e-01 9.499250352382659912e-02
3.383000000000000000e+03 1.447560310363769531e+00 -1.120779752731323242e+00 -6.790243834257125854e-02 -5.652508512139320374e-02 -3.732825815677642822e-02 -6.826217472553253174e-02
3.384000000000000000e+03 2.327887344360351562e+01 -1.136954498291015625e+01 1.866002845764160156e+01 1.484961795806884766e+01 1.005289363861083984e+01 -1.495211505889892578e+01
3.385000000000000000e+03 2.326465797424316406e+01 -1.138284778594970703e+01 3.093355178833007812e+01 8.389738082885742188e+00 1.179698657989501953e+01 -1.407012748718261719e+01
3.386000000000000000e+03 2.325330543518066406e+01 -1.139866352081298828e+01 3.926966476440429688e+01 6.291534423828125000e+00 1.366835975646972656e+01 -1.077831840515136719e+01
3.387000000000000000e+03 2.324525070190429688e+01 -1.141638660430908203e+01 4.526558303833007812e+01 4.980362892150878906e+00 1.507378387451171875e+01 -6.109278202056884766e+00
3.388000000000000000e+03 2.324079895019531250e+01 -1.143533897399902344e+01 4.917093276977539062e+01 5.889421463012695312e+00 1.651810646057128906e+01 -5.889534354209899902e-01
3.389000000000000000e+03 2.324012184143066406e+01 -1.145479583740234375e+01 5.036629867553710938e+01 7.842522144317626953e+00 1.746264648437500000e+01 4.895038604736328125e+00
3.390000000000000000e+03 2.324324607849121094e+01 -1.147401237487792969e+01 4.946622467041015625e+01 1.176642036437988281e+01 1.836979293823242188e+01 9.860885620117187500e+00
3.391000000000000000e+03 2.325005149841308594e+01 -1.149225234985351562e+01 4.664134979248046875e+01 1.628477287292480469e+01 1.887783622741699219e+01 1.345044517517089844e+01
3.392000000000000000e+03 2.326027679443359375e+01 -1.150881862640380859e+01 4.260992431640625000e+01 2.169549560546875000e+01 1.929162597656250000e+01 1.543368053436279297e+01
3.393000000000000000e+03 2.327353286743164062e+01 -1.152307701110839844e+01 3.827307891845703125e+01 2.670623588562011719e+01 1.949379539489746094e+01 1.559200954437255859e+01
3.394000000000000000e+03 2.328931045532226562e+01 -1.153448200225830078e+01 3.398343276977539062e+01 3.095444679260253906e+01 1.948136329650878906e+01 1.415427494049072266e+01
3.395000000000000000e+03 2.330700683593750000e+01 -1.154259777069091797e+01 3.098517227172851562e+01 3.409694290161132812e+01 1.952463531494140625e+01 1.144136333465576172e+01
3.396000000000000000e+03 2.332594490051269531e+01 -1.154711151123046875e+01 2.885059356689453125e+01 3.558749008178710938e+01 1.933142471313476562e+01 8.104714393615722656e+00
3.397000000000000000e+03 2.334539985656738281e+01 -1.154785346984863281e+01 2.863638114929199219e+01 3.588067626953125000e+01 1.935511779785156250e+01 4.405901908874511719e+00
3.398000000000000000e+03 2.336462593078613281e+01 -1.154479312896728516e+01 2.896041297912597656e+01 3.457816696166992188e+01 1.906157302856445312e+01 1.315616607666015625e+00
3.399000000000000000e+03 2.338288879394531250e+01 -1.153804779052734375e+01 3.139239311218261719e+01 3.250910568237304688e+01 1.917045021057128906e+01 -1.190498590469360352e+00
3.400000000000000000e+03 2.339948844909667969e+01 -1.152787685394287109e+01 3.415772247314453125e+01 2.969729614257812500e+01 1.915650558471679688e+01 -2.613819837570190430e+00
3.401000000000000000e+03 2.341379165649414062e+01 -1.151466846466064453e+01 3.740676116943359375e+01 2.605730438232421875e+01 1.903922080993652344e+01 -2.959448099136352539e+00
3.402000000000000000e+03 2.342524909973144531e+01 -1.149892807006835938e+01 4.077315902709960938e+01 2.350360298156738281e+01 1.928302955627441406e+01 -1.827859044075012207e+00
3.403000000000000000e+03 2.343342208862304688e+01 -1.148125839233398438e+01 4.384366989135742188e+01 2.042928123474121094e+01 1.928188514709472656e+01 7.839129567146301270e-01
3.404000000000000000e+03 2.343799972534179688e+01 -1.146233558654785156e+01 4.554759597778320312e+01 1.862732887268066406e+01 1.925247764587402344e+01 4.144145488739013672e+00
3.405000000000000000e+03 2.343880462646484375e+01 -1.144288444519042969e+01 4.587171554565429688e+01 1.813014221191406250e+01 1.920055770874023438e+01 8.515348434448242188e+00
3.406000000000000000e+03 2.343580818176269531e+01 -1.142364692687988281e+01 4.427812957763671875e+01 1.903208923339843750e+01 1.899306488037109375e+01 1.296079254150390625e+01
3.407000000000000000e+03 2.342912292480468750e+01 -1.140536212921142578e+01 4.060841369628906250e+01 2.111240386962890625e+01 1.851624488830566406e+01 1.692399978637695312e+01
3.408000000000000000e+03 2.341900634765625000e+01 -1.138872909545898438e+01 3.522563171386718750e+01 2.415432739257812500e+01 1.781398773193359375e+01 1.969927024841308594e+01
3.409000000000000000e+03 2.340584564208984375e+01 -1.137438297271728516e+01 2.887624931335449219e+01 2.785901451110839844e+01 1.702058029174804688e+01 2.074135589599609375e+01
3.410000000000000000e+03 2.339014434814453125e+01 -1.136287307739257812e+01 2.132327651977539062e+01 3.076879310607910156e+01 1.562762069702148438e+01 2.016439247131347656e+01
3.411000000000000000e+03 2.337250137329101562e+01 -1.135464191436767578e+01 1.486565780639648438e+01 3.303297424316406250e+01 1.436958980560302734e+01 1.774356079101562500e+01
3.412000000000000000e+03 2.335359382629394531e+01 -1.135000133514404297e+01 8.334489822387695312e+00 3.344489669799804688e+01 1.253381633758544922e+01 1.400652694702148438e+01
3.413000000000000000e+03 2.333414459228515625e+01 -1.134913158416748047e+01 3.765864133834838867e+00 3.229821395874023438e+01 1.081922340393066406e+01 9.247122764587402344e+00
3.414000000000000000e+03 2.331489944458007812e+01 -1.135206508636474609e+01 3.419183492660522461e-01 2.883936500549316406e+01 8.754384994506835938e+00 4.069761753082275391e+00
3.415000000000000000e+03 2.329659080505371094e+01 -1.135868835449218750e+01 1.492285490036010742e+00 2.162297821044921875e+01 6.934578895568847656e+00 -3.264403820037841797e+00
