# el_label, x, y, sXX, sYY, sZZ, sXY
1.000000000000000000e+00 4.594491577148437500e+01 -2.113853263854980469e+01 -1.413132414904150203e-12 -1.589273634569621230e-12 -9.007218256841531545e-13 2.241796429481440756e-13
2.000000000000000000e+00 4.630099487304687500e+01 -2.180684471130371094e+01 -7.060657939393644167e-13 6.054852393121493148e-14 -1.936551911668402126e-13 3.202566521438160452e-14
3.000000000000000000e+00 4.672489547729492188e+01 -2.240479469299316406e+01 4.323464600653609269e-13 1.008808379714121184e-12 4.323464600653609269e-13 -3.122502256758252770e-12
4.000000000000000000e+00 4.781409454345703125e+01 -2.201642417907714844e+01 1.297164524231841920e-12 3.729238597614814577e-13 5.010265206190078757e-13 -2.103709350817495327e-12
5.000000000000000000e+00 4.716805648803710938e+01 -2.250545310974121094e+01 1.000801980351184728e-12 -1.080866190820983785e-12 -2.401924891078620339e-14 -3.266617662131543476e-12
6.000000000000000000e+00 4.733769607543945312e+01 -2.215446090698242188e+01 -1.601283260719080226e-13 -2.081668171172168513e-12 -6.725389559494865388e-13 9.287442776645393749e-13
7.000000000000000000e+00 4.694261169433593750e+01 -2.221217536926269531e+01 2.017616759428242368e-12 -4.163336342344337027e-13 4.803849375581425996e-13 -5.364298957290236647e-13
8.000000000000000000e+00 4.808448791503906250e+01 -2.244798469543457031e+01 5.839679868141489649e-13 1.362591896952869419e-12 5.839679868141489649e-13 -6.565261030135050024e-13
9.000000000000000000e+00 4.753155136108398438e+01 -2.293982505798339844e+01 1.184949599379592211e-12 -1.505206224418353944e-12 -9.607699564314481355e-14 -9.927955809882482718e-13
1.000000000000000000e+01 4.905110931396484375e+01 -2.467963409423828125e+01 -3.317158180082824259e-12 8.001412032943022723e-13 -7.551051255626217706e-13 -2.221780485284208240e-12
1.100000000000000000e+01 4.907926940917968750e+01 -2.358929443359375000e+01 4.883913911311876799e-13 1.353084311261909534e-12 5.524426944548965768e-13 -9.777836092877967289e-13
1.200000000000000000e+01 4.957823181152343750e+01 -2.415824127197265625e+01 -6.445165039691003184e-13 6.845485549938912229e-13 1.200962445539310169e-14 4.803849782157240678e-14
1.300000000000000000e+01 4.854354095458984375e+01 -2.410083770751953125e+01 4.643721388322696875e-13 3.362694779747432694e-13 2.401924687790712998e-13 -3.903127820947815962e-13
1.400000000000000000e+01 4.858133697509765625e+01 -2.301917076110839844e+01 1.734890226270935365e-12 6.320064914119849497e-13 7.100690478309412690e-13 -2.882309733769072846e-13
1.500000000000000000e+01 4.803700637817382812e+01 -2.352086257934570312e+01 2.481988952470620680e-13 1.112891788272729610e-12 4.083272077664429345e-13 -9.587683294856597094e-13
1.600000000000000000e+01 5.020487213134765625e+01 -2.574772834777832031e+01 -6.365100503960552381e-13 5.964779993712643336e-13 -1.200962445539310169e-14 1.167435505905478621e-12
1.700000000000000000e+01 5.080665969848632812e+01 -2.626640892028808594e+01 -2.265815790200575996e-12 -3.763015561045884860e-13 -7.926351632339678766e-13 8.626913202899877398e-13
1.800000000000000000e+01 4.960456848144531250e+01 -2.522923469543457031e+01 9.517627571481446225e-13 1.460170092476564818e-12 7.235798332033693825e-13 -1.011060267626373577e-12
1.900000000000000000e+01 5.140967178344726562e+01 -2.678485870361328125e+01 -3.418739683708205135e-12 1.361090737729900302e-13 -9.847891816253118158e-13 6.705373561087524248e-13
2.000000000000000000e+01 5.011641693115234375e+01 -2.469346046447753906e+01 1.377603977073538211e-12 -2.016616040823038247e-13 3.527827173183811782e-13 -5.444362950919601207e-13
2.100000000000000000e+01 5.185569000244140625e+01 -2.619235610961914062e+01 -1.000801980351184728e-12 -2.001604042017532392e-13 -3.602887302736612618e-13 1.283028154205889670e-12
2.200000000000000000e+01 5.069477844238281250e+01 -2.519304466247558594e+01 -3.878107687413367977e-13 8.031436301604577555e-13 1.245998475837145625e-13 -4.963977904941241359e-13
2.300000000000000000e+01 5.127462387084960938e+01 -2.569281578063964844e+01 -2.113693768623914337e-12 1.921539912862896271e-13 -5.764619467538145692e-13 9.607699564314481355e-14
2.400000000000000000e+01 5.339364242553710938e+01 -2.805727005004882812e+01 -2.842277736954390566e-13 1.044837285267552485e-12 2.281828697346666157e-13 1.297039407301137093e-12
2.500000000000000000e+01 5.377851486206054688e+01 -2.742521476745605469e+01 -4.243400335973701587e-12 -2.642117210779892922e-12 -2.065655372446295601e-12 3.963175816169839383e-13
2.600000000000000000e+01 5.443378829956054688e+01 -2.781516456604003906e+01 -3.050444445651390168e-12 5.684555473908781131e-13 -7.445967128462405160e-13 2.189754887832462416e-12
2.700000000000000000e+01 5.312462234497070312e+01 -2.703296089172363281e+01 -2.722181421249691979e-12 4.803849375581425996e-13 -6.725389559494865388e-13 1.168936692233502050e-12
2.800000000000000000e+01 5.271967697143554688e+01 -2.765297698974609375e+01 -2.479987352629886566e-12 -6.625309025357073445e-13 -9.427555307597867973e-13 4.963977904941241359e-13
2.900000000000000000e+01 5.247245407104492188e+01 -2.663854980468750000e+01 -2.708170276574661806e-12 -1.194957544373154157e-12 -1.170938346284344789e-12 6.885517546753594509e-13
3.000000000000000000e+01 5.204744338989257812e+01 -2.724652481079101562e+01 -2.177745180367840483e-12 1.537231930290317017e-12 -1.921539912862896271e-13 6.765421556309547668e-13
3.100000000000000000e+01 5.406898117065429688e+01 -2.845926094055175781e+01 -4.455570461192603915e-12 -1.481186999224490264e-13 -1.381106817452404378e-12 5.444362950919601207e-13
3.200000000000000000e+01 5.610618972778320312e+01 -3.034204101562500000e+01 2.481988952470620680e-13 1.433148521731708591e-12 5.044041898570605920e-13 -1.297039407301137093e-12
3.300000000000000000e+01 5.550482940673828125e+01 -3.007395744323730469e+01 -6.145924914824352214e-12 1.031826859197726431e-12 -1.534229449214052909e-12 -2.161732381641967571e-12
3.400000000000000000e+01 5.290565109252929688e+01 -2.865305519104003906e+01 -4.115798413889537599e-12 -1.063352097346870195e-12 -1.553745088318791989e-12 -5.924747996897961055e-13
3.500000000000000000e+01 5.094364166259765625e+01 -2.731474876403808594e+01 -2.239794938060923890e-12 -1.020818019416107336e-13 -7.025630077706068732e-13 9.447570763904122870e-13
3.600000000000000000e+01 4.797436523437500000e+01 -2.458310508728027344e+01 1.109889415616682751e-12 8.817065458820161350e-13 5.974787721865770784e-13 -1.553244729016189929e-12
3.700000000000000000e+01 4.393859863281250000e+01 -2.425716400146484375e+01 -1.793437143585152604e-12 -7.686159651451585084e-13 -7.686159651451585084e-13 -3.002406049473771432e-12
3.800000000000000000e+01 4.623790740966796875e+01 -2.271321296691894531e+01 -4.203368474684290867e-14 -9.807859548387892756e-14 -4.203368474684290867e-14 5.604491073703601889e-14
3.900000000000000000e+01 4.274280929565429688e+01 -2.546150016784667969e+01 -2.305847787015258277e-12 -2.562053217150528361e-13 -7.686159651451585084e-13 1.841475648182988589e-13
4.000000000000000000e+01 4.220170593261718750e+01 -2.802207374572753906e+01 1.961571963887687176e-12 1.160930292870565594e-12 9.367506770274758310e-13 -8.486801214048489417e-13
4.100000000000000000e+01 4.246065902709960938e+01 -2.977337074279785156e+01 -3.162534253572935050e-13 1.160930347080674219e-13 -6.004811719476782494e-14 8.486801214048489417e-13
4.200000000000000000e+01 4.299642562866210938e+01 -3.080848312377929688e+01 -1.743397093356691130e-12 2.021620040424873532e-13 -4.623705389915355735e-13 -3.026425247562580800e-12
4.300000000000000000e+01 5.005908966064453125e+01 -3.708725357055664062e+01 1.138912640412381716e-12 5.224186426337762423e-13 4.983993903348582499e-13 -6.445165039691003184e-13
4.400000000000000000e+01 5.783716201782226562e+01 -3.510523605346679688e+01 4.373504596671962119e-12 3.372702724740994640e-12 2.323862239791973927e-12 -2.145719582916094659e-12
4.500000000000000000e+01 5.634647369384765625e+01 -3.543579864501953125e+01 2.643430830132076359e-12 1.361653628392800464e-12 1.201525315873419597e-12 -1.508419691237383731e-12
4.600000000000000000e+01 6.367739486694335938e+01 -3.918283081054687500e+01 4.347483744532310013e-12 2.457969808591919936e-12 2.041636174357486233e-12 1.365093910306314218e-12
4.700000000000000000e+01 6.149569320678710938e+01 -3.606792449951171875e+01 5.196163811727050330e-12 1.681347389873716347e-13 1.609289632976962370e-12 3.202566521438160452e-14
4.800000000000000000e+01 6.403046417236328125e+01 -3.448907852172851562e+01 7.728193085476675606e-12 2.660131663556608572e-12 3.116497511446159052e-12 1.249000902703301108e-12
4.900000000000000000e+01 6.320579147338867188e+01 -3.465821838378906250e+01 6.971586936216356278e-12 8.947169719518421882e-13 2.359891145345405228e-12 6.405133042876320904e-14
5.000000000000000000e+01 6.347533035278320312e+01 -3.589547348022460938e+01 5.702569926685496782e-12 2.203766032507492589e-12 2.371900852810027160e-12 2.658130226346200331e-12
5.100000000000000000e+01 5.990357971191406250e+01 -3.462146377563476562e+01 6.321065632725053618e-12 3.646922607652980375e-12 2.990396342009149500e-12 -2.241796429481440756e-13
5.200000000000000000e+01 5.868539810180664062e+01 -3.435668182373046875e+01 6.240000703650050440e-12 8.957177989772635573e-13 2.140715556209205062e-12 -1.825462957877332926e-12
5.300000000000000000e+01 5.645821762084960938e+01 -3.218358230590820312e+01 3.963176141430491128e-12 4.123304128689220249e-12 2.425943994299739614e-12 -1.473180518546390871e-12
5.400000000000000000e+01 5.562228775024414062e+01 -3.105827903747558594e+01 -8.251612284085330096e-13 1.490694612020504461e-12 1.996600042415697107e-13 -1.176943200016655755e-12
5.500000000000000000e+01 4.194887542724609375e+01 -2.401867294311523438e+01 5.844683461167510252e-13 -3.442758773376797254e-13 7.205774334422682115e-14 1.281026608575264181e-13
5.600000000000000000e+01 4.303640747070312500e+01 -2.365045547485351562e+01 -1.605286433295494142e-12 -2.037632866255800757e-12 -1.092875789865388469e-12 -2.994399650110834976e-12
5.700000000000000000e+01 4.036473846435546875e+01 -3.116965866088867188e+01 9.047250253656213825e-13 1.257007302066237564e-12 6.485197036505685464e-13 2.562053217150528361e-13
5.800000000000000000e+01 4.069588088989257812e+01 -3.212240982055664062e+01 4.223384337566360447e-13 -7.225790603880566376e-13 -9.007218256841531545e-14 -2.417937594936803158e-12
5.900000000000000000e+01 4.104467773437500000e+01 -3.918226242065429688e+01 8.266624689466650633e-13 -2.061652172764827373e-13 1.861491782115601290e-13 -4.443560862148199231e-13
6.000000000000000000e+01 4.819087600708007812e+01 -4.133176803588867188e+01 2.286832615633338506e-12 4.253408606227915278e-13 8.136520428768390101e-13 4.143320343936995886e-13
6.100000000000000000e+01 3.760857009887695312e+01 -3.344277954101562500e+01 -1.697360242809697883e-12 -5.444362950919601207e-13 -6.725389559494865388e-13 6.885517546753594509e-13
6.200000000000000000e+01 3.407539749145507812e+01 -3.260788345336914062e+01 2.065655372446295601e-12 -3.042437992078345088e-13 5.284234421559785844e-13 3.682951296365977178e-13
6.300000000000000000e+01 3.247000885009765625e+01 -3.224024581909179688e+01 3.442758773376797254e-13 -9.047250253656213825e-13 -1.681347389873716347e-13 -5.284234421559785844e-13
6.400000000000000000e+01 3.150945663452148438e+01 -3.296889877319335938e+01 6.445165039691003184e-13 -2.041636038832214672e-13 1.321058605389946461e-13 -1.425142013948554887e-12
6.500000000000000000e+01 3.169920539855957031e+01 -3.202673339843750000e+01 1.112891788272729610e-12 8.887121724296398462e-13 6.004811990527325616e-13 8.326672684688674053e-13
6.600000000000000000e+01 2.613892745971679688e+01 -3.132050895690917969e+01 2.277825280824763432e-12 -1.517215823462758628e-12 2.281828697346666157e-13 -6.245004513516505540e-13
6.700000000000000000e+01 2.270209884643554688e+01 -3.641016769409179688e+01 -1.609289632976962370e-12 -5.524426944548965768e-13 -6.485197036505685464e-13 -4.563657394693332314e-13
6.800000000000000000e+01 2.597443771362304688e+01 -3.585071945190429688e+01 1.837472448501520361e-12 -8.366704681503356333e-13 3.002405995263662808e-13 -8.726993737037669341e-13
6.900000000000000000e+01 2.607908248901367188e+01 -3.874733352661132812e+01 8.246608691059309493e-13 -4.243400607024244708e-13 1.200962343895356499e-13 -4.243400607024244708e-13
7.000000000000000000e+01 3.831747055053710938e+01 -3.732719421386718750e+01 1.835470794450677623e-12 -4.143320343936995886e-13 4.263416605431585849e-13 -2.041636038832214672e-13
7.100000000000000000e+01 3.665889358520507812e+01 -3.650690460205078125e+01 -9.352494906994524015e-13 -2.162232632524352383e-12 -9.292446369671414352e-13 -7.693665583091702231e-13
7.200000000000000000e+01 3.574115753173828125e+01 -3.276851654052734375e+01 -6.124908523072458699e-13 1.132907895100287998e-12 1.561251128379126385e-13 -5.524426944548965768e-13
7.300000000000000000e+01 2.450754356384277344e+01 -3.120940399169921875e+01 3.730989909384030412e-12 -6.885517546753594509e-13 9.127314789386664629e-13 -3.843079825725792542e-13
7.400000000000000000e+01 1.895282173156738281e+01 -3.110685729980468750e+01 1.713373041535570795e-12 -2.722181475459800604e-13 4.323464600653609269e-13 -5.684555473908781131e-13
7.500000000000000000e+01 1.566380596160888672e+01 -3.084150505065917969e+01 -1.156927093189097366e-12 7.165742608658542956e-13 -1.321058605389946461e-13 1.024821286860211345e-12
7.600000000000000000e+01 1.180180740356445312e+01 -2.902783012390136719e+01 -5.751359024447344481e-12 -4.879660477768998916e-12 -3.189305807296816120e-12 2.794239232356554581e-12
7.700000000000000000e+01 1.076944351196289062e+00 -2.753916740417480469e+01 -3.835073317942638838e-12 9.839884983209312708e-12 1.801443651368306309e-12 -3.747002708109903324e-12
7.800000000000000000e+01 3.858371376991271973e-01 -3.002175331115722656e+01 1.000801980351184728e-12 6.605293135369949553e-12 2.281828588926448909e-12 -1.168936692233502050e-12
7.900000000000000000e+01 1.172921538352966309e+00 -3.479777526855468750e+01 -1.529225422507163312e-12 -1.521218996039172544e-13 -5.044041898570605920e-13 7.205774605473225236e-13
8.000000000000000000e+01 4.100461304187774658e-01 -3.642696762084960938e+01 5.684555473908781131e-13 4.723785381952061435e-13 3.122502256758252770e-13 -5.604491073703601889e-14
8.100000000000000000e+01 5.470598220825195312e+00 -3.994913864135742188e+01 7.445967128462405160e-13 -3.386714086256459311e-12 -7.926351632339678766e-13 -9.087282250470896106e-13
8.200000000000000000e+01 1.146496868133544922e+01 -3.652752685546875000e+01 2.353886400033311510e-12 -4.755811196244241756e-12 -7.205774605473225236e-13 1.513212623781290400e-12
8.300000000000000000e+01 1.747301483154296875e+01 -3.652689743041992188e+01 4.983993903348582499e-13 -1.399121161808902780e-12 -2.702165477052459464e-13 7.205774605473225236e-13
8.400000000000000000e+01 1.510505199432373047e+01 -3.683798217773437500e+01 1.164057782457317280e-12 -3.261988986216768360e-12 -6.293793611278353239e-13 9.687763828994389037e-13
8.500000000000000000e+01 1.731723022460937500e+01 -3.108960533142089844e+01 3.763015561045884860e-13 2.401924891078620339e-14 1.200962343895356499e-13 -1.921539912862896271e-13
8.600000000000000000e+01 1.125517177581787109e+01 -2.969646072387695312e+01 -3.767018814937461713e-12 -7.081675090087058422e-12 -3.254608171507356040e-12 4.691760001340750108e-12
8.700000000000000000e+01 9.712726593017578125e+00 -2.671445846557617188e+01 -6.341081305871743012e-12 -1.479585724772913835e-11 -6.341081305871743012e-12 1.155125647911425801e-11
8.800000000000000000e+01 1.069895982742309570e+00 -2.673747634887695312e+01 4.619702190233887507e-12 1.163332277731576880e-11 4.875907403528723094e-12 -4.035233518856484736e-12
8.900000000000000000e+01 8.724865913391113281e+00 -2.336960983276367188e+01 1.096878989546856698e-12 -3.416337698847193849e-11 -9.919949410519546262e-12 -5.604491480279416571e-13
9.000000000000000000e+01 8.866157531738281250e+00 -2.174968910217285156e+01 -4.795843409899358534e-12 -3.851886865025022644e-11 -1.299441283741931130e-11 -6.581274154121574682e-12
9.100000000000000000e+01 9.050827026367187500e+00 -2.093852996826171875e+01 -4.667740586411506243e-12 -3.480388893750685497e-11 -1.184148959443298565e-11 -9.295448959167895708e-12
9.200000000000000000e+01 1.048463344573974609e+00 -1.395170211791992188e+01 -3.923143927775374351e-12 7.926352282860982257e-12 1.200962398105465123e-12 1.489193425692481032e-12
9.300000000000000000e+01 3.553301095962524414e-01 -1.637351036071777344e+01 -1.421138814267086659e-12 1.547239940336009312e-11 4.215378046623641239e-12 -5.444362950919601207e-13
9.400000000000000000e+01 1.057161688804626465e+00 -2.040946197509765625e+01 2.686152515696260679e-12 1.480786673835332579e-11 5.248205516006354543e-12 1.024821286860211345e-12
9.500000000000000000e+01 3.449473977088928223e-01 -2.279682540893554688e+01 3.138515055484125682e-12 1.927944956459093362e-11 6.725389342654430891e-12 3.362694779747432694e-13
9.600000000000000000e+01 8.710047721862792969e+00 -2.496092796325683594e+01 -2.774223125528996192e-12 -3.465577130823405128e-11 -1.122899863370552254e-11 5.980792684018298999e-12
9.700000000000000000e+01 1.005360603332519531e+01 -1.865290451049804688e+01 -4.259413134699574499e-12 -1.975983439372885897e-11 -7.205774605473225236e-12 -1.092075128245051374e-11
9.800000000000000000e+01 1.195680332183837891e+01 -1.598967933654785156e+01 -9.735801574650704282e-12 -1.012010961143339216e-11 -5.956773702769924128e-12 -8.620908674428218177e-12
9.900000000000000000e+01 1.153876495361328125e+01 -1.549609184265136719e+01 -3.700965749142692829e-12 -1.205165741507974175e-11 -4.725787036002904173e-12 -5.844683678007944749e-12
1.000000000000000000e+02 1.348069095611572266e+01 -3.637839794158935547e+00 -2.393918396847993790e-12 -2.169738781004904027e-12 -1.369097109987782446e-12 5.124106434301056723e-13
1.010000000000000000e+02 1.107400608062744141e+01 -2.443461656570434570e+00 8.486801214048489417e-13 2.722181475459800604e-13 3.362694779747432694e-13 2.241796429481440756e-13
1.020000000000000000e+02 9.385765075683593750e+00 -3.360946178436279297e+00 -8.286640687873991773e-13 -1.933549457697192331e-12 -8.286640687873991773e-13 -9.607699564314481355e-14
1.030000000000000000e+02 1.081704998016357422e+01 -3.068446636199951172e+00 1.905526951506697486e-12 -2.385911997485057334e-12 -1.441154866884536423e-13 1.176943200016655755e-12
1.040000000000000000e+02 7.604766368865966797e+00 -1.842027306556701660e+00 7.205774605473225236e-13 -8.807057730667033901e-13 -4.803849782157240678e-14 1.200962398105465123e-12
1.050000000000000000e+02 3.499230742454528809e-01 -9.136173248291015625e+00 -1.052843684630488941e-12 4.375506467563239354e-12 9.967987806697164999e-13 8.166544155328858690e-13
1.060000000000000000e+02 1.222993469238281250e+01 -1.495768547058105469e+01 -2.876304880036761880e-12 -6.711378414819835214e-12 -2.876304880036761880e-12 -4.835875189873606317e-12
1.070000000000000000e+02 1.399861049652099609e+01 -1.460030174255371094e+01 -4.363496543258182925e-12 -1.000801980351184728e-12 -1.609289632976962370e-12 -2.688154169747103417e-12
1.080000000000000000e+02 1.330049514770507812e+01 -1.503394317626953125e+01 -5.916741489114807351e-12 -3.771022123039147189e-12 -2.906329040278099463e-12 -3.949164779915026458e-12
1.090000000000000000e+02 1.963185882568359375e+01 -9.101657867431640625e+00 -2.851284963342748391e-12 1.791435652164635739e-13 -8.016423896223257017e-13 -1.585270326467935753e-12
1.100000000000000000e+02 1.911497879028320312e+01 -9.468004226684570312e+00 -7.445967128462405160e-13 8.246608691059309493e-13 2.401924891078620339e-14 -1.409129215222681974e-12
1.110000000000000000e+02 1.781992912292480469e+01 -7.012986183166503906e+00 -3.643169533412704553e-12 -1.668587143455191324e-12 -1.593526959692281864e-12 -1.281026608575264181e-12
1.120000000000000000e+02 1.638769721984863281e+01 -6.510441303253173828e+00 5.504410946141624628e-13 -2.371900852810027160e-12 -5.464378949326942347e-13 -1.553745061213737677e-13
1.130000000000000000e+02 2.005067634582519531e+01 -9.649017333984375000e+00 1.044837285267552485e-12 2.437953701764361547e-12 1.044837285267552485e-12 -2.914335439641035919e-12
1.140000000000000000e+02 2.025512886047363281e+01 -1.232581043243408203e+01 -1.064853283674893625e-12 -7.766223645080949645e-13 -5.524426944548965768e-13 -1.104885388909793154e-12
1.150000000000000000e+02 2.212652015686035156e+01 -1.307842445373535156e+01 -3.364696325378058184e-12 -1.018816433127900378e-12 -1.315053860077852743e-12 1.601283260719080226e-13
1.160000000000000000e+02 1.690291047096252441e+00 -4.018961715698242188e+01 4.003208084035064784e-13 -2.481989006680729304e-12 -6.245004513516505540e-13 -7.606094980195862720e-14
1.170000000000000000e+02 6.649411010742187500e+01 -3.924725723266601562e+01 2.373902290020435402e-12 2.550043509685906429e-12 1.477183718227859099e-12 8.006416168070129569e-13
1.180000000000000000e+02 6.963301086425781250e+01 -3.655609130859375000e+01 3.590877595271990685e-12 2.293838296391070841e-12 1.765414745814875008e-12 1.551243074965347191e-12
1.190000000000000000e+02 6.957466125488281250e+01 -3.132092475891113281e+01 3.147522390292700756e-12 3.928147737641829451e-12 2.122701103432489411e-12 3.378707470053088358e-12
1.200000000000000000e+02 6.820418548583984375e+01 -3.341355895996093750e+01 1.026872857579075315e-11 6.880013486004754597e-12 5.144622575170565426e-12 4.899926818457966959e-12
1.210000000000000000e+02 6.709348297119140625e+01 -3.331594848632812500e+01 8.574871715461007682e-12 4.635714988959760419e-12 3.963176141430491128e-12 4.915939617183839871e-12
1.220000000000000000e+02 7.866344451904296875e+01 -3.787893676757812500e+01 -1.601283260719080226e-14 -4.307451964558062230e-12 -1.297039407301137093e-12 2.057648973083359145e-12
1.230000000000000000e+02 7.967473602294921875e+01 -3.145550537109375000e+01 1.273020100792110476e-12 -2.153725982279031115e-12 -2.642117210779892922e-13 9.767827822623753597e-13
1.240000000000000000e+02 7.961978149414062500e+01 -3.390355682373046875e+01 1.080866150163402317e-13 -2.309851095116943753e-12 -6.605293026949732305e-13 -2.161732300326804634e-13
1.250000000000000000e+02 7.512508392333984375e+01 -2.922356033325195312e+01 1.569257527742062841e-12 -6.084875984156690176e-13 2.882309733769072846e-13 9.127314789386664629e-13
1.260000000000000000e+02 7.168888092041015625e+01 -3.023558616638183594e+01 -1.789433943903684376e-12 9.487602760718805150e-13 -2.522020949285302960e-13 8.646929201307218538e-13
1.270000000000000000e+02 7.221717071533203125e+01 -2.925381469726562500e+01 -1.036830885904616029e-12 9.967987806697164999e-13 -1.200962445539310169e-14 3.554848689718559385e-12
1.280000000000000000e+02 7.093937683105468750e+01 -2.921986961364746094e+01 2.417937594936803158e-12 2.225783576545459219e-12 1.393116416496809062e-12 2.081668171172168513e-12
1.290000000000000000e+02 1.253421211242675781e+01 -2.955947494506835938e+01 -3.749004145320311565e-12 -1.915535004920476680e-12 -1.699361788440323373e-12 4.227387537247828675e-12
1.300000000000000000e+02 5.296207427978515625e+01 -2.966272926330566406e+01 -2.612093267378989836e-12 -9.707779285300643934e-13 -1.074861337088672819e-12 -5.284234421559785844e-13
1.310000000000000000e+02 5.725492858886718750e+01 -3.461503982543945312e+01 5.396324446321765222e-12 2.129706567349787250e-12 2.257809390837639540e-12 -9.247410779830711469e-13
1.320000000000000000e+02 5.423619079589843750e+01 -2.943737030029296875e+01 -3.335673100582359218e-12 2.464975272509217774e-12 -2.612093213168881212e-13 -4.403528865333516951e-13
1.330000000000000000e+02 5.486797714233398438e+01 -2.975979042053222656e+01 -2.797742072735420749e-12 2.012112481838967959e-12 -2.356888826899466993e-13 -9.767827822623753597e-13
1.340000000000000000e+02 5.234042739868164062e+01 -3.028351020812988281e+01 -9.707779285300643934e-13 1.150922347877003649e-12 5.404330750817011586e-14 -2.369899198759184422e-12
1.350000000000000000e+02 5.224332427978515625e+01 -2.822626113891601562e+01 -1.183948772354170842e-12 6.535237303574581436e-13 -1.591275125990138095e-13 7.526031122091769721e-13
1.360000000000000000e+02 4.970593643188476562e+01 -2.627464866638183594e+01 4.239397461552885105e-12 -3.562855034871387216e-13 1.164933492552033822e-12 8.326672684688674053e-13
1.370000000000000000e+02 4.908477783203125000e+01 -2.573900222778320312e+01 4.553649124439118623e-13 -6.455172767844130632e-13 -5.704571743366665393e-14 -2.081668171172168513e-13
1.380000000000000000e+02 4.746454238891601562e+01 -2.398833465576171875e+01 -4.803849782157240678e-14 -1.120898214740720378e-13 -4.803849782157240678e-14 -7.045646076113409872e-13
1.390000000000000000e+02 4.636993789672851562e+01 -2.397121047973632812e+01 -1.793437143585152604e-12 -7.686159651451585084e-13 -7.686159651451585084e-13 -6.885517546753594509e-13
1.400000000000000000e+02 4.531401443481445312e+01 -2.299262809753417969e+01 4.283432603838926989e-13 -7.085678072928092153e-13 -8.406736949368581735e-14 -2.962373835818654655e-12
1.410000000000000000e+02 4.686680603027343750e+01 -2.341385650634765625e+01 3.511814320247830246e-12 1.362091537650267359e-12 1.462171746527407556e-12 -2.321860585741131189e-12
1.420000000000000000e+02 4.367189788818359375e+01 -2.342973899841308594e+01 -7.165742608658542956e-13 3.602887167211341057e-14 -2.041636038832214672e-13 -1.008808379714121184e-12
1.430000000000000000e+02 4.242580032348632812e+01 -2.386625480651855469e+01 -5.844683461167510252e-13 3.442758773376797254e-13 -7.205774334422682115e-14 6.245004513516505540e-13
1.440000000000000000e+02 4.209137344360351562e+01 -2.561383056640625000e+01 -4.403528865333516951e-13 -1.881507753417888118e-12 -6.965582082484045312e-13 -3.682951296365977178e-13
1.450000000000000000e+02 4.216637420654296875e+01 -2.721324729919433594e+01 -7.926351632339678766e-13 7.125710069742774433e-13 -2.401924891078620339e-14 -3.042437992078345088e-13
1.460000000000000000e+02 4.219407653808593750e+01 -2.882280158996582031e+01 -2.369899198759184422e-12 4.483592858962881511e-13 -5.764619467538145692e-13 -2.241796429481440756e-13
1.470000000000000000e+02 3.967192077636718750e+01 -3.158345985412597656e+01 7.285838599102589797e-13 1.273020100792110476e-12 6.004811990527325616e-13 -1.601283260719080226e-13
1.480000000000000000e+02 3.894231033325195312e+01 -3.198149871826171875e+01 -2.345880000670375054e-12 -7.766223645080949645e-13 -9.367506770274758310e-13 -7.606095115721134281e-13
1.490000000000000000e+02 3.818130874633789062e+01 -3.230456542968750000e+01 -1.297039407301137093e-12 -4.643721388322696875e-13 -5.284234421559785844e-13 4.003208151797700565e-14
1.500000000000000000e+02 3.658180999755859375e+01 -3.271320343017578125e+01 -2.025623158791178824e-12 -4.563657394693332314e-13 -7.445967128462405160e-13 2.401924891078620339e-14
1.510000000000000000e+02 3.490052032470703125e+01 -3.272451019287109375e+01 -2.798242323617805560e-12 -1.405126015541213746e-12 -1.261010501747705792e-12 -9.607698751162851991e-13
1.520000000000000000e+02 3.093709373474121094e+01 -3.183375740051269531e+01 2.437953701764361547e-12 5.644523477094098851e-13 9.007218256841531545e-13 -5.124106434301056723e-13
1.530000000000000000e+02 2.778890800476074219e+01 -3.148684310913085938e+01 2.489995406043665760e-12 -1.681347389873716347e-13 6.965582082484045312e-13 -1.601283260719080226e-13
1.540000000000000000e+02 2.860562133789062500e+01 -3.156004142761230469e+01 6.044843987342007896e-13 5.564458941363648048e-13 3.482791041242022656e-13 -2.722181475459800604e-13
1.550000000000000000e+02 2.696312332153320312e+01 -3.140554809570312500e+01 1.745398747407533868e-12 6.565261030135050024e-13 7.205774605473225236e-13 1.601283260719080226e-14
1.560000000000000000e+02 2.370527839660644531e+01 -3.116290092468261719e+01 1.601283233614025914e-12 3.202566521438160452e-13 5.764619467538145692e-13 -2.081668171172168513e-13
1.570000000000000000e+02 2.213360977172851562e+01 -3.109422111511230469e+01 -7.606095115721134281e-13 1.641315338848925443e-12 2.642117210779892922e-13 -2.401924687790712998e-13
1.580000000000000000e+02 2.134378814697265625e+01 -3.109852981567382812e+01 -1.068856591776579101e-12 -2.493998497304916739e-12 -1.068856591776579101e-12 2.081668171172168513e-13
1.590000000000000000e+02 2.048910713195800781e+01 -3.190363502502441406e+01 1.841475648182988589e-13 -4.243400607024244708e-13 -7.205774334422682115e-14 -2.073661771809232057e-12
1.600000000000000000e+02 1.975235748291015625e+01 -3.109198570251464844e+01 1.040834085586084257e-12 7.205774605473225236e-13 5.284234421559785844e-13 -8.006416303595401129e-15
1.610000000000000000e+02 1.814393997192382812e+01 -3.111493682861328125e+01 5.244202424745103563e-13 -4.843881914497194519e-13 1.200962445539310169e-14 -9.207378783016029189e-13
1.620000000000000000e+02 1.728167152404785156e+01 -3.198098182678222656e+01 2.882309733769072846e-13 6.725389559494865388e-13 2.882309733769072846e-13 1.329065113173100166e-12
1.630000000000000000e+02 1.485203933715820312e+01 -3.060145187377929688e+01 -2.978386851384962064e-12 -1.825462957877332926e-12 -1.441154921094645047e-12 1.265013701429174020e-12
1.640000000000000000e+02 1.328532981872558594e+01 -2.996950912475585938e+01 -4.849886551389070988e-12 -2.776224779579838930e-12 -2.287833334238542626e-12 2.337873384467004101e-12
1.650000000000000000e+02 1.125225925445556641e+01 -2.838909721374511719e+01 -2.449963409228983480e-12 -5.716580854520092458e-12 -2.449963409228983480e-12 4.211374738521955763e-12
1.660000000000000000e+02 1.019051551818847656e+01 -2.725408554077148438e+01 -4.206370928655500663e-12 -9.814865066515299219e-12 -4.206370928655500663e-12 5.860696476733817661e-12
1.670000000000000000e+02 8.524202346801757812e+00 -2.579782485961914062e+01 -5.634515423680319657e-12 -2.681148532357457981e-11 -9.733800571121165035e-12 4.131310744892591202e-12
1.680000000000000000e+02 8.767499923706054688e+00 -2.256383514404296875e+01 -4.003208084035064784e-13 -3.594880643165154765e-11 -1.090473891740550982e-11 -2.481989006680729304e-12
1.690000000000000000e+02 9.308649063110351562e+00 -2.013900375366210938e+01 -6.060857111328532554e-12 -3.036833631786528542e-11 -1.092875789865388469e-11 -1.087271331995376400e-11
1.700000000000000000e+02 1.047682189941406250e+01 -1.794972610473632812e+01 -5.252208824108040019e-12 -1.780626861236367375e-11 -6.917543361045774830e-12 -9.719789209605700364e-12
1.710000000000000000e+02 1.090391445159912109e+01 -1.725168228149414062e+01 -6.981594989630135473e-12 -1.799842393179762468e-11 -7.494005416219806648e-12 -1.075261667898841367e-11
1.720000000000000000e+02 1.628987693786621094e+01 -1.364383697509765625e+01 -1.265013701429174020e-12 4.643721388322696875e-13 -2.401924687790712998e-13 -1.321058605389946461e-12
1.730000000000000000e+02 1.876489639282226562e+01 -8.021807670593261719e+00 -1.727384294630818218e-12 -6.144924521479799839e-13 -7.025630077706068732e-13 -1.921539912862896271e-13
1.740000000000000000e+02 2.028762245178222656e+01 -1.105566024780273438e+01 -8.566865207677853977e-13 -1.144917494144692682e-12 -6.004811990527325616e-13 -3.242598464042734108e-12
1.750000000000000000e+02 2.117937660217285156e+01 -1.281405353546142578e+01 -1.457167719820517959e-12 1.601283260719080226e-14 -4.323464600653609269e-13 6.805453553124229948e-13
1.760000000000000000e+02 2.266747474670410156e+01 -1.399160766601562500e+01 1.232988103977428196e-12 1.168936692233502050e-12 7.205774605473225236e-13 2.946361037092781743e-12
1.770000000000000000e+02 2.279977798461914062e+01 -1.442573738098144531e+01 -4.683753385137379155e-12 -6.805453553124229948e-13 -1.609289632976962370e-12 -7.365902592731954357e-13
1.780000000000000000e+02 2.210098457336425781e+01 -1.417396259307861328e+01 -2.658130226346200331e-12 -2.241796429481440756e-13 -8.646929201307218538e-13 2.173741872266155006e-12
1.790000000000000000e+02 2.245238685607910156e+01 -1.355806064605712891e+01 1.364093083280892849e-12 -2.331868693365019007e-13 3.392718777358444404e-13 -1.345077911898973078e-12
1.800000000000000000e+02 2.134046173095703125e+01 -1.385611724853515625e+01 -3.434752482434078047e-12 -3.282630515067525012e-13 -1.128904695418819770e-12 1.132907895100287998e-12
1.810000000000000000e+02 2.152345466613769531e+01 -1.197292041778564453e+01 -5.764619467538145692e-13 -1.345077911898973078e-12 -5.764619467538145692e-13 9.287442776645393749e-13
1.820000000000000000e+02 2.044648551940917969e+01 -1.020744132995605469e+01 -1.481186999224490264e-13 -2.053645664981673669e-12 -6.605293026949732305e-13 -2.321860585741131189e-12
1.830000000000000000e+02 2.082200431823730469e+01 -1.078393268585205078e+01 -1.072859791458047329e-12 9.127314789386664629e-13 -4.803849782157240678e-14 -1.713373041535570795e-12
1.840000000000000000e+02 2.118369483947753906e+01 -1.137338638305664062e+01 -1.028824486541679573e-12 -6.925550085669363032e-13 -5.164138431115739003e-13 -2.017616759428242368e-12
1.850000000000000000e+02 1.689298057556152344e+01 -7.827217102050781250e+00 -4.209247967540408197e-12 -1.281401850947161414e-12 -1.647194967230314333e-12 -1.032827686223147801e-12
1.860000000000000000e+02 1.830545425415039062e+01 -7.507476329803466797e+00 2.470886342753608744e-12 6.412951766843200119e-13 9.336544124632917274e-13 1.160930347080674219e-13
1.870000000000000000e+02 1.682967567443847656e+01 -6.046234607696533203e+00 2.131708302715792924e-13 4.973986175195455051e-13 2.131708302715792924e-13 -1.489193425692481032e-12
1.880000000000000000e+02 1.732691192626953125e+01 -6.524022579193115234e+00 -1.790434770929105746e-12 -7.616103385975347972e-13 -7.656135382790030253e-13 1.056846884311957169e-12
1.890000000000000000e+02 1.520924568176269531e+01 -4.767892837524414062e+00 1.006806834083495694e-12 -1.066854937725736363e-12 -1.801443583605670529e-14 7.686159651451585084e-13
1.900000000000000000e+02 1.427346992492675781e+01 -4.889251708984375000e+00 7.125710069742774433e-13 -1.753405146770470324e-12 -3.122502256758252770e-13 1.184949599379592211e-12
1.910000000000000000e+02 1.465228652954101562e+01 -4.361225605010986328e+00 -1.493196625373949260e-12 -6.805453688649501509e-14 -4.683753385137379155e-13 -4.003208084035064784e-13
1.920000000000000000e+02 1.167479419708251953e+01 -2.686887979507446289e+00 2.830268137909985882e-12 -2.281828697346666157e-13 7.806255641895631925e-13 7.686159651451585084e-13
1.930000000000000000e+02 1.227546882629394531e+01 -2.971499204635620117e+00 -2.417937594936803158e-12 -2.225783576545459219e-12 -1.393116416496809062e-12 1.265013701429174020e-12
1.940000000000000000e+02 1.046756553649902344e+01 -2.213475227355957031e+00 2.626104412054020010e-12 -7.045646076113409872e-13 5.764619467538145692e-13 8.326672684688674053e-13
1.950000000000000000e+02 9.169668197631835938e+00 -1.880547761917114258e+00 -4.323464600653609269e-13 -1.008808379714121184e-12 -4.323464600653609269e-13 6.885517546753594509e-13
1.960000000000000000e+02 8.933954238891601562e+00 -2.606540918350219727e+00 5.364298957290236647e-13 -4.563657394693332314e-13 2.401924891078620339e-14 3.282630515067525012e-13
1.970000000000000000e+02 8.395311355590820312e+00 -1.853579401969909668e+00 6.685357562680183108e-13 -1.481186999224490264e-13 1.561251128379126385e-13 2.465976207954856392e-12
1.980000000000000000e+02 6.809583663940429688e+00 -1.835172295570373535e+00 2.137713183553158203e-12 -1.361090737729900302e-13 6.004811990527325616e-13 2.834271229171236861e-12
1.990000000000000000e+02 6.013984203338623047e+00 -1.826699852943420410e+00 5.524426944548965768e-13 -1.273020100792110476e-12 -2.161732300326804634e-13 1.200962398105465123e-12
2.000000000000000000e+02 1.055523037910461426e+00 -6.720649719238281250e+00 2.229786884647144696e-12 3.494800586076318716e-12 1.717376241217039023e-12 3.682951296365977178e-13
2.010000000000000000e+02 1.051653981208801270e+00 -8.333152770996093750e+00 5.204170427930421283e-13 2.922341839003972375e-12 1.032827686223147801e-12 1.313052206027010005e-12
2.020000000000000000e+02 5.140349388122558594e+00 -2.461698770523071289e+00 -4.827869007351104358e-12 -1.016814887497274889e-12 -1.753405146770470324e-12 1.257007302066237564e-12
2.030000000000000000e+02 1.048678398132324219e+00 -5.917706489562988281e+00 -8.006416303595401129e-14 1.521219023144226856e-12 4.323464600653609269e-13 9.607699564314481355e-14
2.040000000000000000e+02 8.406097292900085449e-01 -2.335125207901000977e+00 3.682951296365977178e-13 -8.486801214048489417e-13 -1.441154866884536423e-13 -9.207378240914942946e-14
2.050000000000000000e+02 3.215759992599487305e-01 -1.897634983062744141e+00 -1.385110017133872606e-12 1.841475648182988589e-13 -3.602887302736612618e-13 5.124106434301056723e-13
2.060000000000000000e+02 4.436702132225036621e-01 -4.205151748657226562e+01 8.406736949368581735e-14 -2.365895890657498946e-12 -6.845485549938912229e-13 5.524426944548965768e-13
2.070000000000000000e+02 5.498842597007751465e-01 -4.120128250122070312e+01 1.216975196831338035e-12 -3.138515055484125682e-12 -5.764619467538145692e-13 -1.761411519028352468e-13
2.080000000000000000e+02 5.480140447616577148e-01 -4.039909744262695312e+01 3.442758773376797254e-13 -3.466778079885823871e-12 -9.367506770274758310e-13 -2.401924891078620339e-14
2.090000000000000000e+02 4.565987884998321533e-01 -3.881136322021484375e+01 -9.047250253656213825e-13 -1.257007302066237564e-12 -6.485197036505685464e-13 1.441154866884536423e-13
2.100000000000000000e+02 5.053507685661315918e-01 -3.960180282592773438e+01 3.330669073875469621e-12 -3.330669073875469621e-12 0.000000000000000000e+00 2.161732300326804634e-13
2.110000000000000000e+02 4.162481129169464111e-01 -3.722064971923828125e+01 3.923143819355157103e-13 -7.926351632339678766e-13 -1.200962343895356499e-13 -8.006416303595401129e-15
2.120000000000000000e+02 3.959078192710876465e-01 -3.563341140747070312e+01 1.184949599379592211e-12 1.056846884311957169e-12 6.725389559494865388e-13 -8.326672684688674053e-13
2.130000000000000000e+02 3.897857069969177246e-01 -3.484009170532226562e+01 0.000000000000000000e+00 0.000000000000000000e+00 0.000000000000000000e+00 -4.003208151797700565e-14
2.140000000000000000e+02 3.914247155189514160e-01 -3.404648208618164062e+01 -6.084875984156690176e-13 2.882309733769072846e-13 -9.607699564314481355e-14 -5.604491073703601889e-14
2.150000000000000000e+02 3.958767652511596680e-01 -3.324761581420898438e+01 -6.405133042876320904e-14 7.045646076113409872e-13 1.921539912862896271e-13 -4.963977904941241359e-13
2.160000000000000000e+02 3.990324437618255615e-01 -3.244327163696289062e+01 -1.377103509350718902e-12 1.056846884311957169e-12 -9.607699564314481355e-14 8.887121724296398462e-13
2.170000000000000000e+02 1.194733619689941406e+00 -3.324344635009765625e+01 8.486801214048489417e-13 2.722181475459800604e-13 3.362694779747432694e-13 -9.607699564314481355e-14
2.180000000000000000e+02 3.989883661270141602e-01 -3.163672065734863281e+01 1.417135614585618431e-12 3.306649875786660253e-12 1.417135614585618431e-12 -1.257007302066237564e-12
2.190000000000000000e+02 3.752121329307556152e-01 -2.921396636962890625e+01 8.566865207677853977e-13 8.831076495074974275e-12 2.906329040278099463e-12 -1.136911094781756226e-12
2.200000000000000000e+02 3.666523993015289307e-01 -2.840619850158691406e+01 -4.363496868518834670e-13 1.008408113956082985e-11 2.894319332813477530e-12 -8.166544155328858690e-13
2.210000000000000000e+02 3.605943620204925537e-01 -2.759942626953125000e+01 -1.497199825055417488e-12 1.102483469100912217e-11 2.858290427260046229e-12 -4.003208084035064784e-13
2.220000000000000000e+02 3.568627536296844482e-01 -2.679591560363769531e+01 3.186553668502178915e-12 1.426743358873272527e-11 5.236196025382167107e-12 -3.090476659306506946e-12
2.230000000000000000e+02 3.537531793117523193e-01 -2.599545669555664062e+01 2.353886400033311510e-12 1.830266667390834101e-11 6.196966117338886804e-12 1.441154921094645047e-12
2.240000000000000000e+02 3.505148887634277344e-01 -2.519580650329589844e+01 -7.606095115721134281e-13 1.701363355754992313e-11 4.875907403528723094e-12 -1.425142013948554887e-12
2.250000000000000000e+02 5.359147548675537109e+00 -2.379531669616699219e+01 -1.143791550188566486e-12 -9.500988537580745685e-12 -3.193434015488771927e-12 -2.053645664981673669e-12
2.260000000000000000e+02 3.474196195602416992e-01 -2.439590644836425781e+01 1.561251128379126385e-12 1.901523730141185808e-11 6.172946702409642938e-12 0.000000000000000000e+00
2.270000000000000000e+02 3.463066518306732178e-01 -2.199687767028808594e+01 -2.654126918244514854e-12 1.942756892858721329e-11 5.032032516366635733e-12 -4.803849375581425996e-13
2.280000000000000000e+02 3.485783636569976807e-01 -2.119644737243652344e+01 2.710171930625504544e-12 1.998801818503537220e-11 6.809456644385480928e-12 -6.405133042876320904e-14
2.290000000000000000e+02 3.513396680355072021e-01 -2.039517974853515625e+01 -1.293036207619668865e-12 1.918737564665651263e-11 5.368302156971704875e-12 7.205774605473225236e-13
2.300000000000000000e+02 3.533060252666473389e-01 -1.959312438964843750e+01 2.862293735361731706e-12 1.863493387377346266e-11 6.449168022532036915e-12 9.127314789386664629e-13
2.310000000000000000e+02 3.542143106460571289e-01 -1.878912544250488281e+01 -1.881507780522942430e-13 1.664133587875316067e-11 4.935955290330529266e-12 8.006416168070129569e-13
2.320000000000000000e+02 3.548074960708618164e-01 -1.798409271240234375e+01 2.021620067529927844e-12 1.667336060884316851e-11 5.608494571540667550e-12 -9.607699564314481355e-14
2.330000000000000000e+02 3.541137576103210449e-01 -1.556789970397949219e+01 9.607699564314481355e-14 1.559649805138452194e-11 4.707772800066623020e-12 1.184949599379592211e-12
2.340000000000000000e+02 3.525162041187286377e-01 -1.476285743713378906e+01 4.123304345529654746e-13 1.291835215189163222e-11 3.999204613303053435e-12 8.326672684688674053e-13
2.350000000000000000e+02 3.505748808383941650e-01 -1.395814895629882812e+01 3.442758773376797254e-13 9.343487789026383439e-12 2.906329040278099463e-12 1.905526951506697486e-12
2.360000000000000000e+02 3.491871058940887451e-01 -1.315420055389404297e+01 -1.761411546133406780e-12 7.846287855550748702e-12 1.825462957877332926e-12 -3.202566521438160452e-13
2.370000000000000000e+02 3.485546112060546875e-01 -1.235075759887695312e+01 1.869498045953266185e-12 7.778232918864702583e-12 2.894319332813477530e-12 6.405133042876320904e-13
2.380000000000000000e+02 3.484412133693695068e-01 -1.154737854003906250e+01 -1.501203024736885716e-12 6.745405449481989280e-12 1.573260727423531069e-12 4.323464600653609269e-13
2.390000000000000000e+02 1.043897986412048340e+00 -1.314907550811767578e+01 2.514014604132475128e-12 7.574069843530040202e-12 3.026425247562580800e-12 8.807057730667033901e-13
2.400000000000000000e+02 3.486190140247344971e-01 -1.074411582946777344e+01 7.285838599102589797e-13 5.116099818097685770e-12 1.753405146770470324e-12 -2.401924687790712998e-13
2.410000000000000000e+02 3.504008054733276367e-01 -8.331250190734863281e+00 -6.365100503960552381e-13 3.638915991449609422e-12 9.007218256841531545e-13 -1.921539912862896271e-13
2.420000000000000000e+02 3.502392768859863281e-01 -7.526734352111816406e+00 1.641315257533762506e-13 3.799044412389207537e-12 1.188952799061060439e-12 -1.601283260719080226e-14
2.430000000000000000e+02 3.489764928817749023e-01 -6.722785949707031250e+00 -3.662935406378853287e-12 1.701363442491166111e-12 -5.884716000083278775e-13 -1.168936692233502050e-12
2.440000000000000000e+02 3.446995913982391357e-01 -5.920590877532958984e+00 6.405133042876320904e-14 1.857488555329078750e-12 5.764619467538145692e-13 7.045646076113409872e-13
2.450000000000000000e+02 3.366850316524505615e-01 -5.122596263885498047e+00 -1.921539750232570398e-12 6.405133042876320904e-13 -3.843079825725792542e-13 3.362694779747432694e-13
2.460000000000000000e+02 3.289286196231842041e-01 -4.326447963714599609e+00 1.401122815859745518e-12 1.561251128379126385e-12 8.887121724296398462e-13 3.202566521438160452e-14
2.470000000000000000e+02 3.496402800083160400e-01 -3.500725746154785156e+00 2.161732300326804634e-13 5.044041898570605920e-13 2.161732300326804634e-13 7.846287638710314205e-13
2.480000000000000000e+02 7.955876159667968750e+01 -4.203939819335937500e+01 5.724587470723463412e-13 -5.496404546778688172e-12 -1.477183718227859099e-12 3.282630515067525012e-13
2.490000000000000000e+02 7.948271179199218750e+01 -4.118412017822265625e+01 8.566865207677853977e-13 -6.541241940466457905e-12 -1.705366642172634339e-12 8.006416303595401129e-14
2.500000000000000000e+02 7.359616088867187500e+01 -3.996308135986328125e+01 9.527634757533487431e-13 -5.524426944548965768e-13 1.200962343895356499e-13 1.441154866884536423e-13
2.510000000000000000e+02 5.249687957763671875e+01 -4.153463745117187500e+01 2.782229524891932648e-12 9.407538767089440590e-13 1.116894987954197838e-12 -5.264218423152444704e-13
2.520000000000000000e+02 3.208407211303710938e+01 -3.808000946044921875e+01 -1.131907068074866629e-12 -1.360089883599424621e-12 -7.475990855022873749e-13 -4.483592858962881511e-13
2.530000000000000000e+02 1.533529758453369141e+00 -4.198617553710937500e+01 6.985598080891386452e-13 -2.640115773569484681e-12 -5.824667462760169112e-13 -1.841475648182988589e-13
2.540000000000000000e+02 7.963561248779296875e+01 -2.908313369750976562e+01 -6.164940519887140979e-13 -5.844683461167510252e-13 -3.602887302736612618e-13 1.761411519028352468e-13
2.550000000000000000e+02 7.965939331054687500e+01 -2.988087844848632812e+01 -4.803849375581425996e-13 -1.120898296055883314e-12 -4.803849375581425996e-13 8.006416168070129569e-13
2.560000000000000000e+02 7.815213012695312500e+01 -2.918171882629394531e+01 1.397119616178277290e-12 -1.561251128379126385e-13 3.722983564231202580e-13 3.042437992078345088e-13
2.570000000000000000e+02 7.664980316162109375e+01 -2.923491668701171875e+01 1.761411546133406780e-12 -1.601283260719080226e-13 4.803849375581425996e-13 7.365902592731954357e-13
2.580000000000000000e+02 7.743687438964843750e+01 -3.007476234436035156e+01 -1.981588070715245564e-12 -2.061652064344610125e-12 -1.212971997149869807e-12 1.537231930290317017e-12
2.590000000000000000e+02 7.889553833007812500e+01 -3.297038650512695312e+01 -6.204972516701823260e-13 -2.301844695754007297e-12 -8.767025733852351621e-13 1.521218996039172544e-13
2.600000000000000000e+02 7.962771606445312500e+01 -3.307736968994140625e+01 4.963977904941241359e-13 -2.257809390837639540e-12 -5.284234421559785844e-13 8.326672684688674053e-13
2.610000000000000000e+02 7.960031127929687500e+01 -3.553953552246093750e+01 -2.502005113508287693e-12 -4.983994120189016996e-12 -2.245799683373017608e-12 4.003208084035064784e-13
2.620000000000000000e+02 7.958599853515625000e+01 -3.635572433471679688e+01 1.589273634569621230e-12 -4.831871881771920840e-12 -9.727795825809071317e-13 -4.883913911311876799e-13
2.630000000000000000e+02 7.957082366943359375e+01 -3.716837692260742188e+01 -2.249802991474703084e-12 -4.395522574390797743e-12 -1.993597561339433000e-12 4.723785381952061435e-13
2.640000000000000000e+02 7.955626678466796875e+01 -3.797730255126953125e+01 7.926351632339678766e-13 -5.836677495485442790e-12 -1.513212623781290400e-12 3.682951296365977178e-13
2.650000000000000000e+02 7.954103851318359375e+01 -3.878413009643554688e+01 -1.657328137574798355e-12 -6.429151915704478526e-12 -2.425943994299739614e-12 -1.361090737729900302e-13
2.660000000000000000e+02 7.950382232666015625e+01 -4.038563156127929688e+01 -1.761411519028352468e-13 -6.389120135730230743e-12 -1.969578363250623632e-12 5.444362950919601207e-13
2.670000000000000000e+02 7.889794158935546875e+01 -2.912559127807617188e+01 8.246608691059309493e-13 2.161732300326804634e-13 3.122502256758252770e-13 5.604491480279416571e-13
2.680000000000000000e+02 7.905818939208984375e+01 -3.065741539001464844e+01 6.765421556309547668e-13 -1.837472448501520361e-12 -3.482791041242022656e-13 6.084875984156690176e-13
2.690000000000000000e+02 7.968428039550781250e+01 -3.067237663269042969e+01 1.401122870069854143e-13 -1.381106817452404378e-12 -3.722983564231202580e-13 2.401924687790712998e-13
2.700000000000000000e+02 7.436674499511718750e+01 -2.922245216369628906e+01 4.963977904941241359e-13 3.042437992078345088e-13 2.401924687790712998e-13 2.097680969898041425e-12
2.710000000000000000e+02 7.361402130126953125e+01 -2.922987747192382812e+01 -3.218579265953924740e-12 1.761411519028352468e-13 -9.127314789386664629e-13 3.634912900188358442e-12
2.720000000000000000e+02 7.289936065673828125e+01 -2.923922157287597656e+01 -1.228984904295959968e-12 5.484394947734283488e-13 -2.041636038832214672e-13 3.170540652935871506e-12
2.730000000000000000e+02 7.151705169677734375e+01 -2.929512977600097656e+01 8.486801214048489417e-13 2.722181475459800604e-13 3.362694779747432694e-13 3.282630677697850885e-12
2.740000000000000000e+02 7.056538391113281250e+01 -3.127571678161621094e+01 5.009014036883030485e-12 2.146720301521298779e-12 2.146720301521298779e-12 3.298393242562314143e-12
2.750000000000000000e+02 6.902021789550781250e+01 -3.190640258789062500e+01 5.132112616823558682e-12 3.434752482434078047e-12 2.570059616513464817e-12 5.300247220285658756e-12
2.760000000000000000e+02 6.840984344482421875e+01 -3.241408157348632812e+01 1.047639579254688869e-11 5.656532967718286287e-12 4.839878497975291793e-12 3.570861488444432297e-12
2.770000000000000000e+02 6.636879730224609375e+01 -3.370700454711914062e+01 7.734197830788769323e-12 2.674143025072073243e-12 3.122502256758252770e-12 4.067259549989099554e-12
2.780000000000000000e+02 6.559742736816406250e+01 -3.399663925170898438e+01 8.096487889852621578e-12 1.811451596361868255e-12 2.972381889232433849e-12 2.017616759428242368e-12
2.790000000000000000e+02 6.234727478027343750e+01 -3.473009109497070312e+01 6.305052833999180706e-12 -6.605293026949732305e-13 1.693357043128229655e-12 -3.122502256758252770e-13
2.800000000000000000e+02 6.065923690795898438e+01 -3.473926925659179688e+01 6.301049525897495229e-12 -2.377905598122120878e-12 1.176943200016655755e-12 -1.361090737729900302e-13
2.810000000000000000e+02 5.695882415771484375e+01 -3.279511260986328125e+01 2.802245631719491037e-12 3.122502256758252770e-12 1.777424344859279692e-12 -3.747002708109903324e-12
2.820000000000000000e+02 1.261497306823730469e+01 -1.548983287811279297e+01 -4.299445348354691276e-12 -2.986393250747898520e-12 -2.185751579730776939e-12 -5.008013101437391867e-12
2.830000000000000000e+02 1.137968540191650391e+01 -1.657963562011718750e+01 -9.239404380467775013e-12 -1.686151218649456496e-11 -7.830274623144006796e-12 -1.078464227644015949e-11
2.840000000000000000e+02 2.182273864746093750e+01 -1.254663085937500000e+01 2.782229524891932648e-12 -3.402726776562114974e-13 7.325870595917272077e-13 -2.417937594936803158e-12
2.850000000000000000e+02 1.963887596130371094e+01 -1.351797676086425781e+01 -1.889514152780824574e-12 -9.927955809882482718e-13 -8.646929201307218538e-13 -8.166544155328858690e-13
2.860000000000000000e+02 4.305211257934570312e+01 -2.784397697448730469e+01 8.807057595141762341e-14 -6.485197036505685464e-13 -1.681347389873716347e-13 -7.926351632339678766e-13
2.870000000000000000e+02 4.565157699584960938e+01 -2.471950721740722656e+01 -2.481988952470620680e-13 1.128904695418819770e-12 2.642117210779892922e-13 -1.120898296055883314e-12
2.880000000000000000e+02 4.204353332519531250e+01 -2.481745147705078125e+01 1.192955998742528667e-12 -6.325068507145870100e-13 1.681347389873716347e-13 -3.362694779747432694e-13
2.890000000000000000e+02 9.856807708740234375e+00 -2.000841617584228516e+00 7.285838599102589797e-13 -8.006416303595401129e-15 2.161732300326804634e-13 3.042437992078345088e-13
2.900000000000000000e+02 9.594990730285644531e+00 -2.713453769683837891e+00 1.681347335663607723e-12 -1.200962398105465123e-12 1.441154866884536423e-13 8.326672684688674053e-13
2.910000000000000000e+02 1.021277046203613281e+01 -2.872394323348999023e+00 1.289033007938200637e-12 -4.083272077664429345e-13 2.642117210779892922e-13 2.642117210779892922e-13
2.920000000000000000e+02 1.315007019042968750e+01 -4.181841850280761719e+00 -2.594078814602274186e-12 3.522823038056704936e-13 -6.725389559494865388e-13 7.165742608658542956e-13
2.930000000000000000e+02 7.588861083984375000e+01 -2.923289871215820312e+01 -1.417135614585618431e-12 -7.445967128462405160e-13 -6.485197036505685464e-13 6.245004513516505540e-13
2.940000000000000000e+02 7.060391235351562500e+01 -3.003391647338867188e+01 2.069158212825161769e-12 3.120000351825025220e-12 1.556747569395056097e-12 2.213774085921271784e-12
2.950000000000000000e+02 5.358045196533203125e+01 -2.906858062744140625e+01 -4.123304345529654746e-13 2.453966500490234459e-12 6.124908523072458699e-13 -1.489193425692481032e-12
2.960000000000000000e+02 5.430370712280273438e+01 -3.039748573303222656e+01 -5.724587470723463412e-13 3.722983564231202580e-13 -6.004811719476782494e-14 -1.120898296055883314e-12
2.970000000000000000e+02 5.443918991088867188e+01 -3.134458732604980469e+01 -3.602887167211341057e-14 -8.406736949368581735e-14 -3.602887167211341057e-14 -2.321860585741131189e-12
2.980000000000000000e+02 5.496452331542968750e+01 -3.072453117370605469e+01 -2.001604075898850282e-15 1.703364988121791601e-12 5.104090435893715583e-13 -2.145719582916094659e-12
2.990000000000000000e+02 1.630909347534179688e+01 -5.600049495697021484e+00 -2.358890426740201107e-12 1.328064286147678796e-12 -3.092478259147241060e-13 -1.297039407301137093e-12
3.000000000000000000e+02 1.576243114471435547e+01 -5.181258201599121094e+00 -1.685350535345075951e-12 -5.164138431115739003e-13 -6.605293026949732305e-13 -1.921539912862896271e-13
3.010000000000000000e+02 1.407711791992187500e+01 -3.984963417053222656e+00 8.486801214048489417e-13 2.722181475459800604e-13 3.362694779747432694e-13 8.166544155328858690e-13
3.020000000000000000e+02 1.481985473632812500e+01 -5.274757862091064453e+00 -2.353886400033311510e-12 -3.682951296365977178e-13 -8.166544155328858690e-13 -7.445967128462405160e-13
3.030000000000000000e+02 1.352699089050292969e+01 -5.916604995727539062e+00 9.647731832179706757e-13 -1.164933492552033822e-12 -6.004811719476782494e-14 2.289834988289385365e-12
3.040000000000000000e+02 1.687765121459960938e+01 -6.959869861602783203e+00 -9.207378783016029189e-13 -1.721379440898507251e-12 -7.926351632339678766e-13 -1.296038580275715724e-12
3.050000000000000000e+02 1.549233818054199219e+01 -1.389850521087646484e+01 -4.011214537608109865e-12 -1.673340936300671267e-12 -1.705366642172634339e-12 -2.049642573720422689e-12
3.060000000000000000e+02 1.735631942749023438e+01 -7.438112258911132812e+00 -9.607699564314481355e-14 -2.786232832993618125e-12 -8.646929201307218538e-13 1.126903041367977032e-12
3.070000000000000000e+02 1.588239002227783203e+01 -6.085204124450683594e+00 -3.923143819355157103e-13 -4.883913911311876799e-13 -2.642117210779892922e-13 -1.140914348673333079e-13
3.080000000000000000e+02 1.287874698638916016e+01 -3.298507690429687500e+00 -1.921539912862896271e-13 -4.483592858962881511e-13 -1.921539912862896271e-13 9.127314789386664629e-13
3.090000000000000000e+02 1.140742588043212891e+01 -3.296154022216796875e+00 1.417135614585618431e-12 7.445967128462405160e-13 6.485197036505685464e-13 -1.200962343895356499e-13
3.100000000000000000e+02 1.257185649871826172e+01 -3.856773138046264648e+00 -1.825462957877332926e-12 -4.163336342344337027e-13 -6.725389559494865388e-13 -8.006416303595401129e-14
3.110000000000000000e+02 1.199043083190917969e+01 -3.558740854263305664e+00 4.003208151797700565e-14 -7.606095115721134281e-13 -2.161732300326804634e-13 6.965582082484045312e-13
3.120000000000000000e+02 1.335889720916748047e+01 -5.054183959960937500e+00 -1.829466049138583905e-12 -8.526833210863171697e-13 -8.046448164884811849e-13 2.161732381641967571e-12
3.130000000000000000e+02 1.793221092224121094e+01 -1.278344535827636719e+01 -2.401924796210930246e-12 -4.803849375581425996e-13 -8.646929201307218538e-13 -2.313854186378194733e-12
3.140000000000000000e+02 1.920186233520507812e+01 -8.557439804077148438e+00 -1.320558246087344401e-12 3.347682645416655278e-13 -2.957369863321873682e-13 -1.377103509350718902e-12
3.150000000000000000e+02 1.711372375488281250e+01 -1.347456550598144531e+01 -3.066457244377263081e-12 -1.176943200016655755e-12 -1.273020100792110476e-12 -9.927955809882482718e-13
3.160000000000000000e+02 1.880193519592285156e+01 -1.344976902008056641e+01 -2.033629774994549777e-12 1.232988103977428196e-12 -2.401924687790712998e-13 -5.444362950919601207e-13
3.170000000000000000e+02 1.826120948791503906e+01 -8.446996688842773438e+00 1.961571963887687176e-12 5.204170427930421283e-13 7.445967128462405160e-13 -4.643721388322696875e-13
3.180000000000000000e+02 1.795825386047363281e+01 -1.342266654968261719e+01 -6.445164714430351438e-12 -5.204170427930421283e-13 -2.089674570535104969e-12 2.401924687790712998e-13
3.190000000000000000e+02 2.063201904296875000e+01 -1.159882259368896484e+01 6.725389559494865388e-13 1.569257527742062841e-12 6.725389559494865388e-13 5.364298957290236647e-13
3.200000000000000000e+02 1.930463981628417969e+01 -1.094961738586425781e+01 -6.033960223833512160e-12 -4.149575377320607883e-13 -1.934675293233101279e-12 -2.347881437880783295e-12
3.210000000000000000e+02 2.049935722351074219e+01 -1.361975860595703125e+01 -9.687763828994389037e-13 -5.524426944548965768e-13 -4.563657394693332314e-13 6.405133042876320904e-13
3.220000000000000000e+02 1.859316444396972656e+01 -9.801237106323242188e+00 -1.897520552143761030e-12 -5.844683461167510252e-13 -7.445967128462405160e-13 -2.481988952470620680e-13
3.230000000000000000e+02 7.451326751708984375e+01 -3.069784736633300781e+01 -7.445967128462405160e-13 8.246608691059309493e-13 2.401924891078620339e-14 3.426746083071141591e-12
3.240000000000000000e+02 7.740360260009765625e+01 -2.922076225280761719e+01 -1.200962445539310169e-14 -2.802245536851800944e-14 -1.200962445539310169e-14 4.803849375581425996e-13
3.250000000000000000e+02 7.794346618652343750e+01 -3.134143447875976562e+01 -1.273020100792110476e-12 -1.689353735026544179e-12 -8.887121724296398462e-13 1.647320084161019160e-12
3.260000000000000000e+02 7.516880798339843750e+01 -2.993330764770507812e+01 2.714175021886755523e-12 1.208968797468401579e-12 1.176943200016655755e-12 1.921539750232570398e-12
3.270000000000000000e+02 7.372023773193359375e+01 -2.999162483215332031e+01 7.766223645080949645e-13 1.040834085586084257e-13 2.642117210779892922e-13 7.045646076113409872e-13
3.280000000000000000e+02 7.235775756835937500e+01 -3.010729217529296875e+01 4.399525448811614226e-12 1.725382640579975480e-12 1.837472448501520361e-12 2.177745180367840483e-12
3.290000000000000000e+02 7.302738952636718750e+01 -3.004107093811035156e+01 1.200962445539310169e-14 2.802245536851800944e-14 1.200962445539310169e-14 1.969578363250623632e-12
3.300000000000000000e+02 7.886913299560546875e+01 -3.381370162963867188e+01 9.447570763904122870e-13 -2.065655372446295601e-12 -3.362694779747432694e-13 8.406736678318038614e-13
3.310000000000000000e+02 4.693182754516601562e+01 -2.440646171569824219e+01 2.981389224041008923e-12 1.832468421794630764e-12 1.444157293750691906e-12 -8.006416303595401129e-14
3.320000000000000000e+02 4.790866470336914062e+01 -2.566854667663574219e+01 1.138412281109779656e-12 9.482599167692784548e-13 6.260016376796739834e-13 -1.281026608575264181e-13
3.330000000000000000e+02 4.849806213378906250e+01 -2.517585754394531250e+01 1.096378630244254637e-12 8.501813077328723711e-13 5.839679868141489649e-13 -7.205774605473225236e-13
3.340000000000000000e+02 4.856988143920898438e+01 -2.623486137390136719e+01 2.101684237342145434e-14 4.903929774193946378e-14 2.101684237342145434e-14 -8.646929201307218538e-13
3.350000000000000000e+02 5.585194396972656250e+01 -3.268737411499023438e+01 -3.522823038056704936e-13 2.594078814602274186e-12 6.725389559494865388e-13 -2.421940903038488635e-12
3.360000000000000000e+02 5.608486938476562500e+01 -3.155004501342773438e+01 5.204170427930421283e-13 5.164138214275304506e-12 1.705366642172634339e-12 -1.707618421664669484e-12
3.370000000000000000e+02 5.805791854858398438e+01 -3.392971801757812500e+01 6.747407320373266515e-12 2.079666517121325775e-12 2.648122172932421137e-12 -4.755811196244241756e-12
3.380000000000000000e+02 5.914089202880859375e+01 -3.495623016357421875e+01 4.451567153090918438e-12 -9.287442776645393749e-13 1.056846884311957169e-12 -1.114393083020970288e-12
3.390000000000000000e+02 5.748623275756835938e+01 -3.338986587524414062e+01 5.345283677488099627e-12 3.932151045743514928e-12 2.783230460337571266e-12 -2.081668171172168513e-12
3.400000000000000000e+02 7.003920745849609375e+01 -3.189151573181152344e+01 2.278075514686173086e-12 1.662582289722880358e-12 1.182197352164737758e-12 4.421230308943036036e-12
3.410000000000000000e+02 6.596325683593750000e+01 -3.482573699951171875e+01 4.295442040253005800e-12 6.285036510331187820e-13 1.477183718227859099e-12 3.226585665316861196e-12
3.420000000000000000e+02 6.776537322998046875e+01 -3.287063980102539062e+01 8.036440436731684400e-12 1.671339390670045777e-12 2.912333785590193180e-12 6.116901690028653249e-12
3.430000000000000000e+02 5.674326705932617188e+01 -3.398854827880859375e+01 1.136911094781756226e-12 1.585270326467935753e-12 8.166544155328858690e-13 -2.443958447076455265e-12
3.440000000000000000e+02 6.149220657348632812e+01 -3.476608657836914062e+01 7.606095440981786027e-12 1.521219023144226856e-12 2.738194219975564891e-12 -2.321860694161348437e-13
3.450000000000000000e+02 6.759784698486328125e+01 -3.396664810180664062e+01 3.474784479248760327e-12 2.770220034267745213e-12 1.873501354054951662e-12 3.197562440521162230e-12
3.460000000000000000e+02 6.445135498046875000e+01 -3.558094024658203125e+01 5.683554755303577011e-12 4.513617127624436343e-13 1.840474821157567220e-12 3.202566521438160452e-13
3.470000000000000000e+02 6.481616210937500000e+01 -3.424260711669921875e+01 8.400732366686813890e-12 -8.947169719518421882e-13 2.251804428685111326e-12 2.449963409228983480e-12
3.480000000000000000e+02 6.681726837158203125e+01 -3.451672363281250000e+01 8.775031916374853580e-12 3.394720485619395767e-12 3.650925915754665851e-12 3.783031613663334625e-12
3.490000000000000000e+02 5.628945159912109375e+01 -3.332437515258789062e+01 3.122502256758252770e-12 2.161732381641967571e-12 1.585270326467935753e-12 -1.913533350869633942e-12
3.500000000000000000e+02 6.047151565551757812e+01 -3.606162261962890625e+01 5.264218748413096449e-12 2.461972899853170915e-12 2.317857494479880209e-12 -1.369097109987782446e-12
3.510000000000000000e+02 7.009405517578125000e+01 -3.070148277282714844e+01 3.236593718730640390e-12 2.427945648350582353e-12 1.699361788440323373e-12 4.451567153090918438e-12
3.520000000000000000e+02 5.969765090942382812e+01 -3.743917083740234375e+01 5.635328575309683785e-12 2.900887212733960219e-12 2.560864714729049751e-12 8.106496160106835269e-13
3.530000000000000000e+02 7.175617980957031250e+01 -3.238970184326171875e+01 5.844683678007944749e-12 1.681347335663607723e-12 2.257809390837639540e-12 2.257809390837639540e-12
3.540000000000000000e+02 6.520903778076171875e+01 -3.510512542724609375e+01 6.749408757583674756e-12 1.657328137574798355e-12 2.522021003495411584e-12 1.080866190820983785e-12
3.550000000000000000e+02 5.959753417968750000e+01 -3.561482620239257812e+01 3.306649875786660253e-12 1.737392239624380164e-12 1.513212623781290400e-12 -1.625302431702835282e-12
3.560000000000000000e+02 5.158568954467773438e+01 -2.778953361511230469e+01 -2.338874319912642719e-12 -3.332670782136420984e-13 -8.016423896223257017e-13 4.163336342344337027e-13
3.570000000000000000e+02 5.103568649291992188e+01 -2.925357437133789062e+01 1.745398747407533868e-12 6.565261030135050024e-13 7.205774605473225236e-13 -1.425142013948554887e-12
3.580000000000000000e+02 5.106741333007812500e+01 -2.826812744140625000e+01 -2.112192582295890908e-12 1.956567910075743266e-13 -5.749607604257911397e-13 -3.202566521438160452e-13
3.590000000000000000e+02 7.727453708648681641e+00 -2.557095527648925781e+01 -6.909537178523272871e-12 -2.039234232864561847e-11 -8.190563678678319803e-12 -9.207378783016029189e-13
3.600000000000000000e+02 8.697687149047851562e+00 -2.417158699035644531e+01 -1.729385840261443708e-12 -3.477986995625848010e-11 -1.095277687990225957e-11 7.766223645080949645e-13
3.610000000000000000e+02 4.163311767578125000e+01 -3.017428016662597656e+01 -3.202566521438160452e-14 1.633308831065771738e-12 4.803849375581425996e-13 -1.132907895100287998e-12
3.620000000000000000e+02 4.319885635375976562e+01 -2.864807891845703125e+01 5.444362950919601207e-13 4.163336342344337027e-13 2.882309733769072846e-13 -7.686159651451585084e-13
3.630000000000000000e+02 4.102413177490234375e+01 -3.071263694763183594e+01 -1.661331337256266583e-12 -3.022422156301329821e-12 -1.405126015541213746e-12 7.125710069742774433e-13
3.640000000000000000e+02 4.271370697021484375e+01 -3.209376525878906250e+01 4.707772800066623020e-12 1.377103509350718902e-12 1.825462957877332926e-12 -1.895518898092918292e-12
3.650000000000000000e+02 9.540711402893066406e+00 -2.739889335632324219e+01 -4.327468071385620618e-12 -1.692956712318061108e-11 -6.377110211425174313e-12 5.316260452692400662e-12
3.660000000000000000e+02 9.194263458251953125e+00 -2.621072387695312500e+01 -7.421947605112944046e-12 -2.500403703531439703e-11 -9.727795825809071317e-12 1.107287352086760990e-11
3.670000000000000000e+02 1.244710350036621094e+01 -3.164985275268554688e+01 -8.226592692651968353e-13 -4.481591313332256021e-12 -1.591275180200246719e-12 1.889514152780824574e-12
3.680000000000000000e+02 3.673599624633789062e+01 -3.366786575317382812e+01 7.165742608658542956e-13 -3.602887167211341057e-14 2.041636038832214672e-13 -1.168936692233502050e-12
3.690000000000000000e+02 3.739566802978515625e+01 -3.255215835571289062e+01 -2.538033802221284496e-12 5.604491073703601889e-14 -7.445967128462405160e-13 -3.362694779747432694e-13
3.700000000000000000e+02 4.242095053195953369e-01 -3.801797103881835938e+01 1.008808379714121184e-12 -2.081668171172168513e-13 2.401924687790712998e-13 -3.843079825725792542e-13
3.710000000000000000e+02 1.265781521797180176e+00 -3.712316513061523438e+01 1.765414745814875008e-12 -1.004805180032652956e-12 2.281828697346666157e-13 -9.767827822623753597e-13
3.720000000000000000e+02 1.124970793724060059e+00 -2.916343688964843750e+01 1.921539912862896271e-13 5.572465665987236250e-12 1.729385840261443708e-12 -3.242598464042734108e-12
3.730000000000000000e+02 1.253362417221069336e+00 -3.633459472656250000e+01 -6.245004513516505540e-13 -1.457167719820517959e-12 -6.245004513516505540e-13 -2.481988952470620680e-13
3.740000000000000000e+02 1.063521504402160645e+00 -1.556730747222900391e+01 -4.163336342344337027e-13 1.098480247735400539e-11 3.170540652935871506e-12 5.924747996897961055e-13
3.750000000000000000e+02 1.038692355155944824e+00 -2.199810028076171875e+01 3.226585665316861196e-12 1.606887713168081433e-11 5.788638665626955060e-12 -5.764619467538145692e-13
3.760000000000000000e+02 1.054222106933593750e+00 -7.526701927185058594e+00 -1.633308831065771738e-12 1.313052206027010005e-12 -9.607699564314481355e-14 8.486801214048489417e-13
3.770000000000000000e+02 1.510262608528137207e+00 -3.939894104003906250e+01 -1.361090737729900302e-13 -2.025623158791178824e-12 -6.485197036505685464e-13 -4.163336342344337027e-13
3.780000000000000000e+02 2.224400520324707031e+00 -3.841493988037109375e+01 -4.563657394693332314e-13 -3.626906500825421986e-12 -1.224981704614491740e-12 -1.152923893507629138e-12
3.790000000000000000e+02 1.356523275375366211e+00 -3.864366912841796875e+01 1.457167719820517959e-12 -2.578066015876401273e-12 -3.362694779747432694e-13 -2.730187820612628435e-12
3.800000000000000000e+02 1.186064958572387695e+00 -3.555841445922851562e+01 -1.040834085586084257e-13 -1.096878989546856698e-12 -3.602887302736612618e-13 -1.377103509350718902e-12
3.810000000000000000e+02 2.002689838409423828e+00 -3.076339721679687500e+01 -1.140914294463224454e-12 2.461972899853170915e-12 3.963175816169839383e-13 -3.554848689718559385e-12
3.820000000000000000e+02 1.204353213310241699e+00 -3.243474960327148438e+01 3.202566521438160452e-13 1.601283233614025914e-12 5.764619467538145692e-13 -9.207378783016029189e-13
3.830000000000000000e+02 3.948811292648315430e-01 -3.082952880859375000e+01 -1.505206224418353944e-12 5.028029208264950256e-12 1.056846884311957169e-12 -1.521218996039172544e-13
3.840000000000000000e+02 1.205273032188415527e+00 -3.161846160888671875e+01 -1.253004102384769336e-12 3.054447753753075645e-12 5.404330954104918927e-13 -1.761411546133406780e-12
3.850000000000000000e+02 1.191526532173156738e+00 -3.079948043823242188e+01 -3.282630515067525012e-13 2.650123610142829378e-12 6.965582082484045312e-13 -2.882309842189290094e-12
3.860000000000000000e+02 2.512724161148071289e+00 -2.581398963928222656e+01 1.945559165161814263e-12 4.539637762923653952e-12 1.945559165161814263e-12 -3.170540652935871506e-12
3.870000000000000000e+02 1.051469206809997559e+00 -2.515423202514648438e+01 2.241796429481440756e-13 1.418736916142249171e-11 4.323464763283935142e-12 0.000000000000000000e+00
3.880000000000000000e+02 1.062387347221374512e+00 -2.594454765319824219e+01 6.092882708780278378e-12 1.080065550884690140e-11 5.068061421920067033e-12 -2.898322640915163007e-12
3.890000000000000000e+02 3.451440334320068359e-01 -2.359643363952636719e+01 4.403528865333516951e-13 1.981587983979071765e-11 6.076869910054405466e-12 -1.761411519028352468e-13
3.900000000000000000e+02 1.040845513343811035e+00 -2.436370849609375000e+01 -2.802245740139708285e-13 1.301042606982605321e-11 3.819060519216765925e-12 -1.265013701429174020e-12
3.910000000000000000e+02 1.729714274406433105e+00 -2.201553153991699219e+01 -2.409931195573866702e-12 1.145718155765029778e-11 2.714175021886755523e-12 -7.045646076113409872e-13
3.920000000000000000e+02 1.751151919364929199e+00 -2.123267555236816406e+01 2.738194219975564891e-12 1.151322613635041847e-11 4.275426367106316405e-12 1.377103509350718902e-12
3.930000000000000000e+02 1.064749360084533691e+00 -1.880545997619628906e+01 -3.002405995263662808e-13 1.467175686498123355e-11 4.311454838978878712e-12 1.168936692233502050e-12
3.940000000000000000e+02 1.062876939773559570e+00 -1.961072921752929688e+01 -1.148920693826160910e-12 1.439953885296052505e-11 3.975185632054678564e-12 1.697360242809697883e-12
3.950000000000000000e+02 3.555769324302673340e-01 -1.717914009094238281e+01 -6.685357562680183108e-13 1.552043736585684286e-11 4.455570461192603915e-12 6.245004513516505540e-13
3.960000000000000000e+02 1.066708087921142578e+00 -1.799682235717773438e+01 -2.694158915059197135e-12 1.250201851765719852e-11 2.942357945831530763e-12 5.924747996897961055e-13
3.970000000000000000e+02 1.069513797760009766e+00 -1.718825912475585938e+01 5.444362950919601207e-13 1.322659950314664101e-11 4.131310744892591202e-12 -6.405133042876320904e-14
3.980000000000000000e+02 1.731106996536254883e+00 -1.155193424224853516e+01 -2.762213634904808757e-12 3.803047720490893013e-12 3.122502256758252770e-13 2.113693768623914337e-12
3.990000000000000000e+02 1.042548179626464844e+00 -1.154685211181640625e+01 4.083272077664429345e-13 6.076869910054405466e-12 1.945559165161814263e-12 1.761411546133406780e-12
4.000000000000000000e+02 1.042328238487243652e+00 -1.234819221496582031e+01 -2.481989006680729304e-12 6.164940519887140979e-12 1.104885388909793154e-12 9.127314789386664629e-13
4.010000000000000000e+02 3.491159081459045410e-01 -9.940738677978515625e+00 6.325068507145870100e-13 4.891920202254596006e-12 1.657328137574798355e-12 -2.081668171172168513e-13
4.020000000000000000e+02 1.045260548591613770e+00 -9.943930625915527344e+00 1.313052206027010005e-12 4.771823994970114668e-12 1.825462957877332926e-12 4.963977904941241359e-13
4.030000000000000000e+02 6.682068824768066406e+00 -2.518503904342651367e+00 6.485197036505685464e-13 -1.048840484949020713e-12 -1.200962343895356499e-13 -9.607699564314481355e-14
4.040000000000000000e+02 5.221195220947265625e+00 -1.813832402229309082e+00 1.441154921094645047e-12 8.006416168070129569e-13 6.725389559494865388e-13 1.120898296055883314e-12
4.050000000000000000e+02 3.653407812118530273e+00 -1.792344093322753906e+00 1.152923893507629138e-12 1.281026608575264181e-13 3.843079825725792542e-13 1.921539750232570398e-12
4.060000000000000000e+02 2.880695581436157227e+00 -1.811502575874328613e+00 -1.857488555329078750e-12 -6.405133042876320904e-14 -5.764619467538145692e-13 1.521218996039172544e-13
4.070000000000000000e+02 3.176758050918579102e+00 -3.011925220489501953e+00 1.208968797468401579e-12 1.112891788272729610e-12 6.965582082484045312e-13 1.120898296055883314e-12
4.080000000000000000e+02 1.413062810897827148e+00 -1.952887892723083496e+00 3.556850343769402123e-12 1.467175773234297154e-12 1.507207770048979434e-12 1.024821286860211345e-12
4.090000000000000000e+02 8.078807830810546875e+00 -2.239860153198242188e+01 -3.763015561045884860e-13 -2.820660371938288336e-11 -8.574871715461007682e-12 -3.546842290355622929e-12
4.100000000000000000e+02 2.291839790344238281e+01 -3.110787582397460938e+01 -2.802245536851800944e-14 -1.773421145177811464e-12 -5.404330954104918927e-13 -1.088872590183920241e-12
4.110000000000000000e+02 2.330718994140625000e+01 -3.330833053588867188e+01 1.429145213630023115e-12 7.726191648266267364e-13 6.605293026949732305e-13 -2.081668171172168513e-13
4.120000000000000000e+02 1.472565746307373047e+01 -1.421342086791992188e+01 -6.557254739192330817e-12 -2.489995406043665760e-12 -2.714175021886755523e-12 -1.729385840261443708e-12
4.130000000000000000e+02 1.260586452484130859e+01 -1.390267753601074219e+01 -5.864699784835503138e-12 -5.144122107447746117e-12 -3.302646567684974777e-12 -3.682951513206411676e-12
4.140000000000000000e+02 1.073060512542724609e+01 -2.781629753112792969e+01 -3.463775707229777012e-12 -6.374107838769127454e-12 -2.951365063799671340e-12 5.908734872911436398e-12
4.150000000000000000e+02 1.206078720092773438e+01 -3.027383041381835938e+01 -3.811053903013394972e-12 -3.554848689718559385e-12 -2.209770777819586307e-12 3.570861488444432297e-12
4.160000000000000000e+02 3.326224899291992188e+01 -3.244479370117187500e+01 3.002405995263662808e-13 7.005614079298727592e-13 3.002405995263662808e-13 6.405133042876320904e-14
4.170000000000000000e+02 3.998344802856445312e+01 -3.237461853027343750e+01 1.393116416496809062e-12 6.885517546753594509e-13 6.245004513516505540e-13 -1.929546366435941351e-12
4.180000000000000000e+02 4.342669296264648438e+01 -2.526839637756347656e+01 -2.241796429481440756e-13 1.184949599379592211e-12 2.882309733769072846e-13 -1.633308831065771738e-12
4.190000000000000000e+02 1.886503028869628906e+01 -1.039741039276123047e+01 8.006416168070129569e-13 1.601283260719080226e-13 2.882309733769072846e-13 -3.730989909384030412e-12
4.200000000000000000e+02 4.146543121337890625e+01 -3.180435943603515625e+01 5.404330954104918927e-13 -2.001604075898850282e-14 1.561251128379126385e-13 -8.246608691059309493e-13
4.210000000000000000e+02 1.405738449096679688e+01 -3.031086349487304688e+01 -3.316657929200439447e-12 -9.067266252063554965e-13 -1.267015355480016758e-12 2.401924796210930246e-12
4.220000000000000000e+02 1.370308208465576172e+01 -3.111615371704101562e+01 -2.898322640915163007e-12 -3.346681872601342533e-12 -1.873501354054951662e-12 1.593276834251089458e-12
4.230000000000000000e+02 1.648507499694824219e+01 -3.100775337219238281e+01 -1.297039407301137093e-12 -4.643721388322696875e-13 -5.284234421559785844e-13 7.045646076113409872e-13
4.240000000000000000e+02 1.813898277282714844e+01 -3.197362899780273438e+01 1.032827686223147801e-12 -1.521218996039172544e-13 2.642117210779892922e-13 1.200962343895356499e-13
4.250000000000000000e+02 2.603175544738769531e+01 -3.228924179077148438e+01 2.962373998448980528e-13 1.545238329653253473e-12 5.524426944548965768e-13 -1.240994503340364652e-12
4.260000000000000000e+02 2.532053947448730469e+01 -3.124941253662109375e+01 4.643721171482262378e-12 1.441154921094645047e-12 1.825462957877332926e-12 -9.607699564314481355e-14
4.270000000000000000e+02 4.220476531982421875e+01 -3.124402809143066406e+01 3.042437992078345088e-13 -1.441154866884536423e-13 4.803849782157240678e-14 8.206576694244627213e-13
4.280000000000000000e+02 9.646565437316894531e+00 -1.937433242797851562e+01 -5.956773702769924128e-12 -2.542837815311393967e-11 -9.415545600133246040e-12 -9.075272651426491421e-12
4.290000000000000000e+02 8.591719627380371094e+00 -1.980639266967773438e+01 -4.295442040253005800e-12 -2.368698119592504980e-11 -8.394727621374720172e-12 -4.275426367106316405e-12
4.300000000000000000e+02 1.636037254333496094e+01 -3.203106307983398438e+01 -3.843079825725792542e-13 -8.967185717925763022e-13 -3.843079825725792542e-13 1.313052206027010005e-12
4.310000000000000000e+02 2.352444458007812500e+01 -3.219394302368164062e+01 2.001604075898850282e-14 -1.661331337256266583e-12 -4.923945908126559079e-13 -1.457167719820517959e-12
4.320000000000000000e+02 2.434169960021972656e+01 -3.222662734985351562e+01 4.195361939796082851e-12 1.249000902703301108e-12 1.633308831065771738e-12 -9.447570763904122870e-13
4.330000000000000000e+02 8.389554977416992188e+00 -2.071305084228515625e+01 -4.939958598432214743e-12 -2.604487112090048129e-11 -9.295448959167895708e-12 -5.644523477094098851e-12
4.340000000000000000e+02 3.486678314208984375e+01 -3.361538314819335938e+01 -5.564458941363648048e-13 -4.443560862148199231e-13 -3.002405995263662808e-13 1.249000902703301108e-12
4.350000000000000000e+02 7.920344352722167969e+00 -2.400932693481445312e+01 -2.770220034267745213e-12 -2.781428906639682452e-11 -9.175353185564283365e-12 1.168936692233502050e-12
4.360000000000000000e+02 1.523602294921875000e+01 -1.330889987945556641e+01 -1.853485247227393273e-12 -9.087282250470896106e-13 -8.286640687873991773e-13 -1.857488555329078750e-12
4.370000000000000000e+02 1.295291233062744141e+01 -1.448439598083496094e+01 -5.468382257428627824e-12 -4.219381354725326716e-12 -2.906329040278099463e-12 -4.675746768934008202e-12
4.380000000000000000e+02 3.017271232604980469e+01 -3.170269775390625000e+01 3.354688271964278989e-12 -7.125710069742774433e-13 7.926351632339678766e-13 -2.081668171172168513e-13
4.390000000000000000e+02 8.960223197937011719e+00 -1.894813346862792969e+01 -2.075663425860074796e-12 -2.192356886310253827e-11 -7.199769426480262524e-12 -6.437158531907849479e-12
4.400000000000000000e+02 2.054999160766601562e+01 -3.109098434448242188e+01 2.642117210779892922e-13 6.164940519887140979e-13 2.642117210779892922e-13 1.521219023144226856e-12
4.410000000000000000e+02 2.939934921264648438e+01 -3.162678718566894531e+01 7.886319635524996485e-13 1.321058605389946461e-13 2.762213472274482884e-13 4.963977904941241359e-13
4.420000000000000000e+02 3.079880142211914062e+01 -3.269417190551757812e+01 -3.763015561045884860e-13 -2.401924891078620339e-14 -1.200962343895356499e-13 8.006416303595401129e-14
4.430000000000000000e+02 1.093664073944091797e+01 -1.613098335266113281e+01 -7.062159450982319342e-12 -1.477033599595056756e-11 -6.549748590711779173e-12 -6.869504964868156094e-12
4.440000000000000000e+02 1.608193778991699219e+01 -1.295563983917236328e+01 -3.714977110658157500e-12 -1.281026608575264181e-13 -1.152923893507629138e-12 -1.697360242809697883e-12
4.450000000000000000e+02 2.200463294982910156e+01 -3.201732635498046875e+01 -1.809450050731242765e-12 -2.514014604132475128e-12 -1.297039407301137093e-12 -1.088872590183920241e-12
4.460000000000000000e+02 2.943537139892578125e+01 -3.262709808349609375e+01 2.534030710960033517e-12 7.886319635524996485e-13 9.967987806697164999e-13 -1.409129215222681974e-12
4.470000000000000000e+02 3.923260116577148438e+01 -3.286346435546875000e+01 -2.962373998448980528e-13 -1.545238329653253473e-12 -5.524426944548965768e-13 -9.607698751162851991e-13
4.480000000000000000e+02 1.541989707946777344e+01 -3.187438011169433594e+01 -2.089674570535104969e-12 -2.313854186378194733e-12 -1.321058605389946461e-12 1.781427544540747920e-12
4.490000000000000000e+02 2.518226242065429688e+01 -3.224343872070312500e+01 5.124106434301056723e-13 -5.124106434301056723e-13 0.000000000000000000e+00 -1.184949599379592211e-12
4.500000000000000000e+02 1.049338436126708984e+01 -2.845149230957031250e+01 -3.674944897003040722e-12 -8.574871715461007682e-12 -3.674944897003040722e-12 5.924747671637309310e-12
4.510000000000000000e+02 7.974779605865478516e+00 -2.320810890197753906e+01 -1.897520552143761030e-12 -2.748602560831425734e-11 -8.815064130029970357e-12 -2.113693768623914337e-12
4.520000000000000000e+02 3.312841033935546875e+01 -3.332664108276367188e+01 -1.249000902703301108e-12 -3.522823038056704936e-13 -4.803849375581425996e-13 -1.136911094781756226e-12
4.530000000000000000e+02 3.398583602905273438e+01 -3.350266265869140625e+01 -1.397119616178277290e-12 1.561251128379126385e-13 -3.722983564231202580e-13 -1.465174119183454415e-12
4.540000000000000000e+02 2.862118530273437500e+01 -3.258388137817382812e+01 1.212971997149869807e-12 2.682149478645118323e-13 4.443560862148199231e-13 1.120898214740720378e-13
4.550000000000000000e+02 3.230217361450195312e+01 -3.315894699096679688e+01 -1.160930292870565594e-12 -1.000801980351184728e-12 -6.485197036505685464e-13 -8.887121724296398462e-13
4.560000000000000000e+02 3.577848815917968750e+01 -3.365189361572265625e+01 -2.642117210779892922e-12 -1.040834085586084257e-12 -1.104885388909793154e-12 -6.965582082484045312e-13
4.570000000000000000e+02 3.821003723144531250e+01 -3.408472061157226562e+01 -1.198960852474839633e-12 -1.943557511110971525e-12 -9.427555307597867973e-13 -4.323464600653609269e-13
4.580000000000000000e+02 1.286929416656494141e+01 -3.075369262695312500e+01 -9.607698751162851991e-13 -2.241796592111766628e-12 -9.607698751162851991e-13 3.642919299551294898e-12
4.590000000000000000e+02 9.597175598144531250e+00 -2.825935745239257812e+01 -8.166544155328858690e-13 -1.215373982010881093e-11 -3.891118330323628527e-12 4.075265732511601513e-12
4.600000000000000000e+02 4.325701141357421875e+01 -2.446966743469238281e+01 -2.562053217150528361e-13 2.562053217150528361e-13 0.000000000000000000e+00 8.166544155328858690e-13
4.610000000000000000e+02 9.466259002685546875e+00 -1.821481704711914062e+01 -3.761514537348187304e-12 -2.073311487771345440e-11 -7.348388390837623518e-12 -8.054454672667965554e-12
4.620000000000000000e+02 9.948096275329589844e+00 -1.752081108093261719e+01 -3.913135874361595157e-12 -1.596279185223092867e-11 -5.962778448082017846e-12 -8.815064130029970357e-12
4.630000000000000000e+02 4.261849594116210938e+01 -2.467001914978027344e+01 -1.913533350869633942e-12 -1.048840484949020713e-12 -8.887121724296398462e-13 -1.104885388909793154e-12
4.640000000000000000e+02 4.357265472412109375e+01 -2.605908775329589844e+01 -1.849482155966142294e-12 8.086480161699494129e-13 -3.122502256758252770e-13 1.657328137574798355e-12
4.650000000000000000e+02 2.689180183410644531e+01 -3.237174987792968750e+01 3.751006016211588801e-12 2.121700303512122354e-13 1.188952799061060439e-12 -1.281026608575264181e-12
4.660000000000000000e+02 2.776045036315917969e+01 -3.248066329956054688e+01 1.305045806664073549e-12 1.337071512536036622e-12 7.926351632339678766e-13 -1.000801980351184728e-12
4.670000000000000000e+02 1.368944072723388672e+01 -1.405446338653564453e+01 -4.747804580040870803e-12 -2.538033802221284496e-12 -2.185751579730776939e-12 -3.346681872601342533e-12
4.680000000000000000e+02 4.212826156616210938e+01 -2.641188812255859375e+01 1.641315338848925443e-12 -4.403528865333516951e-13 3.602887302736612618e-13 1.008808379714121184e-12
4.690000000000000000e+02 4.294017791748046875e+01 -2.704283905029296875e+01 1.809450050731242765e-12 -4.803849782157240678e-14 5.284234421559785844e-13 1.048840484949020713e-12
4.700000000000000000e+02 1.972426033020019531e+01 -3.189794158935546875e+01 -1.064853283674893625e-12 -7.766223645080949645e-13 -5.524426944548965768e-13 -2.722181475459800604e-13
4.710000000000000000e+02 1.894711875915527344e+01 -3.194373893737792969e+01 3.426746083071141591e-12 -5.444362950919601207e-13 8.646929201307218538e-13 -8.006416168070129569e-13
4.720000000000000000e+02 9.993824958801269531e+00 -3.494603633880615234e+00 3.398723576880646746e-12 -2.317857494479880209e-12 3.242598518252842732e-13 1.120898296055883314e-12
4.730000000000000000e+02 7.453953266143798828e+00 -2.531666040420532227e+00 1.753405146770470324e-12 -1.032827686223147801e-12 2.161732300326804634e-13 1.905526951506697486e-12
4.740000000000000000e+02 4.434153556823730469e+00 -1.798753023147583008e+00 -3.122502256758252770e-12 4.003208084035064784e-13 -8.166544155328858690e-13 5.444362950919601207e-13
4.750000000000000000e+02 3.005116224288940430e+00 -2.431635379791259766e+00 -3.654928790175482334e-12 1.200962445539310169e-14 -1.092875789865388469e-12 7.846287638710314205e-13
4.760000000000000000e+02 1.771177649497985840e+00 -5.118958950042724609e+00 -1.401122815859745518e-12 1.000801980351184728e-12 -1.200962343895356499e-13 1.385110017133872606e-12
4.770000000000000000e+02 2.127103805541992188e+00 -1.864130973815917969e+00 -2.001603960702369456e-12 -4.003208084035064784e-13 -7.205774605473225236e-13 3.362694779747432694e-13
4.780000000000000000e+02 1.027981758117675781e+00 -5.128930091857910156e+00 7.205774605473225236e-13 1.681347335663607723e-12 7.205774605473225236e-13 1.585270326467935753e-12
4.790000000000000000e+02 9.945108890533447266e-01 -4.360025405883789062e+00 -9.767827822623753597e-13 1.136911094781756226e-12 4.803849782157240678e-14 -8.166544155328858690e-13
4.800000000000000000e+02 5.032368087768554688e+01 -2.680061721801757812e+01 -2.061652172764827373e-13 1.226983250245117230e-12 3.062454261536229350e-13 5.764619467538145692e-13
4.810000000000000000e+02 5.044849777221679688e+01 -2.779835128784179688e+01 -1.235990476633475055e-12 -1.175942372991234386e-12 -7.235798332033693825e-13 4.003208084035064784e-13
4.820000000000000000e+02 4.920357513427734375e+01 -2.678022003173828125e+01 -3.541838263648733331e-12 -1.432147694706287222e-12 -1.492195798348527891e-12 -6.245004513516505540e-13
4.830000000000000000e+02 5.229203414916992188e+01 -2.922274208068847656e+01 -5.516921080671484401e-14 -1.287281641958876177e-13 -5.516921080671484401e-14 -1.281026608575264181e-12
4.840000000000000000e+02 7.807738494873046875e+01 -3.455893325805664062e+01 2.037632866255800757e-12 -2.077664863070483037e-12 -1.200962445539310169e-14 1.761411546133406780e-12
4.850000000000000000e+02 7.961145782470703125e+01 -3.472290802001953125e+01 -4.923945908126559079e-13 -3.710973802556472023e-12 -1.261010501747705792e-12 7.285838599102589797e-13
4.860000000000000000e+02 7.964290618896484375e+01 -3.225375366210937500e+01 -8.807057595141762341e-14 -1.913533350869633942e-12 -6.004811990527325616e-13 -7.606095115721134281e-13
4.870000000000000000e+02 7.666176605224609375e+01 -2.999003219604492188e+01 2.161732300326804634e-13 5.044041898570605920e-13 2.161732300326804634e-13 1.505206224418353944e-12
4.880000000000000000e+02 7.880610656738281250e+01 -3.545475769042968750e+01 3.578867887807368753e-12 -1.897520552143761030e-12 5.044041898570605920e-13 2.073661771809232057e-12
4.890000000000000000e+02 7.862079620361328125e+01 -3.867016220092773438e+01 -4.563657394693332314e-13 -3.626906500825421986e-12 -1.224981704614491740e-12 -5.444362950919601207e-13
4.900000000000000000e+02 7.870769500732421875e+01 -3.708025360107421875e+01 3.674944897003040722e-12 -4.235394153451199628e-12 -1.681347389873716347e-13 -1.841475648182988589e-13
4.910000000000000000e+02 7.773258972167968750e+01 -3.855374908447265625e+01 6.405133042876320904e-14 -3.266617662131543476e-12 -9.607698751162851991e-13 3.923143819355157103e-13
4.920000000000000000e+02 7.854957580566406250e+01 -3.944046401977539062e+01 -2.305847787015258277e-12 -5.380311647595892310e-12 -2.305847787015258277e-12 2.321860694161348437e-13
4.930000000000000000e+02 7.952210998535156250e+01 -3.958452224731445312e+01 -2.882309733769072846e-13 -5.796645281830326013e-12 -1.825462957877332926e-12 -7.926351632339678766e-13
4.940000000000000000e+02 7.850924682617187500e+01 -4.020385742187500000e+01 2.161732300326804634e-13 -4.619702190233887507e-12 -1.321058605389946461e-12 -1.681347389873716347e-13
4.950000000000000000e+02 7.842839050292968750e+01 -4.188551712036132812e+01 -7.425951130055064020e-13 -4.721783727901218697e-12 -1.639313684798082704e-12 -1.120898214740720378e-13
4.960000000000000000e+02 7.658358001708984375e+01 -3.075522422790527344e+01 -1.377103509350718902e-12 -1.505206224418353944e-12 -8.646929201307218538e-13 2.722181421249691979e-12
4.970000000000000000e+02 1.878117370605468750e+01 -1.284741401672363281e+01 -4.259413134699574499e-12 -5.444362950919601207e-13 -1.441154921094645047e-12 2.161732300326804634e-13
4.980000000000000000e+02 1.988452339172363281e+01 -1.054060173034667969e+01 -2.962373835818654655e-12 -8.006416303595401129e-14 -9.127314789386664629e-13 -2.393918396847993790e-12
4.990000000000000000e+02 2.042890548706054688e+01 -1.296057415008544922e+01 -6.645325565865500828e-13 -6.965582082484045312e-13 -4.083272077664429345e-13 -1.337071512536036622e-12
5.000000000000000000e+02 2.162893867492675781e+01 -1.339036178588867188e+01 8.967185717925763022e-13 -8.967185717925763022e-13 0.000000000000000000e+00 1.080866190820983785e-12
5.010000000000000000e+02 4.441675186157226562e+01 -2.320483970642089844e+01 -2.169738781004904027e-12 -7.926351632339678766e-13 -8.887121724296398462e-13 -1.793437143585152604e-12
5.020000000000000000e+02 4.546498489379882812e+01 -2.719654083251953125e+01 1.481186917909327327e-12 4.003208151797700565e-14 4.563657394693332314e-13 1.265013701429174020e-12
5.030000000000000000e+02 3.534220218658447266e+00 -4.189681625366210938e+01 3.162534253572935050e-13 -3.318659366410847689e-12 -9.007218256841531545e-13 2.321860694161348437e-13
5.040000000000000000e+02 2.090802192687988281e+01 -1.218593406677246094e+01 -1.232988103977428196e-12 -1.168936692233502050e-12 -7.205774605473225236e-13 -1.048840484949020713e-12
5.050000000000000000e+02 1.300351810455322266e+01 -5.579572677612304688e+00 -4.103288021861661861e-12 -2.742197528077250368e-12 -2.053645664981673669e-12 1.601283260719080226e-13
5.060000000000000000e+02 1.225966548919677734e+01 -4.413671493530273438e+00 1.066854937725736363e-12 -9.267426236136966367e-13 4.203368474684290867e-14 -5.604491480279416571e-13
5.070000000000000000e+02 1.535807704925537109e+01 -5.674970149993896484e+00 -8.887121724296398462e-13 -7.926351632339678766e-13 -5.044041898570605920e-13 4.523625126828106913e-13
5.080000000000000000e+02 1.707184982299804688e+01 -1.201013183593750000e+01 -2.534030710960033517e-12 -7.886319635524996485e-13 -9.967987806697164999e-13 -1.649321738211861899e-12
5.090000000000000000e+02 1.442894649505615234e+01 -5.775162220001220703e+00 2.602085213965210642e-13 -1.100882189228324926e-12 -2.522020949285302960e-13 2.065655372446295601e-12
5.100000000000000000e+02 1.371850013732910156e+01 -4.525489807128906250e+00 -2.145719582916094659e-12 -7.365902592731954357e-13 -8.646929201307218538e-13 1.200962343895356499e-13
5.110000000000000000e+02 1.781762123107910156e+01 -7.938438415527343750e+00 -2.081668171172168513e-12 -8.006416168070129569e-13 -8.646929201307218538e-13 -8.246608691059309493e-13
5.120000000000000000e+02 1.715521812438964844e+01 -9.222437858581542969e+00 5.004009901755923639e-13 -5.404330954104918927e-13 -1.200962445539310169e-14 -8.807057730667033901e-13
5.130000000000000000e+02 9.802428245544433594e+00 -4.078121185302734375e+00 3.594880903373676162e-12 -1.521218996039172544e-13 1.032827686223147801e-12 -2.161732381641967571e-12
5.140000000000000000e+02 7.194815826416015625e+01 -3.098192596435546875e+01 4.183352449171895415e-12 1.220978396512806263e-12 1.621299232021367054e-12 3.634912900188358442e-12
5.150000000000000000e+02 7.108444976806640625e+01 -3.064006614685058594e+01 2.289834988289385365e-12 2.353886400033311510e-12 1.393116416496809062e-12 2.848282590686701532e-12
5.160000000000000000e+02 5.363811111450195312e+01 -3.005400085449218750e+01 4.788837512301191701e-13 1.117395455677017146e-12 4.788837512301191701e-13 -2.097680969898041425e-12
5.170000000000000000e+02 5.484917449951171875e+01 -3.261425018310546875e+01 6.044843987342007896e-13 3.118498948656567293e-12 1.116894987954197838e-12 -3.234592064679797652e-12
5.180000000000000000e+02 1.389694786071777344e+01 -5.405304908752441406e+00 -3.682951513206411676e-12 -1.761411546133406780e-12 -1.633308831065771738e-12 -4.803849782157240678e-14
5.190000000000000000e+02 1.546168613433837891e+01 -6.555827140808105469e+00 1.343076257848130339e-12 -2.822261738547049426e-13 3.182550251980276190e-13 1.601283260719080226e-14
5.200000000000000000e+02 1.114776134490966797e+01 -3.884283542633056641e+00 -6.645325565865500828e-13 -3.258611262768607020e-12 -1.176943200016655755e-12 8.006416168070129569e-13
5.210000000000000000e+02 1.870192909240722656e+01 -8.948418617248535156e+00 -2.089674570535104969e-12 2.481988952470620680e-13 -5.524426944548965768e-13 -7.205774334422682115e-14
5.220000000000000000e+02 1.879963874816894531e+01 -1.220957088470458984e+01 -3.066457244377263081e-12 -1.176943200016655755e-12 -1.273020100792110476e-12 -2.201764378456649851e-12
5.230000000000000000e+02 1.732584953308105469e+01 -8.332550048828125000e+00 7.786239643488290785e-13 -1.599281579563183175e-12 -2.461972954063279539e-13 -5.444362950919601207e-13
5.240000000000000000e+02 4.469156646728515625e+01 -2.404952621459960938e+01 -3.250604863405670564e-12 -7.526031122091769721e-13 -1.200962398105465123e-12 -1.905526951506697486e-12
5.250000000000000000e+02 2.275634384155273438e+01 -3.210626220703125000e+01 -4.523625126828106913e-13 6.525229033320367744e-13 6.004811719476782494e-14 -8.807057730667033901e-13
5.260000000000000000e+02 2.519345664978027344e+01 -3.490648269653320312e+01 3.963175816169839383e-13 9.247410779830711469e-13 3.963175816169839383e-13 -8.326672684688674053e-13
5.270000000000000000e+02 7.821518707275390625e+01 -3.003988838195800781e+01 -1.080866150163402317e-13 -2.522020949285302960e-13 -1.080866150163402317e-13 1.120898296055883314e-12
5.280000000000000000e+02 7.591152191162109375e+01 -2.994401550292968750e+01 1.441154866884536423e-13 3.362694779747432694e-13 1.441154866884536423e-13 2.017616759428242368e-12
5.290000000000000000e+02 7.443851470947265625e+01 -2.995221710205078125e+01 -1.200962343895356499e-13 -2.802245740139708285e-13 -1.200962343895356499e-13 1.329065113173100166e-12
5.300000000000000000e+02 7.671125793457031250e+01 -3.270859909057617188e+01 1.773421145177811464e-12 -1.321058605389946461e-13 4.923945908126559079e-13 2.201764378456649851e-12
5.310000000000000000e+02 2.510030746459960938e+01 -3.318829345703125000e+01 1.168936692233502050e-12 1.873501354054951662e-12 9.127314789386664629e-13 6.805453553124229948e-13
5.320000000000000000e+02 3.042304039001464844e+01 -3.341670608520507812e+01 1.681347389873716347e-13 1.673340936300671267e-12 5.524426944548965768e-13 -1.555246274646815419e-12
5.330000000000000000e+02 3.123005485534667969e+01 -3.400678253173828125e+01 -6.104891982564031316e-13 -5.704571472316122271e-13 -3.542839036464046076e-13 -2.562053217150528361e-13
5.340000000000000000e+02 7.520297241210937500e+01 -3.064686012268066406e+01 -1.216975196831338035e-12 5.764619467538145692e-13 -1.921539912862896271e-13 2.193757979093713395e-12
5.350000000000000000e+02 7.812458801269531250e+01 -3.373993682861328125e+01 -9.367506770274758310e-13 -2.185751579730776939e-12 -9.367506770274758310e-13 1.785430744222216148e-12
5.360000000000000000e+02 7.315666961669921875e+01 -3.084079170227050781e+01 2.570059616513464817e-12 8.726993737037669341e-13 1.032827686223147801e-12 3.330669073875469621e-12
5.370000000000000000e+02 4.507279205322265625e+01 -2.566564941406250000e+01 -2.778226433630681669e-12 -5.044041898570605920e-13 -9.847891816253118158e-13 -3.202566521438160452e-14
5.380000000000000000e+02 4.735031127929687500e+01 -2.503578186035156250e+01 1.295037753250294355e-12 -3.943159817762498243e-13 2.702165477052459464e-13 -1.409129215222681974e-12
5.390000000000000000e+02 4.982396316528320312e+01 -2.731138420104980469e+01 1.310049833370963146e-12 -3.592879303532942048e-13 2.852285736158061136e-13 5.284234421559785844e-13
5.400000000000000000e+02 4.555114364624023438e+01 -2.388611984252929688e+01 2.361892799396247966e-12 1.240994503340364652e-12 1.080866190820983785e-12 -9.607698751162851991e-13
5.410000000000000000e+02 9.031041145324707031e+00 -2.915558815002441406e+01 -1.577263927104999297e-12 -1.051242426441945099e-11 -3.626906500825421986e-12 2.289834988289385365e-12
5.420000000000000000e+02 3.015106964111328125e+01 -3.258379745483398438e+01 3.418739683708205135e-12 1.144917494144692682e-12 1.369097109987782446e-12 -1.152923893507629138e-12
5.430000000000000000e+02 2.864519119262695312e+01 -3.362465667724609375e+01 2.217777177182522763e-12 9.047250253656213825e-13 9.367506770274758310e-13 -1.048840484949020713e-12
5.440000000000000000e+02 7.876217842102050781e+00 -2.479468345642089844e+01 -6.108895507506151290e-12 -2.279426647433524522e-11 -8.670948507816245154e-12 1.257007302066237564e-12
5.450000000000000000e+02 3.833997964859008789e+00 -2.368936538696289062e+01 8.807057595141762341e-14 1.913533350869633942e-12 6.004811990527325616e-13 -1.361090737729900302e-13
5.460000000000000000e+02 4.465940475463867188e+01 -2.739359092712402344e+01 1.120898296055883314e-12 -8.006416168070129569e-13 9.607699564314481355e-14 6.485197036505685464e-13
5.470000000000000000e+02 5.166706466674804688e+01 -2.875245285034179688e+01 -2.550543977408725738e-12 -8.271628824593757479e-13 -1.013312047118408721e-12 -2.346880827695796423e-13
5.480000000000000000e+02 5.098469161987304688e+01 -3.033631324768066406e+01 2.882059608327880440e-12 -1.073360150760649390e-13 8.324170888175663752e-13 -2.161732381641967571e-12
5.490000000000000000e+02 4.989679336547851562e+01 -2.898946380615234375e+01 -1.337071512536036622e-12 2.962373998448980528e-13 -3.122502256758252770e-13 -9.127314789386664629e-13
5.500000000000000000e+02 5.164907836914062500e+01 -2.978831291198730469e+01 -5.434354680665387516e-13 -1.268016182505438127e-12 -5.434354680665387516e-13 -6.905534087262021892e-13
5.510000000000000000e+02 5.587948608398437500e+01 -3.455293655395507812e+01 5.188157629204548371e-12 1.857488555329078750e-12 2.113693768623914337e-12 -2.722181475459800604e-13
5.520000000000000000e+02 2.771515464782714844e+01 -3.343884658813476562e+01 2.886312933450541074e-12 7.566063118906452001e-13 1.092875789865388469e-12 -2.321860694161348437e-13
5.530000000000000000e+02 8.920248985290527344e+00 -1.767573928833007812e+01 -3.660933535487576052e-12 -1.657528281295839179e-11 -6.070865164742311748e-12 -5.501158556464602611e-12
5.540000000000000000e+02 4.284336853027343750e+01 -2.625105667114257812e+01 -1.905526951506697486e-12 -1.761411519028352468e-13 -6.245004513516505540e-13 1.601283233614025914e-12
5.550000000000000000e+02 1.974524688720703125e+01 -3.272077941894531250e+01 2.169738781004904027e-12 -1.769417945496343236e-12 1.200962343895356499e-13 -3.202566521438160452e-13
5.560000000000000000e+02 1.181785106658935547e+00 -3.403188705444335938e+01 0.000000000000000000e+00 0.000000000000000000e+00 0.000000000000000000e+00 -9.687763828994389037e-13
5.570000000000000000e+02 2.001713752746582031e+00 -3.326572418212890625e+01 1.577263927104999297e-12 2.642117210779892922e-13 5.524426944548965768e-13 -5.604491480279416571e-13
5.580000000000000000e+02 3.137283802032470703e+00 -3.697216033935546875e+01 2.061652064344610125e-12 -2.021620067529927844e-12 1.200962445539310169e-14 -2.209770777819586307e-12
5.590000000000000000e+02 2.013888597488403320e+00 -3.778323364257812500e+01 -8.286640687873991773e-13 -1.933549457697192331e-12 -8.286640687873991773e-13 -2.401924687790712998e-13
5.600000000000000000e+02 1.957770466804504395e+00 -3.547314834594726562e+01 -2.321860585741131189e-12 -2.001603960702369456e-12 -1.297039407301137093e-12 -1.265013701429174020e-12
5.610000000000000000e+02 1.094632744789123535e+00 -2.834957313537597656e+01 -2.113693768623914337e-12 7.878313453002494526e-12 1.729385840261443708e-12 -1.521219023144226856e-12
5.620000000000000000e+02 1.751746416091918945e+00 -2.510692214965820312e+01 3.434752482434078047e-12 8.014422459012848776e-12 3.434752482434078047e-12 -2.658130226346200331e-12
5.630000000000000000e+02 1.056188583374023438e+00 -1.475810337066650391e+01 -2.225783576545459219e-12 8.470788306902399256e-12 1.873501354054951662e-12 4.179349141070209939e-12
5.640000000000000000e+02 2.415000438690185547e+00 -1.235210609436035156e+01 -4.187355757273580892e-12 2.185751579730776939e-12 -6.004811990527325616e-13 3.154527854209998594e-12
5.650000000000000000e+02 1.047606945037841797e+00 -2.120542716979980469e+01 -3.214575957852239263e-12 1.470378332979471736e-11 3.446762189898699980e-12 1.617296032339898826e-12
5.660000000000000000e+02 8.341193199157714844e+00 -1.831567573547363281e+01 -2.329866985104067645e-12 -1.888713491160487479e-11 -6.365100720800986878e-12 -4.233392282559922393e-12
5.670000000000000000e+02 4.313319206237792969e+00 -3.057538509368896484e+00 -2.433950393662676071e-12 1.152923893507629138e-12 -3.843079825725792542e-13 1.281026608575264181e-13
5.680000000000000000e+02 1.048493385314941406e+00 -9.139275550842285156e+00 -1.116894987954197838e-12 2.518017912234160605e-12 4.203368339159019307e-13 1.265013701429174020e-12
5.690000000000000000e+02 1.752310872077941895e+00 -8.348951339721679688e+00 -8.807057730667033901e-13 1.361090710624845990e-12 1.441154866884536423e-13 1.937552765798877807e-12
5.700000000000000000e+02 1.789538621902465820e+00 -2.757776498794555664e+00 1.166935146602876561e-12 1.014813233446432150e-12 6.545245031727708884e-13 1.136911094781756226e-12
5.710000000000000000e+02 2.403912305831909180e+00 -2.279916954040527344e+01 -3.042438046288453712e-12 6.565261355395701770e-12 1.056846884311957169e-12 -9.127314789386664629e-13
5.720000000000000000e+02 1.789745092391967773e+00 -1.720482635498046875e+01 -2.313854186378194733e-12 9.119307739502424681e-12 2.041636174357486233e-12 6.405133042876320904e-13
5.730000000000000000e+02 1.729632735252380371e+00 -1.234874725341796875e+01 7.285838599102589797e-13 5.116099818097685770e-12 1.753405146770470324e-12 6.725389559494865388e-13
5.740000000000000000e+02 1.161380887031555176e+00 -2.997998237609863281e+01 -3.498803894178004192e-12 5.500407854880373648e-12 6.004811990527325616e-13 -2.137713183553158203e-12
5.750000000000000000e+02 1.871392011642456055e+00 -2.909257316589355469e+01 -2.746200619338501347e-12 5.548446251057992384e-12 8.406736678318038614e-13 -2.626104412054020010e-12
5.760000000000000000e+02 1.068594813346862793e+00 -1.637794113159179688e+01 1.773421145177811464e-12 1.267815973732266954e-11 4.335474253908122577e-12 2.001603960702369456e-12
5.770000000000000000e+02 1.774077773094177246e+00 -1.556387615203857422e+01 1.809450050731242765e-12 7.638121038433531851e-12 2.834271229171236861e-12 3.298643476423723797e-12
5.780000000000000000e+02 1.033966302871704102e+00 -2.278749656677246094e+01 -2.257809390837639540e-12 1.522820411437031396e-11 3.891118330323628527e-12 2.882309733769072846e-13
5.790000000000000000e+02 1.043529033660888672e+00 -1.074559783935546875e+01 -1.004805180032652956e-12 4.487596058644349739e-12 1.044837285267552485e-12 5.444362950919601207e-13
5.800000000000000000e+02 1.257108807563781738e+00 -3.789726257324218750e+01 -9.127314789386664629e-13 -2.129706567349787250e-12 -9.127314789386664629e-13 6.565261030135050024e-13
5.810000000000000000e+02 2.020422935485839844e+00 -3.244471740722656250e+01 -5.364298957290236647e-13 4.563657394693332314e-13 -2.401924891078620339e-14 -2.417937594936803158e-12
5.820000000000000000e+02 2.826177835464477539e+00 -3.071831321716308594e+01 -1.629305631384303510e-12 4.683753385137379155e-13 -3.482791041242022656e-13 -4.771823994970114668e-12
5.830000000000000000e+02 1.807199001312255859e+00 -2.827861595153808594e+01 -3.322662782932750414e-13 6.056853803226847077e-12 1.717376241217039023e-12 -4.627708372756389466e-12
5.840000000000000000e+02 1.721115469932556152e+00 -2.355695724487304688e+01 -1.529225422507163312e-12 1.009609063018501729e-11 2.570059616513464817e-12 -7.205774605473225236e-13
5.850000000000000000e+02 1.783301115036010742e+00 -2.667405891418457031e+01 3.482790878611696783e-12 8.126512483774828155e-12 3.482790878611696783e-12 -5.380311647595892310e-12
5.860000000000000000e+02 1.034239053726196289e+00 -2.357523918151855469e+01 4.163336342344337027e-13 1.463572839310867124e-11 4.515618781675279081e-12 6.885517546753594509e-13
5.870000000000000000e+02 1.720175385475158691e+00 -2.278876495361328125e+01 4.803849375581425996e-13 1.136911051413669327e-11 3.554848689718559385e-12 1.537231930290317017e-12
5.880000000000000000e+02 7.826084136962890625e+00 -1.964717674255371094e+01 -1.453164520139049731e-12 -1.876303626358044596e-11 -6.064859985749349036e-12 -2.530027402858348040e-12
5.890000000000000000e+02 1.777469277381896973e+00 -1.883400726318359375e+01 -3.803047720490893013e-12 1.076862991139515557e-11 2.089674570535104969e-12 1.409129215222681974e-12
5.900000000000000000e+02 7.851509094238281250e+00 -1.755020332336425781e+01 -1.088872590183920241e-12 -1.364293313738107472e-11 -4.419541555639172614e-12 -2.033629774994549777e-12
5.910000000000000000e+02 1.754818797111511230e+00 -1.474653720855712891e+01 -1.068856591776579101e-12 7.754213937616327712e-12 2.005607268804054932e-12 2.193757979093713395e-12
5.920000000000000000e+02 1.736872553825378418e+00 -9.955322265625000000e+00 -1.120898214740720378e-13 3.154527854209998594e-12 9.127314789386664629e-13 8.006416168070129569e-13
5.930000000000000000e+02 1.731141448020935059e+00 -1.314272117614746094e+01 -1.681347335663607723e-12 6.325068507145870100e-12 1.393116416496809062e-12 3.410733284345268679e-12
5.940000000000000000e+02 2.425130367279052734e+00 -9.974401473999023438e+00 1.321058605389946461e-12 3.082470259943570490e-12 1.321058605389946461e-12 6.885517546753594509e-13
5.950000000000000000e+02 1.733421444892883301e+00 -1.075381088256835938e+01 -1.112891788272729610e-12 4.235394153451199628e-12 9.367506770274758310e-13 1.841475756603205838e-12
5.960000000000000000e+02 3.697054624557495117e+00 -2.951628208160400391e+00 -1.553244729016189929e-12 -2.081668171172168513e-13 -5.284234421559785844e-13 1.569257527742062841e-12
5.970000000000000000e+02 1.787181377410888672e+00 -5.916907310485839844e+00 1.208968797468401579e-12 1.112891788272729610e-12 6.965582082484045312e-13 1.713373041535570795e-12
5.980000000000000000e+02 2.367192983627319336e+00 -2.570940017700195312e+00 1.553244729016189929e-12 2.081668171172168513e-13 5.284234421559785844e-13 2.097680969898041425e-12
5.990000000000000000e+02 1.992918014526367188e+00 -3.404809951782226562e+01 -1.064853283674893625e-12 -7.766223645080949645e-13 -5.524426944548965768e-13 -4.403528865333516951e-13
6.000000000000000000e+02 1.966819643974304199e+00 -3.477551269531250000e+01 -5.124106434301056723e-13 -2.049642573720422689e-12 -7.686159651451585084e-13 -4.483592858962881511e-13
6.010000000000000000e+02 2.022109985351562500e+00 -3.614854431152343750e+01 -1.152923893507629138e-12 -2.690155823797946155e-12 -1.152923893507629138e-12 -8.326672684688674053e-13
6.020000000000000000e+02 2.040038299560546875e+01 -3.272670364379882812e+01 3.210572866590988284e-12 -1.048840484949020713e-12 6.485197036505685464e-13 3.202566521438160452e-13
6.030000000000000000e+02 2.124606895446777344e+01 -3.195903396606445312e+01 5.244202424745103563e-13 -4.843881914497194519e-13 1.200962445539310169e-14 -1.761411519028352468e-13
6.040000000000000000e+02 6.946147918701171875e+01 -3.253457260131835938e+01 7.059657546049091792e-12 3.208571212540145545e-12 3.080468605892727751e-12 2.901074779709800211e-12
6.050000000000000000e+02 7.108956909179687500e+01 -3.192791175842285156e+01 8.967185717925763022e-13 1.024821286860211345e-12 5.764619467538145692e-13 3.396721922829804008e-12
6.060000000000000000e+02 1.225849533081054688e+01 -1.327247810363769531e+01 -3.178547269139242459e-12 -4.427548171842543567e-12 -2.281828588926448909e-12 -3.398723576880646746e-12
6.070000000000000000e+02 7.890963745117187500e+01 -3.209275436401367188e+01 6.765421556309547668e-13 -1.837472448501520361e-12 -3.482791041242022656e-13 0.000000000000000000e+00
6.080000000000000000e+02 1.058016395568847656e+01 -3.670505762100219727e+00 1.421138814267086659e-12 -1.000802021008766196e-13 3.963175816169839383e-13 -9.127314789386664629e-13
6.090000000000000000e+02 8.211414337158203125e+00 -2.553591728210449219e+00 1.281026608575264181e-13 -1.409129215222681974e-12 -3.843079825725792542e-13 1.072859791458047329e-12
6.100000000000000000e+02 5.906989097595214844e+00 -2.498196601867675781e+00 2.522021003495411584e-12 7.606095115721134281e-13 9.847891816253118158e-13 2.882309842189290094e-12
6.110000000000000000e+02 6.560833930969238281e+00 -3.223713874816894531e+00 3.166537561674620527e-12 5.564458941363648048e-13 1.116894987954197838e-12 2.674143025072073243e-12
6.120000000000000000e+02 5.787861824035644531e+00 -3.207374572753906250e+00 -8.726993737037669341e-13 -3.282630515067525012e-13 -3.602887302736612618e-13 -2.562053217150528361e-13
6.130000000000000000e+02 4.397531032562255859e+00 -2.412050485610961914e+00 1.649321738211861899e-12 4.323464600653609269e-13 6.245004513516505540e-13 2.353886400033311510e-12
6.140000000000000000e+02 3.509208440780639648e+00 -5.188776969909667969e+00 4.003208151797700565e-14 -7.606095115721134281e-13 -2.161732300326804634e-13 2.153725982279031115e-12
6.150000000000000000e+02 5.025856971740722656e+00 -3.153666734695434570e+00 1.301042606982605321e-12 -3.803047557860567141e-13 2.762213472274482884e-13 3.026425247562580800e-12
6.160000000000000000e+02 2.119764804840087891e+00 -3.477523326873779297e+00 2.978386851384962064e-12 1.825462957877332926e-12 1.441154921094645047e-12 2.578066015876401273e-12
6.170000000000000000e+02 2.603350877761840820e+00 -5.083633422851562500e+00 1.249000902703301108e-12 3.522823038056704936e-13 4.803849375581425996e-13 1.265013701429174020e-12
6.180000000000000000e+02 4.933058547973632812e+01 -2.787738990783691406e+01 -1.377103509350718902e-12 -8.646929201307218538e-13 -6.725389559494865388e-13 3.377706643027666988e-13
6.190000000000000000e+02 4.997354888916015625e+01 -2.833224868774414062e+01 -3.783031559453226000e-13 -8.827073729074375041e-13 -3.783031559453226000e-13 6.565261030135050024e-13
6.200000000000000000e+02 1.042582511901855469e+01 -1.682669258117675781e+01 -6.306741587303044128e-12 -1.471573037037376963e-11 -6.306741587303044128e-12 -7.400930562839747040e-12
6.210000000000000000e+02 9.944687843322753906e+00 -1.637837028503417969e+01 -2.842277628534173317e-12 -1.261010566799836141e-11 -4.635714988959760419e-12 -5.380311647595892310e-12
6.220000000000000000e+02 6.377593231201171875e+01 -3.733416748046875000e+01 3.660933535487576052e-12 2.564054654360936603e-12 1.867496608742857944e-12 1.841475648182988589e-13
6.230000000000000000e+02 6.515761566162109375e+01 -3.674441909790039062e+01 2.628106066104862748e-12 2.716176675937598262e-12 1.603284779244651403e-12 1.903525514296289245e-12
6.240000000000000000e+02 7.754372406005859375e+01 -3.926886367797851562e+01 1.317055405708478233e-12 -3.759012198734090759e-12 -7.325870595917272077e-13 2.321860694161348437e-13
6.250000000000000000e+02 7.875878906250000000e+01 -3.627136993408203125e+01 -4.403528865333516951e-13 -4.443560970568416479e-12 -1.465174119183454415e-12 7.285838599102589797e-13
6.260000000000000000e+02 7.846913146972656250e+01 -3.086744689941406250e+01 -6.325068507145870100e-13 -1.048840484949020713e-12 -5.044041898570605920e-13 1.212971997149869807e-12
6.270000000000000000e+02 7.895615386962890625e+01 -2.991650009155273438e+01 -4.403528865333516951e-13 6.805453553124229948e-13 7.205774334422682115e-14 5.124106434301056723e-13
6.280000000000000000e+02 7.884133911132812500e+01 -3.463801574707031250e+01 7.045646076113409872e-13 -2.626104412054020010e-12 -5.764619467538145692e-13 1.216975196831338035e-12
6.290000000000000000e+02 7.793584442138671875e+01 -3.617170333862304688e+01 1.341074712217504850e-12 -3.702967620033970064e-12 -7.085678072928092153e-13 1.793437143585152604e-12
6.300000000000000000e+02 7.523917388916015625e+01 -3.134583091735839844e+01 1.889514152780824574e-12 9.927955809882482718e-13 8.646929201307218538e-13 1.713373041535570795e-12
6.310000000000000000e+02 7.802172088623046875e+01 -3.536505889892578125e+01 -2.385911997485057334e-12 -3.859092732871882703e-12 -1.873501354054951662e-12 1.345077911898973078e-12
6.320000000000000000e+02 7.833146667480468750e+01 -4.093109130859375000e+01 1.160930347080674219e-13 -3.999204613303053435e-12 -1.164933492552033822e-12 6.084875984156690176e-13
6.330000000000000000e+02 7.901718139648437500e+01 -3.132304954528808594e+01 1.561251128379126385e-12 -1.481186917909327327e-12 2.401924891078620339e-14 2.385911997485057334e-12
6.340000000000000000e+02 7.728843688964843750e+01 -3.093560409545898438e+01 1.004805180032652956e-12 6.365100503960552381e-13 4.923945908126559079e-13 2.385911997485057334e-12
6.350000000000000000e+02 1.444714927673339844e+01 -1.366477680206298828e+01 -2.846280936635858794e-12 -1.517215823462758628e-12 -1.309049006345541777e-12 -2.818258430445363949e-12
6.360000000000000000e+02 1.336789321899414062e+01 -1.347478580474853516e+01 -5.096083711270127381e-12 -3.350685180703028010e-12 -2.534030710960033517e-12 -4.083272348714972466e-12
6.370000000000000000e+02 2.759959030151367188e+01 -3.434517288208007812e+01 3.610893702099549074e-12 3.122502256758252770e-13 1.176943200016655755e-12 -6.164940519887140979e-13
6.380000000000000000e+02 1.453973293304443359e+01 -3.147209930419921875e+01 -3.378707470053088358e-12 -6.245004513516505540e-13 -1.200962398105465123e-12 1.837472448501520361e-12
6.390000000000000000e+02 1.494777011871337891e+01 -3.286606979370117188e+01 -1.541235129971785245e-12 -2.101684277999726902e-12 -1.092875789865388469e-12 3.803047557860567141e-13
6.400000000000000000e+02 2.595789718627929688e+01 -3.319671249389648438e+01 3.642919299551294898e-13 -4.003208151797700565e-15 1.080866150163402317e-13 -4.163336342344337027e-13
6.410000000000000000e+02 2.109837150573730469e+01 -3.287670135498046875e+01 -2.165735472903218550e-12 -1.637312030747239966e-12 -1.140914294463224454e-12 -7.045646076113409872e-13
6.420000000000000000e+02 1.654275131225585938e+01 -3.300932312011718750e+01 -8.646929201307218538e-13 -7.365902592731954357e-13 -4.803849375581425996e-13 -8.807057595141762341e-14
6.430000000000000000e+02 1.817384910583496094e+01 -3.290065002441406250e+01 7.646127112535816561e-13 7.606094980195862720e-14 2.522020949285302960e-13 -1.048840484949020713e-12
6.440000000000000000e+02 7.157603263854980469e+00 -2.301622009277343750e+01 -3.358691580065964466e-12 -2.150122961619427286e-11 -7.457976944347244341e-12 -2.113693768623914337e-12
6.450000000000000000e+02 1.338495159149169922e+01 -3.193808937072753906e+01 -2.029626466892864300e-12 -2.173741872266155006e-12 -1.261010501747705792e-12 2.562053217150528361e-12
6.460000000000000000e+02 6.244982528686523438e+01 -3.592267227172851562e+01 4.503608857370222651e-12 2.822261738547049426e-12 2.197761287195398872e-12 5.764619467538145692e-13
6.470000000000000000e+02 6.588123321533203125e+01 -3.572154998779296875e+01 5.114098380887277528e-12 8.306656686281332913e-13 1.783429198591590659e-12 9.607698751162851991e-13
6.480000000000000000e+02 1.568294525146484375e+01 -1.232684612274169922e+01 -1.793437143585152604e-12 -7.686159651451585084e-13 -7.686159651451585084e-13 -3.282630677697850885e-12
6.490000000000000000e+02 2.518266439437866211e+00 -1.723019027709960938e+01 -1.561251128379126385e-12 6.605293135369949553e-12 1.513212623781290400e-12 1.569257527742062841e-12
6.500000000000000000e+02 6.793972015380859375e+01 -3.606018447875976562e+01 4.479589876121847780e-12 2.766216726166059736e-12 2.173741872266155006e-12 3.578867887807368753e-12
6.510000000000000000e+02 6.880824279785156250e+01 -3.300941467285156250e+01 4.195361939796082851e-12 3.811053903013394972e-12 2.401924796210930246e-12 5.124106434301056723e-12
6.520000000000000000e+02 8.218476295471191406e+00 -2.156624984741210938e+01 -4.075265732511601513e-12 -2.658930714494189829e-11 -9.199372166812658236e-12 -4.019220720130611824e-12
6.530000000000000000e+02 4.386421966552734375e+01 -2.761854171752929688e+01 3.282630515067525012e-13 -8.807057595141762341e-14 7.205774334422682115e-14 8.726993737037669341e-13
6.540000000000000000e+02 2.183589553833007812e+01 -3.292690658569335938e+01 -5.044041898570605920e-13 -1.176943200016655755e-12 -5.044041898570605920e-13 4.163336342344337027e-13
6.550000000000000000e+02 3.218226623535156250e+01 -3.412348556518554688e+01 -1.156927093189097366e-12 7.165742608658542956e-13 -1.321058605389946461e-13 -1.088872590183920241e-12
6.560000000000000000e+02 3.298869705200195312e+01 -3.420060348510742188e+01 -7.926351632339678766e-13 7.125710069742774433e-13 -2.401924891078620339e-14 -9.447570763904122870e-13
6.570000000000000000e+02 6.742819213867187500e+01 -3.525789642333984375e+01 3.116497511446159052e-12 2.147721020126502900e-12 1.579265581155842035e-12 1.593276834251089458e-12
6.580000000000000000e+02 6.969576263427734375e+01 -3.394263458251953125e+01 3.202566467228051827e-12 3.202566467228051827e-12 1.921539750232570398e-12 3.674944897003040722e-12
6.590000000000000000e+02 3.576116561889648438e+01 -3.455143356323242188e+01 -2.401924891078620339e-14 -5.604491073703601889e-14 -2.401924891078620339e-14 -9.127314789386664629e-13
6.600000000000000000e+02 3.840142059326171875e+01 -3.316205978393554688e+01 -7.606095115721134281e-13 -9.207378783016029189e-13 -5.044041898570605920e-13 -1.016814887497274889e-12
6.610000000000000000e+02 5.521552658081054688e+01 -3.314295196533203125e+01 2.185751579730776939e-12 -2.401924891078620339e-14 6.485197036505685464e-13 -8.967185717925763022e-13
6.620000000000000000e+02 3.972430801391601562e+01 -3.362526321411132812e+01 3.002405859738391247e-14 7.005614350349270714e-14 3.002405859738391247e-14 -1.184949599379592211e-12
6.630000000000000000e+02 6.217939758300781250e+01 -3.705660247802734375e+01 8.240603512066346781e-12 2.147721020126502900e-12 3.116497511446159052e-12 1.497199825055417488e-12
6.640000000000000000e+02 8.810707092285156250e+00 -2.705160522460937500e+01 -3.218579265953924740e-12 -1.903925801738370893e-11 -6.677350946476812155e-12 2.646120518881578398e-12
6.650000000000000000e+02 9.644085884094238281e+00 -2.904296493530273438e+01 -3.442758881797014503e-12 -1.144917494144692682e-11 -4.467579951816791350e-12 2.305847787015258277e-12
6.660000000000000000e+02 1.700930023193359375e+01 -1.276723098754882812e+01 -2.830268137909985882e-12 2.281828697346666157e-13 -7.806255641895631925e-13 -8.726993737037669341e-13
6.670000000000000000e+02 1.682564163208007812e+01 -8.653315544128417969e+00 -2.786232832993618125e-12 -1.377103509350718902e-12 -1.249000902703301108e-12 -1.761411519028352468e-13
6.680000000000000000e+02 4.019012832641601562e+01 -3.442764663696289062e+01 2.425943994299739614e-12 -7.445967128462405160e-13 5.044041898570605920e-13 -1.445158120776113275e-12
6.690000000000000000e+02 7.251891326904296875e+01 -3.089988708496093750e+01 -7.526031122091769721e-13 -4.803849782157240678e-14 -2.401924687790712998e-13 1.729385840261443708e-12
6.700000000000000000e+02 2.218043899536132812e+01 -3.492905807495117188e+01 9.167346786201346909e-13 4.003208151797700565e-15 2.762213472274482884e-13 3.162534253572935050e-13
6.710000000000000000e+02 1.922430610656738281e+01 -3.393803787231445312e+01 1.969578363250623632e-12 -5.284234421559785844e-13 4.323464600653609269e-13 -1.833469357240269382e-12
6.720000000000000000e+02 2.485720157623291016e+00 -1.886823844909667969e+01 1.152923893507629138e-12 7.814262258099002878e-12 2.690155823797946155e-12 1.489193425692481032e-12
6.730000000000000000e+02 3.362163925170898438e+01 -3.548534393310546875e+01 -1.589273634569621230e-12 -2.922341730583755126e-13 -5.644523477094098851e-13 -9.287442776645393749e-13
6.740000000000000000e+02 4.341223526000976562e+01 -3.254069519042968750e+01 5.684555473908781131e-13 4.723785381952061435e-13 3.122502256758252770e-13 -2.978386851384962064e-12
6.750000000000000000e+02 6.687034606933593750e+01 -3.610855865478515625e+01 4.591679467202958165e-12 2.173741872266155006e-12 2.029626466892864300e-12 3.827066701739267884e-12
6.760000000000000000e+02 6.884925079345703125e+01 -3.380642700195312500e+01 6.222986969478538910e-12 2.564054654360936603e-12 2.636112465467799204e-12 2.546040201584220952e-12
6.770000000000000000e+02 1.156573295593261719e+01 -3.104638099670410156e+01 -5.644523477094098851e-13 -4.679750077035693678e-12 -1.573260727423531069e-12 3.249604144800466443e-12
6.780000000000000000e+02 3.663994979858398438e+01 -3.467722320556640625e+01 -1.645318538530393671e-12 -3.839076626044324314e-12 -1.645318538530393671e-12 -4.723785381952061435e-13
6.790000000000000000e+02 1.959708976745605469e+01 -1.292420101165771484e+01 -2.978386851384962064e-12 -1.825462957877332926e-12 -1.441154921094645047e-12 -2.257809390837639540e-12
6.800000000000000000e+02 2.010389328002929688e+01 -1.178513145446777344e+01 -3.498803894178004192e-12 3.763015561045884860e-13 -9.367506770274758310e-13 -2.369899198759184422e-12
6.810000000000000000e+02 4.413932037353515625e+01 -2.506400489807128906e+01 -3.346681872601342533e-12 -9.767827822623753597e-13 -1.297039407301137093e-12 4.803849782157240678e-14
6.820000000000000000e+02 4.583605957031250000e+01 -2.549436759948730469e+01 2.770220034267745213e-12 -3.682951296365977178e-13 7.205774605473225236e-13 4.643721388322696875e-13
6.830000000000000000e+02 4.746118164062500000e+01 -2.623701286315917969e+01 1.088872590183920241e-12 -1.729385840261443708e-12 -1.921539912862896271e-13 -2.802245740139708285e-13
6.840000000000000000e+02 4.809199905395507812e+01 -2.676103210449218750e+01 9.147330245692919526e-13 4.263416605431585849e-13 4.023224082442405924e-13 -1.921539750232570398e-12
6.850000000000000000e+02 4.049132919311523438e+01 -3.299147796630859375e+01 4.461137622507882483e-12 -1.546927191377334143e-12 8.742631184971427771e-13 -1.439153267043802309e-12
6.860000000000000000e+02 1.490507698059082031e+01 -1.273072052001953125e+01 2.001604042017532392e-13 -1.240994503340364652e-12 -3.122502256758252770e-13 -2.802245631719491037e-12
6.870000000000000000e+02 7.346343517303466797e+00 -2.218589782714843750e+01 -5.484395056154500736e-12 -2.133709875451472726e-11 -8.046448056464594600e-12 -9.607698751162851991e-13
6.880000000000000000e+02 9.446489334106445312e+00 -1.704104042053222656e+01 -3.763015506835776236e-12 -1.625302496754965631e-11 -6.004812098947542864e-12 -6.234996460102726346e-12
6.890000000000000000e+02 7.526177883148193359e+00 -2.136035346984863281e+01 -5.544442942956306908e-12 -2.147721063494589799e-11 -8.106496376947269766e-12 -2.898322640915163007e-12
6.900000000000000000e+02 5.053984832763671875e+01 -2.872249984741210938e+01 -8.326672684688674053e-13 -1.088872590183920241e-12 -5.764619467538145692e-13 1.092875789865388469e-12
6.910000000000000000e+02 3.386069488525390625e+01 -3.445589828491210938e+01 -6.525229033320367744e-13 -6.685357562680183108e-13 -3.963175816169839383e-13 -2.161732300326804634e-13
6.920000000000000000e+02 3.482674026489257812e+01 -3.458264541625976562e+01 -2.233789975908395675e-12 -8.807057595141762341e-14 -6.965582082484045312e-13 -3.010412448836707888e-12
6.930000000000000000e+02 3.759899902343750000e+01 -3.520372009277343750e+01 3.074463860580634034e-12 7.686159651451585084e-13 1.152923893507629138e-12 -1.453164520139049731e-12
6.940000000000000000e+02 3.917440795898437500e+01 -3.444343566894531250e+01 2.550043509685906429e-12 -2.802245536851800944e-14 7.566063118906452001e-13 -1.056846884311957169e-12
6.950000000000000000e+02 5.723736953735351562e+01 -3.594774627685546875e+01 2.818258430445363949e-12 2.305847787015258277e-12 1.537231930290317017e-12 -1.120898214740720378e-13
6.960000000000000000e+02 4.347017669677734375e+01 -2.951726531982421875e+01 1.337071512536036622e-12 9.847891816253118158e-13 6.965582082484045312e-13 -1.921539912862896271e-13
6.970000000000000000e+02 8.788073539733886719e+00 -2.842034149169921875e+01 -3.763015561045884860e-13 -1.411531135031562911e-11 -4.347483744532310013e-12 8.566865207677853977e-13
6.980000000000000000e+02 5.893029689788818359e+00 -2.331634330749511719e+01 -3.283631396303055006e-12 -1.107787733073406500e-11 -4.308452466322831853e-12 -2.177745180367840483e-12
6.990000000000000000e+02 4.405910873413085938e+01 -2.839711189270019531e+01 1.361090737729900302e-13 -5.364298957290236647e-13 -1.200962343895356499e-13 -3.282630515067525012e-13
7.000000000000000000e+02 1.041154003143310547e+01 -2.925056648254394531e+01 -8.006416303595401129e-14 -8.726993086516365850e-12 -2.642117210779892922e-12 2.241796592111766628e-12
7.010000000000000000e+02 1.082304096221923828e+01 -3.041656303405761719e+01 -2.449963409228983480e-12 -6.997607788356008385e-12 -2.834271229171236861e-12 3.749004145320311565e-12
7.020000000000000000e+02 9.917239546775817871e-01 -3.600925922393798828e+00 4.159333034242651550e-12 1.164933492552033822e-12 1.597280033932557686e-12 2.786232832993618125e-12
7.030000000000000000e+02 1.559708952903747559e+00 -3.641756534576416016e+00 -1.052843684630488941e-12 -7.485999125277087440e-13 -5.404330954104918927e-13 1.409129215222681974e-12
7.040000000000000000e+02 1.183599472045898438e+01 -1.437639141082763672e+01 -3.833071880732230596e-12 -7.235798332033693825e-12 -3.320661020461690427e-12 -3.106489458032379858e-12
7.050000000000000000e+02 1.105181789398193359e+01 -1.491751670837402344e+01 -5.292241037763156797e-12 -1.064052665422643429e-11 -4.779830177492616627e-12 -3.410733284345268679e-12
7.060000000000000000e+02 7.798239707946777344e+00 -2.735782623291015625e+01 3.510813384802191628e-12 -1.572059843413242675e-11 -3.662935406378853287e-12 1.457167719820517959e-12
7.070000000000000000e+02 8.137109756469726562e+00 -2.663063621520996094e+01 -7.109697379437118769e-12 -1.915134717478395032e-11 -7.878313453002494526e-12 7.285838599102589797e-13
7.080000000000000000e+02 4.341087722778320312e+01 -3.170793342590332031e+01 8.526833210863171697e-13 -5.724587470723463412e-13 8.406736949368581735e-14 9.287442776645393749e-13
7.090000000000000000e+02 4.390801239013671875e+01 -3.048458671569824219e+01 2.850284027897109773e-12 6.725389559494865388e-13 1.056846884311957169e-12 4.163336342344337027e-13
7.100000000000000000e+02 5.499733352661132812e+01 -3.168803405761718750e+01 7.986400169662788429e-13 1.863493300641172468e-12 7.986400169662788429e-13 -2.706168622523819067e-12
7.110000000000000000e+02 5.376448440551757812e+01 -3.105235290527343750e+01 2.431948956452267829e-12 5.504410946141624628e-13 8.947169719518421882e-13 -3.218579265953924740e-12
7.120000000000000000e+02 1.781509995460510254e+00 -4.103207397460937500e+01 -9.927955809882482718e-13 -3.170540652935871506e-12 -1.249000902703301108e-12 2.802245536851800944e-14
7.130000000000000000e+02 5.571819305419921875e+01 -3.936890029907226562e+01 3.975185632054678564e-12 1.589273634569621230e-12 1.669337736619203039e-12 -6.445165039691003184e-13
7.140000000000000000e+02 5.827720260620117188e+01 -3.567809677124023438e+01 6.433155223806164003e-12 3.054447753753075645e-12 2.846280936635858794e-12 -6.565261030135050024e-13
7.150000000000000000e+02 1.214006519317626953e+01 -5.804445266723632812e+00 8.006416303595401129e-14 -1.521219023144226856e-12 -4.323464600653609269e-13 1.345077911898973078e-12
7.160000000000000000e+02 4.371115112304687500e+01 -2.684134674072265625e+01 5.364298957290236647e-13 -4.563657394693332314e-13 2.401924891078620339e-14 -2.161732300326804634e-13
7.170000000000000000e+02 1.505397319793701172e+01 -7.025156497955322266e+00 -2.410932131019505320e-12 -5.014018172010137331e-13 -8.737001465190796790e-13 -5.924747996897961055e-13
7.180000000000000000e+02 1.495202732086181641e+01 -6.161066532135009766e+00 -2.802245740139708285e-13 -2.361892799396247966e-12 -7.926351632339678766e-13 8.486801214048489417e-13
7.190000000000000000e+02 1.579046344757080078e+01 -1.088299369812011719e+01 -2.013613668166991388e-12 -2.990396342009149500e-12 -1.501203024736885716e-12 -1.056846884311957169e-12
7.200000000000000000e+02 1.595608425140380859e+01 -6.956070899963378906e+00 -9.147330245692919526e-13 -4.263416605431585849e-13 -4.023224082442405924e-13 -6.084875984156690176e-13
7.210000000000000000e+02 1.281250000000000000e+01 -4.722529411315917969e+00 -6.963580320012985325e-12 -2.584070761188494991e-12 -2.864295389412574444e-12 4.803849782157240678e-14
7.220000000000000000e+02 1.643390083312988281e+01 -7.371520042419433594e+00 9.782839685903987892e-13 -1.133408254402890059e-12 -4.653729455289003225e-14 1.361090737729900302e-13
7.230000000000000000e+02 1.555659484863281250e+01 -1.139291381835937500e+01 -3.202566521438160452e-13 -3.202566521438160452e-13 -1.921539912862896271e-13 -1.889514152780824574e-12
7.240000000000000000e+02 1.194204235076904297e+01 -4.969777584075927734e+00 2.884311279399698336e-12 -1.020818019416107336e-13 8.346688683096015193e-13 1.713373041535570795e-12
7.250000000000000000e+02 1.665566062927246094e+01 -9.938097000122070312e+00 -3.931150110297876310e-12 -6.325068507145870100e-13 -1.369097109987782446e-12 -8.486801214048489417e-13
7.260000000000000000e+02 1.774235725402832031e+01 -8.889411926269531250e+00 -4.435554354365045526e-12 1.120898214740720378e-13 -1.297039407301137093e-12 -9.007218256841531545e-13
7.270000000000000000e+02 1.954823875427246094e+01 -1.232197093963623047e+01 -2.914335439641035919e-12 3.202566521438160452e-14 -8.646929201307218538e-13 -8.326672684688674053e-13
7.280000000000000000e+02 1.170503425598144531e+01 -4.133064270019531250e+00 1.537231930290317017e-12 -1.537231930290317017e-12 0.000000000000000000e+00 1.120898214740720378e-13
7.290000000000000000e+02 1.088915824890136719e+01 -4.460000991821289062e+00 2.449963409228983480e-12 5.924747996897961055e-13 9.127314789386664629e-13 -1.601283233614025914e-12
7.300000000000000000e+02 1.956539535522460938e+01 -1.177150630950927734e+01 -4.235394153451199628e-12 -3.050444445651390168e-12 -2.185751579730776939e-12 -2.730187820612628435e-12
7.310000000000000000e+02 8.607376098632812500e+00 -3.899706602096557617e+00 2.217777177182522763e-12 -1.657328137574798355e-12 1.681347389873716347e-13 1.457167719820517959e-12
7.320000000000000000e+02 6.475831031799316406e+00 -3.938826322555541992e+00 5.524426944548965768e-13 -1.273020100792110476e-12 -2.161732300326804634e-13 -6.405133042876320904e-14
7.330000000000000000e+02 8.052310943603515625e+00 -3.233604907989501953e+00 2.854287335998795250e-12 -1.721379386688398627e-13 8.046448164884811849e-13 7.526031122091769721e-13
7.340000000000000000e+02 1.367642498016357422e+01 -6.768862724304199219e+00 -2.363894236606656207e-12 -2.099682623948884164e-12 -1.339073058166662111e-12 2.465976207954856392e-12
7.350000000000000000e+02 1.554213333129882812e+01 -7.401344776153564453e+00 1.998601588046322597e-12 -2.168737845559265409e-12 -5.104090097080536681e-14 -4.963977904941241359e-13
7.360000000000000000e+02 7.382709503173828125e+01 -3.077293777465820312e+01 8.967185717925763022e-13 3.843079825725792542e-13 3.843079825725792542e-13 3.779028305561649148e-12
7.370000000000000000e+02 1.801107597351074219e+01 -9.901015281677246094e+00 -2.473982607317792848e-12 -6.485197036505685464e-13 -9.367506770274758310e-13 -1.729385840261443708e-12
7.380000000000000000e+02 1.623456954956054688e+01 -1.176286220550537109e+01 -8.246608691059309493e-13 -1.497199825055417488e-12 -6.965582082484045312e-13 -1.713373041535570795e-12
7.390000000000000000e+02 1.632093429565429688e+01 -8.885355949401855469e+00 3.763015561045884860e-13 -2.538033802221284496e-12 -6.485197036505685464e-13 -1.633308831065771738e-12
7.400000000000000000e+02 1.981221199035644531e+01 -1.135788249969482422e+01 -3.587875168405835202e-13 -8.371708816630463179e-13 -3.587875168405835202e-13 -9.927955809882482718e-13
7.410000000000000000e+02 1.141436195373535156e+01 -4.701544284820556641e+00 -2.459971245802328177e-12 -2.323862239791973927e-12 -1.435150067362334081e-12 -1.120898214740720378e-13
7.420000000000000000e+02 7.149826812744140625e+01 -3.129645347595214844e+01 3.442758881797014503e-12 -8.006416303595401129e-14 1.008808379714121184e-12 3.540837545043529211e-12
7.430000000000000000e+02 3.089731216430664062e+01 -3.521398544311523438e+01 -7.806255641895631925e-13 7.405934589546636637e-13 -1.200962445539310169e-14 2.321860694161348437e-13
7.440000000000000000e+02 2.682228660583496094e+01 -3.327976989746093750e+01 2.149722674177345638e-12 2.453966500490234459e-12 1.381106817452404378e-12 -4.803849375581425996e-13
7.450000000000000000e+02 2.422665214538574219e+01 -3.324420547485351562e+01 -6.164940519887140979e-13 -5.844683461167510252e-13 -3.602887302736612618e-13 8.006416303595401129e-15
7.460000000000000000e+02 4.678184890747070312e+01 -2.606374931335449219e+01 -4.483592858962881511e-13 -1.921539912862896271e-13 -1.921539912862896271e-13 2.642117210779892922e-13
7.470000000000000000e+02 4.662355804443359375e+01 -2.533815956115722656e+01 2.177745180367840483e-12 1.665334536937734811e-12 1.152923893507629138e-12 4.483592858962881511e-13
7.480000000000000000e+02 5.305093765258789062e+01 -3.071384239196777344e+01 -1.265013701429174020e-12 4.643721388322696875e-13 -2.401924687790712998e-13 -1.761411546133406780e-12
7.490000000000000000e+02 2.962238693237304688e+01 -3.371693420410156250e+01 2.395920050898836529e-12 4.663737386730038015e-13 8.586881206085195117e-13 -5.924747996897961055e-13
7.500000000000000000e+02 2.855388069152832031e+01 -3.469521331787109375e+01 3.722983293180659459e-12 1.000801980351184728e-12 1.417135614585618431e-12 -1.012811579395589412e-12
7.510000000000000000e+02 2.251523017883300781e+01 -3.313059234619140625e+01 -7.926351632339678766e-13 -1.849482155966142294e-12 -7.926351632339678766e-13 -9.527634757533487431e-13
7.520000000000000000e+02 2.083988952636718750e+01 -3.524902725219726562e+01 -1.943557511110971525e-12 -1.118896642005040576e-12 -9.187362242507601806e-13 1.521218996039172544e-13
7.530000000000000000e+02 4.701378250122070312e+01 -2.675599670410156250e+01 6.024827988934666756e-13 -3.022421993671003948e-13 9.007218256841531545e-14 -7.365902592731954357e-13
7.540000000000000000e+02 9.435911178588867188e+00 -2.964105606079101562e+01 2.662133209187234062e-13 -1.133508391315540820e-11 -3.320661020461690427e-12 1.889514152780824574e-12
7.550000000000000000e+02 5.450260543823242188e+01 -3.218297195434570312e+01 3.841078063254732555e-12 4.223384337566360447e-13 1.279024954524421442e-12 -2.882309733769072846e-13
7.560000000000000000e+02 7.730199432373046875e+01 -3.449843597412109375e+01 -1.016814887497274889e-12 -3.226585665316861196e-12 -1.273020100792110476e-12 1.889514152780824574e-12
7.570000000000000000e+02 7.257788848876953125e+01 -3.169126701354980469e+01 5.460375641225256871e-12 7.846287638710314205e-13 1.873501354054951662e-12 4.339477562009808054e-12
7.580000000000000000e+02 7.324452209472656250e+01 -3.166693115234375000e+01 1.180946399698123983e-12 -6.605293026949732305e-13 1.561251128379126385e-13 2.097680969898041425e-12
7.590000000000000000e+02 7.393442535400390625e+01 -3.158041572570800781e+01 -3.122502256758252770e-13 -7.285838599102589797e-13 -3.122502256758252770e-13 2.578066015876401273e-12
7.600000000000000000e+02 5.247346496582031250e+01 -3.146811676025390625e+01 5.484394947734283488e-13 -4.283432603838926989e-13 3.602887167211341057e-14 -2.962373835818654655e-12
7.610000000000000000e+02 4.526778030395507812e+01 -2.643822669982910156e+01 -1.128904695418819770e-12 -7.205774334422682115e-14 -3.602887302736612618e-13 -1.008808379714121184e-12
7.620000000000000000e+02 1.900897216796875000e+01 -3.286578750610351562e+01 -2.281828697346666157e-13 -5.324266418374468124e-13 -2.281828697346666157e-13 -6.565261030135050024e-13
7.630000000000000000e+02 1.946555733680725098e+00 -2.992178916931152344e+01 -6.565261030135050024e-13 2.738194219975564891e-12 6.245004513516505540e-13 -4.515618781675279081e-12
7.640000000000000000e+02 1.776705503463745117e+00 -2.588667297363281250e+01 3.402726884982332223e-12 9.647731398498837763e-12 3.915137311572003398e-12 -2.786232832993618125e-12
7.650000000000000000e+02 1.788878202438354492e+00 -1.638554191589355469e+01 -3.158531162311684071e-12 8.002412968388661341e-12 1.453164520139049731e-12 1.088872590183920241e-12
7.660000000000000000e+02 1.771005988121032715e+00 -2.044112777709960938e+01 -1.056846884311957169e-12 1.034428966095735092e-11 2.786232832993618125e-12 2.033629774994549777e-12
7.670000000000000000e+02 2.709230899810791016e+00 -3.544817733764648438e+01 2.522021003495411584e-12 -1.801443651368306309e-12 2.161732300326804634e-13 -2.642117210779892922e-12
7.680000000000000000e+02 1.780860543251037598e+00 -1.802001380920410156e+01 -7.445967128462405160e-13 1.107287352086760990e-11 3.098483058669443402e-12 1.152923893507629138e-12
7.690000000000000000e+02 2.478939294815063477e+00 -1.554702568054199219e+01 -2.221780485284208240e-12 5.064058113818381557e-12 8.526833210863171697e-13 3.138515055484125682e-12
7.700000000000000000e+02 1.778810381889343262e+00 -1.964252090454101562e+01 1.200962445539310169e-14 1.027623472427130480e-11 3.086473351204821469e-12 8.166544155328858690e-13
7.710000000000000000e+02 2.517781972885131836e+00 -1.639051437377929688e+01 1.100882189228324926e-12 5.984795992119984476e-12 2.125703476088536270e-12 2.385911997485057334e-12
7.720000000000000000e+02 2.460913419723510742e+00 -2.128527450561523438e+01 -4.083272077664429345e-13 6.733395958857801844e-12 1.897520552143761030e-12 1.184949599379592211e-12
7.730000000000000000e+02 2.504523515701293945e+00 -1.968213844299316406e+01 -3.622903192723736510e-12 6.064859985749349036e-12 7.325870595917272077e-13 2.177745180367840483e-12
7.740000000000000000e+02 2.451921463012695312e+00 -8.381046295166015625e+00 2.081668171172168513e-12 1.441154921094645047e-12 1.056846884311957169e-12 1.809450050731242765e-12
7.750000000000000000e+02 1.743512630462646484e+00 -9.153457641601562500e+00 2.826264829808300405e-12 3.178547269139242459e-12 1.801443651368306309e-12 1.008808379714121184e-12
7.760000000000000000e+02 1.729549884796142578e+00 -2.432942199707031250e+01 2.810252031082427493e-12 1.168136073981251855e-11 4.347483744532310013e-12 -1.601283260719080226e-14
7.770000000000000000e+02 5.885873317718505859e+00 -2.159437179565429688e+01 -7.902332434250869397e-12 -1.075261667898841367e-11 -5.596484647235611121e-12 8.006416303595401129e-14
7.780000000000000000e+02 3.262988805770874023e+00 -1.638212585449218750e+01 -1.469177318864922643e-12 2.550043509685906429e-12 3.242598518252842732e-13 2.449963409228983480e-12
7.790000000000000000e+02 1.738947629928588867e+00 -1.393952846527099609e+01 -8.686961198121900818e-13 6.513219651116397557e-12 1.693357043128229655e-12 4.915939617183839871e-12
7.800000000000000000e+02 3.110068798065185547e+00 -1.312831211090087891e+01 -4.259413134699574499e-12 2.017616759428242368e-12 -6.725389559494865388e-13 5.044042006990823168e-12
7.810000000000000000e+02 2.414858341217041016e+00 -2.205373764038085938e+01 -2.289834988289385365e-12 6.613299751573320506e-12 1.297039407301137093e-12 1.008808379714121184e-12
7.820000000000000000e+02 7.107194423675537109e+00 -2.386267089843750000e+01 -4.547644379127024905e-12 -1.915134717478395032e-11 -7.109697379437118769e-12 -2.225783576545459219e-12
7.830000000000000000e+02 1.780868649482727051e+00 -2.747258949279785156e+01 3.374704378791837378e-12 7.874310578581678044e-12 3.374704378791837378e-12 -2.674143025072073243e-12
7.840000000000000000e+02 7.140147686004638672e+00 -2.466180610656738281e+01 -4.131310744892591202e-12 -1.988793678353584227e-11 -7.205774605473225236e-12 -7.205774605473225236e-13
7.850000000000000000e+02 2.415363788604736328e+00 -1.313411998748779297e+01 -2.882309842189290094e-12 3.522823092266813561e-12 1.921539912862896271e-13 2.305847787015258277e-12
7.860000000000000000e+02 2.441727638244628906e+00 -1.472060298919677734e+01 -7.205774334422682115e-14 4.955971397158087655e-12 1.465174119183454415e-12 3.907131129049501439e-12
7.870000000000000000e+02 7.449749946594238281e+00 -2.633968162536621094e+01 1.064853283674893625e-12 -1.715774917976364833e-11 -4.827869007351104358e-12 -1.481186917909327327e-12
7.880000000000000000e+02 2.489950180053710938e+00 -2.818919181823730469e+01 -6.084875984156690176e-13 5.412337245047638135e-12 1.441154921094645047e-12 -2.770220034267745213e-12
7.890000000000000000e+02 2.505491495132446289e+00 -2.661626052856445312e+01 -1.853485247227393273e-12 4.215378046623641239e-12 7.085678072928092153e-13 -4.691760001340750108e-12
7.900000000000000000e+02 3.185084581375122070e+00 -7.641862392425537109e+00 1.000801980351184728e-12 1.481186917909327327e-12 7.445967128462405160e-13 1.136911094781756226e-12
7.910000000000000000e+02 1.764031410217285156e+00 -7.542437553405761719e+00 2.393918396847993790e-12 2.169738781004904027e-12 1.369097109987782446e-12 1.024821286860211345e-12
7.920000000000000000e+02 2.421755075454711914e+00 -1.391831207275390625e+01 -2.614094921429832574e-12 5.856693168632132185e-12 9.727795825809071317e-13 4.611695574030516553e-12
7.930000000000000000e+02 3.097903490066528320e+00 -3.919546127319335938e+00 2.266816563015888741e-13 5.289238556686892689e-13 2.266816563015888741e-13 2.389915088746308314e-12
7.940000000000000000e+02 1.778936386108398438e+00 -6.731493473052978516e+00 -5.524426944548965768e-13 1.273020100792110476e-12 2.161732300326804634e-13 1.969578363250623632e-12
7.950000000000000000e+02 2.447166919708251953e+00 -4.247644901275634766e+00 -6.204972516701823260e-13 2.602085213965210642e-13 -1.080866150163402317e-13 2.385911997485057334e-12
7.960000000000000000e+02 2.475180864334106445e+00 -7.580403804779052734e+00 -8.807057730667033901e-13 1.361090710624845990e-12 1.441154866884536423e-13 1.761411546133406780e-12
7.970000000000000000e+02 6.148543357849121094e+00 -2.583926963806152344e+01 2.289834988289385365e-12 -9.175353185564283365e-12 -2.065655372446295601e-12 -2.610091613328147098e-12
7.980000000000000000e+02 2.028328180313110352e+00 -3.160802841186523438e+01 -1.401122815859745518e-12 1.000801980351184728e-12 -1.200962343895356499e-13 -2.289834988289385365e-12
7.990000000000000000e+02 2.741749525070190430e+00 -2.983907890319824219e+01 -3.666938714480538763e-12 -1.601283260719080226e-14 -1.104885388909793154e-12 -3.779028305561649148e-12
8.000000000000000000e+02 2.836771249771118164e+00 -3.249089813232421875e+01 -2.401924687790712998e-13 -5.604491480279416571e-13 -2.401924687790712998e-13 -2.089674570535104969e-12
8.010000000000000000e+02 2.608534097671508789e+00 -2.898701477050781250e+01 -1.989594470078182020e-12 2.189754887832462416e-12 6.004811719476782494e-14 -5.924747671637309310e-12
8.020000000000000000e+02 2.780755996704101562e+00 -3.331304168701171875e+01 -1.805446851049774537e-12 -7.966384171255447288e-13 -7.806255641895631925e-13 -1.200962398105465123e-12
8.030000000000000000e+02 2.793931961059570312e+00 -3.482991027832031250e+01 -1.349081111580441306e-12 -2.293838296391070841e-12 -1.092875789865388469e-12 9.607699564314481355e-14
8.040000000000000000e+02 2.853989601135253906e+00 -3.411800765991210938e+01 1.357087510943377762e-12 -1.957568655786001699e-12 -1.801443651368306309e-13 -6.645325565865500828e-13
8.050000000000000000e+02 8.428458213806152344e+00 -1.703087806701660156e+01 -5.764619467538145692e-13 -1.415534356397074589e-11 -4.419541555639172614e-12 -3.252606517456513302e-12
8.060000000000000000e+02 2.452463626861572266e+00 -3.910933685302734375e+01 -1.120898214740720378e-13 -1.969578363250623632e-12 -6.245004513516505540e-13 -1.777424344859279692e-12
8.070000000000000000e+02 2.669564485549926758e+00 -3.251088857650756836e+00 -1.855486901278236012e-12 7.946368172848106148e-13 -3.182550251980276190e-13 9.767827822623753597e-13
8.080000000000000000e+02 2.560342073440551758e+00 -5.938671112060546875e+00 6.645325565865500828e-13 6.965582082484045312e-13 4.083272077664429345e-13 1.593276834251089458e-12
8.090000000000000000e+02 3.348012208938598633e+00 -6.033992767333984375e+00 6.084875984156690176e-13 -2.882309733769072846e-13 9.607699564314481355e-14 1.545238329653253473e-12
8.100000000000000000e+02 4.872861862182617188e+00 -3.888188362121582031e+00 -1.589273634569621230e-12 -2.922341730583755126e-13 -5.644523477094098851e-13 3.202566521438160452e-13
8.110000000000000000e+02 5.677062511444091797e+00 -3.951602935791015625e+00 9.967987806697164999e-13 -2.361892690976030718e-13 2.281828697346666157e-13 3.282630677697850885e-12
8.120000000000000000e+02 7.320573806762695312e+00 -3.224474668502807617e+00 5.404330954104918927e-13 -1.301042606982605321e-12 -2.281828697346666157e-13 -5.124106434301056723e-13
8.130000000000000000e+02 1.012885379791259766e+01 -4.804781436920166016e+00 1.565254328060594613e-12 2.361892690976030718e-13 5.404330954104918927e-13 -1.361090710624845990e-12
8.140000000000000000e+02 1.692854762077331543e+00 -4.353482723236083984e+00 4.563657394693332314e-13 1.064853283674893625e-12 4.563657394693332314e-13 1.729385840261443708e-12
8.150000000000000000e+02 6.338350296020507812e+00 -2.268241310119628906e+01 -5.724587470723463412e-12 -1.421138814267086659e-11 -5.980792684018298999e-12 -1.901523860245446507e-12
8.160000000000000000e+02 7.682141113281250000e+01 -3.773597717285156250e+01 -4.083272077664429345e-13 -3.514816692903877104e-12 -1.176943200016655755e-12 4.643721388322696875e-13
8.170000000000000000e+02 7.696321868896484375e+01 -3.178663253784179688e+01 -1.299040952931762583e-12 -1.323060259440789199e-12 -7.866303637117655345e-13 1.168936692233502050e-12
8.180000000000000000e+02 7.818129730224609375e+01 -3.290186309814453125e+01 -2.682149478645118323e-13 -2.333870293205753121e-12 -7.806255641895631925e-13 9.287442776645393749e-13
8.190000000000000000e+02 7.593537139892578125e+01 -3.267562866210937500e+01 -1.000802021008766196e-13 -1.941555857060128787e-12 -6.124908523072458699e-13 1.801443651368306309e-12
8.200000000000000000e+02 7.760814666748046875e+01 -3.200404357910156250e+01 -1.601283233614025914e-12 -3.202566521438160452e-13 -5.764619467538145692e-13 8.006416168070129569e-13
8.210000000000000000e+02 7.735979461669921875e+01 -3.367900848388671875e+01 1.064853283674893625e-12 -1.785430744222216148e-12 -2.161732300326804634e-13 1.609289632976962370e-12
8.220000000000000000e+02 7.745909118652343750e+01 -3.282550048828125000e+01 -1.689353735026544179e-12 -2.233789975908395675e-12 -1.176943200016655755e-12 1.232988103977428196e-12
8.230000000000000000e+02 7.690886688232421875e+01 -3.868212127685546875e+01 1.200962445539310169e-14 -2.534030710960033517e-12 -7.566063118906452001e-13 1.257007302066237564e-12
8.240000000000000000e+02 7.752253723144531250e+01 -4.019290542602539062e+01 -8.626913202899877398e-13 -3.720981855970251218e-12 -1.375101963720093412e-12 3.282630515067525012e-13
8.250000000000000000e+02 4.872425842285156250e+01 -2.728963470458984375e+01 -9.207378783016029189e-13 -1.721379440898507251e-12 -7.926351632339678766e-13 1.255506115738214135e-12
8.260000000000000000e+02 4.828208541870117188e+01 -2.777629089355468750e+01 -3.742999562638543720e-13 8.346688683096015193e-13 1.381106736137241442e-13 -8.006416168070129569e-13
8.270000000000000000e+02 7.783274841308593750e+01 -3.697958755493164062e+01 7.846287638710314205e-13 -4.147323543618464115e-12 -1.008808379714121184e-12 9.767827822623753597e-13
8.280000000000000000e+02 7.695056915283203125e+01 -3.686151885986328125e+01 1.032827686223147801e-12 -2.714175021886755523e-12 -5.044041898570605920e-13 1.841475756603205838e-12
8.290000000000000000e+02 7.713175201416015625e+01 -3.605340576171875000e+01 -2.642117210779892922e-13 -3.178547269139242459e-12 -1.032827686223147801e-12 2.714175021886755523e-12
8.300000000000000000e+02 7.583992004394531250e+01 -3.132235527038574219e+01 -2.594078814602274186e-12 -9.287442776645393749e-13 -1.056846884311957169e-12 2.097680969898041425e-12
8.310000000000000000e+02 7.460327148437500000e+01 -3.144749259948730469e+01 -2.081668171172168513e-12 -1.441154921094645047e-12 -1.056846884311957169e-12 2.177745180367840483e-12
8.320000000000000000e+02 4.488495635986328125e+01 -2.486934280395507812e+01 1.681347389873716347e-13 3.923143819355157103e-13 1.681347389873716347e-13 -8.326672684688674053e-13
8.330000000000000000e+02 7.775365447998046875e+01 -3.778331756591796875e+01 2.369899198759184422e-12 -3.010412448836707888e-12 -1.921539912862896271e-13 1.769417945496343236e-12
8.340000000000000000e+02 1.190282726287841797e+01 -1.260083007812500000e+01 -4.827869007351104358e-12 -4.859894604802850182e-12 -2.906329040278099463e-12 -2.626104412054020010e-12
8.350000000000000000e+02 1.113771152496337891e+01 -1.301053142547607422e+01 -4.043240135059855689e-12 -9.007217714740445302e-12 -3.915137311572003398e-12 -2.598081905863525165e-12
8.360000000000000000e+02 2.674234199523925781e+01 -3.412579727172851562e+01 -7.405934589546636637e-13 -2.001604075898850282e-14 -2.281828697346666157e-13 -8.646929201307218538e-13
8.370000000000000000e+02 2.592421340942382812e+01 -3.405601119995117188e+01 1.597280033932557686e-12 1.164933492552033822e-12 8.286640687873991773e-13 -4.483592858962881511e-13
8.380000000000000000e+02 3.267912864685058594e+00 -1.727728080749511719e+01 -4.227387537247828675e-12 2.946361037092781743e-12 -3.843079825725792542e-13 1.168936692233502050e-12
8.390000000000000000e+02 4.629384613037109375e+01 -2.703517532348632812e+01 2.097680969898041425e-12 6.245004513516505540e-13 8.166544155328858690e-13 3.202566521438160452e-13
8.400000000000000000e+02 1.415742778778076172e+01 -3.225895690917968750e+01 -2.139714620763566444e-12 -3.284632114908259126e-12 -1.627304085753678020e-12 2.209770777819586307e-12
8.410000000000000000e+02 4.431581497192382812e+01 -2.585875892639160156e+01 -7.445967128462405160e-13 8.246608691059309493e-13 2.401924891078620339e-14 -1.633308831065771738e-12
8.420000000000000000e+02 8.396636962890625000e+00 -2.772067832946777344e+01 -4.476086927322764364e-13 -1.812477425089387140e-11 -5.571714964403007286e-12 -5.264218423152444704e-13
8.430000000000000000e+02 6.884040832519531250e+01 -3.874123001098632812e+01 2.477985698579043827e-12 3.006409140735022412e-12 1.645318538530393671e-12 1.072859791458047329e-12
8.440000000000000000e+02 7.055149841308593750e+01 -3.249477386474609375e+01 5.922746234426901069e-12 1.863493300641172468e-12 2.335871947256595860e-12 1.457167719820517959e-12
8.450000000000000000e+02 2.087829399108886719e+01 -3.390523910522460938e+01 9.647731832179706757e-13 -1.164933492552033822e-12 -6.004811719476782494e-14 -1.120898214740720378e-13
8.460000000000000000e+02 1.146854686737060547e+01 -1.372126388549804688e+01 -5.124106434301056723e-12 -8.967186368447066513e-12 -4.227387537247828675e-12 -4.119301254268403767e-12
8.470000000000000000e+02 5.483006286621093750e+01 -3.487438964843750000e+01 2.321860585741131189e-12 2.001603960702369456e-12 1.297039407301137093e-12 -8.646929201307218538e-13
8.480000000000000000e+02 5.555701828002929688e+01 -3.378534698486328125e+01 3.202566467228051827e-12 1.921539750232570398e-12 1.537231930290317017e-12 -2.081668171172168513e-12
8.490000000000000000e+02 7.197692871093750000e+01 -3.163111305236816406e+01 3.346681872601342533e-12 9.767827822623753597e-13 1.297039407301137093e-12 2.866297043463417182e-12
8.500000000000000000e+02 4.760520553588867188e+01 -2.733302879333496094e+01 -1.661331391466375207e-13 -2.095679315847198687e-12 -6.785437554716888808e-13 1.361090710624845990e-12
8.510000000000000000e+02 1.815352821350097656e+01 -3.392393112182617188e+01 7.085678072928092153e-13 -9.087282250470896106e-13 -6.004811719476782494e-14 -3.042437992078345088e-13
8.520000000000000000e+02 1.733699798583984375e+01 -3.284887313842773438e+01 2.662133317607451310e-12 -6.204972516701823260e-13 6.124908523072458699e-13 -1.016814887497274889e-12
8.530000000000000000e+02 1.720384597778320312e+01 -3.364248275756835938e+01 4.343480599060950409e-13 -6.945566084076704172e-13 -7.806255641895631925e-14 -5.924747996897961055e-13
8.540000000000000000e+02 6.990175247192382812e+00 -1.900675010681152344e+01 -2.794239232356554581e-12 -1.506006777618473791e-11 -5.356292232666648445e-12 1.553244729016189929e-12
8.550000000000000000e+02 7.664294719696044922e+00 -1.876609230041503906e+01 -1.891515806831667312e-12 -1.466174924524832335e-11 -4.965979450571866849e-12 -8.646929201307218538e-13
8.560000000000000000e+02 4.875666427612304688e+01 -2.833318519592285156e+01 1.132907895100287998e-12 -7.726191648266267364e-13 1.080866150163402317e-13 -7.526031122091769721e-13
8.570000000000000000e+02 2.498929738998413086e+00 -2.049001312255859375e+01 2.401924891078620339e-14 7.742204446992140277e-12 2.329866985104067645e-12 1.281026608575264181e-12
8.580000000000000000e+02 7.416907310485839844e+00 -1.684362602233886719e+01 -4.219381354725326716e-12 -1.283428485016058218e-11 -5.116099818097685770e-12 6.325068507145870100e-13
8.590000000000000000e+02 1.413282012939453125e+01 -1.309083080291748047e+01 -2.994399650110834976e-12 -3.570861488444432297e-12 -1.969578363250623632e-12 -2.882309842189290094e-12
8.600000000000000000e+02 6.130344390869140625e+01 -3.848948287963867188e+01 2.361892799396247966e-12 1.881507753417888118e-12 1.273020100792110476e-12 1.681347389873716347e-13
8.610000000000000000e+02 1.042221355438232422e+01 -1.562198925018310547e+01 -2.062152532067429433e-12 -1.164383086477149831e-11 -4.111795105787852123e-12 -3.314656275149596709e-12
8.620000000000000000e+02 1.091635417938232422e+01 -3.160392570495605469e+01 -2.401924796210930246e-12 -5.604491263438982074e-12 -2.401924796210930246e-12 2.514014604132475128e-12
8.630000000000000000e+02 6.827606201171875000e+01 -3.461702346801757812e+01 6.567137458834970687e-12 3.367073330221015404e-12 2.980263171664665478e-12 3.462774988624572892e-12
8.640000000000000000e+02 3.259477233886718750e+01 -3.495364761352539062e+01 1.850482874571346414e-12 9.017225984994658994e-13 8.256616419212436941e-13 -1.921539912862896271e-13
8.650000000000000000e+02 5.030255508422851562e+01 -3.088997650146484375e+01 -2.201764378456649851e-12 8.406736678318038614e-13 -4.083272077664429345e-13 -9.767827822623753597e-13
8.660000000000000000e+02 5.543693161010742188e+01 -3.213147735595703125e+01 9.647731832179706757e-13 -1.164933492552033822e-12 -6.004811719476782494e-14 -3.202566521438160452e-13
8.670000000000000000e+02 4.902611160278320312e+01 -2.920965003967285156e+01 -1.933549457697192331e-12 -6.685357562680183108e-13 -7.806255641895631925e-13 6.965582082484045312e-13
8.680000000000000000e+02 1.453183555603027344e+01 -1.215214252471923828e+01 -3.955169525227120175e-12 -1.969578363250623632e-12 -1.777424344859279692e-12 -3.142518363585811159e-12
8.690000000000000000e+02 1.354537105560302734e+01 -3.278081512451171875e+01 -2.040635238911847615e-12 -3.053446818307437027e-12 -1.528224703901959192e-12 1.168936692233502050e-12
8.700000000000000000e+02 1.420680713653564453e+01 -3.366246414184570312e+01 4.883913911311876799e-13 -3.771022123039147189e-12 -9.847891816253118158e-13 1.741395520621011328e-13
8.710000000000000000e+02 1.810692405700683594e+01 -1.135688972473144531e+01 -1.601283260719080226e-14 8.166544155328858690e-13 2.401924687790712998e-13 -2.778226433630681669e-12
8.720000000000000000e+02 7.155599975585937500e+01 -3.337679672241210938e+01 4.939958598432214743e-12 4.243400607024244708e-13 1.609289632976962370e-12 2.281828588926448909e-12
8.730000000000000000e+02 5.729129791259765625e+01 -3.714692306518554688e+01 5.826669442071663596e-12 1.639313684798082704e-12 2.239794938060923890e-12 1.521218996039172544e-13
8.740000000000000000e+02 6.977240562438964844e+00 -2.034703636169433594e+01 -7.077671781985372945e-12 -1.566054924628801359e-11 -6.821466568690537358e-12 -1.865494954692015206e-12
8.750000000000000000e+02 7.697030544281005859e+00 -2.052790641784667969e+01 -8.730996828298920320e-12 -2.037232535445632209e-11 -8.730996828298920320e-12 -2.257809390837639540e-12
8.760000000000000000e+02 6.897493743896484375e+01 -3.546786880493164062e+01 1.132907895100287998e-12 1.789433943903684376e-12 8.767025733852351621e-13 2.173741872266155006e-12
8.770000000000000000e+02 4.122048187255859375e+01 -3.379865646362304688e+01 -2.842277736954390566e-13 -2.361892690976030718e-13 -1.561251128379126385e-13 -1.110890242642104120e-12
8.780000000000000000e+02 1.797875404357910156e+01 -1.209833717346191406e+01 -1.593276834251089458e-12 5.524426944548965768e-13 -3.122502256758252770e-13 3.362694779747432694e-13
8.790000000000000000e+02 1.732923889160156250e+01 -9.888838768005371094e+00 -1.505206224418353944e-12 -9.607699564314481355e-14 -4.803849375581425996e-13 1.601283260719080226e-13
8.800000000000000000e+02 4.207681655883789062e+01 -3.288845443725585938e+01 3.114495857395316314e-12 8.006416303595401129e-15 9.367506770274758310e-13 -2.020619348924723724e-12
8.810000000000000000e+02 1.891683959960937500e+01 -1.153223133087158203e+01 -9.127314789386664629e-13 4.323464600653609269e-13 -1.441154866884536423e-13 -9.767827822623753597e-13
8.820000000000000000e+02 1.811866950988769531e+01 -1.060158157348632812e+01 1.865494954692015206e-12 9.367506770274758310e-13 8.406736678318038614e-13 1.921539912862896271e-13
8.830000000000000000e+02 1.302697944641113281e+01 -1.284577751159667969e+01 -5.116099818097685770e-12 -4.251406952177072540e-12 -2.810252031082427493e-12 -4.011214537608109865e-12
8.840000000000000000e+02 3.886878585815429688e+01 -3.570074462890625000e+01 -3.282630515067525012e-13 -1.192955998742528667e-12 -4.563657394693332314e-13 -5.524426944548965768e-13
8.850000000000000000e+02 4.040685653686523438e+01 -3.567469024658203125e+01 1.170938346284344789e-12 1.701363388281057487e-13 4.023224082442405924e-13 -5.444362950919601207e-13
8.860000000000000000e+02 4.485000991821289062e+01 -2.813669586181640625e+01 3.763015506835776236e-12 2.401924687790712998e-13 1.200962398105465123e-12 1.441154866884536423e-13
8.870000000000000000e+02 6.602533817291259766e+00 -2.190885543823242188e+01 -5.132112616823558682e-12 -1.624501748398454737e-11 -6.413139116978605614e-12 -9.607698751162851991e-13
8.880000000000000000e+02 1.008787345886230469e+01 -2.998015975952148438e+01 -1.220978477827969200e-13 -8.825071749762880557e-12 -2.684151078485852437e-12 4.739798397518368844e-12
8.890000000000000000e+02 4.874731826782226562e+01 -3.086013793945312500e+01 -2.562053217150528361e-13 2.562053217150528361e-13 0.000000000000000000e+00 -8.666945199714559678e-13
8.900000000000000000e+02 3.484126281738281250e+01 -3.568767547607421875e+01 -4.003208151797700565e-14 -1.801443651368306309e-12 -5.524426944548965768e-13 2.081668171172168513e-13
8.910000000000000000e+02 1.063467121124267578e+01 -1.417852973937988281e+01 3.923143819355157103e-13 -8.478794923105770209e-12 -2.425943994299739614e-12 -1.853485247227393273e-12
8.920000000000000000e+02 1.108646583557128906e+01 -3.252126693725585938e+01 1.449161320457581503e-12 -6.012818281470044823e-12 -1.369097109987782446e-12 5.364298957290236647e-13
8.930000000000000000e+02 8.742977142333984375e+00 -3.274186134338378906e+00 -5.404330954104918927e-13 -1.261010501747705792e-12 -5.404330954104918927e-13 5.764619467538145692e-13
8.940000000000000000e+02 7.026317119598388672e+00 -2.538414573669433594e+01 -2.514014604132475128e-12 -1.526022884446032180e-11 -5.332273251418273574e-12 -2.457969808591919936e-12
8.950000000000000000e+02 7.118415832519531250e+00 -2.710289192199707031e+01 -1.489193425692481032e-12 -1.372299669732957028e-11 -4.563657177852897817e-12 -1.048840484949020713e-12
8.960000000000000000e+02 3.248582363128662109e+00 -2.661020469665527344e+01 3.634912900188358442e-12 1.649321738211861899e-12 1.585270326467935753e-12 -5.140119233026929635e-12
8.970000000000000000e+02 6.405529022216796875e+00 -2.521761131286621094e+01 -6.100888891302780337e-12 -1.423540799128097945e-11 -6.100888891302780337e-12 -4.179349141070209939e-12
8.980000000000000000e+02 4.439082717895507812e+01 -3.157405090332031250e+01 1.573260727423531069e-12 1.108888588591261382e-12 8.046448164884811849e-13 -2.634110811416956466e-12
8.990000000000000000e+02 4.510803222656250000e+01 -2.888695907592773438e+01 3.376706032842680116e-12 1.046838939318395223e-12 1.327063459122257427e-12 9.607699564314481355e-14
9.000000000000000000e+02 4.434552764892578125e+01 -2.921474647521972656e+01 1.367095564357156956e-12 -2.261812563414053456e-13 3.422742774969456114e-13 -4.643721388322696875e-13
9.010000000000000000e+02 5.403422546386718750e+01 -3.192522811889648438e+01 4.063256241887414077e-12 9.407538767089440590e-13 1.501203024736885716e-12 -2.001603960702369456e-12
9.020000000000000000e+02 2.893189907073974609e+00 -3.978116607666015625e+01 -1.801443651368306309e-13 -2.982389942646213044e-12 -9.487602760718805150e-13 -8.967185717925763022e-13
9.030000000000000000e+02 5.813201904296875000e+01 -3.860897827148437500e+01 1.713373041535570795e-12 2.289834988289385365e-12 1.200962398105465123e-12 -2.161732300326804634e-13
9.040000000000000000e+02 5.980805969238281250e+01 -4.032119369506835938e+01 5.186754237912483134e-12 2.543151236475416077e-12 2.318971620632326314e-12 -3.766690294902935027e-15
9.050000000000000000e+02 5.496122741699218750e+01 -3.601132202148437500e+01 5.532433452332119472e-12 9.527634757533487431e-13 1.945559165161814263e-12 -5.524426944548965768e-13
9.060000000000000000e+02 1.035599327087402344e+01 -4.249401092529296875e+00 1.961571909677578551e-13 -2.958370744557403675e-12 -8.286640687873991773e-13 1.921539912862896271e-13
9.070000000000000000e+02 1.282641887664794922e+01 -6.946660995483398438e+00 2.001604042017532392e-13 -1.240994503340364652e-12 -3.122502256758252770e-13 1.345077911898973078e-12
9.080000000000000000e+02 1.455521965026855469e+01 -6.643159866333007812e+00 3.592879303532942048e-13 -8.696969468376114509e-13 -1.531227130768114675e-13 8.486801214048489417e-13
9.090000000000000000e+02 1.525658893585205078e+01 -1.053597640991210938e+01 -4.906916453023546509e-12 -1.201259469500726151e-12 -1.832452809283346973e-12 -1.361841303788857704e-12
9.100000000000000000e+02 1.466462707519531250e+01 -7.500901222229003906e+00 4.423544863740858091e-13 -2.383910343434214596e-12 -5.824667462760169112e-13 4.643721388322696875e-13
9.110000000000000000e+02 1.247405719757080078e+01 -5.263051509857177734e+00 -9.247410779830711469e-13 -2.157729073540282094e-12 -9.247410779830711469e-13 1.793437143585152604e-12
9.120000000000000000e+02 9.628986358642578125e+00 -4.619597911834716797e+00 1.557247928697658157e-12 -3.198563159126366351e-12 -4.923945908126559079e-13 1.521219023144226856e-12
9.130000000000000000e+02 1.644791984558105469e+01 -8.168713569641113281e+00 -1.398620802506300720e-13 -2.034380259738344243e-12 -6.522727236807357443e-13 -1.921539912862896271e-13
9.140000000000000000e+02 1.513833618164062500e+01 -8.808172225952148438e+00 -3.751006016211588801e-12 -2.121700303512122354e-13 -1.188952799061060439e-12 -4.963977904941241359e-13
9.150000000000000000e+02 7.009490489959716797e+00 -1.619726371765136719e+01 -5.132112616823558682e-12 -9.839884983209312708e-12 -4.491599366746035216e-12 9.007218256841531545e-14
9.160000000000000000e+02 2.411461114883422852e+00 -2.354175186157226562e+01 2.081668171172168513e-13 7.317864196554335621e-12 2.257809390837639540e-12 6.405133042876320904e-13
9.170000000000000000e+02 1.404552841186523438e+01 -6.271822452545166016e+00 -7.139721539678456352e-12 -1.287031353887357898e-12 -2.528025965647939799e-12 8.967185717925763022e-13
9.180000000000000000e+02 1.417492771148681641e+01 -7.124913692474365234e+00 -1.158928747239940105e-12 -2.704166968472976329e-12 -1.158928747239940105e-12 1.457167719820517959e-12
9.190000000000000000e+02 1.601401519775390625e+01 -7.764391422271728516e+00 -5.127108806957103582e-12 -7.005613842129502361e-15 -1.540234302946363876e-12 -1.697360242809697883e-12
9.200000000000000000e+02 1.515671157836914062e+01 -7.888218402862548828e+00 -1.226983250245117230e-12 -1.154925547558471877e-12 -7.145726068150115573e-13 -1.393116416496809062e-12
9.210000000000000000e+02 1.316995716094970703e+01 -6.428775787353515625e+00 -2.620099666741926292e-12 -4.405530627804576937e-12 -2.107689023311820620e-12 -2.882309733769072846e-13
9.220000000000000000e+02 1.111067295074462891e+01 -5.274323463439941406e+00 1.921539750232570398e-12 -6.405133042876320904e-13 3.843079825725792542e-13 2.193757979093713395e-12
9.230000000000000000e+02 1.725722885131835938e+01 -1.127772903442382812e+01 -2.057648973083359145e-12 -1.385110017133872606e-12 -1.032827686223147801e-12 -1.232988103977428196e-12
9.240000000000000000e+02 1.061748981475830078e+01 -5.030725002288818359e+00 9.187362242507601806e-13 -2.980388288595370305e-12 -6.184956518294482120e-13 1.777424344859279692e-12
9.250000000000000000e+02 5.329695892333984375e+01 -3.180423736572265625e+01 2.922341730583755126e-13 -1.721379386688398627e-13 3.602887167211341057e-14 -2.626104412054020010e-12
9.260000000000000000e+02 5.423487854003906250e+01 -3.300028610229492188e+01 4.715778982589124979e-12 -9.527634757533487431e-13 1.128904695418819770e-12 -8.166544155328858690e-13
9.270000000000000000e+02 7.251816558837890625e+01 -3.253668212890625000e+01 8.686961198121900818e-13 -1.389113216815340834e-12 -1.561251128379126385e-13 2.369899198759184422e-12
9.280000000000000000e+02 1.663181877136230469e+01 -1.052281284332275391e+01 -2.906329040278099463e-12 -1.657328137574798355e-12 -1.369097109987782446e-12 0.000000000000000000e+00
9.290000000000000000e+02 5.171467971801757812e+01 -3.091128158569335938e+01 5.694563202061908580e-13 -3.793039558656896570e-13 5.704571743366665393e-14 -1.297039407301137093e-12
9.300000000000000000e+02 5.397171401977539062e+01 -3.247496414184570312e+01 -2.441956955655938399e-13 2.846280936635858794e-12 7.806255641895631925e-13 -3.586874287170305209e-12
9.310000000000000000e+02 9.221719741821289062e+00 -3.960004568099975586e+00 4.483592858962881511e-13 -2.369899198759184422e-12 -5.764619467538145692e-13 7.205774605473225236e-13
9.320000000000000000e+02 7.218379974365234375e+00 -4.573184013366699219e+00 3.074463860580634034e-12 -5.124106434301056723e-13 7.686159651451585084e-13 9.847891816253118158e-13
9.330000000000000000e+02 4.448593521118164062e+01 -2.663574600219726562e+01 1.465174119183454415e-12 8.566865207677853977e-13 6.965582082484045312e-13 4.723785381952061435e-13
9.340000000000000000e+02 4.603674697875976562e+01 -2.624733161926269531e+01 4.811856208625231446e-12 1.833469357240269382e-12 1.993597561339433000e-12 -4.563657394693332314e-13
9.350000000000000000e+02 7.725136566162109375e+01 -3.528107833862304688e+01 1.929546366435941351e-12 -2.329866985104067645e-12 -1.200962343895356499e-13 1.072859791458047329e-12
9.360000000000000000e+02 7.235550880432128906e+00 -3.907222032546997070e+00 4.683753385137379155e-12 6.805453553124229948e-13 1.609289632976962370e-12 1.425142013948554887e-12
9.370000000000000000e+02 7.648478698730468750e+01 -3.449586486816406250e+01 2.822261738547049426e-12 -1.100882189228324926e-12 5.164138431115739003e-13 1.345077911898973078e-12
9.380000000000000000e+02 8.959230422973632812e+00 -3.023816490173339844e+01 1.257007302066237564e-12 -1.094477113106062660e-11 -2.906329040278099463e-12 1.877504662156637139e-12
9.390000000000000000e+02 7.468267440795898438e+00 -2.904487991333007812e+01 7.009617278980195820e-12 -1.097279298672981795e-11 -1.188952799061060439e-12 -1.505206224418353944e-12
9.400000000000000000e+02 3.673381090164184570e+00 -3.066548347473144531e+01 8.446768675132720894e-13 -1.445158120776113275e-12 -1.801443651368306309e-13 -3.795041104287522060e-12
9.410000000000000000e+02 4.921771049499511719e+00 -2.674547767639160156e+01 -2.549543041963087120e-12 -4.240898431040474037e-12 -2.037132398532981448e-12 -3.682951513206411676e-12
9.420000000000000000e+02 3.559185743331909180e+00 -2.972241973876953125e+01 -8.006416303595401129e-15 -8.726993737037669341e-13 -2.642117210779892922e-13 -6.180953318613013892e-12
9.430000000000000000e+02 2.436072111129760742e+00 -9.178975105285644531e+00 -1.849482155966142294e-12 8.086480161699494129e-13 -3.122502256758252770e-13 1.569257527742062841e-12
9.440000000000000000e+02 3.895825386047363281e+00 -7.717337608337402344e+00 -4.219381354725326716e-12 -1.305045806664073549e-12 -1.657328137574798355e-12 1.649321738211861899e-12
9.450000000000000000e+02 4.624339580535888672e+00 -7.773883819580078125e+00 1.809450050731242765e-12 -4.803849782157240678e-14 5.284234421559785844e-13 1.921539750232570398e-12
9.460000000000000000e+02 2.511887550354003906e+00 -6.769614219665527344e+00 6.164940519887140979e-13 5.844683461167510252e-13 3.602887302736612618e-13 2.177745180367840483e-12
9.470000000000000000e+02 2.459148883819580078e+00 -2.741295814514160156e+01 4.723785381952061435e-13 2.810252031082427493e-12 9.847891816253118158e-13 -5.012016409539077344e-12
9.480000000000000000e+02 3.110925912857055664e+00 -1.235983085632324219e+01 8.807057595141762341e-14 1.913533350869633942e-12 6.004811990527325616e-13 1.537231930290317017e-12
9.490000000000000000e+02 3.128156661987304688e+00 -2.491902351379394531e+01 -6.044843987342007896e-13 2.005607268804054932e-12 4.203368339159019307e-13 -3.747002708109903324e-12
9.500000000000000000e+02 2.448139667510986328e+00 -2.504377365112304688e+01 2.974383543283276587e-12 5.232192717280481631e-12 2.461972899853170915e-12 -2.994399650110834976e-12
9.510000000000000000e+02 3.112992048263549805e+00 -9.999058723449707031e+00 -2.145719582916094659e-12 1.825462957877332926e-12 -9.607699564314481355e-14 2.289834988289385365e-12
9.520000000000000000e+02 2.416511297225952148e+00 -1.156265735626220703e+01 -4.723785381952061435e-13 2.313854186378194733e-12 5.524426944548965768e-13 2.065655372446295601e-12
9.530000000000000000e+02 3.635850667953491211e+00 -2.249092483520507812e+01 -1.204965597786933351e-12 1.084869390502452013e-12 -3.602887167211341057e-14 1.405126015541213746e-12
9.540000000000000000e+02 3.161306619644165039e+00 -1.550224971771240234e+01 -3.722983564231202580e-13 4.255410260278758017e-12 1.164933492552033822e-12 2.514014604132475128e-12
9.550000000000000000e+02 2.490164279937744141e+00 -1.805275344848632812e+01 -4.107291329963347337e-12 8.350691665937048924e-12 1.273020100792110476e-12 1.489193425692481032e-12
9.560000000000000000e+02 7.243952274322509766e+00 -1.798360061645507812e+01 7.025630077706068732e-13 -1.373300518442421847e-11 -3.909132566259909680e-12 -1.168936692233502050e-12
9.570000000000000000e+02 3.250176906585693359e+00 -2.055334091186523438e+01 -2.610091613328147098e-12 2.449963409228983480e-12 -4.803849782157240678e-14 2.161732381641967571e-12
9.580000000000000000e+02 4.338440895080566406e+00 -1.691980934143066406e+01 -2.121700167986850794e-12 -1.961571963887687176e-12 -1.224981704614491740e-12 3.771022123039147189e-12
9.590000000000000000e+02 2.419310331344604492e+00 -1.076853466033935547e+01 -2.778226433630681669e-12 2.057648973083359145e-12 -2.161732300326804634e-13 2.417937594936803158e-12
9.600000000000000000e+02 3.801875591278076172e+00 -1.002591323852539062e+01 4.403528865333516951e-13 -6.805453553124229948e-13 -7.205774334422682115e-14 1.393116416496809062e-12
9.610000000000000000e+02 3.106029987335205078e+00 -1.157723808288574219e+01 -3.202566521438160452e-14 1.633308831065771738e-12 4.803849375581425996e-13 3.570861488444432297e-12
9.620000000000000000e+02 2.405409336090087891e+00 -2.429312515258789062e+01 -1.120898296055883314e-12 5.924747671637309310e-12 1.441154921094645047e-12 -2.594078814602274186e-12
9.630000000000000000e+02 3.586371898651123047e+00 -2.445371055603027344e+01 4.003208084035064784e-13 8.006416303595401129e-14 1.441154866884536423e-13 -4.131310744892591202e-12
9.640000000000000000e+02 3.309847116470336914e+00 -2.569993782043457031e+01 2.385911997485057334e-12 1.297039407301137093e-12 1.104885388909793154e-12 -3.346681872601342533e-12
9.650000000000000000e+02 4.994180679321289062e+00 -2.586197853088378906e+01 -2.950364345194467219e-12 -5.176148138580360936e-12 -2.437953701764361547e-12 -5.204170427930421283e-12
9.660000000000000000e+02 3.169312477111816406e+00 -1.888833236694335938e+01 -4.563657177852897817e-12 4.723785598792495932e-12 4.803849782157240678e-14 2.001603960702369456e-12
9.670000000000000000e+02 6.806023120880126953e+00 -2.112229156494140625e+01 -9.975993989219666958e-12 -1.644517855226013126e-11 -7.926352282860982257e-12 -2.481988952470620680e-13
9.680000000000000000e+02 4.124033927917480469e+00 -3.720011234283447266e+00 4.283432603838926989e-13 -7.085678072928092153e-13 -8.406736949368581735e-14 2.305847787015258277e-12
9.690000000000000000e+02 4.068353652954101562e+00 -2.202153205871582031e+01 -8.346688683096015193e-13 -1.947560602372222505e-12 -8.346688683096015193e-13 6.245004513516505540e-13
9.700000000000000000e+02 3.241088628768920898e+00 -6.849916458129882812e+00 5.604491480279416571e-13 -4.003208084035064784e-13 4.803849782157240678e-14 3.827066701739267884e-12
9.710000000000000000e+02 3.101756334304809570e+00 -1.389414215087890625e+01 -9.847891816253118158e-13 2.826264829808300405e-12 5.524426944548965768e-13 3.426746083071141591e-12
9.720000000000000000e+02 2.873008251190185547e+00 -3.161501693725585938e+01 1.625302431702835282e-12 3.763015561045884860e-13 6.004811990527325616e-13 -2.754207018701437804e-12
9.730000000000000000e+02 4.141881942749023438e+00 -3.289390563964843750e+01 2.345880000670375054e-12 -3.066457244377263081e-12 -2.161732300326804634e-13 -1.825462957877332926e-12
9.740000000000000000e+02 3.119036674499511719e+00 -2.805608940124511719e+01 -3.126505564859938247e-12 1.244997703021832880e-12 -5.644523477094098851e-13 -3.426746083071141591e-12
9.750000000000000000e+02 3.108298063278198242e+00 -1.468065547943115234e+01 -4.507612165471908128e-12 3.146521454847062138e-12 -4.083272077664429345e-13 4.979990812087331520e-12
9.760000000000000000e+02 3.329592466354370117e+00 -2.880751228332519531e+01 -2.602085213965210642e-12 7.606095115721134281e-13 -5.524426944548965768e-13 -4.587676592782141682e-12
9.770000000000000000e+02 3.451701402664184570e+00 -3.335969924926757812e+01 -1.857488555329078750e-12 -2.626104412054020010e-12 -1.345077911898973078e-12 -3.378707470053088358e-12
9.780000000000000000e+02 3.523786067962646484e+00 -3.447774887084960938e+00 -2.642117210779892922e-12 2.401924687790712998e-13 -7.205774605473225236e-13 1.997600869441118476e-12
9.790000000000000000e+02 3.948994159698486328e+00 -6.967847824096679688e+00 -2.149722674177345638e-12 1.080866150163402317e-13 -6.124908523072458699e-13 2.449963409228983480e-12
9.800000000000000000e+02 7.408511352539062500e+01 -3.241743087768554688e+01 -2.506008204769538672e-12 -1.577263927104999297e-12 -1.224981704614491740e-12 3.322662674512533165e-12
9.810000000000000000e+02 6.462582588195800781e+00 -4.645761013031005859e+00 -9.767827822623753597e-13 -1.425142013948554887e-12 -7.205774605473225236e-13 3.314656275149596709e-12
9.820000000000000000e+02 7.476132965087890625e+01 -3.217191314697265625e+01 -1.921539912862896271e-13 -4.483592858962881511e-13 -1.921539912862896271e-13 2.626104412054020010e-12
9.830000000000000000e+02 7.557831573486328125e+01 -3.462622451782226562e+01 -3.522823038056704936e-13 -2.530027402858348040e-12 -8.646929201307218538e-13 1.825462957877332926e-12
9.840000000000000000e+02 9.454071998596191406e+00 -5.104313850402832031e+00 5.124106434301056723e-13 -5.124106434301056723e-13 0.000000000000000000e+00 -4.963977904941241359e-13
9.850000000000000000e+02 3.460726022720336914e+00 -3.530862808227539062e+01 2.001603960702369456e-12 -2.161732381641967571e-12 -4.803849782157240678e-14 -1.321058605389946461e-12
9.860000000000000000e+02 3.538264989852905273e+00 -3.269328689575195312e+01 -9.527634757533487431e-13 -1.369097109987782446e-12 -6.965582082484045312e-13 -1.176943200016655755e-12
9.870000000000000000e+02 7.946986675262451172e+00 -3.887412548065185547e+00 -1.008808379714121184e-12 -2.353886400033311510e-12 -1.008808379714121184e-12 2.882309733769072846e-13
9.880000000000000000e+02 7.655819702148437500e+01 -3.363782501220703125e+01 7.646127112535816561e-13 -2.485992097941980283e-12 -5.164138431115739003e-13 1.961571963887687176e-12
9.890000000000000000e+02 8.423067092895507812e+00 -2.957267570495605469e+01 3.642919299551294898e-12 -1.285029808256732409e-11 -2.762213634904808757e-12 3.002405995263662808e-13
9.900000000000000000e+02 7.690664768218994141e+00 -2.985422325134277344e+01 1.529225422507163312e-12 -1.009609063018501729e-11 -2.570059616513464817e-12 -1.729385840261443708e-12
9.910000000000000000e+02 5.033601379394531250e+01 -2.970030021667480469e+01 -1.760410719107985411e-12 -6.915541815415149340e-13 -7.355894864578826908e-13 -2.882309733769072846e-13
9.920000000000000000e+02 5.098234176635742188e+01 -3.266934204101562500e+01 1.853485247227393273e-12 9.087282250470896106e-13 8.286640687873991773e-13 -2.113693768623914337e-12
9.930000000000000000e+02 7.520333099365234375e+01 -3.261406326293945312e+01 2.866297043463417182e-12 -1.441154866884536423e-13 8.166544155328858690e-13 2.882309842189290094e-12
9.940000000000000000e+02 4.577104187011718750e+01 -2.861054611206054688e+01 3.971182323952993087e-12 -1.281026608575264181e-13 1.152923893507629138e-12 -4.243400607024244708e-13
9.950000000000000000e+02 2.188720703125000000e+01 -3.379785156250000000e+01 -1.901523860245446507e-12 -1.020818087178743117e-12 -8.767025733852351621e-13 -7.365902592731954357e-13
9.960000000000000000e+02 2.425954818725585938e+01 -3.423548889160156250e+01 -9.287442776645393749e-13 1.249000902703301108e-12 9.607699564314481355e-14 -6.725389559494865388e-13
9.970000000000000000e+02 8.974008560180664062e+00 -1.648708343505859375e+01 -5.020023025742448297e-12 -1.331466967929850753e-11 -5.500407854880373648e-12 -4.836876125319244935e-12
9.980000000000000000e+02 7.591304779052734375e+01 -3.193157768249511719e+01 -1.064853283674893625e-12 -7.766223645080949645e-13 -5.524426944548965768e-13 1.633308831065771738e-12
9.990000000000000000e+02 2.666407966613769531e+01 -3.491616058349609375e+01 1.681347335663607723e-12 -1.200962398105465123e-12 1.441154866884536423e-13 -1.377103509350718902e-12
1.000000000000000000e+03 5.459170913696289062e+01 -3.349686050415039062e+01 3.268619316182386214e-12 7.946368172848106148e-13 1.218976850882180774e-12 -1.521219023144226856e-12
1.001000000000000000e+03 7.577650451660156250e+01 -3.763521575927734375e+01 6.885517546753594509e-13 -1.809450050731242765e-12 -3.362694779747432694e-13 1.449161320457581503e-12
1.002000000000000000e+03 7.605200958251953125e+01 -3.664989852905273438e+01 -9.207378783016029189e-13 -3.002406049473771432e-12 -1.176943200016655755e-12 1.232988103977428196e-12
1.003000000000000000e+03 1.009473419189453125e+01 -1.258350849151611328e+01 2.658130226346200331e-12 -7.461979818768060824e-12 -1.441154921094645047e-12 -6.164940519887140979e-13
1.004000000000000000e+03 5.015140914916992188e+01 -3.275688171386718750e+01 2.662133317607451310e-12 -6.204972516701823260e-13 6.124908523072458699e-13 -2.273822189563512453e-12
1.005000000000000000e+03 5.106830596923828125e+01 -3.150623893737792969e+01 1.067855764751157732e-12 7.836279910557186756e-13 5.554451213210520599e-13 -2.417937594936803158e-12
1.006000000000000000e+03 9.473018646240234375e+00 -1.596027183532714844e+01 -1.921539750232570398e-12 -1.216975218515381485e-11 -4.227387537247828675e-12 -2.469979299216107371e-12
1.007000000000000000e+03 8.558117866516113281e+00 -1.584320259094238281e+01 -3.538835890992686473e-12 -1.295438149112593251e-11 -4.947965214635585696e-12 -2.441956955655938399e-13
1.008000000000000000e+03 4.805904006958007812e+01 -2.836494445800781250e+01 7.526031122091769721e-13 4.803849782157240678e-14 2.401924687790712998e-13 -4.243400607024244708e-13
1.009000000000000000e+03 1.379010391235351562e+01 -1.247578525543212891e+01 -8.086480161699494129e-13 -2.313854186378194733e-12 -9.367506770274758310e-13 -2.461972899853170915e-12
1.010000000000000000e+03 1.266047668457031250e+01 -1.214920043945312500e+01 -1.152923893507629138e-12 -3.971182323952993087e-12 -1.537231930290317017e-12 -2.654126918244514854e-12
1.011000000000000000e+03 3.178246736526489258e+00 -1.810209274291992188e+01 -6.004811990527325616e-13 3.722983293180659459e-12 9.367506770274758310e-13 1.393116416496809062e-12
1.012000000000000000e+03 4.802903747558593750e+01 -2.922420120239257812e+01 5.124106434301056723e-13 2.049642573720422689e-12 7.686159651451585084e-13 -9.447570763904122870e-13
1.013000000000000000e+03 4.951811981201171875e+01 -3.015315437316894531e+01 -2.461972954063279539e-13 -5.744603469130804552e-13 -2.461972954063279539e-13 -2.113693768623914337e-12
1.014000000000000000e+03 6.457169055938720703e+00 -2.678689765930175781e+01 -2.021620040424873532e-13 -1.242795970302079667e-11 -3.789036358975428342e-12 -2.562053217150528361e-12
1.015000000000000000e+03 1.579326057434082031e+01 -3.368830108642578125e+01 -1.274271161678941500e-12 -2.376154177932687794e-12 -1.095127569357423614e-12 -3.146584013312414552e-13
1.016000000000000000e+03 1.674024200439453125e+01 -3.453723526000976562e+01 -8.266624689466650633e-13 -1.074861337088672819e-12 -5.704571472316122271e-13 8.166544155328858690e-13
1.017000000000000000e+03 6.348651409149169922e+00 -2.396090888977050781e+01 -1.240994503340364652e-12 -1.485190095906752106e-11 -4.827869007351104358e-12 -1.953565564524750719e-12
1.018000000000000000e+03 4.189064025878906250e+00 -2.300628089904785156e+01 -1.971580017301466370e-12 -2.892317895603069289e-12 -1.459169373871360698e-12 -1.857488555329078750e-12
1.019000000000000000e+03 4.644638824462890625e+01 -2.785587120056152344e+01 1.433148521731708591e-12 -7.205774334422682115e-14 4.083272077664429345e-13 6.245004513516505540e-13
1.020000000000000000e+03 4.728030776977539062e+01 -2.805266189575195312e+01 -3.050444445651390168e-12 5.684555473908781131e-13 -7.445967128462405160e-13 -7.165742608658542956e-13
1.021000000000000000e+03 6.613421440124511719e+00 -1.835896301269531250e+01 -5.562457612573457055e-12 -1.127103185089017856e-11 -5.050046752302916886e-12 2.241796429481440756e-13
1.022000000000000000e+03 6.991238403320312500e+01 -3.484668731689453125e+01 5.012016409539077344e-12 1.232988103977428196e-12 1.873501354054951662e-12 1.995599215390275738e-12
1.023000000000000000e+03 7.243895721435546875e+01 -3.349410247802734375e+01 1.809450050731242765e-12 -4.803849782157240678e-14 5.284234421559785844e-13 2.826264829808300405e-12
1.024000000000000000e+03 1.518042945861816406e+01 -1.182829475402832031e+01 0.000000000000000000e+00 -2.562053217150528361e-12 -7.686159651451585084e-13 -2.319859148530722948e-12
1.025000000000000000e+03 1.207995033264160156e+01 -3.260489273071289062e+01 -1.449161320457581503e-12 -4.235394153451199628e-12 -1.705366642172634339e-12 2.457969808591919936e-12
1.026000000000000000e+03 1.038662719726562500e+01 -3.103158760070800781e+01 1.729385840261443708e-12 -7.494005416219806648e-12 -1.729385840261443708e-12 3.470781387987509348e-12
1.027000000000000000e+03 1.649281883239746094e+01 -1.112137699127197266e+01 -2.329866985104067645e-12 -3.122502256758252770e-13 -7.926351632339678766e-13 -2.658130226346200331e-12
1.028000000000000000e+03 1.654481124877929688e+01 -9.385458946228027344e+00 -5.700568055794219546e-12 -1.345077911898973078e-12 -2.113693768623914337e-12 3.042437992078345088e-13
1.029000000000000000e+03 1.794447708129882812e+01 -3.511206054687500000e+01 1.881507780522942430e-13 -1.269016901110642248e-12 -3.242598518252842732e-13 4.243400607024244708e-13
1.030000000000000000e+03 5.479792404174804688e+01 -3.406359100341796875e+01 4.323464763283935142e-12 -1.601283260719080226e-13 1.249000902703301108e-12 -2.514014604132475128e-12
1.031000000000000000e+03 7.111551284790039062e+00 -1.963840484619140625e+01 -6.317062324623368141e-12 -1.473981180166727967e-11 -6.317062324623368141e-12 -1.441154921094645047e-12
1.032000000000000000e+03 1.281382560729980469e+01 -3.324177169799804688e+01 -3.983192085627723644e-13 -4.345482307321901772e-12 -1.423140468317929397e-12 6.885517546753594509e-13
1.033000000000000000e+03 1.501261806488037109e+01 -3.463446044921875000e+01 3.268869550043795869e-13 -1.799316880386758744e-12 -4.417289830357246094e-13 1.140914294463224454e-12
1.034000000000000000e+03 7.802531719207763672e+00 -2.804695129394531250e+01 2.966377143920340131e-12 -1.357487820069502860e-11 -3.182550360400493439e-12 -5.076067604442568992e-12
1.035000000000000000e+03 1.606740760803222656e+01 -3.565024948120117188e+01 -1.921539912862896271e-13 -3.170540652935871506e-12 -1.008808379714121184e-12 1.031826859197726431e-12
1.036000000000000000e+03 1.335495662689208984e+01 -3.429311370849609375e+01 -4.383512866926175811e-13 -3.584872849959896968e-12 -1.206967251837776089e-12 1.024821286860211345e-12
1.037000000000000000e+03 1.204400348663330078e+01 -3.358197402954101562e+01 1.224981704614491740e-12 -4.827869007351104358e-12 -1.080866190820983785e-12 -5.764619467538145692e-13
1.038000000000000000e+03 9.753126144409179688e+00 -1.447289943695068359e+01 -1.349081111580441306e-12 -9.979997731002221428e-12 -3.398723576880646746e-12 -6.645325565865500828e-13
1.039000000000000000e+03 7.045541381835937500e+01 -3.775683212280273438e+01 1.777424344859279692e-12 2.065655372446295601e-12 1.152923893507629138e-12 1.296539047998535032e-12
1.040000000000000000e+03 7.136058044433593750e+01 -3.454959487915039062e+01 5.916741489114807351e-12 1.849482155966142294e-12 2.329866985104067645e-12 2.990396342009149500e-12
1.041000000000000000e+03 7.049797058105468750e+01 -3.414682006835937500e+01 4.983994120189016996e-12 1.381106817452404378e-12 1.909530259608382963e-12 2.369899198759184422e-12
1.042000000000000000e+03 1.491224384307861328e+01 -1.132546138763427734e+01 -4.187355757273580892e-12 -2.938354637729845287e-12 -2.137713183553158203e-12 -1.184949599379592211e-12
1.043000000000000000e+03 1.345395565032958984e+01 -1.179520416259765625e+01 -3.650925915754665851e-12 -3.394720485619395767e-12 -2.113693768623914337e-12 -3.634912900188358442e-12
1.044000000000000000e+03 4.300592041015625000e+01 -3.346646118164062500e+01 1.397119616178277290e-12 -1.561251128379126385e-13 3.722983564231202580e-13 -2.562053217150528361e-13
1.045000000000000000e+03 1.733897781372070312e+01 -1.058667945861816406e+01 -3.082470259943570490e-12 -3.602887302736612618e-13 -1.032827686223147801e-12 -2.177745180367840483e-12
1.046000000000000000e+03 2.330751037597656250e+01 -3.450492477416992188e+01 -6.285036510331187820e-13 -6.124908523072458699e-13 -3.722983564231202580e-13 -3.442758773376797254e-13
1.047000000000000000e+03 3.182312250137329102e+00 -2.138535499572753906e+01 1.601283260719080226e-13 4.643721171482262378e-12 1.441154921094645047e-12 2.481988952470620680e-13
1.048000000000000000e+03 3.315059280395507812e+01 -3.667984008789062500e+01 1.597280033932557686e-12 -7.566063118906452001e-13 2.522020949285302960e-13 -1.106887042960635892e-12
1.049000000000000000e+03 7.988978862762451172e+00 -1.634959983825683594e+01 -1.513212623781290400e-12 -1.121698914308133510e-11 -3.819060519216765925e-12 -1.082867736451609275e-12
1.050000000000000000e+03 3.597057723999023438e+01 -3.543141555786132812e+01 1.681347389873716347e-13 -1.529225422507163312e-12 -4.083272077664429345e-13 -1.401122815859745518e-12
1.051000000000000000e+03 3.495915603637695312e+01 -3.710817337036132812e+01 2.522020949285302960e-13 -6.925550085669363032e-13 -1.321058605389946461e-13 -1.705366642172634339e-12
1.052000000000000000e+03 1.122609233856201172e+01 -3.495312881469726562e+01 1.152923893507629138e-12 -4.996003610813204432e-12 -1.152923893507629138e-12 -3.362694779747432694e-13
1.053000000000000000e+03 1.009572410583496094e+01 -3.253348922729492188e+01 -2.201764432666758475e-13 -7.345886919585264963e-12 -2.269818881461826976e-12 1.961571963887687176e-12
1.054000000000000000e+03 1.034955120086669922e+01 -1.335598659515380859e+01 1.761411519028352468e-13 -8.983198733492070431e-12 -2.642117210779892922e-12 -2.193757979093713395e-12
1.055000000000000000e+03 5.457872390747070312e+00 -2.513921165466308594e+01 -2.990396342009149500e-12 -6.977591681528449996e-12 -2.990396342009149500e-12 -4.835875189873606317e-12
1.056000000000000000e+03 6.825688934326171875e+01 -3.723691558837890625e+01 3.570861488444432297e-12 2.353886400033311510e-12 1.777424344859279692e-12 1.289033007938200637e-12
1.057000000000000000e+03 6.718047142028808594e+00 -2.777680969238281250e+01 -3.512815038853034366e-13 -1.106786971100115480e-11 -3.425745364465937470e-12 -3.891118330323628527e-12
1.058000000000000000e+03 6.654601287841796875e+01 -3.743114089965820312e+01 5.050046752302916886e-12 2.816256776394521211e-12 2.359891145345405228e-12 1.421138814267086659e-12
1.059000000000000000e+03 4.541018295288085938e+01 -3.115416717529296875e+01 1.577263927104999297e-12 2.642117210779892922e-13 5.524426944548965768e-13 -6.605293026949732305e-13
1.060000000000000000e+03 2.967656707763671875e+01 -3.499139785766601562e+01 7.005614079298727592e-13 7.806255641895631925e-13 4.443560862148199231e-13 -1.921539912862896271e-13
1.061000000000000000e+03 4.479015731811523438e+01 -3.011571502685546875e+01 2.543037828928174093e-12 8.096488431953707821e-13 1.005806007058074325e-12 -5.444362950919601207e-13
1.062000000000000000e+03 2.819334030151367188e+01 -3.577480316162109375e+01 2.802245740139708285e-13 -2.001604042017532392e-13 2.401924891078620339e-14 -4.743801380359402575e-13
1.063000000000000000e+03 4.569472789764404297e+00 -3.667324447631835938e+01 1.076862991139515557e-12 -3.999204613303053435e-12 -8.767025733852351621e-13 -1.265013701429174020e-12
1.064000000000000000e+03 6.296142196655273438e+01 -4.137252044677734375e+01 2.305847787015258277e-12 2.818258430445363949e-12 1.537231930290317017e-12 -7.746207646673608505e-13
1.065000000000000000e+03 2.510755538940429688e+01 -3.408457183837890625e+01 -6.445165039691003184e-13 2.041636038832214672e-13 -1.321058605389946461e-13 -6.805453553124229948e-13
1.066000000000000000e+03 2.735567283630371094e+01 -3.515832901000976562e+01 1.897520552143761030e-12 5.844683461167510252e-13 7.445967128462405160e-13 -8.166544155328858690e-13
1.067000000000000000e+03 3.431306123733520508e+00 -4.069247436523437500e+01 6.605293026949732305e-13 -2.942357945831530763e-12 -6.845485549938912229e-13 6.004811719476782494e-14
1.068000000000000000e+03 3.195766067504882812e+01 -3.581778717041015625e+01 -9.527634757533487431e-13 -2.329866985104067645e-12 -9.847891816253118158e-13 2.952365863720038397e-14
1.069000000000000000e+03 2.006158828735351562e+01 -3.350208282470703125e+01 -1.290971995103473713e-12 -1.304232655034709421e-12 -7.785614058834766649e-13 -1.188952799061060439e-12
1.070000000000000000e+03 1.935711479187011719e+01 -3.531241989135742188e+01 1.004805180032652956e-12 -6.445165039691003184e-13 1.080866150163402317e-13 1.024821286860211345e-12
1.071000000000000000e+03 5.521278381347656250e+01 -3.754029846191406250e+01 2.269818881461826976e-12 1.453164520139049731e-12 1.116894987954197838e-12 -1.801443651368306309e-13
1.072000000000000000e+03 1.202127170562744141e+01 -9.393931388854980469e+00 9.747811282115326215e-13 -4.797844847109766775e-12 -1.146919148195535421e-12 -2.446960819732502124e-12
1.073000000000000000e+03 1.428457927703857422e+01 -7.965221881866455078e+00 -8.316664414434460362e-13 -1.940555138454924666e-12 -8.316664414434460362e-13 -6.565261030135050024e-13
1.074000000000000000e+03 1.565451526641845703e+01 -8.171585083007812500e+00 -2.325863893842816665e-12 -3.718980418759842976e-12 -1.813453250412710993e-12 -4.803849782157240678e-14
1.075000000000000000e+03 1.604682159423828125e+01 -8.455615997314453125e+00 -6.705373235826872502e-12 -1.981588070715245564e-12 -2.606088522066896118e-12 3.843079825725792542e-13
1.076000000000000000e+03 1.600519371032714844e+01 -1.040170097351074219e+01 -1.489193425692481032e-12 -9.127314789386664629e-13 -7.205774605473225236e-13 -1.249000902703301108e-12
1.077000000000000000e+03 1.265902900695800781e+01 -6.106232643127441406e+00 1.701363442491166111e-12 -2.862293735361731706e-12 -3.482791041242022656e-13 1.232988103977428196e-12
1.078000000000000000e+03 1.215449142456054688e+01 -7.983547687530517578e+00 -1.817456450094179221e-12 -4.667740586411506243e-12 -1.945559165161814263e-12 1.745398747407533868e-12
1.079000000000000000e+03 1.232726764678955078e+01 -6.631280422210693359e+00 -2.165735472903218550e-12 -1.637312030747239966e-12 -1.140914294463224454e-12 -1.489193425692481032e-12
1.080000000000000000e+03 9.101922035217285156e+00 -4.514361858367919922e+00 2.441956793025612527e-12 -2.842277628534173317e-12 -1.200962343895356499e-13 -1.200962398105465123e-12
1.081000000000000000e+03 1.161920452117919922e+01 -5.528616905212402344e+00 1.341074739322559162e-13 -1.395117962127434552e-12 -3.783031559453226000e-13 1.040834085586084257e-12
1.082000000000000000e+03 7.416305541992187500e+01 -3.325558471679687500e+01 3.682951296365977178e-13 -8.486801214048489417e-13 -1.441154866884536423e-13 3.274624061494479932e-12
1.083000000000000000e+03 7.331909942626953125e+01 -3.341593170166015625e+01 1.965575055148938155e-12 3.162534253572935050e-13 6.845485549938912229e-13 2.321860585741131189e-12
1.084000000000000000e+03 1.473346996307373047e+01 -8.397983551025390625e+00 -4.743801380359402575e-13 -1.106887042960635892e-12 -4.743801380359402575e-13 -9.287442776645393749e-13
1.085000000000000000e+03 1.332412624359130859e+01 -7.272703647613525391e+00 -7.467984564080154541e-12 -3.761014069625367995e-12 -3.368699633479743660e-12 -3.682951296365977178e-13
1.086000000000000000e+03 4.418398380279541016e+00 -2.624216461181640625e+01 -4.083272077664429345e-13 -9.527634757533487431e-13 -4.083272077664429345e-13 -3.730989909384030412e-12
1.087000000000000000e+03 1.129870128631591797e+01 -6.095063686370849609e+00 -3.402726776562114974e-13 -2.502005113508287693e-12 -8.526833210863171697e-13 1.537231930290317017e-12
1.088000000000000000e+03 7.638122558593750000e+01 -3.588435745239257812e+01 3.050444445651390168e-12 -3.130508656121189226e-12 -2.401924891078620339e-14 2.329866985104067645e-12
1.089000000000000000e+03 7.518743133544921875e+01 -3.620952606201171875e+01 2.978386851384962064e-12 -7.365902592731954357e-13 6.725389559494865388e-13 2.049642573720422689e-12
1.090000000000000000e+03 5.177195739746093750e+01 -3.217888259887695312e+01 1.048840484949020713e-12 -6.485197036505685464e-13 1.200962343895356499e-13 -1.522219850169648225e-12
1.091000000000000000e+03 5.410798645019531250e+01 -3.393841552734375000e+01 3.234592064679797652e-12 -9.927955809882482718e-13 6.725389559494865388e-13 -6.565261030135050024e-13
1.092000000000000000e+03 4.562860870361328125e+01 -2.793100166320800781e+01 1.713373041535570795e-12 -2.722181475459800604e-13 4.323464600653609269e-13 2.161732300326804634e-13
1.093000000000000000e+03 3.977708816528320312e+00 -2.863020324707031250e+01 3.763015561045884860e-13 2.401924891078620339e-14 1.200962343895356499e-13 -5.716580854520092458e-12
1.094000000000000000e+03 4.403983116149902344e+00 -3.155204963684082031e+01 -4.723785381952061435e-13 -2.810252031082427493e-12 -9.847891816253118158e-13 -3.074463860580634034e-12
1.095000000000000000e+03 6.150874137878417969e+00 -3.188391494750976562e+01 3.506810293540940648e-12 -4.947965214635585696e-12 -4.323464600653609269e-13 -1.704365815147212970e-12
1.096000000000000000e+03 3.572170495986938477e+00 -2.761967849731445312e+01 -2.193757979093713395e-12 4.323464600653609269e-13 -5.284234421559785844e-13 -4.863897912904535659e-12
1.097000000000000000e+03 3.685842990875244141e+00 -3.156326103210449219e+01 -7.686159651451585084e-13 -1.793437143585152604e-12 -7.686159651451585084e-13 -4.419541555639172614e-12
1.098000000000000000e+03 4.326407432556152344e+00 -2.941672515869140625e+01 1.601283233614025914e-12 -2.241796592111766628e-12 -1.921539912862896271e-13 -6.425149041283662044e-12
1.099000000000000000e+03 3.152703523635864258e+00 -8.427672386169433594e+00 -3.074463860580634034e-12 5.124106434301056723e-13 -7.686159651451585084e-13 2.786232832993618125e-12
1.100000000000000000e+03 6.449556350708007812e+00 -7.082531452178955078e+00 -6.695365290833310556e-13 -1.562251955404547754e-12 -6.695365290833310556e-13 4.195361939796082851e-12
1.101000000000000000e+03 3.129266977310180664e+00 -9.213635444641113281e+00 -4.803849782157240678e-14 -1.120898214740720378e-13 -4.803849782157240678e-14 4.963977904941241359e-13
1.102000000000000000e+03 3.856933593750000000e+00 -8.482238769531250000e+00 1.601283260719080226e-13 -4.803849375581425996e-13 -9.607699564314481355e-14 1.905526951506697486e-12
1.103000000000000000e+03 4.595469474792480469e+00 -1.236103916168212891e+01 1.204965597786933351e-12 -6.044843987342007896e-13 1.801443651368306309e-13 3.795041104287522060e-12
1.104000000000000000e+03 3.791272640228271484e+00 -1.080335712432861328e+01 -2.305847787015258277e-12 -2.562053217150528361e-13 -7.686159651451585084e-13 1.505206224418353944e-12
1.105000000000000000e+03 4.697423934936523438e+00 -4.672592163085937500e+00 2.273822189563512453e-12 -6.725389559494865388e-13 4.803849375581425996e-13 2.722181421249691979e-12
1.106000000000000000e+03 5.258894443511962891e+00 -2.461499977111816406e+01 2.810252031082427493e-12 -8.815064130029970357e-12 -1.801443651368306309e-12 -5.284234421559785844e-12
1.107000000000000000e+03 6.427115440368652344e+00 -1.088560771942138672e+01 -4.963977904941241359e-13 -2.866297043463417182e-12 -1.008808379714121184e-12 2.770220034267745213e-12
1.108000000000000000e+03 3.105252742767333984e+00 -1.078719520568847656e+01 2.834271229171236861e-12 1.489193425692481032e-12 1.297039407301137093e-12 1.505206224418353944e-12
1.109000000000000000e+03 4.619762420654296875e+00 -2.245015907287597656e+01 -6.164940519887140979e-13 -3.146521454847062138e-12 -1.128904695418819770e-12 -6.565261030135050024e-13
1.110000000000000000e+03 3.082786798477172852e+00 -2.212669944763183594e+01 2.161732300326804634e-13 3.066457244377263081e-12 9.847891816253118158e-13 2.802245631719491037e-12
1.111000000000000000e+03 5.493506908416748047e+00 -1.990487670898437500e+01 -8.807057595141762341e-14 -7.037639568330256168e-12 -2.137713183553158203e-12 8.006416303595401129e-14
1.112000000000000000e+03 3.134315967559814453e+00 -2.353304290771484375e+01 5.684555473908781131e-13 3.034431646925517256e-12 1.080866190820983785e-12 8.646929201307218538e-13
1.113000000000000000e+03 3.038128376007080078e+00 -2.426867866516113281e+01 8.686961198121900818e-13 3.734993217485715888e-12 1.381106817452404378e-12 -3.506810293540940648e-12
1.114000000000000000e+03 4.112490653991699219e+00 -2.552217864990234375e+01 1.921539750232570398e-12 -3.202566467228051827e-12 -3.843079825725792542e-13 -4.315458147080564189e-12
1.115000000000000000e+03 4.411273956298828125e+00 -5.460866451263427734e+00 1.277023408893795953e-12 -4.363496868518834670e-13 2.522020949285302960e-13 1.761411519028352468e-13
1.116000000000000000e+03 3.090789794921875000e+00 -2.279776382446289062e+01 -1.112891788272729610e-12 4.235394153451199628e-12 9.367506770274758310e-13 -2.850284027897109773e-12
1.117000000000000000e+03 3.249981641769409180e+00 -1.970955467224121094e+01 7.085678072928092153e-13 4.215378046623641239e-12 1.477183718227859099e-12 8.967185717925763022e-13
1.118000000000000000e+03 3.808380126953125000e+00 -1.540350627899169922e+01 -2.850284027897109773e-12 1.889514152780824574e-12 -2.882309733769072846e-13 2.962373835818654655e-12
1.119000000000000000e+03 6.831263065338134766e+00 -1.727871322631835938e+01 -4.977989374876923279e-12 -1.161530767401774966e-11 -4.977989374876923279e-12 1.601283233614025914e-12
1.120000000000000000e+03 3.988001585006713867e+00 -1.621415710449218750e+01 -3.811053903013394972e-12 2.209770777819586307e-12 -4.803849375581425996e-13 2.978386851384962064e-12
1.121000000000000000e+03 6.089557170867919922e+00 -1.601077842712402344e+01 -3.885113585011534809e-12 -9.065264164331843233e-12 -3.885113585011534809e-12 2.321860585741131189e-12
1.122000000000000000e+03 3.998598575592041016e+00 -1.749464607238769531e+01 -1.393116416496809062e-12 -6.885517546753594509e-13 -6.245004513516505540e-13 1.977584762613560088e-12
1.123000000000000000e+03 6.233046054840087891e+00 -2.007414817810058594e+01 -8.022429075216219729e-12 -1.103284130721249312e-11 -5.716580854520092458e-12 -7.766223645080949645e-13
1.124000000000000000e+03 4.397936344146728516e+00 -2.158539390563964844e+01 -1.833469357240269382e-12 -1.289033007938200637e-12 -9.367506770274758310e-13 1.232988103977428196e-12
1.125000000000000000e+03 3.803680181503295898e+00 -1.158756732940673828e+01 -1.136911094781756226e-12 -9.447570763904122870e-13 -6.245004513516505540e-13 3.314656275149596709e-12
1.126000000000000000e+03 5.551712512969970703e+00 -3.059256744384765625e+01 2.053645664981673669e-12 -5.456372333123571394e-12 -1.020818087178743117e-12 -3.378707470053088358e-12
1.127000000000000000e+03 3.070962429046630859e+00 -2.739620399475097656e+01 -4.391519266289112267e-12 1.709369841854102567e-12 -8.046448164884811849e-13 -4.323464763283935142e-12
1.128000000000000000e+03 5.710019588470458984e+00 -2.861909103393554688e+01 2.514014604132475128e-12 -7.798249025692260972e-12 -1.585270326467935753e-12 -6.052850495125161601e-12
1.129000000000000000e+03 3.926924943923950195e+00 -3.227870941162109375e+01 -3.604888739947020859e-12 -1.579265581155842035e-12 -1.555246274646815419e-12 -9.127314789386664629e-13
1.130000000000000000e+03 3.748691797256469727e+00 -1.464049530029296875e+01 -1.168936692233502050e-12 6.885517546753594509e-13 -1.441154866884536423e-13 5.332273251418273574e-12
1.131000000000000000e+03 3.791548013687133789e+00 -1.388831329345703125e+01 -3.927147235877059828e-12 1.084869390502452013e-12 -8.526833210863171697e-13 2.353886400033311510e-12
1.132000000000000000e+03 4.224612712860107422e+00 -3.477053833007812500e+01 2.090675289140309090e-12 -3.661934470933214669e-12 -4.713777653798933986e-13 -3.282630515067525012e-13
1.133000000000000000e+03 4.876890182495117188e+00 -3.293843460083007812e+01 2.213774085921271784e-12 -3.374704378791837378e-12 -3.482791041242022656e-13 -2.978386851384962064e-12
1.134000000000000000e+03 3.797492027282714844e+00 -4.405733108520507812e+00 -4.923945908126559079e-13 -1.148920693826160910e-12 -4.923945908126559079e-13 1.697360242809697883e-12
1.135000000000000000e+03 5.612158298492431641e+00 -4.734963417053222656e+00 1.325061805071414689e-12 -3.242598518252842732e-13 3.002405995263662808e-13 0.000000000000000000e+00
1.136000000000000000e+03 5.546463489532470703e+00 -6.402713775634765625e+00 -1.577263927104999297e-12 -9.047250253656213825e-13 -7.445967128462405160e-13 1.791435597954527115e-12
1.137000000000000000e+03 3.549751043319702148e+00 -3.619112396240234375e+01 1.761411546133406780e-12 -2.722181421249691979e-12 -2.882309733769072846e-13 -5.284234421559785844e-13
1.138000000000000000e+03 4.820033550262451172e+00 -3.390044021606445312e+01 1.401122815859745518e-12 -3.562855089081495841e-12 -6.485197036505685464e-13 -1.136911094781756226e-12
1.139000000000000000e+03 6.558410644531250000e+00 -5.343457221984863281e+00 5.484394947734283488e-13 -4.283432603838926989e-13 3.602887167211341057e-14 -2.241796429481440756e-13
1.140000000000000000e+03 4.549416542053222656e+00 -3.216401672363281250e+01 -1.056846884311957169e-12 -2.465976207954856392e-12 -1.056846884311957169e-12 -2.049642573720422689e-12
1.141000000000000000e+03 3.622708797454833984e+00 -3.401352691650390625e+01 -2.141716301919463494e-13 -2.207769123768743569e-12 -7.265822600695248656e-13 2.882309733769072846e-13
1.142000000000000000e+03 9.036616325378417969e+00 -5.022249698638916016e+00 3.570861488444432297e-12 -2.081668171172168513e-13 1.008808379714121184e-12 2.209770777819586307e-12
1.143000000000000000e+03 7.907371997833251953e+00 -4.518745899200439453e+00 1.080866190820983785e-12 -2.602085213965210642e-12 -4.563657394693332314e-13 1.505206224418353944e-12
1.144000000000000000e+03 7.570356750488281250e+01 -3.361444091796875000e+01 1.557247928697658157e-12 -6.365100503960552381e-13 2.762213472274482884e-13 2.377905598122120878e-12
1.145000000000000000e+03 7.491559600830078125e+01 -3.338729095458984375e+01 1.329065113173100166e-12 -1.168936692233502050e-12 4.803849782157240678e-14 2.906329040278099463e-12
1.146000000000000000e+03 7.328759002685546875e+01 -3.252347183227539062e+01 3.811053903013394972e-12 3.522823038056704936e-13 1.249000902703301108e-12 3.586874287170305209e-12
1.147000000000000000e+03 7.241555023193359375e+01 -3.462344741821289062e+01 1.581267126786467525e-12 -5.804651464352827972e-13 3.002405995263662808e-13 2.498001805406602216e-12
1.148000000000000000e+03 7.581072998046875000e+01 -3.546374511718750000e+01 2.353886400033311510e-12 -2.193757979093713395e-12 4.803849782157240678e-14 2.862293735361731706e-12
1.149000000000000000e+03 7.651153564453125000e+01 -3.523616409301757812e+01 -6.004811990527325616e-13 -1.401122815859745518e-12 -6.004811990527325616e-13 2.722181421249691979e-12
1.150000000000000000e+03 7.531069183349609375e+01 -3.199181365966796875e+01 1.969578363250623632e-12 -5.284234421559785844e-13 4.323464600653609269e-13 2.433950393662676071e-12
1.151000000000000000e+03 7.360776519775390625e+01 -3.664916992187500000e+01 1.313052206027010005e-12 -3.522823038056704936e-13 2.882309733769072846e-13 2.009610360065305912e-12
1.152000000000000000e+03 4.712188339233398438e+01 -2.888236618041992188e+01 0.000000000000000000e+00 0.000000000000000000e+00 0.000000000000000000e+00 2.602085213965210642e-13
1.153000000000000000e+03 4.944132804870605469e+00 -1.660960578918457031e+01 -2.343878346619532316e-12 -3.761014069625367995e-12 -1.831467703189426643e-12 2.690155823797946155e-12
1.154000000000000000e+03 9.790938377380371094e+00 -1.531043243408203125e+01 -3.626906500825421986e-12 -1.102483469100912217e-11 -4.395522574390797743e-12 -1.329065113173100166e-12
1.155000000000000000e+03 4.679462051391601562e+01 -2.967795372009277344e+01 1.082867736451609275e-12 8.186560153736199830e-13 5.704571472316122271e-13 -3.682951296365977178e-13
1.156000000000000000e+03 4.966958236694335938e+01 -3.154675674438476562e+01 1.977584762613560088e-12 3.442758773376797254e-13 6.965582082484045312e-13 -1.873501354054951662e-12
1.157000000000000000e+03 5.607823848724365234e+00 -2.225911712646484375e+01 -4.107291329963347337e-12 -9.583680203595346114e-12 -4.107291329963347337e-12 -2.562053217150528361e-13
1.158000000000000000e+03 6.087203979492187500e+00 -2.086202621459960938e+01 -3.018418848199644344e-12 -1.131306593543657257e-11 -4.299445348354691276e-12 2.081668171172168513e-13
1.159000000000000000e+03 4.653759479522705078e+00 -1.756092643737792969e+01 -4.487596058644349739e-12 -3.638915991449609422e-12 -2.437953701764361547e-12 1.761411546133406780e-12
1.160000000000000000e+03 5.181044387817382812e+01 -3.487467575073242188e+01 1.965575055148938155e-12 9.567666754348169711e-13 8.767025733852351621e-13 -1.255005756435612074e-12
1.161000000000000000e+03 5.046926879882812500e+01 -3.205888366699218750e+01 6.455172767844130632e-13 1.506207051443775313e-12 6.455172767844130632e-13 -8.326672684688674053e-13
1.162000000000000000e+03 5.129944992065429688e+01 -3.361278152465820312e+01 -5.404330750817011586e-14 -1.261010474642651480e-13 -5.404330750817011586e-14 -9.447570763904122870e-13
1.163000000000000000e+03 5.321492385864257812e+01 -3.265245819091796875e+01 3.851086116668511750e-12 -4.083272077664429345e-13 1.032827686223147801e-12 -1.841475756603205838e-12
1.164000000000000000e+03 1.248938751220703125e+01 -7.470590114593505859e+00 1.395117962127434552e-12 -3.576866450596960512e-12 -6.545245031727708884e-13 -1.120898214740720378e-13
1.165000000000000000e+03 1.081406593322753906e+01 -1.229494285583496094e+01 -3.554848689718559385e-12 -7.013620587081881297e-12 -3.170540652935871506e-12 -1.429145213630023115e-12
1.166000000000000000e+03 2.114785003662109375e+01 -3.697251129150390625e+01 2.842277736954390566e-13 -1.044837285267552485e-12 -2.281828697346666157e-13 1.801443651368306309e-13
1.167000000000000000e+03 2.593297004699707031e+01 -3.491274642944335938e+01 -2.101684277999726902e-12 2.201764432666758475e-13 -5.644523477094098851e-13 -1.761411519028352468e-13
1.168000000000000000e+03 5.021971225738525391e+00 -3.187577819824218750e+01 3.282630677697850885e-12 -3.122502256758252770e-12 4.803849782157240678e-14 -1.913533350869633942e-12
1.169000000000000000e+03 9.365101814270019531e+00 -3.143405532836914062e+01 1.281026608575264181e-12 -8.967186368447066513e-12 -2.305847787015258277e-12 1.032827686223147801e-12
1.170000000000000000e+03 4.612143325805664062e+01 -2.916931724548339844e+01 2.915836625969059348e-12 -2.852285871683332696e-14 8.661941606688539075e-13 1.281026608575264181e-13
1.171000000000000000e+03 7.683264255523681641e+00 -3.076107788085937500e+01 2.409931195573866702e-12 -8.895128557340203912e-12 -1.945559165161814263e-12 -7.365902592731954357e-13
1.172000000000000000e+03 6.223371028900146484e+00 -1.766497421264648438e+01 -2.049642573720422689e-12 -8.198570294881690756e-12 -3.074463860580634034e-12 1.797440451686838081e-12
1.173000000000000000e+03 4.470853328704833984e+00 -1.081200218200683594e+01 2.457969808591919936e-12 -1.096878989546856698e-12 4.083272077664429345e-13 2.465976207954856392e-12
1.174000000000000000e+03 4.621170043945312500e+01 -3.042856597900390625e+01 6.385117044468979763e-13 -1.381106736137241442e-13 1.501202997631831404e-13 -1.357087510943377762e-12
1.175000000000000000e+03 4.443547821044921875e+01 -3.275677490234375000e+01 2.812253685133270231e-12 -2.702165477052459464e-13 7.626111114128475421e-13 -1.152923893507629138e-12
1.176000000000000000e+03 1.108585357666015625e+01 -1.126866817474365234e+01 -2.287833334238542626e-12 -5.338277996730367292e-12 -2.287833334238542626e-12 -2.257809390837639540e-12
1.177000000000000000e+03 1.406625843048095703e+01 -3.549599456787109375e+01 1.506206997233666689e-13 -3.918640151950869566e-12 -1.130405881746843200e-12 1.529225422507163312e-12
1.178000000000000000e+03 3.798857688903808594e+00 -1.885953521728515625e+01 -2.337873384467004101e-12 1.377103509350718902e-12 -2.882309733769072846e-13 1.104885388909793154e-12
1.179000000000000000e+03 6.490844249725341797e+00 -1.939380455017089844e+01 -4.471583259918476827e-12 -1.214173032948462350e-11 -4.983994120189016996e-12 4.803849782157240678e-14
1.180000000000000000e+03 1.497157001495361328e+01 -9.282913208007812500e+00 -2.778226433630681669e-12 -3.066457244377263081e-12 -1.753405146770470324e-12 6.565261030135050024e-13
1.181000000000000000e+03 8.150777816772460938e+00 -1.511600208282470703e+01 -2.433950393662676071e-12 -1.101682807480575121e-11 -4.035233518856484736e-12 1.495198171004574750e-12
1.182000000000000000e+03 7.167547607421875000e+01 -3.665520477294921875e+01 2.284830961582495767e-12 7.275830328848376105e-13 9.037241983402000134e-13 1.515964870996144853e-12
1.183000000000000000e+03 1.471111392974853516e+01 -1.074291038513183594e+01 -1.188952799061060439e-12 -2.774223125528996192e-12 -1.188952799061060439e-12 -1.905526951506697486e-12
1.184000000000000000e+03 1.422475910186767578e+01 -1.155112743377685547e+01 -1.833469357240269382e-12 -2.570059616513464817e-12 -1.321058605389946461e-12 -1.329065113173100166e-12
1.185000000000000000e+03 1.891406059265136719e+01 -3.899837875366210938e+01 5.504410946141624628e-13 -1.491194971323106522e-12 -2.822261738547049426e-13 1.184949599379592211e-12
1.186000000000000000e+03 1.218050098419189453e+01 -1.147133159637451172e+01 -2.403425982538953676e-12 -5.607994103817848242e-12 -2.403425982538953676e-12 -3.426746083071141591e-12
1.187000000000000000e+03 7.273578643798828125e+01 -3.773147201538085938e+01 1.000802021008766196e-13 -6.204972516701823260e-13 -1.561251128379126385e-13 1.253004102384769336e-12
1.188000000000000000e+03 7.073068237304687500e+01 -3.566121673583984375e+01 1.487066654710933467e-12 1.761786788505304013e-12 9.746560112808277943e-13 1.630306458409724879e-12
1.189000000000000000e+03 6.002120018005371094e+00 -2.485629844665527344e+01 -1.729385840261443708e-12 -1.172139295346763532e-11 -4.035233518856484736e-12 -2.369899198759184422e-12
1.190000000000000000e+03 1.109522914886474609e+01 -3.364905929565429688e+01 3.642919299551294898e-13 -5.128109308721873205e-12 -1.429145213630023115e-12 1.657328137574798355e-12
1.191000000000000000e+03 1.015085697174072266e+01 -3.167814254760742188e+01 -2.770220034267745213e-12 -7.317864196554335621e-12 -3.026425247562580800e-12 1.249000902703301108e-12
1.192000000000000000e+03 2.681905746459960938e+01 -3.569216537475585938e+01 -1.307047460714916287e-12 3.662935297958636038e-13 -2.822261738547049426e-13 -5.924747996897961055e-13
1.193000000000000000e+03 1.236747741699218750e+01 -3.474287414550781250e+01 1.949562256423065243e-12 -3.991198430780551476e-12 -6.124908523072458699e-13 1.545238329653253473e-12
1.194000000000000000e+03 9.355816841125488281e+00 -1.278878879547119141e+01 4.923945908126559079e-13 -9.099291632674866293e-12 -2.582069107137652253e-12 1.345077911898973078e-12
1.195000000000000000e+03 9.536541938781738281e+00 -1.360565948486328125e+01 1.257007302066237564e-12 -9.023230947147187209e-12 -2.329866985104067645e-12 -9.927955809882482718e-13
1.196000000000000000e+03 4.554210281372070312e+01 -2.965475845336914062e+01 1.945559165161814263e-12 6.965582082484045312e-13 7.926351632339678766e-13 2.722181475459800604e-13
1.197000000000000000e+03 4.640107345581054688e+01 -2.859723472595214844e+01 2.457969808591919936e-12 1.465174119183454415e-12 1.176943200016655755e-12 -9.207378783016029189e-13
1.198000000000000000e+03 2.375269317626953125e+01 -3.568181610107421875e+01 -6.805453553124229948e-13 1.200962343895356499e-13 -1.681347389873716347e-13 3.062454261536229350e-13
1.199000000000000000e+03 5.310784149169921875e+01 -3.584854125976562500e+01 1.703364988121791601e-12 5.584474939770989188e-13 6.785437554716888808e-13 3.602887302736612618e-13
1.200000000000000000e+03 3.759936904907226562e+01 -4.147024536132812500e+01 9.247410779830711469e-13 -1.044837285267552485e-12 -3.602887167211341057e-14 1.060850151756061177e-13
1.201000000000000000e+03 4.061492919921875000e+01 -3.729929351806640625e+01 -6.204972381176551699e-14 -9.988004347205592381e-13 -3.182550251980276190e-13 -8.166544155328858690e-13
1.202000000000000000e+03 4.186602783203125000e+01 -3.514040756225585938e+01 1.078864536770141047e-12 -8.987202258434190405e-13 5.404330750817011586e-14 -1.192955998742528667e-12
1.203000000000000000e+03 1.002976417541503906e+01 -3.360140991210937500e+01 3.202566521438160452e-13 -6.084876092576907425e-12 -1.729385840261443708e-12 -6.004811990527325616e-13
1.204000000000000000e+03 1.923713684082031250e+01 -3.702625656127929688e+01 -6.605293026949732305e-13 -1.541235129971785245e-12 -6.605293026949732305e-13 -2.922341730583755126e-13
1.205000000000000000e+03 2.715808629989624023e+00 -3.606687545776367188e+01 -1.040834085586084257e-13 -3.658932098277167810e-12 -1.128904695418819770e-12 -1.457167719820517959e-12
1.206000000000000000e+03 4.572279453277587891e+00 -3.859243011474609375e+01 1.337071512536036622e-12 -2.858290427260046229e-12 -4.563657394693332314e-13 -4.843881914497194519e-13
1.207000000000000000e+03 4.251998519897460938e+01 -3.666632080078125000e+01 1.629305631384303510e-12 1.721379386688398627e-13 5.404330954104918927e-13 -5.884716000083278775e-13
1.208000000000000000e+03 3.329445648193359375e+01 -4.126709747314453125e+01 -6.004812227696550847e-15 -1.295037753250294355e-12 -3.903127820947815962e-13 -4.543641125235448053e-13
1.209000000000000000e+03 3.092448234558105469e+01 -3.663600921630859375e+01 1.124901495737351542e-12 9.167346786201346909e-13 6.124908523072458699e-13 -4.203368339159019307e-13
1.210000000000000000e+03 2.736263084411621094e+01 -3.666901397705078125e+01 2.321860585741131189e-12 8.006416303595401129e-14 7.205774605473225236e-13 -3.222582519845501592e-13
1.211000000000000000e+03 4.395533752441406250e+01 -3.384580612182617188e+01 3.702967294773318319e-13 1.000802037949425141e-14 1.140914348673333079e-13 5.924747996897961055e-13
1.212000000000000000e+03 4.772944259643554688e+01 -3.020379066467285156e+01 2.249802991474703084e-12 -7.285838599102589797e-13 4.563657394693332314e-13 -8.967185717925763022e-13
1.213000000000000000e+03 3.456576156616210938e+01 -3.898400115966796875e+01 1.030826032172305062e-12 -1.010810033764963922e-12 6.004812227696550847e-15 1.641315257533762506e-13
1.214000000000000000e+03 6.769952297210693359e+00 -4.158498001098632812e+01 1.535230276239474279e-12 -3.676946767894317958e-12 -6.425149041283662044e-13 -3.122502256758252770e-13
1.215000000000000000e+03 7.591149902343750000e+01 -4.028285980224609375e+01 5.744603469130804552e-13 -2.075663425860074796e-12 -4.503609128420765773e-13 8.246608691059309493e-13
1.216000000000000000e+03 7.571920776367187500e+01 -3.883454895019531250e+01 -3.482791041242022656e-13 -2.093677878636790446e-12 -7.325870595917272077e-13 1.200962343895356499e-13
1.217000000000000000e+03 7.630842590332031250e+01 -4.178395080566406250e+01 5.044041898570605920e-13 -2.666136625709136787e-12 -6.485197036505685464e-13 7.606094980195862720e-14
1.218000000000000000e+03 5.369374084472656250e+01 -3.470066070556640625e+01 2.868298480673825424e-12 7.145726068150115573e-13 1.074861337088672819e-12 -2.401924796210930246e-12
1.219000000000000000e+03 5.229955673217773438e+01 -3.306565856933593750e+01 1.925543058334255875e-12 1.076862991139515557e-12 9.007218256841531545e-13 -2.129706567349787250e-12
1.220000000000000000e+03 3.388875722885131836e+00 -3.897460174560546875e+01 -1.601283260719080226e-14 -4.307451964558062230e-12 -1.297039407301137093e-12 -1.184949599379592211e-12
1.221000000000000000e+03 6.707236480712890625e+01 -4.139681625366210938e+01 2.674143025072073243e-12 2.610091613328147098e-12 1.585270326467935753e-12 5.584474939770989188e-13
1.222000000000000000e+03 1.078267097473144531e+01 -5.868179798126220703e+00 3.849084679458103508e-12 -1.267015355480016758e-12 7.746207646673608505e-13 7.686159651451585084e-13
1.223000000000000000e+03 1.103207588195800781e+01 -6.683904170989990234e+00 -2.121700167986850794e-12 -3.242598464042734108e-12 -1.609289632976962370e-12 4.003208084035064784e-13
1.224000000000000000e+03 1.329492855072021484e+01 -1.109204101562500000e+01 -1.313052206027010005e-12 -4.771823994970114668e-12 -1.825462957877332926e-12 -1.921539750232570398e-12
1.225000000000000000e+03 1.601164817810058594e+01 -9.475272178649902344e+00 -1.441154866884536423e-13 -3.362694779747432694e-13 -1.441154866884536423e-13 -2.017616759428242368e-12
1.226000000000000000e+03 1.583693885803222656e+01 -9.034962654113769531e+00 -6.381113519526859790e-12 -1.224981704614491740e-12 -2.281828588926448909e-12 2.081668171172168513e-13
1.227000000000000000e+03 8.533055305480957031e+00 -4.492661952972412109e+00 1.521219023144226856e-12 -3.282630677697850885e-12 -5.284234421559785844e-13 -8.807057730667033901e-13
1.228000000000000000e+03 1.299065399169921875e+01 -7.794883728027343750e+00 -4.283432549628818364e-12 -3.162534253572935050e-12 -2.233789975908395675e-12 2.882309733769072846e-13
1.229000000000000000e+03 1.424115562438964844e+01 -8.770244598388671875e+00 -2.646120518881578398e-12 -2.758210326803123280e-12 -1.621299232021367054e-12 2.401924687790712998e-13
1.230000000000000000e+03 1.381319522857666016e+01 -7.606142997741699219e+00 1.597280033932557686e-12 -1.397119616178277290e-12 6.004811719476782494e-14 9.287442776645393749e-13
1.231000000000000000e+03 1.607601165771484375e+01 -9.928959846496582031e+00 -5.260215440311410973e-12 -2.025623158791178824e-12 -2.185751579730776939e-12 2.113693768623914337e-12
1.232000000000000000e+03 1.392746353149414062e+01 -8.381008148193359375e+00 8.206576287668812530e-14 -3.224584011266018457e-12 -9.427555307597867973e-13 -3.202566521438160452e-13
1.233000000000000000e+03 1.181972980499267578e+01 -6.337663650512695312e+00 2.261812563414053456e-13 -2.888314587501383812e-12 -7.986400169662788429e-13 1.136911094781756226e-12
1.234000000000000000e+03 1.163900279998779297e+01 -1.086236476898193359e+01 -3.130508656121189226e-12 -5.596484647235611121e-12 -2.618098012691083554e-12 -1.000802021008766196e-13
1.235000000000000000e+03 8.687841415405273438e+00 -1.378218555450439453e+01 -5.964779993712643336e-13 -9.931958901143733698e-12 -3.158531162311684071e-12 6.565261030135050024e-13
1.236000000000000000e+03 8.880208969116210938e+00 -1.467256641387939453e+01 7.606094980195862720e-14 -8.362701156561236360e-12 -2.485992097941980283e-12 1.697360242809697883e-12
1.237000000000000000e+03 9.917447090148925781e+00 -6.151767730712890625e+00 1.683348989714450461e-12 -2.904327386227256724e-12 -3.662935297958636038e-13 1.665334536937734811e-12
1.238000000000000000e+03 1.561286640167236328e+01 -8.600749969482421875e+00 -1.985591161976496544e-12 -1.216975196831338035e-12 -9.607698751162851991e-13 -3.314656275149596709e-12
1.239000000000000000e+03 1.449559783935546875e+01 -1.009012126922607422e+01 -3.230588973418546672e-12 -2.413934503675552179e-12 -1.693357043128229655e-12 -9.607699564314481355e-14
1.240000000000000000e+03 5.598241329193115234e+00 -1.801607322692871094e+01 -4.523624964197781040e-12 -6.285036727171622317e-12 -3.242598464042734108e-12 1.601283233614025914e-12
1.241000000000000000e+03 4.292016983032226562e+00 -2.018322372436523438e+01 -4.043240135059855689e-12 -1.321058605389946461e-12 -1.609289632976962370e-12 2.356888772689358369e-12
1.242000000000000000e+03 8.533305168151855469e+00 -5.074447631835937500e+00 4.483592858962881511e-13 -2.369899198759184422e-12 -5.764619467538145692e-13 1.921539750232570398e-12
1.243000000000000000e+03 3.960444450378417969e+00 -2.074386596679687500e+01 -1.112891788272729610e-12 1.673340936300671267e-12 1.681347389873716347e-13 3.202566521438160452e-14
1.244000000000000000e+03 7.277522563934326172e+00 -5.234575271606445312e+00 2.802245631719491037e-12 -2.001603960702369456e-12 2.401924687790712998e-13 8.166544155328858690e-13
1.245000000000000000e+03 4.890878200531005859e+00 -2.885565757751464844e+01 3.570861488444432297e-12 -4.691760001340750108e-12 -3.362694779747432694e-13 -5.283233919795016220e-12
1.246000000000000000e+03 4.520548820495605469e+00 -3.084184455871582031e+01 1.176943200016655755e-12 -3.658932098277167810e-12 -7.445967128462405160e-13 -4.059252933785728601e-12
1.247000000000000000e+03 4.466547489166259766e+00 -2.732105827331542969e+01 1.168936692233502050e-12 -6.885517546753594509e-13 1.441154866884536423e-13 -4.627708372756389466e-12
1.248000000000000000e+03 5.488774776458740234e+00 -2.920689392089843750e+01 1.953565564524750719e-12 -7.397928623864569175e-12 -1.633308831065771738e-12 -5.324266635214902621e-12
1.249000000000000000e+03 4.046778678894042969e+00 -3.354022979736328125e+01 1.929546366435941351e-12 -2.329866985104067645e-12 -1.200962343895356499e-13 -1.497199825055417488e-12
1.250000000000000000e+03 8.238663673400878906e+00 -3.201395034790039062e+01 2.814255339184112970e-12 -7.097687888812931334e-12 -1.285029808256732409e-12 -7.846287638710314205e-13
1.251000000000000000e+03 4.619540214538574219e+00 -7.067214012145996094e+00 3.018418848199644344e-12 -1.497199825055417488e-12 4.563657394693332314e-13 3.490797494815067736e-12
1.252000000000000000e+03 5.115200519561767578e+00 -5.883866786956787109e+00 3.286633768959101864e-12 -2.842277736954390566e-13 9.007218256841531545e-13 2.312353000050171303e-12
1.253000000000000000e+03 5.349555015563964844e+00 -3.128656387329101562e+01 2.606088522066896118e-12 -4.167339650446022503e-12 -4.683753385137379155e-13 -2.642117210779892922e-12
1.254000000000000000e+03 3.915735244750976562e+00 -2.686779403686523438e+01 1.184949599379592211e-12 -2.241796429481440756e-13 2.882309733769072846e-13 -3.843079500465140796e-12
1.255000000000000000e+03 4.944072246551513672e+00 -2.424412727355957031e+01 -2.183749925679934201e-12 -6.803451899073387210e-12 -2.696160569110039873e-12 -1.905526951506697486e-12
1.256000000000000000e+03 4.163243293762207031e+00 -2.469220161437988281e+01 2.001604075898850282e-14 -1.661331337256266583e-12 -4.923945908126559079e-13 -2.754207018701437804e-12
1.257000000000000000e+03 3.834407091140747070e+00 -1.237032890319824219e+01 5.284234421559785844e-13 1.232988103977428196e-12 5.284234421559785844e-13 2.481989006680729304e-12
1.258000000000000000e+03 5.786519527435302734e+00 -1.150170230865478516e+01 -7.686159651451585084e-13 -1.793437143585152604e-12 -7.686159651451585084e-13 3.234592064679797652e-12
1.259000000000000000e+03 3.825243473052978516e+00 -9.254155158996582031e+00 -1.705366642172634339e-12 1.144917494144692682e-12 -1.681347389873716347e-13 1.921539750232570398e-12
1.260000000000000000e+03 4.721014499664306641e+00 -6.461640834808349609e+00 -1.737392239624380164e-12 2.161732300326804634e-13 -4.563657394693332314e-13 2.057648973083359145e-12
1.261000000000000000e+03 4.098210811614990234e+00 -6.218876361846923828e+00 1.573260727423531069e-12 -1.453164520139049731e-12 3.602887167211341057e-14 3.106489458032379858e-12
1.262000000000000000e+03 5.145213127136230469e+00 -1.152751636505126953e+01 6.885517546753594509e-13 -1.809450050731242765e-12 -3.362694779747432694e-13 3.634912900188358442e-12
1.263000000000000000e+03 5.412327289581298828e+00 -2.064888763427734375e+01 -6.188959501135515850e-12 -8.462781690699028303e-12 -4.395522574390797743e-12 -2.001604042017532392e-13
1.264000000000000000e+03 4.440058708190917969e+00 -2.398056030273437500e+01 -8.006416303595401129e-14 -3.602887302736612618e-12 -1.104885388909793154e-12 -2.241796592111766628e-12
1.265000000000000000e+03 4.494635105133056641e+00 -1.005381965637207031e+01 -2.137713183553158203e-12 1.361090737729900302e-13 -6.004811990527325616e-13 8.486801214048489417e-13
1.266000000000000000e+03 4.484426975250244141e+00 -2.831400299072265625e+01 7.415942859800850329e-13 -1.832468421794630764e-12 -3.272622515863854442e-13 -4.271423059004630929e-12
1.267000000000000000e+03 3.839745044708251953e+00 -1.313707160949707031e+01 2.273822189563512453e-12 1.889514152780824574e-12 1.249000902703301108e-12 4.979990812087331520e-12
1.268000000000000000e+03 4.657931327819824219e+00 -1.590200042724609375e+01 -2.882309842189290094e-12 -1.601283233614025914e-12 -1.345077911898973078e-12 2.393918396847993790e-12
1.269000000000000000e+03 3.846731901168823242e+00 -1.821347618103027344e+01 -6.044844312602659642e-12 -4.403528865333516951e-13 -1.945559165161814263e-12 2.369899198759184422e-12
1.270000000000000000e+03 6.445838451385498047e+00 -1.662066459655761719e+01 4.211374738521955763e-12 -7.253813001650843972e-12 -9.127314789386664629e-13 4.483592858962881511e-13
1.271000000000000000e+03 3.967434644699096680e+00 -1.957260131835937500e+01 -6.797447153761293492e-12 -4.883913911311876799e-13 -2.185751579730776939e-12 2.994399650110834976e-12
1.272000000000000000e+03 4.645629882812500000e+00 -1.318007946014404297e+01 -4.375506467563239354e-12 -1.669337736619203039e-12 -1.813453250412710993e-12 3.426746083071141591e-12
1.273000000000000000e+03 4.407618045806884766e+00 -1.523932552337646484e+01 -9.367506770274758310e-13 3.763015561045884860e-13 -1.681347389873716347e-13 3.546842290355622929e-12
1.274000000000000000e+03 4.329850196838378906e+00 -1.463727664947509766e+01 -2.329866985104067645e-12 -3.122502256758252770e-13 -7.926351632339678766e-13 3.827066701739267884e-12
1.275000000000000000e+03 5.843591690063476562e+00 -2.809481620788574219e+01 1.361090737729900302e-13 -8.222589276130065628e-12 -2.425943994299739614e-12 -3.891118330323628527e-12
1.276000000000000000e+03 7.388492584228515625e+00 -3.165085220336914062e+01 2.742197528077250368e-12 -7.265822492275031408e-12 -1.357087510943377762e-12 -2.241796429481440756e-13
1.277000000000000000e+03 5.772894382476806641e+00 -5.494741439819335938e+00 -7.325870595917272077e-13 -1.709369841854102567e-12 -7.325870595917272077e-13 3.074463860580634034e-12
1.278000000000000000e+03 6.061862468719482422e+00 -6.173440933227539062e+00 2.898322640915163007e-12 -1.777424344859279692e-12 3.362694779747432694e-13 3.186553668502178915e-12
1.279000000000000000e+03 1.004656600952148438e+01 -7.252884864807128906e+00 -2.073661771809232057e-12 -3.130508656121189226e-12 -1.561251128379126385e-12 2.369899198759184422e-12
1.280000000000000000e+03 8.536072731018066406e+00 -3.105451965332031250e+01 3.242598518252842732e-13 -8.210579785505878192e-12 -2.365895890657498946e-12 4.803849375581425996e-13
1.281000000000000000e+03 5.546405792236328125e+00 -2.571081161499023438e+01 -1.481186917909327327e-12 -1.028824421489549223e-11 -3.530829491629750017e-12 -4.851887988599479229e-12
1.282000000000000000e+03 7.374288177490234375e+01 -3.514585113525390625e+01 6.585277028542391164e-13 -1.879506099367045380e-12 -3.662935297958636038e-13 2.834271229171236861e-12
1.283000000000000000e+03 6.205791473388671875e+00 -2.991894721984863281e+01 3.899124512846130486e-12 -7.982396861561102952e-12 -1.224981704614491740e-12 -3.586874287170305209e-12
1.284000000000000000e+03 7.565853595733642578e+00 -1.569592952728271484e+01 -1.249000902703301108e-12 -9.959981624174663040e-12 -3.362694671327215445e-12 1.890515088226463192e-12
1.285000000000000000e+03 7.189782619476318359e+00 -2.832064819335937500e+01 5.612497445961484033e-12 -1.209769437404695225e-11 -1.945559165161814263e-12 -4.443560970568416479e-12
1.286000000000000000e+03 6.069104671478271484e+00 -2.747624397277832031e+01 -1.230986449926585458e-12 -7.996408223076567623e-12 -2.768218380216902474e-12 -3.795041104287522060e-12
1.287000000000000000e+03 4.635275650024414062e+01 -3.214495468139648438e+01 2.727185447956581577e-12 3.853087824929463112e-13 9.337483043714289721e-13 -2.001603960702369456e-12
1.288000000000000000e+03 5.236855030059814453e+00 -2.284474754333496094e+01 -2.888314587501383812e-12 -6.739400704169895562e-12 -2.888314587501383812e-12 -7.686159651451585084e-13
1.289000000000000000e+03 4.965337753295898438e+00 -2.190349006652832031e+01 -3.811053903013394972e-12 -5.476388439951129783e-12 -2.786232832993618125e-12 1.893517460882510051e-12
1.290000000000000000e+03 5.862840175628662109e+00 -1.698195266723632812e+01 -4.627708372756389466e-12 -7.381915391457827269e-12 -3.602887302736612618e-12 2.946361037092781743e-12
1.291000000000000000e+03 5.263363838195800781e+00 -1.729517555236816406e+01 3.923143819355157103e-13 -3.354688271964278989e-12 -8.887121724296398462e-13 2.722181421249691979e-12
1.292000000000000000e+03 5.691010951995849609e+00 -3.762848281860351562e+01 3.075464579185838154e-12 -3.645921672207341757e-12 -1.711371387484728057e-13 -1.168842908745582054e-12
1.293000000000000000e+03 3.873116970062255859e+00 -3.756921386718750000e+01 2.413934503675552179e-12 -2.854287335998795250e-12 -1.321058605389946461e-13 -4.553649124439118623e-13
1.294000000000000000e+03 4.755213546752929688e+01 -3.291860961914062500e+01 -3.682951296365977178e-13 8.486801214048489417e-13 1.441154866884536423e-13 -8.326672684688674053e-13
1.295000000000000000e+03 1.151119709014892578e+01 -1.192444324493408203e+01 -4.471583259918476827e-12 -7.017623461502697779e-12 -3.446762189898699980e-12 -2.001603960702369456e-12
1.296000000000000000e+03 1.048099136352539062e+01 -1.160387516021728516e+01 -1.617296032339898826e-12 -7.189761806747352324e-12 -2.642117210779892922e-12 -2.193757979093713395e-12
1.297000000000000000e+03 5.023249053955078125e+01 -3.526683425903320312e+01 3.416738029657362397e-12 2.862293735361731706e-13 1.110890242642104120e-12 -8.326672684688674053e-13
1.298000000000000000e+03 1.114722919464111328e+01 -1.028144741058349609e+01 -1.120898214740720378e-13 -4.531631580401151993e-12 -1.393116416496809062e-12 -1.913533350869633942e-12
1.299000000000000000e+03 9.865692138671875000e+00 -5.332422256469726562e+00 3.610893702099549074e-12 -3.530829491629750017e-12 2.401924891078620339e-14 2.594078814602274186e-12
1.300000000000000000e+03 6.613247871398925781e+00 -1.562560272216796875e+01 1.681347335663607723e-12 -8.246608257378440499e-12 -1.969578363250623632e-12 2.536032365010876255e-12
1.301000000000000000e+03 4.917717742919921875e+01 -3.241391372680664062e+01 2.061652172764827373e-13 1.335069858485193883e-12 4.623705389915355735e-13 -1.745398747407533868e-12
1.302000000000000000e+03 4.881027221679687500e+01 -3.351517105102539062e+01 3.480789441401288542e-12 -4.183352340751678167e-13 9.187362242507601806e-13 -1.465174119183454415e-12
1.303000000000000000e+03 2.239087486267089844e+01 -4.130942916870117188e+01 4.143320343936995886e-13 -9.547651298041914814e-13 -1.621299259126421366e-13 3.642919299551294898e-13
1.304000000000000000e+03 5.989265441894531250e+00 -1.877672195434570312e+01 -3.441758163191810382e-12 -9.738804380987620135e-12 -3.954168589781481558e-12 2.674143025072073243e-12
1.305000000000000000e+03 4.710361862182617188e+01 -3.115506553649902344e+01 1.511211078150664910e-12 1.100882216333379238e-13 4.863897912904535659e-13 -1.465174119183454415e-12
1.306000000000000000e+03 7.434970855712890625e+01 -3.399602127075195312e+01 5.124106434301056723e-13 -1.793437143585152604e-12 -3.843079825725792542e-13 1.140914294463224454e-12
1.307000000000000000e+03 7.518944740295410156e+00 -3.407855606079101562e+01 1.761411546133406780e-12 -5.284234421559785844e-12 -1.056846884311957169e-12 -7.566063118906452001e-13
1.308000000000000000e+03 9.144046783447265625e+00 -3.233755874633789062e+01 -1.281026608575264181e-13 -6.277030110968251364e-12 -1.921539750232570398e-12 3.042437992078345088e-13
1.309000000000000000e+03 1.310986900329589844e+01 -1.043373680114746094e+01 -2.566056308411779341e-12 -4.279429241527132888e-12 -2.053645664981673669e-12 -2.241796592111766628e-12
1.310000000000000000e+03 1.377916240692138672e+01 -1.019929122924804688e+01 6.245004513516505540e-13 -3.666938714480538763e-12 -9.127314789386664629e-13 -1.104885388909793154e-12
1.311000000000000000e+03 7.277654266357421875e+01 -3.575457000732421875e+01 3.010412448836707888e-12 1.921539912862896271e-13 9.607698751162851991e-13 2.297841387652321821e-12
1.312000000000000000e+03 7.685622692108154297e+00 -1.082276058197021484e+01 -1.761411519028352468e-13 -3.827066701739267884e-12 -1.200962398105465123e-12 6.725389559494865388e-13
1.313000000000000000e+03 4.813758373260498047e+00 -2.338990974426269531e+01 -3.911134437151186916e-12 -7.417944730692127564e-12 -3.398723576880646746e-12 -1.008808379714121184e-12
1.314000000000000000e+03 8.700710296630859375e+00 -3.456805801391601562e+01 2.918338747742721395e-12 -6.000808790845857388e-12 -9.247410779830711469e-13 -6.405133042876320904e-14
1.315000000000000000e+03 9.968976974487304688e+00 -3.488296508789062500e+01 2.790235924254869104e-12 -5.872705967358005097e-12 -9.247410779830711469e-13 1.289033007938200637e-12
1.316000000000000000e+03 5.253060913085937500e+01 -3.954066085815429688e+01 1.795438797635995343e-12 9.867907272559373055e-13 8.346688683096015193e-13 -2.121700303512122354e-13
1.317000000000000000e+03 2.944855880737304688e+01 -3.652995300292968750e+01 9.087282250470896106e-13 4.123304345529654746e-13 3.963175816169839383e-13 -4.523625126828106913e-13
1.318000000000000000e+03 2.510148048400878906e+01 -3.568886947631835938e+01 2.562053217150528361e-13 -2.562053217150528361e-13 0.000000000000000000e+00 1.377103509350718902e-12
1.319000000000000000e+03 7.435742950439453125e+01 -3.572311782836914062e+01 4.703769451307356075e-14 -1.598280752537761806e-12 -4.653729116475824323e-13 2.770220034267745213e-12
1.320000000000000000e+03 5.011445236206054688e+01 -3.380606079101562500e+01 2.133709875451472726e-12 7.085678072928092153e-13 8.526833210863171697e-13 -1.849482155966142294e-12
1.321000000000000000e+03 2.467647171020507812e+01 -3.665594863891601562e+01 7.365902592731954357e-13 2.241796429481440756e-13 2.882309733769072846e-13 -1.024821286860211345e-12
1.322000000000000000e+03 2.388124465942382812e+01 -3.800748825073242188e+01 6.104892389139845998e-14 -7.115702341589646984e-13 -1.951563910473907981e-13 3.843079825725792542e-13
1.323000000000000000e+03 1.663818550109863281e+01 -3.815084838867187500e+01 4.683753385137379155e-13 -2.750203927440186824e-12 -6.845485549938912229e-13 4.623705389915355735e-13
1.324000000000000000e+03 5.281908798217773438e+01 -3.402470016479492188e+01 2.293838296391070841e-12 2.281828697346666157e-13 7.566063118906452001e-13 -1.632308112460567617e-12
1.325000000000000000e+03 7.464376831054687500e+01 -3.728269577026367188e+01 2.353886400033311510e-12 -9.127314789386664629e-13 4.323464600653609269e-13 1.441154921094645047e-12
1.326000000000000000e+03 3.782069015502929688e+01 -3.934015655517578125e+01 5.424346952512260067e-13 -1.082867736451609275e-12 -1.621299259126421366e-13 -4.043240080849747065e-13
1.327000000000000000e+03 4.192654037475585938e+01 -4.133906936645507812e+01 1.695358588758855145e-12 -3.142518255165593910e-13 4.143320343936995886e-13 -2.702165477052459464e-13
1.328000000000000000e+03 7.290568542480468750e+01 -4.162313079833984375e+01 4.303448602246268129e-13 1.501202997631831404e-13 1.741395520621011328e-13 3.262614516660183872e-13
1.329000000000000000e+03 4.565715408325195312e+01 -3.331868743896484375e+01 -1.599281579563183175e-12 5.384314955697577787e-13 -3.182550251980276190e-13 -6.245004513516505540e-13
1.330000000000000000e+03 4.495690155029296875e+01 -3.459166336059570312e+01 1.709369841854102567e-12 -7.085678072928092153e-13 3.002405995263662808e-13 -1.228984904295959968e-12
1.331000000000000000e+03 8.375181198120117188e+00 -3.592324447631835938e+01 3.308651529837502991e-12 -5.090078965958033663e-12 -5.344282958882895507e-13 3.042437992078345088e-13
1.332000000000000000e+03 1.289002609252929688e+01 -3.617330932617187500e+01 1.224981704614491740e-12 -4.827869007351104358e-12 -1.080866190820983785e-12 7.646127112535816561e-13
1.333000000000000000e+03 7.008934783935546875e+01 -4.051574325561523438e+01 1.779425998910122431e-12 2.123701822037693532e-12 1.170938346284344789e-12 6.905533680686207210e-14
1.334000000000000000e+03 9.679601669311523438e+00 -3.822161102294921875e+01 2.638114119518641942e-12 -4.519621656096095563e-12 -5.644523477094098851e-13 6.004811990527325616e-13
1.335000000000000000e+03 4.393894195556640625e+01 -3.572324371337890625e+01 1.199461211777441694e-12 2.366896826103137563e-13 4.308452737373374974e-13 -5.684555473908781131e-13
1.336000000000000000e+03 1.438886833190917969e+01 -9.382870674133300781e+00 1.369097109987782446e-12 -1.929546366435941351e-12 -1.681347389873716347e-13 -1.377103509350718902e-12
1.337000000000000000e+03 1.298331832885742188e+01 -9.273349761962890625e+00 -3.282630515067525012e-13 -3.755009324313274277e-12 -1.224981704614491740e-12 -2.810252031082427493e-12
1.338000000000000000e+03 1.041203880310058594e+01 -6.529486179351806641e+00 5.560455741682179820e-12 -2.397921704949679267e-12 9.487602760718805150e-13 1.088872590183920241e-12
1.339000000000000000e+03 9.523039817810058594e+00 -5.810779571533203125e+00 -6.245004513516505540e-13 -1.457167719820517959e-12 -6.245004513516505540e-13 1.457167719820517959e-12
1.340000000000000000e+03 1.347896766662597656e+01 -8.099375724792480469e+00 -1.819457995724804711e-12 -4.245402206864978822e-12 -1.819457995724804711e-12 -1.665334536937734811e-12
1.341000000000000000e+03 1.199449920654296875e+01 -7.142981529235839844e+00 -1.329065113173100166e-12 -3.955169525227120175e-12 -1.585270326467935753e-12 2.489995406043665760e-12
1.342000000000000000e+03 1.065209865570068359e+01 -1.064297103881835938e+01 -3.903127820947815962e-14 -5.215179416789839095e-12 -1.576263208499795176e-12 5.284234421559785844e-13
1.343000000000000000e+03 1.153266716003417969e+01 -6.834461688995361328e+00 5.900728690388934439e-12 -1.176943200016655755e-12 1.417135614585618431e-12 -2.401924687790712998e-13
1.344000000000000000e+03 1.066783714294433594e+01 -8.943687438964843750e+00 4.411535373116670655e-12 -4.331470945806437101e-12 2.401924891078620339e-14 1.368096391382578325e-12
1.345000000000000000e+03 1.028836536407470703e+01 -9.225667953491210938e+00 1.985591161976496544e-12 -3.907131129049501439e-12 -5.764619467538145692e-13 -2.353886400033311510e-12
1.346000000000000000e+03 1.030785083770751953e+01 -5.599942207336425781e+00 9.297451046899607441e-13 4.613697119661142043e-13 4.173344341548007597e-13 7.205774605473225236e-13
1.347000000000000000e+03 6.350126743316650391e+00 -2.827697372436523438e+01 6.841482675518095746e-12 -1.136510763971587679e-11 -1.357087510943377762e-12 -4.963978013361458608e-12
1.348000000000000000e+03 7.939223289489746094e+00 -5.143751144409179688e+00 1.761411546133406780e-12 -2.722181421249691979e-12 -2.882309733769072846e-13 7.045646076113409872e-13
1.349000000000000000e+03 4.966144084930419922e+00 -2.777898025512695312e+01 5.524426944548965768e-13 -5.116099818097685770e-12 -1.369097109987782446e-12 -2.941357010385892146e-12
1.350000000000000000e+03 6.732849121093750000e+00 -6.067802906036376953e+00 5.384314955697577787e-12 -1.100882189228324926e-12 1.285029808256732409e-12 3.827066701739267884e-12
1.351000000000000000e+03 7.411889076232910156e+00 -5.906389236450195312e+00 -1.092875789865388469e-12 -2.550043509685906429e-12 -1.092875789865388469e-12 8.006416303595401129e-14
1.352000000000000000e+03 4.830121040344238281e+00 -1.994243621826171875e+01 -7.966383629154361046e-12 -4.923945799706341830e-12 -3.867098915394384662e-12 2.161732381641967571e-12
1.353000000000000000e+03 5.488334655761718750e+00 -2.989406967163085938e+01 2.646120518881578398e-12 -4.927949107808027307e-12 -6.845485549938912229e-13 -5.444362842499383959e-12
1.354000000000000000e+03 5.341942310333251953e+00 -2.623793792724609375e+01 -6.104891982564031316e-13 -8.256616744473088687e-12 -2.660131663556608572e-12 -3.763015506835776236e-12
1.355000000000000000e+03 4.053428649902343750e+00 -2.794511413574218750e+01 5.564458941363648048e-13 -2.117697076725599814e-12 -4.683753385137379155e-13 -4.419541555639172614e-12
1.356000000000000000e+03 4.559493064880371094e+00 -8.538190841674804688e+00 8.486801214048489417e-13 2.722181475459800604e-13 3.362694779747432694e-13 2.081668171172168513e-12
1.357000000000000000e+03 5.146658897399902344e+00 -6.856210708618164062e+00 5.604491263438982074e-12 8.006416168070129569e-13 1.921539750232570398e-12 2.590075506500588709e-12
1.358000000000000000e+03 4.525525093078613281e+00 -9.297636985778808594e+00 2.137713183553158203e-12 -1.361090737729900302e-13 6.004811990527325616e-13 2.417937594936803158e-12
1.359000000000000000e+03 5.238159179687500000e+00 -8.595262527465820312e+00 -3.194560067865115371e-12 -2.329866985104067645e-12 -1.657328137574798355e-12 2.465976207954856392e-12
1.360000000000000000e+03 4.818492889404296875e+00 -2.532327461242675781e+01 -1.329065113173100166e-12 -6.517222525537214040e-12 -2.353886400033311510e-12 -3.666938714480538763e-12
1.361000000000000000e+03 4.760233879089355469e+00 -2.474633407592773438e+01 -3.122502256758252770e-13 -5.852690294211315702e-12 -1.849482155966142294e-12 -5.380311647595892310e-12
1.362000000000000000e+03 5.327830791473388672e+00 -7.884740829467773438e+00 3.234592064679797652e-12 -9.927955809882482718e-13 6.725389559494865388e-13 1.104885388909793154e-12
1.363000000000000000e+03 4.493009567260742188e+00 -1.157384490966796875e+01 3.298643476423723797e-12 8.646929201307218538e-13 1.249000902703301108e-12 1.697360242809697883e-12
1.364000000000000000e+03 5.683443546295166016e+00 -1.263921737670898438e+01 -7.085678072928092153e-13 -1.653324937893330127e-12 -7.085678072928092153e-13 4.467579951816791350e-12
1.365000000000000000e+03 5.204419612884521484e+00 -1.009064388275146484e+01 2.842277628534173317e-12 -2.001604042017532392e-13 7.926351632339678766e-13 8.326672684688674053e-13
1.366000000000000000e+03 7.843133449554443359e+00 -1.375511932373046875e+01 2.570059616513464817e-12 -6.813459952487166404e-12 -1.273020100792110476e-12 1.505206224418353944e-12
1.367000000000000000e+03 4.599153518676757812e+00 -2.103520584106445312e+01 -4.179349141070209939e-12 -4.627708372756389466e-12 -2.642117210779892922e-12 8.166544155328858690e-13
1.368000000000000000e+03 4.938012123107910156e+00 -1.830851173400878906e+01 -1.891515806831667312e-12 -4.413536810327078896e-12 -1.891515806831667312e-12 2.129706567349787250e-12
1.369000000000000000e+03 5.534256935119628906e+00 -1.632877540588378906e+01 3.442758773376797254e-13 -6.028831080195917735e-12 -1.705366642172634339e-12 1.617296032339898826e-12
1.370000000000000000e+03 4.344449996948242188e+00 -1.863125228881835938e+01 -3.330669073875469621e-12 -1.793437143585152604e-12 -1.537231930290317017e-12 2.393918396847993790e-12
1.371000000000000000e+03 4.632955074310302734e+00 -1.931118392944335938e+01 -2.778226433630681669e-12 -3.066457244377263081e-12 -1.753405146770470324e-12 9.607698751162851991e-13
1.372000000000000000e+03 5.322395801544189453e+00 -1.910019493103027344e+01 -7.808257512786909160e-12 -6.263018749452786693e-12 -4.221382791935734957e-12 2.145719582916094659e-12
1.373000000000000000e+03 5.265318393707275391e+00 -1.569577789306640625e+01 -1.393116416496809062e-12 -3.250604863405670564e-12 -1.393116416496809062e-12 2.754207018701437804e-12
1.374000000000000000e+03 4.501302719116210938e+00 -1.395860576629638672e+01 2.169738781004904027e-12 -1.769417945496343236e-12 1.200962343895356499e-13 4.051246317582357648e-12
1.375000000000000000e+03 5.543143749237060547e+00 -1.393163394927978516e+01 2.241796429481440756e-13 -1.184949599379592211e-12 -2.882309733769072846e-13 2.337873384467004101e-12
1.376000000000000000e+03 5.856743335723876953e+00 -3.449086380004882812e+01 2.457969808591919936e-12 -4.299445348354691276e-12 -5.524426944548965768e-13 -6.184956518294482120e-13
1.377000000000000000e+03 7.914514064788818359e+00 -3.300604248046875000e+01 1.921539750232570398e-12 -5.764619684378580189e-12 -1.152923893507629138e-12 -9.407538767089440590e-13
1.378000000000000000e+03 9.181304931640625000e+00 -1.203837490081787109e+01 3.414736375606519658e-12 -5.696565181373403064e-12 -6.845485549938912229e-13 -4.963977904941241359e-13
1.379000000000000000e+03 5.983954906463623047e+00 -6.738349914550781250e+00 5.516420653606246560e-12 -7.926351632339678766e-13 1.417135614585618431e-12 2.321860585741131189e-12
1.380000000000000000e+03 5.226225376129150391e+00 -3.561145401000976562e+01 3.225584946711657075e-12 -3.575865515151321894e-12 -1.050842084789754827e-13 -7.606095115721134281e-13
1.381000000000000000e+03 7.108328819274902344e+00 -1.514697551727294922e+01 -2.065655372446295601e-12 -1.058448207552631359e-11 -3.795041104287522060e-12 3.497802958732365575e-12
1.382000000000000000e+03 1.266387557983398438e+01 -1.091858482360839844e+01 -1.761411519028352468e-13 -4.787836793695987581e-12 -1.489193425692481032e-12 -9.007218256841531545e-13
1.383000000000000000e+03 1.400397968292236328e+01 -1.091089630126953125e+01 -2.025623158791178824e-12 -3.018418848199644344e-12 -1.513212623781290400e-12 -1.785430744222216148e-12
1.384000000000000000e+03 6.921136856079101562e+00 -2.990413475036621094e+01 4.123304128689220249e-12 -6.605293135369949553e-12 -7.445967128462405160e-13 -1.697360242809697883e-12
1.385000000000000000e+03 6.176030635833740234e+00 -2.928351020812988281e+01 4.379509775664924831e-12 -6.861498348664785141e-12 -7.445967128462405160e-13 -4.691760001340750108e-12
1.386000000000000000e+03 5.814158439636230469e+00 -1.210121822357177734e+01 1.128904695418819770e-12 -2.489995406043665760e-12 -4.083272077664429345e-13 2.081668171172168513e-12
1.387000000000000000e+03 6.438350677490234375e+00 -3.342784500122070312e+01 3.645921672207341757e-12 -5.157132533517572170e-12 -4.533633126031777483e-13 -1.224981704614491740e-12
1.388000000000000000e+03 9.844721794128417969e+00 -1.186091995239257812e+01 2.257809390837639540e-12 -7.542044246078294378e-12 -1.585270326467935753e-12 -8.887121724296398462e-13
1.389000000000000000e+03 1.072165679931640625e+01 -7.624940395355224609e+00 4.355490360735680966e-12 -2.433950393662676071e-12 5.764619467538145692e-13 2.922341730583755126e-13
1.390000000000000000e+03 6.451108932495117188e+00 -3.647288131713867188e+01 1.441154921094645047e-12 -4.963978013361458608e-12 -1.056846884311957169e-12 -8.366704681503356333e-13
1.391000000000000000e+03 4.813138961791992188e+01 -3.183413314819335938e+01 4.283432603838926989e-13 -7.085678072928092153e-13 -8.406736949368581735e-14 -1.833469357240269382e-12
1.392000000000000000e+03 1.506308078765869141e+01 -1.007539272308349609e+01 -5.524426944548965768e-13 -1.289033007938200637e-12 -5.524426944548965768e-13 -8.967185717925763022e-13
1.393000000000000000e+03 7.462548828125000000e+01 -3.480508041381835938e+01 2.133709875451472726e-12 -1.853485247227393273e-12 8.406736949368581735e-14 3.050444445651390168e-12
1.394000000000000000e+03 7.166455841064453125e+01 -3.902232360839843750e+01 9.667747288485961654e-13 2.542037218743187221e-13 3.662935297958636038e-13 1.184949599379592211e-12
1.395000000000000000e+03 4.845081710815429688e+01 -3.486355209350585938e+01 1.088872590183920241e-12 1.921539912862896271e-13 3.843079825725792542e-13 -1.597280033932557686e-12
1.396000000000000000e+03 5.866295337677001953e+00 -8.622067451477050781e+00 1.224981704614491740e-12 -2.265815790200575996e-12 -3.122502256758252770e-13 2.562053217150528361e-12
1.397000000000000000e+03 5.457071781158447266e+00 -2.716533851623535156e+01 -1.433148521731708591e-12 -7.614102057185156980e-12 -2.714175021886755523e-12 -5.304250528387344232e-12
1.398000000000000000e+03 7.344383239746093750e+01 -3.431755065917968750e+01 3.330669073875469621e-12 -7.686159651451585084e-13 7.686159651451585084e-13 2.650123610142829378e-12
1.399000000000000000e+03 7.040236473083496094e+00 -3.524818801879882812e+01 3.038434955027202733e-12 -5.080070912544254469e-12 -6.124908523072458699e-13 -3.883111822540474822e-13
1.400000000000000000e+03 8.941005706787109375e+00 -3.337356948852539062e+01 1.901523860245446507e-12 -6.665341455852624719e-12 -1.429145213630023115e-12 -2.722181475459800604e-13
1.401000000000000000e+03 7.875530719757080078e+00 -3.738760757446289062e+01 5.984795992119984476e-13 -4.581671413789178970e-12 -1.194957544373154157e-12 -1.080866190820983785e-12
1.402000000000000000e+03 4.623521423339843750e+01 -3.551775741577148438e+01 1.156927093189097366e-12 1.204965597786933351e-12 7.085678072928092153e-13 -1.230986449926585458e-12
1.403000000000000000e+03 7.413144683837890625e+01 -3.851206207275390625e+01 2.902325732176413986e-12 -6.004811719476782494e-14 8.526833210863171697e-13 9.607698751162851991e-13
1.404000000000000000e+03 1.809156608581542969e+01 -4.127519989013671875e+01 -2.732189474663471174e-13 -2.559050627654047005e-12 -8.496808942201616865e-13 -1.561251128379126385e-13
1.405000000000000000e+03 1.180623722076416016e+01 -3.850073242187500000e+01 2.147721020126502900e-12 -4.809854337733954210e-12 -7.986400169662788429e-13 -2.562053217150528361e-13
1.406000000000000000e+03 1.372615528106689453e+01 -3.792073059082031250e+01 7.966384171255447288e-13 -4.119301254268403767e-12 -9.967987806697164999e-13 1.355085965312752272e-12
1.407000000000000000e+03 4.350466537475585938e+01 -3.828079223632812500e+01 1.769417945496343236e-12 7.205774334422682115e-14 5.524426944548965768e-13 -8.907137587178468041e-14
1.408000000000000000e+03 2.603545570373535156e+01 -3.704429244995117188e+01 -2.465976207954856392e-12 2.241796429481440756e-13 -6.725389559494865388e-13 2.562053217150528361e-13
1.409000000000000000e+03 3.014181709289550781e+01 -3.993776702880859375e+01 1.930046617318326163e-12 7.470986719895766903e-13 8.031436301604577555e-13 3.840577825924874900e-14
1.410000000000000000e+03 2.182198905944824219e+01 -3.901147079467773438e+01 -9.107298248878237246e-13 -1.271018555161484986e-12 -6.545245031727708884e-13 5.084074437486374443e-13
1.411000000000000000e+03 2.679436683654785156e+01 -4.112907028198242188e+01 -1.289033007938200637e-12 -8.726993737037669341e-13 -6.485197036505685464e-13 4.663737386730038015e-13
1.412000000000000000e+03 1.115318870544433594e+01 -7.205483913421630859e+00 2.266816508805780117e-12 -4.958973769814134513e-12 -8.076472433546366680e-13 3.138515055484125682e-12
1.413000000000000000e+03 1.373110485076904297e+01 -8.836254119873046875e+00 1.689353735026544179e-12 -2.890316241552226550e-12 -3.602887302736612618e-13 -1.281026608575264181e-13
1.414000000000000000e+03 1.320920372009277344e+01 -8.643574714660644531e+00 -1.601283260719080226e-13 -4.643721171482262378e-12 -1.441154921094645047e-12 -2.962373998448980528e-13
1.415000000000000000e+03 1.163833332061767578e+01 -7.612488269805908203e+00 3.983191814577180523e-12 -2.662133317607451310e-12 3.963175816169839383e-13 -5.924747996897961055e-13
1.416000000000000000e+03 8.645832061767578125e+00 -5.666978359222412109e+00 -2.281828697346666157e-13 -5.324266418374468124e-13 -2.281828697346666157e-13 1.985591161976496544e-12
1.417000000000000000e+03 7.001617908477783203e+00 -6.798573017120361328e+00 2.704166968472976329e-12 -5.224186426337762423e-13 6.545245031727708884e-13 2.770220034267745213e-12
1.418000000000000000e+03 6.195736408233642578e+00 -2.873696517944335938e+01 3.410733284345268679e-12 -7.413940988909573093e-12 -1.200962398105465123e-12 -4.771823994970114668e-12
1.419000000000000000e+03 6.826207160949707031e+00 -2.922604370117187500e+01 3.618900101462485530e-12 -1.034428966095735092e-11 -2.017616759428242368e-12 -4.387515958187426790e-12
1.420000000000000000e+03 6.626322746276855469e+00 -3.123251724243164062e+01 3.402726884982332223e-12 -5.724587470723463412e-12 -6.965582082484045312e-13 -1.825462957877332926e-12
1.421000000000000000e+03 9.233421325683593750e+00 -7.079996109008789062e+00 3.226585665316861196e-12 -1.865494954692015206e-12 4.083272077664429345e-13 5.764619467538145692e-13
1.422000000000000000e+03 5.613965511322021484e+00 -3.260804367065429688e+01 1.533228622188631540e-12 -3.895121204744445009e-12 -7.085678072928092153e-13 -2.357889491294562490e-12
1.423000000000000000e+03 6.915460109710693359e+00 -3.061210632324218750e+01 4.451567153090918438e-12 -6.693363745202685067e-12 -6.725389559494865388e-13 -2.530027402858348040e-12
1.424000000000000000e+03 5.595211505889892578e+00 -7.258229732513427734e+00 2.209770777819586307e-12 -1.249000902703301108e-12 2.882309733769072846e-13 3.426746083071141591e-12
1.425000000000000000e+03 8.549516677856445312e+00 -6.846505641937255859e+00 -6.245004513516505540e-13 -3.378707470053088358e-12 -1.200962398105465123e-12 3.130508656121189226e-12
1.426000000000000000e+03 8.043416023254394531e+00 -5.765576362609863281e+00 -4.803849375581425996e-13 -1.120898296055883314e-12 -4.803849375581425996e-13 1.297039407301137093e-12
1.427000000000000000e+03 6.127389430999755859e+00 -7.516098022460937500e+00 -5.124106434301056723e-13 5.124106434301056723e-13 0.000000000000000000e+00 2.602085213965210642e-12
1.428000000000000000e+03 5.239324092864990234e+00 -9.335096359252929688e+00 4.003208151797700565e-15 -8.446768675132720894e-13 -2.522020949285302960e-13 2.289834988289385365e-12
1.429000000000000000e+03 5.135605335235595703e+00 -1.082469940185546875e+01 3.979188940156364040e-12 7.445967128462405160e-13 1.417135614585618431e-12 1.505206224418353944e-12
1.430000000000000000e+03 5.919085979461669922e+00 -9.256010055541992188e+00 -4.163336342344337027e-13 -1.825462957877332926e-12 -6.725389559494865388e-13 8.246608691059309493e-13
1.431000000000000000e+03 8.608578681945800781e+00 -1.291069507598876953e+01 -1.681347389873716347e-13 -8.078473653916340425e-12 -2.473982607317792848e-12 7.205774605473225236e-13
1.432000000000000000e+03 5.763404369354248047e+00 -1.544160652160644531e+01 3.250604863405670564e-12 -4.371503159461553878e-12 -3.362694779747432694e-13 2.558049909048842885e-12
1.433000000000000000e+03 5.068125724792480469e+00 -1.423482799530029297e+01 -2.177745180367840483e-12 -2.946361037092781743e-12 -1.537231930290317017e-12 3.642919299551294898e-12
1.434000000000000000e+03 7.127822399139404297e+00 -1.286985492706298828e+01 -8.646929201307218538e-13 -4.579669976578770729e-12 -1.633308831065771738e-12 3.258611262768607020e-12
1.435000000000000000e+03 5.551273822784423828e+00 -1.451493263244628906e+01 3.819060519216765925e-12 -3.899124512846130486e-12 -2.401924891078620339e-14 3.730989909384030412e-12
1.436000000000000000e+03 5.315634727478027344e+00 -1.509783840179443359e+01 -1.008808379714121184e-12 -2.353886400033311510e-12 -1.008808379714121184e-12 3.811053903013394972e-12
1.437000000000000000e+03 4.810722351074218750e+00 -1.484124755859375000e+01 -1.945559165161814263e-12 -1.977584762613560088e-12 -1.176943200016655755e-12 3.931150110297876310e-12
1.438000000000000000e+03 6.256750583648681641e+00 -3.062482643127441406e+01 4.003207921404738912e-12 -4.323464763283935142e-12 -9.607699564314481355e-14 -2.754207018701437804e-12
1.439000000000000000e+03 6.979947566986083984e+00 -3.251691055297851562e+01 3.875105531597755615e-12 -6.116901690028653249e-12 -6.725389559494865388e-13 -1.257007302066237564e-12
1.440000000000000000e+03 6.231675624847412109e+00 -1.511754608154296875e+01 5.484394947734283488e-13 -5.552449559159677861e-12 -1.501203024736885716e-12 5.092080403168441904e-12
1.441000000000000000e+03 1.212710857391357422e+01 -1.038828849792480469e+01 -1.529225422507163312e-12 -4.635714988959760419e-12 -1.849482155966142294e-12 -1.819457995724804711e-12
1.442000000000000000e+03 8.111814498901367188e+00 -2.877309226989746094e+01 -7.085678072928092153e-13 -1.190153704755392283e-11 -3.783031613663334625e-12 -5.284234421559785844e-13
1.443000000000000000e+03 9.588109970092773438e+00 -1.120156764984130859e+01 6.805453688649501509e-14 -6.673347638375126678e-12 -1.981588070715245564e-12 -1.361090710624845990e-12
1.444000000000000000e+03 1.367701053619384766e+01 -9.460303306579589844e+00 -1.232988103977428196e-12 -3.730989909384030412e-12 -1.489193425692481032e-12 1.393116416496809062e-12
1.445000000000000000e+03 8.741586685180664062e+00 -6.271639347076416016e+00 2.754207018701437804e-12 -2.113693768623914337e-12 1.921539912862896271e-13 1.313052206027010005e-12
1.446000000000000000e+03 1.160605525970458984e+01 -9.863015174865722656e+00 6.895525817007808200e-13 -5.223185599312341054e-12 -1.360089883599424621e-12 -3.042437992078345088e-13
1.447000000000000000e+03 6.301478862762451172e+00 -1.339566516876220703e+01 -4.963977904941241359e-13 -2.866297043463417182e-12 -1.008808379714121184e-12 4.739798397518368844e-12
1.448000000000000000e+03 6.725032806396484375e+00 -9.468254089355468750e+00 2.110190928245048170e-12 -3.616397979688823483e-12 -4.518620991701000067e-13 9.887923813067800438e-13
1.449000000000000000e+03 7.577588081359863281e+00 -1.453246879577636719e+01 1.353084311261909534e-12 -8.799050897623228451e-12 -2.233789975908395675e-12 1.873501354054951662e-12
1.450000000000000000e+03 4.696741485595703125e+01 -3.414717102050781250e+01 2.477985698579043827e-12 -1.961571909677578551e-13 6.845485549938912229e-13 -1.273020100792110476e-12
1.451000000000000000e+03 7.054778575897216797e+00 -3.880347824096679688e+01 1.240994503340364652e-12 -4.363496543258182925e-12 -9.367506770274758310e-13 -3.393969675614949555e-13
1.452000000000000000e+03 9.889058113098144531e+00 -3.641712951660156250e+01 1.717376241217039023e-12 -4.959974705259773131e-12 -9.727795825809071317e-13 -3.562855034871387216e-13
1.453000000000000000e+03 1.513947010040283203e+01 -4.000863265991210938e+01 2.395920050898836529e-12 -3.857090861980605467e-12 -4.383512866926175811e-13 6.069864120876455882e-13
1.454000000000000000e+03 2.839012908935546875e+01 -3.801862335205078125e+01 -2.005607268804054932e-12 -8.366704681503356333e-13 -8.526833210863171697e-13 -1.116894987954197838e-12
1.455000000000000000e+03 1.225115394592285156e+01 -4.105236816406250000e+01 1.536231103264895648e-12 -3.888115957667581668e-12 -7.055654346367623564e-13 9.527634757533487431e-13
1.456000000000000000e+03 9.086946487426757812e+00 -4.026726150512695312e+01 1.200962398105465123e-12 -3.923143927775374351e-12 -8.166544155328858690e-13 -6.745405557902206528e-13
1.457000000000000000e+03 4.787604522705078125e+01 -3.642877960205078125e+01 2.498001805406602216e-12 7.045646076113409872e-13 9.607698751162851991e-13 -6.545245031727708884e-13
1.458000000000000000e+03 4.933123779296875000e+01 -3.911560058593750000e+01 2.004606333358416315e-12 4.073264078460758775e-13 7.235798332033693825e-13 -1.200962398105465123e-12
1.459000000000000000e+03 5.679560470581054688e+01 -4.141133880615234375e+01 2.059650627134201883e-12 2.243798029322174870e-12 1.291034553568826126e-12 3.082470259943570490e-13
1.460000000000000000e+03 1.041285228729248047e+01 -8.177359580993652344e+00 3.722983564231202580e-13 -4.255410260278758017e-12 -1.164933492552033822e-12 6.725389559494865388e-13
1.461000000000000000e+03 9.080414772033691406e+00 -7.849898815155029297e+00 -2.185751579730776939e-12 -2.538033802221284496e-12 -1.417135614585618431e-12 2.594078814602274186e-12
1.462000000000000000e+03 1.261184883117675781e+01 -9.873397827148437500e+00 -1.856487619883440132e-12 -6.039840069055335547e-12 -2.368898263313545804e-12 -4.963977904941241359e-13
1.463000000000000000e+03 1.237391948699951172e+01 -8.881299972534179688e+00 8.726993737037669341e-13 -6.076869910054405466e-12 -1.561251128379126385e-12 -1.401122768425900472e-14
1.464000000000000000e+03 6.657078266143798828e+00 -7.632039546966552734e+00 -2.097680969898041425e-12 -3.186553668502178915e-12 -1.585270326467935753e-12 2.017616759428242368e-12
1.465000000000000000e+03 1.267981815338134766e+01 -8.337327003479003906e+00 2.586072415239337730e-12 -2.506008204769538672e-12 2.401924891078620339e-14 -2.041636174357486233e-12
1.466000000000000000e+03 1.096032238006591797e+01 -8.519555091857910156e+00 2.387913651535900073e-12 -2.968378797971182870e-12 -1.741395520621011328e-13 5.924747996897961055e-13
1.467000000000000000e+03 5.847845077514648438e+00 -1.022527885437011719e+01 2.277825280824763432e-12 -1.517215823462758628e-12 2.281828697346666157e-13 5.924747996897961055e-13
1.468000000000000000e+03 6.413819789886474609e+00 -8.610924720764160156e+00 1.449161320457581503e-12 -3.450765281159950959e-12 -6.004811990527325616e-13 3.282630677697850885e-12
1.469000000000000000e+03 7.756628990173339844e+00 -1.149143600463867188e+01 3.811053903013394972e-12 -4.771823994970114668e-12 -2.882309733769072846e-13 1.152923893507629138e-12
1.470000000000000000e+03 8.504016876220703125e+00 -1.214408302307128906e+01 7.726191648266267364e-13 -6.737399266959487321e-12 -1.789433943903684376e-12 1.152923893507629138e-12
1.471000000000000000e+03 5.498847484588623047e+00 -1.327063941955566406e+01 3.330669073875469621e-12 -3.330669073875469621e-12 0.000000000000000000e+00 3.682951513206411676e-12
1.472000000000000000e+03 7.056538581848144531e+00 -1.355552673339843750e+01 8.887121724296398462e-13 -5.612497445961484033e-12 -1.417135614585618431e-12 2.345880000670375054e-12
1.473000000000000000e+03 6.213921546936035156e+00 -1.399715137481689453e+01 4.883913911311876799e-13 -5.692561873271717587e-12 -1.561251128379126385e-12 2.225783576545459219e-12
1.474000000000000000e+03 6.108948707580566406e+00 -1.458241176605224609e+01 7.205774334422682115e-14 -4.955971397158087655e-12 -1.465174119183454415e-12 3.330669073875469621e-12
1.475000000000000000e+03 7.639614105224609375e+00 -6.586821556091308594e+00 -2.810252031082427493e-12 -1.433148521731708591e-12 -1.273020100792110476e-12 4.723785598792495932e-12
1.476000000000000000e+03 9.361379623413085938e+00 -6.359739303588867188e+00 -3.386714086256459311e-12 -2.778226433630681669e-12 -1.849482155966142294e-12 2.602085213965210642e-12
1.477000000000000000e+03 8.202873229980468750e+00 -6.359198093414306641e+00 -1.333068312854568394e-12 -3.110492549293630837e-12 -1.333068312854568394e-12 2.289834988289385365e-12
1.478000000000000000e+03 1.013137626647949219e+01 -1.095292091369628906e+01 -1.993597561339433000e-12 -4.651727787685633331e-12 -1.993597561339433000e-12 2.081668171172168513e-13
1.479000000000000000e+03 1.111122226715087891e+01 -9.370134353637695312e+00 -1.064853283674893625e-12 -3.658932098277167810e-12 -1.417135614585618431e-12 -2.154726700884235235e-12
1.480000000000000000e+03 9.004912376403808594e+00 -1.136416149139404297e+01 1.921539750232570398e-12 -5.764619684378580189e-12 -1.152923893507629138e-12 5.284234421559785844e-13
1.481000000000000000e+03 9.739850997924804688e+00 -1.035578441619873047e+01 3.014415540097958868e-12 -3.214575957852239263e-12 -6.004811719476782494e-14 5.124106434301056723e-13
1.482000000000000000e+03 7.284511089324951172e+00 -7.531719207763671875e+00 7.846287638710314205e-13 -1.585270326467935753e-12 -2.401924687790712998e-13 2.962373835818654655e-12
1.483000000000000000e+03 6.672287464141845703e+00 -2.864807510375976562e+01 3.306649875786660253e-12 -1.107287352086760990e-11 -2.329866985104067645e-12 -2.153725982279031115e-12
1.484000000000000000e+03 5.335950851440429688e+00 -2.828010368347167969e+01 3.742999562638543720e-13 -4.277427804316724647e-12 -1.170938346284344789e-12 -4.915188915599610908e-12
1.485000000000000000e+03 5.953220367431640625e+00 -8.039047241210937500e+00 1.985591161976496544e-12 -3.907131129049501439e-12 -5.764619467538145692e-13 3.058450845014326624e-12
1.486000000000000000e+03 6.533905506134033203e+00 -8.154074668884277344e+00 -1.925543058334255875e-12 -1.076862991139515557e-12 -9.007218256841531545e-13 3.234592064679797652e-12
1.487000000000000000e+03 7.865589141845703125e+00 -1.293220710754394531e+01 2.249802991474703084e-12 -5.852690294211315702e-12 -1.080866190820983785e-12 2.401924796210930246e-12
1.488000000000000000e+03 4.684352874755859375e+01 -3.817672729492187500e+01 2.221280017561388931e-12 4.858893777777428813e-13 8.121508023387069564e-13 -4.963977904941241359e-13
1.489000000000000000e+03 1.021279907226562500e+01 -1.005401992797851562e+01 -8.726993737037669341e-13 -5.452369458702754912e-12 -1.897520552143761030e-12 -1.505206224418353944e-12
1.490000000000000000e+03 1.068435955047607422e+01 -9.736942291259765625e+00 1.761411546133406780e-12 -4.003207921404738912e-12 -6.725389559494865388e-13 8.366704681503356333e-13
1.491000000000000000e+03 9.793362617492675781e+00 -9.481859207153320312e+00 -9.257419050084925161e-13 -3.868099850840023279e-12 -1.438152440018380940e-12 5.764619467538145692e-13
1.492000000000000000e+03 9.312654495239257812e+00 -1.063423252105712891e+01 1.289033007938200637e-12 -5.532433452332119472e-12 -1.273020100792110476e-12 -1.008808379714121184e-12
1.493000000000000000e+03 6.451377868652343750e+00 -1.214909076690673828e+01 -1.561251128379126385e-12 -3.642919299551294898e-12 -1.561251128379126385e-12 3.378707470053088358e-12
1.494000000000000000e+03 8.852979660034179688e+00 -1.076716232299804688e+01 1.409129215222681974e-12 -5.252208824108040019e-12 -1.152923893507629138e-12 -8.807057730667033901e-13
1.495000000000000000e+03 7.063836097717285156e+00 -1.087167263031005859e+01 -1.216975196831338035e-12 -4.547644379127024905e-12 -1.729385840261443708e-12 9.287442776645393749e-13
1.496000000000000000e+03 9.802396774291992188e+00 -7.940841674804687500e+00 7.686159651451585084e-13 -3.330669073875469621e-12 -7.686159651451585084e-13 1.024821286860211345e-12
1.497000000000000000e+03 6.886355876922607422e+00 -1.419595718383789062e+01 -5.284234421559785844e-13 -6.357094538278484919e-12 -2.065655372446295601e-12 1.905526951506697486e-12
1.498000000000000000e+03 1.128247737884521484e+01 -8.061900138854980469e+00 1.545238329653253473e-12 -4.827869007351104358e-12 -9.847891816253118158e-13 5.874707729829065084e-13
1.499000000000000000e+03 7.989013671875000000e+00 -7.275210380554199219e+00 2.664134971658294049e-12 -2.323862239791973927e-12 1.020818019416107336e-13 1.697360242809697883e-12
1.500000000000000000e+03 8.291082382202148438e+00 -1.077535057067871094e+01 1.849482155966142294e-12 -5.932754287840680263e-12 -1.224981704614491740e-12 7.526031122091769721e-13
1.501000000000000000e+03 6.211330413818359375e+00 -9.785369873046875000e+00 -1.971580017301466370e-12 -2.892317895603069289e-12 -1.459169373871360698e-12 1.200962398105465123e-12
1.502000000000000000e+03 6.473570346832275391e+00 -9.078443527221679688e+00 -3.202566521438160452e-13 -4.163336342344337027e-12 -1.345077911898973078e-12 1.232988103977428196e-12
1.503000000000000000e+03 8.389003753662109375e+00 -1.144510364532470703e+01 -2.041636038832214672e-13 -5.600487955337296597e-12 -1.741395439305848392e-12 -4.003208084035064784e-13
1.504000000000000000e+03 6.396920680999755859e+00 -1.277761936187744141e+01 3.154527854209998594e-12 -4.595682775304643641e-12 -4.323464600653609269e-13 2.834271229171236861e-12
1.505000000000000000e+03 7.512760639190673828e+00 -8.311957359313964844e+00 -4.563657394693332314e-13 -3.626906500825421986e-12 -1.224981704614491740e-12 1.513212623781290400e-12
1.506000000000000000e+03 1.148319816589355469e+01 -8.938984870910644531e+00 2.265815790200575996e-12 -6.669344763954310196e-12 -1.321058605389946461e-12 -1.761411519028352468e-13
1.507000000000000000e+03 7.598774433135986328e+00 -1.017199707031250000e+01 9.367506770274758310e-13 -5.500407854880373648e-12 -1.369097109987782446e-12 7.205774334422682115e-14
1.508000000000000000e+03 4.514505767822265625e+01 -3.694466018676757812e+01 1.755782043193210296e-12 -1.732638419673845909e-13 4.747554346179461149e-13 -9.527634757533487431e-13
1.509000000000000000e+03 9.265362739562988281e+00 -9.819595336914062500e+00 2.899573593381776782e-12 -3.482540861590721626e-12 -1.748901452261128475e-13 -8.286640687873991773e-13
1.510000000000000000e+03 9.404595375061035156e+00 -8.984198570251464844e+00 2.850284027897109773e-12 -3.170540652935871506e-12 -9.607699564314481355e-14 -6.965582082484045312e-13
1.511000000000000000e+03 8.288597106933593750e+00 -8.054701805114746094e+00 2.049642573720422689e-12 -2.049642573720422689e-12 0.000000000000000000e+00 2.542037110322969973e-12
1.512000000000000000e+03 7.104997158050537109e+00 -1.151511955261230469e+01 -3.923143819355157103e-13 -4.331470945806437101e-12 -1.417135614585618431e-12 3.090476659306506946e-12
1.513000000000000000e+03 8.890639305114746094e+00 -1.023701763153076172e+01 2.642117210779892922e-12 -4.083272348714972466e-12 -4.323464600653609269e-13 -8.326672684688674053e-13
1.514000000000000000e+03 7.823390007019042969e+00 -1.218808269500732422e+01 2.642117210779892922e-12 -4.083272348714972466e-12 -4.323464600653609269e-13 9.127314789386664629e-13
1.515000000000000000e+03 1.020165443420410156e+01 -8.711683273315429688e+00 1.497199825055417488e-12 -3.338675473238406077e-12 -5.524426944548965768e-13 2.385911997485057334e-12
1.516000000000000000e+03 9.682999610900878906e+00 -8.552172660827636719e+00 -1.281026608575264181e-13 -3.714977110658157500e-12 -1.152923893507629138e-12 1.705366642172634339e-12
1.517000000000000000e+03 8.246483802795410156e+00 -1.007130432128906250e+01 1.593276834251089458e-12 -3.114495857395316314e-12 -4.563657394693332314e-13 4.803849782157240678e-14
1.518000000000000000e+03 8.267722129821777344e+00 -9.301993370056152344e+00 -5.684555473908781131e-13 -3.034431646925517256e-12 -1.080866190820983785e-12 3.763015561045884860e-13
1.519000000000000000e+03 8.586668014526367188e+00 -8.735222816467285156e+00 9.767827822623753597e-13 -2.417937594936803158e-12 -4.323464600653609269e-13 3.602887167211341057e-14
1.520000000000000000e+03 8.896976470947265625e+00 -9.274829864501953125e+00 1.345077911898973078e-12 -1.985591161976496544e-12 -1.921539912862896271e-13 7.846287638710314205e-13
1.521000000000000000e+03 4.510562515258789062e+01 -4.014155960083007812e+01 1.251315240660688666e-12 -4.963352320287717223e-13 2.264940080105859455e-13 -6.345084505553211240e-13
1.522000000000000000e+03 2.218992042541503906e+01 -1.380686759948730469e+01 -4.599686083406329118e-12 -1.605286433295494142e-12 -1.861491646590329729e-12 7.195766335219011545e-13
1.523000000000000000e+03 3.061359226703643799e-01 -2.684490203857421875e+00 1.873501354054951662e-12 -7.526031122091769721e-13 3.362694779747432694e-13 -5.604491480279416571e-13
1.524000000000000000e+03 1.263339400291442871e+00 -3.041118144989013672e+00 -1.407628028894658545e-12 1.316054605788111176e-13 -3.828067691395015126e-13 1.761411519028352468e-13
1.525000000000000000e+03 6.782543659210205078e+00 -2.608671569824218750e+01 -5.872705967358005097e-12 -1.370298145786374988e-11 -5.872705967358005097e-12 -3.330669073875469621e-12
1.526000000000000000e+03 5.266088485717773438e+01 -3.751861190795898438e+01 3.374704378791837378e-12 8.286640687873991773e-13 1.261010501747705792e-12 -9.587683294856597094e-13
1.527000000000000000e+03 4.636889648437500000e+01 -2.463433074951171875e+01 3.354688271964278989e-12 -7.125710069742774433e-13 7.926351632339678766e-13 -1.281026608575264181e-12
1.528000000000000000e+03 3.685743808746337891e+00 -2.381141424179077148e+00 -1.753405146770470324e-12 1.032827686223147801e-12 -2.161732300326804634e-13 4.003208084035064784e-13
1.529000000000000000e+03 1.949115180969238281e+01 -1.001228809356689453e+01 -2.209770777819586307e-12 -3.202566521438160452e-14 -6.725389559494865388e-13 -3.066457244377263081e-12
1.530000000000000000e+03 5.873264312744140625e+01 -3.650550842285156250e+01 3.803047720490893013e-12 9.207378783016029189e-13 1.417135614585618431e-12 -1.433148521731708591e-12
1.531000000000000000e+03 2.047231674194335938e+00 -3.717435455322265625e+01 -2.514014604132475128e-12 -2.449963409228983480e-12 -1.489193425692481032e-12 -5.204170427930421283e-13
1.532000000000000000e+03 2.422322511672973633e+00 -3.661994171142578125e+01 -1.731387494312286446e-12 -2.331868639154910383e-12 -1.218976850882180774e-12 -1.361090710624845990e-12
1.533000000000000000e+03 7.589671325683593750e+01 -3.065638923645019531e+01 1.625302431702835282e-12 3.763015561045884860e-13 6.004811990527325616e-13 2.722181421249691979e-12
1.534000000000000000e+03 6.511548995971679688e+00 -2.463989257812500000e+01 -9.047250253656213825e-13 -1.406727338781887937e-11 -4.491599366746035216e-12 -2.658130226346200331e-12
1.535000000000000000e+03 5.860288143157958984e+00 -2.650933837890625000e+01 1.056846884311957169e-12 -7.782236660647257054e-12 -2.017616759428242368e-12 -3.330669073875469621e-12
1.536000000000000000e+03 4.309859466552734375e+01 -3.456150054931640625e+01 1.170938346284344789e-12 1.701363388281057487e-13 4.023224082442405924e-13 -9.927955809882482718e-13
1.537000000000000000e+03 3.059264659881591797e+00 -3.810539627075195312e+01 1.329065113173100166e-12 -1.168936692233502050e-12 4.803849782157240678e-14 -1.901523860245446507e-12
1.538000000000000000e+03 2.619000196456909180e+00 -3.751092910766601562e+01 1.073860510063251450e-12 -4.326467135939982001e-12 -9.757819552369539906e-13 -1.120898296055883314e-12
1.539000000000000000e+03 1.821067810058593750e+01 -9.357105255126953125e+00 8.777033462005479070e-13 -1.368096391382578325e-12 -1.471179000020819694e-13 -3.843079825725792542e-13
1.540000000000000000e+03 7.822229766845703125e+01 -3.206088638305664062e+01 -1.449161320457581503e-12 -1.673340936300671267e-12 -9.367506770274758310e-13 3.843079825725792542e-13
1.541000000000000000e+03 5.749206542968750000e+00 -2.429682922363281250e+01 -2.620099666741926292e-12 -9.529636628424764666e-12 -3.644920736761703139e-12 -3.795041104287522060e-12
1.542000000000000000e+03 7.002325439453125000e+01 -3.306927490234375000e+01 2.455968154541077197e-12 6.064859985749349036e-13 9.187362242507601806e-13 2.802245631719491037e-12
1.543000000000000000e+03 7.637454986572265625e+01 -3.150544548034667969e+01 1.096878989546856698e-12 1.705366642172634339e-12 8.406736678318038614e-13 1.144917494144692682e-12
1.544000000000000000e+03 5.356915664672851562e+01 -3.341086196899414062e+01 1.401122815859745518e-12 1.561251128379126385e-12 8.887121724296398462e-13 -2.145719582916094659e-12
1.545000000000000000e+03 9.690911293029785156e+00 -3.066634368896484375e+01 -1.086870936133077503e-12 -7.660138148790629486e-12 -2.624102758003177271e-12 2.305847787015258277e-12
1.546000000000000000e+03 2.451259803771972656e+01 -3.512147521972656250e+01 -1.016814887497274889e-12 6.164940519887140979e-13 -1.200962343895356499e-13 1.160930347080674219e-13
1.547000000000000000e+03 7.073500823974609375e+01 -3.325521850585937500e+01 3.939156726501247263e-12 1.505206224418353944e-12 1.633308831065771738e-12 3.394720485619395767e-12
1.548000000000000000e+03 1.550445556640625000e+01 -1.022013664245605469e+01 -1.056846884311957169e-12 -2.465976207954856392e-12 -1.056846884311957169e-12 -4.483592858962881511e-13
1.549000000000000000e+03 5.225131988525390625e+00 -2.130494499206542969e+01 -4.183352449171895415e-12 -6.345084613973428489e-12 -3.158531162311684071e-12 1.040834085586084257e-12
1.550000000000000000e+03 4.803680419921875000e+00 -2.049060440063476562e+01 -1.240994503340364652e-12 -4.603689391508014594e-12 -1.753405146770470324e-12 -1.441154866884536423e-13
1.551000000000000000e+03 9.141479492187500000e+00 -1.543052005767822266e+01 -9.687763828994389037e-13 -1.080065550884690140e-11 -3.530829491629750017e-12 4.883913911311876799e-13
1.552000000000000000e+03 3.839738130569458008e+00 -2.144231796264648438e+01 -3.843079825725792542e-13 -8.967185717925763022e-13 -3.843079825725792542e-13 2.674143025072073243e-12
1.553000000000000000e+03 4.862293243408203125e+00 -3.015234756469726562e+01 1.905526951506697486e-12 -3.987195122678865999e-12 -6.245004513516505540e-13 -4.644722106927900995e-12
1.554000000000000000e+03 1.540678501129150391e+01 -9.173235893249511719e+00 -1.192955998742528667e-12 6.325068507145870100e-13 -1.681347389873716347e-13 -2.690155823797946155e-12
1.555000000000000000e+03 1.560174465179443359e+01 -9.871697425842285156e+00 -1.537231930290317017e-12 -3.586874287170305209e-12 -1.537231930290317017e-12 -1.601283260719080226e-13
1.556000000000000000e+03 7.135085105895996094e+00 -1.218394374847412109e+01 5.364298957290236647e-13 -5.580471848509738209e-12 -1.513212623781290400e-12 1.601283260719080226e-14
1.557000000000000000e+03 6.444630146026611328e+00 -1.151200199127197266e+01 -2.578066015876401273e-12 -4.307451964558062230e-12 -2.065655372446295601e-12 1.889514152780824574e-12
1.558000000000000000e+03 1.556488704681396484e+01 -9.539201736450195312e+00 -5.092080403168441904e-12 -1.633308831065771738e-12 -2.017616759428242368e-12 -1.313052206027010005e-12
1.559000000000000000e+03 5.784283161163330078e+00 -1.086279296875000000e+01 -4.139316927415093161e-12 -2.826264829808300405e-12 -2.089674570535104969e-12 1.761411546133406780e-12
1.560000000000000000e+03 1.521136474609375000e+01 -9.700132369995117188e+00 5.924747996897961055e-13 -2.033629774994549777e-12 -4.323464600653609269e-13 -2.241796429481440756e-13
1.561000000000000000e+03 6.628210544586181641e+00 -1.474597835540771484e+01 1.785430744222216148e-12 -7.790242409488890019e-12 -1.801443651368306309e-12 2.890316241552226550e-12
1.562000000000000000e+03 5.250441074371337891e+00 -1.221112918853759766e+01 1.421138814267086659e-12 -1.000802021008766196e-13 3.963175816169839383e-13 1.793437143585152604e-12
1.563000000000000000e+03 9.152885437011718750e+00 -5.481206893920898438e+00 5.028029208264950256e-12 -2.786232832993618125e-12 6.725389559494865388e-13 1.941555857060128787e-12
1.564000000000000000e+03 7.024950981140136719e+00 -1.026348114013671875e+01 1.585270326467935753e-12 -1.425142013948554887e-12 4.803849782157240678e-14 3.522823038056704936e-13
1.565000000000000000e+03 1.182266521453857422e+01 -8.473353385925292969e+00 -2.882309733769072846e-13 -3.234592064679797652e-12 -1.056846884311957169e-12 -1.124901495737351542e-12
1.566000000000000000e+03 6.430629253387451172e+00 -1.028400516510009766e+01 -2.634110811416956466e-12 -2.730187820612628435e-12 -1.609289632976962370e-12 -4.643721388322696875e-13
1.567000000000000000e+03 7.239614009857177734e+00 -9.738812446594238281e+00 9.187362242507601806e-13 -2.980388288595370305e-12 -6.184956518294482120e-13 -4.803849375581425996e-13
1.568000000000000000e+03 6.897932052612304688e+00 -8.484312057495117188e+00 -5.364298957290236647e-13 -2.105687369260977881e-12 -7.926351632339678766e-13 9.207378783016029189e-13
1.569000000000000000e+03 6.953117847442626953e+00 -9.018725395202636719e+00 2.281828588926448909e-12 -4.923945799706341830e-12 -7.926351632339678766e-13 1.857488555329078750e-12
1.570000000000000000e+03 7.552425861358642578e+00 -9.111245155334472656e+00 2.530027402858348040e-12 -9.287442776645393749e-13 4.803849375581425996e-13 1.329065113173100166e-12
1.571000000000000000e+03 9.152164459228515625e+00 -8.499919891357421875e+00 1.569257527742062841e-12 -3.170540652935871506e-12 -4.803849375581425996e-13 1.921539912862896271e-13
1.572000000000000000e+03 5.623451995849609375e+01 -2.959057044982910156e+01 -3.362694779747432694e-13 -7.846287638710314205e-13 -3.362694779747432694e-13 6.084875984156690176e-13
1.573000000000000000e+03 5.565113830566406250e+01 -2.877158546447753906e+01 -9.807859548387892756e-14 1.479185372278701838e-12 4.143320343936995886e-13 8.006416168070129569e-13
1.574000000000000000e+03 5.578096771240234375e+01 -2.943754768371582031e+01 -1.921539750232570398e-12 6.405133042876320904e-13 -3.843079825725792542e-13 6.245004513516505540e-13
1.575000000000000000e+03 5.624991607666015625e+01 -2.877285385131835938e+01 8.286640687873991773e-13 -6.285036510331187820e-13 6.004811719476782494e-14 5.764619467538145692e-13
1.576000000000000000e+03 5.513600158691406250e+01 -2.821121597290039062e+01 -1.847480501915299556e-12 -8.947169719518421882e-13 -8.226592692651968353e-13 1.425142013948554887e-12
1.577000000000000000e+03 5.471333312988281250e+01 -2.882779884338378906e+01 -1.615294486709273336e-12 1.355085965312752272e-12 -7.806255641895631925e-14 -4.323464600653609269e-13
1.578000000000000000e+03 5.527025222778320312e+01 -2.918111991882324219e+01 -5.996805482744171911e-12 -3.282630515067525012e-13 -1.897520552143761030e-12 -2.321860694161348437e-13
1.579000000000000000e+03 4.673719406127929688e+01 -2.176454162597656250e+01 -9.927955809882482718e-13 -6.084875984156690176e-13 -4.803849375581425996e-13 -1.297039407301137093e-12
1.580000000000000000e+03 4.693410110473632812e+01 -2.092955207824707031e+01 5.784635465945486832e-13 -3.582871304329271478e-13 6.605293026949732305e-14 1.921539912862896271e-13
1.581000000000000000e+03 4.665743255615234375e+01 -2.123445320129394531e+01 -1.136911094781756226e-12 3.362694779747432694e-13 -2.401924687790712998e-13 -7.205774605473225236e-13
1.582000000000000000e+03 4.753924942016601562e+01 -2.156368255615234375e+01 3.562855034871387216e-13 -8.767025733852351621e-13 -1.561251128379126385e-13 -1.008808379714121184e-12
1.583000000000000000e+03 4.714856719970703125e+01 -2.170263862609863281e+01 3.507810903725927520e-13 -2.597581654981140353e-12 -6.740401422775099682e-13 -1.585270326467935753e-12
1.584000000000000000e+03 7.206779479980468750e+01 -2.797376441955566406e+01 -1.373100309669250674e-12 2.121700303512122354e-13 -3.482791041242022656e-13 -4.803849782157240678e-14
1.585000000000000000e+03 7.163449096679687500e+01 -2.849675369262695312e+01 3.602887302736612618e-13 8.406736678318038614e-13 3.602887302736612618e-13 1.473180518546390871e-12
1.586000000000000000e+03 7.278516387939453125e+01 -2.773463439941406250e+01 -2.221780485284208240e-12 -6.004811719476782494e-14 -6.845485549938912229e-13 7.205774334422682115e-14
1.587000000000000000e+03 7.154833221435546875e+01 -2.768790435791015625e+01 2.942358000041639388e-13 6.865501548346253369e-13 2.942358000041639388e-13 4.323464600653609269e-13
1.588000000000000000e+03 7.119051361083984375e+01 -2.841368675231933594e+01 2.343377878896713007e-12 3.437754909300233530e-13 8.061460028165046143e-13 -5.444362950919601207e-13
1.589000000000000000e+03 7.284385681152343750e+01 -2.847771072387695312e+01 -2.914335439641035919e-12 3.202566521438160452e-14 -8.646929201307218538e-13 1.569257527742062841e-12
1.590000000000000000e+03 7.219528198242187500e+01 -2.851841163635253906e+01 -3.466778079885823871e-12 -1.257007302066237564e-12 -1.417135614585618431e-12 1.329065113173100166e-12
1.591000000000000000e+03 7.886897277832031250e+01 -2.760441207885742188e+01 1.361090710624845990e-12 -2.401924687790712998e-13 3.362694779747432694e-13 -3.202566521438160452e-13
1.592000000000000000e+03 7.737269592285156250e+01 -2.844452857971191406e+01 -7.205774334422682115e-14 -1.681347389873716347e-13 -7.205774334422682115e-14 8.807057595141762341e-14
1.593000000000000000e+03 7.662137603759765625e+01 -2.849273109436035156e+01 1.184949599379592211e-12 1.056846884311957169e-12 6.725389559494865388e-13 1.337071512536036622e-12
1.594000000000000000e+03 7.962478637695312500e+01 -2.830734443664550781e+01 1.353084311261909534e-12 1.449161320457581503e-12 8.406736678318038614e-13 -8.006416303595401129e-14
1.595000000000000000e+03 7.887425231933593750e+01 -2.835246086120605469e+01 1.513212623781290400e-12 -1.593276834251089458e-12 -2.401924891078620339e-14 1.136911094781756226e-12
1.596000000000000000e+03 7.812364959716796875e+01 -2.839767646789550781e+01 2.938354637729845287e-12 2.401924891078620339e-14 8.887121724296398462e-13 6.084875984156690176e-13
1.597000000000000000e+03 7.736037445068359375e+01 -2.770089721679687500e+01 3.154527854209998594e-12 5.284234421559785844e-13 1.104885388909793154e-12 9.127314789386664629e-13
1.598000000000000000e+03 7.962302398681640625e+01 -2.755708694458007812e+01 8.967185717925763022e-13 3.843079825725792542e-13 3.843079825725792542e-13 -3.362694779747432694e-13
1.599000000000000000e+03 7.811484527587890625e+01 -2.765183639526367188e+01 1.825462957877332926e-12 -8.646929201307218538e-13 2.882309733769072846e-13 -6.405133042876320904e-14
1.600000000000000000e+03 7.660552978515625000e+01 -2.775131034851074219e+01 -9.607699564314481355e-14 -2.241796429481440756e-13 -9.607699564314481355e-14 3.843079825725792542e-13
1.601000000000000000e+03 4.491400909423828125e+01 -2.222034454345703125e+01 -3.086473351204821469e-12 -2.077664863070483037e-12 -1.549241529334721701e-12 -5.764619467538145692e-13
1.602000000000000000e+03 4.452917098999023438e+01 -2.156016921997070312e+01 -1.583268780837310263e-12 -2.782229470681824024e-13 -5.584474939770989188e-13 -5.764619467538145692e-13
1.603000000000000000e+03 4.410782623291015625e+01 -2.243793106079101562e+01 -1.665334536937734811e-12 3.843079825725792542e-13 -3.843079825725792542e-13 -7.205774605473225236e-13
1.604000000000000000e+03 4.382575607299804688e+01 -2.174868583679199219e+01 -6.485197036505685464e-13 -1.513212623781290400e-12 -6.485197036505685464e-13 3.843079825725792542e-13
1.605000000000000000e+03 4.570773315429687500e+01 -2.198512077331542969e+01 1.581267126786467525e-13 -1.339073058166662111e-12 -3.542839036464046076e-13 -2.049642573720422689e-12
1.606000000000000000e+03 4.522012329101562500e+01 -2.135401535034179688e+01 -2.818258430445363949e-12 2.562053217150528361e-13 -7.686159651451585084e-13 -1.281026608575264181e-13
1.607000000000000000e+03 4.186779403686523438e+01 -2.332486534118652344e+01 -9.607698751162851991e-13 -2.241796592111766628e-12 -9.607698751162851991e-13 9.607699564314481355e-14
1.608000000000000000e+03 4.206417465209960938e+01 -2.236606407165527344e+01 1.733389039942911936e-12 6.285036510331187820e-13 7.085678072928092153e-13 4.803849782157240678e-14
1.609000000000000000e+03 4.330948257446289062e+01 -2.268812370300292969e+01 -7.025630077706068732e-13 -1.639313684798082704e-12 -7.025630077706068732e-13 -1.249000902703301108e-12
1.610000000000000000e+03 4.299989700317382812e+01 -2.201384353637695312e+01 -5.484394947734283488e-13 4.283432603838926989e-13 -3.602887167211341057e-14 4.483592858962881511e-13
1.611000000000000000e+03 4.218878173828125000e+01 -2.290788841247558594e+01 2.546040201584220952e-12 8.166544155328858690e-13 1.008808379714121184e-12 -1.653324937893330127e-12
1.612000000000000000e+03 4.271671676635742188e+01 -2.300851821899414062e+01 2.642117210779892922e-13 3.819060519216765925e-12 1.224981704614491740e-12 -1.793437143585152604e-12
1.613000000000000000e+03 4.226423263549804688e+01 -2.327304267883300781e+01 -2.546040201584220952e-12 -8.166544155328858690e-13 -1.008808379714121184e-12 -9.047250253656213825e-13
1.614000000000000000e+03 1.605741500854492188e+01 -3.611289262771606445e+00 1.232988103977428196e-12 5.284234421559785844e-13 5.284234421559785844e-13 -4.563657394693332314e-13
1.615000000000000000e+03 1.562254238128662109e+01 -4.210125446319580078e+00 -2.558049909048842885e-12 -8.446768675132720894e-13 -1.020818087178743117e-12 9.447570763904122870e-13
1.616000000000000000e+03 1.505074691772460938e+01 -3.785051584243774414e+00 2.173741872266155006e-12 -5.204170427930421283e-14 6.365100503960552381e-13 6.565261030135050024e-13
1.617000000000000000e+03 1.676181221008300781e+01 -5.065579891204833984e+00 1.586271153493357122e-12 2.852285736158061136e-13 5.614499208432544020e-13 8.326672684688674053e-13
1.618000000000000000e+03 1.619318008422851562e+01 -4.636556148529052734e+00 1.472179799941186751e-12 1.901523745048965680e-14 4.473584859759210941e-13 -6.725389559494865388e-13
1.619000000000000000e+03 1.723610115051269531e+01 -4.496263980865478516e+00 -4.223384337566360447e-13 7.225790603880566376e-13 9.007218256841531545e-14 -5.764619467538145692e-13
1.620000000000000000e+03 1.546591091156005859e+01 -3.171455383300781250e+00 5.364298957290236647e-13 1.841475648182988589e-13 2.161732300326804634e-13 8.006416303595401129e-14
1.621000000000000000e+03 1.664776039123535156e+01 -4.052479743957519531e+00 3.362694779747432694e-13 -4.963977904941241359e-13 -4.803849782157240678e-14 -2.181748434259417335e-13
1.622000000000000000e+03 1.831977081298828125e+01 -5.492505550384521484e+00 2.391916688587042428e-13 3.312654512678536722e-13 1.711371387484728057e-13 -5.942261656691205651e-13
1.623000000000000000e+03 1.780974006652832031e+01 -6.028855800628662109e+00 2.185564012754936947e-12 -2.445709887594679083e-14 6.483320282545113056e-13 -4.683753385137379155e-13
1.624000000000000000e+03 1.730055999755859375e+01 -5.529824733734130859e+00 1.380105990426983009e-12 1.512211796755869031e-12 8.676953469968773369e-13 -1.200962343895356499e-13
1.625000000000000000e+03 1.831691551208496094e+01 -6.530111789703369141e+00 2.271320067789850405e-12 1.756407519426517183e-13 7.340882459197506371e-13 1.064853283674893625e-12
1.626000000000000000e+03 1.882190132141113281e+01 -7.033396244049072266e+00 6.835477821785784780e-13 -1.130906281707026728e-13 1.711371387484728057e-13 -1.297039407301137093e-12
1.627000000000000000e+03 1.936644935607910156e+01 -6.531159877777099609e+00 4.133312344733325316e-13 -7.435958858208191469e-13 -9.907939540424598457e-14 -2.201764432666758475e-13
1.628000000000000000e+03 1.779333305358886719e+01 -4.976417064666748047e+00 1.301042606982605321e-12 4.203368339159019307e-13 5.164138431115739003e-13 -1.261010474642651480e-13
1.629000000000000000e+03 1.884420585632324219e+01 -6.010818481445312500e+00 9.607699564314481355e-14 -9.607699564314481355e-14 0.000000000000000000e+00 -1.201337748897579605e-12
1.630000000000000000e+03 2.031454658508300781e+01 -7.659852027893066406e+00 -1.985591161976496544e-12 1.345077911898973078e-12 -1.921539912862896271e-13 7.906335633932337625e-13
1.631000000000000000e+03 2.077073287963867188e+01 -8.240385055541992188e+00 -1.441154921094645047e-12 -1.601283260719080226e-13 -4.803849375581425996e-13 -1.130906241049445260e-12
1.632000000000000000e+03 1.929654693603515625e+01 -7.565644741058349609e+00 2.278826216270402050e-12 1.931547912066566841e-13 7.415942859800850329e-13 -5.124106434301056723e-13
1.633000000000000000e+03 2.062350273132324219e+01 -9.254287719726562500e+00 -2.100683342554088284e-12 1.930547085041145472e-12 -5.104090097080536681e-14 -2.337873384467004101e-12
1.634000000000000000e+03 2.018299865722656250e+01 -8.690117835998535156e+00 -6.945566084076704172e-13 1.795438797635995343e-12 3.302646513474866152e-13 -7.045646076113409872e-13
1.635000000000000000e+03 1.974063491821289062e+01 -8.127175331115722656e+00 -9.027234255248872685e-13 -3.983192085627723644e-13 -3.903127820947815962e-13 -7.686159651451585084e-13
1.636000000000000000e+03 2.122505760192871094e+01 -8.822144508361816406e+00 6.004811990527325616e-13 1.401122815859745518e-12 6.004811990527325616e-13 2.722181475459800604e-13
1.637000000000000000e+03 1.985663604736328125e+01 -7.080731868743896484e+00 1.969578363250623632e-12 1.120898214740720378e-13 6.245004513516505540e-13 -1.761411546133406780e-12
1.638000000000000000e+03 2.203341293334960938e+01 -1.005728912353515625e+01 1.537231930290317017e-12 2.305847787015258277e-12 1.152923893507629138e-12 -1.048840484949020713e-12
1.639000000000000000e+03 2.140859222412109375e+01 -1.045394611358642578e+01 -9.387523310783185693e-13 -4.823865916089853378e-13 -4.263416605431585849e-13 -1.553244729016189929e-12
1.640000000000000000e+03 2.103163337707519531e+01 -9.842617988586425781e+00 -5.544442942956306908e-13 4.143320343936995886e-13 -4.203368474684290867e-14 -2.017616759428242368e-12
1.641000000000000000e+03 2.178438568115234375e+01 -1.106581783294677734e+01 1.637312030747239966e-12 4.043240080849747065e-13 6.124908523072458699e-13 -1.617296032339898826e-12
1.642000000000000000e+03 2.215780448913574219e+01 -1.167914867401123047e+01 3.086473351204821469e-12 2.077664863070483037e-12 1.549241529334721701e-12 -8.967185717925763022e-13
1.643000000000000000e+03 2.280443191528320312e+01 -1.131808185577392578e+01 -8.086480161699494129e-13 1.529225422507163312e-12 2.161732300326804634e-13 -2.065655372446295601e-12
1.644000000000000000e+03 2.164555168151855469e+01 -9.428166389465332031e+00 -4.243400607024244708e-13 -1.361090737729900302e-13 -1.681347389873716347e-13 -2.033629774994549777e-12
1.645000000000000000e+03 2.242011070251464844e+01 -1.068695640563964844e+01 -1.761411519028352468e-13 1.297039407301137093e-12 3.362694779747432694e-13 -9.767827822623753597e-13
1.646000000000000000e+03 2.317627334594726562e+01 -1.198854827880859375e+01 1.289033007938200637e-12 2.153725982279031115e-12 1.032827686223147801e-12 -9.847891816253118158e-13
1.647000000000000000e+03 2.249586677551269531e+01 -1.228262519836425781e+01 -3.362694779747432694e-13 -7.846287638710314205e-13 -3.362694779747432694e-13 -1.168936692233502050e-12
1.648000000000000000e+03 2.472507476806640625e+01 -1.492280006408691406e+01 -2.033629774994549777e-12 -1.329065113173100166e-12 -1.008808379714121184e-12 6.245004513516505540e-13
1.649000000000000000e+03 2.432830429077148438e+01 -1.420704555511474609e+01 5.204170427930421283e-14 1.829466049138583905e-12 5.644523477094098851e-13 -1.921539912862896271e-13
1.650000000000000000e+03 2.347621726989746094e+01 -1.372449684143066406e+01 2.577065080430762656e-12 2.597081187258321044e-12 1.552243901990768560e-12 -5.124106434301056723e-13
1.651000000000000000e+03 2.353110694885253906e+01 -1.271993827819824219e+01 2.381908689383371858e-13 2.263814136149733258e-12 7.506015123684428580e-13 -2.017616759428242368e-12
1.652000000000000000e+03 2.444098472595214844e+01 -1.518375492095947266e+01 1.721379440898507251e-12 6.004811990527325616e-13 6.965582082484045312e-13 -1.473180518546390871e-12
1.653000000000000000e+03 2.503612327575683594e+01 -1.553747558593750000e+01 1.745398747407533868e-12 6.565261030135050024e-13 7.205774605473225236e-13 6.725389559494865388e-13
1.654000000000000000e+03 2.393114471435546875e+01 -1.346158027648925781e+01 3.402726776562114974e-13 2.502005113508287693e-12 8.526833210863171697e-13 -1.473180518546390871e-12
1.655000000000000000e+03 2.295725822448730469e+01 -1.346156215667724609e+01 -1.265013701429174020e-12 4.643721388322696875e-13 -2.401924687790712998e-13 -7.846287638710314205e-13
1.656000000000000000e+03 2.310306739807128906e+01 -1.394699954986572266e+01 -3.202566467228051827e-12 -6.405133042876320904e-13 -1.152923893507629138e-12 1.441154866884536423e-13
1.657000000000000000e+03 2.333634757995605469e+01 -1.442708492279052734e+01 -3.759012198734090759e-12 1.477183718227859099e-12 -6.845485549938912229e-13 1.825462957877332926e-12
1.658000000000000000e+03 2.279407119750976562e+01 -1.289781570434570312e+01 3.963175816169839383e-13 9.247410779830711469e-13 3.963175816169839383e-13 -1.729385840261443708e-12
1.659000000000000000e+03 2.378209495544433594e+01 -1.479918479919433594e+01 -2.974383543283276587e-12 -1.080866150163402317e-13 -9.247410779830711469e-13 1.521219023144226856e-12
1.660000000000000000e+03 2.380115509033203125e+01 -1.430604076385498047e+01 1.208968797468401579e-12 1.112891788272729610e-12 6.965582082484045312e-13 2.674143025072073243e-12
1.661000000000000000e+03 1.356510353088378906e+01 -2.044676303863525391e+00 1.673340936300671267e-12 4.883913911311876799e-13 6.485197036505685464e-13 2.802245740139708285e-13
1.662000000000000000e+03 1.321007442474365234e+01 -2.694024085998535156e+00 1.761411519028352468e-13 -1.297039407301137093e-12 -3.362694779747432694e-13 1.152923893507629138e-12
1.663000000000000000e+03 1.258673477172851562e+01 -2.342205762863159180e+00 3.062454261536229350e-13 7.145726068150115573e-13 3.062454261536229350e-13 2.562053217150528361e-13
1.664000000000000000e+03 1.420777034759521484e+01 -2.407426834106445312e+00 -1.921539912862896271e-13 -4.483592858962881511e-13 -1.921539912862896271e-13 5.084074437486374443e-13
1.665000000000000000e+03 1.383262920379638672e+01 -3.045426130294799805e+00 -1.132907895100287998e-12 7.726191648266267364e-13 -1.080866150163402317e-13 4.483592858962881511e-13
1.666000000000000000e+03 1.445424365997314453e+01 -3.396085023880004883e+00 -6.064859985749349036e-13 -1.415134068954992941e-12 -6.064859985749349036e-13 8.006416303595401129e-14
1.667000000000000000e+03 1.484949779510498047e+01 -2.769434452056884766e+00 -1.505206224418353944e-12 -9.607699564314481355e-14 -4.803849375581425996e-13 3.442758773376797254e-13
1.668000000000000000e+03 1.292164993286132812e+01 -1.681509137153625488e+00 -6.885517546753594509e-13 -2.033629774994549777e-12 -8.166544155328858690e-13 -3.282630515067525012e-13
1.669000000000000000e+03 7.509584808349609375e+01 -2.776388549804687500e+01 -1.200962398105465123e-12 -2.401924687790712998e-13 -4.323464600653609269e-13 4.163336342344337027e-13
1.670000000000000000e+03 7.434091949462890625e+01 -2.775419616699218750e+01 -8.726993737037669341e-13 -3.282630515067525012e-13 -3.602887302736612618e-13 -9.607699564314481355e-14
1.671000000000000000e+03 7.585069274902343750e+01 -2.777251052856445312e+01 -2.065655372446295601e-12 3.042437992078345088e-13 -5.284234421559785844e-13 3.522823038056704936e-13
1.672000000000000000e+03 7.358595275878906250e+01 -2.774346733093261719e+01 -2.049642573720422689e-12 -5.124106434301056723e-13 -7.686159651451585084e-13 4.803849782157240678e-14
1.673000000000000000e+03 7.357056427001953125e+01 -2.848333168029785156e+01 -1.168936692233502050e-12 6.885517546753594509e-13 -1.441154866884536423e-13 2.866297043463417182e-12
1.674000000000000000e+03 7.586358642578125000e+01 -2.851275062561035156e+01 -4.803849375581425996e-13 -1.120898296055883314e-12 -4.803849375581425996e-13 1.681347335663607723e-12
1.675000000000000000e+03 7.509931945800781250e+01 -2.850399208068847656e+01 3.202566521438160452e-14 9.287442776645393749e-13 2.882309733769072846e-13 2.065655372446295601e-12
1.676000000000000000e+03 7.433495330810546875e+01 -2.849417877197265625e+01 -2.417937594936803158e-12 3.362694779747432694e-13 -6.245004513516505540e-13 3.074463860580634034e-12
1.677000000000000000e+03 1.092935180664062500e+01 -7.962761521339416504e-01 1.240994503340364652e-12 -5.204170427930421283e-13 2.161732300326804634e-13 -8.086480161699494129e-13
1.678000000000000000e+03 1.134075260162353516e+01 -1.768451571464538574e+00 -8.566865207677853977e-13 -1.144917494144692682e-12 -6.004811990527325616e-13 1.040834085586084257e-13
1.679000000000000000e+03 1.008855438232421875e+01 -1.254853606224060059e+00 -5.764619467538145692e-13 -1.345077911898973078e-12 -5.764619467538145692e-13 -1.441154866884536423e-13
1.680000000000000000e+03 1.196391296386718750e+01 -2.033531188964843750e+00 -8.086480161699494129e-13 -1.032827686223147801e-12 -5.524426944548965768e-13 1.040834085586084257e-13
1.681000000000000000e+03 1.226660156250000000e+01 -1.357956767082214355e+00 1.232988103977428196e-12 1.168936692233502050e-12 7.205774605473225236e-13 1.249000902703301108e-12
1.682000000000000000e+03 1.159910106658935547e+01 -1.074469685554504395e+00 -1.136911094781756226e-12 -9.447570763904122870e-13 -6.245004513516505540e-13 8.166544155328858690e-13
1.683000000000000000e+03 1.025822067260742188e+01 -5.240572094917297363e-01 -1.961571963887687176e-12 1.401122815859745518e-12 -1.681347389873716347e-13 -3.362694779747432694e-13
1.684000000000000000e+03 1.071534442901611328e+01 -1.508665204048156738e+00 1.577263927104999297e-12 2.642117210779892922e-13 5.524426944548965768e-13 1.080866190820983785e-12
1.685000000000000000e+03 8.682801246643066406e+00 -3.869477510452270508e-01 1.417135614585618431e-12 3.306649875786660253e-12 1.417135614585618431e-12 2.882309733769072846e-13
1.686000000000000000e+03 9.509228706359863281e+00 -3.886404335498809814e-01 8.006416303595401129e-15 -1.689353735026544179e-12 -5.044041898570605920e-13 -1.361090737729900302e-13
1.687000000000000000e+03 7.855910301208496094e+00 -3.864668607711791992e-01 6.605293026949732305e-13 -1.020818087178743117e-12 -1.080866150163402317e-13 -1.417135614585618431e-12
1.688000000000000000e+03 7.028375625610351562e+00 -3.863845765590667725e-01 -9.647731832179706757e-13 1.164933492552033822e-12 6.004811719476782494e-14 0.000000000000000000e+00
1.689000000000000000e+03 6.201150894165039062e+00 -3.866374790668487549e-01 1.056846884311957169e-12 -9.607699564314481355e-14 2.882309733769072846e-13 -3.362694779747432694e-13
1.690000000000000000e+03 5.374573707580566406e+00 -3.869005739688873291e-01 -6.805453553124229948e-13 1.200962343895356499e-13 -1.681347389873716347e-13 -2.001604042017532392e-13
1.691000000000000000e+03 4.547731399536132812e+00 -3.869262635707855225e-01 -3.202566521438160452e-13 -1.601283233614025914e-12 -5.764619467538145692e-13 9.447570763904122870e-13
1.692000000000000000e+03 3.720758199691772461e+00 -3.867077231407165527e-01 5.764619467538145692e-13 1.345077911898973078e-12 5.764619467538145692e-13 9.447570763904122870e-13
1.693000000000000000e+03 2.893651485443115234e+00 -3.863704204559326172e-01 -1.953565564524750719e-12 -2.882309733769072846e-13 -6.725389559494865388e-13 1.136911094781756226e-12
1.694000000000000000e+03 2.066607236862182617e+00 -3.863114714622497559e-01 1.120898296055883314e-12 -8.006416168070129569e-13 9.607699564314481355e-14 1.160930292870565594e-12
1.695000000000000000e+03 1.239985346794128418e+00 -3.869007229804992676e-01 9.287442776645393749e-13 1.313052206027010005e-12 6.725389559494865388e-13 6.885517546753594509e-13
1.696000000000000000e+03 4.134095907211303711e-01 -3.886900842189788818e-01 2.401924891078620339e-14 5.604491073703601889e-14 2.401924891078620339e-14 3.442758773376797254e-13
1.697000000000000000e+03 4.072639346122741699e-01 -1.128690123558044434e+00 -6.885517546753594509e-13 -7.526031122091769721e-13 -4.323464600653609269e-13 -4.003208151797700565e-14
1.698000000000000000e+03 9.367878913879394531e+00 -1.128640413284301758e+00 2.409931195573866702e-12 1.353084311261909534e-12 1.128904695418819770e-12 -5.204170427930421283e-13
1.699000000000000000e+03 8.553742408752441406e+00 -1.126947760581970215e+00 -1.729385840261443708e-12 -1.473180518546390871e-12 -9.607698751162851991e-13 -5.924747996897961055e-13
1.700000000000000000e+03 7.739142894744873047e+00 -1.126466870307922363e+00 -1.216975196831338035e-12 5.764619467538145692e-13 -1.921539912862896271e-13 2.401924796210930246e-12
1.701000000000000000e+03 6.923899650573730469e+00 -1.126384615898132324e+00 1.489193425692481032e-12 -1.649321738211861899e-12 -4.803849782157240678e-14 5.444362950919601207e-13
1.702000000000000000e+03 6.108965873718261719e+00 -1.126637458801269531e+00 1.228984904295959968e-12 -5.484394947734283488e-13 2.041636038832214672e-13 1.609289632976962370e-12
1.703000000000000000e+03 5.294679641723632812e+00 -1.126900553703308105e+00 2.682149478645118323e-13 -2.281828697346666157e-13 1.200962445539310169e-14 1.769417945496343236e-12
1.704000000000000000e+03 4.480128765106201172e+00 -1.126926302909851074e+00 -9.007218256841531545e-13 4.603689391508014594e-13 -1.321058605389946461e-13 2.097680969898041425e-12
1.705000000000000000e+03 3.665447235107421875e+00 -1.126707673072814941e+00 -1.080866190820983785e-12 4.003208151797700565e-14 -3.122502256758252770e-13 7.125710069742774433e-13
1.706000000000000000e+03 2.850631713867187500e+00 -1.126370429992675781e+00 -1.200962343895356499e-13 -2.802245740139708285e-13 -1.200962343895356499e-13 1.184949599379592211e-12
1.707000000000000000e+03 2.035878896713256836e+00 -1.126311421394348145e+00 2.802245740139708285e-13 -2.001604042017532392e-13 2.401924891078620339e-14 1.537231930290317017e-12
1.708000000000000000e+03 1.221548438072204590e+00 -1.126900672912597656e+00 2.401924687790712998e-13 5.604491480279416571e-13 2.401924687790712998e-13 -1.281026608575264181e-12
1.709000000000000000e+03 4.910970306396484375e+01 -2.056059837341308594e+01 -6.757733207653909835e-14 1.940741539913429237e-13 3.794904792969386320e-14 -2.424705842195024746e-14
1.710000000000000000e+03 4.877275085449218750e+01 -2.082789993286132812e+01 -4.205809284825098859e-14 2.772605143521941762e-14 -4.299612085096292391e-15 -1.255740303407471004e-13
1.711000000000000000e+03 4.795706176757812500e+01 -2.143743896484375000e+01 -1.171597270154672854e-13 -2.733583521488062301e-14 -4.334866612800553076e-14 6.298822276479612570e-14
1.712000000000000000e+03 4.836200714111328125e+01 -2.124009323120117188e+01 -2.434136876436343577e-13 -1.958220505237154296e-13 -1.317707200949522206e-13 -1.466600278721141848e-13
1.713000000000000000e+03 4.754847717285156250e+01 -2.076421165466308594e+01 -2.063742074096246853e-14 -7.747102926617538410e-14 -2.943253483273476634e-14 3.506504982209168730e-14
1.714000000000000000e+03 4.820191192626953125e+01 -2.059998703002929688e+01 2.132335242622032667e-13 2.286386412229252096e-13 1.325616455797803961e-13 4.269828034978578879e-14
1.715000000000000000e+03 4.953689575195312500e+01 -2.133200836181640625e+01 -1.691177173345284612e-13 4.765323877685412324e-13 9.222439164343482210e-14 1.624343427776217541e-13
1.716000000000000000e+03 4.777161788940429688e+01 -1.966996002197265625e+01 -2.282432326906197462e-13 5.121105294924981066e-15 -6.693663635523594557e-14 1.968844331274796633e-13
1.717000000000000000e+03 4.675494003295898438e+01 -1.971719932556152344e+01 -1.075993203499166218e-13 -2.291177772680008662e-13 -1.010151299630016042e-13 7.874096204707123348e-15
1.718000000000000000e+03 4.607977676391601562e+01 -1.967224121093750000e+01 1.323010982452049733e-13 1.939533196592194142e-13 9.787632401607460064e-14 -3.159389059303519855e-15
1.719000000000000000e+03 4.731929779052734375e+01 -1.922611236572265625e+01 -3.085052829518430961e-13 1.079759315270566178e-13 -6.015880746031501691e-14 1.036861026725011126e-13
1.720000000000000000e+03 4.741930389404296875e+01 -2.011728477478027344e+01 1.095653422657672134e-15 1.834733672498659041e-13 5.537070300420769697e-14 -2.326089523091174477e-14
1.721000000000000000e+03 4.620818710327148438e+01 -1.937829589843750000e+01 -1.691955088404042962e-13 4.307480750125741720e-13 7.846577120690367835e-14 -2.580717113804826407e-14
1.722000000000000000e+03 4.807820129394531250e+01 -2.004335975646972656e+01 -1.866313500227187450e-13 1.151703413898325784e-14 -5.253429459571405669e-14 3.756176413741846298e-14
1.723000000000000000e+03 4.635556030273437500e+01 -1.993334770202636719e+01 7.611614246880171741e-14 -5.888069572928048001e-14 5.170635546515676279e-15 -5.403770015005929239e-14
1.724000000000000000e+03 4.636125564575195312e+01 -2.024678802490234375e+01 -2.802679895347152950e-14 -5.490299851578818446e-14 -2.487893991840427199e-14 2.523454806658415039e-14
1.725000000000000000e+03 4.817893218994140625e+01 -2.182819747924804688e+01 -1.034881490398487092e-12 6.545021686080176870e-13 -1.141137965371408214e-13 -1.069402487570425553e-12
1.726000000000000000e+03 5.348172760009765625e+01 -2.648440933227539062e+01 3.407502797246196764e-15 -9.004154030451544388e-14 -2.599021156981812936e-14 -6.577913533962684300e-14
1.727000000000000000e+03 5.374711227416992188e+01 -2.607730102539062500e+01 -5.951966265633828676e-15 2.719548490483919556e-13 7.980086453836590654e-14 -2.914632165870370941e-16
1.728000000000000000e+03 5.524308013916015625e+01 -2.638519096374511719e+01 1.632224764418557794e-13 -2.154940925680991215e-14 4.250191778382150787e-14 2.833255963622196595e-15
1.729000000000000000e+03 5.437007904052734375e+01 -2.645073509216308594e+01 -4.144874751039161198e-14 2.798720016318739096e-14 -4.038463780644792681e-15 2.460877875987751290e-14
1.730000000000000000e+03 5.341596984863281250e+01 -2.528902244567871094e+01 -9.735138551140911506e-15 2.474580056924940985e-13 7.131686056592242973e-14 -4.292397736077938064e-14
1.731000000000000000e+03 5.284820556640625000e+01 -2.609976387023925781e+01 -4.798057093237557968e-14 -2.056310207017037622e-14 -2.056310207017037622e-14 -4.688874969852952282e-15
1.732000000000000000e+03 5.475671386718750000e+01 -2.724437713623046875e+01 3.285445307195204723e-14 1.055823790484418379e-13 4.153104861967862882e-14 -1.439767460798251769e-14
1.733000000000000000e+03 5.312985992431640625e+01 -2.569695854187011719e+01 7.579112745661076983e-15 1.633765144655116575e-13 5.128668621517604165e-14 -7.115392530818859251e-14
1.734000000000000000e+03 5.463103866577148438e+01 -2.602347183227539062e+01 4.620943181593041571e-14 1.570568897374738371e-13 6.097989409432902352e-14 7.393480901292381890e-14
1.735000000000000000e+03 5.402223205566406250e+01 -2.565818977355957031e+01 -1.123439618514344290e-14 1.324381007422256729e-13 3.636111187534443734e-14 -4.299560585493099329e-14
1.736000000000000000e+03 5.499788665771484375e+01 -2.681733131408691406e+01 7.488718342442163712e-16 -1.369319019067435916e-13 -4.085490965173056710e-14 9.324262350185637260e-15
1.737000000000000000e+03 5.411841964721679688e+01 -2.686602973937988281e+01 1.391529578197159278e-13 1.282634073821245502e-13 8.022490956055214339e-14 -2.258458855044012670e-14
1.738000000000000000e+03 5.203813171386718750e+01 -2.426428222656250000e+01 -9.271397668694780769e-14 6.016386509404307234e-15 -2.600927828146082366e-14 -3.680933799410888996e-14
1.739000000000000000e+03 5.123007202148437500e+01 -2.473521995544433594e+01 -9.651272972000315975e-14 -9.855128730229187339e-14 -5.851920239618307873e-14 2.420368864098493278e-14
1.740000000000000000e+03 5.277051544189453125e+01 -2.481789207458496094e+01 -5.317919837669916883e-14 -3.430477202217424582e-13 -1.188680772735983826e-13 7.595126919968456236e-14
1.741000000000000000e+03 5.071966934204101562e+01 -2.417706680297851562e+01 4.066190398321537338e-16 5.593323452513822291e-14 1.690195631566006329e-14 7.866825951514250237e-14
1.742000000000000000e+03 5.127515792846679688e+01 -2.367889785766601562e+01 -4.380049721899349768e-15 -2.649451296375671117e-13 -8.079755126674109666e-14 -4.589193676224519181e-14
1.743000000000000000e+03 5.167702102661132812e+01 -2.521205329895019531e+01 -2.675656632291235210e-14 -8.009352458603763436e-14 -3.205502676446522758e-14 -5.033434674378729767e-14
1.744000000000000000e+03 5.250744247436523438e+01 -2.524881744384765625e+01 5.290060246408365141e-14 -2.307926256790021613e-14 8.946401799448441133e-15 8.296085986150142366e-14
1.745000000000000000e+03 5.224353408813476562e+01 -2.566332435607910156e+01 1.108365108677331068e-13 -8.975148911832125931e-14 6.325506524823554244e-15 -3.477529340336314723e-15
1.746000000000000000e+03 5.184143829345703125e+01 -2.478932189941406250e+01 -1.173568891805337744e-13 4.120608612353041100e-14 -2.284524091710100901e-14 -1.776405797904601763e-14
1.747000000000000000e+03 4.921934127807617188e+01 -2.191368484497070312e+01 -2.154306870697994536e-13 1.821782606497776569e-13 -9.975728942446075720e-15 1.305504912074012536e-13
1.748000000000000000e+03 5.013296890258789062e+01 -2.360137176513671875e+01 -6.060568849075922970e-14 -2.089776648169644480e-13 -8.087500395943802989e-14 -5.109792661694631533e-14
1.749000000000000000e+03 4.976311492919921875e+01 -2.185415840148925781e+01 -8.008498649392931101e-14 -2.287636768384671004e-13 -9.265459628921349222e-14 -7.013536988318119086e-15
1.750000000000000000e+03 4.865880584716796875e+01 -2.216221427917480469e+01 -1.930886548741350683e-13 2.146288924581921109e-13 6.462069835261102443e-15 -2.356956589535247337e-13
1.751000000000000000e+03 5.066155242919921875e+01 -2.308164787292480469e+01 3.040189627823153273e-14 6.449920079368981485e-14 2.847032912157640427e-14 7.443880716906728368e-14
1.752000000000000000e+03 5.016918563842773438e+01 -2.249984169006347656e+01 7.515995746783243892e-14 -7.358766102982111645e-14 4.716902548923768233e-16 5.936403983403809592e-14
1.753000000000000000e+03 4.866309738159179688e+01 -2.188003921508789062e+01 -7.006379390507230798e-14 -4.875368229788346053e-13 -1.672801843875457162e-13 -1.467463032599897188e-13
1.754000000000000000e+03 4.962908172607421875e+01 -2.300637435913085938e+01 1.271805824852112812e-14 1.427034488840628335e-13 4.662644985278623089e-14 9.860760482888891731e-14
1.755000000000000000e+03 4.907735443115234375e+01 -2.248484230041503906e+01 4.211481695066271458e-14 -3.913947819816042395e-14 8.926009904759767480e-16 -4.222637118981610593e-15
1.756000000000000000e+03 4.839076614379882812e+01 -2.192771911621093750e+01 -1.815509277202503879e-13 -7.780753851546057254e-14 -7.780753851546057254e-14 4.662374002498137493e-13
1.757000000000000000e+03 4.837387466430664062e+01 -2.207074546813964844e+01 -1.244568413171637244e-13 -6.023500383374458256e-13 -2.180420693173937274e-13 2.810593825817303548e-13
1.758000000000000000e+03 4.702852249145507812e+01 -1.885269546508789062e+01 5.022643135817531079e-14 1.130275072754732824e-13 4.897618362297365135e-14 -1.082463129141496630e-14
1.759000000000000000e+03 4.635546875000000000e+01 -1.894985580444335938e+01 -3.417924580514930533e-13 -9.229631829318386826e-15 -1.053066257783973059e-13 1.017861467854375146e-13
1.760000000000000000e+03 4.601401519775390625e+01 -1.848427391052246094e+01 -7.534021285527173206e-14 5.921323408810894029e-14 -4.838094223071900610e-15 9.837440649411444138e-14
1.761000000000000000e+03 4.497450637817382812e+01 -1.915597724914550781e+01 -2.093065168884064575e-13 -3.642084734929024181e-13 -1.720544957591399471e-13 -2.177598548800275396e-14
1.762000000000000000e+03 4.534787368774414062e+01 -1.911184120178222656e+01 -5.169025336882945854e-14 1.608508248471252067e-13 3.274817415399415566e-14 -3.001872296744256818e-13
1.763000000000000000e+03 4.579761505126953125e+01 -1.900292205810546875e+01 -1.725587717420901113e-13 4.042361402751583344e-14 -3.964054562030638884e-14 -6.914909318972775609e-15
1.764000000000000000e+03 4.667251586914062500e+01 -1.860840415954589844e+01 -6.831454211998419512e-14 4.739827779397243201e-13 1.217004741340538265e-13 -7.072638373399608991e-14
1.765000000000000000e+03 4.537426376342773438e+01 -1.866733169555664062e+01 -9.328966771174687644e-14 2.345243953465886433e-13 4.237042438908975028e-14 -2.323749645396361307e-13
1.766000000000000000e+03 5.686125183105468750e+01 -2.730394744873046875e+01 -1.803538736541362986e-13 -2.602983204414571761e-13 -1.321956595839307580e-13 7.802327441899445382e-14
1.767000000000000000e+03 5.625476837158203125e+01 -2.793682479858398438e+01 -8.541336583324510290e-14 -3.660572821424790124e-14 -3.660572821424790124e-14 8.190056434691922460e-15
1.768000000000000000e+03 5.623906707763671875e+01 -2.724201202392578125e+01 -1.054210158838581046e-13 4.632146378166605849e-14 -1.772986495303125604e-14 2.868761678946965543e-14
1.769000000000000000e+03 5.547893524169921875e+01 -2.761970520019531250e+01 -6.890363659414061592e-14 -7.528107640302622583e-14 -4.325541457677641033e-14 6.271795149198622354e-14
1.770000000000000000e+03 5.726233673095703125e+01 -2.749815559387207031e+01 5.765453845813168013e-15 -4.092876211558849064e-13 -1.210566477789776219e-13 -1.156908634647110801e-13
1.771000000000000000e+03 5.590362167358398438e+01 -2.674106407165527344e+01 -6.280346793834101771e-14 -4.979124615866678538e-14 -3.377841355147598312e-14 7.976950399052676333e-14
1.772000000000000000e+03 5.683693313598632812e+01 -2.790980529785156250e+01 -7.217361745141120943e-14 1.978231895785262373e-13 3.769487367101358177e-14 -5.310799678715297234e-14
1.773000000000000000e+03 5.563033294677734375e+01 -2.714497184753417969e+01 2.769440120211231343e-14 -1.711347670562204937e-13 -4.303210958682586462e-14 4.649178347263405869e-15
1.774000000000000000e+03 4.438496398925781250e+01 -2.014632415771484375e+01 -1.451521737007299695e-13 -5.077033831866160918e-14 -5.877675462225701031e-14 -1.687004074948223169e-15
1.775000000000000000e+03 4.371070861816406250e+01 -2.099839210510253906e+01 -1.882764641891396251e-13 1.081198678357835410e-14 -5.323934110408601317e-14 1.918938573037924644e-14
1.776000000000000000e+03 4.346221542358398438e+01 -2.029964637756347656e+01 -2.276324202916957251e-13 -7.468127543241651067e-14 -9.069410803960731293e-14 4.095660442737791840e-14
1.777000000000000000e+03 4.466905975341796875e+01 -2.083499717712402344e+01 -2.053670953997346893e-13 -4.226351866675089053e-14 -7.428918049300070603e-14 -9.002636825036422485e-14
1.778000000000000000e+03 9.832606315612792969e+00 1.131396770477294922e+00 -1.862826028414116264e-14 -2.596137551897498286e-13 -8.347260328691458175e-14 1.110814592435518944e-13
1.779000000000000000e+03 8.916216850280761719e+00 3.932431936264038086e-01 -7.048106266368051043e-14 -2.132099699700060191e-13 -8.510730911247960107e-14 -4.677785868617383158e-14
1.780000000000000000e+03 6.686530590057373047e+00 1.133687853813171387e+00 -1.723837747351873728e-14 -2.818935677332407019e-13 -8.973958322321465286e-14 8.817946711898484724e-15
1.781000000000000000e+03 7.365533351898193359e+00 3.937827348709106445e-01 4.911690798276458630e-15 -2.724006729817179950e-13 -8.024669524795552400e-14 -4.209039529672747859e-14
1.782000000000000000e+03 5.113072872161865234e+00 1.133639335632324219e+00 3.593316372533725267e-14 -1.904793461631956730e-13 -4.636385269847845270e-14 -5.246018937722467246e-14
1.783000000000000000e+03 4.263494968414306641e+00 3.934068977832794189e-01 9.836189751154938987e-14 -3.595848408122952547e-15 2.842981722977512560e-14 -7.455763572717169496e-14
1.784000000000000000e+03 2.752517938613891602e+00 1.133095502853393555e+00 7.360723087903447981e-14 -1.420499324720700396e-14 1.782067027310870605e-14 -5.239225733485487757e-14
1.785000000000000000e+03 3.487796306610107422e+00 3.931239545345306396e-01 5.735514873369401689e-14 1.160826805773201853e-13 5.203134676042518725e-14 9.928285780037415104e-15
1.786000000000000000e+03 1.937440633773803711e+00 3.930502235889434814e-01 -9.190261737930006947e-15 -3.938683722974709728e-15 -3.938683722974709728e-15 1.795207049421626566e-14
1.787000000000000000e+03 2.712807416915893555e+00 3.930954933166503906e-01 4.203590736129650396e-14 -7.348651174339179692e-14 -9.435181314628587890e-15 -5.141120005842242380e-14
1.788000000000000000e+03 1.179242849349975586e+00 1.132586002349853516e+00 -5.813668231720303670e-14 -7.066667129934645075e-14 -3.864100608496484623e-14 8.907233301901507777e-15
1.789000000000000000e+03 1.162224054336547852e+00 3.925859630107879639e-01 6.296618042640972704e-15 2.698550619954450704e-15 2.698550619954450704e-15 -4.616021581356315184e-14
1.790000000000000000e+03 3.932089805603027344e-01 1.131153583526611328e+00 2.139157652555033484e-14 -1.738359754538051916e-13 -4.573332137254235152e-14 3.424581099045211595e-15
1.791000000000000000e+03 3.875360786914825439e-01 3.911535739898681641e-01 -4.095397184897785203e-14 -6.330264817108050002e-14 -3.127698634483068452e-14 4.316916629395518845e-14
1.792000000000000000e+03 3.538852453231811523e+00 1.133123993873596191e+00 -4.014922193941753911e-15 -1.720680940260751676e-15 -1.720680940260751676e-15 -7.026454346642865573e-16
1.793000000000000000e+03 4.325896739959716797e+00 1.133406877517700195e+00 -3.251665633258703225e-14 1.690680879800829373e-13 4.096542712255651919e-14 -4.212810520353924004e-14
1.794000000000000000e+03 5.039324760437011719e+00 3.936392962932586670e-01 -8.852195642087765104e-15 -4.954474601848862791e-14 -1.751908249817291791e-14 2.200721193007602189e-14
1.795000000000000000e+03 6.590091228485107422e+00 3.936878144741058350e-01 1.046811173578384227e-14 5.023728354429553289e-14 1.821161832991392837e-14 8.068454351905021693e-14
1.796000000000000000e+03 5.899841785430908203e+00 1.133722305297851562e+00 -4.034175252832844158e-15 6.689748988054564083e-14 1.885899544710502307e-14 1.026281585213804914e-13
1.797000000000000000e+03 8.140919685363769531e+00 3.937848508358001709e-01 -1.765449426731867388e-14 2.211885324421639099e-13 6.106021314651946530e-14 2.854070739509786958e-14
1.798000000000000000e+03 8.260050773620605469e+00 1.133784890174865723e+00 -1.167734122288835441e-13 -1.644231219276662270e-13 -8.435895889171221573e-14 1.335455726038381474e-13
1.799000000000000000e+03 9.046693801879882812e+00 1.133243203163146973e+00 -1.636783809142870923e-15 1.594268472663099012e-13 4.733701901597428541e-14 5.093681756224675838e-14
1.800000000000000000e+03 9.690783500671386719e+00 3.913968205451965332e-01 -1.487090751104216957e-13 5.064491306796398140e-14 -2.941924657985824088e-14 1.160288363869291239e-13
1.801000000000000000e+03 7.473318576812744141e+00 1.133782744407653809e+00 1.372001352182823999e-14 7.450642750331248898e-14 2.646793306987187122e-14 4.092973993042280101e-14
1.802000000000000000e+03 1.965805172920227051e+00 1.133050203323364258e+00 -4.547217772677206171e-14 -1.948807495856953037e-14 -1.948807495856953037e-14 -1.277636122034653612e-14
1.803000000000000000e+03 5.814747810363769531e+00 3.937222361564636230e-01 8.980101005254953472e-14 -5.301574812293340100e-14 1.103557891769801902e-14 1.374076921716775937e-14
1.804000000000000000e+03 1.136861705780029297e+01 6.672526597976684570e-01 6.189796938893543654e-14 3.652226074059251523e-15 1.966505910476652741e-14 1.431913601904720446e-14
1.805000000000000000e+03 1.043688488006591797e+01 2.462611943483352661e-01 -6.649651803584261112e-14 1.545052876871649827e-13 2.640263021777035368e-14 -1.779235269113257391e-15
1.806000000000000000e+03 1.187135696411132812e+01 -3.428127467632293701e-01 5.466337967127352093e-14 2.064309552289589345e-13 7.832830114769609442e-14 -7.429784733411701203e-14
1.807000000000000000e+03 1.258574008941650391e+01 -6.459255814552307129e-01 7.144862501119730869e-14 -1.066320087241522108e-13 -1.055501392804034447e-14 -5.297150081583473086e-15
1.808000000000000000e+03 1.288842964172363281e+01 2.964896708726882935e-02 -1.120029158936837466e-13 -2.250299513718054083e-15 -3.427596409282494816e-14 7.668633116757542223e-14
1.809000000000000000e+03 1.060655117034912109e+01 9.770575761795043945e-01 -1.308159987669157975e-13 -1.475658923397529798e-13 -8.351456868725334881e-14 -1.747969580493877184e-13
1.810000000000000000e+03 1.212970542907714844e+01 3.511690795421600342e-01 -1.522758224310923059e-14 -1.895298967682229607e-13 -6.142724268696012069e-14 -3.514643613579566950e-14
1.811000000000000000e+03 1.115460968017578125e+01 -4.513646289706230164e-02 -1.949311226350685169e-15 -3.210920570227704385e-13 -9.691241407462636293e-14 -5.960855452898788931e-14
1.812000000000000000e+03 1.460399055480957031e+01 -1.730789542198181152e+00 5.238226573420906584e-14 2.244954269952758458e-14 2.244954269952758458e-14 5.270361309373840231e-14
1.813000000000000000e+03 1.394003677368164062e+01 -1.356149435043334961e+00 -8.361696967662047338e-16 -1.376112087779143844e-13 -4.153421313476957089e-14 -6.184974272105056570e-14
1.814000000000000000e+03 1.327490711212158203e+01 -9.841976165771484375e-01 2.589569793949760002e-14 2.398528966586488398e-13 7.972457736300439524e-14 4.365325917583817716e-14
1.815000000000000000e+03 1.429506587982177734e+01 -7.068015336990356445e-01 3.686694639891754943e-14 5.011333213092612759e-14 2.609408322013992421e-14 2.207525069859717082e-14
1.816000000000000000e+03 1.497913169860839844e+01 -1.092790365219116211e+00 -6.968560385851862993e-14 -1.785558463238134941e-13 -7.447243776520506842e-14 -3.307994340690650903e-14
1.817000000000000000e+03 1.526644039154052734e+01 -2.107936620712280273e+00 -6.574958405416303497e-14 -2.798086198504967648e-13 -1.036674611713979399e-13 -8.186832627294672593e-15
1.818000000000000000e+03 1.566169452667236328e+01 -1.481285929679870605e+00 -7.925279864610858954e-15 -3.396548543655830525e-15 -3.396548543655830525e-15 1.567618376687590631e-13
1.819000000000000000e+03 1.360982322692871094e+01 -3.235010504722595215e-01 2.695746051514444352e-14 -1.600128585405383164e-13 -3.991662076287087746e-14 -1.180118557129322676e-13
1.820000000000000000e+03 1.695117187500000000e+01 -2.380243301391601562e+00 -2.056004258716489369e-14 1.406402748302610153e-14 -1.948804700648227098e-15 1.386267809528815564e-13
1.821000000000000000e+03 1.651630020141601562e+01 -2.979079723358154297e+00 -2.585280080291685323e-13 -2.938015228239748700e-13 -1.656988619664484519e-13 2.546128353997107602e-14
1.822000000000000000e+03 1.590384101867675781e+01 -2.523920059204101562e+00 -4.982381965768639676e-14 7.014883601297663973e-14 6.097504313664009815e-15 2.059201875855010133e-13
1.823000000000000000e+03 1.712716102600097656e+01 -3.436568260192871094e+00 -2.831432089928521273e-14 3.361624062339467478e-14 1.590575938408662297e-15 1.335621608970771756e-13
1.824000000000000000e+03 1.758174324035644531e+01 -2.852491855621337891e+00 -1.833013450226739227e-13 -1.471841447548208337e-13 -9.914564693324842692e-14 2.397815764844900277e-14
1.825000000000000000e+03 1.773609352111816406e+01 -3.896142244338989258e+00 -2.156979022477356622e-13 -1.324740420442435673e-13 -1.044515832875937689e-13 5.260379534310216654e-14
1.826000000000000000e+03 1.821038436889648438e+01 -3.326825857162475586e+00 -4.160044772311306815e-14 2.792218530228793988e-14 -4.103478641544243757e-15 1.112400102587507433e-13
1.827000000000000000e+03 1.631900405883789062e+01 -1.910323858261108398e+00 -1.338162436761991536e-13 -1.831649252843209341e-13 -9.509435610916688875e-14 4.964405216122472209e-14
1.828000000000000000e+03 1.885587120056152344e+01 -4.930348396301269531e+00 -1.435319284216404756e-13 -1.687424749626312281e-13 -9.368231830477607991e-14 1.526580714595292265e-14
1.829000000000000000e+03 1.831238174438476562e+01 -4.393686294555664062e+00 -4.473142708560744196e-14 -1.917061209213630213e-14 -1.917061209213630213e-14 1.047530118203354732e-13
1.830000000000000000e+03 1.939846801757812500e+01 -5.466702461242675781e+00 -4.478046351698988792e-14 3.032095787555005861e-13 7.752873592680592507e-14 1.588557268312942167e-14
1.831000000000000000e+03 1.994004440307617188e+01 -6.002428531646728516e+00 -8.548991050662257951e-14 -7.702804458728854109e-14 -4.875538585054697838e-14 1.666876814528095441e-13
1.832000000000000000e+03 2.048459243774414062e+01 -5.500192165374755859e+00 4.938623904900303618e-15 2.116553223104836873e-15 2.116553223104836873e-15 1.069571135218355673e-13
1.833000000000000000e+03 1.880515289306640625e+01 -3.840278863906860352e+00 -1.271983142729291028e-13 -1.002645096939355773e-13 -6.823884447955397281e-14 1.820935336381297037e-14
1.834000000000000000e+03 1.936590194702148438e+01 -4.393997669219970703e+00 -9.575001382045034148e-14 2.334699816287921781e-13 4.131598695437076196e-14 8.178151217211673818e-14
1.835000000000000000e+03 1.992575645446777344e+01 -4.947409152984619141e+00 -1.544599138262464644e-13 -2.044615900740655301e-14 -5.247182422178815753e-14 2.131667509609053157e-13
1.836000000000000000e+03 2.091797065734863281e+01 -7.169854164123535156e+00 -1.867209085102978366e-14 -1.967249876454885138e-13 -6.461912033023028967e-14 3.926203708936454317e-14
1.837000000000000000e+03 2.044657707214355469e+01 -6.570147991180419922e+00 -1.544731004351693193e-13 -1.119537066675800607e-13 -7.992804145319845621e-14 8.323128021211004257e-14
1.838000000000000000e+03 2.138868331909179688e+01 -7.768980979919433594e+00 -9.090386727866536787e-14 -1.476173106277831049e-13 -7.155635404956089962e-14 1.145415142941863529e-13
1.839000000000000000e+03 2.185866355895996094e+01 -8.367236137390136719e+00 -1.293518921531913723e-13 -2.098459752318537763e-13 -1.017593602155135446e-13 1.353652433200291938e-13
1.840000000000000000e+03 2.246022033691406250e+01 -7.935092449188232422e+00 -1.059882840130296766e-14 -1.875461456057533893e-13 -5.944349152449054929e-14 3.778892228024606850e-15
1.841000000000000000e+03 2.100666618347167969e+01 -6.085235118865966797e+00 -6.619038677617775090e-14 -7.411825602050836626e-14 -4.209259419425855075e-14 -3.600067563936520942e-14
1.842000000000000000e+03 2.149188232421875000e+01 -6.702531337738037109e+00 -7.836550961100308133e-14 5.791667736761499374e-14 -6.134648402467005393e-15 9.324423286445615577e-14
1.843000000000000000e+03 2.197641754150390625e+01 -7.319247722625732422e+00 -1.971063625359238680e-14 -1.914512114380845231e-13 -6.334855735682168310e-14 1.116100891178015142e-13
1.844000000000000000e+03 2.269077491760253906e+01 -9.641036033630371094e+00 -2.971180498357629818e-14 -1.271110088929897075e-13 -4.704684246890390720e-14 9.729616065731402919e-14
1.845000000000000000e+03 2.348543930053710938e+01 -1.093805503845214844e+01 -5.238964169711375629e-14 -1.825810282043288657e-13 -7.049119995399324989e-14 6.276545987593182274e-14
1.846000000000000000e+03 2.229273414611816406e+01 -8.991255760192871094e+00 -1.088435710918517207e-13 -1.381491492383202235e-13 -7.409781203329343646e-14 4.365474995382534473e-14
1.847000000000000000e+03 2.308835411071777344e+01 -1.029005146026611328e+01 -1.541535725024106851e-13 -1.003790285484043587e-13 -7.635978302574994436e-14 9.133298772227155249e-14
1.848000000000000000e+03 2.413209533691406250e+01 -1.057697391510009766e+01 -9.333065055386682851e-14 -3.999885072139032494e-14 -3.999885072139032494e-14 9.593743171849161699e-14
1.849000000000000000e+03 2.290665245056152344e+01 -8.576805114746093750e+00 -2.588114421939787663e-14 -1.483447696279394101e-13 -5.226777398479459658e-14 8.508162707351885068e-14
1.850000000000000000e+03 2.331559562683105469e+01 -9.244379997253417969e+00 -1.042396691967178990e-13 -9.042509037555934714e-14 -5.839942516117774263e-14 2.382662684231699746e-14
1.851000000000000000e+03 2.372407913208007812e+01 -9.911190032958984375e+00 -1.028059270200866460e-13 -8.981063234683034358e-14 -5.778496713244873906e-14 3.391896003434799467e-14
1.852000000000000000e+03 2.481090354919433594e+01 -1.191462898254394531e+01 -1.028645552525637996e-13 -1.355867051662865141e-13 -7.153538151378688315e-14 6.432700915990838264e-14
1.853000000000000000e+03 2.445840454101562500e+01 -1.291014575958251953e+01 -1.176398117374438668e-13 -1.419189608496337907e-13 -7.786763719713415965e-14 3.755015300977750103e-14
1.854000000000000000e+03 2.665409660339355469e+01 -1.626477622985839844e+01 8.990580496878383676e-15 1.411059582980683791e-13 4.502895926679177652e-14 -4.081415042630869017e-14
1.855000000000000000e+03 2.664365005493164062e+01 -1.577785682678222656e+01 -5.039246675649609875e-14 2.529089134298279085e-13 6.075493569606543742e-14 9.015981998527003438e-14
1.856000000000000000e+03 2.383864784240722656e+01 -1.159224033355712891e+01 1.918541145179072926e-14 5.397326804782755227e-14 2.194760452751184227e-14 1.024527346098723368e-13
1.857000000000000000e+03 2.512674713134765625e+01 -1.258413887023925781e+01 -6.371568854121600900e-14 -1.188086223369647088e-13 -5.475729529633328874e-14 9.771342263965865360e-14
1.858000000000000000e+03 2.508015632629394531e+01 -1.422547531127929688e+01 -7.927039152042306136e-14 1.177792282783642411e-14 -2.024774153951223316e-14 5.340229330247879547e-14
1.859000000000000000e+03 2.576146316528320312e+01 -1.392042350769042969e+01 -4.894752341617035485e-14 4.764891348781226388e-14 -3.895836720156528555e-16 8.673298895495867855e-14
1.860000000000000000e+03 2.569825172424316406e+01 -1.550395488739013672e+01 -7.518742844037779038e-14 -3.222318313328594030e-14 -3.222318313328594030e-14 -6.358408672626700286e-14
1.861000000000000000e+03 2.449402427673339844e+01 -1.124528026580810547e+01 -1.528820439114422086e-14 -6.552087414697605958e-15 -6.552087414697605958e-15 1.167342454254025053e-13
1.862000000000000000e+03 2.544330024719238281e+01 -1.325331687927246094e+01 -1.342512797979089623e-13 -5.753626470660772041e-14 -5.753626470660772041e-14 9.929837036177016629e-14
1.863000000000000000e+03 2.607990264892578125e+01 -1.458190250396728516e+01 -1.997443619468526610e-14 1.515678451887228495e-13 3.947802371465081173e-14 5.883040907726788671e-14
1.864000000000000000e+03 2.639252471923828125e+01 -1.521985816955566406e+01 -1.081169252433247796e-13 1.824189128744879707e-13 2.229059696697531512e-14 1.539186767136099115e-15
1.865000000000000000e+03 2.608785629272460938e+01 -1.599215316772460938e+01 -5.744967083434401878e-14 -2.462128943650845891e-14 -2.462128943650845891e-14 4.138719870831232550e-14
1.866000000000000000e+03 2.476847457885742188e+01 -1.356884574890136719e+01 1.684508482951551506e-14 7.219321948787656845e-15 7.219321948787656845e-15 6.139510286880950352e-14
1.867000000000000000e+03 2.539211463928222656e+01 -1.487647628784179688e+01 7.095981669689695528e-15 9.454303252819443171e-14 3.049170548756301169e-14 3.772398449934481757e-14
1.868000000000000000e+03 2.414904594421386719e+01 -1.225111293792724609e+01 -6.632399436514585522e-14 -1.199264618818515760e-13 -5.587513822935194496e-14 9.018663366024831651e-14
1.869000000000000000e+03 4.104784393310546875e+01 -2.109504699707031250e+01 -5.147987748978580247e-14 1.609409898102945324e-13 3.283833572903169240e-14 7.933382412377704140e-14
1.870000000000000000e+03 4.266473007202148438e+01 -2.049994087219238281e+01 -1.302123421023301808e-13 8.144755757420046871e-14 -1.462943806894434484e-14 1.219562916366517813e-13
1.871000000000000000e+03 4.164785385131835938e+01 -2.166072845458984375e+01 -1.325521859158254601e-14 4.292957455449483706e-14 8.902306958280276766e-15 -2.212890515360804722e-15
1.872000000000000000e+03 4.282600402832031250e+01 -2.122967720031738281e+01 -9.531806767493211652e-14 -4.085059994809493722e-14 -4.085059994809493722e-14 -2.708251688299354205e-15
1.873000000000000000e+03 4.148378753662109375e+01 -2.086083030700683594e+01 -8.520401994626530806e-14 -5.081317785700194267e-14 -4.080515832454063851e-14 8.769486601733350595e-14
1.874000000000000000e+03 4.205922317504882812e+01 -2.122107124328613281e+01 -6.065419976171437799e-14 6.550723776355821260e-14 1.455911887597095052e-15 7.119037482997483957e-14
1.875000000000000000e+03 4.202204132080078125e+01 -2.066273307800292969e+01 -1.714682540919498788e-13 -2.336147226188189929e-13 -1.215248875922197991e-13 6.909146784426015153e-14
1.876000000000000000e+03 4.499966049194335938e+01 -1.991277503967285156e+01 -3.550397213096349869e-14 3.053496176611339430e-14 -1.490702918872618184e-15 -1.633383369965130116e-13
1.877000000000000000e+03 4.526668548583984375e+01 -2.041254043579101562e+01 -4.838481571238680001e-14 1.165164969715859478e-13 2.043950471657292323e-14 -2.135690983871146864e-13
1.878000000000000000e+03 4.573839950561523438e+01 -1.961583137512207031e+01 -2.207135604110569554e-14 1.277936903434223614e-13 3.171670147654112593e-14 -1.265511539961725052e-13
1.879000000000000000e+03 4.577162170410156250e+01 -2.037546920776367188e+01 -7.885470840749211896e-14 -1.024212995231338352e-13 -5.438280170156142845e-14 -6.671063441238134217e-14
1.880000000000000000e+03 4.533052062988281250e+01 -1.971001052856445312e+01 -2.706171671842429183e-14 2.171568589011407813e-13 5.702854638175991475e-14 -1.177431226519545793e-13
1.881000000000000000e+03 5.021003341674804688e+01 -1.947287559509277344e+01 -4.126651548686660620e-13 2.902277756230281502e-14 -1.150927091261508273e-13 -9.195102361816975822e-14
1.882000000000000000e+03 5.094702148437500000e+01 -1.933323669433593750e+01 -4.748580001434632436e-13 -4.338224929029826926e-14 -1.554720707643703070e-13 -1.961266672884705992e-14
1.883000000000000000e+03 4.947301483154296875e+01 -1.961274909973144531e+01 -3.769872597685769433e-13 1.129397207808198467e-13 -7.921426372920620240e-14 -4.681041185640270885e-14
1.884000000000000000e+03 5.168397521972656250e+01 -1.919383239746093750e+01 -5.857848928148001733e-13 6.920597992246535490e-14 -1.549736630256787207e-13 -1.050031508140550351e-13
1.885000000000000000e+03 5.154356384277343750e+01 -1.846726989746093750e+01 -3.834554472992995899e-13 -9.571161951101719856e-14 -1.437501241088531834e-13 4.288547463112898916e-14
1.886000000000000000e+03 4.933204269409179688e+01 -1.888629341125488281e+01 -2.861686311094596702e-13 1.061110495802729259e-13 -5.401726971537151867e-14 -7.810345794591333490e-14
1.887000000000000000e+03 5.080642700195312500e+01 -1.860671043395996094e+01 -3.370027510090495282e-13 1.529514226860859138e-13 -5.521539781926272650e-14 -5.477697695389568966e-14
1.888000000000000000e+03 5.006925201416015625e+01 -1.874638557434082031e+01 -3.663923548238856576e-13 -6.552339915219182465e-14 -1.295747228046914556e-13 3.598055013653844725e-14
1.889000000000000000e+03 5.241899490356445312e+01 -1.905364608764648438e+01 -6.130752914883241811e-13 -1.254937180648202366e-13 -2.215707001554378941e-13 -6.451580263945599913e-14
1.890000000000000000e+03 5.315275955200195312e+01 -1.891308021545410156e+01 -6.154558199883419789e-13 3.309955662420677180e-13 -8.533807476862956265e-14 -1.610598725785075680e-13
1.891000000000000000e+03 5.388480377197265625e+01 -1.876910972595214844e+01 -9.351243737687475743e-13 -2.177637681722438545e-13 -3.458664290297702726e-13 -1.298305420013553049e-14
1.892000000000000000e+03 5.372604370117187500e+01 -1.804615974426269531e+01 -5.313933429569595024e-13 1.014746847239191094e-15 -1.591135806010973708e-13 -7.449245484781458204e-14
1.893000000000000000e+03 5.461503982543945312e+01 -1.862159919738769531e+01 -1.095796413677629921e-12 2.166371736948141669e-13 -2.637477909683827448e-13 -1.381156067336089532e-13
1.894000000000000000e+03 5.444890213012695312e+01 -1.790010070800781250e+01 -6.027222449432600992e-13 -1.439321752061406556e-13 -2.239963314658310889e-13 2.704710641652369185e-13
1.895000000000000000e+03 5.227499008178710938e+01 -1.832779121398925781e+01 -2.985787344363804996e-13 -5.933589801139851905e-14 -1.073743890567073478e-13 -1.166323033161345557e-13
1.896000000000000000e+03 5.300137710571289062e+01 -1.818867683410644531e+01 -4.748949714375449993e-13 -1.806509450493973268e-13 -1.966637844328517071e-13 9.701993982508261283e-14
1.897000000000000000e+03 5.541037368774414062e+01 -1.842636871337890625e+01 -1.258419583816117182e-12 -8.181319798060762705e-14 -4.020698433481600942e-13 -2.109371162982431880e-13
1.898000000000000000e+03 5.528024673461914062e+01 -1.769467163085937500e+01 -6.113144929500990976e-13 2.412685123302088508e-13 -1.110138050279887989e-13 2.417231792875042251e-14
1.899000000000000000e+03 5.680945968627929688e+01 -1.820807456970214844e+01 -1.434660333241022379e-12 -1.573449351496489235e-13 -4.776015737409378126e-13 -3.338866184400546278e-13
1.900000000000000000e+03 5.653432083129882812e+01 -1.784011840820312500e+01 -9.570357744140278733e-13 7.022679692544192553e-14 -2.660426674967741878e-13 -3.648143527719416301e-13
1.901000000000000000e+03 5.749586105346679688e+01 -1.798945617675781250e+01 -1.380381811459663322e-12 2.319248851127830857e-13 -3.445370887460857956e-13 -4.471116131412461447e-13
1.902000000000000000e+03 5.704250335693359375e+01 -1.709250259399414062e+01 2.374546414531109040e-13 2.847700645170619937e-13 1.566674172120627317e-13 -2.364480410511210495e-13
1.903000000000000000e+03 5.727741241455078125e+01 -1.754523468017578125e+01 -5.583974580468387128e-13 3.554491228262290914e-13 -6.088450463194103324e-14 -2.527875912067267805e-13
1.904000000000000000e+03 5.618411636352539062e+01 -1.738935279846191406e+01 -1.903469244203537247e-13 4.674341426078032491e-13 8.312616003522399488e-14 -7.527772892881867683e-14
1.905000000000000000e+03 5.616222381591796875e+01 -1.831321144104003906e+01 -1.460236337229303683e-12 1.977015149897190516e-13 -3.787604453166226737e-13 -3.547314351981523117e-13
1.906000000000000000e+03 5.787326049804687500e+01 -1.679512977600097656e+01 1.894368180117150802e-13 2.641910128164948190e-13 1.360883519589684010e-13 2.313064832986516661e-13
1.907000000000000000e+03 5.864776611328125000e+01 -1.639934539794921875e+01 7.127851369033433304e-13 1.339132933231637623e-13 2.540095412652265683e-13 -8.269592828439101262e-14
1.908000000000000000e+03 5.936615371704101562e+01 -1.597429561614990234e+01 5.643936381617697950e-13 6.459806647929333678e-14 1.886975141028243708e-13 7.555947241586619123e-14
1.909000000000000000e+03 5.866613388061523438e+01 -1.735568428039550781e+01 -1.061089367412892948e-12 -5.405356067259003972e-13 -4.804875030836597283e-13 -6.336068822387908028e-13
1.910000000000000000e+03 5.803774261474609375e+01 -1.729933929443359375e+01 -7.241971237102740044e-13 1.928902323240430650e-13 -1.593920714816274287e-13 -3.751252780626046501e-13
1.911000000000000000e+03 5.816012954711914062e+01 -1.773177146911621094e+01 -1.052425616272778530e-12 -2.680357834555086027e-13 -3.961384443130350208e-13 -7.633639271913128521e-13
1.912000000000000000e+03 5.991773223876953125e+01 -1.650707054138183594e+01 -6.827714392129702325e-13 -2.868974589148587384e-13 -2.909006585963269664e-13 -6.015960841466994058e-13
1.913000000000000000e+03 5.922435760498046875e+01 -1.691722106933593750e+01 -1.001840103931339598e-12 -3.607336326351406885e-13 -4.087721372329766734e-13 -6.223205002535425745e-13
1.914000000000000000e+03 5.989504241943359375e+01 -1.551336479187011719e+01 6.967078823583161551e-13 2.757136153500733267e-13 2.917264411810005509e-13 1.584313192790065550e-13
1.915000000000000000e+03 6.046890640258789062e+01 -1.599821758270263672e+01 -4.069918230556468508e-13 -7.062798696583216795e-13 -3.339814861301471094e-13 -6.787958866869003849e-13
1.916000000000000000e+03 6.105422210693359375e+01 -1.447091579437255859e+01 8.008739613325766005e-13 1.602278964889236601e-13 2.883305573464500782e-13 5.754750517263096388e-13
1.917000000000000000e+03 6.223260879516601562e+01 -1.352114868164062500e+01 -1.635507050970486098e-13 2.140873741306170697e-14 -4.264259301570150207e-14 9.492693496494439276e-14
1.918000000000000000e+03 6.169067382812500000e+01 -1.393711185455322266e+01 3.781169442221982147e-13 -3.869612692341400928e-13 -2.653292802549706182e-15 -2.204386169045099986e-13
1.919000000000000000e+03 6.092002868652343750e+01 -1.535791873931884766e+01 -2.158385097169798761e-13 -9.388947952437831646e-13 -3.464199955539870590e-13 -6.457755879520077347e-13
1.920000000000000000e+03 6.189405059814453125e+01 -1.406194686889648438e+01 4.550137935703524317e-13 -6.513866594552719658e-13 -5.891185298921228219e-14 -1.535738224957283737e-13
1.921000000000000000e+03 6.140942001342773438e+01 -1.470139122009277344e+01 -3.843578016624049631e-13 -1.079743716311809543e-12 -4.392304662342860766e-13 -5.078602469121840102e-13
1.922000000000000000e+03 6.039819717407226562e+01 -1.499867916107177734e+01 6.992532095885517496e-13 3.111176680864469191e-13 3.031112687235104630e-13 4.099854407791508892e-13
1.923000000000000000e+03 6.402732086181640625e+01 -1.271555233001708984e+01 1.982891119096247268e-13 3.137357994925649152e-13 1.536074734206568926e-13 3.350485850133616550e-13
1.924000000000000000e+03 6.380670547485351562e+01 -1.227174377441406250e+01 2.527262524688184131e-13 4.285678799689773832e-13 2.043882370208333077e-13 2.979819895606444780e-13
1.925000000000000000e+03 6.272052383422851562e+01 -1.348061752319335938e+01 2.836156602539080529e-13 4.418062053354598895e-13 2.176265623873158139e-13 2.501634153734971777e-13
1.926000000000000000e+03 6.233651351928710938e+01 -1.424219036102294922e+01 1.411518878126002963e-13 3.349993622347308131e-13 1.428453709484411860e-13 3.009863408856561229e-13
1.927000000000000000e+03 6.320764541625976562e+01 -1.283880043029785156e+01 2.155275063238024091e-13 9.236892934555429591e-14 9.236892934555429591e-14 2.810254741587858707e-13
1.928000000000000000e+03 6.191488647460937500e+01 -1.504100608825683594e+01 1.484478637020156255e-13 2.466243084319613699e-13 1.185216475744349518e-13 2.129504119699129894e-13
1.929000000000000000e+03 6.146208953857421875e+01 -1.579369926452636719e+01 6.717022771329794750e-14 3.032929267975104093e-13 1.111389490637479383e-13 2.852139368864775593e-13
1.930000000000000000e+03 6.157229995727539062e+01 -1.706606101989746094e+01 4.411881220057166375e-14 3.849156507852030673e-13 1.287103426226773872e-13 2.074429359842297482e-13
1.931000000000000000e+03 6.103483200073242188e+01 -1.651922035217285156e+01 3.110227190811915010e-13 4.993030186355162936e-13 2.430977240255177696e-13 2.171966355683438432e-13
1.932000000000000000e+03 6.333197784423828125e+01 -1.445271396636962891e+01 1.311874599837364874e-13 1.019741474421465011e-13 6.994848222776489655e-14 2.589173450293080769e-13
1.933000000000000000e+03 6.292007446289062500e+01 -1.500309181213378906e+01 5.953968736224432567e-14 5.745283805994039206e-13 1.902204251318789785e-13 3.142941907164492621e-13
1.934000000000000000e+03 6.244243240356445312e+01 -1.561079216003417969e+01 1.581792558264308313e-13 2.507949089288613598e-13 1.226922480713349417e-13 2.312205060663735656e-13
1.935000000000000000e+03 6.199459838867187500e+01 -1.635201263427734375e+01 2.462838960548552336e-13 4.258068778215801098e-13 2.016272348734360342e-13 2.141374507184587439e-13
1.936000000000000000e+03 6.288746643066406250e+01 -1.437613964080810547e+01 1.467396489691560890e-13 2.001412680334088701e-13 1.040642791665276345e-13 2.358567171862474554e-13
1.937000000000000000e+03 6.368706130981445312e+01 -1.380090141296386719e+01 1.697477065593783196e-13 3.586924594151108536e-13 1.585320416608304583e-13 1.241618299060304187e-13
1.938000000000000000e+03 6.398512268066406250e+01 -1.320910263061523438e+01 2.486156896672198080e-13 3.581797944178510829e-13 1.820386425150158360e-13 4.357145612192414585e-13
1.939000000000000000e+03 6.356108474731445312e+01 -1.309701156616210938e+01 9.051208404737415281e-14 5.878022677971439514e-13 2.034943123296190093e-13 1.297899369359298283e-13
1.940000000000000000e+03 6.320383834838867188e+01 -1.367214107513427734e+01 1.895986758435400099e-13 8.125657536151714710e-14 8.125657536151714710e-14 3.361078505358799928e-13
1.941000000000000000e+03 5.914070129394531250e+01 -1.790256118774414062e+01 1.333773992943584896e-13 -6.865336207514949329e-14 1.941721048813634110e-14 1.408216127258068995e-13
1.942000000000000000e+03 5.952583312988281250e+01 -1.853448677062988281e+01 2.236375283093741673e-13 3.017239236235980115e-13 1.576084369351443693e-13 4.292279829091680265e-14
1.943000000000000000e+03 6.026574707031250000e+01 -1.809379196166992188e+01 8.674235713935531111e-15 1.409703788163990668e-13 4.489338317325425320e-14 3.053257245557577937e-13
1.944000000000000000e+03 5.878223419189453125e+01 -1.896722793579101562e+01 9.300799876359872043e-14 -5.164132535766426113e-14 1.241000253000010614e-14 9.490565749730936473e-14
1.945000000000000000e+03 6.099867248535156250e+01 -1.764663124084472656e+01 1.766976322203905880e-13 2.930445599721998029e-13 1.409226603682825485e-13 4.487991873752469885e-14
1.946000000000000000e+03 6.048994827270507812e+01 -1.708762741088867188e+01 2.122061071785016906e-13 1.252586901388796914e-13 1.012394378399616990e-13 3.125838075792447546e-13
1.947000000000000000e+03 5.845867919921875000e+01 -1.829862213134765625e+01 2.134937192310726317e-13 9.149730533777530872e-14 9.149730533777530872e-14 1.297642142393876097e-13
1.948000000000000000e+03 5.981904220581054688e+01 -1.749854469299316406e+01 2.047151239758376873e-13 2.364256251712049117e-13 1.323422301651236421e-13 1.707933246870504962e-13
1.949000000000000000e+03 5.553008651733398438e+01 -1.920907402038574219e+01 -3.157731712287274728e-14 -5.928408670008086800e-14 -2.725841979163336898e-14 4.161133040241939141e-14
1.950000000000000000e+03 5.725695419311523438e+01 -1.950564956665039062e+01 2.144296262632846423e-14 1.921936324282211284e-13 6.409097834695828833e-14 8.086240688544646393e-14
1.951000000000000000e+03 5.571527862548828125e+01 -1.992561912536621094e+01 -1.217413191215616130e-16 -5.217485388814564859e-17 -5.217485388814564859e-17 2.345875026892908777e-14
1.952000000000000000e+03 5.802567672729492188e+01 -1.928994750976562500e+01 9.115477876643282573e-14 3.906633520909912061e-14 3.906633520909912061e-14 1.451172081806673120e-13
1.953000000000000000e+03 5.701029205322265625e+01 -1.880601882934570312e+01 6.800326090000002877e-14 -1.660669248870847575e-14 1.541897103160723426e-14 5.013841108242843292e-14
1.954000000000000000e+03 5.627075195312500000e+01 -1.900946998596191406e+01 -1.143015227551748975e-14 4.085231095464839091e-14 8.826647434332680897e-15 -1.083419090525767833e-15
1.955000000000000000e+03 5.774827575683593750e+01 -1.859877204895019531e+01 1.507447460044261667e-13 1.103558366108252364e-13 7.833017139644363191e-14 7.072392395031726342e-14
1.956000000000000000e+03 5.648667907714843750e+01 -1.971755790710449219e+01 2.828528969205101884e-14 -5.650415506037835545e-14 -8.465660626937737687e-15 1.058520946676383412e-13
1.957000000000000000e+03 5.405023574829101562e+01 -1.952743339538574219e+01 -1.043011807293475063e-14 4.128089946156369983e-14 9.255234247182095308e-15 5.684348662344379521e-14
1.958000000000000000e+03 5.331044006347656250e+01 -1.967299842834472656e+01 -1.119245213003494666e-13 -2.309714377222993331e-13 -1.028687904173000711e-13 -4.919257004781102394e-14
1.959000000000000000e+03 5.271442794799804688e+01 -2.054370307922363281e+01 -2.580045586084243198e-14 -1.025592371445283035e-13 -3.850790671576509450e-14 -1.069505134411105618e-13
1.960000000000000000e+03 5.495590972900390625e+01 -2.010264968872070312e+01 -3.333507650688308233e-14 -1.515393035665321686e-13 -5.546231469965093308e-14 9.131963848302282472e-15
1.961000000000000000e+03 5.478977203369140625e+01 -1.938115119934082031e+01 -3.347429823022558815e-14 -1.058480289094915205e-13 -4.179669848072831151e-14 2.175376273159859014e-14
1.962000000000000000e+03 5.420899581909179688e+01 -2.025038337707519531e+01 -1.828813081603940932e-14 1.503770456138912859e-14 -9.751278340434368572e-16 5.105465678586877665e-14
1.963000000000000000e+03 5.257042312622070312e+01 -1.981785011291503906e+01 -4.350298113143516096e-15 -1.848682068972956616e-13 -5.676555281603282155e-14 -9.770024958326295472e-14
1.964000000000000000e+03 5.346182250976562500e+01 -2.039739990234375000e+01 -2.892840284538563539e-15 -9.274168482871839037e-14 -2.869035778808697035e-14 -6.633393514381483169e-14
1.965000000000000000e+03 5.033853912353515625e+01 -2.022522163391113281e+01 -2.250945672801867026e-14 2.648587729345286412e-13 7.270479520076617019e-14 -5.230708308981077415e-14
1.966000000000000000e+03 5.106142425537109375e+01 -2.010481452941894531e+01 1.768864324762017826e-14 -8.392104963424532049e-14 -1.986972259361390047e-14 8.980861979654766736e-14
1.967000000000000000e+03 5.001500701904296875e+01 -2.126924705505371094e+01 -5.544788634042740333e-15 -1.853801265055618486e-13 -5.727747920056258657e-14 -5.589369672122628668e-15
1.968000000000000000e+03 5.192002487182617188e+01 -2.069961738586425781e+01 -3.687865917051218190e-14 -2.216844058582773114e-13 -7.756891916982366908e-14 5.548191588908334484e-15
1.969000000000000000e+03 5.181696319580078125e+01 -1.996597862243652344e+01 5.693216758488953144e-14 -2.135144749264121511e-14 1.067421687470744215e-14 1.511016992409262849e-15
1.970000000000000000e+03 5.108997344970703125e+01 -2.085257148742675781e+01 -9.225208623267824870e-14 2.349690808676335729e-13 4.281509974573931288e-14 1.055994213513405944e-13
1.971000000000000000e+03 4.977315902709960938e+01 -2.098537445068359375e+01 -9.897950650284217944e-14 4.908211017522548514e-14 -1.496921855947182939e-14 -1.826257413795485257e-14
1.972000000000000000e+03 5.038103485107421875e+01 -2.086993408203125000e+01 -4.877014455261993731e-14 7.060040621781685233e-14 6.549078753668958683e-15 -6.487285751990978788e-14
1.973000000000000000e+03 4.963174438476562500e+01 -2.042351913452148438e+01 -4.146804376796301220e-15 -2.762829028057911529e-13 -8.412891151950152580e-14 1.679900115498719759e-14
1.974000000000000000e+03 4.908356094360351562e+01 -2.117784309387207031e+01 -1.975462843436734395e-13 -4.506702899319953159e-13 -1.944649682169424798e-13 -2.793727705771575920e-13
1.975000000000000000e+03 4.916047668457031250e+01 -2.141018104553222656e+01 -9.549801813051039812e-14 -7.729429075953309081e-13 -2.605322641652252358e-13 -1.083395051730724756e-13
1.976000000000000000e+03 4.871501159667968750e+01 -2.154469680786132812e+01 -1.397423978833148284e-13 -1.056405464949956852e-13 -7.361488128061408065e-14 -2.769323399071099701e-13
1.977000000000000000e+03 5.758592987060546875e+01 -2.689859580993652344e+01 -1.443833252826390301e-13 -6.187856894631152405e-14 -6.187856894631152405e-14 -1.147202450223205883e-13
1.978000000000000000e+03 5.816566467285156250e+01 -2.592050743103027344e+01 4.795385890135096807e-14 -7.095024437756003444e-14 -6.898916066379193537e-15 -1.109734794834359162e-14
1.979000000000000000e+03 5.934611511230468750e+01 -2.506157112121582031e+01 -9.976234790522175988e-14 -1.342571886997490083e-13 -7.020586504724937726e-14 5.760745613175854984e-14
1.980000000000000000e+03 5.435288619995117188e+01 -2.516022300720214844e+01 -6.212816583894484324e-14 -3.806409533272173129e-14 -3.005767902912633016e-14 1.421825270096332278e-14
1.981000000000000000e+03 5.137153244018554688e+01 -2.183241844177246094e+01 -8.016609498082659380e-15 -1.487342760346684056e-14 -6.867010876354965807e-15 5.931382094466128296e-14
1.982000000000000000e+03 5.309897232055664062e+01 -2.433959960937500000e+01 -1.332170051354664153e-13 -3.421752559572797947e-14 -5.023035820291878173e-14 3.581666281377189620e-14
1.983000000000000000e+03 5.994348144531250000e+01 -2.457889747619628906e+01 -6.581494111637317679e-14 2.005483452915957088e-13 4.042001921968768618e-14 -8.132720435679099968e-14
1.984000000000000000e+03 5.672710037231445312e+01 -2.040229797363281250e+01 1.734139700869559431e-14 3.030750292658951350e-14 1.429466862533281674e-14 5.716905898331403613e-14
1.985000000000000000e+03 6.445015716552734375e+01 -2.181160354614257812e+01 -3.450252236691930818e-13 -7.924153141384421284e-14 -1.272800224591530416e-13 8.900046227344055039e-14
1.986000000000000000e+03 6.348389434814453125e+01 -2.312765312194824219e+01 -6.187473358112635657e-14 2.251124769448234475e-13 4.897132165385641167e-14 8.368976898206342829e-14
1.987000000000000000e+03 6.358414459228515625e+01 -1.980622100830078125e+01 -7.667235851207751529e-14 1.958951664077224208e-13 3.576684033581439826e-14 -1.222751419430526121e-13
1.988000000000000000e+03 6.418959045410156250e+01 -2.289574813842773438e+01 -2.317868119661170567e-13 -5.358625869422706245e-14 -8.561192390860866697e-14 2.619519862525135356e-14
1.989000000000000000e+03 6.881525421142578125e+01 -2.160879135131835938e+01 -3.038836001410805121e-13 1.442698635252884221e-13 -4.788411759660583800e-14 6.486634553061129682e-14
1.990000000000000000e+03 6.952384948730468750e+01 -2.200218200683593750e+01 -1.963692609126960198e-13 -3.840730630668559575e-14 -7.043297152106720027e-14 9.643681862727022935e-15
1.991000000000000000e+03 7.015964508056640625e+01 -2.242703056335449219e+01 -9.374984377133119273e-14 5.132339323497825401e-14 -1.272793380565316601e-14 6.355072718067233950e-14
1.992000000000000000e+03 7.073648071289062500e+01 -2.287175941467285156e+01 -2.195487884646286220e-14 3.634171482085231386e-14 4.316050453503656598e-15 2.743929181905826326e-14
1.993000000000000000e+03 7.144123840332031250e+01 -2.316259193420410156e+01 -6.235870787839672968e-14 1.902578978694655087e-14 -1.299987458040210639e-14 1.633079014086522701e-14
1.994000000000000000e+03 7.148923492431640625e+01 -2.464222526550292969e+01 -6.599649754641945254e-14 4.034220738502111714e-14 -7.696287895452447875e-15 -1.143776286654856963e-14
1.995000000000000000e+03 7.361360168457031250e+01 -2.549887657165527344e+01 3.389439269074583094e-14 -3.122477862209371846e-14 8.008841570681627005e-16 -1.212698832412512084e-13
1.996000000000000000e+03 7.434102630615234375e+01 -2.551274299621582031e+01 -5.174710283211737816e-14 2.357361810097213795e-14 -8.452046266376519318e-15 -1.817855219653219390e-13
1.997000000000000000e+03 7.734111785888671875e+01 -2.537889480590820312e+01 -7.242055466059015012e-15 1.112736340786249500e-13 3.120947443080272776e-14 1.168161433470066290e-13
1.998000000000000000e+03 7.892637634277343750e+01 -1.652248382568359375e+01 -2.019472405327769199e-14 2.429753447052984683e-13 6.683418602619964344e-14 5.198041297524089166e-14
1.999000000000000000e+03 7.891228485107421875e+01 -8.503973007202148438e+00 1.672795880763508491e-13 -2.256899094693620711e-13 -1.752309743434290329e-14 -6.104601687432348323e-14
2.000000000000000000e+03 7.890683746337890625e+01 -2.896281719207763672e+00 -2.259661099728027533e-13 -4.170992707035886538e-13 -1.929196142029174221e-13 -9.254094479648269922e-14
2.001000000000000000e+03 7.891345977783203125e+01 4.326771259307861328e+00 -1.638580086503124700e-13 -1.008119260813289397e-12 -3.515931849048387070e-13 4.333583188478873360e-14
2.002000000000000000e+03 7.889347839355468750e+01 1.314227867126464844e+01 9.941243690064511390e-15 -6.820037156546332469e-13 -2.016187374389091791e-13 -2.970020063219891426e-14
2.003000000000000000e+03 7.890029144287109375e+01 1.877082061767578125e+01 8.068789776952134396e-14 -1.040566721330349331e-12 -2.879636633312809835e-13 -1.011406941271025817e-13
2.004000000000000000e+03 7.890615081787109375e+01 2.517335319519042969e+01 -6.365598965909352591e-14 -1.354058683754322256e-12 -4.253144060897828815e-13 -9.223727332049666550e-14
2.005000000000000000e+03 7.647486877441406250e+01 3.148221397399902344e+01 -2.057364043058364060e-15 -2.296364595873179315e-13 -6.950815384420064302e-14 7.857963276380539042e-14
2.006000000000000000e+03 7.954840850830078125e+01 3.880480957031250000e+01 -2.264687596524941893e-14 -5.129662428333958690e-13 -1.606839390277253754e-13 -2.321889933738687656e-14
2.007000000000000000e+03 7.962954711914062500e+01 3.645920562744140625e+01 4.548409039814224619e-14 -6.210201081678634605e-13 -1.726608087190481533e-13 1.949182223232818340e-14
2.008000000000000000e+03 7.217414093017578125e+01 3.692430114746093750e+01 -8.958033425286726636e-14 3.047405535382130548e-13 6.454806443035102093e-14 6.375080991534096131e-14
2.009000000000000000e+03 6.878860473632812500e+01 3.657474899291992188e+01 -1.734499859278731959e-13 5.890530576334318535e-13 1.246809188011621661e-13 -9.303191897402918187e-14
2.010000000000000000e+03 6.609226226806640625e+01 3.259285354614257812e+01 4.149900366921810413e-13 6.410812093855799976e-13 3.168213846653500365e-13 -5.428154128440942916e-13
2.011000000000000000e+03 6.783145904541015625e+01 3.188923645019531250e+01 3.948201899965642081e-13 9.469748119342313863e-13 4.025384897372169535e-13 -4.682375906277236322e-13
2.012000000000000000e+03 6.773609161376953125e+01 3.064171028137207031e+01 6.539666811550270964e-13 1.186712078431184647e-12 5.522036278758635230e-13 -6.843764378990091490e-13
2.013000000000000000e+03 6.820366668701171875e+01 2.994255447387695312e+01 4.657468529768726828e-13 1.572134241366318630e-12 6.113643120399248065e-13 -9.135187181361081876e-13
2.014000000000000000e+03 7.961956024169921875e+01 2.924139595031738281e+01 -1.682842911245388540e-13 -1.124393655439759332e-12 -3.878033961665638962e-13 -2.723473166823045521e-14
2.015000000000000000e+03 7.222464752197265625e+01 -2.543001556396484375e+01 5.218068544528969843e-14 2.236315042110532947e-14 2.236315042110532947e-14 1.871168625318213319e-14
2.016000000000000000e+03 7.889225769042968750e+01 -2.213880538940429688e+01 -9.369095804083807377e-15 6.461109723415389694e-14 1.657260110664738467e-14 -1.660084626730652657e-14
2.017000000000000000e+03 7.986969757080078125e+01 -2.526494407653808594e+01 2.476349440989119438e-14 1.061292557064412098e-14 1.061292557064412098e-14 -3.400702096767634075e-14
2.018000000000000000e+03 6.110382843017578125e+01 3.523092651367187500e+01 1.029178234605507281e-13 -4.739425811441794201e-14 1.665706892621347801e-14 -7.007935898251105300e-14
2.019000000000000000e+03 6.036700057983398438e+01 3.537588500976562500e+01 -1.964437964239226092e-14 1.445645530639017712e-14 -1.556377618437980361e-15 -3.235967063427470924e-14
2.020000000000000000e+03 6.193581008911132812e+01 3.515479278564453125e+01 2.075180305372015255e-13 8.893629783362014263e-14 8.893629783362014263e-14 -9.304977442855730252e-14
2.021000000000000000e+03 6.319011688232421875e+01 3.570581436157226562e+01 2.025774296574023303e-13 3.613245770292539127e-13 1.691705992954914417e-13 -1.511866125998226340e-13
2.022000000000000000e+03 6.349143981933593750e+01 3.453449249267578125e+01 3.391791784500969298e-13 7.673608249476535081e-14 1.247745803163377576e-13 -1.801592458116479945e-13
2.023000000000000000e+03 5.861240386962890625e+01 3.601499176025390625e+01 9.236894289808145198e-14 3.958668787738817141e-14 3.958668787738817141e-14 -2.926416035293013564e-15
2.024000000000000000e+03 5.620862579345703125e+01 3.540235900878906250e+01 9.463275025796760720e-14 -2.806953007159461444e-14 1.996896605591189783e-14 6.261585352865597920e-14
2.025000000000000000e+03 5.957092666625976562e+01 3.586246490478515625e+01 1.035776451858028829e-14 4.439042178543822770e-15 4.439042178543822770e-15 -1.929322180531725661e-14
2.026000000000000000e+03 5.115223312377929688e+01 3.620326614379882812e+01 4.675521918955961864e-14 1.572907928036604286e-13 6.121380393677919307e-14 1.066703894810581976e-13
2.027000000000000000e+03 4.967511367797851562e+01 3.556667327880859375e+01 8.430232965699058223e-14 1.276314665933642178e-13 6.358013616460100881e-14 -2.557303767890001939e-14
2.028000000000000000e+03 5.213112640380859375e+01 3.263171005249023438e+01 1.297009917002045487e-13 5.558614075214414474e-14 5.558614075214414474e-14 1.375093750888636834e-13
2.029000000000000000e+03 5.271800994873046875e+01 3.316992187500000000e+01 1.498753378348371967e-13 1.099832369817234368e-13 7.795757176734183225e-14 9.897893052043804651e-14
2.030000000000000000e+03 5.541869735717773438e+01 3.502422714233398438e+01 1.038180771819469106e-13 1.588708412872050224e-13 7.880667147498743308e-14 3.031900224588143788e-14
2.031000000000000000e+03 4.546422958374023438e+01 3.806522369384765625e+01 6.414386030792126880e-14 1.533053333802394946e-13 6.523475742882187123e-14 1.443859307559847843e-14
2.032000000000000000e+03 4.528718566894531250e+01 3.117798995971679688e+01 -3.922260262347217197e-14 6.325447571330425345e-14 7.209561588136445542e-15 9.082963331116800099e-14
2.033000000000000000e+03 4.480135345458984375e+01 2.299033927917480469e+01 2.628973766656030053e-14 1.942708282654317942e-13 6.616816740790537610e-14 7.593230921419322210e-14
2.034000000000000000e+03 4.327112197875976562e+01 1.836129188537597656e+01 9.708456505082632693e-14 3.618643199757715090e-13 1.376846634751002774e-13 8.625285002287347291e-14
2.035000000000000000e+03 4.420660400390625000e+01 2.146602249145507812e+01 1.335661453400610599e-13 1.487445285214619717e-13 8.469320486896234068e-14 1.289440152959023256e-13
2.036000000000000000e+03 3.730822372436523438e+01 4.120688247680664062e+01 1.401200526050458417e-14 9.750704475612603783e-14 3.345571432736282880e-14 2.732014477656568435e-14
2.037000000000000000e+03 3.284706497192382812e+01 3.832403182983398438e+01 2.109463387929728928e-14 1.291367999946974043e-13 4.506943050101158699e-14 2.241877041607030947e-15
2.038000000000000000e+03 3.818649291992187500e+01 2.984237670898437500e+01 3.713836709543687567e-15 2.532218683869158493e-13 7.708070970781702447e-14 2.152327490225532797e-14
2.039000000000000000e+03 4.040535354614257812e+01 2.734363365173339844e+01 -1.112584044262333177e-14 8.673368013384363806e-14 2.268235139914632353e-14 -1.364604975784104723e-14
2.040000000000000000e+03 4.064725494384765625e+01 1.704337310791015625e+01 7.577471365215887600e-14 2.154786765684590932e-13 8.737601571093267516e-14 -1.043719672727495482e-14
2.041000000000000000e+03 4.113156127929687500e+01 1.182848644256591797e+01 1.519330857955789038e-13 4.082462991793212037e-13 1.680538168477227479e-13 2.202434232440129286e-14
2.042000000000000000e+03 4.095409393310546875e+01 3.401026964187622070e+00 9.319137800854748743e-14 1.771920013059896659e-13 8.111501243910843040e-14 -4.393979348123536188e-14
2.043000000000000000e+03 4.064707565307617188e+01 -4.499450206756591797e+00 -1.172298151802043161e-15 -2.292571514572738778e-13 -6.912883893789301126e-14 -3.265364188894878672e-14
2.044000000000000000e+03 3.549332809448242188e+01 -1.442236709594726562e+01 -1.046935162261203311e-13 -1.020573328538304514e-13 -6.202525472398523476e-14 1.225744901628758599e-13
2.045000000000000000e+03 3.486886596679687500e+01 -1.814173889160156250e+01 -2.933342520164243517e-14 -1.257146818557045714e-14 -1.257146818557045714e-14 4.951352438405283440e-14
2.046000000000000000e+03 3.637906646728515625e+01 -1.820338439941406250e+01 -2.224803186730989202e-13 4.190413952788983598e-14 -5.417285272712318855e-14 7.582574569316505309e-15
2.047000000000000000e+03 3.783194732666015625e+01 -1.830392837524414062e+01 -3.751076868823560728e-13 1.366207223307130958e-13 -7.154608801024017750e-14 1.307343176857461708e-13
2.048000000000000000e+03 4.046894073486328125e+01 -1.906085395812988281e+01 -1.705386049391521830e-13 -1.645898722217944976e-13 -1.005385417930312886e-13 1.308055497684784685e-13
2.049000000000000000e+03 4.299773406982421875e+01 -1.872065162658691406e+01 -2.091716285856221047e-13 3.617012288639753770e-14 -5.190045306502008571e-14 1.972787032475040170e-13
2.050000000000000000e+03 4.391796493530273438e+01 -1.687998580932617188e+01 6.671189479740685657e-14 2.115946036006927100e-13 8.349194951942986997e-14 -1.064117733816025146e-13
2.051000000000000000e+03 4.516775131225585938e+01 -1.811664390563964844e+01 -1.936935448186918873e-13 5.424132687057922619e-14 -4.183566538443379834e-14 -2.961453849617719236e-14
2.052000000000000000e+03 4.589120483398437500e+01 -7.095057487487792969e+00 1.357027419037967753e-13 1.039092653609165195e-13 7.188360014653491503e-14 -5.956391928079937670e-14
2.053000000000000000e+03 4.819195556640625000e+01 -1.182872176170349121e+00 3.636269752102169739e-14 1.528368631740356642e-13 5.675986753089085068e-14 -1.242627555757616631e-13
2.054000000000000000e+03 4.751353454589843750e+01 2.443411201238632202e-01 -3.069945556447017943e-14 -1.719171633427862920e-15 -9.725587407627672015e-15 -8.437267404919415736e-14
2.055000000000000000e+03 4.605800628662109375e+01 3.080845117568969727e+00 -1.804751755484466924e-14 -8.779881390062055369e-14 -3.175389977545274578e-14 2.767067750332561499e-14
2.056000000000000000e+03 4.567201614379882812e+01 3.779943943023681641e+00 -5.323675257139920403e-14 -6.856670044025001132e-14 -3.654103522586840680e-14 -2.010383402990551654e-14
2.057000000000000000e+03 4.277431869506835938e+01 7.820708274841308594e+00 -1.080395860530427785e-14 2.698754305967276945e-13 7.772143931043806742e-14 -6.034565615221573753e-14
2.058000000000000000e+03 4.249942016601562500e+01 1.275638866424560547e+01 6.656658460123948684e-14 5.775399147638082820e-13 1.932319457437561838e-13 -4.575518159884509051e-14
2.059000000000000000e+03 4.255527496337890625e+01 1.356605434417724609e+01 2.006059130388229000e-14 4.203559429791919877e-13 1.321249560497575470e-13 1.998500885993289428e-14
2.060000000000000000e+03 4.253446197509765625e+01 1.851369667053222656e+01 6.164391371486777071e-14 2.551735678226613180e-13 9.504524175075329540e-14 5.759971763875243456e-14
2.061000000000000000e+03 4.015230560302734375e+01 1.886869812011718750e+01 1.541997561268267786e-14 2.353632967775493023e-13 7.523498425816843582e-14 1.256464448814737650e-14
2.062000000000000000e+03 3.258359146118164062e+01 4.115659332275390625e+01 -1.435439291844371745e-14 1.539764409724808658e-13 4.188661272214525000e-14 -2.204088996005885287e-14
2.063000000000000000e+03 2.872579956054687500e+01 3.785539627075195312e+01 2.601226957831405222e-15 1.498053932421847256e-13 4.572198807170808899e-14 -2.265969623242258639e-15
2.064000000000000000e+03 2.866885757446289062e+01 3.077697753906250000e+01 2.273522827791162049e-14 5.549461714812742308e-14 2.346895362781171307e-14 1.878697054153409540e-14
2.065000000000000000e+03 3.319425582885742188e+01 2.516680717468261719e+01 -6.745084295245971917e-15 8.861114560209173985e-14 2.455981856146031983e-14 -1.851154930840488710e-14
2.066000000000000000e+03 3.380224227905273438e+01 1.776478576660156250e+01 1.428789947683153927e-13 6.123385490070659687e-14 6.123385490070659687e-14 -7.269467146298058680e-14
2.067000000000000000e+03 3.279298019409179688e+01 1.098582363128662109e+01 4.450385304960273458e-14 -4.955334509696915357e-14 -1.514847381275865202e-15 -8.258827378492678006e-14
2.068000000000000000e+03 2.840855979919433594e+01 1.873143553733825684e+00 4.385283369073844639e-14 -1.184587774009579486e-13 -2.238178175781313506e-14 1.082127280577910300e-13
2.069000000000000000e+03 2.764571952819824219e+01 -5.798028945922851562e+00 -5.916392999431516198e-14 -3.393427439003435242e-14 -2.792946131530485432e-14 -2.222521449377675568e-14
2.070000000000000000e+03 2.541040229797363281e+01 -1.154807758331298828e+01 -1.265179774096944487e-13 -8.471040980218697003e-15 -4.049670619460030152e-14 1.459413373570278560e-13
2.071000000000000000e+03 2.573595237731933594e+01 -1.222373104095458984e+01 -1.311478323943321422e-13 -2.849609654145823789e-13 -1.248326393426743564e-13 6.861252153456467995e-14
2.072000000000000000e+03 2.890389251708984375e+01 -1.702554512023925781e+01 -1.006047797695065749e-13 -8.886728158907786224e-14 -5.684161976282804674e-14 1.548986768929241920e-14
2.073000000000000000e+03 2.738922882080078125e+01 -1.640764617919921875e+01 1.889010527319177901e-14 5.384670777298060373e-14 2.182104425266489373e-14 1.397371530553054297e-13
2.074000000000000000e+03 1.829977226257324219e+01 4.049617767333984375e+01 6.611592241571873085e-14 -2.589480834314474619e-16 1.975709262261749616e-14 -1.720072241209031055e-15
2.075000000000000000e+03 2.315168380737304688e+01 4.067326736450195312e+01 -1.695724215612735147e-14 8.995337433910163827e-14 2.189884084073841219e-14 3.640298579612490093e-15
2.076000000000000000e+03 2.549634361267089844e+01 3.477249526977539062e+01 6.340751847324710769e-15 8.278162768986241371e-14 2.673671356469460580e-14 1.863818073401940500e-14
2.077000000000000000e+03 2.424338912963867188e+01 2.718761062622070312e+01 1.107046227556479287e-14 1.305595985056501318e-13 4.248901577796893037e-14 -5.372569895206995988e-15
2.078000000000000000e+03 2.602587318420410156e+01 1.879456329345703125e+01 2.615143920913030190e-14 3.408323360413849368e-14 1.807040269101358593e-14 -1.930874114297684990e-14
2.079000000000000000e+03 2.133532142639160156e+01 9.392886161804199219e+00 3.656488428553129888e-14 1.529235180326715682e-13 5.684651561326317659e-14 9.863655302689428028e-14
2.080000000000000000e+03 2.046220970153808594e+01 1.030032634735107422e+00 5.326724236936856982e-14 -3.435986778844817013e-14 5.672212458979414632e-15 4.227427598518102014e-14
2.081000000000000000e+03 1.924931526184082031e+01 -3.299568414688110352e+00 -1.324747874332371511e-13 3.472698542031533997e-14 -2.932434162031608005e-14 8.121591100378536265e-14
2.082000000000000000e+03 2.097656822204589844e+01 -5.001122951507568359e+00 -3.754910268892290570e-14 1.669113252559389915e-13 3.880866439841257343e-14 1.574956290872290415e-14
2.083000000000000000e+03 2.151476287841796875e+01 -5.603267669677734375e+00 2.896531823529287231e-14 -3.333724152309626432e-14 -1.311576838110251834e-15 1.513570627338645114e-14
2.084000000000000000e+03 2.201938629150390625e+01 -6.228889942169189453e+00 -6.640543827709025071e-14 -2.114632660600232472e-13 -8.336061197876040718e-14 3.199050657080697302e-14
2.085000000000000000e+03 2.388406372070312500e+01 -8.834813117980957031e+00 -6.037513967504376522e-14 -1.173769604732519123e-13 -5.332563004448870325e-14 1.410240061663556310e-13
2.086000000000000000e+03 1.923091316223144531e+01 3.641416168212890625e+01 2.763367169265125867e-16 5.158824688505751765e-14 1.555937521294410708e-14 7.364145101010355354e-15
2.087000000000000000e+03 1.495106887817382812e+01 3.087773323059082031e+01 3.826012586177068853e-14 3.927267243505026817e-14 2.325983982785946591e-14 -4.195735013763635113e-14
2.088000000000000000e+03 1.577973747253417969e+01 2.402832031250000000e+01 -1.575135184230750524e-14 1.419400079243071655e-13 3.785659597756695083e-14 3.236306638936025173e-15
2.089000000000000000e+03 1.172880840301513672e+01 1.948685836791992188e+01 -2.511420501357004842e-15 9.042557149027338759e-14 2.637424614370786208e-14 -1.359807381170856366e-14
2.090000000000000000e+03 1.470357418060302734e+01 8.437257766723632812e+00 2.375923393641812993e-15 9.252014844356171164e-14 2.846882140293029162e-14 6.946408780215268530e-14
2.091000000000000000e+03 1.391607475280761719e+01 3.088483214378356934e-01 1.956944433161456748e-14 -1.288659391869562132e-13 -3.278895032007497767e-14 1.109035992652874364e-14
2.092000000000000000e+03 1.563882732391357422e+01 1.373040825128555298e-01 -1.149928812111192244e-13 -1.179090868995077979e-13 -6.987058907793539109e-14 6.473201288144034282e-14
2.093000000000000000e+03 1.669466781616210938e+01 -1.317654252052307129e+00 3.800633107385077702e-14 -7.521346962130817659e-14 -1.116214258067675658e-14 1.022071357127500579e-13
2.094000000000000000e+03 1.363601016998291016e+01 4.048278808593750000e+01 1.233344853926020973e-14 5.285763417673533526e-15 5.285763417673533526e-15 2.549521229170629427e-14
2.095000000000000000e+03 6.838934898376464844e+00 3.210649871826171875e+01 7.052377345301286127e-14 7.349000998946395719e-15 2.336183275910425072e-14 4.064984975146387902e-14
2.096000000000000000e+03 5.798151493072509766e+00 2.607555770874023438e+01 -2.688423451685430926e-14 3.422913333523715240e-14 2.203469814921442393e-15 -9.379274599010962304e-15
2.097000000000000000e+03 6.793478965759277344e+00 1.670309638977050781e+01 -8.989297750183061764e-14 -1.757784049609759092e-13 -7.970141609409467365e-14 -3.308505270964434697e-14
2.098000000000000000e+03 1.013579177856445312e+01 7.362419128417968750e+00 -6.277424868979253336e-14 -7.265419684062898731e-14 -4.062853501437917181e-14 2.041357873212336360e-14
2.099000000000000000e+03 5.876297950744628906e+00 1.858451008796691895e+00 -4.326532486225928564e-14 -2.472970287749343132e-13 -8.716870270302629065e-14 1.748111475453201225e-13
2.100000000000000000e+03 1.163336753845214844e+01 1.395437955856323242e+00 -8.834029834687770477e-14 -8.361107623313171477e-14 -5.158541440688189927e-14 -7.436778515050590510e-14
2.101000000000000000e+03 1.081712818145751953e+01 1.806897640228271484e+00 -5.884713289577847561e-14 -2.310994819988698712e-13 -8.698398175788907283e-14 -6.197389826936025928e-15
2.102000000000000000e+03 1.412481188774108887e+00 3.732049942016601562e+01 5.436199433721212657e-15 4.808074782498145128e-14 1.605508430466574127e-14 1.162100472275329199e-13
2.103000000000000000e+03 1.006281614303588867e+00 3.884811019897460938e+01 -1.179380486500403169e-13 2.010853370751006230e-13 2.494418517226537624e-14 8.450247168396551184e-15
2.104000000000000000e+03 2.410341262817382812e+00 3.639072418212890625e+01 5.803709834766024311e-14 2.487304118095959304e-14 2.487304118095959304e-14 7.849354711131004136e-14
2.105000000000000000e+03 1.155489206314086914e+00 2.901045989990234375e+01 4.429170517763342252e-14 -2.326480479618309172e-13 -5.650690622339103741e-14 5.456194916990571298e-14
2.106000000000000000e+03 3.618560135364532471e-01 2.031284332275390625e+01 4.034618166360963432e-14 6.304216859914085758e-14 3.101650338475925306e-14 -1.176205303029490435e-15
2.107000000000000000e+03 1.071009635925292969e+00 1.533442687988281250e+01 -1.039763978041841064e-13 -3.648179577441651444e-13 -1.406383012434939128e-13 -4.187898264935638326e-14
2.108000000000000000e+03 3.471997380256652832e-01 6.673377990722656250e+00 9.519233241017579367e-15 -4.167127661816247275e-14 -9.645613097846762740e-15 4.619765975202947544e-15
2.109000000000000000e+03 1.040871024131774902e+00 9.742760658264160156e+00 3.198796208383342110e-14 -2.150456191157140706e-13 -5.491729643193783705e-14 -3.322697477402269950e-14
2.110000000000000000e+03 3.558738529682159424e-01 4.274341106414794922e+00 -9.283689133198977372e-14 -1.999155642461517002e-13 -8.782573599581608437e-14 -2.686364314590655722e-14
2.111000000000000000e+03 3.108292198181152344e+01 -1.780393028259277344e+01 -2.180064939336090468e-14 -9.343135091283410326e-15 -9.343135091283410326e-15 -3.896703923075839349e-14
2.112000000000000000e+03 4.115996932983398438e+01 -2.018517875671386719e+01 -8.056904210636262054e-14 -3.452958947415540880e-14 -3.452958947415540880e-14 5.191198626562990026e-14
2.113000000000000000e+03 4.546416854858398438e+01 -1.711118507385253906e+01 -1.088274910183810451e-13 1.535200460679730927e-13 1.340776668428420373e-14 -3.682684108293095282e-14
2.114000000000000000e+03 4.841095733642578125e+01 -1.834332084655761719e+01 -4.127579354695765090e-14 2.806132232233572027e-14 -3.964341621496463366e-15 1.023470045692642660e-13
2.115000000000000000e+03 4.771297836303710938e+01 -1.860111427307128906e+01 -3.708853157317199001e-13 -6.744895576305323659e-14 -1.315002794155528676e-13 1.530872867708255036e-13
2.116000000000000000e+03 5.468592834472656250e+01 -1.574589633941650391e+01 8.756355558171835529e-13 5.125252435997373901e-13 4.164482344040654205e-13 -4.464247168548679534e-13
2.117000000000000000e+03 5.538748931884765625e+01 -1.633049583435058594e+01 1.203771565934375065e-12 1.956454746473990092e-13 4.198251175955430847e-13 -4.223325248547959987e-13
2.118000000000000000e+03 5.703337097167968750e+01 -1.642688560485839844e+01 1.337988313893090364e-12 2.441218071875389528e-14 4.087201497388059934e-13 1.878870865314186123e-13
2.119000000000000000e+03 5.781586074829101562e+01 -1.617596817016601562e+01 1.473652254911639314e-12 3.799350157401848449e-13 5.560761811955472478e-13 4.765068005972705745e-13
2.120000000000000000e+03 5.932202911376953125e+01 -1.534700679779052734e+01 1.612787160765183359e-12 3.251869259979223159e-13 5.813922477129751520e-13 6.315284124640274666e-13
2.121000000000000000e+03 5.288603210449218750e+01 -1.528739929199218750e+01 4.248765781474789227e-13 2.164031757609374829e-13 1.923839234620194905e-13 -2.767673040076669422e-14
2.122000000000000000e+03 5.415633773803710938e+01 -1.714937019348144531e+01 -2.733279267253408557e-14 1.026633205530869120e-13 2.259915751713290066e-14 8.773419545114041762e-14
2.123000000000000000e+03 5.278304672241210938e+01 -1.749468421936035156e+01 -8.306640016672930948e-14 -1.042263064049420151e-13 -5.618781197150139739e-14 -2.041253010533466278e-14
2.124000000000000000e+03 5.063607788085937500e+01 -1.792121696472167969e+01 -2.771420788173772909e-13 1.557305174572365392e-13 -3.642347382905308795e-14 1.654111147098707990e-13
2.125000000000000000e+03 5.136470413208007812e+01 -1.778668594360351562e+01 -9.161300326210666811e-14 -1.078891411431491532e-13 -5.985064332157674638e-14 -5.969087257893385123e-14
2.126000000000000000e+03 5.146576690673828125e+01 -1.095554828643798828e+01 -1.433591201478734423e-13 1.215641763684452425e-13 -6.538484065564701894e-15 -1.750495907081039970e-13
2.127000000000000000e+03 4.911007690429687500e+01 -5.766000270843505859e+00 4.627404518321286825e-15 2.536134008964546771e-13 7.747224221735585226e-14 -9.419613526684411653e-14
2.128000000000000000e+03 4.630134963989257812e+01 2.590909004211425781e+01 9.240536531481338689e-14 1.768551396909984197e-13 8.077815082411718417e-14 6.199417200295279096e-14
2.129000000000000000e+03 4.552147674560546875e+01 2.644246482849121094e+01 -3.420343774374924595e-14 1.797829192375782759e-13 4.367384546458824568e-14 2.239663702164208098e-14
2.130000000000000000e+03 4.867349624633789062e+01 2.923436355590820312e+01 8.132578811770319049e-14 1.263558078697449294e-13 6.230447744098172036e-14 -1.373878800710413156e-14
2.131000000000000000e+03 4.973516845703125000e+01 3.052200698852539062e+01 1.051901960175995188e-13 4.508151257897122233e-14 4.508151257897122233e-14 -1.693755372230137252e-14
2.132000000000000000e+03 4.681791687011718750e+01 3.013055229187011719e+01 -1.116830220426918985e-13 4.363774492037626740e-14 -2.041358381432104713e-14 1.219643960478911104e-13
2.133000000000000000e+03 6.858616638183593750e+01 2.919688987731933594e+01 4.938023189134110869e-13 1.812912775629726969e-12 6.920145337839522792e-13 -6.568604709634995320e-13
2.134000000000000000e+03 6.931526947021484375e+01 2.682614326477050781e+01 -2.806756664922287897e-14 2.046763800112039178e-12 6.056088790173941305e-13 -4.668459629292298629e-13
2.135000000000000000e+03 6.957865142822265625e+01 2.520533370971679688e+01 -6.498241614943944811e-14 2.168195961313457154e-12 6.309640310231401372e-13 -3.164038584087258688e-13
2.136000000000000000e+03 6.970995330810546875e+01 1.952854156494140625e+01 2.832462590212150855e-14 1.887927965002478281e-12 5.748758131855769005e-13 -4.532746722993134803e-14
2.137000000000000000e+03 6.955130767822265625e+01 1.308557319641113281e+01 4.705706446251137209e-14 1.712952371092646420e-12 5.280028259231628329e-13 1.328119743088801430e-13
2.138000000000000000e+03 7.026181030273437500e+01 1.078536510467529297e+01 -1.140807690284614817e-13 1.506640515472335018e-12 4.177679252884147765e-13 -2.978708249566468236e-14
2.139000000000000000e+03 6.956787872314453125e+01 9.937494277954101562e+00 2.765801774889595221e-14 1.773265020064973552e-12 5.402769160875453558e-13 -2.278658490194318542e-13
2.140000000000000000e+03 6.994501495361328125e+01 7.549035549163818359e+00 1.945359563541859682e-13 2.279418190656579135e-12 7.421862061561534940e-13 -2.261501397390550117e-13
2.141000000000000000e+03 7.963417053222656250e+01 2.777797222137451172e+00 4.026988703435818717e-13 -9.025620420315128012e-13 -1.499589569273901413e-13 -6.725716039874055086e-14
2.142000000000000000e+03 7.001828765869140625e+01 5.110749721527099609e+00 5.571538442736799490e-14 1.876791473967576174e-12 5.797520666664390809e-13 -1.967546066935881022e-14
2.143000000000000000e+03 6.953164672851562500e+01 -5.500505566596984863e-01 1.091484013089095984e-13 1.693812082780021822e-12 5.408881350622840589e-13 3.107410433567797670e-13
2.144000000000000000e+03 7.963516998291015625e+01 -4.440346240997314453e+00 2.131843556936810491e-13 -4.576466701260162306e-13 -7.333868755343697643e-14 -5.054803621572061256e-14
2.145000000000000000e+03 6.693174743652343750e+01 -7.370261669158935547e+00 1.758039514746650989e-13 8.531106593726023313e-13 3.086743913856965227e-13 3.176967966044691449e-13
2.146000000000000000e+03 7.022393798828125000e+01 -2.075345420837402344e+01 -1.809309944705503326e-13 1.855261007755598657e-13 1.378533627920401801e-15 -2.498834438793753193e-14
2.147000000000000000e+03 7.964196777343750000e+01 -1.726764869689941406e+01 1.684369738954791251e-14 2.817244321943329632e-13 8.957043413177975810e-14 2.867541527986445724e-15
2.148000000000000000e+03 6.678249359130859375e+01 -9.099259376525878906e+00 9.066750781693173888e-15 6.672745038807659235e-13 2.029023786010233921e-13 2.310746537691199531e-13
2.149000000000000000e+03 6.578943634033203125e+01 -9.515566825866699219e+00 1.225597856709115252e-13 6.015369951282989458e-13 2.172290396607740037e-13 4.099481442244173879e-13
2.150000000000000000e+03 6.467023468017578125e+01 -1.320130348205566406e+01 1.678077707172043187e-13 3.006723559365043208e-13 1.405440434171234543e-13 9.983323439851157777e-14
2.151000000000000000e+03 6.380006027221679688e+01 -1.486229228973388672e+01 3.771433171187790756e-14 3.364199381312299453e-13 1.122402748542951356e-13 2.155064185915475661e-13
2.152000000000000000e+03 7.083158111572265625e+01 -2.107047843933105469e+01 -7.628192375723832908e-14 2.761266421676816796e-13 5.995341891126479417e-14 -6.639475888569126849e-14
2.153000000000000000e+03 6.919110870361328125e+01 -2.097595214843750000e+01 -2.275985118687512410e-13 3.399176082209860728e-14 -5.808202497518261120e-14 -7.377337130944072729e-14
2.154000000000000000e+03 6.274477005004882812e+01 -2.321077156066894531e+01 -1.128180461920126609e-13 -2.313543779296212133e-13 -1.032517306246219513e-13 -1.040478941611959474e-13
2.155000000000000000e+03 5.443199157714843750e+01 -2.094244956970214844e+01 6.119322442429270259e-14 2.092294572189970503e-13 8.112680313773421026e-14 2.716399594680524859e-14
2.156000000000000000e+03 7.963676452636718750e+01 -1.085311603546142578e+01 3.352961286981308298e-14 -2.143849063118014042e-13 -5.425658701615695967e-14 -3.480505814112966334e-14
2.157000000000000000e+03 6.657836151123046875e+01 -8.099638938903808594e+00 1.405865983523935103e-13 9.295193737976492621e-13 3.210318024870345566e-13 3.724962504246531747e-13
2.158000000000000000e+03 7.963439941406250000e+01 9.193911552429199219e+00 -3.500109883457398763e-14 -7.927666227473817440e-13 -2.483303005503673111e-13 -1.911901931531904270e-14
2.159000000000000000e+03 6.970531463623046875e+01 2.195119857788085938e+01 4.393349494423957891e-14 2.123372224577257938e-12 6.501917602409756913e-13 -4.003266427664471661e-14
2.160000000000000000e+03 7.963088226318359375e+01 1.641185951232910156e+01 2.958557971025998871e-15 -1.073879375181052698e-12 -3.212762358668214135e-13 -9.718505365155678810e-15
2.161000000000000000e+03 7.034472656250000000e+01 2.448550987243652344e+01 1.655396875350004238e-13 1.946734440316788550e-12 6.336822342897785454e-13 -1.456880406244809301e-13
2.162000000000000000e+03 7.963463592529296875e+01 2.282615280151367188e+01 -5.284879115276600037e-14 -1.463804338158736229e-12 -4.549959584446150451e-13 3.804445772087258759e-14
2.163000000000000000e+03 3.660049057006835938e+01 3.265869903564453125e+01 1.094038596695379173e-14 2.162868815254112564e-13 6.816818160296223006e-14 4.781127022204312640e-15
2.164000000000000000e+03 2.298238563537597656e+01 2.988654136657714844e+01 -2.685714470913522223e-15 3.316219030608490159e-14 9.142943089364592713e-15 2.621696737199578908e-14
2.165000000000000000e+03 1.306996536254882812e+01 3.144706153869628906e+01 -1.273439243187598005e-14 -3.977080912319873318e-14 -1.575156021241252979e-14 6.326090638743980810e-14
2.166000000000000000e+03 6.413678169250488281e+00 3.053845977783203125e+01 2.409028448187473803e-14 -3.542653976705729957e-14 -3.400877093774536813e-15 -1.467381412505099764e-14
2.167000000000000000e+03 1.325919342041015625e+01 2.572888755798339844e+01 -1.065612425095409030e-14 -3.888012348597473522e-14 -1.486087457518853183e-14 1.602267343597200272e-14
2.168000000000000000e+03 2.029261779785156250e+01 2.763793182373046875e+01 3.041466275881254955e-14 1.045367541445060833e-13 4.048542371574287424e-14 -1.721122329129565892e-14
2.169000000000000000e+03 3.175212097167968750e+01 2.410486984252929688e+01 2.566649590616826987e-14 2.168791947247672436e-13 7.276370803631360129e-14 -7.920007084514200935e-15
2.170000000000000000e+03 3.890378570556640625e+01 2.634083747863769531e+01 2.732626204851075491e-14 1.260886333493901890e-13 4.602446692530438865e-14 2.058076609525241740e-14
2.171000000000000000e+03 1.179554224014282227e+00 3.063236808776855469e+01 -3.959523613389186181e-14 1.889098822033599689e-13 4.479439212677453763e-14 -2.971146617039739646e-14
2.172000000000000000e+03 6.908694744110107422e+00 1.735601043701171875e+01 -3.752801495666806264e-14 7.541846514707087334e-14 1.136713471830766431e-14 -3.935144649914491810e-14
2.173000000000000000e+03 1.372545146942138672e+01 2.068663787841796875e+01 -3.134884523194395034e-14 5.519120317015735466e-14 7.152707889683789649e-15 3.606135369157471848e-14
2.174000000000000000e+03 2.570568084716796875e+01 1.726181602478027344e+01 -1.091263462650289909e-14 5.251184144634823969e-14 1.247976246947007581e-14 3.049117016274034697e-14
2.175000000000000000e+03 3.271904373168945312e+01 2.047505569458007812e+01 4.242739921325386354e-14 9.604867424952041877e-15 1.560968049968153998e-14 -3.581313238044774028e-14
2.176000000000000000e+03 1.107688665390014648e+00 2.337633514404296875e+01 5.222751620287749419e-14 -2.063715273973795727e-13 -4.624320132547155016e-14 6.768461388150653901e-14
2.177000000000000000e+03 5.751540660858154297e+00 1.012943077087402344e+01 1.396815775295701806e-14 -1.083910183287926932e-13 -2.832685868097047088e-14 2.044643852827914693e-14
2.178000000000000000e+03 1.768752861022949219e+01 8.044633865356445312e+00 -4.328682255846059979e-14 2.559541933868508812e-13 6.380021565308841014e-14 2.065783762312308619e-14
2.179000000000000000e+03 2.199755287170410156e+01 7.789789676666259766e+00 1.516876359762553417e-13 1.793863587404645465e-13 9.932219570451053525e-14 -7.372174973350326121e-14
2.180000000000000000e+03 3.234882354736328125e+01 1.335381889343261719e+01 5.687158778850190388e-14 1.158754353320495811e-13 5.182410829141816111e-14 -3.870509937401768463e-14
2.181000000000000000e+03 4.249065399169921875e+01 1.194275665283203125e+01 -4.164952481207698232e-14 3.481577819011011377e-13 9.195248051483903562e-14 4.762972988562284848e-14
2.182000000000000000e+03 3.959304809570312500e+01 1.253321266174316406e+01 -5.411045011583306974e-14 2.513154886019802747e-13 5.916151764448138173e-14 -4.182668005892932472e-14
2.183000000000000000e+03 1.076354861259460449e+00 1.694202995300292969e+01 -8.214701705325233583e-14 -5.808134057256122973e-14 -4.206850796537042747e-14 9.357625622725268544e-14
2.184000000000000000e+03 1.527109050750732422e+01 1.140069484710693359e+00 -6.101408712034378512e-15 2.261398533709435554e-13 6.601153407529911088e-14 -3.053065206247776442e-14
2.185000000000000000e+03 2.116099739074707031e+01 5.169866085052490234e-01 -2.910881578095311784e-14 7.902668997710263210e-14 1.497536293647121208e-14 5.891956437716408534e-14
2.186000000000000000e+03 2.636983871459960938e+01 2.049973011016845703e+00 1.164874674584176484e-13 2.786779325098659443e-13 1.185496199904850778e-13 -6.297313880207142112e-14
2.187000000000000000e+03 4.081886291503906250e+01 5.248120784759521484e+00 -2.613177279816095155e-14 -5.695028053743361740e-14 -2.492461532305201288e-14 -8.548263957580334860e-14
2.188000000000000000e+03 4.638383865356445312e+01 -2.584817409515380859e+00 7.121956019720543374e-14 -1.522828019825776813e-14 1.679738501612383639e-14 -8.023787255277692321e-14
2.189000000000000000e+03 3.992245864868164062e+01 -3.402834892272949219e+00 5.430441727262251550e-14 -6.822857844023325069e-14 -4.177248011470041655e-15 -1.155574117298052705e-13
2.190000000000000000e+03 2.628941535949707031e+01 -1.182420253753662109e+01 -1.414138039524184820e-13 -1.063568653178297019e-13 -7.433120010344809736e-14 2.022642172022984242e-13
2.191000000000000000e+03 4.758288574218750000e+01 -1.049997329711914062e+01 1.276343532816484605e-13 5.470043566865000206e-14 5.470043566865000206e-14 6.026983526849168972e-16
2.192000000000000000e+03 3.595045471191406250e+01 -1.389930438995361328e+01 4.541911619482426332e-14 -7.203656074428188560e-14 -7.985234550683412841e-15 7.768873706241047339e-14
2.193000000000000000e+03 5.684977340698242188e+01 -2.605321502685546875e+01 -5.659594971493819848e-14 -2.758856240247381519e-13 -9.974447212190290513e-14 1.581644293617220920e-14
2.194000000000000000e+03 5.560434341430664062e+01 -2.588245964050292969e+01 9.218703410232911843e-15 -1.333019794807349667e-13 -3.722498044945836415e-14 9.749256388085977831e-14
2.195000000000000000e+03 6.022898483276367188e+01 -2.361118888854980469e+01 -1.476974331683297836e-13 -6.329890089732184699e-14 -6.329890089732184699e-14 -4.854693781849127310e-14
2.196000000000000000e+03 6.127178192138671875e+01 -2.373629570007324219e+01 -1.508407250017454460e-13 -1.103969753070074833e-13 -7.837131009262587877e-14 -2.020593707543344442e-13
2.197000000000000000e+03 6.487657165527343750e+01 -2.253565597534179688e+01 -2.611875559582754747e-13 1.625681739832879336e-13 -2.958581052673811551e-14 -1.189419792041804258e-13
2.198000000000000000e+03 6.636914062500000000e+01 -2.177329826354980469e+01 -4.790866054565912080e-13 -1.138209399778253306e-13 -1.778722704065885396e-13 -1.487769868240007565e-13
2.199000000000000000e+03 6.718009185791015625e+01 -2.156701087951660156e+01 -5.768428269770087269e-13 7.303827546023197725e-14 -1.511413742641756763e-13 -1.688953474689516843e-13
2.200000000000000000e+03 7.290833282470703125e+01 -2.546881866455078125e+01 7.209589370817115483e-14 -1.485270748351110587e-14 1.717295603680460414e-14 -1.485293110020918100e-14
2.201000000000000000e+03 7.507083892822265625e+01 -2.551240921020507812e+01 -7.232236660134443162e-15 8.840236892125249990e-14 2.435103849248929087e-14 -4.171594235953708651e-14
2.202000000000000000e+03 7.580171203613281250e+01 -2.549970054626464844e+01 1.497326737695970494e-14 2.809228002130514934e-13 8.876882247928902236e-14 -2.894575855047487600e-14
2.203000000000000000e+03 7.750314331054687500e+01 -2.205774688720703125e+01 2.405960156039339826e-14 3.763188491292396298e-13 1.201135409667139498e-13 2.917731406484815222e-15
2.204000000000000000e+03 7.808404541015625000e+01 -2.540990066528320312e+01 6.479813566143480252e-14 4.895154174047212925e-15 2.090798678123801518e-14 2.058071866140737116e-14
2.205000000000000000e+03 7.956735992431640625e+01 4.205332946777343750e+01 -2.788133120917597046e-14 -6.067114584167032643e-13 -1.903778377347967177e-13 1.869375456568875965e-14
2.206000000000000000e+03 7.840577697753906250e+01 4.015546035766601562e+01 1.010115927534138702e-13 -4.142188165818377898e-13 -9.396216443802174467e-14 3.667685187676295033e-14
2.207000000000000000e+03 7.833243560791015625e+01 4.100696563720703125e+01 -4.541540259062526366e-16 -4.119531864070491434e-13 -1.237221994776147027e-13 -2.391564153474395188e-14
2.208000000000000000e+03 7.950524139404296875e+01 3.959055328369140625e+01 4.590502172721437624e-14 -4.835868576240354155e-13 -1.313045538183649219e-13 -9.301830376643501624e-15
2.209000000000000000e+03 7.864813995361328125e+01 3.858864974975585938e+01 -6.166945345229338238e-14 -5.754411704084194668e-13 -1.911331878358402125e-13 -4.983513262972992519e-14
2.210000000000000000e+03 7.962339782714843750e+01 3.567043304443359375e+01 1.987903529735248788e-15 -6.854122846546018000e-13 -2.050273064388777322e-13 -7.796124280813523238e-15
2.211000000000000000e+03 7.961151123046875000e+01 3.487676620483398438e+01 1.299583169214486161e-14 -6.578191225244112150e-13 -1.934469836921415276e-13 2.492576220566259521e-14
2.212000000000000000e+03 7.959933471679687500e+01 3.407988357543945312e+01 6.697168996672511754e-14 -6.575620581893149019e-13 -1.771771206311723024e-13 -3.874452791067942506e-15
2.213000000000000000e+03 7.879122161865234375e+01 3.409885025024414062e+01 -3.065039541616521035e-14 -6.536491725488147164e-13 -2.052898730999994092e-13 8.685200724844327480e-14
2.214000000000000000e+03 7.959776306152343750e+01 3.165820121765136719e+01 2.521695434523673132e-15 -1.028315670462132125e-12 -3.077381828097552896e-13 -6.484998085407034374e-14
2.215000000000000000e+03 7.960557556152343750e+01 3.085111236572265625e+01 -1.030880906354759985e-13 -8.676976780315481808e-13 -2.912357312777336116e-13 1.089530009723733983e-13
2.216000000000000000e+03 7.962435913085937500e+01 2.843832588195800781e+01 1.028510975930978233e-13 -1.236947501891128010e-12 -3.402289300985517073e-13 6.177372659623217577e-14
2.217000000000000000e+03 7.962817382812500000e+01 2.763600730895996094e+01 -6.760689013826648441e-14 -1.172748096550657593e-12 -3.721065068486989480e-13 1.679922985388295625e-14
2.218000000000000000e+03 7.963081359863281250e+01 2.683398628234863281e+01 3.719466005807844922e-14 -1.150708651628806756e-12 -3.340541818858122625e-13 8.063470410043377390e-14
2.219000000000000000e+03 7.963253021240234375e+01 2.603208351135253906e+01 -3.267443146560619627e-14 -1.180652472489163163e-12 -3.639980840613316060e-13 6.211972939079019040e-14
2.220000000000000000e+03 7.963390350341796875e+01 2.523039245605468750e+01 1.169347686172036993e-13 -1.299538059627847186e-12 -3.547809832374348993e-13 7.466640153386272516e-14
2.221000000000000000e+03 7.889697265625000000e+01 2.677537536621093750e+01 -7.096419670426720727e-14 -9.911831555173278296e-13 -3.186441995678412908e-13 -6.403827256884833674e-14
2.222000000000000000e+03 7.963472747802734375e+01 2.442885780334472656e+01 1.416825658125163770e-14 -1.206328006236878636e-12 -3.576479390421383187e-13 -2.861480244919188676e-14
2.223000000000000000e+03 7.963412475585937500e+01 2.202479553222656250e+01 9.592860224704943817e-14 -1.285665259150026163e-12 -3.569210085905411001e-13 5.918735553750442691e-14
2.224000000000000000e+03 7.963397979736328125e+01 2.122374153137207031e+01 -2.065567430097579871e-14 -1.175501644808119028e-12 -3.588472021701788472e-13 3.670939488259646055e-14
2.225000000000000000e+03 7.963368225097656250e+01 2.042261314392089844e+01 -4.236636201907471866e-14 -1.161930686215117969e-12 -3.612891236182136367e-13 -1.019496055095327550e-14
2.226000000000000000e+03 7.963318634033203125e+01 1.962120056152343750e+01 1.120144897518750293e-13 -1.164393885130787787e-12 -3.157138450411017816e-13 -1.117231307468102841e-13
2.227000000000000000e+03 7.963259887695312500e+01 1.881928634643554688e+01 7.206563091503165319e-15 -1.232187095412395905e-12 -3.674941481766197393e-13 -5.706073363375557816e-14
2.228000000000000000e+03 7.890338897705078125e+01 2.037345695495605469e+01 4.181001045052736009e-14 -8.513494271535082536e-13 -2.428618287378392360e-13 -1.537132644476371657e-13
2.229000000000000000e+03 7.963205718994140625e+01 1.801706314086914062e+01 1.287811359423430072e-14 -1.161130002910737424e-12 -3.444755602727972432e-13 -9.146303777286118875e-14
2.230000000000000000e+03 7.963043975830078125e+01 1.560902023315429688e+01 4.034729297083643196e-14 -1.080731099230292092e-12 -3.121151340851335831e-13 -1.618121936897316815e-14
2.231000000000000000e+03 7.963036346435546875e+01 1.480645561218261719e+01 -1.030857816236617833e-14 -1.079565256634218429e-12 -3.269621444250414566e-13 1.171928443096390340e-14
2.232000000000000000e+03 7.963031005859375000e+01 1.400381565093994141e+01 8.703777173817150992e-14 -9.463434810091930771e-13 -2.577917263338336262e-13 -2.147270872937014075e-14
2.233000000000000000e+03 7.963039398193359375e+01 1.320140743255615234e+01 -2.279293155041037244e-14 -9.705383198499450970e-13 -2.979993639004585582e-13 -7.010521720432483228e-14
2.234000000000000000e+03 7.963055419921875000e+01 1.239944839477539062e+01 -3.925942145162342189e-14 -9.318444453565444263e-13 -2.913311681739666481e-13 -2.429195963848419793e-14
2.235000000000000000e+03 7.963084411621093750e+01 1.159777450561523438e+01 9.559143570019718039e-14 -7.596738450972584378e-13 -1.992247241743710928e-13 -5.328950917148599087e-14
2.236000000000000000e+03 7.963162994384765625e+01 1.079640960693359375e+01 -1.481588831654667704e-13 -8.641382422992782697e-13 -3.036891484814452369e-13 -4.446367319471677959e-14
2.237000000000000000e+03 7.889640045166015625e+01 1.073701000213623047e+01 -5.772240866709632545e-14 -7.110023832711254155e-13 -2.306174457129828159e-13 -1.437682235088701133e-14
2.238000000000000000e+03 7.963586425781250000e+01 8.392273902893066406e+00 -1.043932701513729938e-14 -9.194929973671550627e-13 -2.789796930795229724e-13 1.520137504372118253e-14
2.239000000000000000e+03 7.963749694824218750e+01 7.590684890747070312e+00 -1.771803698495579699e-14 -1.014114356726047994e-12 -3.095496949045983825e-13 -6.724425839288797335e-14
2.240000000000000000e+03 7.963825988769531250e+01 6.788997173309326172e+00 -4.174201064552178486e-14 -9.329083729484044518e-13 -2.923951228708809857e-13 -5.689523694838924395e-14
2.241000000000000000e+03 7.963811492919921875e+01 5.987184047698974609e+00 -9.423055190955695326e-15 -9.648084197885764546e-13 -2.922694367340356036e-13 -4.438631791080878061e-15
2.242000000000000000e+03 7.963735961914062500e+01 5.185027599334716797e+00 -1.210376877934862816e-13 -9.897677295811480036e-13 -3.332416265676430012e-13 3.178818428102581084e-14
2.243000000000000000e+03 7.821514129638671875e+01 6.684578418731689453e+00 -3.715062112108480363e-14 -5.191821365185811388e-13 -1.668998191603834891e-13 -9.009171176004721060e-14
2.244000000000000000e+03 7.963639068603515625e+01 4.382583618164062500e+00 1.912551605802448318e-13 -1.107558164105404419e-12 -2.748908956365370138e-13 -5.922846712863236163e-14
2.245000000000000000e+03 7.963328552246093750e+01 1.975857615470886230e+00 -5.543561486590076193e-13 -9.467208917854352812e-13 -4.503231283963654574e-13 5.313925569103844504e-14
2.246000000000000000e+03 7.963330841064453125e+01 1.174020290374755859e+00 1.272291842192851963e-12 -3.468755773068654680e-13 2.776248740447850860e-13 -5.555750629514244476e-13
2.247000000000000000e+03 7.963385772705078125e+01 3.719211816787719727e-01 1.100277421256512511e-12 -2.604677270309080361e-13 2.519428892941433240e-13 5.402279643594576353e-13
2.248000000000000000e+03 7.963442230224609375e+01 -4.300883710384368896e-01 -5.844988664079064922e-13 -7.537599559272190053e-13 -4.014776521215485117e-13 -1.653410888020553915e-13
2.249000000000000000e+03 7.963459014892578125e+01 -1.231763839721679688e+00 4.248697747788465762e-13 -8.244338371710124846e-13 -1.198692160071443413e-13 1.551455090700176731e-13
2.250000000000000000e+03 7.963461303710937500e+01 -2.033688783645629883e+00 -2.687919060505999935e-13 -8.700872054095976083e-13 -3.416637361485647117e-13 -1.112908728931674696e-13
2.251000000000000000e+03 7.818952178955078125e+01 -5.430736541748046875e-01 2.417947298546246904e-13 -3.996341289575627842e-13 -4.735182176376050156e-14 7.292617573186055413e-14
2.252000000000000000e+03 7.963481903076171875e+01 -2.835997104644775391e+00 2.316212542943785202e-13 -5.869980066255942042e-13 -1.066130216336065584e-13 2.337820082377699282e-14
2.253000000000000000e+03 7.963518524169921875e+01 -5.241690635681152344e+00 -1.404301479789038520e-13 -5.405693254134646963e-13 -2.042998338861942709e-13 -2.559663432274462969e-14
2.254000000000000000e+03 7.963549041748046875e+01 -6.042702198028564453e+00 1.223179950339201016e-13 -5.423403154521111436e-13 -1.260066947702045970e-13 -8.960149991215325682e-15
2.255000000000000000e+03 7.963562774658203125e+01 -6.843790531158447266e+00 -1.913733792746272200e-13 -4.709002285330221582e-13 -1.986820809870420979e-13 -3.827425437133089026e-14
2.256000000000000000e+03 7.963582611083984375e+01 -7.645157814025878906e+00 1.680286769098482402e-13 -3.854971897254699797e-13 -6.524055791044466868e-14 -2.766547163883179006e-14
2.257000000000000000e+03 7.963620758056640625e+01 -8.446924209594726562e+00 -1.076240604882400254e-13 -2.977548221004544526e-13 -1.216136701976192058e-13 -8.434951447435033028e-15
2.258000000000000000e+03 7.818743896484375000e+01 -6.958766937255859375e+00 -6.892897981992246459e-14 -1.896693116150774405e-13 -7.757948336474182471e-14 -7.437575403647367356e-14
2.259000000000000000e+03 7.963667297363281250e+01 -9.248886108398437500e+00 1.374873928898165398e-13 -3.299599092218552521e-13 -5.774174812334803564e-14 -3.599979811323185397e-14
2.260000000000000000e+03 7.963685607910156250e+01 -1.165501403808593750e+01 -3.655067784893994975e-14 9.871279276841074535e-14 1.864863481465441758e-14 2.912664455394339998e-15
2.261000000000000000e+03 7.963764190673828125e+01 -1.245658111572265625e+01 6.604906102299426540e-14 5.431265890319929984e-15 2.144409765047778499e-14 -5.312723798758280103e-14
2.262000000000000000e+03 7.963821411132812500e+01 -1.325826263427734375e+01 -1.657195160178343007e-13 2.047924580839220049e-14 -4.357208292630511404e-14 5.361351282633791682e-14
2.263000000000000000e+03 7.963867950439453125e+01 -1.406004333496093750e+01 2.089615034283308359e-14 1.004573892604207486e-13 3.640606221978932855e-14 5.481623523693503197e-14
2.264000000000000000e+03 7.963916015625000000e+01 -1.486206340789794922e+01 2.816959176771965945e-14 1.493255253606426414e-13 5.324853649376140585e-14 -2.140390424306467393e-14
2.265000000000000000e+03 7.892105865478515625e+01 -1.411536884307861328e+01 6.062271724113083016e-14 2.547359025106832320e-13 9.460758999130236546e-14 -1.135852412017905599e-13
2.266000000000000000e+03 7.963982391357421875e+01 -1.566403579711914062e+01 -2.829024822292424551e-14 1.708793967870186892e-13 4.277674609388763816e-14 7.369784646373174486e-15
2.267000000000000000e+03 7.964399719238281250e+01 -1.806871795654296875e+01 -4.253605998785943421e-14 1.647740510658454727e-13 3.667140037271442166e-14 1.391418566059092130e-14
2.268000000000000000e+03 7.964689636230468750e+01 -1.886919593811035156e+01 5.368725212659408719e-14 2.975145086889230406e-13 1.053605309551605695e-13 -3.035866710473546226e-14
2.269000000000000000e+03 7.892926025390625000e+01 -1.732525062561035156e+01 1.091029681556847722e-14 4.164343837213119182e-13 1.282033967918774775e-13 -2.338362014057352584e-14
2.270000000000000000e+03 7.964914703369140625e+01 -1.966981315612792969e+01 9.547137894431925037e-15 9.559352956564279302e-14 3.154219913687958399e-14 5.183734487528490406e-15
2.271000000000000000e+03 7.575471496582031250e+01 -2.475969314575195312e+01 4.563846130574639517e-15 2.307106870998165693e-13 7.058235425164496868e-14 1.631646342559536778e-14
2.272000000000000000e+03 7.962785339355468750e+01 -2.208542633056640625e+01 2.499701631125152146e-14 1.250903813041284729e-13 4.502621826817446160e-14 -2.459525333777575623e-14
2.273000000000000000e+03 7.962020874023437500e+01 -2.289685821533203125e+01 -4.171314969190998909e-15 1.125896657806421675e-13 3.252550613281994518e-14 2.797467932216107789e-14
2.274000000000000000e+03 5.317696928977966309e-01 4.195307159423828125e+01 1.349193973638465258e-14 2.865773346709052372e-14 1.264490255396561597e-14 -2.936927163597023716e-14
2.275000000000000000e+03 5.953760743141174316e-01 4.105500411987304688e+01 3.003914594824040607e-14 -3.287702819406226884e-14 -8.513643031696444072e-16 -1.604398192618872393e-16
2.276000000000000000e+03 5.938170909881591797e+00 3.784506225585937500e+01 -1.344656248733434520e-14 3.998813744867345255e-14 7.962472234291848028e-15 3.793345913533259506e-14
2.277000000000000000e+03 2.785470962524414062e+01 4.099919128417968750e+01 7.593885847294139235e-15 1.061941604530575178e-13 3.413641372069890767e-14 1.205968664367467261e-14
2.278000000000000000e+03 4.949571609497070312e+01 3.988470458984375000e+01 5.316045184351053665e-14 2.401000676489212227e-13 8.797815449247681219e-14 1.712651830250433438e-14
2.279000000000000000e+03 6.440462493896484375e+01 3.911373519897460938e+01 -5.767006880721958773e-14 3.641673280204565932e-13 9.194917369821295483e-14 -8.693711711898338690e-14
2.280000000000000000e+03 7.666924285888671875e+01 4.181207656860351562e+01 -6.424057791797055383e-14 -3.020373664716635709e-13 -1.098833887379010998e-13 5.237431378890024247e-14
2.281000000000000000e+03 7.851597595214843750e+01 4.197414779663085938e+01 1.637659937671863408e-14 -4.962418822217207204e-13 -1.439595919685773828e-13 -3.166146137585298947e-14
2.282000000000000000e+03 3.870367109775543213e-01 1.892919063568115234e+00 -2.972190500443935846e-14 -1.499908053662069030e-13 -5.391381311119387842e-14 -1.413132679178429746e-14
2.283000000000000000e+03 1.164594888687133789e+00 1.877881169319152832e+00 -2.105687653864048159e-14 -1.005262767559550463e-13 -3.647494632719183727e-14 5.429157286501035129e-14
2.284000000000000000e+03 1.886546730995178223e+00 2.609880208969116211e+00 -1.888737274490393664e-14 -7.672101208456780230e-14 -2.868251426299539553e-14 2.493299925516393595e-14
2.285000000000000000e+03 1.059631824493408203e+00 4.986393928527832031e+00 -1.837539723246323087e-14 -9.937706988696545785e-14 -3.532573945820224881e-14 -1.658582837315170783e-15
2.286000000000000000e+03 4.194588661193847656e+00 2.560715913772583008e+00 1.595529874128150116e-14 5.258893499707553709e-14 2.056326978269393257e-14 -3.808852037478875630e-14
2.287000000000000000e+03 3.338628292083740234e+00 3.294089794158935547e+00 -2.154567722964430970e-14 8.226803434449245223e-14 1.821670730386103221e-14 -6.521350028997757731e-14
2.288000000000000000e+03 3.491001725196838379e-01 5.872678279876708984e+00 4.124955585438350170e-14 -1.882008952977173855e-13 -4.408540183300016513e-14 4.806603316862174957e-14
2.289000000000000000e+03 3.452894091606140137e-01 8.273460388183593750e+00 -1.634318900914713546e-14 -2.987969707811746756e-14 -1.386686616499255981e-14 -3.970622370800354003e-15
2.290000000000000000e+03 3.453600108623504639e-01 9.073584556579589844e+00 -4.712024380301412310e-15 -1.392722878213251136e-13 -4.319529217818030009e-14 6.193176939166267214e-14
2.291000000000000000e+03 3.463434278964996338e-01 9.873931884765625000e+00 -1.565948603698009284e-14 -5.246215788179409145e-14 -2.043649266741248693e-14 3.940957667624908622e-14
2.292000000000000000e+03 3.478623926639556885e-01 1.067491626739501953e+01 3.711625191221701314e-14 -1.670968322476512613e-13 -3.899417477825663225e-14 1.511298037941161826e-14
2.293000000000000000e+03 3.495450019836425781e-01 1.147637844085693359e+01 -4.209671416251399567e-14 -6.379239584491935844e-14 -3.176673401866954294e-14 5.472289559427939709e-14
2.294000000000000000e+03 1.044094324111938477e+00 1.053779506683349609e+01 -4.983928626754502347e-16 -9.171549424872443845e-14 -2.766416551402712393e-14 1.039564806714623688e-14
2.295000000000000000e+03 3.529245257377624512e-01 1.308042621612548828e+01 -1.202380717506192770e-14 -1.195304299332969333e-13 -3.946627028547471105e-14 6.675883397521190088e-14
2.296000000000000000e+03 3.569000661373138428e-01 1.549022388458251953e+01 1.527211923547586170e-14 -1.993340795159934120e-13 -5.521858605127619168e-14 -9.576195359687483810e-15
2.297000000000000000e+03 3.575869500637054443e-01 1.629407119750976562e+01 -5.313443437950267356e-14 -2.972775834091806457e-13 -1.051236056754181747e-13 -6.505070733377887882e-14
2.298000000000000000e+03 3.584119379520416260e-01 1.709798622131347656e+01 -3.833071758759486192e-14 -2.223067243527568349e-13 -7.819123088803961452e-14 4.439192950408434035e-14
2.299000000000000000e+03 3.591830730438232422e-01 1.790200424194335938e+01 3.127961214696717285e-14 -2.839756153751732404e-13 -7.580880503421996708e-14 8.931292933955087276e-14
2.300000000000000000e+03 3.598467111587524414e-01 1.870573425292968750e+01 7.851009474696760138e-14 5.652265764807817838e-14 4.050982504088737612e-14 -6.166505735129713256e-15
2.301000000000000000e+03 3.648309707641601562e-01 2.192110443115234375e+01 -7.133576634130514571e-14 -3.057247177314960374e-14 -3.057247177314960374e-14 1.163798874978527742e-13
2.302000000000000000e+03 3.665958642959594727e-01 2.272566032409667969e+01 5.091359530696483449e-14 -4.680631221693799804e-14 1.232184757601461483e-15 6.189132187436538479e-14
2.303000000000000000e+03 3.687115907669067383e-01 2.353036880493164062e+01 -6.586102563793444151e-15 6.580380771531446626e-14 1.776531158780795400e-14 -1.834145026951964665e-15
2.304000000000000000e+03 3.708012402057647705e-01 2.433489990234375000e+01 -2.614042439268420698e-14 -1.484558867980920183e-13 -5.237889115494720471e-14 -2.677755918747710268e-14
2.305000000000000000e+03 3.728942275047302246e-01 2.513884925842285156e+01 -2.768806539566685126e-14 -5.761726138515596563e-14 -2.559159786484025562e-14 4.094010761369719364e-14
2.306000000000000000e+03 1.114358782768249512e+00 2.418212890625000000e+01 -5.461316755816028601e-14 -1.149075409476174592e-13 -5.085621390698603916e-14 4.351411876765860776e-14
2.307000000000000000e+03 3.787354826927185059e-01 2.674679565429687500e+01 3.394563140779113808e-14 -5.407829674515529650e-14 -6.039798923582889723e-15 5.687084239950832010e-14
2.308000000000000000e+03 3.858747184276580811e-01 2.915996932983398438e+01 -2.874435783254032650e-14 -1.266963828771769385e-13 -4.663222322935471620e-14 -1.099537280479069914e-14
2.309000000000000000e+03 3.893964290618896484e-01 2.996501350402832031e+01 -3.163556249645774199e-14 -1.355809809176289696e-14 -1.355809809176289696e-14 3.900058173546966378e-14
2.310000000000000000e+03 3.970092236995697021e-01 3.077415657043457031e+01 -8.221980090034400335e-14 5.626484114772470346e-14 -7.786487586972611064e-15 2.997665524552377281e-14
2.311000000000000000e+03 4.073240160942077637e-01 3.158649063110351562e+01 7.586209357099762962e-14 1.240142293327736733e-13 5.996289212774688626e-14 6.977558416850545425e-15
2.312000000000000000e+03 1.213531494140625000e+00 3.146073532104492188e+01 1.407857908554345679e-15 -4.514758114885705775e-14 -1.312191678150840049e-14 2.373505580445522956e-14
2.313000000000000000e+03 4.259471595287322998e-01 3.320398330688476562e+01 6.199129886719570437e-14 1.180696030311442768e-13 5.401826921424927874e-14 1.055675796887874107e-14
2.314000000000000000e+03 4.611937701702117920e-01 3.564039230346679688e+01 -7.041378791887778488e-14 -3.017733767951905066e-14 -3.017733767951905066e-14 5.168896587874963200e-15
2.315000000000000000e+03 4.724554419517517090e-01 3.646091461181640625e+01 1.932655424585760784e-14 5.403375636465687637e-14 2.200809284434116636e-14 2.442689876324538600e-14
2.316000000000000000e+03 4.585023522377014160e-01 3.727566528320312500e+01 6.252471278353141648e-14 2.784265331311208680e-13 1.022853676757584651e-13 -3.485512795270775954e-14
2.317000000000000000e+03 4.063645601272583008e-01 3.807600402832031250e+01 -1.352750783568598680e-13 7.927781152904100903e-14 -1.679918072597201550e-14 3.769591721560459907e-14
2.318000000000000000e+03 3.466589748859405518e-01 3.885123443603515625e+01 1.088241977542821204e-13 8.879945076714526424e-16 3.291365728683333380e-14 -1.939341902671386231e-14
2.319000000000000000e+03 4.214434623718261719e-01 4.034104156494140625e+01 5.449793380788402197e-14 -2.239469223399518510e-14 9.630972133353472159e-15 1.855513127112348899e-15
2.320000000000000000e+03 9.935084342956542969e+00 1.996540069580078125e+00 8.734185317810401472e-15 -1.563851045188746625e-13 -4.429527288040725763e-14 2.910032851082162975e-14
2.321000000000000000e+03 9.067555427551269531e+00 1.944917201995849609e+00 -7.068290722687942118e-14 -1.217945693300984122e-13 -5.774324567759878124e-14 9.802339604077225932e-14
2.322000000000000000e+03 8.255141258239746094e+00 1.909103393554687500e+00 -2.694840234480650604e-14 -1.030512142090843353e-13 -3.899988378032112624e-14 -6.715652017911253116e-15
2.323000000000000000e+03 7.306103706359863281e+00 2.644976854324340820e+00 5.875107258329625992e-14 1.395564030006249401e-13 5.949223996467092879e-14 -2.190173091715444387e-14
2.324000000000000000e+03 6.665407180786132812e+00 1.868564486503601074e+00 -2.510335621558161534e-14 -1.022604784596363448e-13 -3.820915141900492473e-14 -9.676489481653255398e-14
2.325000000000000000e+03 4.302811622619628906e+00 1.852211833000183105e+00 -9.236229538351140023e-14 -1.310857347149030350e-13 -6.703441106240340397e-14 -4.093854568494245671e-14
2.326000000000000000e+03 3.517333507537841797e+00 1.854404211044311523e+00 1.036711237418618675e-14 -4.130789948379037790e-14 -9.282236810507615149e-15 8.895201198885760441e-15
2.327000000000000000e+03 1.947228431701660156e+00 1.867398142814636230e+00 3.839417051973957606e-14 6.220559142658746432e-14 3.017992960033764882e-14 -4.657162988043993257e-14
2.328000000000000000e+03 1.317859649658203125e+01 6.749805808067321777e-01 -9.034689229386883014e-14 -8.447104506755648279e-14 -5.244537985317487827e-14 -6.000767645373411563e-14
2.329000000000000000e+03 1.634773635864257812e+01 -2.878945767879486084e-01 -5.184283449581605918e-14 -9.084477826026490788e-14 -4.280628382682429012e-14 1.886733228418507879e-13
2.330000000000000000e+03 1.601676940917968750e+01 -8.749044537544250488e-01 -1.608836084103157371e-13 -2.977048674853571830e-13 -1.375765414134491604e-13 5.734687491586523689e-14
2.331000000000000000e+03 1.734736824035644531e+01 -1.794205188751220703e+00 -8.388818475589185364e-14 -3.595207966511533570e-14 -3.595207966511533570e-14 5.146915066454177401e-14
2.332000000000000000e+03 1.863524246215820312e+01 -2.771672487258911133e+00 -1.101306003857549509e-13 -9.294977710693624884e-14 -6.092411189255464432e-14 4.098570847944557616e-14
2.333000000000000000e+03 1.983181953430175781e+01 -3.858481884002685547e+00 -1.738328312675049836e-13 -7.449978676500601527e-14 -7.449978676500601527e-14 7.475326645666954817e-14
2.334000000000000000e+03 2.300450325012207031e+01 -7.499948501586914062e+00 -1.607643461713423316e-14 -2.356446472413092907e-13 -7.551632116940126815e-14 1.334112399546671934e-13
2.335000000000000000e+03 2.346127891540527344e+01 -8.159231185913085938e+00 -6.951395432582344047e-14 -7.554264017713835377e-14 -4.351697835088853827e-14 5.538393704697559816e-14
2.336000000000000000e+03 2.429832267761230469e+01 -9.512172698974609375e+00 -1.606957839364597795e-13 1.141341795379835489e-13 -1.396848216657581646e-14 1.110418858642561735e-13
2.337000000000000000e+03 2.470678138732910156e+01 -1.019280719757080078e+01 -1.400259303039469438e-13 -1.515130116638493951e-13 -8.746168123508618608e-14 1.344381149372825268e-13
2.338000000000000000e+03 2.507818794250488281e+01 -1.087228584289550781e+01 -2.038333016913737583e-13 1.413976086824669798e-13 -1.873070891911157027e-14 7.911473396977203310e-14
2.339000000000000000e+03 2.605949592590332031e+01 -1.290048122406005859e+01 -6.745729734351779694e-14 -7.466121769222552884e-14 -4.263555586597571334e-14 1.259700216317202748e-13
2.340000000000000000e+03 2.671216773986816406e+01 -1.425825405120849609e+01 4.052027403932470517e-14 1.774941548989342199e-13 6.540432664859860412e-14 3.525303692627351770e-14
2.341000000000000000e+03 2.704901313781738281e+01 -1.495008277893066406e+01 -1.345689916920286833e-13 -1.606120564236895865e-13 -8.855431985572634335e-14 1.238085426281260171e-13
2.342000000000000000e+03 2.862095642089843750e+01 -1.587670135498046875e+01 3.086491498038683445e-14 -9.647654447249645604e-15 6.365177736424683028e-15 3.725326796176486877e-14
2.343000000000000000e+03 2.962238502502441406e+01 -1.733140373229980469e+01 -7.113512117675954705e-14 -7.623743081058495519e-14 -4.421176559620335067e-14 4.857258936426592233e-14
2.344000000000000000e+03 3.068027305603027344e+01 -1.689361190795898438e+01 -1.516549066231734355e-13 -2.022478050919124248e-13 -1.061708162250311893e-13 -1.801762271281745487e-13
2.345000000000000000e+03 3.258647155761718750e+01 -1.803953552246093750e+01 -8.240538920721920957e-14 -1.268184911468531184e-13 -6.276716749435348741e-14 3.739304195058898439e-14
2.346000000000000000e+03 3.182876014709472656e+01 -1.795167160034179688e+01 -4.903518454994759690e-14 7.048681571145826164e-14 6.435490364892736126e-15 2.030372364106216437e-14
2.347000000000000000e+03 3.168825149536132812e+01 -1.642592811584472656e+01 -6.103007232612436828e-14 -3.006614325996165293e-13 -1.085074548658540583e-13 2.060555705555265626e-14
2.348000000000000000e+03 3.356292724609375000e+01 -1.740805053710937500e+01 -1.079428464201368648e-14 1.783776712492926575e-13 5.027501716802981746e-14 -8.902390814542054942e-14
2.349000000000000000e+03 3.712934112548828125e+01 -1.822851753234863281e+01 -2.575229255102201575e-13 -1.103669700118839470e-13 -1.103669700118839470e-13 7.931040535685135451e-14
2.350000000000000000e+03 3.708879470825195312e+01 -1.759867095947265625e+01 -1.932058571289807514e-13 -8.280251213420991574e-14 -8.280251213420991574e-14 8.850167506398859407e-14
2.351000000000000000e+03 3.843381881713867188e+01 -1.820969963073730469e+01 -3.387774273350824261e-13 3.781347183615633989e-14 -9.028918563323828916e-14 1.672684614515557167e-13
2.352000000000000000e+03 3.942307662963867188e+01 -1.925152587890625000e+01 -3.056722355700841609e-13 -2.854118308880104760e-13 -1.773252226479338223e-13 1.288725392676812187e-13
2.353000000000000000e+03 4.054822921752929688e+01 -2.044256973266601562e+01 -1.350652445789024547e-13 -2.323105900356448039e-13 -1.102127490291114620e-13 1.165332072375693806e-13
2.354000000000000000e+03 4.250900650024414062e+01 -1.979782104492187500e+01 -1.796027519415654972e-13 -1.227235544090654606e-13 -9.069789597094743416e-14 1.766762463325383115e-13
2.355000000000000000e+03 4.185018920898437500e+01 -2.002408981323242188e+01 -1.488500078403176552e-13 -1.552947494990603028e-13 -9.124342584656067179e-14 7.698021094269119624e-14
2.356000000000000000e+03 4.427655029296875000e+01 -1.921670532226562500e+01 -7.072538762325011885e-14 3.831554214531185387e-14 -9.722953135161711141e-15 -5.081017597223687343e-14
2.357000000000000000e+03 5.183313369750976562e+01 -1.701001739501953125e+01 2.139206611059384783e-14 -3.658291931104423744e-14 -4.557256214245001061e-15 -4.354955947320467494e-15
2.358000000000000000e+03 5.207957458496093750e+01 -1.764523696899414062e+01 -2.573972122683204633e-13 -8.743761194685700788e-14 -1.034504445540478101e-13 1.015456639673166517e-13
2.359000000000000000e+03 5.355384445190429688e+01 -1.458333206176757812e+01 5.045067011724690964e-13 4.449718859437373775e-13 2.848435734243565109e-13 -3.529111681707663983e-13
2.360000000000000000e+03 5.409899139404296875e+01 -1.516319274902343750e+01 4.489718601237424611e-13 3.754203165787922680e-13 2.473176557212658500e-13 -5.093203961879788633e-13
2.361000000000000000e+03 5.424878692626953125e+01 -1.613854408264160156e+01 7.021128470285908918e-13 -1.363227276695395604e-14 2.065441730408207333e-13 -3.723965851399474447e-13
2.362000000000000000e+03 5.619552230834960938e+01 -1.657217407226562500e+01 1.342060577252945919e-12 4.150405063033102415e-13 5.271303142248551232e-13 -2.032137072548526047e-14
2.363000000000000000e+03 5.877288436889648438e+01 -1.558143806457519531e+01 1.862646538744461289e-12 4.322694546060601439e-13 6.884747763211129801e-13 8.667422790771539542e-13
2.364000000000000000e+03 5.301297378540039062e+01 -1.402427005767822266e+01 3.619573445221707653e-13 2.923774232704151599e-13 1.963004276272703463e-13 -5.458988838226430662e-13
2.365000000000000000e+03 5.251197052001953125e+01 -1.347311305999755859e+01 4.215198340113551767e-13 1.004168428096752219e-12 4.277064813429376500e-13 -1.516175152007498417e-13
2.366000000000000000e+03 5.180093383789062500e+01 -1.313744544982910156e+01 2.234802241266736766e-13 2.330300937023604968e-13 1.369530845066885272e-13 -4.241227323769497515e-13
2.367000000000000000e+03 5.183415603637695312e+01 -1.244301986694335938e+01 7.423671866037956368e-14 4.664497412452950353e-13 1.622059420374605265e-13 -3.018358674979071399e-13
2.368000000000000000e+03 5.028107070922851562e+01 -9.495473861694335938e+00 7.737377633130343435e-14 2.390394468736872780e-13 9.492397373776079172e-14 -1.007691990289640016e-13
2.369000000000000000e+03 5.077293014526367188e+01 -8.686814308166503906e+00 1.159883414357867903e-13 3.699659393945065045e-13 1.457862828938352728e-13 -1.532170522183448624e-13
2.370000000000000000e+03 5.100619125366210938e+01 -9.445343971252441406e+00 -3.078376583590808346e-14 2.841881190009803992e-13 7.602130866002712595e-14 -1.235159164617721794e-13
2.371000000000000000e+03 5.054806137084960938e+01 -7.924098491668701172e+00 1.274550973930869274e-14 2.342171053458519392e-13 7.408878605020749464e-14 -1.157700373283568340e-13
2.372000000000000000e+03 5.005849838256835938e+01 -6.415378093719482422e+00 -8.402492297863300985e-14 1.469931083320288878e-13 1.889045763889783680e-14 -8.180072287936046571e-14
2.373000000000000000e+03 5.031095504760742188e+01 -7.167352676391601562e+00 8.868821882402830314e-14 3.353904068532920224e-13 1.272235897360751711e-13 -2.793825521136324846e-14
2.374000000000000000e+03 4.981231307983398438e+01 -5.657896995544433594e+00 6.749863255134380680e-14 2.348072636933901114e-13 9.069176345240931303e-14 -1.218276781539406883e-13
2.375000000000000000e+03 4.905652999877929688e+01 -3.398635149002075195e+00 1.725677028574859606e-13 1.425840104622363991e-13 9.454551941692757033e-14 -1.261731740137897462e-13
2.376000000000000000e+03 4.860736846923828125e+01 -4.287044525146484375e+00 3.240067380518539542e-14 2.197652731452878760e-13 7.564978645683423375e-14 -1.309399366277580468e-13
2.377000000000000000e+03 4.705842208862304688e+01 -2.332665443420410156e+00 -3.161841516147352593e-14 1.923285207310054812e-13 4.821303065442004987e-14 1.587309249968457681e-13
2.378000000000000000e+03 4.848707580566406250e+01 -1.917454600334167480e+00 4.609572272495920942e-14 1.570081548498206137e-13 6.093116598293937813e-14 8.934555196648142489e-15
2.379000000000000000e+03 4.745568084716796875e+01 -1.396704673767089844e+00 1.430666837168997896e-13 2.443180748858131413e-13 1.162154275808138792e-13 8.323010791851104262e-14
2.380000000000000000e+03 4.715159225463867188e+01 9.552924036979675293e-01 9.988181343210250640e-14 1.993101728580901066e-14 3.594384989299981292e-14 -4.473310082271121646e-14
2.381000000000000000e+03 4.679745483398437500e+01 1.670678377151489258e+00 -5.835619937581346117e-14 2.074114839568323015e-14 -1.128451597166542711e-14 -9.705869327648539158e-14
2.382000000000000000e+03 4.497129440307617188e+01 3.516726970672607422e+00 -2.330880172034255349e-14 -6.717816949421140382e-14 -2.714609136436618719e-14 -5.814414891263308335e-15
2.383000000000000000e+03 4.487724304199218750e+01 5.158941745758056641e+00 -5.654087563270772387e-14 -4.710727657562460702e-14 -3.109444735656559378e-14 -2.317516533225424252e-14
2.384000000000000000e+03 4.447761535644531250e+01 5.852600574493408203e+00 5.611343231433710277e-14 1.498637233190644458e-13 6.179314736764682237e-14 -6.551004991294309687e-14
2.385000000000000000e+03 4.374188232421875000e+01 7.283276557922363281e+00 4.215562360992963775e-14 1.095685906371199336e-13 4.551726359648851361e-14 -7.809335453691848561e-14
2.386000000000000000e+03 4.341359329223632812e+01 8.019406318664550781e+00 6.708107918966532690e-14 1.316886730955493801e-13 5.963092297505898087e-14 -7.899445529126192245e-14
2.387000000000000000e+03 4.310022735595703125e+01 8.761599540710449219e+00 -1.903781765479756194e-14 1.405315208820312467e-13 3.644810893529103202e-14 -1.448429185835556354e-13
2.388000000000000000e+03 4.262142562866210938e+01 1.031562900543212891e+01 -4.100641335280826028e-14 4.856862525007277220e-13 1.334039486950572284e-13 -1.853351727729851683e-13
2.389000000000000000e+03 4.252415466308593750e+01 1.112807655334472656e+01 1.561056378563893676e-13 3.642835815984013514e-13 1.561167644811845001e-13 -6.678010720768219263e-15
2.390000000000000000e+03 4.262510299682617188e+01 1.437025260925292969e+01 -3.900713099421783403e-14 3.492902581753165592e-13 9.308493646026372303e-14 1.775819481698512337e-14
2.391000000000000000e+03 4.275414657592773438e+01 1.598354148864746094e+01 -4.063092703542221795e-14 7.408864374867235592e-14 1.003731586100798864e-14 9.454988333067182449e-14
2.392000000000000000e+03 4.289782333374023438e+01 1.678458404541015625e+01 -2.073454831495822465e-14 1.741175563105268331e-13 4.601490222926399309e-14 -5.818419239521453040e-15
2.393000000000000000e+03 4.348040008544921875e+01 1.914380073547363281e+01 1.188009956523076310e-14 1.880952669010629852e-13 5.999261281980014515e-14 1.097476195208516025e-13
2.394000000000000000e+03 4.395376968383789062e+01 2.069381141662597656e+01 1.831196632317514533e-14 2.823536760301892379e-13 9.019969152016318881e-14 5.836743442082584221e-14
2.395000000000000000e+03 4.448863220214843750e+01 2.223224258422851562e+01 1.706477807097896843e-14 2.360682179250450652e-13 7.593989862940062063e-14 1.276395032419677666e-13
2.396000000000000000e+03 4.551846313476562500e+01 2.446892356872558594e+01 -3.809627242032202765e-15 8.986919959293529492e-14 2.581787255230387490e-14 1.393331251157287065e-13
2.397000000000000000e+03 4.589873504638671875e+01 2.519635581970214844e+01 7.839815764892205108e-14 3.081049141945985115e-13 1.159509229083088844e-13 3.712038882113140315e-14
2.398000000000000000e+03 4.672468566894531250e+01 2.661232185363769531e+01 1.039626284365935405e-13 2.275592095399986414e-13 9.945654868247222335e-14 7.803803989733099078e-14
2.399000000000000000e+03 4.715913772583007812e+01 2.731586074829101562e+01 1.105510539882448295e-13 2.303828243628569528e-13 1.022801635053305347e-13 1.146444186328823833e-13
2.400000000000000000e+03 4.763114929199218750e+01 2.799258041381835938e+01 7.752440589437956109e-14 2.162285378960043802e-13 8.812588381474154020e-14 9.456766424630058676e-14
2.401000000000000000e+03 4.814485168457031250e+01 2.862044334411621094e+01 -3.836421435252698048e-15 8.985771382617052661e-14 2.580638847960500110e-14 7.110874795891383715e-14
2.402000000000000000e+03 4.806244659423828125e+01 2.989463233947753906e+01 -1.911809266127474649e-15 -4.657029495651505979e-14 -1.454463143619934978e-14 1.235826491054886622e-13
2.403000000000000000e+03 5.031103134155273438e+01 3.111209297180175781e+01 7.092938026200326651e-14 -1.535264157557364451e-14 1.667302194474206550e-14 1.053011979912713003e-13
2.404000000000000000e+03 5.153239059448242188e+01 3.211694335937500000e+01 1.756875759239759360e-13 1.667965760085085569e-13 1.027452455797453479e-13 1.000178536996951251e-13
2.405000000000000000e+03 5.335070419311523438e+01 3.365698242187500000e+01 1.172201170764747280e-13 5.023719545286901844e-14 5.023719545286901844e-14 1.208853844933063804e-13
2.406000000000000000e+03 5.776374435424804688e+01 3.570981979370117188e+01 1.212945081830937855e-13 -1.310204386390650955e-13 -2.917775452198072446e-15 2.802608236359815236e-14
2.407000000000000000e+03 5.702909851074218750e+01 3.553404235839843750e+01 1.362819362568656878e-13 2.642857991914243643e-13 1.201703260554978780e-13 -3.111539956354887615e-14
2.408000000000000000e+03 6.168282318115234375e+01 3.669939422607421875e+01 1.005231732272363065e-13 2.032096821542872522e-13 9.111985390395163642e-14 -1.962671832781565096e-13
2.409000000000000000e+03 6.418116760253906250e+01 3.413996887207031250e+01 3.559285841319564936e-13 1.982917682049473163e-13 1.662661029905657117e-13 -2.881966854832024305e-13
2.410000000000000000e+03 6.483977508544921875e+01 3.370426177978515625e+01 3.875250272587782430e-13 4.177123870321292065e-13 2.415712215767668036e-13 -4.014049834709376707e-13
2.411000000000000000e+03 6.666436767578125000e+01 3.195148468017578125e+01 5.187852643133428199e-13 8.771469878557369704e-13 4.187796756507239371e-13 -5.225490179450176242e-13
2.412000000000000000e+03 6.721343231201171875e+01 3.130368041992187500e+01 4.796581426318169417e-13 8.203461781403076358e-13 3.900012908106265108e-13 -7.173058262817388897e-13
2.413000000000000000e+03 6.888028717041015625e+01 2.841803932189941406e+01 1.068854477582342755e-13 1.967347942541386452e-12 6.222699764323047500e-13 -7.262646430430952371e-13
2.414000000000000000e+03 6.947119903564453125e+01 2.601862525939941406e+01 2.080760287377983464e-13 2.262345475886884394e-12 7.411264527426575377e-13 -3.672232602638242360e-13
2.415000000000000000e+03 6.965612030029296875e+01 2.438965415954589844e+01 1.656834900125216808e-14 2.134519774474319398e-12 6.453264572020556145e-13 -2.469832335611626961e-13
2.416000000000000000e+03 6.969380950927734375e+01 2.357353782653808594e+01 1.352830472428276365e-13 2.345525900240841288e-12 7.442426666268153745e-13 -9.669910407345341796e-14
2.417000000000000000e+03 6.970127105712890625e+01 2.276090812683105469e+01 -4.891857521816499188e-14 2.289457902773794906e-12 6.721617620136788318e-13 -6.969282735549281460e-14
2.418000000000000000e+03 6.970909118652343750e+01 2.033542251586914062e+01 -1.273516831405566499e-14 2.007583769364496007e-12 5.984546083519226567e-13 -4.703792490603521392e-14
2.419000000000000000e+03 6.970955657958984375e+01 1.791508102416992188e+01 -1.326588714095980337e-13 1.818935085017014952e-12 5.058828789900049472e-13 -2.017033797472624068e-14
2.420000000000000000e+03 7.041514587402343750e+01 1.631497955322265625e+01 5.911788528330241821e-14 1.466491099562372558e-12 4.576827198482513737e-13 -8.434156422310740142e-14
2.421000000000000000e+03 6.970748138427734375e+01 1.710862350463867188e+01 2.348542909626216701e-13 1.884938819612935745e-12 6.359379711197432616e-13 1.642113975721705421e-14
2.422000000000000000e+03 6.970327758789062500e+01 1.630222511291503906e+01 -8.577660066608205902e-14 1.747525626809298682e-12 4.985247241059975742e-13 1.405622630958188943e-14
2.423000000000000000e+03 6.969567108154296875e+01 1.549584388732910156e+01 6.950473860735731368e-14 1.768323768663870865e-12 5.513485718325328300e-13 -2.830276736988466407e-14
2.424000000000000000e+03 6.968384552001953125e+01 1.468831539154052734e+01 2.996615542510960850e-14 2.025884451514747830e-12 6.167551820819572317e-13 8.737895004482020087e-16
2.425000000000000000e+03 6.946243286132812500e+01 1.230018997192382812e+01 9.214140443746052928e-15 1.422228329030217342e-12 4.294327480419690701e-13 7.930789136306390374e-14
2.426000000000000000e+03 6.943950653076171875e+01 1.151198482513427734e+01 -1.260572999066053579e-13 1.272752953376810048e-12 3.440087028173249850e-13 -5.872924623831141111e-14
2.427000000000000000e+03 7.027922058105468750e+01 1.309238624572753906e+01 4.359431923523643393e-14 1.505589164625675824e-12 4.647550248294829434e-13 -5.710977345326981314e-14
2.428000000000000000e+03 6.947203826904296875e+01 1.072387504577636719e+01 8.205636758723718061e-15 1.353169637972884143e-12 4.084125886875261680e-13 -1.335942261763284344e-13
2.429000000000000000e+03 6.982923126220703125e+01 8.352848052978515625e+00 1.093267119087019956e-13 1.831141358335508507e-12 5.821404014220987744e-13 -2.610432215440633419e-13
2.430000000000000000e+03 7.000097656250000000e+01 6.736491203308105469e+00 -6.012479061715328421e-14 2.010149425385465705e-12 5.850074114369108180e-13 -1.438970199506978132e-13
2.431000000000000000e+03 7.071318054199218750e+01 3.462888717651367188e+00 1.234363224697845873e-13 1.745686386243894272e-12 5.607367868643020614e-13 8.123507427718404394e-14
2.432000000000000000e+03 6.999834442138671875e+01 2.678037881851196289e+00 1.149067006909337829e-13 2.153789299685904268e-12 6.806088353496220211e-13 3.324840131945644428e-14
2.433000000000000000e+03 6.995867919921875000e+01 1.863029003143310547e+00 -5.341448380065567936e-14 1.944398851996820277e-12 5.672953426461013748e-13 1.388767302112209334e-13
2.434000000000000000e+03 6.986273193359375000e+01 1.049512386322021484e+00 1.367494171285871252e-13 1.934395785913034516e-12 6.213435798860245107e-13 2.674997267963774572e-13
2.435000000000000000e+03 6.931821441650390625e+01 -1.336022853851318359e+00 2.940483143434868829e-13 1.681553008815728223e-12 5.926803644216993572e-13 3.482362781383890882e-13
2.436000000000000000e+03 7.001052856445312500e+01 -1.503676176071166992e+00 -1.986795822398476977e-15 1.188673183320776428e-12 3.560059148519090222e-13 2.618832071771964864e-13
2.437000000000000000e+03 6.881527709960937500e+01 -2.884442090988159180e+00 2.116815701674532035e-13 1.280245332489771126e-12 4.475780640209037209e-13 3.907390361788942723e-13
2.438000000000000000e+03 6.907068634033203125e+01 -2.111652851104736328e+00 4.143224053231552018e-14 1.573288916680015692e-12 4.844163264960954507e-13 5.023672450255034505e-13
2.439000000000000000e+03 6.854890441894531250e+01 -3.653656005859375000e+00 1.249391893111753693e-13 1.197319045125044834e-12 3.966774825281405015e-13 4.714436306618718930e-13
2.440000000000000000e+03 6.794803619384765625e+01 -5.163537979125976562e+00 8.355750986954735282e-14 1.088082206800178309e-12 3.514919204219285609e-13 3.862144436726777652e-13
2.441000000000000000e+03 6.728146362304687500e+01 -6.640431880950927734e+00 1.158227837640482538e-13 7.816534962692966992e-13 2.692428799442453391e-13 3.722404329220552199e-13
2.442000000000000000e+03 6.817177581787109375e+01 -7.917877197265625000e+00 1.362015291132487316e-13 7.789495502612264755e-13 2.745453061940572592e-13 1.728100220430364709e-13
2.443000000000000000e+03 6.537245178222656250e+01 -1.021093368530273438e+01 1.329044703067203126e-13 6.517214068760268653e-13 2.353877726415931626e-13 3.890870102236237971e-13
2.444000000000000000e+03 6.492865753173828125e+01 -1.090403366088867188e+01 2.402909143363329836e-13 6.062422699265601622e-13 2.539599390158353565e-13 3.284163305888876394e-13
2.445000000000000000e+03 6.498592376708984375e+01 -1.192646694183349609e+01 3.235448747026387073e-13 5.504206031931024867e-13 2.621896569212495143e-13 2.579725441511498962e-13
2.446000000000000000e+03 6.440660095214843750e+01 -1.162229347229003906e+01 2.206729807566198964e-13 4.148307673930429207e-13 1.906511244448988451e-13 3.444321921858978230e-13
2.447000000000000000e+03 6.433940887451171875e+01 -1.548141765594482422e+01 1.285578089295358328e-13 -1.279075993341691198e-13 1.950624233298047742e-16 2.429561543268454749e-13
2.448000000000000000e+03 6.335850524902343750e+01 -1.550718021392822266e+01 9.385192140587070297e-14 -5.528697549143750389e-15 2.649696597117195962e-14 2.336410687316103907e-13
2.449000000000000000e+03 6.292577743530273438e+01 -1.617489051818847656e+01 9.915075623598626486e-14 4.542517078633123706e-13 1.660207480389322421e-13 2.928753160130748157e-13
2.450000000000000000e+03 6.249424362182617188e+01 -1.685303115844726562e+01 1.929599058661524147e-13 -8.804794831326467203e-15 5.524653475040379458e-14 1.940721888749052937e-13
2.451000000000000000e+03 6.204005432128906250e+01 -1.754005622863769531e+01 1.177546151949829256e-13 4.622248222195535217e-13 1.739938217375919249e-13 1.984709190614233898e-13
2.452000000000000000e+03 6.058169937133789062e+01 -2.412866401672363281e+01 -2.409428451026485174e-13 -2.405140702484848125e-13 -1.444370746053399990e-13 -1.049802470431612789e-14
2.453000000000000000e+03 6.139461898803710938e+01 -1.997896003723144531e+01 -8.868013982377739163e-15 2.707051163092222268e-13 7.855113179919617772e-14 2.048288703362585728e-13
2.454000000000000000e+03 5.909959411621093750e+01 -1.957504272460937500e+01 9.218364597054010123e-14 8.525822327862600525e-14 5.323256145237618975e-14 1.060604596904652155e-14
2.455000000000000000e+03 5.751733779907226562e+01 -2.017902374267578125e+01 8.534145993580326446e-16 -1.597625704690200377e-13 -4.767274560681621087e-14 5.257608381319979485e-14
2.456000000000000000e+03 5.594087982177734375e+01 -2.061106491088867188e+01 -2.903624199803236938e-14 -1.496969459198818631e-13 -5.361995705300062753e-14 8.104174747730272244e-14
2.457000000000000000e+03 5.517196273803710938e+01 -2.289125823974609375e+01 -5.090191556965514494e-16 -6.884457468079446807e-14 -2.080607855328795580e-14 -5.354935092761635082e-15
2.458000000000000000e+03 5.300057601928710938e+01 -2.129080581665039062e+01 -1.293583041926020874e-14 -2.114231912372227518e-13 -6.730771132503268750e-14 -9.240554827392999382e-14
2.459000000000000000e+03 5.340563964843750000e+01 -2.198310089111328125e+01 6.416832939570155103e-14 -1.211898691209217782e-13 -1.710646225637924706e-14 -1.414479021107431511e-13
2.460000000000000000e+03 5.470538711547851562e+01 -2.318675422668457031e+01 -1.265416401221089449e-15 9.095957494154038869e-14 2.690824790090896868e-14 3.748863808901610473e-14
2.461000000000000000e+03 5.121873092651367188e+01 -2.265069580078125000e+01 8.727330788388040772e-14 -2.485405815617208747e-13 -4.838018413623121350e-14 1.344815152114339427e-15
2.462000000000000000e+03 5.037167739868164062e+01 -2.164631462097167969e+01 1.440288470764107889e-15 2.349274170110240284e-14 7.479909093911600582e-15 2.688499854057273264e-14
2.463000000000000000e+03 5.076466369628906250e+01 -2.214366340637207031e+01 -1.463505152569238854e-13 -1.084725977660086493e-13 -7.644693255162704482e-14 2.763741621355283312e-14
2.464000000000000000e+03 5.177478790283203125e+01 -2.319735527038574219e+01 -3.053916643766356465e-14 -8.743350553112871903e-14 -3.539180125182450620e-14 2.262641503737554405e-14
2.465000000000000000e+03 5.495438385009765625e+01 -2.552746009826660156e+01 -1.081198000731477607e-14 -1.533242933657308349e-13 -4.924088141899062021e-14 -2.982954933950822396e-14
2.466000000000000000e+03 5.977610015869140625e+01 -2.303459358215332031e+01 -1.003325975903676670e-13 -1.345015814219543970e-13 -7.045025776945476603e-14 7.882367989656829943e-14
2.467000000000000000e+03 5.628929138183593750e+01 -2.631285285949707031e+01 5.427456105529769592e-14 -4.536589880881417014e-14 2.672599012758236636e-15 4.840254919417051604e-14
2.468000000000000000e+03 5.699735260009765625e+01 -2.669964408874511719e+01 2.743648136373927349e-15 -9.032604850710279631e-14 -2.627471977240548179e-14 -5.895207011354791637e-14
2.469000000000000000e+03 7.155083465576171875e+01 -2.539756011962890625e+01 5.986875627412083234e-14 7.140898386926580743e-14 3.938332204301599193e-14 -1.075390488735217948e-14
2.470000000000000000e+03 2.638389968872070312e+01 -1.357816410064697266e+01 -1.136494734042467480e-13 -9.445786844754569533e-14 -6.243220323316409082e-14 1.422818670336872121e-14
2.471000000000000000e+03 2.735371017456054688e+01 -1.566016578674316406e+01 7.670345478563711517e-14 3.302540803763048816e-13 1.220872632590880302e-13 2.639168316396003910e-14
2.472000000000000000e+03 6.425095367431640625e+01 -1.426688385009765625e+01 2.515064979197179085e-13 1.628660551420465369e-14 8.033793763703375723e-14 2.816806575316188610e-13
2.473000000000000000e+03 6.543231201171875000e+01 -1.267310237884521484e+01 1.324544179849215797e-13 3.312718751657256488e-13 1.391178838794360217e-13 2.465120392970004959e-13
2.474000000000000000e+03 6.547852325439453125e+01 -1.119538974761962891e+01 1.490009829928362617e-13 5.270859161458918418e-13 2.028260778731347247e-13 3.580718349865258388e-13
2.475000000000000000e+03 6.471757507324218750e+01 -1.261037921905517578e+01 2.119610368299384984e-13 3.195951803983826389e-13 1.594668678790017724e-13 1.872988797477909140e-13
2.476000000000000000e+03 7.291302490234375000e+01 -2.406989288330078125e+01 4.939744360082931607e-14 -2.458061660844720192e-14 7.445047758901455343e-15 6.973059824867677836e-14
2.477000000000000000e+03 7.136168670654296875e+01 -2.392402839660644531e+01 -3.808214391076182592e-14 6.554556092222378616e-15 -9.458275667935476388e-15 1.377745781400336895e-15
2.478000000000000000e+03 4.328771591186523438e+01 -1.948144531250000000e+01 -1.020319421942035565e-13 2.079022446820760761e-13 3.176108939110904028e-14 2.906539009581328437e-14
2.479000000000000000e+03 3.884841537475585938e+01 -1.777795600891113281e+01 -1.769830077847159289e-13 -3.009891259299866950e-14 -6.212458119551206304e-14 1.612953206327899514e-13
2.480000000000000000e+03 4.197611236572265625e+01 -1.869297027587890625e+01 -1.336889312360950433e-13 -1.030462065503001678e-13 -7.102054133591856333e-14 3.060522484315403302e-14
2.481000000000000000e+03 3.884944152832031250e+01 -1.877994537353515625e+01 -2.633045691202706706e-13 -1.371500027262662069e-13 -1.201363634224447696e-13 2.186270777046125935e-13
2.482000000000000000e+03 5.332600021362304688e+01 -2.289585494995117188e+01 -1.086832650243861609e-13 1.049714785580913023e-13 -1.113536193998341736e-15 -2.155289428916809524e-13
2.483000000000000000e+03 5.374322509765625000e+01 -2.479539299011230469e+01 -1.264741891944531904e-13 -2.486447462854424195e-13 -1.125356792887159674e-13 -1.062000896836882979e-13
2.484000000000000000e+03 5.517552566528320312e+01 -2.078967094421386719e+01 3.047338924711158470e-14 1.045619211874349030e-13 4.051059414680348303e-14 -1.868685124716863710e-14
2.485000000000000000e+03 5.589829635620117188e+01 -2.528524017333984375e+01 1.869021343857364464e-16 -1.829236903009429094e-13 -5.482103621968006935e-14 4.975817121614239946e-14
2.486000000000000000e+03 5.112659072875976562e+01 -2.144203186035156250e+01 -1.250260610102457703e-13 -1.450844923801125619e-13 -8.103316872761293088e-14 7.354114875662148831e-14
2.487000000000000000e+03 4.915104293823242188e+01 -1.818388938903808594e+01 -2.522902676702076796e-13 -1.309998794553693391e-13 -1.149870400719149588e-13 6.901696282621966327e-14
2.488000000000000000e+03 4.894459533691406250e+01 -1.749555397033691406e+01 5.613653598500641106e-14 -2.169243415808558978e-14 1.033323020926306748e-14 5.648084132553812808e-14
2.489000000000000000e+03 7.654801940917968750e+01 -2.545877265930175781e+01 4.696063738476299529e-15 4.776354753876187187e-14 1.573788401844616186e-14 4.974184042091933655e-14
2.490000000000000000e+03 7.225675201416015625e+01 -2.328726959228515625e+01 -5.354752557161501780e-14 9.142843139476816705e-14 1.136427259397889203e-14 -1.352028027295365531e-13
2.491000000000000000e+03 7.568370056152343750e+01 -2.404109573364257812e+01 -3.423955522862016931e-14 2.598315985112564785e-13 6.767761400123042947e-14 9.543180725908942397e-14
2.492000000000000000e+03 7.503312683105468750e+01 -2.480946350097656250e+01 -1.314758780904083657e-14 2.688710257041371232e-13 7.671702764158391807e-14 3.603956461603954886e-14
2.493000000000000000e+03 5.484666442871093750e+01 -1.691099929809570312e+01 5.490512558492532946e-13 9.233595604698358050e-14 1.924161513715966221e-13 1.427031913860468681e-13
2.494000000000000000e+03 5.347815704345703125e+01 -1.733153533935546875e+01 -1.164374179756302863e-13 -1.642791263266329960e-13 -8.421496329067898468e-14 1.458694073191470209e-14
2.495000000000000000e+03 5.372296142578125000e+01 -1.642767143249511719e+01 5.306918641513613810e-13 -1.275311524814208911e-14 1.553816211981307038e-13 1.197746430845175042e-14
2.496000000000000000e+03 2.534664916992187500e+01 -8.684635162353515625e+00 -1.233307076256573431e-13 -5.285601464974018504e-14 -5.285601464974018504e-14 5.718732101365683884e-14
2.497000000000000000e+03 2.595088577270507812e+01 -1.114701843261718750e+01 -1.362439485232472269e-13 -1.201575951503006459e-15 -4.123365535189764397e-14 5.273076558189558616e-14
2.498000000000000000e+03 2.662241744995117188e+01 -1.250304031372070312e+01 -1.715688816060836897e-13 -2.777857086608097326e-14 -5.980423269233078876e-14 1.475775610656343551e-13
2.499000000000000000e+03 2.730091476440429688e+01 -1.386326789855957031e+01 -2.039490809308680541e-13 -1.331576992766314582e-13 -1.011320340622498537e-13 1.997766643953291510e-13
2.500000000000000000e+03 2.695685958862304688e+01 -1.318242168426513672e+01 -7.088420291272851115e-14 1.183116376136245096e-13 1.422823074908197843e-14 1.493085847016975554e-13
2.501000000000000000e+03 7.711611175537109375e+01 -2.391127395629882812e+01 -5.596437823254286903e-14 3.420228510131462230e-13 8.581754285062054288e-14 9.341784751358897521e-14
2.502000000000000000e+03 7.873778533935546875e+01 -2.542708778381347656e+01 1.048112639701840459e-14 4.491911010496120807e-15 4.491911010496120807e-15 -3.288947619025511804e-14
2.503000000000000000e+03 7.965206909179687500e+01 -2.369723892211914062e+01 1.021139553122885069e-14 2.331310600296732094e-13 7.300273395776518681e-14 4.346614959778970222e-14
2.504000000000000000e+03 7.940046691894531250e+01 -2.531929969787597656e+01 4.749484835910207370e-14 6.610588676935966190e-14 3.408021816684626837e-14 -2.621322179230303057e-14
2.505000000000000000e+03 7.973369598388671875e+01 -2.448127937316894531e+01 -4.559055566334853371e-14 2.621213928419643957e-14 -5.813524659635744066e-15 -8.825335380297383986e-15
2.506000000000000000e+03 5.115215682983398438e+01 -1.715135192871093750e+01 -1.019633121966852241e-13 -1.809514045764473722e-13 -8.487441570956613668e-14 6.562135004221231194e-14
2.507000000000000000e+03 4.989817428588867188e+01 -1.805168151855468750e+01 -2.007006756968299221e-13 9.698921624601980485e-14 -3.111343783524303519e-14 -8.399031321240819914e-15
2.508000000000000000e+03 5.044709014892578125e+01 -1.727867126464843750e+01 -1.921846606552438108e-14 1.463898921245758433e-14 -1.373843182974981113e-15 -2.033589056426709368e-14
2.509000000000000000e+03 5.313171005249023438e+01 -1.666089630126953125e+01 1.751100756368015321e-13 4.073396351125802006e-14 6.475320903391243443e-14 -6.655030801612504820e-14
2.510000000000000000e+03 5.249497985839843750e+01 -1.685019302368164062e+01 2.341676284573369210e-14 -3.571519504295440905e-14 -3.689529405056330910e-15 7.429809127960582127e-14
2.511000000000000000e+03 4.971406555175781250e+01 -1.739118385314941406e+01 -1.762569717999110108e-13 8.458961612764492877e-14 -2.750020534642710901e-14 1.415878590586838737e-13
2.512000000000000000e+03 6.713393402099609375e+01 -2.082163047790527344e+01 -3.759817977788681986e-13 -2.068859948807511007e-13 -1.748603296663694961e-13 -6.939957099662621975e-14
2.513000000000000000e+03 6.800829315185546875e+01 -2.144696235656738281e+01 -4.469908601242855717e-13 -1.000656195816566896e-13 -1.641169432341563206e-13 -5.675789563818964267e-14
2.514000000000000000e+03 7.289440917968750000e+01 -2.475214958190917969e+01 1.552586658955072696e-14 -3.909700457805330431e-14 -7.071341904770541559e-15 4.677080459578909777e-15
2.515000000000000000e+03 7.219092559814453125e+01 -2.468628120422363281e+01 1.223906704607945206e-14 -1.320075369544773669e-13 -3.593053792320076434e-14 -7.723646212615814521e-14
2.516000000000000000e+03 7.050165557861328125e+01 -2.176223373413085938e+01 -2.960618675131726496e-13 5.612014081527935683e-14 -7.198251326598348321e-14 4.456014177707957186e-15
2.517000000000000000e+03 7.111475372314453125e+01 -2.209742355346679688e+01 -1.309280375089150183e-13 1.268917832137131385e-13 -1.210876796780332304e-15 2.355484446272919363e-14
2.518000000000000000e+03 5.474571990966796875e+01 -2.458646011352539062e+01 -2.568761921380689761e-14 -1.482618281617442690e-13 -5.218483251859945549e-14 -2.889461470111966135e-14
2.519000000000000000e+03 5.370220565795898438e+01 -2.110227584838867188e+01 -2.158385003996174563e-16 -2.059717685038570112e-13 -6.185628181540336890e-14 -7.521628177069306087e-14
2.520000000000000000e+03 5.180455780029296875e+01 -2.225214576721191406e+01 -1.619984663992282692e-13 1.650456979201617158e-13 9.141707903569259129e-16 4.886446675349438717e-14
2.521000000000000000e+03 6.143364715576171875e+01 -1.815876579284667969e+01 3.633898398663036600e-14 1.757021719957230221e-13 6.361234374538740632e-14 1.768023390451983756e-13
2.522000000000000000e+03 4.234768295288085938e+01 -1.914405250549316406e+01 -7.076097655956195553e-14 -1.218280305196467461e-13 -5.777670009088353709e-14 6.678103301469354158e-14
2.523000000000000000e+03 3.562461090087890625e+01 -1.817432975769042969e+01 -1.407191014103983950e-13 -1.455723698052038828e-14 -4.658290219490199280e-14 -6.914613704474183858e-15
2.524000000000000000e+03 2.998109626770019531e+01 -1.663249969482421875e+01 -5.086141130115039155e-14 -2.848656911486752152e-13 -1.007181331066399343e-13 1.105879642959543829e-13
2.525000000000000000e+03 4.002399063110351562e+01 -1.977842330932617188e+01 -2.372110008961626770e-14 -1.874511152853350349e-13 -6.335166088554042285e-14 1.097771640300518325e-13
2.526000000000000000e+03 4.178385162353515625e+01 -1.931642341613769531e+01 -1.673386906472784652e-13 6.553626050046293394e-14 -3.054072836641830158e-14 1.671380319302057105e-13
2.527000000000000000e+03 3.334809875488281250e+01 -1.809222221374511719e+01 -4.362430420156923616e-14 -6.444707777424757422e-14 -3.242141594799775872e-14 -3.497188339767376593e-16
2.528000000000000000e+03 3.282824707031250000e+01 -1.733987426757812500e+01 -3.082025601527579872e-14 5.541774382596641180e-14 7.379246004394005021e-15 1.040777334378618219e-14
2.529000000000000000e+03 2.929790878295898438e+01 -1.630060005187988281e+01 -1.890693547904054306e-13 -1.153429294350333256e-13 -9.132368391237891125e-14 -3.577161421350512349e-14
2.530000000000000000e+03 3.410950088500976562e+01 -1.811983680725097656e+01 -2.452687745014160009e-14 -1.051151963323178340e-14 -1.051151963323178340e-14 5.426820661412739416e-15
2.531000000000000000e+03 3.034957122802734375e+01 -1.758846855163574219e+01 -1.005662905923833395e-13 9.415301112543350559e-14 -1.923984729469544776e-15 4.425287379919949637e-14
2.532000000000000000e+03 3.101192283630371094e+01 -1.623390960693359375e+01 -4.071332640053111629e-14 2.830238112286071611e-14 -3.723283244487941152e-15 -1.168300482398687556e-13
2.533000000000000000e+03 2.817259025573730469e+01 -1.665900230407714844e+01 -2.113427434360243273e-13 -1.363264020984647495e-13 -1.043007436603467231e-13 5.496657680880909225e-14
2.534000000000000000e+03 3.502489471435546875e+01 -1.752108955383300781e+01 -7.585072300071368789e-14 -2.383867300607966921e-13 -9.427123659607947181e-14 1.400471535614733476e-13
2.535000000000000000e+03 3.572109985351562500e+01 -1.759449577331542969e+01 -1.835266286815892545e-13 -7.865427330711743936e-14 -7.865427330711743936e-14 1.065147590354614815e-13
2.536000000000000000e+03 3.640463256835937500e+01 -1.763432121276855469e+01 -2.379306062068320404e-13 -1.934721642875975034e-13 -1.294208338588342944e-13 -6.007830544900796821e-14
2.537000000000000000e+03 3.138667678833007812e+01 -1.709719085693359375e+01 -2.893665464035778678e-14 -8.102784936070417388e-14 -3.298935153913176710e-14 3.765603551631607759e-14
2.538000000000000000e+03 4.114468002319335938e+01 -1.929023170471191406e+01 -9.588454975752863652e-14 -3.155990822411441910e-13 -1.234450909548545638e-13 5.001891167422979623e-14
2.539000000000000000e+03 6.170725631713867188e+01 -2.286615562438964844e+01 -1.658478855550565845e-13 1.119261272748174607e-13 -1.617652850051127383e-14 -1.347523455259890326e-14
2.540000000000000000e+03 5.830765533447265625e+01 -1.992925643920898438e+01 -6.036965767780913539e-14 1.342556166065989043e-13 2.216578666219739396e-14 2.196648218140070941e-13
2.541000000000000000e+03 6.199756240844726562e+01 -2.338793563842773438e+01 -2.579227250613241873e-13 -1.105383146127181249e-13 -1.105383146127181249e-13 -5.522548089946684169e-15
2.542000000000000000e+03 6.559094238281250000e+01 -2.211132240295410156e+01 -3.780766119013817539e-13 -2.477998275324244659e-14 -1.208569783963872601e-13 -1.021913131372953476e-13
2.543000000000000000e+03 5.861713790893554688e+01 -2.054653549194335938e+01 -1.286771253786178626e-13 1.278564520966821161e-13 -2.462003963939478519e-16 1.251945189227957056e-13
2.544000000000000000e+03 5.989049911499023438e+01 -1.912916564941406250e+01 3.379872878968293026e-14 1.288625375026400399e-13 4.879838124294960666e-14 2.197290607927268602e-13
2.545000000000000000e+03 6.139220809936523438e+01 -2.228250694274902344e+01 -1.393766422804268434e-13 5.464452810599942922e-14 -2.541963323588868756e-14 -6.234962090893858555e-14
2.546000000000000000e+03 5.645953369140625000e+01 -2.199487495422363281e+01 -8.880122318358739386e-15 8.769613317862259838e-14 2.364480274985938935e-14 3.150944267874336568e-14
2.547000000000000000e+03 5.724854660034179688e+01 -2.178083801269531250e+01 5.964388596728376069e-14 7.131261184865900216e-14 3.928695002240918666e-14 4.403184309271232846e-15
2.548000000000000000e+03 5.874649047851562500e+01 -2.551261138916015625e+01 2.998544744751627245e-14 -7.865099359554567071e-14 -1.459966316678246168e-14 -2.535888911510929267e-14
2.549000000000000000e+03 6.509181213378906250e+01 -2.133740234375000000e+01 -2.255240536420261011e-13 2.773222799947079598e-14 -5.933754464344798141e-14 -4.597544065831730975e-14
2.550000000000000000e+03 6.186492538452148438e+01 -1.866774559020996094e+01 7.924802307435196980e-14 2.627181783752818856e-13 1.025898590796374410e-13 1.784431977180922502e-13
2.551000000000000000e+03 6.632400512695312500e+01 -2.086737823486328125e+01 -2.908112119170969123e-13 5.837041597680017735e-14 -6.973224488072624072e-14 -1.056060078795384438e-13
2.552000000000000000e+03 6.556982421875000000e+01 -2.064190864562988281e+01 -2.637010347496943075e-13 2.423812053029082009e-14 -7.183887003065630994e-14 6.657106794662930385e-15
2.553000000000000000e+03 8.667825698852539062e+00 3.647669315338134766e+00 2.016860833344794740e-14 -8.285820624455778050e-14 -1.880687920392636048e-14 7.995890733379640292e-14
2.554000000000000000e+03 8.100930213928222656e+00 2.713006973266601562e+00 -4.312925071334877680e-14 7.301793311697071798e-14 8.966605229306350705e-15 1.247955325233210400e-13
2.555000000000000000e+03 1.045026659965515137e+00 6.571536064147949219e+00 2.510493677906119186e-14 -1.264935828608135249e-13 -3.041659399393228935e-14 -1.811874794351107237e-14
2.556000000000000000e+03 5.088928222656250000e+00 1.853299975395202637e+00 -3.381015695820728528e-14 1.227627754226551238e-13 2.668578655577388825e-14 -5.979421059849887587e-14
2.557000000000000000e+03 8.916902542114257812e+00 2.815124750137329102e+00 1.573276150199434675e-13 -6.982672632379477440e-14 2.625026762528414465e-14 -1.824182521887891123e-14
2.558000000000000000e+03 7.457419395446777344e+00 1.884549736976623535e+00 -5.680554632367038059e-14 -7.009618444497531242e-14 -3.807051923059370790e-14 1.988829565445493497e-13
2.559000000000000000e+03 6.520848751068115234e+00 2.601613283157348633e+00 -1.095415618157730489e-14 6.393178358671952610e-14 1.589328915327890834e-14 1.488269007815165579e-13
2.560000000000000000e+03 7.896598339080810547e+00 3.496366500854492188e+00 1.096629924590914254e-14 -1.554284722845092337e-13 -4.333865419856898493e-14 2.205068674312679611e-14
2.561000000000000000e+03 1.800785183906555176e+00 4.131490707397460938e+00 -4.168893894917861942e-14 -6.361763600724185119e-14 -3.159197418099203569e-14 -1.231794614225956153e-14
2.562000000000000000e+03 1.756661653518676758e+00 5.687179565429687500e+00 -2.441411534200542410e-14 -1.019650875777426691e-13 -3.791376053711124905e-14 -6.389529340735181084e-14
2.563000000000000000e+03 2.731988191604614258e+00 1.859609246253967285e+00 -2.955861738099946345e-14 7.883391883083470941e-14 1.478259009613739489e-14 -4.681154010428845158e-14
2.564000000000000000e+03 3.720808029174804688e-01 2.682447195053100586e+00 2.546801575783585320e-14 5.666581299242773317e-14 2.464014777804612866e-14 2.578210743313900932e-15
2.565000000000000000e+03 2.559821891784667969e+01 -1.046931552886962891e+01 -1.799297608693142814e-13 1.438914329213777238e-14 -4.966218544255954215e-14 4.401504727640122294e-14
2.566000000000000000e+03 2.481854057312011719e+01 -9.096388816833496094e+00 -1.377528191341681474e-13 -3.616144926901765366e-14 -5.217428187620845592e-14 9.799090385691558436e-14
2.567000000000000000e+03 2.440241241455078125e+01 -8.413599014282226562e+00 -1.396713826410170278e-13 -8.273464107821232316e-14 -6.672180847102152090e-14 6.383739701134108491e-14
2.568000000000000000e+03 2.396612358093261719e+01 -7.734762191772460938e+00 -1.234806121285306202e-13 -9.295233853456874584e-14 -6.492988655418252542e-14 1.118860727808076994e-13
2.569000000000000000e+03 2.301353454589843750e+01 -6.398261547088623047e+00 2.042320441453596147e-14 -1.508393697490298391e-13 -3.912485163322723669e-14 1.321605178810150716e-13
2.570000000000000000e+03 2.250686073303222656e+01 -5.751290321350097656e+00 -1.725490478038556319e-14 -6.744308074253108076e-14 -2.540939599568817209e-14 -2.192601704581811917e-14
2.571000000000000000e+03 2.142802047729492188e+01 -4.501372814178466797e+00 -1.287637666847266105e-13 -1.638429788976963897e-13 -8.778202231947418444e-14 -4.073583376000555756e-14
2.572000000000000000e+03 2.251555442810058594e+01 -6.860730648040771484e+00 -4.075764994059503932e-14 2.828338386791969666e-14 -3.742280075912486972e-15 -7.276427046619057815e-14
2.573000000000000000e+03 5.403594970703125000e+01 3.407193374633789062e+01 7.151843407857821910e-14 1.679036006367248812e-13 7.182661176984364571e-14 6.689706297594022466e-14
2.574000000000000000e+03 5.207865905761718750e+01 3.486477661132812500e+01 9.026918210315593161e-14 1.759396393765516597e-13 7.986264373340684619e-14 2.198381315312789019e-13
2.575000000000000000e+03 1.492880916595458984e+01 5.361009836196899414e-01 3.425006521342970067e-14 -3.107234996103762359e-14 9.533145121901520809e-16 1.146765381222422664e-13
2.576000000000000000e+03 1.240857696533203125e+01 1.026691079139709473e+00 -2.040596729405933646e-14 -1.459982579710833450e-13 -4.992126910420210950e-14 1.343653649715087495e-13
2.577000000000000000e+03 1.461908721923828125e+01 -7.798540592193603516e-02 -5.441828221765601659e-14 -1.605749631568634261e-13 -6.449797428998219062e-14 -3.440818932402313346e-14
2.578000000000000000e+03 1.531879806518554688e+01 -4.710807800292968750e-01 -1.265394124254576660e-14 4.032783154184031715e-14 8.302167174491659890e-15 1.351856723352112821e-13
2.579000000000000000e+03 5.472333145141601562e+01 3.452098083496093750e+01 1.101161466155430035e-13 2.431716056273090787e-14 4.032999316992171013e-14 2.867687641169847090e-14
2.580000000000000000e+03 5.144676971435546875e+01 3.363946914672851562e+01 7.876919873740090283e-14 -1.034946190163130164e-13 -7.417625067234097369e-15 2.707955862042525641e-14
2.581000000000000000e+03 5.362179946899414062e+01 3.673737716674804688e+01 7.352372698296236186e-14 8.634694521891805863e-15 2.464752712908260812e-14 7.794965031521911003e-14
2.582000000000000000e+03 2.040696907043457031e+01 -4.425113201141357422e+00 -1.424240770892676311e-13 -6.103888824503939103e-14 -6.103888824503939103e-14 1.835981318148646735e-13
2.583000000000000000e+03 1.799276351928710938e+01 -2.277365446090698242e+00 -2.942870285568138788e-14 3.313864956641481008e-14 1.112984140274968746e-15 1.177074795055341183e-13
2.584000000000000000e+03 2.026182746887207031e+01 -3.324221134185791016e+00 -1.163154723362799792e-13 1.877693320110913194e-14 -2.926156292639738032e-14 1.679378614253754232e-13
2.585000000000000000e+03 2.070334815979003906e+01 -2.792839527130126953e+00 -3.494366322448656803e-14 -1.064777538600618356e-13 -4.242642681943041560e-14 4.655159924530326288e-14
2.586000000000000000e+03 2.198091888427734375e+01 -5.118965148925781250e+00 6.184828751844718281e-15 -1.832125895223288281e-13 -5.310832882406829603e-14 2.864073182177323540e-14
2.587000000000000000e+03 5.165481185913085938e+01 -1.171395301818847656e+01 2.087323776279667586e-13 3.410869405928024234e-13 1.649458022424943326e-13 -1.884487032567661036e-13
2.588000000000000000e+03 5.102667617797851562e+01 -1.435955333709716797e+01 3.692592564184804527e-13 2.497558637768598766e-13 1.857045333480966676e-13 -4.582235469969414554e-14
2.589000000000000000e+03 4.281938552856445312e+01 9.522429466247558594e+00 1.310166439314613962e-13 1.934028295586670554e-13 9.732584069178581987e-14 -5.567133871411077128e-14
2.590000000000000000e+03 6.236233901977539062e+01 3.610312271118164062e+01 1.075788018238023336e-13 2.291089952304037336e-13 1.010063411491408936e-13 -1.489723058453740201e-13
2.591000000000000000e+03 1.771682357788085938e+01 -1.218238949775695801e+00 5.621878966044838166e-14 -4.453265555794116981e-14 3.505840146048868830e-15 1.189933568346290826e-13
2.592000000000000000e+03 1.837434387207031250e+01 -1.709275126457214355e+00 -1.012166628180759254e-13 1.625006959505778670e-13 1.838521265025601370e-14 -2.954555740350222302e-15
2.593000000000000000e+03 1.965578842163085938e+01 -2.764637947082519531e+00 -1.303163713007801650e-13 4.708976332240717710e-14 -2.496798171588553855e-14 6.111614442609256126e-14
2.594000000000000000e+03 5.716027450561523438e+01 3.650226593017578125e+01 9.434839113317897152e-14 -3.962913778057276792e-14 1.641577634459503998e-14 9.456200437214703353e-15
2.595000000000000000e+03 6.098350906372070312e+01 3.762627029418945312e+01 5.044964148043576402e-14 1.674524234551721946e-13 6.537062151356146100e-14 -1.407987089549131432e-13
2.596000000000000000e+03 5.616078186035156250e+01 3.861788558959960938e+01 7.245355167608338864e-14 6.536473294051214911e-14 4.134548402972594572e-14 -3.013728996177286734e-14
2.597000000000000000e+03 5.371749114990234375e+01 -1.550164890289306641e+01 5.475275723261507910e-13 3.204377139066211244e-13 2.603895831593261434e-13 -3.155366050909547138e-13
2.598000000000000000e+03 4.833938598632812500e+01 -3.558129787445068359e+00 2.626984255669519153e-14 1.942623037258506269e-13 6.615964286832420882e-14 -7.663395065011721630e-14
2.599000000000000000e+03 4.786946868896484375e+01 -4.642177820205688477e-01 1.643321302603403811e-13 1.619299448219271853e-13 9.787862116942755430e-14 -4.081115192967540994e-14
2.600000000000000000e+03 4.188981628417968750e+01 1.105574512481689453e+01 7.969802118604207841e-14 3.544129237049303827e-13 1.302332943093134632e-13 -2.274314295377076467e-14
2.601000000000000000e+03 4.267768478393554688e+01 1.517516803741455078e+01 1.198843406274505141e-13 2.801337449769708554e-13 1.200054189050628328e-13 2.138593698018751571e-14
2.602000000000000000e+03 4.188768386840820312e+01 1.440626335144042969e+01 4.863007918446196620e-14 5.012264474996142027e-13 1.649569559723437773e-13 1.167611065342258336e-13
2.603000000000000000e+03 5.005355453491210938e+01 -8.750934600830078125e+00 9.087341305607978675e-15 3.470266879846556352e-13 1.068342124293207573e-13 -1.034800364970930864e-13
2.604000000000000000e+03 4.713882064819335938e+01 -6.962975859642028809e-01 -7.944129735819056154e-15 -2.628010181975233561e-14 -1.026726921256153335e-14 -2.501366220273096297e-14
2.605000000000000000e+03 5.091842269897460938e+01 3.162427711486816406e+01 8.805477370475364718e-14 1.749906101099207856e-13 7.891361446677597202e-14 1.009456258274817053e-13
2.606000000000000000e+03 4.514693069458007812e+01 2.373501014709472656e+01 1.761353378686852933e-13 3.499922519769466112e-13 1.578382742431841401e-13 -5.291778029225396862e-14
2.607000000000000000e+03 4.390466308593750000e+01 2.528212547302246094e+01 6.196195086963923737e-14 1.638079727200522639e-13 6.773097707690745040e-14 1.544607676354572967e-13
2.608000000000000000e+03 4.371287536621093750e+01 1.991960716247558594e+01 -4.273260890107211107e-15 2.269233520708902052e-13 6.679502599898218262e-14 5.523353448872933558e-14
2.609000000000000000e+03 4.218479537963867188e+01 1.688976097106933594e+01 1.692750621748104201e-14 1.673829667534973420e-13 5.529314189129351520e-14 8.323829364491330818e-14
2.610000000000000000e+03 4.644746017456054688e+01 7.154003381729125977e-01 -3.986977645275592563e-14 1.659167459455365701e-13 3.781409186427373004e-14 -9.363972271192455565e-14
2.611000000000000000e+03 4.643640899658203125e+01 2.379988908767700195e+00 1.971289444342976677e-14 -1.745554113578851041e-13 -4.645275388849047504e-14 -2.175751508755492669e-14
2.612000000000000000e+03 5.120818710327148438e+01 3.270544052124023438e+01 1.056455270487255405e-13 1.825295014960814921e-13 8.645250585293667855e-14 1.249688557931200039e-13
2.613000000000000000e+03 5.057263946533203125e+01 3.232955169677734375e+01 9.327088390910856508e-14 -1.430305526795017101e-13 -1.492790198637065913e-14 6.149510019043055720e-14
2.614000000000000000e+03 4.935202789306640625e+01 -6.513691425323486328e+00 1.650960320060193554e-13 9.363091356927311093e-14 7.761808096208230867e-14 -1.614028328307190452e-13
2.615000000000000000e+03 5.124597930908203125e+01 -1.019862651824951172e+01 1.127758571749758187e-13 3.914646384828301962e-13 1.512721425987045842e-13 -7.577144749311426342e-14
2.616000000000000000e+03 5.081424713134765625e+01 -1.169800472259521484e+01 1.069816774773059420e-13 2.059776096430612768e-13 9.388778816898923907e-14 -2.097577347275406123e-13
2.617000000000000000e+03 4.409640502929687500e+01 6.559651374816894531e+00 4.642466966409131146e-14 1.685868648458252461e-13 6.450346306348039849e-14 -4.988068606163326146e-14
2.618000000000000000e+03 4.353639221191406250e+01 4.635073661804199219e+00 5.492053209779634848e-14 1.036015281267836652e-13 4.755661738974764630e-14 -9.078473378869994503e-14
2.619000000000000000e+03 4.473611831665039062e+01 2.489799690246582031e+01 9.216789115772117125e-14 2.568175435768010884e-13 1.046956236440930998e-13 7.058424652324913479e-15
2.620000000000000000e+03 4.679994201660156250e+01 6.164934951812028885e-03 1.110796432049129812e-13 3.449867344920698464e-13 1.368199173748529951e-13 2.518871172567643119e-14
2.621000000000000000e+03 4.957023239135742188e+01 -4.900195121765136719e+00 -3.716424141087665278e-14 2.128272059455371679e-13 5.269889003802451233e-14 -4.390056569138212073e-14
2.622000000000000000e+03 4.931688308715820312e+01 -4.147592544555664062e+00 8.382837745355212200e-14 1.503038145334034681e-13 7.023965827371303483e-14 -6.278580221919308202e-14
2.623000000000000000e+03 4.438270187377929688e+01 2.410130882263183594e+01 -4.294974156193601469e-15 1.125366686231983604e-13 3.247250897537613812e-14 1.026362290513019304e-13
2.624000000000000000e+03 4.596633529663085938e+01 2.718616485595703125e+01 3.986891925541330428e-14 1.429017901189919004e-13 5.483121416757427702e-14 1.274826869502448945e-13
2.625000000000000000e+03 4.877889251708984375e+01 -2.656775474548339844e+00 6.630409247901716818e-14 2.114198302104880467e-13 8.331717612922520666e-14 -1.015048911893676187e-13
2.626000000000000000e+03 4.775973510742187500e+01 -2.110791683197021484e+00 8.775116321513981577e-14 6.048311265889616539e-14 4.447028343983715215e-14 -1.128458220964190239e-13
2.627000000000000000e+03 4.919824981689453125e+01 2.987303924560546875e+01 -9.288684594708704334e-14 -3.980864777901847729e-14 -3.980864777901847729e-14 1.369447225974332327e-13
2.628000000000000000e+03 5.067964172363281250e+01 -1.096873664855957031e+01 -2.175155875186983445e-14 4.253119124247861649e-13 1.210681132169516561e-13 -2.489505455081919560e-13
2.629000000000000000e+03 4.205105590820312500e+01 1.605970382690429688e+01 7.936363290725681474e-15 4.151598498574465834e-13 1.269288629280121428e-13 -1.254202769201614998e-13
2.630000000000000000e+03 4.308002090454101562e+01 1.757460212707519531e+01 4.953729551668457909e-14 1.584831170377970500e-13 6.240612139465223640e-14 7.205993885362610429e-14
2.631000000000000000e+03 4.535298919677734375e+01 2.818520307540893555e+00 6.780057608011744175e-14 -1.196331987467214031e-13 -1.554978510591529389e-14 -4.266625572811599820e-14
2.632000000000000000e+03 4.527953720092773438e+01 4.471958637237548828e+00 1.424604893416041990e-14 -5.332287972850896854e-15 2.674128118986267462e-15 2.734040580466400722e-14
2.633000000000000000e+03 4.511117172241210938e+01 2.568272590637207031e+01 3.947646856215965283e-14 3.979396022771308772e-14 2.378112931458817997e-14 1.175678884758266096e-13
2.634000000000000000e+03 4.458904647827148438e+01 4.208649158477783203e+00 1.170196853642318374e-14 1.645286622328941128e-14 8.446450766726957410e-15 1.005832143106694804e-14
2.635000000000000000e+03 4.405831527709960938e+01 2.330180549621582031e+01 1.169676063905028540e-13 2.560082408651492836e-13 1.118927541766956413e-13 1.367879876208732970e-13
2.636000000000000000e+03 4.375643539428710938e+01 2.250220870971679688e+01 3.730782027169983472e-14 1.532419075531490926e-13 5.716491868626785711e-14 1.708816465065265966e-14
2.637000000000000000e+03 4.195629501342773438e+01 1.522947216033935547e+01 -5.047996525994746797e-14 1.241203011511759612e-15 -1.477162948979992424e-14 2.801822698004531598e-14
2.638000000000000000e+03 4.982302093505859375e+01 -8.003133773803710938e+00 4.714611473032211120e-14 8.883190271693694462e-14 4.079340489536453784e-14 -1.338294573901763207e-13
2.639000000000000000e+03 4.959033203125000000e+01 -7.258686065673828125e+00 8.714432848293610090e-14 3.734756983384858453e-14 3.734756983384858453e-14 -1.847546638247821171e-13
2.640000000000000000e+03 5.328841018676757812e+01 -1.580539321899414062e+01 4.820982480412128179e-13 2.952559800383641742e-13 2.332062765553893913e-13 -3.637041297473164736e-13
2.641000000000000000e+03 5.320637893676757812e+01 -1.494335269927978516e+01 3.474244817617405667e-13 1.603339450139198985e-13 1.523275185459291303e-13 -5.275051771259919864e-13
2.642000000000000000e+03 4.297161865234375000e+01 2.011651420593261719e+01 5.524127298173545086e-14 2.295541144323176574e-13 8.543861419133685908e-14 2.847989042948501082e-14
2.643000000000000000e+03 4.274220275878906250e+01 1.931699752807617188e+01 8.128134938115844088e-15 3.237401395139033466e-13 9.956047623696853699e-14 -3.557249032013279355e-14
2.644000000000000000e+03 4.234907913208007812e+01 1.770685386657714844e+01 1.408358716784409784e-14 2.347905669799338346e-13 7.466224768428939007e-14 -1.183951347334330495e-13
2.645000000000000000e+03 4.749094009399414062e+01 2.931115531921386719e+01 9.489486290942955593e-14 1.779220759438870925e-13 8.184508030074227891e-14 9.950972879903263735e-14
2.646000000000000000e+03 4.467299652099609375e+01 2.539327621459960938e+00 -9.654116292197659210e-14 -4.137478459343736648e-14 -4.137478459343736648e-14 -4.971432540266072786e-14
2.647000000000000000e+03 4.109937286376953125e+01 1.356597232818603516e+01 4.138305163500256845e-14 5.209960067531493877e-13 1.687137300525332062e-13 6.388948614946543536e-14
2.648000000000000000e+03 4.609074020385742188e+01 1.421844363212585449e+00 8.297347726428372372e-14 -2.162862547210302883e-14 1.840345435180808231e-14 1.527269352381410011e-14
2.649000000000000000e+03 4.182439804077148438e+01 1.190054321289062500e+01 -2.120198005876872127e-15 2.964725090860015344e-13 8.830569196878468308e-14 -1.091415843877500957e-13
2.650000000000000000e+03 4.321649932861328125e+01 2.091176223754882812e+01 4.342662111124018579e-15 7.048756110045184542e-14 2.244906836107712217e-14 5.208268034516058687e-14
2.651000000000000000e+03 4.694804382324218750e+01 2.866707420349121094e+01 -4.692524580712786886e-14 1.628929738491102786e-13 3.479031976784743851e-14 1.083363745392994237e-13
2.652000000000000000e+03 4.420485305786132812e+01 4.902828216552734375e+00 3.117221514551890560e-14 1.921782867323157222e-15 9.928198535643847911e-15 -9.158269303512212023e-14
2.653000000000000000e+03 4.310032653808593750e+01 7.068439960479736328e+00 -1.740120431103532594e-14 -4.177087075210063338e-14 -1.775162184131442999e-14 -4.344887690192929253e-14
2.654000000000000000e+03 4.860537719726562500e+01 3.055127716064453125e+01 1.084434395038323673e-13 4.647575930333790184e-14 4.647575930333790184e-14 4.669546948546030030e-14
2.655000000000000000e+03 7.947509002685546875e+01 4.120007324218750000e+01 4.806518274754270625e-14 -5.512874770401132718e-13 -1.509666957416611055e-13 1.943226734580673354e-14
2.656000000000000000e+03 7.851709747314453125e+01 3.934639739990234375e+01 3.193473453342796087e-14 -3.980722273078801665e-13 -1.098412471547093039e-13 -2.863425371379263451e-14
2.657000000000000000e+03 7.880104064941406250e+01 3.787298583984375000e+01 -8.026113546564031531e-14 -3.546542671085256559e-13 -1.304746241603815804e-13 2.238170721891377668e-14
2.658000000000000000e+03 7.962329101562500000e+01 3.724394607543945312e+01 -6.659337117116345683e-14 -7.605551930432719043e-13 -2.481445767182205442e-13 1.668075535555049727e-14
2.659000000000000000e+03 7.702376556396484375e+01 3.757861328125000000e+01 -7.903957165416447550e-14 -3.541307329844867180e-13 -1.299510900363426424e-13 1.510540011216005007e-13
2.660000000000000000e+03 7.964108276367187500e+01 -2.127699279785156250e+01 -4.005471085019585153e-14 9.721106433930107316e-14 1.714690638554474539e-14 -2.058692402477895617e-14
2.661000000000000000e+03 7.641414642333984375e+01 -2.397916603088378906e+01 -1.267685517783488994e-14 1.775708622026375694e-13 4.946820134511115130e-14 -4.714821198389951284e-14
2.662000000000000000e+03 7.810009002685546875e+01 -2.420654678344726562e+01 4.594099352241837186e-14 2.026927887685547880e-13 7.459013468729194796e-14 5.654409774603907923e-14
2.663000000000000000e+03 7.889788055419921875e+01 -2.383659362792968750e+01 3.860486827130318876e-14 6.229589191502835077e-14 3.027022670064674625e-14 1.247142851230204075e-14
2.664000000000000000e+03 7.913417816162109375e+01 -2.459723854064941406e+01 -1.191791365709503683e-14 1.321451628677472456e-13 3.606817738899779913e-14 -2.626876682485217857e-14
2.665000000000000000e+03 7.889559173583984375e+01 1.635914611816406250e+01 -2.206154739957649075e-14 -7.872210912654442616e-13 -2.427847961734841409e-13 -1.837703031198553716e-13
2.666000000000000000e+03 7.890532684326171875e+01 2.197295188903808594e+01 1.100027119632467076e-13 -9.593768921650758230e-13 -2.548122303436262115e-13 9.271958912725631469e-15
2.667000000000000000e+03 7.959160614013671875e+01 3.246739196777343750e+01 6.253088595965100582e-14 -9.568464727147119042e-13 -2.682946638292438291e-13 7.307095060320525914e-14
2.668000000000000000e+03 7.877420043945312500e+01 3.245233535766601562e+01 -5.511324564582385788e-14 -8.928879770969677665e-13 -2.844003786812987489e-13 -1.307669538652038790e-14
2.669000000000000000e+03 7.884393310546875000e+01 2.999193572998046875e+01 3.148610183884882618e-14 -8.557740020093129729e-13 -2.472863764885896432e-13 8.810215333969126372e-14
2.670000000000000000e+03 7.886288452148437500e+01 2.918409919738769531e+01 7.894428383573015573e-14 -1.018438588670789180e-12 -2.818482751874851200e-13 1.533629180681256310e-13
2.671000000000000000e+03 7.890252685546875000e+01 2.597425079345703125e+01 1.247633859289068448e-13 -7.242961113686219310e-13 -1.798598162766618103e-13 2.583425586356966758e-14
2.672000000000000000e+03 7.963505554199218750e+01 2.362759780883789062e+01 -1.261485829532650593e-14 -1.446561295227744015e-12 -4.377528341984598947e-13 6.353934983412481974e-14
2.673000000000000000e+03 7.890823364257812500e+01 2.357358169555664062e+01 -7.534616241469324627e-14 -9.930611021002899719e-13 -3.205222003609120573e-13 -5.537958668575850008e-14
2.674000000000000000e+03 7.890801239013671875e+01 2.437309837341308594e+01 1.215295767666157989e-13 -9.086858327421454273e-13 -2.361468767926588885e-13 2.424645533449180240e-14
2.675000000000000000e+03 7.890441894531250000e+01 2.117313575744628906e+01 7.036283041677096617e-14 -1.250871043030621355e-12 -3.541524712380450524e-13 7.653377714564313372e-14
2.676000000000000000e+03 7.890199279785156250e+01 1.957306671142578125e+01 2.794782668366722206e-14 -1.108920572555349704e-12 -3.242918357893725956e-13 -5.732914143408152086e-14
2.677000000000000000e+03 7.963153076171875000e+01 1.721463394165039062e+01 6.718626374105536592e-15 -1.095143398709141902e-12 -3.265274335639833936e-13 -7.258095220761401345e-14
2.678000000000000000e+03 7.889726257324218750e+01 1.716392326354980469e+01 2.205611791838459068e-14 -7.911890001661980865e-13 -2.307398521382564294e-13 -9.305097382721061461e-14
2.679000000000000000e+03 7.889880371093750000e+01 1.796768188476562500e+01 -3.838207488925278466e-14 -9.543439172601808629e-13 -2.978177871416215483e-13 -3.551794817459319464e-14
2.680000000000000000e+03 7.816538238525390625e+01 1.550734043121337891e+01 2.136413604619108453e-14 -5.398553240727743674e-13 -1.555473550527222693e-13 -1.454080318609093925e-13
2.681000000000000000e+03 7.889440155029296875e+01 1.555403995513916016e+01 -7.845862902509243009e-15 -8.726305268658141046e-13 -2.641429284501450869e-13 -1.120817577204141768e-13
2.682000000000000000e+03 7.816356658935546875e+01 1.389670944213867188e+01 5.906646021900871513e-14 -4.779462416115709544e-13 -1.256639378059004608e-13 -6.946747593394170250e-14
2.683000000000000000e+03 7.889345550537109375e+01 1.233999919891357422e+01 4.364993203042136227e-14 -7.133080476111330892e-13 -2.008974448386088851e-13 -6.842472416576303451e-14
2.684000000000000000e+03 7.890120697021484375e+01 9.936991691589355469e+00 -2.734227224176328207e-15 -5.044322706933279665e-13 -1.521499397826031608e-13 -1.665616429502581042e-13
2.685000000000000000e+03 7.888761901855468750e+01 3.715201187133789062e+01 -1.455991360463371187e-14 -4.637494273145026380e-13 -1.434928158282680610e-13 8.279845315232667313e-15
2.686000000000000000e+03 7.961322784423828125e+01 3.004566001892089844e+01 1.934199192954108582e-13 -9.236266265699732969e-13 -2.190620189586323097e-13 3.630962921281032096e-14
2.687000000000000000e+03 7.804669952392578125e+01 3.075158882141113281e+01 2.371355133199033738e-14 -7.447276844686767650e-13 -2.163042423126981806e-13 1.528702159433667496e-13
2.688000000000000000e+03 7.890328979492187500e+01 1.916377782821655273e+00 3.582584803905192183e-13 -3.725965662306623960e-13 -4.301429817801100119e-15 -4.887007682211064186e-13
2.689000000000000000e+03 7.890779113769531250e+01 -5.303779602050781250e+00 7.508903709322473086e-14 -4.710794471521340121e-13 -1.187971162414092063e-13 -4.061795726693386011e-15
2.690000000000000000e+03 7.823378753662109375e+01 -1.817856788635253906e+01 -2.623343369249041268e-14 2.175118402449396915e-13 5.738352094929524694e-14 -5.124941337736506342e-14
2.691000000000000000e+03 7.891486358642578125e+01 -1.171268272399902344e+01 1.342299752252196221e-13 -1.254766689856579021e-13 2.625992295384989642e-15 -7.609289310846548138e-14
2.692000000000000000e+03 7.890691375732421875e+01 9.136593818664550781e+00 1.276711670276020269e-14 -5.892907147496406761e-13 -1.729570805152069735e-13 1.539624005543471785e-14
2.693000000000000000e+03 7.947539520263671875e+01 4.039102935791015625e+01 -1.536359709971343163e-14 -5.098448247788101018e-13 -1.575625345256667642e-13 -5.974819976880402228e-14
2.694000000000000000e+03 7.697432708740234375e+01 4.063634872436523438e+01 -8.452237695822598790e-15 -2.552526061610355113e-13 -7.911145425820026444e-14 9.635865103876581350e-14
2.695000000000000000e+03 7.959484863281250000e+01 3.802684402465820312e+01 -3.811476145549469452e-14 -5.653462724006241835e-13 -1.810383169330992414e-13 -2.044825795504984917e-14
2.696000000000000000e+03 7.889596557617187500e+01 3.641730499267578125e+01 1.139662332333337552e-14 -6.356290277106935172e-13 -1.872697147093510539e-13 -3.551767119481944249e-15
2.697000000000000000e+03 7.959136962890625000e+01 3.327620315551757812e+01 -1.109323136821993572e-13 -8.481840447008281991e-13 -2.877348966728865420e-13 5.096644677474171381e-14
2.698000000000000000e+03 7.876953125000000000e+01 3.328298568725585938e+01 6.123746664919368921e-14 -4.541403331951437972e-13 -1.178708552204005278e-13 5.160982759048766272e-15
2.699000000000000000e+03 7.879566192626953125e+01 3.162392425537109375e+01 -7.083656577977492930e-14 -6.251208860448553839e-13 -2.087872247053673691e-13 2.180998979507686730e-13
2.700000000000000000e+03 7.888853454589843750e+01 2.757670593261718750e+01 6.124069892692041162e-14 -8.887729419614076587e-13 -2.482596918838841926e-13 -2.991728628273424527e-15
2.701000000000000000e+03 7.963303375244140625e+01 9.995291709899902344e+00 3.799736946526882653e-14 -7.614815353794435193e-13 -2.170452538400105547e-13 6.764331933126199736e-14
2.702000000000000000e+03 7.889396667480468750e+01 1.153806591033935547e+01 -1.603535182512650509e-14 -6.931365204021489035e-13 -2.127515692914791479e-13 -5.758011814338591730e-15
2.703000000000000000e+03 7.891271972656250000e+01 8.335434913635253906e+00 -2.936995603859161863e-14 -6.988513500533199974e-13 -2.184663989426502417e-13 -3.764304203090519663e-14
2.704000000000000000e+03 7.891681671142578125e+01 5.130290985107421875e+00 1.224867646545946265e-13 -8.625246242059680934e-13 -2.220113741284446274e-13 -1.271962678413285364e-13
2.705000000000000000e+03 7.891941833496093750e+01 5.932802200317382812e+00 -9.439501860285942625e-14 -5.437154632775831331e-13 -1.914331323668583273e-13 -8.184890380746618482e-15
2.706000000000000000e+03 7.963543701171875000e+01 3.580111265182495117e+00 -2.796148729222736051e-13 -1.149231317748578007e-12 -4.286538572012554837e-13 7.484477989629090278e-15
2.707000000000000000e+03 7.890583038330078125e+01 2.719253063201904297e+00 -2.480601444740382355e-13 -6.553228554424805896e-13 -2.710148999749556475e-13 4.153241742492139177e-14
2.708000000000000000e+03 7.890383911132812500e+01 1.114093184471130371e+00 6.512304259222168046e-13 -8.875504498018216282e-13 -7.089600038761786904e-14 -5.561519737036675626e-14
2.709000000000000000e+03 7.890614318847656250e+01 -2.092529296875000000e+00 2.684290235834690952e-13 -4.568458784014184371e-13 -5.652505305725301354e-14 7.299940681234837192e-14
2.710000000000000000e+03 7.890662384033203125e+01 -1.290557980537414551e+00 -1.568144350266517661e-13 -6.162175804347302943e-13 -2.319095978621510401e-13 -2.069594902355184618e-13
2.711000000000000000e+03 7.963517761230468750e+01 -3.638343095779418945e+00 -2.287317741895417145e-13 -4.640354940577129383e-13 -2.078301723426601022e-13 -1.243762850957480515e-13
2.712000000000000000e+03 7.890794372558593750e+01 -4.503143787384033203e+00 -1.974585046252835818e-13 -4.735081142286101663e-13 -2.012899937876844181e-13 -5.676875798870523182e-14
2.713000000000000000e+03 7.890861511230468750e+01 -6.102955818176269531e+00 -2.306269324819920641e-13 -4.190967505760673228e-13 -1.949171076279232473e-13 5.647207961673172960e-14
2.714000000000000000e+03 7.891412353515625000e+01 -9.305677413940429688e+00 -1.292474157213452379e-13 -2.841464856375569559e-13 -1.240181731181760894e-13 -5.476583000030982307e-14
2.715000000000000000e+03 7.891048431396484375e+01 -7.702585697174072266e+00 -9.573305283271452137e-14 -3.612850849651211282e-13 -1.371054420169770527e-13 -1.057983521212009503e-13
2.716000000000000000e+03 7.963700866699218750e+01 -1.005093097686767578e+01 -8.028646513889500791e-14 -1.259103905122335720e-13 -6.185905330720678497e-14 -4.921752363843713562e-14
2.717000000000000000e+03 7.891435241699218750e+01 -1.091048812866210938e+01 -8.023171292918448994e-14 1.257433014049263997e-13 1.365347484865667843e-14 -1.083311906976622274e-13
2.718000000000000000e+03 7.891755676269531250e+01 -1.251333808898925781e+01 -3.863111951640449404e-14 7.494570556602214717e-14 1.089437598429188539e-14 -6.851427248894675914e-14
2.719000000000000000e+03 7.821566009521484375e+01 -1.416145515441894531e+01 3.703916852588508279e-14 2.903796181372847451e-13 9.822564040352227410e-14 -3.234455279023211449e-14
2.720000000000000000e+03 7.964082336425781250e+01 -1.646589088439941406e+01 -2.037829980987022199e-14 1.285192926473582853e-13 3.244229700421347173e-14 -5.687893325822049317e-14
2.721000000000000000e+03 7.822107696533203125e+01 -1.576509571075439453e+01 -1.395820426879383278e-14 1.541462270326920958e-13 4.205640894675184704e-14 -2.075393689912087558e-14
2.722000000000000000e+03 7.892417907714843750e+01 -1.571992111206054688e+01 -6.604929819221949661e-14 1.546969475262061078e-13 2.659429683307505676e-14 3.468260089387921463e-14
2.723000000000000000e+03 7.893555450439453125e+01 -1.812552452087402344e+01 -4.482083734242076414e-15 1.810829047474427078e-13 5.298024388991628975e-14 -3.464141137572013251e-14
2.724000000000000000e+03 7.964823150634765625e+01 -2.047215080261230469e+01 -6.459661720592058468e-15 1.116089439292568264e-13 3.154478428143460411e-14 -9.060013481630713184e-14
2.725000000000000000e+03 7.764650726318359375e+01 -2.059936714172363281e+01 1.299773497517734203e-14 1.885742538683399250e-13 6.047159301081350691e-14 -8.463948942757926197e-14
2.726000000000000000e+03 7.893588256835937500e+01 -2.132528114318847656e+01 -3.747798495563848739e-15 1.813975944280066255e-13 5.329494034674378544e-14 2.272034760309425694e-14
2.727000000000000000e+03 7.033042144775390625e+01 1.388576507568359375e+01 5.478685674619246382e-14 1.579012311528349422e-12 4.901397755545378043e-13 7.508058709254292196e-14
2.728000000000000000e+03 6.964584350585937500e+01 1.388064098358154297e+01 3.623101777904154386e-14 1.891316530472364477e-12 5.782642702352458475e-13 6.668021576517954574e-14
2.729000000000000000e+03 4.460289180278778076e-01 3.482303237915039062e+01 6.843228647591612090e-14 6.452649558338213742e-15 2.246548216552901600e-14 -4.755730518050081679e-14
2.730000000000000000e+03 4.349582791328430176e-01 3.401138687133789062e+01 -7.912933512371680272e-15 1.796125368661721788e-13 5.150988278490933880e-14 3.461372356274028395e-14
2.731000000000000000e+03 3.843131661415100098e-01 2.835598373413085938e+01 -3.501266591650169235e-14 -1.065073254743163778e-13 -4.245599843368495774e-14 -5.918888782010600993e-15
2.732000000000000000e+03 3.820436000823974609e-01 2.755143356323242188e+01 -7.289518787851820281e-14 -1.913691102285730583e-13 -7.927928875450102053e-14 2.560179952965698641e-14
2.733000000000000000e+03 3.633810579776763916e-01 2.111685180664062500e+01 3.777155048153083006e-14 6.193875571941162561e-14 2.991309389316181011e-14 1.699966495425763585e-14
2.734000000000000000e+03 1.095649361610412598e+00 2.176441001892089844e+01 -6.952655817607858446e-14 -5.267257103028742671e-14 -3.665973842309662445e-14 -7.871429744989166810e-14
2.735000000000000000e+03 1.120744466781616211e+00 2.498552894592285156e+01 -3.090253001950850342e-14 -1.324394034788985500e-14 -1.324394034788985500e-14 8.368566934259871748e-15
2.736000000000000000e+03 1.128354310989379883e+00 2.578834915161132812e+01 2.751179445121144235e-14 5.754171959878803810e-14 2.551605438440643359e-14 2.442562313162682103e-14
2.737000000000000000e+03 3.754942119121551514e-01 2.594266319274902344e+01 6.491737757161747391e-14 2.782173397100715789e-14 2.782173397100715789e-14 9.923856644756222367e-15
2.738000000000000000e+03 1.147494077682495117e+00 2.739946746826171875e+01 -2.089389384706159813e-14 -1.233319002480470772e-13 -4.326773721209306589e-14 5.716346178959857971e-14
2.739000000000000000e+03 1.160229921340942383e+00 2.981517791748046875e+01 -7.444084682440427203e-14 1.511005811574359092e-13 2.299791860584359665e-14 1.221630083333632988e-13
2.740000000000000000e+03 2.635582447052001953e+00 3.035062789916992188e+01 1.075714699066109004e-13 1.376039581758858876e-13 7.355262774712267859e-14 5.313955723476766757e-14
2.741000000000000000e+03 1.278904914855957031e+00 3.309964370727539062e+01 -7.118857912012666045e-15 1.342019079414794036e-13 3.812491568646637907e-14 6.107059692341985577e-15
2.742000000000000000e+03 4.172765612602233887e-01 3.239688873291015625e+01 -7.628932343706554264e-14 3.593099870912407068e-14 -1.210749657134949434e-14 4.954245902953104130e-14
2.743000000000000000e+03 1.299968242645263672e+00 3.391291809082031250e+01 4.835874742640210167e-14 1.122270746928451246e-13 4.817574765221370459e-14 -3.018691931621839131e-14
2.744000000000000000e+03 1.372906565666198730e+00 3.557787704467773438e+01 3.491085255624172545e-14 6.071273990276501720e-14 2.868707807651520170e-14 9.003055598125545012e-14
2.745000000000000000e+03 2.632040739059448242e+00 3.927850723266601562e+01 -8.997728607920262717e-15 1.901930490270237195e-14 3.006472930786280133e-15 6.342033831690380152e-14
2.746000000000000000e+03 1.240126609802246094e+00 3.815037918090820312e+01 4.757311081529658203e-14 2.491432082342426302e-13 8.901489571486176366e-14 -3.941036949908771625e-14
2.747000000000000000e+03 9.775547981262207031e-01 3.942501831054687500e+01 1.193443266303897965e-13 -8.610527655467103969e-14 9.971715700341984845e-15 3.458850230970283990e-14
2.748000000000000000e+03 3.435189425945281982e-01 3.960437393188476562e+01 -8.605203545173842339e-14 1.003734042496345902e-13 4.296411147588618390e-15 -8.084499612321565179e-16
2.749000000000000000e+03 1.508119106292724609e+00 3.909973144531250000e+01 1.913171972733017367e-14 5.395025585671654744e-14 2.192459403046673194e-14 -7.341587597185436631e-14
2.750000000000000000e+03 1.497358560562133789e+00 4.040514755249023438e+01 -1.168445087863442811e-13 -2.788309676465122733e-13 -1.187026415746042507e-13 -3.028905454899831484e-14
2.751000000000000000e+03 1.746054649353027344e+00 4.178707504272460938e+01 -5.064403892996241496e-14 4.120296565415272616e-14 -2.832322109797848729e-15 1.693957135478173226e-14
2.752000000000000000e+03 3.606242835521697998e-01 1.950920867919921875e+01 -6.857296848405969314e-14 1.636253524166242368e-14 -1.566312997271918084e-14 7.657605425410649036e-14
2.753000000000000000e+03 3.558852076530456543e-01 1.468655395507812500e+01 -9.924083988399265421e-14 -4.085393861315983477e-13 -1.523340644165455116e-13 2.160807137060495597e-14
2.754000000000000000e+03 3.544710874557495117e-01 1.388327884674072266e+01 8.065314231362960551e-14 -1.118531655508068698e-14 2.084034781226797028e-14 -5.692701084830664726e-14
2.755000000000000000e+03 1.039584279060363770e+00 8.157281875610351562e+00 -1.640393821212421388e-14 -1.442831043443199013e-13 -4.820611208930687674e-14 -3.444361901814088633e-14
2.756000000000000000e+03 3.459410369396209717e-01 7.473699092864990234e+00 -5.470181548532107932e-15 -1.395972096598918633e-13 -4.352021740487883872e-14 -1.558281092052873906e-14
2.757000000000000000e+03 3.517858982086181641e-01 5.072969436645507812e+00 2.149703720968117876e-14 -1.966662509927941116e-13 -5.255076430434046930e-14 -3.879866602150318367e-14
2.758000000000000000e+03 3.914397478103637695e+00 4.720973491668701172e+00 4.800906512072121435e-14 -2.517563523103671930e-14 6.850028289278990712e-15 -9.695627682876697961e-14
2.759000000000000000e+03 1.048556685447692871e+00 1.133393192291259766e+01 1.394820080968675949e-14 -8.552409675637376307e-14 -2.147276971574234306e-14 -2.761698747293095391e-14
2.760000000000000000e+03 1.058503985404968262e+00 1.292974472045898438e+01 1.606490277177713422e-13 -1.599051566072290376e-13 2.231585326600095181e-16 -5.988836678091566390e-14
2.761000000000000000e+03 1.053534507751464844e+00 1.213090515136718750e+01 -4.339961007758519340e-14 -1.101017335029125244e-13 -4.605040307414931533e-14 -8.672057145195193051e-15
2.762000000000000000e+03 3.512498438358306885e-01 1.227813053131103516e+01 8.821043125540467544e-14 -1.451993229427059329e-13 -1.709666886144309284e-14 -4.994398313971568082e-14
2.763000000000000000e+03 1.063213706016540527e+00 1.373014926910400391e+01 1.996482406479982430e-14 -1.744474383740327039e-13 -4.634478429276986389e-14 -5.007124136971116690e-14
2.764000000000000000e+03 1.067434430122375488e+00 1.453199958801269531e+01 3.169658952624151982e-14 1.050861464903588005e-13 4.103482283785916951e-14 -6.397129597964304470e-14
2.765000000000000000e+03 1.073673963546752930e+00 1.613804435729980469e+01 -4.161334295270206762e-14 -1.550871383355564848e-13 -5.901014269241167121e-14 1.080947533088974510e-13
2.766000000000000000e+03 2.515682697296142578e+00 1.664626693725585938e+01 -1.289834938075079540e-13 3.622325895724469447e-14 -2.782806977745262006e-14 -2.141031797654128349e-14
2.767000000000000000e+03 1.078860163688659668e+00 1.774583053588867188e+01 1.082510139470069244e-14 -1.823614501593462389e-14 -2.223313044018532074e-15 9.642931391535755625e-14
2.768000000000000000e+03 1.081148266792297363e+00 1.854911994934082031e+01 -1.300874555645870068e-14 -7.420159728625461137e-14 -2.616310454687988812e-14 1.334539304152088102e-13
2.769000000000000000e+03 1.083568334579467773e+00 1.935189056396484375e+01 -2.386646110776047269e-14 -5.597943170208147246e-14 -2.395376818176576245e-14 6.117778131959836219e-14
2.770000000000000000e+03 1.101200222969055176e+00 2.257002639770507812e+01 4.945700695768023847e-14 2.119585939869186170e-14 2.119585939869186170e-14 -4.758841839471936175e-14
2.771000000000000000e+03 7.102064514160156250e+01 1.083347988128662109e+01 -7.028429352190154744e-14 1.388157601020512111e-12 3.953619929272095268e-13 -4.911793628076255303e-14
2.772000000000000000e+03 6.275230026245117188e+01 3.487461090087890625e+01 3.118997844286236498e-13 2.251732329240641040e-13 1.611219024953008949e-13 -1.141625314247940448e-13
2.773000000000000000e+03 6.217385864257812500e+01 3.848602676391601562e+01 1.779820018308394397e-14 2.764146333697481417e-13 8.826384854119032064e-14 -1.455343007564224855e-13
2.774000000000000000e+03 6.969778442382812500e+01 9.148136138916015625e+00 3.063340732337507810e-14 1.614411837720652887e-12 4.935135416647695727e-13 -2.825349004233201899e-13
2.775000000000000000e+03 7.099420928955078125e+01 1.234505558013916016e+01 -5.570352935423822371e-14 1.302904615793631926e-12 3.741603110240382390e-13 -3.523239642741482491e-14
2.776000000000000000e+03 6.847248840332031250e+01 3.243861770629882812e+01 2.259485594501356442e-13 9.203522275888498250e-13 3.438902266249266315e-13 -3.679443360236900329e-13
2.777000000000000000e+03 6.726314544677734375e+01 3.263658142089843750e+01 2.905481573649976168e-13 8.565358166658099126e-13 3.441252003407585525e-13 -5.349708306554012971e-13
2.778000000000000000e+03 6.971208953857421875e+01 2.453977763652801514e-01 2.926073283410907111e-14 1.842578173372189099e-12 5.615516732171421665e-13 3.582811402159241654e-13
2.779000000000000000e+03 7.051276397705078125e+01 9.657135605812072754e-01 2.056724744941423877e-14 1.564346742422006997e-12 4.754742064481953800e-13 1.745308812837326196e-13
2.780000000000000000e+03 7.067384338378906250e+01 2.638146877288818359e+00 7.446809418025154836e-14 1.747575500109233015e-12 5.466130477936592680e-13 7.601434943733248462e-14
2.781000000000000000e+03 6.911470031738281250e+01 2.762545394897460938e+01 2.792484667980821289e-13 2.247097039692613762e-12 7.579036682102413547e-13 -4.852025899115819385e-13
2.782000000000000000e+03 6.548076629638671875e+01 3.319277572631835938e+01 4.494461172590419329e-13 5.300329944911419400e-13 2.938437253935388682e-13 -4.565764541615557892e-13
2.783000000000000000e+03 6.619827270507812500e+01 -8.816341400146484375e+00 2.850090768859864232e-13 6.711581160626090004e-13 2.868501605950840583e-13 3.277182399150785352e-13
2.784000000000000000e+03 6.951219940185546875e+01 2.869220161437988281e+01 3.057095050197633501e-13 1.732301585163908975e-12 6.114033433181342847e-13 -4.625856989126653218e-13
2.785000000000000000e+03 6.755012512207031250e+01 -7.643319606781005859e+00 1.109340958395203802e-13 8.481848036423489390e-13 2.877356556144072819e-13 3.215063848829857740e-13
2.786000000000000000e+03 7.001229095458984375e+01 5.922889232635498047e+00 6.944338631692179020e-14 2.019927627938677972e-12 6.268113198620861581e-13 -1.377262832859965647e-13
2.787000000000000000e+03 7.068496704101562500e+01 6.773493289947509766e+00 1.241010332692082940e-13 1.837473099022823853e-12 5.884722505296313688e-13 -1.503296863077444034e-13
2.788000000000000000e+03 6.516506195068359375e+01 3.459416198730468750e+01 1.926738391229421143e-13 4.943330358768427413e-13 2.061020624999354567e-13 -3.358425462642727899e-13
2.789000000000000000e+03 7.014797973632812500e+01 2.617806053161621094e+01 4.573190174532275332e-14 1.803886358862916151e-12 5.548855103697236668e-13 -3.322487142180807762e-13
2.790000000000000000e+03 6.976920318603515625e+01 2.785932350158691406e+01 1.351005489121440140e-13 1.521930585030029093e-12 4.971093523799263725e-13 -5.469596672282028837e-13
2.791000000000000000e+03 6.663375854492187500e+01 3.338515853881835938e+01 3.032778292822585486e-13 6.332366271968870031e-13 2.809543504962708216e-13 -3.483186232933893622e-13
2.792000000000000000e+03 6.384542465209960938e+01 3.519609069824218750e+01 2.635513064296740593e-13 3.417053153018795308e-13 1.815769892299715083e-13 -1.550991187695624496e-13
2.793000000000000000e+03 6.825828552246093750e+01 -4.413352489471435547e+00 2.550874008550030325e-13 1.253096910090734095e-12 4.524552932837211383e-13 3.729158637704593771e-13
2.794000000000000000e+03 6.975875854492187500e+01 -2.303494215011596680e+00 2.623725347226935067e-13 1.393471926389167059e-12 4.967533545965907571e-13 2.936277794258340679e-13
2.795000000000000000e+03 7.038851928710937500e+01 2.364401626586914062e+01 1.553097250415677588e-13 1.713595519821364821e-12 5.606715721036270583e-13 -2.062083007603118801e-13
2.796000000000000000e+03 6.636782073974609375e+01 -9.807164192199707031e+00 1.365821653909540800e-13 8.934900345633489671e-13 3.090216613415436298e-13 3.781918896973712751e-13
2.797000000000000000e+03 7.052901458740234375e+01 8.421873092651367188e+00 1.427623210620287963e-13 1.799719878334271606e-12 5.827446815029335703e-13 -1.336215345185479131e-13
2.798000000000000000e+03 7.107396697998046875e+01 1.006816864013671875e+01 -1.035024998108542704e-13 1.282419266265821811e-12 3.536750428113910605e-13 -9.199674815072843986e-15
2.799000000000000000e+03 7.038325500488281250e+01 1.310578584671020508e-01 9.614051633792530804e-14 1.573859857544046559e-12 5.010001202961078537e-13 1.774154147161574602e-13
2.800000000000000000e+03 7.042610931396484375e+01 9.224194526672363281e+00 1.026059779578050127e-16 1.601327143802011577e-12 4.804289561663455110e-13 -9.208713164839815724e-14
2.801000000000000000e+03 7.001795196533203125e+01 4.299354076385498047e+00 3.454678424298467110e-14 1.890594668665923628e-12 5.775424084288049986e-13 6.183473329722521949e-14
2.802000000000000000e+03 7.071813964843750000e+01 5.943031311035156250e+00 5.007101775301309177e-14 1.485489357390401555e-12 4.606681247402988344e-13 4.533694722267701815e-14
2.803000000000000000e+03 6.593534851074218750e+01 -1.050239372253417969e+01 2.173689830561875702e-13 5.849808484836849232e-13 2.407049440409508856e-13 3.733662142478555435e-13
2.804000000000000000e+03 7.213023376464843750e+01 3.381565570831298828e+00 1.088694360899290781e-13 1.373435870241634937e-12 4.446915925770955624e-13 1.762056382151756112e-14
2.805000000000000000e+03 7.001098632812500000e+01 3.489269495010375977e+00 -5.345078763277499867e-14 1.898632293051427666e-12 5.535544895726718373e-13 6.202289658426007879e-14
2.806000000000000000e+03 6.762274932861328125e+01 -5.905973434448242188e+00 2.637374910477441325e-13 1.119551283276787323e-12 4.149866214553377120e-13 3.631718406907347152e-13
2.807000000000000000e+03 6.889345550537109375e+01 -4.644871234893798828e+00 7.512184776146957343e-14 1.015840515004862166e-12 3.272887061193940905e-13 3.951601686928013502e-13
2.808000000000000000e+03 6.825020599365234375e+01 -6.159322738647460938e+00 9.567281184950579553e-14 8.302065090080856802e-13 2.777637874481347913e-13 3.918715124531096938e-13
2.809000000000000000e+03 7.026679992675781250e+01 2.533220100402832031e+01 1.332038862891793407e-13 1.887125438554404511e-12 6.060987757690317057e-13 -2.317339842152627005e-13
2.810000000000000000e+03 7.040899658203125000e+01 2.281530189514160156e+01 1.794454884164464747e-13 2.044195975686724509e-12 6.670924663360056073e-13 -6.441656425935568531e-14
2.811000000000000000e+03 6.948359680175781250e+01 -3.092823982238769531e+00 4.559763685878757966e-14 1.231941957301196933e-12 3.832618901064566153e-13 4.263398173994653595e-13
2.812000000000000000e+03 6.790718841552734375e+01 -6.904801845550537109e+00 7.661225305414035014e-14 7.991622229426564861e-13 2.627323543186871335e-13 2.900611879592257525e-13
2.813000000000000000e+03 6.834897613525390625e+01 3.112772369384765625e+01 2.936734243372957076e-13 1.178131810858351614e-12 4.415415786902104900e-13 -5.537674810894566146e-13
2.814000000000000000e+03 6.857875061035156250e+01 -5.406424045562744141e+00 1.409847038376030315e-13 9.754409736537072995e-13 3.349276964711295212e-13 3.178381223576526304e-13
2.815000000000000000e+03 7.039692687988281250e+01 1.550556087493896484e+01 -5.681193972835625605e-14 1.714188036308628149e-12 4.972128394772901139e-13 7.740769153051149654e-14
2.816000000000000000e+03 6.970797729492187500e+01 2.114270973205566406e+01 -1.180280509828837698e-13 2.053960300452128962e-12 5.807796192754122178e-13 -1.398693901449648766e-14
2.817000000000000000e+03 7.042010498046875000e+01 2.199490928649902344e+01 -6.980763758929545149e-14 1.822995964254059409e-12 5.259564485327050676e-13 1.059219359222712473e-14
2.818000000000000000e+03 7.073204803466796875e+01 4.286108493804931641e+00 -4.237748525573806213e-14 1.697498803847341531e-12 4.965364057418764077e-13 -4.009973234540831211e-14
2.819000000000000000e+03 7.114604187011718750e+01 2.039051628112792969e+01 6.276333212916831994e-14 1.559555327761141807e-12 4.866955905132031024e-13 -3.931397714969017687e-14
2.820000000000000000e+03 7.043228149414062500e+01 1.793507766723632812e+01 1.211219167497612492e-13 1.721818976459232875e-12 5.528822842257308245e-13 5.703151438520709382e-14
2.821000000000000000e+03 7.042676544189453125e+01 1.712509727478027344e+01 -2.649916486870303178e-14 1.544175486263565933e-12 4.553028960796456914e-13 5.126701811014079679e-14
2.822000000000000000e+03 7.043051910400390625e+01 2.036681556701660156e+01 -7.167618549467486000e-14 1.753568644458081138e-12 5.045677417547800303e-13 3.536436754872883392e-14
2.823000000000000000e+03 6.971022796630859375e+01 1.872166061401367188e+01 1.187166684402107819e-13 1.835165483118905705e-12 5.861646888358218455e-13 -8.823416003638905741e-15
2.824000000000000000e+03 7.043312072753906250e+01 1.955604934692382812e+01 8.288106935787006857e-14 1.819807542505214037e-12 5.708065855918043052e-13 1.648783851961564684e-14
2.825000000000000000e+03 7.043389129638671875e+01 1.874532699584960938e+01 -7.089609525530796152e-14 1.410770805732042277e-12 4.019624260179210928e-13 -7.339476113454521111e-14
2.826000000000000000e+03 6.067435836791992188e+01 -1.866759681701660156e+01 -4.896104545014032250e-14 3.907752214264009760e-13 1.025442548257572695e-13 2.161769197081987032e-14
2.827000000000000000e+03 6.297272872924804688e+01 -1.728870773315429688e+01 1.407811448797188780e-13 3.348404724063530624e-13 1.426864811200634353e-13 2.154553797742778110e-13
2.828000000000000000e+03 6.392568206787109375e+01 -1.713882637023925781e+01 3.023946585213425908e-14 4.247183117353503512e-13 1.364873383584430666e-13 1.094818273582667811e-13
2.829000000000000000e+03 6.482666015625000000e+01 -1.502114105224609375e+01 8.404222277954773168e-14 3.562747427805768030e-13 1.320950862799055714e-13 1.246385671537994511e-13
2.830000000000000000e+03 6.387224197387695312e+01 -1.603614997863769531e+01 6.553948600192607832e-14 4.855978358135615292e-13 1.653411972222726400e-13 1.799689547778496324e-13
2.831000000000000000e+03 6.538410949707031250e+01 -1.465639209747314453e+01 1.667759219571227081e-13 1.343829561517573268e-13 9.034766478791672606e-14 1.697644439304160646e-13
2.832000000000000000e+03 6.489043426513671875e+01 -1.390390682220458984e+01 8.528647352148283067e-14 3.796834537311138957e-13 1.394909849520425960e-13 2.121940454293327893e-13
2.833000000000000000e+03 5.961573028564453125e+01 -2.407811737060546875e+01 -1.321348629471086333e-13 3.487267169911129061e-14 -2.917865872965191842e-14 1.637023578759250197e-13
2.834000000000000000e+03 5.671589279174804688e+01 -2.277389526367187500e+01 4.560520594520424409e-14 8.817151517367602387e-14 4.013301396397182808e-14 2.678452179830353302e-14
2.835000000000000000e+03 5.421167373657226562e+01 -2.288321495056152344e+01 -5.695965210996203898e-14 -9.303770590312482325e-14 -4.499920808155241647e-14 -8.264011897756232128e-14
2.836000000000000000e+03 5.620518875122070312e+01 -2.128622436523437500e+01 2.737073805450518371e-14 -7.977158430344521989e-14 -1.572025387468201085e-14 1.914590414106489419e-14
2.837000000000000000e+03 1.201795005798339844e+01 2.115081310272216797e+00 -4.428035493614021489e-14 -9.904145510447256995e-14 -4.299654436743655106e-14 8.573742708633744214e-14
2.838000000000000000e+03 1.348886871337890625e+01 1.297630786895751953e+00 -6.845977777725220648e-14 -7.509085313186364408e-14 -4.306519130561382858e-14 -6.116355794234806798e-14
2.839000000000000000e+03 1.421718978881835938e+01 9.190306067466735840e-01 -2.565114258696633842e-14 -5.674429567718852763e-14 -2.471863215687281762e-14 6.118757979673219993e-14
2.840000000000000000e+03 4.810805511474609375e+01 -1.763435173034667969e+01 -1.958680884584645954e-13 7.618485378148298626e-14 -3.590497108072084054e-14 1.470279925369286089e-13
2.841000000000000000e+03 4.729174804687500000e+01 -1.807481956481933594e+01 -9.825112593083926149e-14 3.643322910750661572e-15 -2.838234103308152206e-14 8.004304819864485609e-14
2.842000000000000000e+03 4.590163040161132812e+01 -1.782044601440429688e+01 -5.512775701427621855e-14 4.500024146174806672e-14 -3.038254877516682363e-15 2.074715724741105216e-14
2.843000000000000000e+03 4.664253997802734375e+01 -1.736132812500000000e+01 -1.550164619064375859e-13 1.165681727576320381e-13 -1.153448555879553819e-14 3.993832852324311067e-14
2.844000000000000000e+03 6.011552810668945312e+01 -2.132721138000488281e+01 -2.602202739786642176e-15 -6.974165033457255247e-14 -2.170315590113193471e-14 1.503832458950651874e-14
2.845000000000000000e+03 5.780902481079101562e+01 -2.085114288330078125e+01 4.415839235613096270e-14 8.755144639870440781e-14 3.951295196526379006e-14 9.370828494680710774e-14
2.846000000000000000e+03 6.093291091918945312e+01 -2.319851303100585938e+01 -2.140660695579277295e-13 -1.374935457371453951e-13 -1.054678872990273686e-13 -1.153006591028335470e-13
2.847000000000000000e+03 6.380857849121093750e+01 -2.216293716430664062e+01 -2.094982987001919872e-13 1.732829781357289600e-13 -1.086459769399821321e-14 7.686651201611535700e-14
2.848000000000000000e+03 5.242772293090820312e+01 -2.377766036987304688e+01 -9.481369682429185985e-14 1.881202984187202443e-13 2.799198081714169423e-14 2.261986408456147929e-14
2.849000000000000000e+03 5.284614944458007812e+01 -2.233762741088867188e+01 -1.516344423071677716e-13 -7.797504097484600494e-15 -4.782958561546160614e-14 -5.863305717682121276e-14
2.850000000000000000e+03 5.348016738891601562e+01 -2.382893180847167969e+01 -8.875845479601462973e-14 -1.638544443356704239e-13 -7.578387516051637851e-14 -7.428869937828666559e-14
2.851000000000000000e+03 5.531624221801757812e+01 -2.498116302490234375e+01 -1.043056835564951101e-13 -9.045338805226121881e-14 -5.842772283787961429e-14 1.257277702088055449e-13
2.852000000000000000e+03 7.359954071044921875e+01 -2.480597496032714844e+01 1.987588856995343815e-15 9.235372341008518671e-14 2.830239298132197767e-14 -6.808961082677492116e-14
2.853000000000000000e+03 7.361035156250000000e+01 -2.414692497253417969e+01 1.917955337192751852e-14 8.219808466964229759e-15 8.219808466964229759e-15 -2.102800626766626602e-13
2.854000000000000000e+03 3.035348510742187500e+01 -1.597718715667724609e+01 3.252954859756071633e-15 -1.930474145339991510e-13 -5.693833398474554275e-14 -8.830623406987092583e-14
2.855000000000000000e+03 3.210178375244140625e+01 -1.724189186096191406e+01 -1.335816629836547587e-13 -3.437381333889176493e-14 -5.038664255795077818e-14 2.770231587797145761e-14
2.856000000000000000e+03 4.076735687255859375e+01 -1.828265953063964844e+01 -1.742570389200170933e-13 -1.661834867850223163e-13 -1.021321563562591073e-13 -1.173784207580529787e-14
2.857000000000000000e+03 7.649605560302734375e+01 -2.469236373901367188e+01 -3.380632498115390683e-14 3.515191610015122592e-13 9.531385283898657912e-14 5.776275454043994229e-14
2.858000000000000000e+03 5.410068893432617188e+01 -2.423754882812500000e+01 3.583530431487506884e-14 -1.104571214225261166e-13 -2.238654547110849324e-14 -9.713504482635089421e-15
2.859000000000000000e+03 5.402394866943359375e+01 -2.175905799865722656e+01 -2.483849409517287915e-14 -7.927148927512270293e-14 -3.123299484168208517e-14 6.298925275685998693e-14
2.860000000000000000e+03 5.471329879760742188e+01 -2.160384368896484375e+01 -8.191394746748584255e-15 -1.178879720621986427e-13 -3.782380902624463137e-14 -2.641031958286552822e-14
2.861000000000000000e+03 7.036987304687500000e+01 1.469534969329833984e+01 9.054925185309967151e-14 1.731591974842017212e-12 5.466423754624250009e-13 2.486171465638890854e-14
2.862000000000000000e+03 7.023905181884765625e+01 1.231867694854736328e+01 -1.552580221504673563e-13 1.443242118696896892e-12 3.863952343849397231e-13 -7.166913818055370422e-14
2.863000000000000000e+03 5.662770080566406250e+01 -2.531151771545410156e+01 9.311530089735689519e-14 -1.888481910997455437e-13 -2.871986502783752115e-14 -7.813168108371584819e-14
2.864000000000000000e+03 5.848115158081054688e+01 -2.485949516296386719e+01 -6.758015100218756066e-14 -7.471386926022685615e-14 -4.268820743397704065e-14 7.074458477796669031e-14
2.865000000000000000e+03 7.033085632324218750e+01 1.001188468933105469e+01 1.009492765394843714e-14 1.468356794660785614e-12 4.435355078005742691e-13 -7.221880157694954283e-14
2.866000000000000000e+03 7.173600006103515625e+01 1.161413955688476562e+01 -2.799593476693947730e-14 1.314779231667562165e-12 3.860350082131314142e-13 2.201161141920406072e-14
2.867000000000000000e+03 2.717896270751953125e+01 -1.209877967834472656e+01 -6.757724398511258390e-14 -2.896167599361967881e-14 -2.896167599361967881e-14 1.190893087268940498e-13
2.868000000000000000e+03 2.766769218444824219e+01 -1.455436897277832031e+01 -2.848673106756703655e-14 3.080480477906516468e-13 8.386839128998041515e-14 1.399641578851695822e-13
2.869000000000000000e+03 7.431478118896484375e+01 -2.482873153686523438e+01 -1.310990500728338726e-14 4.013241765277696105e-14 8.106754132461251039e-15 -1.716463478513077789e-13
2.870000000000000000e+03 5.264690780639648438e+01 -1.447505187988281250e+01 4.973955817534625456e-13 3.161091722582443087e-13 2.440514153614903314e-13 -9.331827032030975966e-14
2.871000000000000000e+03 5.134723663330078125e+01 -1.571408748626708984e+01 2.237358383413642904e-13 5.013584287853235788e-14 8.216150470478217338e-14 7.141065760636958193e-14
2.872000000000000000e+03 4.643629837036132812e+01 -9.455710053443908691e-01 2.441774233708556702e-14 -1.241072759020295582e-14 3.602104593471372809e-15 1.525906984589046195e-14
2.873000000000000000e+03 4.791798019409179688e+01 -4.448729991912841797e+00 5.890349107995698774e-14 2.768745790363708048e-13 1.007334203572719800e-13 -5.764244875687551950e-14
2.874000000000000000e+03 7.023197937011718750e+01 1.155142307281494141e+01 -1.099130010097371102e-13 1.416924737263070000e-12 3.921035317180215918e-13 -3.305683973623720073e-14
2.875000000000000000e+03 3.429999160766601562e+01 -1.746232986450195312e+01 -1.932741313726612370e-14 -1.684114951444257158e-13 -5.632167367035367800e-14 2.581995625335412048e-14
2.876000000000000000e+03 3.307279586791992188e+01 -1.665883445739746094e+01 -1.317638625162112498e-13 -7.934570291382933571e-14 -6.333287030663853345e-14 -3.630623091662593671e-14
2.877000000000000000e+03 2.773311424255371094e+01 -1.168244647979736328e+01 -1.007852113397988969e-13 -1.804465051772480289e-13 -8.436951631036679333e-14 1.399944884409448642e-13
2.878000000000000000e+03 2.648943138122558594e+01 -1.074208450317382812e+01 -1.413362157344499881e-13 -1.978255070606699251e-13 -1.017485181937886896e-13 1.125170445638763728e-13
2.879000000000000000e+03 2.752116203308105469e+01 -1.277242469787597656e+01 -2.822250422186874108e-14 -1.035972590807295035e-13 -3.954592865196629448e-14 1.439601882797722499e-13
2.880000000000000000e+03 2.683771514892578125e+01 -1.142089748382568359e+01 -7.929730006309143597e-14 -1.712374003443734027e-13 -7.516041147749216722e-14 5.657847373117044776e-14
2.881000000000000000e+03 7.846083831787109375e+01 -2.486675834655761719e+01 2.151502141321728206e-14 9.220723583812113350e-15 9.220723583812113350e-15 7.076912840464633092e-14
2.882000000000000000e+03 7.770490264892578125e+01 -2.359411239624023438e+01 8.954516544489726781e-14 1.084326381396889805e-13 5.939334039774951668e-14 1.120641326588477094e-13
2.883000000000000000e+03 7.729161071777343750e+01 -2.456766128540039062e+01 9.647877386321362936e-14 1.099744684966534602e-13 6.193597067508105347e-14 8.069451817903708357e-14
2.884000000000000000e+03 2.806946372985839844e+01 -1.527221870422363281e+01 -1.794341720562711573e-13 1.460153849772768270e-14 -4.944979023696963183e-14 1.217507269047485297e-13
2.885000000000000000e+03 3.133863639831542969e+01 -1.560428714752197266e+01 -3.760521353948081957e-14 -1.991203155051607387e-13 -7.101766142389789871e-14 -7.584798712399872591e-18
2.886000000000000000e+03 5.087417221069335938e+01 -1.309435844421386719e+01 2.765347629704595356e-13 3.015186841523465056e-13 1.734160368473472436e-13 -1.311087198009597277e-13
2.887000000000000000e+03 5.195326995849609375e+01 -1.559336948394775391e+01 2.675603336978193969e-13 2.913372469059126186e-16 8.035549493596444437e-14 -1.096857725631748826e-13
2.888000000000000000e+03 5.162621307373046875e+01 -1.375756168365478516e+01 5.272757057361854294e-13 3.174771914544322060e-13 2.534258610256689970e-13 -2.086387161127911671e-13
2.889000000000000000e+03 5.028248596191406250e+01 -1.664568901062011719e+01 7.493947817979393355e-14 -1.508868713567118602e-13 -2.278421896951491471e-14 9.975828045300904473e-15
2.890000000000000000e+03 3.237639999389648438e+01 -1.656033897399902344e+01 -1.116877518746693665e-13 -2.115229522366515215e-15 -3.414089283092398841e-14 1.304838754542314919e-14
2.891000000000000000e+03 4.114030838012695312e+01 1.442146301269531250e+01 -9.065948133272355713e-14 2.356516403453218222e-13 4.349764228276861711e-14 -1.242295247791749824e-13
2.892000000000000000e+03 4.840672302246093750e+01 -8.194040298461914062e+00 1.109975081140836262e-13 1.819411100592712924e-15 3.384507504442489656e-14 -2.578285959839617114e-14
2.893000000000000000e+03 4.841799926757812500e+01 -5.890194416046142578e+00 1.024469612333038515e-13 1.582832172622450351e-13 7.821905422629102378e-14 -1.686012305246106791e-13
2.894000000000000000e+03 4.805736541748046875e+01 -2.834903717041015625e+00 5.292215437039358983e-14 1.370582927750010893e-13 5.699413651531065605e-14 -6.423632327147649548e-15
2.895000000000000000e+03 5.582825851440429688e+01 -2.468104171752929688e+01 -3.883706710719990463e-14 -1.767727809834709896e-13 -6.468295273313537375e-14 9.505136071676426046e-14
2.896000000000000000e+03 5.237966918945312500e+01 -2.171352767944335938e+01 -5.893321177201024663e-14 2.049385882079823168e-14 -1.153180554655042558e-14 -7.140658507195918325e-14
2.897000000000000000e+03 4.180899429321289062e+01 1.274255943298339844e+01 6.109902758429444636e-14 4.379438435161975285e-13 1.497128565867630878e-13 4.615791527207840916e-14
2.898000000000000000e+03 4.183468246459960938e+01 1.357940578460693359e+01 -5.908294686829407283e-14 3.406863278900690295e-13 8.448101295127977139e-14 -8.845246583788490824e-14
2.899000000000000000e+03 4.572767639160156250e+01 2.120362281799316406e+00 -2.037624321387428855e-14 2.705061338703520883e-15 -5.301354753133643433e-15 -3.760204987142282476e-15
2.900000000000000000e+03 4.509952545166015625e+01 -1.510170817375183105e+00 9.475053527148100119e-14 -5.143576231982690400e-15 2.688208813536596686e-14 -3.395926821472545869e-15
2.901000000000000000e+03 5.049562835693359375e+01 -1.023334121704101562e+01 -1.775050646832948553e-13 3.128094571563933002e-13 4.059131977480860687e-14 -8.700564547254804881e-14
2.902000000000000000e+03 5.003401947021484375e+01 -1.165915489196777344e+01 8.033727356320310986e-14 4.461887944621351076e-13 1.579578210852278231e-13 -2.943236745902438889e-13
2.903000000000000000e+03 5.755611038208007812e+01 -2.607962989807128906e+01 1.146177608119663960e-13 -8.813095245989790993e-14 7.946041489181009110e-15 5.817969888542934634e-15
2.904000000000000000e+03 5.731634902954101562e+01 -2.520944976806640625e+01 -1.825255712632062322e-13 -2.154780938097913823e-13 -1.194010981666465687e-13 -1.504309444379074451e-15
2.905000000000000000e+03 3.586406326293945312e+01 -1.700052833557128906e+01 -2.359356742094587123e-13 -2.383681359935385657e-13 -1.422911403503937522e-13 3.873470148145832792e-14
2.906000000000000000e+03 4.504623031616210938e+01 1.841670989990234375e+00 1.423232327346993231e-13 1.524472110776397410e-14 4.727038462807968411e-14 -5.647747691067163400e-14
2.907000000000000000e+03 2.973181152343750000e+01 -1.564467811584472656e+01 5.473478793685884747e-14 2.917663601497387516e-14 2.517342786317617459e-14 9.150440686200508877e-14
2.908000000000000000e+03 5.905245590209960938e+01 -2.452028465270996094e+01 -1.026444147777041960e-13 -8.974141281438072215e-14 -5.771574759999911763e-14 -2.795877881967522016e-14
2.909000000000000000e+03 5.544520568847656250e+01 -2.145513343811035156e+01 -1.078689546539501887e-13 -1.148559735817886174e-13 -6.681748253647978864e-14 1.219479568324507990e-13
2.910000000000000000e+03 4.886452865600585938e+01 -5.023603916168212891e+00 1.216917327540381621e-14 1.424682041176877911e-13 4.639121525080655561e-14 -1.394358261665173959e-13
2.911000000000000000e+03 5.178662109375000000e+01 3.315969085693359375e+01 8.650862686788995948e-14 -1.001777193100281127e-13 -4.100728749080982671e-15 7.434855411447144347e-14
2.912000000000000000e+03 4.984986495971679688e+01 3.194550323486328125e+01 6.501599253546860857e-14 1.651168486877310770e-13 6.903985304458626349e-14 3.733944170568673226e-14
2.913000000000000000e+03 6.603090667724609375e+01 -1.913691711425781250e+01 -4.963087571669723419e-14 1.159824731915282126e-13 1.990547924244929351e-14 3.331021100768348508e-14
2.914000000000000000e+03 7.045668029785156250e+01 -2.507487297058105469e+00 1.276555494341205521e-13 1.221358734634914178e-12 4.047042919969739971e-13 2.414345036828163815e-13
2.915000000000000000e+03 4.532345581054687500e+01 2.994262504577636719e+01 1.943708526921071600e-14 3.057113481634565755e-13 9.754453104623972415e-14 3.322558902812099146e-14
2.916000000000000000e+03 4.247851562500000000e+01 8.586110115051269531e+00 7.533399224530709648e-14 1.237878885767401682e-13 5.973656492424053721e-14 -2.330104289854570410e-14
2.917000000000000000e+03 4.345265197753906250e+01 6.329296112060546875e+00 -3.301765599209721680e-14 1.002269488649225326e-13 2.016278752303441585e-14 -6.760884847844053636e-14
2.918000000000000000e+03 4.888340377807617188e+01 -7.359629154205322266e+00 8.885135059340590336e-14 3.807915219039212373e-14 3.807915219039212373e-14 -9.751423437178233233e-14
2.919000000000000000e+03 6.787232971191406250e+01 3.326122665405273438e+01 2.153380826517420354e-13 7.785519733245760410e-13 2.981670086613791293e-13 -3.287662026299487117e-13
2.920000000000000000e+03 4.382315826416015625e+01 5.608318805694580078e+00 -6.620835573312080363e-15 1.916040297342963550e-13 5.549495934943811382e-14 -1.160332816158363145e-13
2.921000000000000000e+03 4.391527175903320312e+01 3.932466030120849609e+00 2.071479635366120162e-15 9.238967148836665921e-14 2.833834614180113370e-14 -8.611444483929212024e-14
2.922000000000000000e+03 2.654639959335327148e+00 2.585942745208740234e+00 -2.663204062120470839e-14 -1.141373169480201788e-14 -1.141373169480201788e-14 -1.059891717035583991e-13
2.923000000000000000e+03 4.966200351715087891e+00 2.561725139617919922e+00 -1.248348484046007956e-13 -7.637612737350016334e-14 -6.036329476630936108e-14 -4.999341259438565277e-14
2.924000000000000000e+03 4.090270996093750000e+00 3.276216745376586914e+00 3.103614777287197479e-14 1.505540483948131225e-13 5.447705952793188700e-14 -8.137156474278812827e-16
2.925000000000000000e+03 5.600881099700927734e+00 3.288334608078002930e+00 -7.755219535131308017e-14 2.183935676617135280e-13 4.225240898261470313e-14 6.579802756248240292e-14
2.926000000000000000e+03 4.843278408050537109e+00 3.272795438766479492e+00 9.451403012008044446e-14 1.548833896422921463e-13 7.481922660633813504e-14 -3.519450017335466752e-14
2.927000000000000000e+03 5.741321563720703125e+00 2.574557065963745117e+00 4.946946173013666570e-14 8.982762043962047582e-14 4.178912600617985806e-14 -5.110400492537581218e-14
2.928000000000000000e+03 6.363662242889404297e+00 3.327668428421020508e+00 3.699687447676278107e-15 1.585580349843993247e-15 1.585580349843993247e-15 -1.556976322500923382e-14
2.929000000000000000e+03 3.424402475357055664e+00 2.569194078445434570e+00 -5.370224122162869929e-14 6.848665243860269092e-14 4.435322856872429137e-15 -4.149777377737869088e-14
2.930000000000000000e+03 2.521974754333496094e+01 -9.784605026245117188e+00 -1.586923545045595962e-13 -1.766695107265417453e-13 -1.006085609245831181e-13 4.184861143599963307e-14
2.931000000000000000e+03 2.492692756652832031e+01 -7.995235443115234375e+00 -5.266830537236505405e-14 1.146807123006063356e-13 1.860372343372510007e-14 5.534314732836762007e-14
2.932000000000000000e+03 9.792635917663574219e+00 2.969360589981079102e+00 1.144365906289440682e-13 4.904425119061500693e-14 4.904425119061500693e-14 4.625384005928906417e-14
2.933000000000000000e+03 2.574610328674316406e+01 -9.375991821289062500e+00 -1.236128034784109153e-13 -5.297691674449947485e-14 -5.297691674449947485e-14 1.542238016981334336e-13
2.934000000000000000e+03 4.916051864624023438e+01 3.132074356079101562e+01 3.118213220726535895e-14 1.336377094597086812e-14 1.336377094597086812e-14 8.249275557353080712e-14
2.935000000000000000e+03 4.752609634399414062e+01 3.054608345031738281e+01 8.576410523604416358e-14 4.247491437346304077e-14 3.847170452759944570e-14 8.977850608120688247e-14
2.936000000000000000e+03 4.517238998413085938e+01 2.777162551879882812e+01 7.801416712074557558e-14 7.918559335800753884e-14 4.715992475549414531e-14 2.916627849609484957e-14
2.937000000000000000e+03 6.696154022216796875e+01 -1.010024166107177734e+01 1.282781660841975091e-13 6.497386721530939990e-13 2.334050650237146085e-13 2.088881910326800817e-13
2.938000000000000000e+03 7.745677947998046875e+01 9.829306602478027344e+00 -1.096189806271520920e-14 -3.707055550115218034e-13 -1.145002332964689673e-13 -6.980937908903500633e-14
2.939000000000000000e+03 4.817565155029296875e+01 -5.165723800659179688e+00 2.129743728379249190e-14 1.463803172641400807e-13 5.030332839725884519e-14 -1.035542365832725631e-13
2.940000000000000000e+03 6.717691040039062500e+01 -8.376011848449707031e+00 1.842324578484044739e-13 8.338474225336178769e-13 3.054239532725849804e-13 2.039084233493998477e-13
2.941000000000000000e+03 2.916651344299316406e+01 -1.522444152832031250e+01 -1.785268710207538190e-13 -8.008580642182225318e-14 -7.758380662090461066e-14 8.197822032752349886e-14
2.942000000000000000e+03 2.300155067443847656e+01 -5.279867172241210938e+00 1.399846628587567143e-14 -3.142573007375304428e-13 -9.007765101312278921e-14 9.186560881576863458e-14
2.943000000000000000e+03 2.350225067138671875e+01 -7.060556411743164062e+00 -1.214676840691599272e-14 5.913151234935784539e-14 1.409542360624902943e-14 3.591957731686329369e-14
2.944000000000000000e+03 2.351890945434570312e+01 -5.944112777709960938e+00 4.562881444751011595e-14 1.110571053522524387e-13 4.700577492348922970e-14 1.207799322795050090e-13
2.945000000000000000e+03 5.007187271118164062e+01 -1.233204746246337891e+01 1.929385199783001381e-13 8.268793906963251006e-14 8.268793906963251006e-14 -2.090372146212882143e-13
2.946000000000000000e+03 5.088427352905273438e+01 -1.239808559417724609e+01 2.691176003832146391e-13 2.983399118028362551e-13 1.702372509453098370e-13 -1.795379573092323322e-13
2.947000000000000000e+03 1.708913803100585938e+01 8.559808135032653809e-01 -4.783589431685275617e-14 -2.492558297349095620e-13 -8.912752399179227347e-14 5.036754704718787723e-14
2.948000000000000000e+03 1.456382274627685547e+01 1.529533267021179199e+00 -8.220517094727902707e-14 -1.267326900974280468e-13 -6.268135966866483777e-14 1.820589170956413150e-13
2.949000000000000000e+03 1.704341125488281250e+01 -7.427726387977600098e-01 -5.738198951372661116e-14 2.115866787604381988e-14 -1.086699564427189013e-14 2.476013338315648932e-14
2.950000000000000000e+03 1.670511627197265625e+01 2.906191647052764893e-01 -1.338767150523695326e-13 3.412616123390534162e-14 -2.992516580672607840e-14 7.914250987417839611e-14
2.951000000000000000e+03 1.275051593780517578e+01 1.685535669326782227e+00 1.332922386018415423e-14 -8.578937392292665387e-14 -2.173804518822933934e-14 6.620217747480353077e-14
2.952000000000000000e+03 4.159300613403320312e+01 1.781790733337402344e+01 3.640942324652403361e-14 2.443587866773899719e-13 8.423046060548194935e-14 -3.480670138504733668e-15
2.953000000000000000e+03 6.609561157226562500e+01 -1.147128582000732422e+01 1.589045193171878534e-13 4.912981913657299415e-13 1.950608186258862009e-13 2.893486502914682790e-13
2.954000000000000000e+03 5.410042953491210938e+01 3.557975387573242188e+01 1.524769487103519450e-13 1.110982101671167954e-13 7.907254495273519090e-14 2.648101803484105565e-14
2.955000000000000000e+03 1.902447509765625000e+01 -2.224679470062255859e+00 -1.619740786266109234e-14 -1.441945927894636159e-13 -4.811760053445059138e-14 1.299729638151725375e-13
2.956000000000000000e+03 2.085176277160644531e+01 -3.902578353881835938e+00 -1.919208471616237754e-13 -1.451593429875955299e-13 -1.011240584000185072e-13 -2.178482681790619435e-14
2.957000000000000000e+03 2.130871009826660156e+01 -3.384241342544555664e+00 -8.711955446329480712e-14 8.413997546385856147e-15 -2.361166682096280112e-14 2.193110432569932849e-14
2.958000000000000000e+03 2.189651870727539062e+01 -3.999384880065917969e+00 7.263863853945382032e-14 -1.462010376586560245e-14 1.740556144851600207e-14 6.621723433247392321e-14
2.959000000000000000e+03 4.221939849853515625e+01 9.381216049194335938e+00 -2.322682756577317681e-14 3.331777670596836050e-13 9.298527795182157107e-14 -9.750227426656710161e-14
2.960000000000000000e+03 7.142779541015625000e+01 5.965850830078125000e+00 8.032925724339029516e-14 1.544208120748957747e-12 4.873612364370005778e-13 -1.023003161132116090e-13
2.961000000000000000e+03 7.073308563232421875e+01 5.113421440124511719e+00 4.311018230764018799e-14 1.802762800151569422e-12 5.537618974482683143e-13 -9.762178383916110536e-15
2.962000000000000000e+03 4.177405166625976562e+01 1.864587211608886719e+01 -2.620077718424197039e-14 1.717748935713830916e-13 4.367223271385667349e-14 -9.628920111335453891e-14
2.963000000000000000e+03 4.358577346801757812e+01 2.441693115234375000e+01 6.887292656760496401e-14 3.040226490697017780e-13 1.118686781122028850e-13 8.975733703378910300e-14
2.964000000000000000e+03 7.062201690673828125e+01 7.602942466735839844e+00 1.821118803717672319e-13 1.725082099737762498e-12 5.721582062301333593e-13 -1.390548510756331457e-13
2.965000000000000000e+03 5.875891113281250000e+01 -2.402965927124023438e+01 -1.420606796261048022e-13 7.636969669936460869e-14 -1.970729555564841584e-14 4.426451203189477046e-14
2.966000000000000000e+03 1.877160072326660156e+01 -1.152189254760742188e+00 6.188625322920901506e-14 -6.497921775303061587e-14 -9.278905006409590359e-16 3.314513783879077802e-14
2.967000000000000000e+03 1.810069656372070312e+01 -6.549852490425109863e-01 -9.921223049916619297e-14 -8.827047572696963829e-14 -5.624481051258803377e-14 8.467260672175101061e-15
2.968000000000000000e+03 4.644125366210937500e+01 2.793448066711425781e+01 1.515455275646285932e-14 5.224575790442956280e-14 2.022009269004795828e-14 5.113559247804481955e-14
2.969000000000000000e+03 7.113031768798828125e+01 2.203046417236328125e+01 8.916463758740916790e-14 1.593745643270472190e-12 5.048731072966605726e-13 -1.004337265480062524e-13
2.970000000000000000e+03 7.821319580078125000e+01 5.885658264160156250e+00 1.286601034045098402e-13 -5.396222748157986082e-13 -1.232886541338920616e-13 -2.607206171876402800e-13
2.971000000000000000e+03 4.933760452270507812e+01 -8.828599929809570312e+00 8.567368277485887251e-14 1.968456186897046822e-13 8.475579043936906642e-14 -2.033613891432722864e-13
2.972000000000000000e+03 4.374121475219726562e+01 1.231726169586181641e+00 1.003780663189762778e-13 -2.731777181376395143e-15 2.929388570366460443e-14 -9.671695952798153861e-14
2.973000000000000000e+03 7.574707794189453125e+01 3.974866485595703125e+01 -1.028352546888523789e-13 -1.355741555261399944e-13 -7.152282509737678540e-14 9.089026731766425282e-14
2.974000000000000000e+03 7.883274841308593750e+01 3.488724517822265625e+01 1.152997781885684025e-13 -6.139745829802922827e-13 -1.496024441480225953e-13 6.836515403264853408e-14
2.975000000000000000e+03 7.722591400146484375e+01 3.154146957397460938e+01 5.566844524956295059e-14 -3.879006219963815338e-13 -9.966965539573782729e-14 2.673868884552760283e-13
2.976000000000000000e+03 7.895468902587890625e+01 -2.052113533020019531e+01 -8.943560003910402956e-14 5.317235435048535408e-14 -1.087897269014606594e-14 2.762935076582907767e-14
2.977000000000000000e+03 7.882678222656250000e+01 -2.299193191528320312e+01 5.942176682345937100e-14 2.084702717527683880e-13 8.036761089524196988e-14 4.119891683666485060e-14
2.978000000000000000e+03 7.817585754394531250e+01 3.641913223266601562e+01 4.183736622659188498e-14 -2.565753870215764509e-13 -6.442140928781397990e-14 1.098317383628434271e-14
2.979000000000000000e+03 7.890688323974609375e+01 2.277332878112792969e+01 -3.620221527070310863e-14 -1.250790812069857427e-12 -3.860979190441898856e-13 5.695835784361863441e-15
2.980000000000000000e+03 7.818280029296875000e+01 2.193241691589355469e+01 3.633234663645568130e-14 -9.451988887757001301e-13 -2.726599599312679034e-13 1.062598173649309877e-14
2.981000000000000000e+03 7.746402740478515625e+01 2.667555809020996094e+01 9.340005982169663490e-14 -3.717299363291404202e-13 -8.349896295223313558e-14 -2.843534666085480167e-14
2.982000000000000000e+03 7.818035888671875000e+01 2.113306045532226562e+01 1.306642341796903500e-14 -9.094190786713973740e-13 -2.689058014888195958e-13 -1.137187810281228839e-13
2.983000000000000000e+03 7.744913482666015625e+01 1.709348297119140625e+01 4.524861185067376168e-14 -3.694908148974690443e-13 -9.727266057522540588e-14 -1.012998634763529263e-14
2.984000000000000000e+03 7.816954040527343750e+01 1.712237739562988281e+01 3.830124168806335952e-15 -4.558679822519451363e-13 -1.356113707657105594e-13 -1.305609944159472069e-13
2.985000000000000000e+03 7.887264251708984375e+01 3.566086196899414062e+01 8.421356060411833155e-14 -5.357953121974678989e-13 -1.354745308990157326e-13 8.209918340865499098e-14
2.986000000000000000e+03 7.654398345947265625e+01 3.063694953918457031e+01 6.416715710210255108e-14 -4.300092725471882371e-13 -1.097526339558993480e-13 2.373752236439763408e-13
2.987000000000000000e+03 7.889379119873046875e+01 1.394594764709472656e+01 1.069358682414525349e-14 -8.418095864479169244e-13 -2.493347867581208188e-13 -1.240897575666144448e-13
2.988000000000000000e+03 7.186304473876953125e+01 9.337375640869140625e+00 -5.049932504498991226e-14 1.076380195912107762e-12 3.077642578720035660e-13 1.143630952741767071e-13
2.989000000000000000e+03 7.816458892822265625e+01 1.470197677612304688e+01 1.990804067008179051e-14 -5.862303372773658428e-13 -1.698966759378778280e-13 -6.301539558174404365e-14
2.990000000000000000e+03 7.815878295898437500e+01 2.752006149291992188e+01 -6.540281554182070245e-14 -7.142940210667914069e-13 -2.339090564035944952e-13 -7.013056043010668095e-14
2.991000000000000000e+03 7.889421844482421875e+01 1.475018119812011719e+01 3.986248180501417160e-14 -8.750595734130506287e-13 -2.505591220614000747e-13 -9.284092998508228223e-14
2.992000000000000000e+03 7.816510772705078125e+01 1.068171310424804688e+01 1.996930486909079955e-14 -5.404530989405742503e-13 -1.561451434730493082e-13 -1.028704844831945797e-13
2.993000000000000000e+03 7.816114044189453125e+01 1.228896427154541016e+01 1.523522078622756987e-14 -4.052291542686742298e-13 -1.169981808917669452e-13 -5.368550385059095431e-14
2.994000000000000000e+03 7.882099151611328125e+01 3.080406951904296875e+01 -1.038469169597350250e-14 -7.364657386536854755e-13 -2.240551358811612714e-13 -5.436545785493344940e-14
2.995000000000000000e+03 7.795884704589843750e+01 3.244243240356445312e+01 1.491099859687525231e-14 -2.681152554747517902e-13 -7.596127774098931917e-14 2.288958410832930834e-13
2.996000000000000000e+03 7.887743377685546875e+01 2.837960624694824219e+01 -1.328851986131043827e-13 -8.347169526759512515e-13 -2.902806304789368186e-13 -1.371305938133128219e-14
2.997000000000000000e+03 7.811540222167968750e+01 2.912542343139648438e+01 -6.760098123642643841e-14 -8.753643968538449283e-13 -2.828896242691031349e-13 3.750410152250117923e-14
2.998000000000000000e+03 7.895355987548828125e+01 -1.972164344787597656e+01 5.666751722271760883e-14 2.530408337291650822e-13 9.291250088099348159e-14 -5.973661913434916149e-14
2.999000000000000000e+03 7.828443145751953125e+01 -2.056225967407226562e+01 -4.126793985747070903e-14 1.195665880757493249e-13 2.348959412667040586e-14 -3.257131706273924676e-14
3.000000000000000000e+03 7.817541503906250000e+01 9.881460189819335938e+00 -2.383101108485198572e-14 -3.990963646800099740e-13 -1.268782035815027576e-13 1.116979806445404094e-14
3.001000000000000000e+03 7.822599029541015625e+01 -1.737526512145996094e+01 6.349857705617578674e-14 3.474703164085823914e-13 1.232906734604383159e-13 -1.000581114816122275e-13
3.002000000000000000e+03 7.747938537597656250e+01 -7.810846328735351562e+00 -1.238433184128084896e-13 -1.903285607460572515e-13 -9.425156510291243794e-14 -2.032227874480471708e-13
3.003000000000000000e+03 7.820300292968750000e+01 -1.015849113464355469e+01 -9.332211246175850516e-14 -8.574614136129879438e-14 -5.372047614691718986e-14 -2.074743100845960475e-13
3.004000000000000000e+03 7.748284912109375000e+01 -5.789815187454223633e-01 1.659931415411153299e-13 -2.948676730302884907e-13 -3.866235809149923264e-14 5.403707334567832421e-14
3.005000000000000000e+03 7.818672943115234375e+01 -3.757700204849243164e+00 -1.126254918861792353e-13 -2.083963833747135008e-13 -9.630656190064146305e-14 -5.891623045548369242e-14
3.006000000000000000e+03 7.215482330322265625e+01 5.116025447845458984e+00 4.524920138560505067e-14 1.277543609096154498e-12 3.968378360294511076e-13 -1.423886778883359794e-14
3.007000000000000000e+03 7.819398498535156250e+01 3.474080324172973633e+00 -1.051314864699594287e-13 -6.398187101658292519e-13 -2.234850488263412371e-13 3.600391130522372085e-14
3.008000000000000000e+03 7.817386627197265625e+01 1.873226737976074219e+01 2.846366466634740744e-14 -6.511900393912917195e-13 -1.868179141115491881e-13 -1.195476145377308286e-13
3.009000000000000000e+03 7.744446563720703125e+01 1.547388839721679688e+01 -2.056471482090194841e-14 -5.807003098864949031e-13 -1.803795014829884247e-13 -5.943520076600282420e-15
3.010000000000000000e+03 7.818851470947265625e+01 2.512439537048339844e+01 3.063190299286075446e-14 -7.417627167875806560e-13 -2.133392339740206034e-13 6.845243908379719522e-14
3.011000000000000000e+03 7.818583679199218750e+01 2.273214149475097656e+01 1.612208291672766192e-14 -6.793547929068166624e-13 -1.989698011385654386e-13 -1.441326577403603815e-13
3.012000000000000000e+03 7.817372131347656250e+01 2.672122955322265625e+01 5.647125630070699842e-14 -6.620622561466504852e-13 -1.816773050359807296e-13 -1.026110620083731106e-14
3.013000000000000000e+03 7.817834472656250000e+01 2.033468055725097656e+01 1.569515730489440264e-13 -9.392559429874380861e-13 -2.346913082710427867e-13 3.281286375424186108e-14
3.014000000000000000e+03 7.820164489746093750e+01 8.281220436096191406e+00 -5.802148583637645185e-14 -5.052513312245321409e-13 -1.689818396972617154e-13 -4.848098105695447524e-14
3.015000000000000000e+03 7.892016601562500000e+01 6.734007835388183594e+00 2.015773581853699120e-14 -7.005006926082135710e-13 -2.041028885615622790e-13 -4.275296818499231544e-14
3.016000000000000000e+03 7.752724456787109375e+01 6.643763065338134766e+00 1.622764693887807086e-14 -3.590528753222993474e-13 -1.028475739360372454e-13 -1.379876979823099759e-13
3.017000000000000000e+03 7.890727996826171875e+01 -4.901344180107116699e-01 3.531854713204052310e-13 -3.061442971959843495e-13 1.411235833596348466e-14 2.372819551520882753e-13
3.018000000000000000e+03 7.818418121337890625e+01 -1.340016126632690430e+00 1.308619553865020269e-13 -2.641729608503229354e-13 -3.999330096151991476e-14 3.044941414894614118e-13
3.019000000000000000e+03 7.890921020507812500e+01 -6.902332782745361328e+00 9.510169480262190000e-14 -1.879968755539099257e-13 -2.786855456419958660e-14 -3.179512656306150709e-14
3.020000000000000000e+03 7.819155120849609375e+01 -7.757640838623046875e+00 1.731656200268209822e-14 -2.442088415169352267e-13 -6.806768283783640183e-14 -5.672305209087138977e-14
3.021000000000000000e+03 7.891941833496093750e+01 -1.331421756744384766e+01 1.039020621927330690e-13 2.275332428979676136e-13 9.943059559296835159e-14 -1.649465476314879164e-13
3.022000000000000000e+03 7.822348022460937500e+01 -1.656901359558105469e+01 -1.129928399110080584e-14 3.382895634625182613e-13 9.809708790718338345e-14 -6.140677837095445679e-14
3.023000000000000000e+03 7.712022399902343750e+01 -2.334392356872558594e+01 -1.365812505953710454e-14 2.686522066006752363e-13 7.649822886691276524e-14 -2.716342335253290469e-14
3.024000000000000000e+03 7.793840789794921875e+01 3.331394577026367188e+01 1.375139270439222280e-14 -5.888689058944351906e-13 -1.725352445549471758e-13 2.133119798419097490e-13
3.025000000000000000e+03 7.813990020751953125e+01 2.832139396667480469e+01 8.173462042815674011e-14 -7.427369808597761303e-13 -1.983007128728703217e-13 1.194843513409662994e-13
3.026000000000000000e+03 7.818353271484375000e+01 1.862670898437500000e+00 3.012731936754414752e-13 -6.943999954038548861e-13 -1.179380350975131608e-13 -9.688393343880788433e-14
3.027000000000000000e+03 7.818536376953125000e+01 -5.363422870635986328e+00 -2.149348001011588960e-13 -4.123715529203569874e-13 -1.881919099722129118e-13 -4.463403523733214251e-14
3.028000000000000000e+03 7.827128601074218750e+01 -1.977372169494628906e+01 -2.901070903687033575e-14 1.019442099096587451e-13 2.188005026183652280e-14 -2.270763702668775891e-14
3.029000000000000000e+03 7.894429016113281250e+01 -1.892433357238769531e+01 6.310440858010510357e-14 1.642975984211467178e-13 6.822060277800190420e-14 -7.349004895297953088e-14
3.030000000000000000e+03 7.820298004150390625e+01 -1.176421070098876953e+01 -5.378120163297174516e-14 1.142037582124028061e-13 1.812676765145567609e-14 -1.706455343784135659e-13
3.031000000000000000e+03 7.891808319091796875e+01 7.534734249114990234e+00 1.336585888218584997e-14 -7.720379240419572575e-13 -2.276016018449428246e-13 2.093354684745436095e-14
3.032000000000000000e+03 7.813117218017578125e+01 3.569561386108398438e+01 2.279217938515321062e-14 -5.392432919464063001e-13 -1.549353364788813581e-13 3.099573752502436663e-14
3.033000000000000000e+03 7.821126556396484375e+01 7.482231140136718750e+00 -6.341390764276824688e-14 -4.389359156090760772e-13 -1.507049557846959487e-13 -9.912239757291219089e-14
3.034000000000000000e+03 7.891011047363281250e+01 3.523056268692016602e+00 2.320489720514240517e-13 -7.469429805576077719e-13 -1.544682079728659785e-13 -2.585251077883571336e-13
3.035000000000000000e+03 7.820742797851562500e+01 5.083497524261474609e+00 -3.571330446541613746e-14 -5.185661470542834994e-13 -1.662838296960858497e-13 -1.114695968450381269e-13
3.036000000000000000e+03 7.818528747558593750e+01 1.058665990829467773e+00 3.930370297885316111e-13 -4.263178894105268402e-13 -9.984261105323768287e-15 -2.165960146698411859e-13
3.037000000000000000e+03 7.890615844726562500e+01 3.115995526313781738e-01 5.226825916526678384e-13 -5.537592953630543491e-13 -9.323015517687278930e-15 5.667614001812065760e-14
3.038000000000000000e+03 7.818990325927734375e+01 2.558865547180175781e-01 4.527641553776079464e-13 -4.464715001786107029e-13 1.887790799875131709e-15 7.656775333122339822e-14
3.039000000000000000e+03 7.890805816650390625e+01 -3.700178623199462891e+00 1.750136087485046343e-13 -3.138772336659656492e-13 -4.165908950811737788e-14 -4.489144516187093537e-14
3.040000000000000000e+03 7.818135833740234375e+01 -2.142940759658813477e+00 -1.113293078601820807e-13 -3.450937181414398536e-13 -1.369269145767501583e-13 -1.321446478717153150e-13
3.041000000000000000e+03 7.818544006347656250e+01 -6.161286830902099609e+00 5.190873027098065473e-14 -1.150062440028951083e-13 -1.892925513601387277e-14 -3.126144837244625163e-14
3.042000000000000000e+03 7.891518402099609375e+01 -1.010760021209716797e+01 5.766663324158552428e-14 -1.582895191873726071e-13 -3.018686849424155605e-14 -5.608664659144608003e-15
3.043000000000000000e+03 7.819645690917968750e+01 -8.557965278625488281e+00 -1.186194290578659882e-13 -1.880897510225104652e-13 -9.201275537936565163e-14 -1.185298739584186856e-13
3.044000000000000000e+03 7.820693206787109375e+01 -1.256410884857177734e+01 1.371117845996860929e-13 2.188905117274722589e-13 1.068006902534002212e-13 -7.297394161382211863e-14
3.045000000000000000e+03 7.892247772216796875e+01 -1.491763114929199219e+01 4.877964148602455252e-14 1.810338852567192069e-13 6.894405700638359114e-14 8.136589173962389260e-15
3.046000000000000000e+03 7.821138763427734375e+01 -1.336266899108886719e+01 -6.872353536669772306e-15 1.343075498906609599e-13 3.823056102377972443e-14 -1.288977469681915067e-14
3.047000000000000000e+03 7.773101043701171875e+01 3.824871444702148438e+01 -2.519396332994940785e-14 -3.310540589492733110e-13 -1.068744024486020794e-13 1.077869279833380822e-13
3.048000000000000000e+03 7.821804046630859375e+01 3.707356643676757812e+01 -2.317984603632076979e-14 -3.301908713896489767e-13 -1.060112148889777450e-13 2.552223094865781194e-14
3.049000000000000000e+03 7.805138397216796875e+01 3.495275115966796875e+01 1.746253457861422081e-14 -4.729010152221269081e-13 -1.366315507999107948e-13 1.615962951558719274e-13
3.050000000000000000e+03 7.135579681396484375e+01 2.589624643325805664e+00 1.947595594997339474e-13 1.501747836328559682e-12 5.089522011302027860e-13 6.055725175870343979e-14
3.051000000000000000e+03 3.524003982543945312e+01 -1.684911918640136719e+01 -4.411124311415499932e-14 -1.561576660081415158e-13 -6.008067036499670222e-14 1.343481939196020103e-13
3.052000000000000000e+03 3.378192138671875000e+01 -1.673412895202636719e+01 -8.463261152004755705e-14 -3.107768220284717886e-13 -1.186228307421821615e-13 -8.465454797931554892e-15
3.053000000000000000e+03 4.976273345947265625e+01 -1.027024745941162109e+01 1.352601841295153484e-13 3.324743366901750097e-13 1.403203589564125386e-13 -2.590204797609657605e-13
3.054000000000000000e+03 6.778617095947265625e+01 -8.657834053039550781e+00 7.329948686863804741e-14 1.037934928976858018e-12 3.333703213655170305e-13 1.997193236529318239e-13
3.055000000000000000e+03 3.622820973396301270e-01 3.477164983749389648e+00 7.594506891851066088e-14 -1.733313877627304378e-13 -2.921589429801321747e-14 -5.068873855265491890e-14
3.056000000000000000e+03 1.428617477416992188e+00 3.644359970092773438e+01 4.364001412164196167e-15 1.619986019244998299e-13 4.990878383855958111e-14 -1.171507049499087246e-16
3.057000000000000000e+03 2.457715749740600586e+00 4.046812438964843750e+01 -2.441037145637856010e-14 -4.477479856063865116e-14 -2.075555134391834228e-14 -1.943482877343923054e-14
3.058000000000000000e+03 1.325132131576538086e+00 3.473654174804687500e+01 -1.395339566275227011e-14 1.083973473589745773e-13 2.833318432302056600e-14 4.497788995633592024e-14
3.059000000000000000e+03 1.153857827186584473e+00 2.820670509338378906e+01 -1.312963494572378167e-14 -5.137793538051785291e-14 -1.935227186020214291e-14 -2.426988257174696184e-14
3.060000000000000000e+03 1.910678982734680176e+00 2.967271041870117188e+01 -8.872186466675913846e-15 -3.802365628575391648e-15 -3.802365628575391648e-15 1.761900189276282419e-14
3.061000000000000000e+03 2.084483623504638672e+00 3.216411590576171875e+01 -3.144158506939381077e-16 -2.301022430050130713e-14 -6.997392116826978495e-15 4.441491459014103305e-14
3.062000000000000000e+03 1.873711109161376953e+00 2.483640480041503906e+01 8.702067522516412912e-14 6.017004928159097599e-14 4.415721667440017373e-14 -2.136471202859521745e-15
3.063000000000000000e+03 1.137812376022338867e+00 2.659262847900390625e+01 6.047928406997457595e-14 -2.485860096327480173e-13 -5.643201495832660120e-14 9.244827600392128975e-15
3.064000000000000000e+03 2.148053646087646484e+00 3.299581146240234375e+01 2.418769327080898257e-14 1.018680514833052164e-13 3.781672444267379640e-14 6.915783456974342047e-14
3.065000000000000000e+03 1.250396847724914551e+00 3.228501892089843750e+01 2.877979430292165741e-14 5.808514883269208506e-14 2.605948192424458604e-14 -1.095627206987954613e-14
3.066000000000000000e+03 1.091012239456176758e+00 2.095952987670898438e+01 4.343922411446238252e-14 1.101187080431755005e-13 4.606737761441229151e-14 1.145006347900859658e-14
3.067000000000000000e+03 1.838329911231994629e+00 2.241905975341796875e+01 -2.237299463801831895e-14 -9.588426515445835907e-15 -9.588426515445835907e-15 1.114951162536730045e-14
3.068000000000000000e+03 2.598663091659545898e+00 2.308790779113769531e+01 -4.437017430986706090e-14 -1.105176876663865881e-13 -4.646635723762337911e-14 5.201346758897454348e-14
3.069000000000000000e+03 1.885206580162048340e+00 2.563655471801757812e+01 -3.132045946381556423e-14 -1.964268456005821561e-13 -6.832419151931931611e-14 2.630798445031005267e-14
3.070000000000000000e+03 1.927259564399719238e+00 2.806558036804199219e+01 7.400847377428063090e-14 -5.978397844049604393e-14 4.267346906069481582e-15 5.041107098814959220e-14
3.071000000000000000e+03 1.899745106697082520e+00 2.644000816345214844e+01 -2.601963071814216572e-14 -1.115127006576580038e-14 -1.115127006576580038e-14 6.542903290560411755e-14
3.072000000000000000e+03 1.921913743019104004e+00 2.887334823608398438e+01 -1.505048120636551245e-13 -1.560039532451373834e-13 -9.195262959263775238e-14 -1.119592664859667196e-16
3.073000000000000000e+03 2.254582166671752930e+00 3.548048782348632812e+01 -5.008568497552774723e-14 1.386630339630240405e-13 2.657320401862253018e-14 3.697284584611507108e-14
3.074000000000000000e+03 1.931883692741394043e+00 3.048763275146484375e+01 7.414439376319473946e-15 1.633059329040828511e-13 5.121611481814260236e-14 6.991716233750722154e-14
3.075000000000000000e+03 2.173875808715820312e+00 3.464242935180664062e+01 3.403259458641984259e-14 1.747137184275951438e-13 6.262389017725952800e-14 6.506102080694464718e-14
3.076000000000000000e+03 2.167926549911499023e+00 3.381967544555664062e+01 -2.499901530900704161e-14 3.503708418230513932e-14 3.011420661989429315e-15 8.501315293006281304e-14
3.077000000000000000e+03 1.086799383163452148e+00 2.015515327453613281e+01 -3.403552532041734247e-14 -6.033759917482145463e-14 -2.831193734857163913e-14 4.276155032281389601e-14
3.078000000000000000e+03 1.828210115432739258e+00 2.161240386962890625e+01 -2.411160091302533975e-14 -1.704618705303945214e-13 -5.837204228005890561e-14 1.886044048531303891e-14
3.079000000000000000e+03 1.790587544441223145e+00 1.598659229278564453e+01 -1.303906662546497341e-13 -1.931345572836126734e-13 -9.705756841673143787e-14 -6.476754760764355523e-14
3.080000000000000000e+03 1.039071440696716309e+00 8.949786186218261719e+00 4.661166743379074884e-14 6.572737823841781624e-14 3.370171302403621172e-14 -5.583788572033170083e-14
3.081000000000000000e+03 2.437466382980346680e+00 1.108861827850341797e+01 1.779123418412572460e-14 -1.296280384465234303e-13 -3.355103941524682776e-14 -8.311979712372422058e-14
3.082000000000000000e+03 1.804799437522888184e+00 1.839640998840332031e+01 -2.984115030275381886e-14 1.008641073766379515e-14 -5.926421869527007114e-15 -1.109483124405070964e-13
3.083000000000000000e+03 1.041677951812744141e+00 7.365362644195556641e+00 3.177910069969945572e-14 -1.236332271368351110e-13 -2.755623826995387549e-14 2.967484724202169855e-14
3.084000000000000000e+03 1.050560832023620605e+00 5.777383327484130859e+00 6.248709096814616948e-14 -1.562236126052829466e-13 -2.812095513588831752e-14 8.531357349359728476e-15
3.085000000000000000e+03 1.753526806831359863e+00 1.199279117584228516e+01 9.101215874690593566e-14 -7.537216293804216427e-14 4.691999674395373396e-15 -2.316848698568491072e-13
3.086000000000000000e+03 1.745084047317504883e+00 7.264124393463134766e+00 9.761694219883459978e-14 -4.966606485345796684e-14 1.438526388123934768e-14 -3.312374856280671243e-14
3.087000000000000000e+03 1.094240069389343262e+00 3.416622161865234375e+00 3.025499831880453482e-15 2.417211802897487050e-14 8.159285421784068237e-15 3.499606745886729708e-14
3.088000000000000000e+03 1.123633384704589844e+00 2.641300916671752930e+00 7.169712414913098630e-14 -3.789908315020122653e-14 1.013941297730528573e-14 -8.328007608613546831e-14
3.089000000000000000e+03 1.739362835884094238e+00 8.836083412170410156e+00 5.876175197469524214e-14 -1.120692351853219693e-13 -1.599224631844073374e-14 2.720146868439177884e-14
3.090000000000000000e+03 1.748288869857788086e+00 6.474472522735595703e+00 -9.877454485839737286e-15 -2.329879453429051228e-13 -7.285961927099710023e-14 -4.220062477635136422e-14
3.091000000000000000e+03 1.742273449897766113e+00 8.050643920898437500e+00 4.535501951763963591e-14 -2.093168845716808502e-13 -4.918855849977282757e-14 -1.024887589211190622e-14
3.092000000000000000e+03 2.437099218368530273e+00 9.522849082946777344e+00 5.343308803230917281e-14 -2.058548508520816056e-13 -4.572652816830537204e-14 7.869082447285735693e-14
3.093000000000000000e+03 1.740300893783569336e+00 1.041228389739990234e+01 2.136853553531912336e-14 -8.234395560162074967e-14 -1.829262517285754064e-14 -1.032101785763614443e-13
3.094000000000000000e+03 1.785206437110900879e+00 1.518385505676269531e+01 -9.091333371888388193e-14 -1.608738167094454774e-14 -3.210021427813535000e-14 -2.179526734601405086e-14
3.095000000000000000e+03 1.745691418647766113e+00 1.120193862915039062e+01 3.760507123794568085e-14 -7.538543763839153367e-14 -1.133410975072716639e-14 -8.435925027104607121e-14
3.096000000000000000e+03 1.778336286544799805e+00 1.438323593139648438e+01 3.962364646597571829e-15 -4.405279106453087457e-14 -1.202712839124811181e-14 1.359846852906198417e-14
3.097000000000000000e+03 1.770040392875671387e+00 1.358462047576904297e+01 1.107057831907856671e-13 7.032081080632357484e-14 5.430797819913277258e-14 -3.841619676449997689e-14
3.098000000000000000e+03 1.800639867782592773e+00 1.759381103515625000e+01 -1.332165172444887968e-13 -1.134184654966738717e-14 -4.336751091701604444e-14 3.096875444345663364e-14
3.099000000000000000e+03 1.808730602264404297e+00 1.919894981384277344e+01 7.826193950441050901e-15 -1.338987650140524566e-13 -3.782176937090764302e-14 -2.136149838559333464e-14
3.100000000000000000e+03 1.820162296295166016e+00 2.080709457397460938e+01 -4.121311988512441071e-14 2.808818343115904864e-14 -3.937480936189608621e-15 1.123819915131837790e-15
3.101000000000000000e+03 6.444897460937500000e+01 3.485313796997070312e+01 2.661125172217365664e-13 1.597991622923414234e-13 1.277734970779598189e-13 -2.276295742609929507e-13
3.102000000000000000e+03 6.442203521728515625e+01 3.564545822143554688e+01 1.933355277088100177e-13 5.632430286062195535e-13 2.269735641840034401e-13 -2.213663280459243765e-13
3.103000000000000000e+03 6.919640350341796875e+01 2.952209854125976562e+01 3.216188708583811451e-13 1.418863182327256833e-12 5.221446105346805311e-13 -5.618444078037132527e-13
3.104000000000000000e+03 7.042665100097656250e+01 2.117897987365722656e+01 9.001217875443182082e-14 1.914365584457233815e-12 6.013133242201151862e-13 -6.751682004278725113e-14
3.105000000000000000e+03 7.110462188720703125e+01 1.550809764862060547e+01 7.370070265882988636e-14 1.587118240650720047e-12 4.982457046769084297e-13 -1.100860532289929528e-13
3.106000000000000000e+03 7.112698364257812500e+01 1.632004737854003906e+01 -6.416333528944453968e-14 1.322154408525677560e-12 3.773973321352652732e-13 4.935540366159119063e-14
3.107000000000000000e+03 7.115019989013671875e+01 1.957633590698242188e+01 -4.073916768168595048e-14 1.377944308135481410e-12 4.011615258731060507e-13 3.758555221070915275e-14
3.108000000000000000e+03 7.114238739013671875e+01 1.713430595397949219e+01 7.125197106589917229e-14 1.494566948499753689e-12 4.697456616395423445e-13 -1.754432916219877958e-14
3.109000000000000000e+03 7.673580932617187500e+01 1.707882881164550781e+01 3.274876368892544465e-14 -1.003421860033305857e-13 -2.027802804957425792e-14 4.166278595989919564e-14
3.110000000000000000e+03 7.105233001708984375e+01 2.457391548156738281e+01 1.492732803684559961e-13 1.459378191209781406e-12 4.825954631575146703e-13 -2.107494815597674154e-13
3.111000000000000000e+03 7.107561492919921875e+01 3.451105207204818726e-02 8.983270941356757966e-14 1.250899882808409469e-12 4.022197885086148395e-13 2.201670513653566918e-13
3.112000000000000000e+03 7.021894836425781250e+01 -6.921079754829406738e-01 1.259724610866083672e-13 1.495143093534212486e-12 4.863346596099826780e-13 3.920985443880281585e-13
3.113000000000000000e+03 3.985494232177734375e+01 -1.863552093505859375e+01 -1.895638322962217570e-13 1.026025493272532049e-14 -5.379107464900494129e-14 9.935218744710691552e-14
3.114000000000000000e+03 7.141777801513671875e+01 3.427718162536621094e+00 3.658118797570004965e-14 1.479708066146057099e-12 4.548867792858457548e-13 9.647306147301734636e-14
3.115000000000000000e+03 7.218106079101562500e+01 -2.398065376281738281e+01 -1.980126708488270243e-14 1.287665856103750728e-13 3.268959674349383726e-14 -1.760259554220086620e-13
3.116000000000000000e+03 6.986035156250000000e+01 -2.139266204833984375e+01 -9.939546744257982125e-14 1.861566863116045911e-13 2.602836532189425206e-14 -9.905463493713184686e-14
3.117000000000000000e+03 6.652987670898437500e+01 -1.079565620422363281e+01 4.209656508471527891e-14 5.899282256270621527e-13 1.896074443286099864e-13 2.835473555170414661e-13
3.118000000000000000e+03 6.738156890869140625e+01 -9.386304855346679688e+00 7.720883529955049895e-14 8.337310876405101823e-13 2.732819938226771495e-13 1.405294473453763682e-13
3.119000000000000000e+03 4.801252746582031250e+01 3.110138511657714844e+01 -6.443161518779544697e-16 9.122576012741273610e-14 2.717443308678131608e-14 7.792934862953931896e-14
3.120000000000000000e+03 6.342304992675781250e+01 -1.664792060852050781e+01 1.381204314332765137e-13 5.919447061426136303e-14 5.919447061426136303e-14 1.797078382371336547e-13
3.121000000000000000e+03 6.482257080078125000e+01 -1.607376861572265625e+01 3.779427806957155744e-14 5.194579575512614511e-13 1.671756808506452696e-13 5.465341178755023233e-14
3.122000000000000000e+03 6.348308563232421875e+01 -1.775339698791503906e+01 1.924491721040123837e-14 1.968555899615597599e-14 1.167914269256057486e-14 9.212585121848304581e-14
3.123000000000000000e+03 6.483946228027343750e+01 -1.706121635437011719e+01 -1.563350143785058322e-13 3.905087787425126633e-13 7.025212659869661813e-14 9.150753749577814067e-14
3.124000000000000000e+03 6.436374664306640625e+01 -1.656792449951171875e+01 1.264142599193690542e-13 1.914303812038456454e-13 9.535339233696440986e-14 2.156970213334705178e-13
3.125000000000000000e+03 6.247413635253906250e+01 -1.795808792114257812e+01 9.286635452602706731e-14 1.055668546285845610e-13 5.952996342400984631e-14 2.465426951134275235e-13
3.126000000000000000e+03 6.439311981201171875e+01 -1.983120536804199219e+01 -8.144272609826933018e-14 1.595375036505392030e-13 2.342843495974685636e-14 7.748664177745917536e-14
3.127000000000000000e+03 4.041263198852539062e+01 1.172818851470947266e+01 -9.332578519661779981e-14 7.438060584119554619e-14 -5.683553806626676086e-15 -7.795768018755908080e-14
3.128000000000000000e+03 4.201849365234375000e+01 1.021056365966796875e+01 3.789941518711655022e-14 1.992463946652936468e-13 7.114374736029438484e-14 -7.087638310455945945e-14
3.129000000000000000e+03 6.583652496337890625e+01 -1.530883407592773438e+01 1.058723336728800354e-14 4.277336677124127240e-13 1.314962678675146712e-13 2.104953039129553449e-13
3.130000000000000000e+03 6.592593383789062500e+01 3.409241867065429688e+01 2.890625835482579786e-13 6.271443867694737051e-13 2.748620829638032115e-13 -3.146078232998950064e-13
3.131000000000000000e+03 5.699559402465820312e+01 -2.108541297912597656e+01 -4.156667482544014469e-14 -6.356523516099291116e-14 -3.153957333474309566e-14 6.754728612383409381e-14
3.132000000000000000e+03 5.942380142211914062e+01 -2.015358924865722656e+01 1.061287762857930639e-13 -1.146445541581539440e-13 -2.554733531114853490e-15 6.038825174506726179e-14
3.133000000000000000e+03 7.015246582031250000e+01 -3.314806938171386719e+00 1.690916558248073409e-13 9.760491026522544189e-13 3.435422248326130967e-13 2.028333013701089094e-13
3.134000000000000000e+03 6.218945693969726562e+01 -1.983967018127441406e+01 4.090116103878244092e-14 4.292876004761275732e-13 1.410566270992202886e-13 6.337796634075035240e-14
3.135000000000000000e+03 6.246036529541015625e+01 -2.262120246887207031e+01 -1.952708556917509553e-13 -1.294384521441371838e-13 -9.741279370601915732e-14 -1.278945804377698212e-14
3.136000000000000000e+03 6.024317550659179688e+01 -1.972233390808105469e+01 1.112208554556815346e-14 3.707741850090401359e-13 1.145688903990416119e-13 2.799147429143923616e-14
3.137000000000000000e+03 4.575943756103515625e+01 4.525243937969207764e-01 6.366687233839984916e-14 1.874141304387261231e-13 7.532430218839050728e-14 1.297741550180565862e-14
3.138000000000000000e+03 4.509080505371093750e+01 1.659391075372695923e-01 -1.392470919792760872e-14 9.697190289257792695e-14 2.491415785428521129e-14 -6.695442235306239137e-15
3.139000000000000000e+03 4.221440124511718750e+01 2.029134750366210938e+01 -3.737407518883406610e-14 7.548443884926661629e-14 1.143310757347046000e-14 -2.176645467328024858e-14
3.140000000000000000e+03 4.198260879516601562e+01 1.946947479248046875e+01 3.025824965477257045e-14 1.044697165689285889e-13 4.041838952829716891e-14 3.902744284429299215e-14
3.141000000000000000e+03 4.429406738281250000e+01 3.237165451049804688e+00 6.945592663970589012e-15 -9.996295241218589034e-14 -2.790520737389317468e-14 2.310207485923566895e-14
3.142000000000000000e+03 6.998089599609375000e+01 2.702175140380859375e+01 1.790600680966550340e-13 1.952528850407420080e-12 6.394766985905186996e-13 -3.996023889389632711e-13
3.143000000000000000e+03 7.044085693359375000e+01 2.810055923461914062e+01 1.994815987740872210e-13 1.503771499683503876e-12 5.109759186952556043e-13 -2.715754324981306533e-13
3.144000000000000000e+03 4.610568618774414062e+01 -2.507672607898712158e-01 3.432928185223929098e-16 8.021128927076029425e-14 2.416637345152659183e-14 -1.295931406890965532e-13
3.145000000000000000e+03 6.921620178222656250e+01 -5.652254581451416016e+00 5.191862361580458496e-14 9.487075838462977195e-13 3.001878530906748610e-13 2.665523238330053113e-13
3.146000000000000000e+03 6.919512939453125000e+01 -3.873553276062011719e+00 2.420388379737598017e-13 1.075938600367254416e-12 3.953932179497771093e-13 2.822957254240698877e-13
3.147000000000000000e+03 5.214525604248046875e+01 -1.403096866607666016e+01 3.200356104259005630e-13 4.565622104555147609e-14 1.097075514743146851e-13 -3.017964025388286675e-13
3.148000000000000000e+03 5.278332138061523438e+01 -1.604608917236328125e+01 3.012471186131931988e-13 1.176681771767815188e-13 1.256745900922451309e-13 2.007596156374316654e-14
3.149000000000000000e+03 7.097778320312500000e+01 2.545749855041503906e+01 1.327260106291291986e-13 1.566663899305043017e-12 5.098169607829772243e-13 -1.563187784509728617e-13
3.150000000000000000e+03 6.853726196289062500e+01 -7.168978214263916016e+00 5.151830229240504655e-14 9.142227990269202742e-13 2.897223205702154081e-13 1.701425594380703843e-13
3.151000000000000000e+03 5.036433410644531250e+01 3.312890243530273438e+01 1.146988455819411556e-13 3.694132944421363307e-13 1.452336379414650991e-13 5.209911278433732029e-14
3.152000000000000000e+03 4.363942337036132812e+01 2.938595056533813477e+00 -6.765673633314650548e-14 1.675520616348236125e-14 -1.527045735683334876e-14 -1.528033342218515500e-13
3.153000000000000000e+03 3.774595642089843750e+01 -1.750080299377441406e+01 -2.382540508199387785e-13 -5.635793006862795107e-14 -8.838359189487776657e-14 1.440704787457683378e-13
3.154000000000000000e+03 3.468432235717773438e+01 -1.613438415527343750e+01 -1.090428711680770796e-14 -5.042421355135918992e-14 -1.839855003104347991e-14 8.087523435239968306e-14
3.155000000000000000e+03 4.347566986083984375e+01 2.170536422729492188e+01 -2.030851445941183470e-14 2.886775291466997517e-13 8.051069847695574433e-14 2.101097751729466556e-14
3.156000000000000000e+03 5.230330657958984375e+01 3.370496368408203125e+01 9.631791214213467067e-14 1.327810067843285258e-13 6.872967635556531674e-14 1.855615812916544538e-13
3.157000000000000000e+03 5.115343475341796875e+01 3.496697235107421875e+01 7.482356341502807706e-14 2.608219900907676747e-13 1.006936640188596521e-13 -4.426883189992576739e-14
3.158000000000000000e+03 4.328434371948242188e+01 2.357073783874511719e+01 -2.539860479594015230e-14 8.061678088326987290e-14 1.656545214857255838e-14 -2.823410687918023049e-14
3.159000000000000000e+03 6.953480529785156250e+01 -4.883163452148437500e+00 1.707688894805881041e-13 8.395150351801772270e-13 3.030851936612621866e-13 2.015806412850734697e-13
3.160000000000000000e+03 4.956078720092773438e+01 -9.555693626403808594e+00 -6.810710036306982795e-14 1.080640907162068454e-13 1.198709676712792632e-14 -1.102238959826973286e-13
3.161000000000000000e+03 4.246126937866210938e+01 2.110823249816894531e+01 6.355279394106363999e-14 2.559916525719102554e-13 9.586333327626581080e-14 -7.902393881408995013e-15
3.162000000000000000e+03 6.539029693603515625e+01 3.567826461791992188e+01 1.144247457202096641e-13 4.836732143270738860e-13 1.794293744616579089e-13 -2.067341252614401936e-13
3.163000000000000000e+03 4.865215301513671875e+01 -6.622932434082031250e+00 -1.750997350585814516e-14 3.824667497856829024e-14 6.221010611219632974e-15 -6.149288435224053995e-14
3.164000000000000000e+03 4.842561721801757812e+01 3.195966339111328125e+01 6.301305099454604375e-14 7.275653874944804089e-14 4.073087692319822539e-14 8.048743556409235222e-14
3.165000000000000000e+03 5.495401382446289062e+01 -2.227713584899902344e+01 -2.428272697935912605e-14 -1.705352032548360097e-13 -5.844538178076397195e-14 2.855337223172521588e-14
3.166000000000000000e+03 5.582469940185546875e+01 -2.350580787658691406e+01 1.588274189901969780e-13 -2.064367963681632001e-13 -1.428281185813715104e-14 9.969294541365553153e-14
3.167000000000000000e+03 5.230620574951171875e+01 -2.277341270446777344e+01 -6.395846851268982558e-14 2.531004750130471520e-14 -1.159452748926165927e-14 -9.284061319476000912e-15
3.168000000000000000e+03 4.962876510620117188e+01 3.293236541748046875e+01 5.801730488174880462e-14 -2.088639082921481954e-14 1.113927353813383772e-14 -1.766193079307909301e-15
3.169000000000000000e+03 4.880079269409179688e+01 3.297325897216796875e+01 2.467687173850728610e-14 2.393305551569996359e-13 7.920222230882803527e-14 8.568188205378829414e-14
3.170000000000000000e+03 2.612708854675292969e+01 -1.006202697753906250e+01 -2.356634039388932900e-13 1.277561498432000509e-13 -3.237217284057618272e-14 2.139084977128159065e-14
3.171000000000000000e+03 4.425408554077148438e+01 2.615722656250000000e+01 3.418847236563715697e-14 1.976559920510018165e-13 6.955334474600255446e-14 -5.631750118605550331e-15
3.172000000000000000e+03 4.467821502685546875e+01 2.699224090576171875e+01 5.571376998257052821e-15 2.311424706150089214e-13 7.101415809562805492e-14 9.152982462668629582e-14
3.173000000000000000e+03 6.900141143798828125e+01 3.159760093688964844e+01 2.451729411937636494e-13 1.065844027620110879e-12 3.933050987756786521e-13 -2.463920723266149748e-13
3.174000000000000000e+03 4.302272415161132812e+01 2.558734512329101562e+01 7.795681282582109239e-15 3.693485946774932582e-13 1.131432865149675782e-13 3.860982171997873191e-14
3.175000000000000000e+03 7.060879516601562500e+01 1.804890036582946777e+00 1.646955683810846782e-13 1.763368964735612110e-12 5.784193653560198989e-13 1.721416927188620938e-13
3.176000000000000000e+03 7.124372100830078125e+01 8.477201461791992188e+00 5.373832821331352150e-14 1.441310178845744971e-12 4.485145436473880753e-13 -1.365375352249632510e-14
3.177000000000000000e+03 1.315877246856689453e+01 2.313363790512084961e+00 -5.813288760959933743e-14 -2.079178842984141795e-13 -7.981523021715133948e-14 -1.291689499772433886e-14
3.178000000000000000e+03 1.385477924346923828e+01 1.916356801986694336e+00 -9.332434185247567848e-14 5.150575265225852684e-14 -1.254557608243878769e-14 3.507162682116888013e-16
3.179000000000000000e+03 1.250127124786376953e+01 2.757355213165283203e+00 -4.426109001878786309e-14 -1.562218914343341258e-13 -6.014489579118931228e-14 1.168264517379747139e-14
3.180000000000000000e+03 1.126817512512207031e+01 2.633425951004028320e+00 -5.068131176777339320e-14 -2.172056242819801058e-14 -2.172056242819801058e-14 -7.022069828822169457e-14
3.181000000000000000e+03 6.719431304931640625e+01 3.410514450073242188e+01 1.376103278636492400e-13 7.909910248495022334e-13 2.785804085244508732e-13 -3.122217382637432204e-13
3.182000000000000000e+03 7.073908233642578125e+01 -1.676407337188720703e+00 2.018392506082655746e-13 1.184525351069498633e-12 4.159093588192858126e-13 2.266290996012776393e-13
3.183000000000000000e+03 4.182751846313476562e+01 8.403938293457031250e+00 5.367909350524613377e-14 2.517600657028079558e-13 9.163174640716351127e-14 -6.688883659195649090e-14
3.184000000000000000e+03 6.567417144775390625e+01 -1.369889640808105469e+01 1.708879213265998565e-13 9.611316056186078316e-14 8.010032795466998090e-14 1.409594419269841192e-13
3.185000000000000000e+03 6.570050811767578125e+01 -1.211634063720703125e+01 1.474393117361152972e-13 6.808261094649881162e-13 2.484796222945728772e-13 2.848879443982654802e-13
3.186000000000000000e+03 7.111576080322265625e+01 2.286129379272460938e+01 1.555992205741485446e-13 1.507840293596407477e-12 4.990318596721776689e-13 -1.736674633311466320e-13
3.187000000000000000e+03 7.109310150146484375e+01 2.370601463317871094e+01 1.301943172412126093e-13 1.542703356553765115e-12 5.018693251777894826e-13 -2.951521541278215310e-14
3.188000000000000000e+03 7.107598114013671875e+01 1.469899654388427734e+01 -9.345103595852829320e-15 1.482900824703592413e-12 4.420667120124538441e-13 -2.794203467237389715e-14
3.189000000000000000e+03 4.483750915527343750e+01 -1.742637825012207031e+01 2.475156479786206482e-14 9.067197676276145257e-14 3.462706263759364467e-14 -8.073808277758026675e-14
3.190000000000000000e+03 4.153709411621093750e+01 -1.773929023742675781e+01 -1.557432161751817756e-13 -1.124980439208035643e-13 -8.047237870642195978e-14 7.122525225861098264e-14
3.191000000000000000e+03 4.600252914428710938e+01 -1.666266632080078125e+01 -4.542536390984321104e-14 1.635357837646497781e-13 3.543312629525514901e-14 2.704830310467157273e-14
3.192000000000000000e+03 7.085152435302734375e+01 2.634362030029296875e+01 1.815146069474721235e-13 1.587573280302512213e-12 5.307263417804464201e-13 -2.470757702165843339e-13
3.193000000000000000e+03 2.448270797729492188e+01 -7.308883666992187500e+00 -4.618844572762924316e-14 1.174578012977378627e-13 2.138080565459304916e-14 7.233203971760207573e-14
3.194000000000000000e+03 6.648046875000000000e+01 -2.003705596923828125e+01 -2.009212159712406298e-13 5.392805512316901223e-15 -5.865852237534746605e-14 -8.526292092335147760e-15
3.195000000000000000e+03 6.108900833129882812e+01 -1.926973533630371094e+01 1.431974418870333304e-14 2.348917772527353565e-13 7.476345795709091191e-14 1.058174747370181634e-13
3.196000000000000000e+03 6.315238952636718750e+01 -2.241860771179199219e+01 -1.893738529705479845e-13 2.390964216978513912e-13 1.491677197344373762e-14 6.904117441598398019e-14
3.197000000000000000e+03 7.117803955078125000e+01 8.947570323944091797e-01 1.513437812572515639e-13 1.460265610687960791e-12 4.834828284255854314e-13 8.260574299243095275e-14
3.198000000000000000e+03 4.882975387573242188e+01 -1.609502792358398438e+01 1.027914190397660743e-13 -1.389503339862055431e-13 -1.084767397571207229e-14 1.707236511449411465e-13
3.199000000000000000e+03 3.834737014770507812e+01 -1.750037956237792969e+01 -2.502503141776218909e-13 1.215046130115943201e-13 -3.862371306031370244e-14 -7.007929799613885069e-14
3.200000000000000000e+03 3.931565475463867188e+01 -1.820459175109863281e+01 -2.148507202226826451e-13 -1.378298245934689303e-13 -1.058041661553509039e-13 8.997757237633879912e-14
3.201000000000000000e+03 2.246154022216796875e+01 -4.632350921630859375e+00 -1.300976064074269023e-13 -1.015070663699761677e-13 -6.948140115559456320e-14 -3.780434082098493853e-14
3.202000000000000000e+03 7.175164031982421875e+01 -2.237055778503417969e+01 -1.311043152296340053e-13 1.496917010918724644e-13 5.576215250451769384e-15 -6.942378258639053668e-14
3.203000000000000000e+03 1.598598575592041016e+01 7.307115793228149414e-01 -1.470137827122054708e-14 -2.350553291504547948e-13 -7.492701663107392829e-14 2.588899960295071301e-13
3.204000000000000000e+03 6.880820465087890625e+01 3.033837318420410156e+01 3.317960869161223902e-13 1.331723034798948380e-12 4.990557121199723500e-13 -3.531713495871086073e-13
3.205000000000000000e+03 6.984587860107421875e+01 2.985437393188476562e+01 1.997915586226736706e-13 1.275149582279089255e-12 4.424823409152761622e-13 -3.001680935060813127e-13
3.206000000000000000e+03 2.007964324951171875e+01 -2.225446462631225586e+00 -7.867559820859751363e-14 1.203283654627965854e-14 -1.999282697403605147e-14 4.839296755747117540e-14
3.207000000000000000e+03 6.056310272216796875e+01 -2.034711456298828125e+01 6.027211166953743565e-15 2.583090500123032957e-15 2.583090500123032957e-15 -1.269588144365435285e-15
3.208000000000000000e+03 6.343408203125000000e+01 -2.153428840637207031e+01 -2.909214752780386881e-13 1.040741115249793625e-13 -5.605420777066508209e-14 -3.213785303417954209e-14
3.209000000000000000e+03 7.101399230957031250e+01 1.311098766326904297e+01 -8.581250131051848529e-14 1.335751713231470017e-12 3.749817568000218815e-13 -1.281957531665614547e-13
3.210000000000000000e+03 4.882538223266601562e+01 -1.679165077209472656e+01 -1.211148287780586252e-13 -9.765730840096895071e-14 -6.563164318658734619e-14 1.681884069949096672e-13
3.211000000000000000e+03 4.799055862426757812e+01 -1.680553245544433594e+01 -2.050174300347127471e-14 -1.002883621417302584e-13 -3.623703171296704939e-14 6.328759808967368561e-14
3.212000000000000000e+03 5.220625305175781250e+01 -1.622264862060546875e+01 1.784735282738675322e-13 -6.076419207211303242e-14 3.531280357103178114e-14 -5.201816353963412132e-14
3.213000000000000000e+03 7.139225769042968750e+01 6.812305927276611328e+00 1.662950240835167626e-13 1.169292093705642799e-12 4.006761285604842904e-13 6.386017203322685853e-14
3.214000000000000000e+03 6.965929412841796875e+01 -2.044300270080566406e+01 -1.867713239113184126e-14 7.777854288361016333e-14 1.773042230071054937e-14 -6.660365753927491306e-14
3.215000000000000000e+03 6.054146957397460938e+01 -2.258737182617187500e+01 -4.683652079996887541e-14 1.171800558062013886e-13 2.110306016305657506e-14 -9.360382164397165576e-16
3.216000000000000000e+03 7.298657226562500000e+01 -2.340730857849121094e+01 -1.478983900409999719e-15 -4.638479812919815704e-14 -1.435913460888244703e-14 -1.032500772163089109e-13
3.217000000000000000e+03 5.003179168701171875e+01 -1.301950645446777344e+01 2.836530110187501785e-13 2.130674651469599556e-13 1.490161482707239027e-13 -1.669081946221659396e-13
3.218000000000000000e+03 5.048500442504882812e+01 -1.520987987518310547e+01 2.092415596257474197e-13 1.354259044315797578e-13 1.034002392171981533e-13 -9.436466094202983212e-14
3.219000000000000000e+03 5.287245941162109375e+01 -2.332785224914550781e+01 -8.826465491655610673e-14 -3.782770876593379017e-14 -3.782770876593379017e-14 1.669483473719975825e-14
3.220000000000000000e+03 5.385506439208984375e+01 -2.334793472290039062e+01 1.559265005524404502e-14 -8.481933146294029502e-14 -2.076800442230887500e-14 8.374010984418464587e-14
3.221000000000000000e+03 3.639933013916015625e+01 -1.709337615966796875e+01 -1.818914214125194606e-13 -3.220251891750472439e-14 -6.422818413188632891e-14 -2.058363923100950399e-14
3.222000000000000000e+03 4.433199691772460938e+01 -1.837649345397949219e+01 -1.145307129300429660e-13 8.816825579089498932e-14 -7.908734770052140706e-15 -1.172041793045391911e-13
3.223000000000000000e+03 4.413748550415039062e+01 -1.764136505126953125e+01 -1.342623522125954705e-13 3.396089155336887155e-14 -3.009043548726254846e-14 4.596400232539758768e-14
3.224000000000000000e+03 7.204869079589843750e+01 -2.164644622802734375e+01 3.206445551171758883e-15 2.301289313191151598e-13 7.000061202347071521e-14 -1.220411169041216159e-13
3.225000000000000000e+03 4.019712829589843750e+01 -1.798083496093750000e+01 -1.101614933714072098e-13 9.004078136299470403e-14 -6.036214280150109524e-15 1.361529026458127567e-13
3.226000000000000000e+03 2.587357282638549805e+00 3.324318408966064453e+00 -1.486583649419354752e-14 -6.371073085737572958e-15 -6.371073085737572958e-15 -1.067309082910736229e-13
3.227000000000000000e+03 6.774307250976562500e+01 -1.993557548522949219e+01 -1.516918779172551912e-13 -1.925985887159080423e-14 -5.128552408597240875e-14 3.603240888170114453e-15
3.228000000000000000e+03 4.298783874511718750e+01 -1.756195449829101562e+01 -1.244186909532193908e-13 2.669343424684805788e-13 4.275469274407292519e-14 1.525557431032373290e-13
3.229000000000000000e+03 6.712920379638671875e+01 -2.011167144775390625e+01 -1.879157636788808539e-13 1.939703687383817488e-13 1.816382110773331546e-15 -1.822861252134128085e-13
3.230000000000000000e+03 6.869038391113281250e+01 -2.037717437744140625e+01 -1.749132658374411009e-13 1.653906707226558692e-14 -4.751225996836583310e-14 -5.186577977132423092e-15
3.231000000000000000e+03 5.280623245239257812e+01 3.434459304809570312e+01 4.696730268702493938e-14 1.116307431691873631e-13 4.757941274042415403e-14 6.595966177760925753e-14
3.232000000000000000e+03 5.094227600097656250e+01 3.329784774780273438e+01 1.642117431616130219e-13 7.037646425908997139e-14 7.037646425908997139e-14 1.326111529614815154e-13
3.233000000000000000e+03 4.138877868652343750e+01 -1.847002601623535156e+01 -1.404548813409636776e-13 -8.307042526729466192e-14 -6.705759266010385966e-14 2.205841439411118654e-13
3.234000000000000000e+03 6.402702331542968750e+01 -2.027076530456542969e+01 -1.842376620188324043e-13 1.040447974087407856e-13 -2.405785667252205440e-14 1.966318004687633847e-13
3.235000000000000000e+03 5.790372848510742188e+01 -2.507689476013183594e+01 5.857267558614324271e-15 -8.899163957826194959e-14 -2.494031253763052958e-14 -3.629385407120065687e-14
3.236000000000000000e+03 5.812011337280273438e+01 -2.156274986267089844e+01 -1.079367240659941107e-13 1.138697290755871783e-13 1.779900613493325644e-15 7.514689283165398859e-14
3.237000000000000000e+03 6.031562805175781250e+01 -2.193004226684570312e+01 -1.406832820811249052e-13 -1.060437883879973564e-13 -7.401812317361575189e-14 -4.668438013011484700e-14
3.238000000000000000e+03 1.191923141479492188e+01 3.295266866683959961e+00 -6.345327773415662675e-14 -3.703263824067493104e-13 -1.301339000751508546e-13 3.799076599641203200e-14
3.239000000000000000e+03 6.492947387695312500e+01 -2.021140480041503906e+01 -1.849056254247735676e-13 1.495094738117319633e-13 -1.061884548391248129e-14 3.226035432714324802e-14
3.240000000000000000e+03 4.325155258178710938e+01 -1.601930427551269531e+01 2.289890214837546345e-14 9.813815206446627193e-15 9.813815206446627193e-15 3.037791846956065800e-14
3.241000000000000000e+03 6.089957427978515625e+01 3.609132385253906250e+01 7.362898946138354828e-14 1.230571769700664064e-13 5.900585331756677543e-14 -1.477851857816653292e-13
3.242000000000000000e+03 5.376520538330078125e+01 -2.253134918212890625e+01 6.630982519800418529e-14 1.656713367837944761e-13 6.959434791691324063e-14 -3.491853345100742745e-14
3.243000000000000000e+03 5.503445816040039062e+01 -2.398607635498046875e+01 1.041768532333495201e-13 2.177174693513469345e-14 3.778457784825960120e-14 -2.662507462224648902e-14
3.244000000000000000e+03 6.583256530761718750e+01 -1.984685134887695312e+01 -1.218299143209214397e-13 1.307909808017856945e-13 2.688320156017513264e-15 -4.764698564082431309e-14
3.245000000000000000e+03 6.730783081054687500e+01 -1.948957824707031250e+01 -1.269422799298966509e-13 -3.152836200665323774e-14 -4.754119461384404000e-14 -1.497903634895686453e-13
3.246000000000000000e+03 7.099521636962890625e+01 1.158821010589599609e+01 -1.319225083991001912e-13 1.453243124796554930e-12 3.963961862744891373e-13 -1.426093265829639356e-13
3.247000000000000000e+03 5.569714355468750000e+01 -2.214470291137695312e+01 1.461532717766944600e-13 1.541390170882450672e-13 9.008768665948185816e-14 6.033751785965851822e-14
3.248000000000000000e+03 3.265221405029296875e+01 -1.588568878173828125e+01 -3.593634518108713982e-14 -4.729107730416792776e-13 -1.526541344503903885e-13 5.925164195006923928e-14
3.249000000000000000e+03 4.957785415649414062e+01 -1.674167251586914062e+01 5.491138414196600204e-14 1.150353412786991880e-13 5.098401762619955702e-14 8.836785063458599265e-14
3.250000000000000000e+03 4.743705749511718750e+01 -1.574745750427246094e+01 6.581935246396247718e-14 -1.754265373102911058e-14 1.448300978928659943e-14 5.996783202389527334e-14
3.251000000000000000e+03 7.115241241455078125e+01 9.282980918884277344e+00 -1.052703642979253493e-14 1.322265972929226319e-12 3.935216681596326316e-13 -1.358659278832829997e-13
3.252000000000000000e+03 7.743872833251953125e+01 1.063353443145751953e+01 -1.137593962579437276e-14 -1.650037257435593707e-13 -5.291389749322375491e-14 2.903999943618638946e-14
3.253000000000000000e+03 5.712868881225585938e+01 -2.442407989501953125e+01 1.223747530176497178e-13 -1.076819975418322195e-13 4.407823932239818276e-15 4.203315281015203297e-14
3.254000000000000000e+03 5.569421768188476562e+01 -2.408493614196777344e+01 4.031951367829827992e-14 2.002835831210747486e-13 7.218092903981190855e-14 3.828019715448882643e-14
3.255000000000000000e+03 7.355819702148437500e+01 -2.144185066223144531e+01 3.397146930081418326e-14 2.433139410437656913e-13 8.318562174812124677e-14 -8.658409411535852862e-14
3.256000000000000000e+03 6.214241790771484375e+01 -2.202288818359375000e+01 -1.459213744845269667e-13 5.183964287567080498e-14 -2.822451846621731181e-14 -6.280584979498869680e-15
3.257000000000000000e+03 6.400838470458984375e+01 -2.119870185852050781e+01 -1.592796126112863697e-13 2.634316918249945960e-13 3.124561902072796327e-14 1.352192826025583328e-13
3.258000000000000000e+03 7.429792785644531250e+01 -2.418279457092285156e+01 -1.129715014570008280e-13 4.308554042513866589e-14 -2.096578830955864864e-14 4.799592255751161662e-14
3.259000000000000000e+03 4.357160949707031250e+01 -1.809785461425781250e+01 -6.002140516374321333e-14 -2.087272547727017646e-13 -8.062459391517534657e-14 -5.027897789409117857e-14
3.260000000000000000e+03 7.825924682617187500e+01 -2.134831047058105469e+01 -4.906632148108866498e-14 7.047347324847311190e-14 6.422146631358165506e-15 -6.382299067497418377e-14
3.261000000000000000e+03 7.498067474365234375e+01 -2.413573265075683594e+01 4.921858581775299252e-15 3.223660216804952183e-13 9.818635840356040867e-14 -1.241354702407118649e-13
3.262000000000000000e+03 7.557746124267578125e+01 -2.329102897644042969e+01 -4.545393602521999310e-14 3.007763851349543049e-13 7.659673541054665136e-14 -2.033838592332970485e-14
3.263000000000000000e+03 3.450751876831054688e+01 -1.679376029968261719e+01 -4.405840181077348705e-14 -1.790104929523181343e-13 -6.692066470198251849e-14 4.226857375938010419e-14
3.264000000000000000e+03 3.332095718383789062e+01 -1.597855567932128906e+01 -3.158514709543716603e-14 -8.216291416760640454e-14 -3.412441973416578678e-14 -8.142178744381320388e-14
3.265000000000000000e+03 3.198566246032714844e+01 -1.577335834503173828e+01 -9.788200930121657151e-14 -1.907395885659100843e-14 -3.508679146378181068e-14 1.853150328705983028e-15
3.266000000000000000e+03 4.669176101684570312e+01 -3.273726463317871094e+00 -2.322529613020454103e-14 2.874274711468782773e-13 7.926065402966142592e-14 2.025785850103423852e-14
3.267000000000000000e+03 4.675032424926757812e+01 -1.634146690368652344e+00 8.605029395199886855e-14 1.055051228673886676e-13 5.746662504581626085e-14 -6.765587574767209511e-14
3.268000000000000000e+03 2.881503486633300781e+01 -1.359796524047851562e+01 -2.640152738087302858e-14 3.443600927414275370e-14 2.410344271519385996e-15 6.090902792982993974e-14
3.269000000000000000e+03 2.867688941955566406e+01 -1.470096492767333984e+01 -1.160143843107830711e-14 8.652985012541636323e-14 2.247852477885083772e-14 2.610228419313524034e-14
3.270000000000000000e+03 2.966809844970703125e+01 -1.463613224029541016e+01 -9.917113415463130882e-15 -2.015511645385090200e-13 -6.344048414852129780e-14 5.218996892639160556e-14
3.271000000000000000e+03 4.120840454101562500e+01 1.527018928527832031e+01 -7.270350093442276562e-14 3.805999027224615805e-13 9.236891579302713984e-14 -8.148617550033168677e-14
3.272000000000000000e+03 4.109374237060546875e+01 1.269979286193847656e+01 -3.474666030161416286e-14 1.452368905479825556e-13 3.314706907391051782e-14 -7.358446263341228422e-14
3.273000000000000000e+03 4.247286987304687500e+01 -1.815017890930175781e+01 -1.203289177282781952e-13 -1.316336904928772089e-13 -7.558877975584119002e-14 1.239736530664684033e-13
3.274000000000000000e+03 7.639627075195312500e+01 -2.326511573791503906e+01 -3.711511349993590336e-14 2.585992130068465178e-13 6.644522849682046872e-14 7.163010012608064803e-14
3.275000000000000000e+03 4.698173141479492188e+01 -3.953166246414184570e+00 9.923323013999452158e-14 1.797813742494824840e-13 8.370437860633767047e-14 1.627849093856995749e-14
3.276000000000000000e+03 4.736174392700195312e+01 -3.039699554443359375e+00 1.353106266355902365e-13 2.409940736552984575e-13 1.128914060215084614e-13 1.058391215110181943e-14
3.277000000000000000e+03 5.241580963134765625e+01 -1.497284698486328125e+01 1.934734111200958617e-13 -1.458375656565938372e-13 1.429075363905060736e-14 -2.455525203743508245e-13
3.278000000000000000e+03 7.247627258300781250e+01 1.015263748168945312e+01 8.668688325757373248e-14 1.089423364887542878e-12 3.528330785092931299e-13 1.118707448725941855e-13
3.279000000000000000e+03 2.828801345825195312e+01 -1.125409603118896484e+01 -1.275390925682684529e-13 -5.465961206872413380e-14 -5.465961206872413380e-14 2.436508060468887266e-14
3.280000000000000000e+03 7.543275451660156250e+01 -2.257670783996582031e+01 4.852179957468265997e-15 1.850832990557896296e-13 5.698064497452678956e-14 2.022956929466183940e-15
3.281000000000000000e+03 5.094765472412109375e+01 -1.651384162902832031e+01 6.324660169502657747e-14 -2.474000008762661240e-13 -5.524601975437186396e-14 -9.460088318442600591e-15
3.282000000000000000e+03 5.158745574951171875e+01 -1.637183380126953125e+01 1.124216940650039562e-14 -2.925630928924533025e-13 -8.439627577523645119e-14 1.241851673577931692e-13
3.283000000000000000e+03 2.863774108886718750e+01 -1.190384292602539062e+01 -2.114076159953886397e-14 -1.005622248342365188e-13 -3.651089440547330978e-14 2.088273503501446998e-14
3.284000000000000000e+03 2.787464904785156250e+01 -1.343798351287841797e+01 -6.711948705162562590e-14 -7.451644282088082383e-14 -4.249077760649921931e-14 8.269944516518801247e-14
3.285000000000000000e+03 2.808099555969238281e+01 -1.234428882598876953e+01 -1.568484925273949671e-13 2.428111422862755386e-14 -3.977021281200386615e-14 9.230136999768129291e-14
3.286000000000000000e+03 7.818324279785156250e+01 -2.212858200073242188e+01 7.338039545575977818e-14 2.144525334223101876e-13 8.634987934104734753e-14 -4.189173557741024401e-14
3.287000000000000000e+03 4.575784683227539062e+01 -1.217440724372863770e+00 1.039016352881276528e-14 4.452927166131688888e-15 4.452927166131688888e-15 -1.109444093126861486e-13
3.288000000000000000e+03 4.540660476684570312e+01 1.149879217147827148e+00 -5.023394962261513996e-14 9.284853972908041486e-14 1.278437669312640357e-14 -5.742759376760678269e-14
3.289000000000000000e+03 4.911011505126953125e+01 -8.094658851623535156e+00 -2.126922600445124018e-14 1.376009173276052447e-14 -2.252740027397330536e-15 -1.416279067764300570e-13
3.290000000000000000e+03 4.862886810302734375e+01 -8.918416023254394531e+00 2.839241564295616471e-14 1.036700768091390612e-13 3.961874638037585217e-14 -7.172897936421132603e-14
3.291000000000000000e+03 4.872449874877929688e+01 -1.274562740325927734e+01 1.648709380824842086e-13 1.621608663321394417e-13 9.810954267963981068e-14 3.885730187727686261e-15
3.292000000000000000e+03 4.931052398681640625e+01 -1.285853767395019531e+01 1.544636949813230076e-13 3.407044069612952253e-13 1.485504292275327543e-13 -2.759843135274886450e-13
3.293000000000000000e+03 5.520396041870117188e+01 -2.341794204711914062e+01 9.455942092165790791e-15 1.870563437218059066e-13 5.895368286427948856e-14 1.781032630675683653e-14
3.294000000000000000e+03 5.428259658813476562e+01 -2.236164093017578125e+01 2.741304735022053601e-14 -1.712553438903280378e-13 -4.315268980906519780e-14 -7.270734985213508916e-14
3.295000000000000000e+03 4.750695037841796875e+01 -5.324682235717773438e+00 4.441853650302349243e-14 1.105384162566717954e-13 4.648708582790858634e-14 -1.861403208939098092e-16
3.296000000000000000e+03 4.764822769165039062e+01 -3.742812395095825195e+00 -1.585619080425506450e-14 1.304573311357304366e-13 3.438034226884920108e-14 2.196820775692085587e-14
3.297000000000000000e+03 4.992672348022460938e+01 -1.097166728973388672e+01 1.479099774517184107e-13 3.378956728132542775e-13 1.457416950794918065e-13 -8.192733736431603853e-14
3.298000000000000000e+03 4.438627624511718750e+01 1.544541954994201660e+00 -1.475537899330026104e-13 1.655174071803558467e-13 5.389086614161981217e-15 -3.211057518514616460e-14
3.299000000000000000e+03 2.825523948669433594e+01 -1.408848476409912109e+01 -1.261321505140883259e-13 -2.370604255431951746e-13 -1.089577782381959126e-13 3.882506973253499472e-14
3.300000000000000000e+03 3.164370155334472656e+01 -1.499859905242919922e+01 4.498547259527974074e-14 -1.637243129699178512e-13 -3.562165211239143314e-14 9.025599549423307666e-14
3.301000000000000000e+03 4.920134353637695312e+01 -1.098614883422851562e+01 1.629251611011059420e-14 4.187410509483291410e-13 1.305100640188947003e-13 -2.140604181541036488e-13
3.302000000000000000e+03 4.541600799560546875e+01 -2.188242673873901367e+00 -4.932507310581590865e-14 -1.126412128176802752e-13 -4.858988577704885514e-14 -6.969737422835367568e-14
3.303000000000000000e+03 4.774216842651367188e+01 -6.028521060943603516e+00 2.618028406911609984e-14 1.484729629823086650e-13 5.239597411542742944e-14 1.763203434168927886e-14
3.304000000000000000e+03 4.474248504638671875e+01 8.566328287124633789e-01 1.055464106413696312e-13 2.282379743100831915e-13 1.001353134525567734e-13 -4.582682872772154276e-15
3.305000000000000000e+03 6.526825714111328125e+01 -1.661827468872070312e+01 1.736524098616080286e-14 -2.599148652381033653e-13 -7.276488710617617928e-14 2.556692210102084334e-14
3.306000000000000000e+03 4.322919464111328125e+01 -1.680900001525878906e+01 -8.339311771514423821e-14 -8.149085789846410854e-14 -4.946519268408250403e-14 8.239865360122264337e-14
3.307000000000000000e+03 4.209212875366210938e+01 -1.763726043701171875e+01 -7.153559157795780221e-14 1.752211657018998281e-13 3.110567223718260776e-14 1.614403597784141997e-13
3.308000000000000000e+03 9.077718734741210938e+00 4.689109325408935547e+00 4.926386819911320741e-15 -4.363963888604632801e-14 -1.161397621276356526e-14 3.512547715254880909e-14
3.309000000000000000e+03 8.370782852172851562e+00 4.443867206573486328e+00 1.727821851522579055e-14 -8.409694788420393752e-14 -2.004561745544072848e-14 5.947921598607394666e-14
3.310000000000000000e+03 1.678802108764648438e+01 1.866070151329040527e+00 5.957291138256742835e-15 -3.977676749176289883e-13 -1.175431144561853158e-13 8.799769723663586340e-14
3.311000000000000000e+03 5.829891586303710938e+01 -2.426460075378417969e+01 -1.735703323690190869e-14 1.298141146443762550e-13 3.373712577749501951e-14 1.543716699338015114e-14
3.312000000000000000e+03 5.921121597290039062e+01 -2.357738876342773438e+01 -1.325010793359199246e-13 -3.962957146144176213e-14 -5.163919422276896931e-14 7.141231779094620036e-14
3.313000000000000000e+03 2.588200950622558594e+01 -8.273078918457031250e+00 -1.025105429144565483e-13 -8.968403819066550486e-14 -5.765837297628390035e-14 1.419911687143213253e-13
3.314000000000000000e+03 2.463037014007568359e+00 5.601817607879638672e+00 1.365928125951010666e-14 -2.686517187096976178e-13 -7.649772742340799070e-14 4.159192995979547891e-14
3.315000000000000000e+03 3.204210758209228516e+00 4.769778728485107422e+00 5.151965669808770618e-15 -1.807958080121685462e-13 -5.269315393090570621e-14 -5.859900645234158989e-14
3.316000000000000000e+03 2.532036066055297852e+00 4.073545455932617188e+00 5.045412059066084476e-14 -6.987870026543829827e-14 -5.827374495356299131e-15 -1.043172912960042831e-13
3.317000000000000000e+03 7.129291057586669922e+00 3.393383026123046875e+00 -6.329145378364958718e-14 1.330034173074867709e-13 2.091358566901936611e-14 1.510762272661364536e-13
3.318000000000000000e+03 5.460470676422119141e+00 3.998812913894653320e+00 -5.385025175883191573e-14 -2.032046731190745455e-16 -1.621603750530300342e-14 3.770998727989144025e-15
3.319000000000000000e+03 7.656156539916992188e+00 4.262767791748046875e+00 -3.047919311686617116e-14 -1.045644080761680417e-13 -4.051308103553662165e-14 9.976547853899481177e-14
3.320000000000000000e+03 7.394346714019775391e+00 5.008308887481689453e+00 7.273029766874210267e-15 -4.263393633898056312e-14 -1.060827197163190586e-14 6.321469904610119150e-14
3.321000000000000000e+03 4.725229644775390625e+01 -4.632223606109619141e+00 1.247137514922636373e-14 1.425977256197183407e-13 4.652072997657352715e-14 5.678844642253121078e-14
3.322000000000000000e+03 6.840544891357421875e+01 -8.939151763916015625e+00 1.101464636187911295e-13 7.334698712106735297e-13 2.530849065474766180e-13 1.667246798519456119e-13
3.323000000000000000e+03 6.880023956298828125e+01 -8.191763877868652344e+00 3.768234774778958518e-14 9.311685537222169629e-13 2.906552765396391846e-13 1.000560989313295512e-13
3.324000000000000000e+03 7.213860321044921875e+01 5.982800960540771484e+00 1.668413129006507400e-13 1.078024280086464781e-12 3.734596724751237939e-13 5.766775132507589996e-14
3.325000000000000000e+03 7.144628906250000000e+01 5.115708827972412109e+00 5.183975468401984255e-14 1.394745538681185781e-12 4.339755822497376458e-13 2.790518535103654607e-14
3.326000000000000000e+03 2.403125572204589844e+01 -5.497032642364501953e+00 -1.101085639765991830e-13 -4.718938456139964988e-14 -4.718938456139964988e-14 5.547287211830551068e-14
3.327000000000000000e+03 1.837988376617431641e+00 3.365536928176879883e+00 1.018992629533456429e-13 1.351730142748475139e-13 7.112168384608430483e-14 -4.625233234064295151e-14
3.328000000000000000e+03 2.401307678222656250e+01 -6.623225212097167969e+00 -1.485645916184108462e-13 -1.094214847311043848e-13 -7.739581951672278026e-14 9.810819420318778183e-14
3.329000000000000000e+03 2.453199386596679688e+01 -6.189688205718994141e+00 -6.967699800377452624e-14 -2.986157057304622553e-14 -2.986157057304622553e-14 2.591618258429399801e-14
3.330000000000000000e+03 1.741278266906738281e+01 -1.742696613073348999e-01 5.752935969402170335e-14 -3.413521635492466899e-13 -8.514683505793027574e-14 1.277495226574207332e-13
3.331000000000000000e+03 1.821465301513671875e+01 9.262226223945617676e-01 1.049655289986697881e-13 -4.353997360134059802e-13 -9.913025803866271080e-14 7.324651003998497445e-14
3.332000000000000000e+03 4.080074691772460938e+01 1.791049957275390625e+01 -4.878513364765454940e-14 2.078468283985349108e-13 4.771850910289046621e-14 6.385975677532446711e-16
3.333000000000000000e+03 4.143572998046875000e+01 1.697579765319824219e+01 -4.446853177570223026e-14 2.554477625520829021e-13 6.329376448952969691e-14 -1.198328274717302966e-13
3.334000000000000000e+03 7.676829528808593750e+01 -3.858469486236572266e+00 -1.463710879931467979e-14 -9.777494433668362794e-14 -3.372361729605220793e-14 -1.351246588579546604e-13
3.335000000000000000e+03 7.094500732421875000e+01 -8.254073262214660645e-01 1.219339028617899556e-13 1.173155648147294894e-12 3.885268571712091612e-13 1.293465117999104130e-13
3.336000000000000000e+03 3.399238204956054688e+01 -1.606591796875000000e+01 -1.053413338004439981e-13 -6.802176009956806269e-14 -5.200892749237726043e-14 1.410939626174693637e-14
3.337000000000000000e+03 6.299096679687500000e+01 -1.839275932312011719e+01 5.913251523636739448e-14 2.540972532209806456e-13 9.396892714907262301e-14 1.718756837158427753e-13
3.338000000000000000e+03 7.748746490478515625e+01 3.436763525009155273e+00 7.189991061296724384e-14 -1.979405002535891689e-13 -3.781217418168114630e-14 -2.828000691696558322e-13
3.339000000000000000e+03 2.226830291748046875e+01 -2.342133522033691406e+00 -5.863417526031158844e-14 -1.566629042205197608e-13 -6.458912181137033137e-14 -1.102827817131904475e-13
3.340000000000000000e+03 4.221381759643554688e+01 2.294917869567871094e+01 -6.003207523777977575e-15 2.033064607507087396e-13 5.919098083851867531e-14 -1.403511655447041775e-14
3.341000000000000000e+03 2.237995719909667969e+01 -3.496180295944213867e+00 -3.419387304770885039e-14 -6.040546345455546917e-14 -2.837980162830565367e-14 2.651153663193062809e-14
3.342000000000000000e+03 1.943342399597167969e+01 -1.676914215087890625e+00 -1.640152179653228681e-13 -2.454128548057439574e-14 -5.656695069495600026e-14 1.231800577337904823e-13
3.343000000000000000e+03 1.918393325805664062e+01 -6.033055782318115234e-01 -9.741980036255884490e-14 4.975055469588068879e-14 -1.430077403881662573e-14 1.093582350868670117e-13
3.344000000000000000e+03 7.104405975341796875e+01 1.389615631103515625e+01 -7.329190592376012142e-15 1.369387350909356815e-12 4.086174486880173040e-13 -1.205878929697035140e-13
3.345000000000000000e+03 6.851428222656250000e+01 3.388169479370117188e+01 1.217660819180163556e-13 8.299516130773343381e-13 2.855152908803199052e-13 -2.064229321328825417e-13
3.346000000000000000e+03 6.915345764160156250e+01 3.299300003051757812e+01 8.094066595350918325e-14 9.039568681264154026e-13 2.954692697107463850e-13 -1.429810452978005908e-13
3.347000000000000000e+03 6.737680053710937500e+01 -1.205367469787597656e+01 1.492579118026610141e-13 4.757262292431896356e-13 1.874952423137551949e-13 1.335417236861258239e-13
3.348000000000000000e+03 7.816719818115234375e+01 1.631505012512207031e+01 -2.415385599863206778e-14 -6.966158878039807600e-13 -2.162309231407838483e-13 -1.007713064469367703e-13
3.349000000000000000e+03 7.744287872314453125e+01 1.466770362854003906e+01 3.335571700574177512e-14 -2.602103916452686017e-13 -6.805640035897897455e-14 -1.168043390958536931e-13
3.350000000000000000e+03 7.746237182617187500e+01 2.111013031005859375e+01 1.643968706825649218e-13 -5.243065096666166269e-13 -1.079728957609736584e-13 -9.050079479225314749e-14
3.351000000000000000e+03 7.671405029296875000e+01 1.222968959808349609e+01 7.485999260802359001e-15 -2.712974159560510579e-13 -7.914342466976143076e-14 -3.802687712853585096e-16
3.352000000000000000e+03 7.737784576416015625e+01 2.906635475158691406e+01 2.491391983802703283e-15 -6.165700545610053318e-13 -1.842236080481715610e-13 5.571456449947505274e-14
3.353000000000000000e+03 7.800221252441406250e+01 3.158622360229492188e+01 1.184483165440593580e-14 -6.354369070857290858e-13 -1.870776347419680907e-13 -1.392034443715040731e-14
3.354000000000000000e+03 7.744203186035156250e+01 2.747014045715332031e+01 -1.863288677809906563e-14 -5.798723588974763477e-13 -1.795515775990241814e-13 9.952869556078755564e-14
3.355000000000000000e+03 7.808426666259765625e+01 2.993445396423339844e+01 3.236132404258774964e-14 -6.037686626700344839e-13 -1.714222026046735570e-13 3.343204822681654365e-14
3.356000000000000000e+03 7.818890380859375000e+01 2.353078651428222656e+01 6.017039487103345574e-14 -8.892316679005862756e-13 -2.487183907180084974e-13 4.070786134395543154e-15
3.357000000000000000e+03 7.728711700439453125e+01 3.069510650634765625e+01 -1.258141023478885449e-15 -5.266751119427370842e-13 -1.583799823061393663e-13 3.338848024014157145e-14
3.358000000000000000e+03 7.177004241943359375e+01 2.464029884338378906e+01 1.379034961310893204e-13 1.134248836347218070e-12 3.816456970329867859e-13 -2.822278374274133500e-14
3.359000000000000000e+03 7.818723297119140625e+01 2.668102741241455078e+00 1.782812856761586962e-13 -3.353522700418748448e-13 -4.712130005309934921e-14 -3.856011647138113396e-13
3.360000000000000000e+03 7.747943115234375000e+01 1.818875074386596680e+00 2.831987845185873764e-13 -1.302593016089259592e-13 4.588184690577749858e-14 -2.161511800709975395e-13
3.361000000000000000e+03 7.818686676025390625e+01 -4.562620639801025391e+00 1.156030159836854421e-13 -3.622143817522127662e-13 -7.398341515156905968e-14 1.430627975297377869e-14
3.362000000000000000e+03 7.746785736083984375e+01 -5.418915748596191406e+00 4.051098039382743099e-14 -2.571438342206106009e-13 -6.498985648684812988e-14 -6.895435692702220343e-14
3.363000000000000000e+03 7.820231628417968750e+01 -1.096130180358886719e+01 5.118564196083218165e-14 -1.381916228584273432e-13 -2.610179291402583285e-14 -1.574738874455389182e-13
3.364000000000000000e+03 7.750753784179687500e+01 -1.260602664947509766e+01 2.560132010900884048e-14 3.312286426040977894e-13 1.070489861034265577e-13 -1.301946425018643549e-13
3.365000000000000000e+03 7.818916320800781250e+01 9.081910133361816406e+00 -2.061029874599138584e-14 -3.748405665721099567e-13 -1.186352584095842766e-13 -1.381651412203643847e-13
3.366000000000000000e+03 7.752288818359375000e+01 7.435272216796875000e+00 -6.295423980295228317e-14 -2.786106035549545945e-13 -1.024694516521193477e-13 1.769347980574900031e-14
3.367000000000000000e+03 7.748587036132812500e+01 1.012825608253479004e+00 3.717353573400028477e-13 -2.753188573390713545e-13 2.892495542129031039e-14 -2.351038709145960443e-14
3.368000000000000000e+03 7.749237060546875000e+01 2.113654017448425293e-01 2.794668522206750216e-13 -3.377379756072662609e-13 -1.748134209817505530e-14 -6.782410496132627170e-15
3.369000000000000000e+03 7.746540069580078125e+01 -6.217106819152832031e+00 -2.030229283300766241e-13 -3.615155321368829222e-13 -1.693615408505932951e-13 -1.568182568393097776e-13
3.370000000000000000e+03 7.748322296142578125e+01 9.029035568237304688e+00 -2.079542796100918023e-14 -3.062934834149183549e-13 -9.812667307396508165e-14 5.280144878727806301e-14
3.371000000000000000e+03 7.816099548339843750e+01 1.148484039306640625e+01 2.900101474478901029e-15 -5.248930088318226606e-13 -1.565978791952249427e-13 -1.023563896943198437e-13
3.372000000000000000e+03 7.743762969970703125e+01 1.305568313598632812e+01 4.593275019777569301e-14 -3.005711727687571111e-13 -7.639152982061303554e-14 3.111801477777352380e-15
3.373000000000000000e+03 7.179227447509765625e+01 1.011417961120605469e+01 -2.845621077641156960e-14 1.245955595641223823e-12 3.652497954694661209e-13 7.270907779934748794e-14
3.374000000000000000e+03 7.816236877441406250e+01 1.309216308593750000e+01 1.474844619803357404e-14 -6.113170408252044385e-13 -1.789705807598435117e-13 -1.278605585124104049e-13
3.375000000000000000e+03 7.744066619873046875e+01 1.386152076721191406e+01 5.037942244910838252e-14 -3.215409438272337495e-13 -8.134845471937171557e-14 -1.108856320024102782e-13
3.376000000000000000e+03 7.820059967041015625e+01 4.279201507568359375e+00 8.739515187927704432e-14 -5.115563463282957191e-13 -1.272483502031893088e-13 -3.444558006882036949e-13
3.377000000000000000e+03 7.749781799316406250e+01 4.243936061859130859e+00 -6.737110327080519934e-14 -3.033790124500057583e-13 -1.112250347162432873e-13 1.127500328344799296e-13
3.378000000000000000e+03 7.216641998291015625e+01 4.245936393737792969e+00 5.928010479819582554e-15 1.146314271803505758e-12 3.456726821015471129e-13 1.219889142635823334e-14
3.379000000000000000e+03 7.678818511962890625e+01 3.412384510040283203e+00 1.376403467112999324e-13 -2.383924492272565532e-13 -3.022563211003970185e-14 -9.638515978188308408e-14
3.380000000000000000e+03 7.680296325683593750e+01 4.223740577697753906e+00 2.269235994045108035e-14 1.012271931316761908e-13 3.717586609104477080e-14 -3.612983122316254514e-13
3.381000000000000000e+03 7.818352508544921875e+01 -2.950343608856201172e+00 1.520510198868910146e-13 -1.635900209783283654e-13 -3.461701047409210426e-15 1.137962421911492897e-14
3.382000000000000000e+03 7.223355865478515625e+01 -2.231096982955932617e+00 8.532044970706309517e-14 6.770792151770954614e-13 2.287199021757529982e-13 5.831437627700983284e-14
3.383000000000000000e+03 7.747233581542968750e+01 -3.810346126556396484e+00 9.856426384704380927e-14 -7.213554840262981216e-14 7.928615480357146389e-15 -2.175364245292008003e-14
3.384000000000000000e+03 7.746434783935546875e+01 -2.997380018234252930e+00 -6.131505486716218312e-14 -7.202882902753934835e-14 -4.000316720128953285e-14 -1.199566298073009851e-13
3.385000000000000000e+03 7.747264099121093750e+01 -4.617155551910400391e+00 -1.136715504709839841e-13 -2.317201877426178225e-13 -1.036175201088278264e-13 -1.107700899321412136e-13
3.386000000000000000e+03 7.817168426513671875e+01 1.792761421203613281e+01 -3.289855299531789512e-14 -8.376164345458292360e-13 -2.611545148970689789e-13 -1.000154481261249229e-13
3.387000000000000000e+03 7.744658660888671875e+01 1.628363418579101562e+01 -5.970844343039169444e-14 -3.915969111478734277e-13 -1.353916029853477476e-13 -4.040312599458764642e-14
3.388000000000000000e+03 7.603161621093750000e+01 1.788930130004882812e+01 9.975433836167252322e-14 6.562733348295171631e-14 4.961450087576091406e-14 1.214190220263401676e-14
3.389000000000000000e+03 7.817640686035156250e+01 1.953557968139648438e+01 -3.452883392076645797e-14 -9.298170957142137816e-13 -2.893037643215273791e-13 -1.695882068672785459e-13
3.390000000000000000e+03 7.674063873291015625e+01 1.869785690307617188e+01 -3.471557652179053498e-16 -3.204054317869353685e-13 -9.622577528626413690e-14 -4.217532051408508925e-15
3.391000000000000000e+03 7.745683288574218750e+01 1.951305198669433594e+01 4.115507102318317900e-14 -7.601282342277471127e-13 -2.156919526883141480e-13 5.891679288536066927e-14
3.392000000000000000e+03 7.820087432861328125e+01 -9.358042716979980469e+00 9.320816958969385668e-14 -2.116838605445425792e-13 -3.554270864170733235e-14 3.780680399279555404e-14
3.393000000000000000e+03 7.750180053710937500e+01 -1.100358200073242188e+01 -6.382494901514823571e-14 6.414834619440992758e-14 9.701898172494014981e-17 -1.149729589961998033e-13
3.394000000000000000e+03 7.746966552734375000e+01 -7.013669013977050781e+00 -1.313240728456014500e-14 1.724730011858511408e-14 1.234467617273430230e-15 -1.529786361606153000e-13
3.395000000000000000e+03 7.680798339843750000e+01 -1.023929786682128906e+01 -6.574974668448890780e-14 1.548253306159555476e-13 2.672267653469270754e-14 -2.356212826844922281e-13
3.396000000000000000e+03 7.750106048583984375e+01 -1.020245742797851562e+01 8.863696316632405092e-14 -9.926558002231605782e-14 -3.188584167413007452e-15 -1.042786733698730650e-13
3.397000000000000000e+03 7.749696350097656250e+01 -9.405620574951171875e+00 -9.748220975011254175e-14 -4.177809086094302904e-14 -4.177809086094302904e-14 -2.294024887584955597e-13
3.398000000000000000e+03 7.750272369384765625e+01 -1.180687046051025391e+01 8.940470027718819268e-15 2.670710468099038448e-14 1.069427207379958222e-14 -1.041952169076459933e-14
3.399000000000000000e+03 7.818987274169921875e+01 2.432697868347167969e+01 -4.763787156631185682e-14 -8.896842680974903494e-13 -2.811966425767670197e-13 3.401818570895409968e-15
3.400000000000000000e+03 7.747126770019531250e+01 2.270876312255859375e+01 1.390594453823390531e-13 -5.351654449453624451e-13 -1.188317971584015864e-13 2.114100046282998968e-14
3.401000000000000000e+03 7.390840148925781250e+01 2.368054771423339844e+01 1.097468538030672847e-13 5.502947815309855439e-13 1.980124912778422064e-13 3.752438287939023620e-14
3.402000000000000000e+03 7.818376922607421875e+01 2.592310905456542969e+01 4.308704475565298952e-14 -6.906738093774567044e-13 -1.942760324358597246e-13 -5.863152574125257699e-14
3.403000000000000000e+03 7.821836090087890625e+01 -1.496312522888183594e+01 -4.602116349681009688e-14 3.691596995539919712e-13 9.694156556053906693e-14 -1.218856829701686628e-13
3.404000000000000000e+03 7.747639465332031250e+01 2.350498199462890625e+01 -1.049327657642699918e-13 -7.769863853875069726e-13 -2.645757419574013003e-13 -8.303751973135972686e-14
3.405000000000000000e+03 7.678519439697265625e+01 2.507315063476562500e+01 1.064848147267101475e-13 -1.831183994585941499e-13 -2.299007338668612732e-14 -3.908759234794341453e-14
3.406000000000000000e+03 7.746635437011718750e+01 2.190897178649902344e+01 -3.135424930214743278e-14 -7.454526904614178218e-13 -2.330421012414207738e-13 -1.589182751322512632e-13
3.407000000000000000e+03 7.753749847412109375e+01 -1.659705543518066406e+01 5.950565696655543690e-14 4.601364319949119430e-13 1.558926327870774342e-13 -1.224029422741343409e-13
3.408000000000000000e+03 7.753747558593750000e+01 -1.740743827819824219e+01 -1.266215237993644979e-14 3.148300034300915984e-13 9.065035370568394479e-14 -8.844285709613125546e-14
3.409000000000000000e+03 7.752905273437500000e+01 -1.499434089660644531e+01 9.106720911221388715e-14 3.135344902541886691e-13 1.213805125204261981e-13 -5.268153602700116622e-14
3.410000000000000000e+03 7.753426361083984375e+01 -1.579349422454833984e+01 -6.050651109703111818e-14 1.570724344861218480e-13 2.896977701672721894e-14 -1.923219613078619439e-13
3.411000000000000000e+03 7.751527404785156250e+01 -1.340119266510009766e+01 1.094363497358122241e-15 1.148463783925621207e-13 3.478222552100347642e-14 -9.411657515617441461e-14
3.412000000000000000e+03 7.824801635742187500e+01 -1.898013114929199219e+01 4.653146018994934463e-14 1.800703683385584952e-13 6.798055364075003548e-14 -8.858781323252667289e-15
3.413000000000000000e+03 7.760250091552734375e+01 -1.983282089233398438e+01 7.991673864555029483e-14 2.401293140025240191e-13 9.601381376154322078e-14 -1.284168084370040930e-13
3.414000000000000000e+03 7.753951263427734375e+01 -1.822067070007324219e+01 8.939715151956226236e-14 2.213168613218047254e-13 9.321420046427830730e-14 -1.395578260159763273e-13
3.415000000000000000e+03 7.761788940429687500e+01 -2.134462928771972656e+01 -6.092817087443788693e-14 1.963887562230100248e-14 -1.238678874504765479e-14 -7.140119116615106787e-14
3.416000000000000000e+03 7.731772613525390625e+01 -2.273292541503906250e+01 6.378664957340518527e-14 2.103409270761205652e-13 8.223827299485772513e-14 7.573116938240642693e-14
3.417000000000000000e+03 7.710826110839843750e+01 3.335527420043945312e+01 1.552340849993779498e-14 -2.678527972338473617e-13 -7.569881950008489069e-14 1.716010282004978849e-13
3.418000000000000000e+03 7.796633911132812500e+01 3.416897201538085938e+01 2.965295991066464742e-14 -4.905520434306254174e-13 -1.382697260724277677e-13 1.719899857298770596e-13
3.419000000000000000e+03 7.742908477783203125e+01 3.578362655639648438e+01 4.682667488898999142e-15 -2.724988474884365575e-13 -8.034484942588335232e-14 1.847750603781520007e-13
3.420000000000000000e+03 7.635643005371093750e+01 3.238854217529296875e+01 2.050190309269830577e-15 -3.422534608152338897e-13 -1.020609784836354339e-13 2.842206179611006522e-13
3.421000000000000000e+03 7.113956451416015625e+01 2.120701789855957031e+01 1.668365194353231096e-16 1.578479209320138299e-12 4.735938204103451454e-13 -1.728097984263383957e-14
3.422000000000000000e+03 7.184485626220703125e+01 2.122268676757812500e+01 8.487004501955830449e-14 1.271648476623699064e-12 4.069555564929772107e-13 -8.503852326089897384e-14
3.423000000000000000e+03 2.619080543518066406e+00 2.389758682250976562e+01 3.374770013680854219e-14 -3.128764879557072165e-14 7.380154658988172071e-16 2.157666000078897750e-14
3.424000000000000000e+03 3.783822059631347656e+00 3.728445434570312500e+01 -5.440123652662547105e-14 2.243613416797254900e-14 -9.589531046409055515e-15 7.503278055299988925e-14
3.425000000000000000e+03 1.761699318885803223e+00 1.278757381439208984e+01 1.702947034960562017e-14 -2.214563981414036098e-13 -6.132807884575916524e-14 -7.691442019961206022e-14
3.426000000000000000e+03 2.487705230712890625e+00 1.424482536315917969e+01 3.764914066812542759e-14 6.188629388679048327e-14 2.986063206054066776e-14 1.855198454372443927e-15
3.427000000000000000e+03 3.175852060317993164e+00 1.332843780517578125e+01 1.421044542888189044e-13 1.981547521553994606e-13 1.020777632885182251e-13 -2.387129935995518926e-14
3.428000000000000000e+03 2.433825016021728516e+00 1.030606079101562500e+01 2.111700740756606437e-14 -3.112064913494277940e-13 -8.702684840128371846e-14 -1.805770058493656044e-14
3.429000000000000000e+03 2.447192668914794922e+00 1.187189292907714844e+01 6.647950283799816673e-14 -1.087616325126661287e-13 -1.268463686952131519e-14 2.293939709951779704e-15
3.430000000000000000e+03 2.459877490997314453e+00 1.265983104705810547e+01 1.451106487575237747e-13 1.079412235050099256e-13 7.591556506689189909e-14 -3.699171435204810787e-14
3.431000000000000000e+03 2.454088926315307617e+00 7.169688701629638672e+00 8.290464397885805026e-14 -1.017222872774781184e-13 -5.645292057849778458e-15 -1.960413880113410362e-14
3.432000000000000000e+03 2.550222635269165039e+00 2.066342353820800781e+01 -2.118743142086668141e-14 -9.080327025771765814e-15 -9.080327025771765814e-15 3.430349943987429095e-14
3.433000000000000000e+03 2.474094867706298828e+00 1.345055675506591797e+01 -4.613029522173434094e-15 4.377393765389939184e-14 1.174827243951778732e-14 -1.798412730313805191e-14
3.434000000000000000e+03 1.738461852073669434e+00 9.623148918151855469e+00 -3.645739580452472817e-14 -1.986283994269769093e-13 -7.052573856945049124e-14 -5.465216495505187400e-14
3.435000000000000000e+03 2.445267915725708008e+00 8.740487098693847656e+00 -1.295508517221719350e-15 -3.208118720763458720e-13 -9.663220879941106234e-14 3.279414686720638281e-15
3.436000000000000000e+03 2.709826946258544922e+00 2.794137382507324219e+01 -3.243520903251084775e-14 -1.969045992878878937e-13 -6.880194520662505364e-14 1.569074731255781785e-13
3.437000000000000000e+03 1.773818492889404297e+00 4.906053543090820312e+00 2.060080181258677062e-14 -2.199258299345058232e-13 -5.979751063886137863e-14 -1.823599424407001263e-14
3.438000000000000000e+03 4.726130962371826172e+00 3.984730243682861328e+00 -3.284303845595484828e-14 5.455083609763773655e-14 6.512338699581803406e-15 7.239020038789234501e-14
3.439000000000000000e+03 3.236818313598632812e+00 1.650987815856933594e+01 -4.955854672629824223e-15 2.723817536538081230e-13 8.022776914378207391e-14 1.204201753639494790e-14
3.440000000000000000e+03 2.529585361480712891e+00 1.825271034240722656e+01 -7.790756294213593836e-14 5.811293828962560415e-14 -5.938387056939921360e-15 2.649806711400339021e-14
3.441000000000000000e+03 2.534838676452636719e+00 1.905513381958007812e+01 -1.015468430371792297e-13 4.798182115300572703e-14 -1.606950588762569299e-14 7.663993070272483166e-15
3.442000000000000000e+03 1.813579916954040527e+00 2.000235176086425781e+01 -1.845900616062080835e-14 1.496447178683541629e-14 -1.048360290959793936e-15 5.008513228652966380e-16
3.443000000000000000e+03 2.541039943695068359e+00 1.985854148864746094e+01 -4.770235787865222121e-14 -6.619481845255778540e-14 -3.416915323817618089e-14 6.330625991956759235e-14
3.444000000000000000e+03 1.795767784118652344e+00 1.679054832458496094e+01 -1.408476708473962308e-14 -2.891180269368534561e-14 -1.289897093352749061e-14 4.977371257665862136e-14
3.445000000000000000e+03 2.507331371307373047e+00 1.584410095214843750e+01 -8.766671741843035104e-14 -3.757145080620326316e-14 -3.757145080620326316e-14 -4.454129529400316367e-14
3.446000000000000000e+03 2.685356616973876953e+00 2.710885620117187500e+01 3.528139558934759168e-14 -5.350582444555579409e-14 -5.467328318049281821e-15 8.566113313471235280e-14
3.447000000000000000e+03 2.634706020355224609e+00 2.469907569885253906e+01 -3.511694583670406378e-14 -1.523029613667223336e-13 -5.622597249984109813e-14 6.573828124651487359e-14
3.448000000000000000e+03 2.647398948669433594e+00 2.549548149108886719e+01 7.609066371774830806e-14 7.836123378868534162e-14 4.633556857430373710e-14 1.642884640178435274e-13
3.449000000000000000e+03 1.916105747222900391e+00 2.725080490112304688e+01 -2.814318975075374291e-14 -3.094425215198481904e-13 -1.012757179551584952e-13 6.626464107246585189e-14
3.450000000000000000e+03 3.317610263824462891e+00 2.956740570068359375e+01 1.373153977676788706e-13 -1.241543353585131126e-13 3.948320416815621903e-15 4.200145344913398804e-14
3.451000000000000000e+03 1.863153576850891113e+00 2.403472137451171875e+01 -6.086921907537488213e-15 -3.228653238859791053e-13 -9.868567416157145167e-14 1.016254476946844287e-13
3.452000000000000000e+03 1.850757241249084473e+00 2.322755813598632812e+01 2.593302159928541351e-14 1.111415223498416968e-14 1.111415223498416968e-14 -4.705447931795635197e-14
3.453000000000000000e+03 2.579007148742675781e+00 2.227793502807617188e+01 5.904134060992494160e-14 -6.619846408236276791e-14 -2.147138735797242404e-15 5.070877257592337761e-14
3.454000000000000000e+03 2.981087207794189453e+00 3.457673645019531250e+01 -4.579672009457844140e-14 7.187473001751126800e-14 7.823403823912795235e-15 4.967334256054077579e-14
3.455000000000000000e+03 3.073934555053710938e+00 3.290066146850585938e+01 -1.836998469193027589e-14 -9.937474562855819205e-14 -3.532341858792677203e-14 1.793907192660770117e-14
3.456000000000000000e+03 3.083684206008911133e+00 3.377716064453125000e+01 7.151065492799063561e-14 2.365266999187348729e-13 9.241120645401765255e-14 1.843101129819758009e-15
3.457000000000000000e+03 2.755183219909667969e+00 3.117072868347167969e+01 6.290616178934965545e-16 -4.548134939952493128e-14 -1.345568672624216852e-14 6.603760913754738726e-14
3.458000000000000000e+03 2.633141517639160156e+00 2.956771469116210938e+01 -2.422233014208810542e-14 -1.038099863232347375e-14 -1.038099863232347375e-14 1.492367292027160786e-13
3.459000000000000000e+03 1.999638199806213379e+00 3.132529258728027344e+01 -3.480868344214391175e-14 9.945936760812068567e-14 1.939520457216667437e-14 -6.737630066496955172e-14
3.460000000000000000e+03 1.073648571968078613e+00 4.199060440063476562e+00 3.068538465315039099e-14 -3.260006874910084673e-14 -5.744048052686630962e-16 -1.384925804408503741e-14
3.461000000000000000e+03 7.114962005615234375e+01 1.794827270507812500e+01 4.214209564672903932e-15 1.328583618988299353e-12 3.998393413237599781e-13 5.430498986689485941e-14
3.462000000000000000e+03 7.185346984863281250e+01 2.040326499938964844e+01 6.598246390454934329e-14 1.240678349986867879e-12 3.919982556870732493e-13 -3.127196174538757201e-14
3.463000000000000000e+03 7.673326873779296875e+01 1.626633453369140625e+01 5.836729889555428152e-14 -3.638684947966652761e-13 -9.165036080321237177e-14 -2.535543787936570502e-15
3.464000000000000000e+03 7.144651031494140625e+01 4.268189430236816406e+00 7.109365721992555454e-14 1.608876443529028144e-12 5.039910546192349905e-13 1.470848318358211615e-13
3.465000000000000000e+03 7.115132141113281250e+01 1.876188659667968750e+01 5.138294642743380936e-14 1.463176151419998128e-12 4.543677174957683196e-13 1.853130686011936201e-13
3.466000000000000000e+03 7.185887908935546875e+01 1.958682250976562500e+01 3.125626453080905531e-14 1.180044777171485038e-12 3.633903074284905443e-13 -6.204950866539691440e-15
3.467000000000000000e+03 7.186049652099609375e+01 1.876956367492675781e+01 -3.176921413113910353e-14 1.153033831607919169e-12 3.363793889699789874e-13 -1.530907968753589254e-13
3.468000000000000000e+03 4.641586303710937500e+01 3.124774360656738281e+01 7.298607112562680022e-14 2.142835334086740096e-13 8.618088610367474756e-14 7.912722262354635050e-14
3.469000000000000000e+03 7.179096984863281250e+01 1.469863891601562500e+01 5.047296537967135843e-14 1.348408797813283044e-12 4.196645201487436694e-13 -1.388727051106555810e-13
3.470000000000000000e+03 7.183626556396484375e+01 1.631862258911132812e+01 1.072968143912660099e-14 1.422877874551753408e-12 4.300822664584508237e-13 -1.353854501380188924e-13
3.471000000000000000e+03 7.290165710449218750e+01 4.227390289306640625e+00 9.886361884313063508e-14 1.071766481987312947e-12 3.511890214399904231e-13 -1.949484444588398674e-14
3.472000000000000000e+03 7.183420562744140625e+01 2.205127716064453125e+01 1.436952905839797290e-13 1.251108374886178431e-12 4.184411064173110262e-13 -1.145613009838342133e-13
3.473000000000000000e+03 4.316160583496093750e+01 5.350667476654052734e+00 9.677192180186297565e-15 1.414002107676809450e-13 4.532322190079970947e-14 -1.080223692613568875e-13
3.474000000000000000e+03 4.325992202758789062e+01 3.638531446456909180e+00 1.716391141899382272e-14 -3.839498705950072921e-14 -6.369322268635598319e-15 -4.158593381356186572e-15
3.475000000000000000e+03 7.175232696533203125e+01 1.086930942535400391e+01 -9.008515911316725133e-14 1.196667656459815543e-12 3.319747634341480014e-13 5.135015269984791186e-14
3.476000000000000000e+03 4.211867904663085938e+01 7.612451076507568359e+00 8.314706480836223101e-14 1.042608789017171467e-13 5.622238446827652891e-14 -2.503709791031559495e-14
3.477000000000000000e+03 4.244472885131835938e+01 6.839357376098632812e+00 -5.015731346967935989e-14 8.144364089385236483e-14 9.385899243691438187e-15 -6.198429898691959483e-14
3.478000000000000000e+03 3.539744949340820312e+01 -1.614758682250976562e+01 -1.594461087955304640e-14 -5.258435424289678584e-14 -2.055868902851518132e-14 1.652565345851286782e-13
3.479000000000000000e+03 6.452080535888671875e+01 -2.076682662963867188e+01 -2.840508319008894222e-13 4.411111775327880569e-14 -7.198191695478861618e-14 8.833915993459659499e-14
3.480000000000000000e+03 6.456860351562500000e+01 -1.928646087646484375e+01 -1.331420596602933548e-13 1.259429165774081372e-13 -2.159741527261202325e-15 8.585323343088605008e-14
3.481000000000000000e+03 4.279599380493164062e+01 6.084068775177001953e+00 3.958511578423806743e-14 9.702920975365736389e-14 4.098429901662134500e-14 -4.413358784330356777e-14
3.482000000000000000e+03 7.054830169677734375e+01 -2.004119873046875000e+01 -7.035626421736385083e-14 2.443530133008214866e-13 5.219902540266364854e-14 -4.901171834917686376e-14
3.483000000000000000e+03 6.530600738525390625e+01 -1.566529369354248047e+01 9.352002679208215596e-14 -1.429237858705662001e-13 -1.482112840117157104e-14 1.114326560441424724e-14
3.484000000000000000e+03 6.888466644287109375e+01 -6.413722515106201172e+00 1.035549142096303665e-13 1.005150606844806838e-12 3.326116508953202988e-13 2.448230420476482649e-13
3.485000000000000000e+03 4.272209167480468750e+01 2.192242622375488281e+01 -3.167272352591968265e-14 -1.357402400523717231e-14 -1.357402400523717231e-14 4.180488759526236608e-14
3.486000000000000000e+03 4.168273544311523438e+01 2.128399848937988281e+01 -1.619967113469615583e-14 3.880823410567536824e-14 6.782568467777290097e-15 3.350991765972352598e-14
3.487000000000000000e+03 6.984580230712890625e+01 -4.104939460754394531e+00 6.653413985122785812e-14 1.035035555527197282e-12 3.304708937057476703e-13 3.779887102102474916e-13
3.488000000000000000e+03 7.049298095703125000e+01 -4.349180698394775391e+00 1.502127957610233100e-13 8.421430328260648412e-13 2.977067377341047205e-13 1.620700508476666246e-13
3.489000000000000000e+03 4.796599197387695312e+01 -6.743353366851806641e+00 6.585050972389427937e-14 2.112254463134885518e-13 8.312278545596213375e-14 -1.034047928663225924e-13
3.490000000000000000e+03 2.738544464111328125e+01 -1.100949192047119141e+01 -1.704899784717162081e-13 -2.731618235643842874e-14 -5.934184757082003325e-14 1.024630074254566370e-13
3.491000000000000000e+03 2.703125572204589844e+01 -1.033140850067138672e+01 -1.342682746669626725e-13 -5.754354241369052936e-14 -5.754354241369052936e-14 1.016701303767179876e-13
3.492000000000000000e+03 4.034272766113281250e+01 1.352896595001220703e+01 -3.114006177484113236e-14 2.382844897959313091e-13 6.214332434056890619e-14 -8.397788893313787306e-14
3.493000000000000000e+03 3.696697998046875000e+01 -1.699746513366699219e+01 -1.438461573162810869e-13 1.213554403451874708e-13 -6.747215006624790110e-15 2.266664740830422881e-14
3.494000000000000000e+03 3.421965026855468750e+01 -1.538319873809814453e+01 -5.284165574721833014e-14 2.310452447851912838e-14 -8.921139888829528880e-15 8.348982854892994521e-14
3.495000000000000000e+03 6.111820220947265625e+01 -2.165845870971679688e+01 -3.937707771612883323e-14 5.999584340346097305e-15 -1.001324741981175770e-14 4.787634522228183254e-14
3.496000000000000000e+03 4.098229217529296875e+01 1.876152992248535156e+01 8.535832118540954538e-16 1.376186626678502223e-13 4.154167380096898676e-14 4.423446946732155494e-14
3.497000000000000000e+03 6.945835876464843750e+01 3.073245811462402344e+01 2.638681645145829480e-13 1.119607228108887576e-12 4.150426204975465883e-13 -2.841318760132827137e-13
3.498000000000000000e+03 6.918917083740234375e+01 3.459189987182617188e+01 -6.394653551252890700e-14 7.046095477913905114e-13 1.921988908087576831e-13 -5.307868944717797355e-14
3.499000000000000000e+03 4.884561538696289062e+01 -9.630512237548828125e+00 2.833370270718428563e-14 1.265203897595282290e-13 4.645622672357421767e-14 -1.891659436514467330e-13
3.500000000000000000e+03 6.985769653320312500e+01 -5.902853965759277344e+00 1.421163805127162449e-13 9.301750992715684951e-13 3.216874195407365411e-13 1.702276015459747160e-13
3.501000000000000000e+03 6.794998931884765625e+01 -2.068349266052246094e+01 -2.700830011026500443e-13 2.045067809758674415e-13 -1.967286705447431755e-14 -1.582086241527780324e-13
3.502000000000000000e+03 6.929787445068359375e+01 -2.000213813781738281e+01 -1.344767802972587911e-13 1.253708915112047850e-13 -2.731768711046922600e-15 -1.293848654517620878e-13
3.503000000000000000e+03 4.543165206909179688e+01 -5.296658277511596680e-01 1.178763304413715796e-13 7.339390054907080074e-14 5.738106794187999848e-14 2.924313148946512675e-14
3.504000000000000000e+03 4.607188796997070312e+01 -1.898360371589660645e+00 2.445964844511802627e-14 1.019846032168474081e-13 3.793327617621598813e-14 -9.250337549714018198e-15
3.505000000000000000e+03 7.133022308349609375e+01 7.651495933532714844e+00 1.393859799716373749e-13 1.615269116378437175e-12 5.263965261945169338e-13 -4.584594626134107231e-14
3.506000000000000000e+03 4.328820419311523438e+01 2.661261940002441406e+01 -2.656907219190582370e-14 8.011515441937872017e-14 1.606382399061551114e-14 1.255567373160959566e-13
3.507000000000000000e+03 6.917359161376953125e+01 -7.433672904968261719e+00 1.055757721914532543e-13 6.857600425014265255e-13 2.374007566051383744e-13 2.114526544312600453e-13
3.508000000000000000e+03 6.952493286132812500e+01 -6.670334339141845703e+00 4.926528952039870013e-14 9.361326817891590935e-13 2.956193775015270031e-13 1.652066070750857207e-13
3.509000000000000000e+03 6.715253448486328125e+01 -1.108639526367187500e+01 1.684840824798736203e-13 6.440943156431344629e-13 2.437735343446822966e-13 1.448064216279243421e-13
3.510000000000000000e+03 4.569402313232421875e+01 2.855280494689941406e+01 1.506471135987938470e-14 2.352110476874780254e-13 7.508272839183358083e-14 8.681160038872745566e-14
3.511000000000000000e+03 7.016993713378906250e+01 2.897530174255371094e+01 2.455070380932150576e-13 1.386243875765857947e-12 4.895252497631730204e-13 -3.711313212046568610e-13
3.512000000000000000e+03 7.748020172119140625e+01 2.429668807983398438e+01 7.997203126228116105e-15 -6.828368708140797327e-13 -2.024518925983556650e-13 -1.983477062607839903e-14
3.513000000000000000e+03 7.066867065429687500e+01 2.722532272338867188e+01 1.250782924499052595e-13 1.471884354849184451e-12 4.790888280710448033e-13 -2.963685340976601745e-13
3.514000000000000000e+03 7.804520416259765625e+01 -2.292238807678222656e+01 8.433194870509017060e-14 3.106479646002718864e-13 1.184939733139822593e-13 -3.802836070674296687e-14
3.515000000000000000e+03 6.756656646728515625e+01 -1.806872177124023438e+01 -6.899468247157508616e-14 6.193275194988148713e-14 -2.118579114156432346e-15 -1.055598276432541394e-13
3.516000000000000000e+03 4.213528823852539062e+01 5.823445320129394531e+00 -1.234891366681117875e-13 -1.861070467927637001e-14 -4.262995189599667889e-14 -7.612427398509535870e-14
3.517000000000000000e+03 7.112940979003906250e+01 2.834873962402343750e+01 2.247032583873459499e-13 1.274388363933787183e-12 4.497274677228019213e-13 -2.184819436912982527e-13
3.518000000000000000e+03 7.177517700195312500e+01 -2.043645828962326050e-02 8.303960682054176146e-14 1.042109324181361707e-12 3.375446623599120954e-13 -2.801599420119635364e-14
3.519000000000000000e+03 4.122055816650390625e+01 1.095451354980468750e+01 -5.118130854027402865e-14 1.153180063375933151e-13 1.924100730631671252e-14 -1.141413352723219532e-13
3.520000000000000000e+03 4.136837387084960938e+01 1.008211421966552734e+01 1.399606477806361604e-13 2.887378921026528822e-13 1.286095524782177035e-13 -6.573611284216990258e-14
3.521000000000000000e+03 4.143243789672851562e+01 2.044384956359863281e+01 3.265269998831143994e-14 1.512468535830313598e-13 5.516986810428191335e-14 -3.091624178885865604e-14
3.522000000000000000e+03 4.119501495361328125e+01 1.960309600830078125e+01 -2.691616427083400737e-14 5.709092188799572143e-14 9.052428301588050924e-15 -8.753775834627677832e-14
3.523000000000000000e+03 3.016657447814941406e+01 -1.503903961181640625e+01 -1.280405496255701547e-13 -2.607537937741183365e-13 -1.166383070856646942e-13 -5.679057332226176633e-15
3.524000000000000000e+03 7.127111816406250000e+01 1.746974110603332520e+00 1.267253175226551454e-13 1.541216698534852991e-12 5.003826129487687346e-13 1.093635544537757687e-13
3.525000000000000000e+03 4.145154571533203125e+01 7.387801170349121094e+00 -1.547706224519582868e-14 1.534952991533861111e-13 4.140547090305049527e-14 -1.549156239046163824e-15
3.526000000000000000e+03 7.043187713623046875e+01 3.251914215087890625e+01 4.743410254425678430e-14 8.667214623954422326e-13 2.742466627056461270e-13 -1.086615132183006704e-13
3.527000000000000000e+03 4.750683212280273438e+01 3.234495162963867188e+01 3.006255116263893690e-14 1.615745297972592809e-13 5.749112801491443325e-14 6.703334718902165257e-14
3.528000000000000000e+03 1.361085987091064453e+01 2.928585052490234375e+00 -5.243910503310161841e-14 -1.768833560525373549e-13 -6.879673425993354519e-14 -1.180207427826148597e-14
3.529000000000000000e+03 1.064545154571533203e+01 3.357938528060913086e+00 -2.849214869029767505e-14 -2.867166139924881563e-13 -9.456262948246210720e-14 -9.773842705226160055e-14
3.530000000000000000e+03 7.172974395751953125e+01 -9.365182518959045410e-01 1.550647495606946591e-13 9.814753176851098715e-13 3.409620133974777811e-13 9.105570301665838473e-14
3.531000000000000000e+03 2.666495895385742188e+01 -9.650666236877441406e+00 -1.359344359080569276e-13 -5.825761151701663865e-14 -5.825761151701663865e-14 8.793649402399905668e-14
3.532000000000000000e+03 5.588949584960937500e+01 -2.286294746398925781e+01 -1.252743517780744234e-14 -1.197462674807844851e-13 -3.968211122109405187e-14 7.943666747610086953e-14
3.533000000000000000e+03 5.694622421264648438e+01 -2.361189460754394531e+01 -6.608086880422955889e-14 -5.444898038573040694e-15 -2.145772979873089570e-14 -1.394921775744323300e-13
3.534000000000000000e+03 7.081223297119140625e+01 -3.557948350906372070e+00 9.536594197711092957e-14 9.558900979783624408e-13 3.153768207957846625e-13 1.176698305850945592e-13
3.535000000000000000e+03 7.181550598144531250e+01 1.550563716888427734e+01 -8.414977563505829372e-14 1.199211411596901034e-12 3.345184914661791797e-13 -1.264085797164247668e-14
3.536000000000000000e+03 6.799449157714843750e+01 -9.672865867614746094e+00 1.948491213754448281e-14 6.946148842744415131e-13 2.142299467162989135e-13 1.866380991812424672e-13
3.537000000000000000e+03 4.299738693237304688e+01 2.274072456359863281e+01 1.049527421892980372e-13 3.652363784675816127e-13 1.410567355194375372e-13 6.994607665419469433e-14
3.538000000000000000e+03 7.181870269775390625e+01 2.288888359069824219e+01 1.199124485687722008e-13 1.355293047927697003e-12 4.425616503041934768e-13 4.271180577188754546e-14
3.539000000000000000e+03 4.248394393920898438e+01 2.379494285583496094e+01 7.249555095774004587e-14 3.055752265807010204e-13 1.134212285181478153e-13 2.204802875373831211e-14
3.540000000000000000e+03 7.114917755126953125e+01 -2.743567943572998047e+00 9.762331188659795211e-14 1.002608478010980075e-12 3.300695491665478487e-13 1.192517764224410026e-13
3.541000000000000000e+03 6.724042510986328125e+01 3.567457199096679688e+01 7.393498519577684780e-14 6.378864992641342102e-13 2.135464385617097394e-13 -2.538157401268947844e-13
3.542000000000000000e+03 4.932757186889648438e+01 3.383510971069335938e+01 2.039210305877867807e-14 2.374942148324066249e-13 7.736589553676218034e-14 -2.305356358828052066e-14
3.543000000000000000e+03 4.790377044677734375e+01 3.348067855834960938e+01 8.801875786383639433e-14 1.063487473540632167e-13 5.831024953249080989e-14 7.437520515912385277e-14
3.544000000000000000e+03 2.545720672607421875e+01 -7.579551219940185547e+00 4.576428550896217973e-14 2.941189501150243135e-13 1.019649723812618425e-13 1.885631712892580497e-14
3.545000000000000000e+03 6.757419586181640625e+01 -1.039020633697509766e+01 1.420536187594564903e-13 6.098915318088204973e-13 2.255835356837140870e-13 1.947114480283299032e-13
3.546000000000000000e+03 4.948917388916015625e+01 -1.555027484893798828e+01 2.828310502467346055e-13 -6.179049107232423288e-14 6.631216300893860716e-14 1.254676023449904920e-13
3.547000000000000000e+03 4.275175857543945312e+01 2.466940498352050781e+01 2.608606520626121500e-14 1.026816367935383389e-13 3.863031314103870795e-14 1.608086798758016217e-14
3.548000000000000000e+03 2.350513648986816406e+01 -4.815462589263916016e+00 5.920487217885364584e-14 -1.118793303985475551e-13 -1.580233814353453059e-14 1.453922431667725723e-13
3.549000000000000000e+03 7.249800109863281250e+01 2.375531005859375000e+01 1.367668456785098297e-13 9.965088650087938760e-13 3.399827077851802493e-13 2.374806961865684463e-14
3.550000000000000000e+03 7.158167266845703125e+01 2.651489639282226562e+01 1.245838420491432452e-13 1.105664930271810231e-12 3.690746167885061713e-13 -1.722394064396573499e-13
3.551000000000000000e+03 1.636832046508789062e+01 1.306797146797180176e+00 -1.094650561059111460e-13 4.458830223444398833e-14 -1.946302650025332620e-14 9.601074411414237120e-14
3.552000000000000000e+03 1.565783405303955078e+01 1.729465723037719727e+00 -1.331380752173094706e-13 -2.858139072636767253e-13 -1.256855947442958588e-13 1.379692258877962541e-13
3.553000000000000000e+03 1.850117301940917969e+01 -1.033634245395660400e-01 6.373916829451389821e-14 1.188186783121145118e-13 5.476735465961488081e-14 -4.595645441480460461e-15
3.554000000000000000e+03 2.178063011169433594e+01 -2.865620613098144531e+00 3.181491325270936754e-14 5.938591361286799097e-14 2.736024670442049195e-14 1.121983297827471027e-13
3.555000000000000000e+03 2.116029167175292969e+01 -2.262477636337280273e+00 -5.961137345463635162e-14 2.020321640560686360e-14 -1.182244796174179366e-14 -3.500940314558886879e-14
3.556000000000000000e+03 1.985821723937988281e+01 -1.131791472434997559e+00 1.791291724326238288e-14 7.676964532826735521e-15 7.676964532826735521e-15 6.384332539493891776e-15
3.557000000000000000e+03 7.171263122558593750e+01 2.557254028320312500e+01 1.900667665789834704e-13 1.293857382345109386e-12 4.451772338352061320e-13 -1.550242275044980134e-13
3.558000000000000000e+03 7.211893463134765625e+01 6.846990108489990234e+00 1.417509501704800057e-13 1.318901476747569301e-12 4.381957307859202233e-13 -5.606497864162236777e-14
3.559000000000000000e+03 6.281307601928710938e+01 -1.994099426269531250e+01 -1.711641353825676948e-13 2.011496302639290135e-13 8.995648295001806155e-15 1.063965335648155153e-13
3.560000000000000000e+03 4.097548675537109375e+01 -1.761069488525390625e+01 -1.264292625669308223e-13 1.745707799236800861e-13 1.444245385177206353e-14 2.763425610303321678e-13
3.561000000000000000e+03 5.591292953491210938e+01 3.676132583618164062e+01 9.684854779040338868e-14 1.330084181900073603e-13 6.895708776124415129e-14 1.177611780062582519e-14
3.562000000000000000e+03 7.183640289306640625e+01 8.476372957229614258e-01 1.061252187474145958e-13 1.235006888422596205e-12 4.023396470587831120e-13 2.072392313366786670e-14
3.563000000000000000e+03 5.908730316162109375e+01 -2.250971221923828125e+01 -1.949120931928755018e-13 -3.469592641620541928e-15 -5.951450676678834983e-14 4.803096261647363252e-14
3.564000000000000000e+03 5.249129104614257812e+01 -1.549377822875976562e+01 4.996455723119130887e-13 2.598847786278168925e-13 2.278590998609081320e-13 -1.283375803632497147e-13
3.565000000000000000e+03 5.167208099365234375e+01 -1.431626701354980469e+01 2.687237368390049674e-13 2.981711286296345742e-13 1.700684542195810001e-13 -2.499483638725846779e-13
3.566000000000000000e+03 5.796892166137695312e+01 -2.291942405700683594e+01 -1.925390592403750101e-14 8.325022664507422676e-14 1.919889452224512322e-14 1.792609301016351298e-13
3.567000000000000000e+03 5.834237670898437500e+01 -2.373041152954101562e+01 -1.276699286654331411e-13 -1.004666320839411875e-13 -6.844097364582316101e-14 9.830911719454007991e-14
3.568000000000000000e+03 6.605484008789062500e+01 -1.433251094818115234e+01 7.960852707296697806e-14 4.115632802007690438e-13 1.473515455702525956e-13 1.849050426661058566e-13
3.569000000000000000e+03 1.495883560180664062e+01 2.134724140167236328e+00 -1.609693959072136527e-13 -1.147378362025691656e-13 -8.271217098818756108e-14 3.855874902139108662e-14
3.570000000000000000e+03 7.203508758544921875e+01 2.531371593475341797e+00 4.250071160890461774e-14 1.207739312204803017e-12 3.750719895258269876e-13 5.512508039016289496e-14
3.571000000000000000e+03 7.014603424072265625e+01 3.112054443359375000e+01 1.401565631132042911e-13 1.112338953584979251e-12 3.757486401016751909e-13 -1.685950912298089799e-13
3.572000000000000000e+03 7.175568389892578125e+01 -2.067772293090820312e+01 -5.432879826897628328e-14 1.597200290862771377e-13 3.161736822875071962e-14 -8.610116336267917281e-14
3.573000000000000000e+03 7.143778991699218750e+01 -2.137334251403808594e+01 -2.689665981256417204e-13 1.821097661775308851e-13 -2.605704585748828267e-14 -2.627572647106329352e-15
3.574000000000000000e+03 7.195991516113281250e+01 8.533983230590820312e+00 1.227272135913975992e-13 1.493752278987348081e-12 4.849438450631182729e-13 -1.058672853565143998e-14
3.575000000000000000e+03 6.659838104248046875e+01 -1.647555923461914062e+01 5.950528003689390874e-15 4.143087782570997746e-13 1.260777913276653339e-13 7.810730008736208041e-14
3.576000000000000000e+03 7.174850463867187500e+01 1.312419414520263672e+01 -3.157352241526904801e-14 1.130242167218797888e-12 3.296006046218935559e-13 -3.016771199710645279e-14
3.577000000000000000e+03 7.176747131347656250e+01 1.390239810943603516e+01 -5.822305257276866319e-14 1.027319071825183450e-12 2.907288125519880140e-13 -2.596597711016423657e-15
3.578000000000000000e+03 4.715419006347656250e+01 -1.656196403503417969e+01 -1.129537340938992218e-13 4.309315355726858754e-14 -2.095817348336283248e-14 6.424536196005664612e-14
3.579000000000000000e+03 4.503803634643554688e+01 -1.653943824768066406e+01 -6.477626865886848551e-14 6.374063874371033167e-14 -3.106878204650555166e-16 -3.425174911492884222e-14
3.580000000000000000e+03 5.074021530151367188e+01 -1.586986064910888672e+01 1.796393031073054147e-13 -3.347702703156846260e-13 -4.653929016251376338e-14 -1.261543766586242787e-13
3.581000000000000000e+03 4.981279754638671875e+01 -1.368942546844482422e+01 2.599758787153599870e-13 -9.446103296263663740e-14 4.965445372581700489e-14 -2.565641113189826017e-14
3.582000000000000000e+03 5.897537612915039062e+01 -2.121747779846191406e+01 4.300914482955990603e-14 2.929381726340246628e-13 1.007842016765257698e-13 7.477362235245796351e-14
3.583000000000000000e+03 5.823833847045898438e+01 -2.228300476074218750e+01 1.132117471058964597e-13 9.427026759038781289e-14 6.224460237600620838e-14 1.035068840533892587e-13
3.584000000000000000e+03 3.966574096679687500e+01 -1.760745239257812500e+01 -1.547347184193900715e-13 -2.056392877432689642e-14 -5.258959229464260643e-14 1.635086651578104844e-13
3.585000000000000000e+03 6.634389495849609375e+01 -1.238739013671875000e+01 1.110513184231567974e-13 3.335368548192108040e-13 1.333764506174575648e-13 2.484770473144132241e-13
3.586000000000000000e+03 6.594647216796875000e+01 -1.289529514312744141e+01 1.311357028825274607e-13 3.194476746928159860e-13 1.351750200488666120e-13 2.575753737903141438e-13
3.587000000000000000e+03 7.244065093994140625e+01 -2.257806968688964844e+01 -1.656205385238817412e-14 6.152839874965301825e-14 1.348990346917945324e-14 -1.026675015077145592e-13
3.588000000000000000e+03 4.813175964355468750e+01 -1.598443508148193359e+01 -9.410449985447835730e-14 1.197978212940861709e-13 7.707995584849396814e-15 4.298994089857975653e-14
3.589000000000000000e+03 6.281439971923828125e+01 -2.179259872436523438e+01 -2.313773901207322181e-13 2.897213176832058590e-13 1.750318368975295469e-14 1.703398029182998097e-13
3.590000000000000000e+03 6.359773635864257812e+01 -2.066466140747070312e+01 -1.891580696331690570e-13 3.330962824901577413e-14 -4.675453478693823717e-14 -4.711320919438717614e-14
3.591000000000000000e+03 8.707353591918945312e+00 5.466794967651367188e+00 4.737157118395868283e-14 2.030210072593522513e-14 2.030210072593522513e-14 4.409855117247334089e-14
3.592000000000000000e+03 9.439333915710449219e+00 3.868793249130249023e+00 2.279880826499842278e-14 -2.189838208769417927e-13 -5.885550835756092614e-14 1.969897303342516871e-15
3.593000000000000000e+03 5.976035690307617188e+01 -2.075374603271484375e+01 -4.348036958690820741e-14 2.558712519206557401e-13 6.371726063436611298e-14 4.783338709932888344e-14
3.594000000000000000e+03 5.649166107177734375e+01 -2.456891441345214844e+01 -1.496170131147153692e-13 -1.556234660452307517e-13 -9.157214239273112066e-14 -4.972052907196641836e-14
3.595000000000000000e+03 5.774148559570312500e+01 -2.433121109008789062e+01 -1.496064692485879477e-13 -2.928717923560142378e-13 -1.327434798366333712e-13 6.095448988217497255e-14
3.596000000000000000e+03 7.429587554931640625e+01 -2.359730720520019531e+01 -6.354878916928902166e-14 3.387723857949803685e-13 8.256708440871826649e-14 -1.831480794930659406e-13
3.597000000000000000e+03 3.677034759521484375e+01 -1.649469947814941406e+01 -9.833667625851194583e-14 4.935760933538584083e-14 -1.469371939931147369e-14 8.902691680644919670e-14
3.598000000000000000e+03 3.753815078735351562e+01 -1.679489898681640625e+01 -1.313022092311669220e-13 -1.020233227869322967e-13 -6.999765757255069221e-14 1.036557450116715184e-13
3.599000000000000000e+03 1.142002677917480469e+01 3.941678524017333984e+00 -2.777027671946145915e-14 3.083550938458995416e-13 8.417544412149188804e-14 -5.727197687453722263e-14
3.600000000000000000e+03 6.246091842651367188e+01 -1.908603286743164062e+01 -4.167597934508562862e-14 1.193917062653274130e-13 2.331472078657796654e-14 1.378601009391355880e-13
3.601000000000000000e+03 4.360166931152343750e+01 2.927224731445312500e+01 7.813203853161958951e-15 2.549787366922656728e-13 7.883758478943042602e-14 6.135172122938292727e-14
3.602000000000000000e+03 4.619094848632812500e+01 2.942473793029785156e+01 3.975931996830217585e-14 1.314170804513417612e-13 5.135292080351953892e-14 7.650238271648610033e-14
3.603000000000000000e+03 6.323694610595703125e+01 -2.021026802062988281e+01 -1.838949999222183607e-13 3.072114773943618315e-13 3.699494662977483028e-14 1.878597104265633533e-13
3.604000000000000000e+03 5.338014602661132812e+01 3.502157592773437500e+01 1.744845316408588642e-13 2.330926758846354335e-14 5.933814095464284843e-14 1.631134057033037377e-13
3.605000000000000000e+03 5.482022094726562500e+01 3.626697921752929688e+01 7.682328623075107554e-14 -1.282668260070996685e-14 1.919898091960574316e-14 5.716402421947555657e-14
3.606000000000000000e+03 6.640963745117187500e+01 3.506324768066406250e+01 1.068281070158369483e-13 7.091722500039698840e-13 2.448001111717001965e-13 -2.033079786337502193e-13
3.607000000000000000e+03 7.662802886962890625e+01 3.908569717407226562e+01 -5.043220615424948150e-14 -1.131157003459414001e-13 -4.906437330530998009e-14 1.173372244636303185e-13
3.608000000000000000e+03 7.615280151367187500e+01 3.799476623535156250e+01 -1.622900557972546676e-14 -2.357100246323101667e-13 -7.558171211292930014e-14 1.337269596272949723e-13
3.609000000000000000e+03 4.122083663940429688e+00 3.868671417236328125e+01 4.017476845310672881e-15 8.178593707223319464e-14 2.574102464113128125e-14 2.799972947454317657e-14
3.610000000000000000e+03 2.482254505157470703e+00 3.746277999877929688e+01 3.001654033294408330e-14 3.573970817644794851e-14 1.972687387519125174e-14 -4.746850224631067594e-14
3.611000000000000000e+03 6.513710021972656250e+01 3.716581344604492188e+01 8.169748819781500609e-15 5.067617332710216971e-13 1.544794565704055156e-13 -1.945837154598839547e-13
3.612000000000000000e+03 6.271911621093750000e+01 3.710443878173828125e+01 1.207026151120796365e-13 3.719863230378789298e-13 1.478066800897348543e-13 -1.314992358709618503e-13
3.613000000000000000e+03 5.702772903442382812e+01 4.110603332519531250e+01 1.347171750239531396e-13 1.320812220446249130e-13 8.003951776532070017e-14 2.935921566082043410e-14
3.614000000000000000e+03 6.673826599121093750e+01 -1.176034736633300781e+01 1.303460513352519556e-13 4.676211132724483743e-13 1.793901534480682458e-13 2.310287649121695042e-13
3.615000000000000000e+03 2.899107742309570312e+01 -1.252766799926757812e+01 -1.439296544360896268e-13 -1.989369904703205960e-13 -1.028599948271757825e-13 6.875070310144795749e-14
3.616000000000000000e+03 7.672616577148437500e+01 1.384361362457275391e+01 5.621188464786236461e-15 -2.046639293045056374e-14 -4.453561593809182359e-15 -5.141698571696864430e-16
3.617000000000000000e+03 4.832402420043945312e+01 -1.525686836242675781e+01 1.610968709776436358e-13 4.616604001210847241e-14 6.217887261929927467e-14 -1.455738944645089405e-14
3.618000000000000000e+03 4.950154495239257812e+01 -1.611591720581054688e+01 -2.239735699964724713e-14 -1.926026612503184410e-13 -6.450000716905560094e-14 1.269218156138909870e-13
3.619000000000000000e+03 6.573341369628906250e+01 -1.625306701660156250e+01 9.933673121340189267e-16 4.579352305342232476e-13 1.376785783904072025e-13 9.588901531522656119e-14
3.620000000000000000e+03 6.839826965332031250e+01 -1.961648178100585938e+01 -1.813457966692161305e-13 1.052841692408996999e-13 -2.281848653442903468e-14 -1.317848147231945322e-13
3.621000000000000000e+03 3.264009237289428711e+00 4.027620315551757812e+00 -8.138894480007460245e-16 4.540213826642949813e-14 1.337647474611378812e-14 2.343506383959206851e-14
3.622000000000000000e+03 3.292176055908203125e+01 -1.518897628784179688e+01 7.419071460694828812e-14 -1.969587280813492325e-13 -3.683040200944120990e-14 4.820045052108742900e-14
3.623000000000000000e+03 3.107962608337402344e+01 -1.478387928009033203e+01 -1.398299472087430328e-13 -1.285535398834816712e-13 -8.051504206190926438e-14 -1.988128459334392167e-14
3.624000000000000000e+03 3.072660827636718750e+01 -1.535991573333740234e+01 6.053977577493568907e-14 -1.341827040104992541e-13 -2.209287745422953281e-14 -3.857379571466611201e-15
3.625000000000000000e+03 7.743283843994140625e+01 1.144266510009765625e+01 5.570220120657692897e-14 -2.735088089171611170e-13 -6.534197824741710958e-14 -6.393359284909486129e-14
3.626000000000000000e+03 4.156229019165039062e+01 -1.709722900390625000e+01 2.199586168858281426e-15 4.127012316959555172e-13 1.244702447665210765e-13 2.589797679693889298e-13
3.627000000000000000e+03 7.694176483154296875e+01 -1.992444419860839844e+01 -8.782776209862591665e-14 2.826161613761479785e-13 5.843652520426748098e-14 -3.097175294008991386e-14
3.628000000000000000e+03 7.246710205078125000e+01 1.236641025543212891e+01 -8.388857777917937963e-14 8.333157839983396098e-13 2.248281584776162800e-13 -3.632759308755569017e-14
3.629000000000000000e+03 7.173626708984375000e+01 1.236333942413330078e+01 -9.132395496292203263e-14 1.287638723944384278e-12 3.588944191747905910e-13 -5.443696776447244645e-14
3.630000000000000000e+03 4.541310119628906250e+01 -3.834173679351806641e+00 -1.774776784140442293e-14 -2.363609254065618392e-13 -7.623260611091739469e-14 -1.624083524186682032e-14
3.631000000000000000e+03 3.226190948486328125e+01 -1.512433910369873047e+01 -1.410210923730170762e-13 -3.349433089824133125e-13 -1.427893176961236854e-13 -2.595893911340550059e-14
3.632000000000000000e+03 7.313127899169921875e+01 -2.274637222290039062e+01 -6.724229327645034338e-14 1.541856648867162560e-13 2.608301080545341599e-14 -1.007125359129244779e-13
3.633000000000000000e+03 3.013880920410156250e+01 -1.409543800354003906e+01 -1.501611877376130000e-13 -1.002554040897525936e-14 -4.805601785105341472e-14 8.650119330674485574e-14
3.634000000000000000e+03 7.446817779541015625e+01 -2.307854270935058594e+01 -3.164777332342535998e-14 5.506309113095103625e-14 7.024595426960997605e-15 -1.333704875055088945e-13
3.635000000000000000e+03 7.487327575683593750e+01 -2.349497795104980469e+01 1.868845383350484224e-14 2.367640859844005741e-13 7.663575991249255148e-14 7.914121560783499154e-14
3.636000000000000000e+03 2.758095169067382812e+01 -9.911981582641601562e+00 -3.897685464855117632e-14 2.904658257625244988e-14 -2.979082214612681009e-15 1.219599101614024517e-13
3.637000000000000000e+03 7.593301391601562500e+01 -1.987002754211425781e+01 7.214758982300797929e-14 2.253619247596580499e-13 8.925285098666801975e-14 -1.074273794378875768e-13
3.638000000000000000e+03 4.770893478393554688e+01 -8.295866012573242188e+00 -5.732607856294424931e-14 -1.618211586864454210e-13 -6.574416981956418549e-14 -1.136312147620357343e-14
3.639000000000000000e+03 4.904115295410156250e+01 -1.032096862792968750e+01 1.052453412505975627e-13 3.196108471197750545e-13 1.274568558334854274e-13 -1.233986871018721843e-13
3.640000000000000000e+03 4.413743209838867188e+01 -1.140897631645202637e+00 -1.220493924160162905e-14 -5.230688488410111664e-15 -5.230688488410111664e-15 -1.547095683171201969e-14
3.641000000000000000e+03 4.573212051391601562e+01 -2.866929531097412109e+00 -4.558270536199338085e-14 1.177173999554123607e-13 2.164040939446523065e-14 -5.766348227902173829e-14
3.642000000000000000e+03 2.843760108947753906e+01 -1.298750877380371094e+01 -1.036257668216022942e-13 -9.016199516587858342e-14 -5.813632995149697891e-14 9.134635729031101437e-14
3.643000000000000000e+03 2.975129318237304688e+01 -1.102192687988281250e+01 -1.509489792005363346e-14 3.928170519439978803e-14 7.256042521117025274e-15 -7.002937048609589321e-14
3.644000000000000000e+03 4.661375427246093750e+01 -4.835573673248291016e+00 1.400526152299172433e-13 6.002255035228790114e-14 6.002255035228790114e-14 -5.248119240618479009e-14
3.645000000000000000e+03 4.931041717529296875e+01 -1.162962818145751953e+01 1.013467331974562957e-13 4.343431471150009660e-14 4.343431471150009660e-14 -2.515286427490909249e-13
3.646000000000000000e+03 4.409376525878906250e+01 5.458247065544128418e-01 2.587841507924182327e-14 1.025926441239680131e-13 3.854132047146838214e-14 -6.485854605123297922e-14
3.647000000000000000e+03 4.401676559448242188e+01 2.240384578704833984e+00 6.067486736562738292e-14 1.175054113256371324e-13 5.345408428500571241e-14 3.607749813954938545e-14
3.648000000000000000e+03 5.441834259033203125e+01 -2.370437240600585938e+01 -1.088242722931814788e-13 1.821157699470610236e-13 2.198744895735068455e-14 -9.739105545246082296e-14
3.649000000000000000e+03 7.599024200439453125e+01 1.139954948425292969e+01 6.413622345886882403e-14 1.647398038297220868e-13 6.866280818657727325e-14 -1.123346546534099988e-13
3.650000000000000000e+03 4.823815917968750000e+01 -1.371697616577148438e+01 1.444038573612804743e-13 -1.211164279762630414e-13 6.986230763681008579e-15 -8.720406124637647416e-14
3.651000000000000000e+03 5.013667678833007812e+01 -1.603238105773925781e+01 2.069817434851087268e-13 4.295551409147155275e-14 7.498117930585315727e-14 -2.581611411190537497e-14
3.652000000000000000e+03 4.337664031982421875e+01 1.924320340156555176e+00 -1.028906845249207003e-13 4.740588957084963806e-14 -1.664543916384767647e-14 -1.157863003609441166e-13
3.653000000000000000e+03 7.727100372314453125e+01 3.512887573242187500e+01 -7.026096284640237499e-14 -3.961194436699622123e-13 -1.399141219549093762e-13 1.742272775703823662e-13
3.654000000000000000e+03 2.935471153259277344e+01 -1.311050128936767578e+01 -8.292554197573270836e-14 -1.270414166660432942e-13 -6.299008623728008516e-14 7.290579442508372116e-15
3.655000000000000000e+03 6.309376144409179688e+01 -2.096710205078125000e+01 -1.960868669043450141e-13 3.620345126117974210e-13 4.978429710036751110e-14 1.806245176214429926e-13
3.656000000000000000e+03 4.707651519775390625e+01 -6.171773433685302734e+00 1.167224140691952572e-13 1.872767349184178975e-13 9.119974605153666203e-14 -1.122522552883011004e-13
3.657000000000000000e+03 8.052145957946777344e+00 5.208398342132568359e+00 1.364288439571715791e-15 -1.023549395739141443e-13 -3.029719622968732318e-14 -4.538576681362496701e-14
3.658000000000000000e+03 4.287965011596679688e+01 4.349325656890869141e+00 -6.547534189089640466e-14 7.487876963439832334e-14 2.821028195995633515e-15 -9.527876534617951698e-14
3.659000000000000000e+03 1.655581665039062500e+01 2.862253904342651367e+00 -8.589808551950905979e-14 -1.855040508138769417e-13 -8.142064225526851606e-14 -1.461563312596999425e-14
3.660000000000000000e+03 4.818697738647460938e+01 -7.467300891876220703e+00 5.613147750424540838e-14 1.841846716376521753e-13 7.209484338731655950e-14 -3.813836318153698834e-14
3.661000000000000000e+03 4.749412155151367188e+01 -7.577084064483642578e+00 5.148028067746869552e-14 1.135648785297385666e-13 4.951354810097535752e-14 -7.871450751406258717e-14
3.662000000000000000e+03 2.628300285339355469e+01 -8.964722633361816406e+00 -1.565910487215382840e-13 2.439145043440279353e-14 -3.965987830029452099e-14 3.578179724359701469e-15
3.663000000000000000e+03 3.358320999145507812e+01 -1.526550865173339844e+01 -6.084083161318060151e-14 -1.862029681918425661e-13 -7.411313994150695028e-14 -1.172756756615510321e-14
3.664000000000000000e+03 6.029133319854736328e+00 4.755658149719238281e+00 -1.479066841876194860e-13 -1.091395311798859513e-13 -7.711386596550434680e-14 9.159783798421902712e-14
3.665000000000000000e+03 5.093345642089843750e+00 6.063619136810302734e+00 -5.392868023348408590e-14 -1.146141829447971938e-13 -5.056285929229756282e-14 -5.922719912031032194e-15
3.666000000000000000e+03 6.198359966278076172e+00 4.047241687774658203e+00 -1.205588092464265904e-13 2.685885910382046493e-13 4.440893453753341769e-14 1.078725867312280151e-13
3.667000000000000000e+03 3.995215654373168945e+00 3.996637344360351562e+00 8.253331151104534302e-14 1.249594588096031647e-14 2.850877764111817148e-14 -7.989772444995033029e-14
3.668000000000000000e+03 5.325099468231201172e+00 4.702898025512695312e+00 -1.264184476502602794e-13 -1.228057640387941740e-13 -7.476726621722176724e-14 -5.015595482883196399e-14
3.669000000000000000e+03 6.932215213775634766e+00 4.133022785186767578e+00 -3.095299285437412562e-14 -1.276429455838654081e-13 -4.757877915977960781e-14 4.647789382636498268e-14
3.670000000000000000e+03 2.505532646179199219e+01 -5.758677959442138672e+00 -6.052660271853999019e-14 9.802956244062827063e-15 -1.521709428115632784e-14 4.477224052113794317e-14
3.671000000000000000e+03 2.295514488220214844e+01 -4.147985935211181641e+00 -1.357298876156903811e-13 -1.241900394913057759e-14 -4.444466916351218211e-14 1.237288266633940204e-13
3.672000000000000000e+03 2.693710565567016602e+00 2.877460670471191406e+01 4.829258737695796277e-14 -7.080507648292780343e-14 -6.753746477681068019e-15 1.344473984183844339e-13
3.673000000000000000e+03 3.257036209106445312e+00 3.023082351684570312e+01 1.471191874921617959e-14 -8.519678967302754535e-14 -2.114546093833023083e-14 5.209539939189655744e-14
3.674000000000000000e+03 4.728289031982421875e+01 -6.865998268127441406e+00 4.048843915303509955e-14 8.597861463587042063e-14 3.794011681429801386e-14 1.916247888177676634e-14
3.675000000000000000e+03 7.664683532714843750e+01 2.900581169128417969e+01 2.532518906226983307e-14 -4.009048952188787318e-13 -1.126739082894442912e-13 2.020993507094448471e-13
3.676000000000000000e+03 7.715428161621093750e+01 3.242725372314453125e+01 6.798862840583621073e-15 -4.545956981075877090e-13 -1.343390459637716638e-13 7.782307648784500542e-14
3.677000000000000000e+03 7.283454895019531250e+01 5.981910228729248047e+00 1.278806704627100110e-13 1.267206175062374207e-12 4.185260536575252655e-13 8.370809199877843332e-14
3.678000000000000000e+03 7.710255432128906250e+01 3.433007431030273438e+01 5.405558270964172518e-14 -3.657163818743952577e-13 -9.349824110467877536e-14 1.894545718222895303e-13
3.679000000000000000e+03 2.277099418640136719e+01 -1.804782986640930176e+00 -1.647646456119991609e-13 1.810167955199754042e-13 4.875647428788420015e-15 1.309183338994712731e-13
3.680000000000000000e+03 7.253089904785156250e+01 2.205466079711914062e+01 9.878778567742885208e-14 1.048858482705083972e-12 3.442938750937429848e-13 -3.802824212213035127e-14
3.681000000000000000e+03 3.767595291137695312e+00 3.180634498596191406e+01 -3.747256140367721811e-14 -1.075615697855233921e-13 -4.351023935676018306e-14 3.540064088766205208e-14
3.682000000000000000e+03 1.960705375671386719e+01 -6.077620759606361389e-02 1.394320992215494770e-13 -7.749623019042209404e-14 1.858076206459093049e-14 4.137760690721761780e-14
3.683000000000000000e+03 7.748046875000000000e+01 2.628085374832153320e+00 2.061322033203305537e-13 -5.979218314043632798e-13 -1.175368938462206803e-13 -3.841853118730260974e-14
3.684000000000000000e+03 7.675384521484375000e+01 2.190632820129394531e+01 7.804288492578928538e-14 -4.469380052683769033e-13 -1.106685408461607900e-13 2.758083949487392939e-14
3.685000000000000000e+03 7.676006317138671875e+01 2.270560264587402344e+01 6.677628285392533947e-14 -4.517665538536497216e-13 -1.154970758789064522e-13 -1.217805018069104128e-13
3.686000000000000000e+03 7.681239318847656250e+01 -1.184112739562988281e+01 -8.081366522152966247e-14 1.026184142543552780e-13 6.541424540441095198e-15 -1.532010060261920770e-13
3.687000000000000000e+03 7.681007385253906250e+01 -1.103818035125732422e+01 1.222335221321563248e-13 1.667631690290688473e-13 8.669900599311483602e-14 -1.405991886501214982e-13
3.688000000000000000e+03 7.672974395751953125e+01 1.465039157867431641e+01 2.982566315234622123e-14 -2.845987334687549719e-13 -7.643192312780169861e-14 -4.633689502789913733e-16
3.689000000000000000e+03 7.745158386230468750e+01 1.790081024169921875e+01 -4.651347937454503034e-14 -5.003192955418955812e-13 -1.640498311196794679e-13 3.146717573467537610e-14
3.690000000000000000e+03 7.676663970947265625e+01 -4.665195465087890625e+00 4.344413351742466844e-14 -7.288298382781416285e-14 -8.831654246083901066e-15 -9.879385720959477091e-14
3.691000000000000000e+03 7.675447845458984375e+01 -5.468782424926757812e+00 -1.240830490656721907e-13 -2.819331953226450471e-13 -1.218048692507370245e-13 -2.057321733762648708e-13
3.692000000000000000e+03 7.678630065917968750e+01 2.599613666534423828e+00 1.897802390498498637e-13 8.133438719618371615e-14 8.133438719618371615e-14 -2.862230580585184425e-13
3.693000000000000000e+03 7.679618072509765625e+01 1.784197926521301270e+00 3.252357964108471000e-13 -1.351189261389676433e-13 5.703505837105840581e-14 -7.693559602329341773e-14
3.694000000000000000e+03 7.461737060546875000e+01 1.307007122039794922e+01 -4.583390822909469420e-14 4.836173237050822582e-13 1.313350334519389206e-13 -2.079470628893811956e-14
3.695000000000000000e+03 7.600294494628906250e+01 1.222623920440673828e+01 -8.498919206205088339e-14 -1.050503610424032008e-13 -5.701186322083079405e-14 -1.296006758941953274e-13
3.696000000000000000e+03 7.743440246582031250e+01 1.225122833251953125e+01 8.682263998088725777e-16 -4.342619200434910676e-13 -1.300181072831294027e-13 -8.731025884917142932e-14
3.697000000000000000e+03 7.256026458740234375e+01 1.794986915588378906e+01 -2.604001371898489320e-14 9.267344920974029954e-13 2.702083348737893687e-13 -1.917332666332566271e-13
3.698000000000000000e+03 7.745929718017578125e+01 2.031251335144042969e+01 -6.005153920787473232e-14 -8.035025010795504574e-13 -2.590662059875903367e-13 -1.224455920770944894e-13
3.699000000000000000e+03 7.750778961181640625e+01 8.230329513549804688e+00 -9.829567478166715416e-15 -1.414655203960460406e-13 -4.538852475290122701e-14 -7.331409649291228958e-14
3.700000000000000000e+03 7.449280548095703125e+01 7.704998493194580078e+00 -2.478935771390265719e-14 4.240100024560655712e-13 1.197661896957039063e-13 -2.131879606659045634e-14
3.701000000000000000e+03 7.673134613037109375e+01 1.545582389831542969e+01 4.446987008775889205e-14 -1.410698001556159875e-13 -2.897997868154394974e-14 -4.318084857236371976e-14
3.702000000000000000e+03 7.751074218750000000e+01 5.049630165100097656e+00 3.757000661502819458e-15 -1.813936506426042095e-13 -5.329099656134136942e-14 -1.639755632708642108e-13
3.703000000000000000e+03 7.356609344482421875e+01 4.345044136047363281e+00 4.056930708257536211e-14 8.409038981631311582e-13 2.644419785143709012e-13 3.125161601399452371e-14
3.704000000000000000e+03 7.681304168701171875e+01 9.763497114181518555e-01 2.164327067176105568e-13 -1.359978752876744856e-13 2.413044909016764245e-14 -1.177372408551688454e-13
3.705000000000000000e+03 7.752243804931640625e+01 5.850223541259765625e+00 8.624697839048310610e-15 -4.995641487287594273e-13 -1.472818313705617776e-13 -5.080070783795246486e-15
3.706000000000000000e+03 7.536190795898437500e+01 3.381008625030517578e+00 1.397089366937664945e-13 1.056262079212645644e-13 7.360054270688295985e-14 -1.118377241401784239e-13
3.707000000000000000e+03 7.745651245117187500e+01 -2.180044889450073242e+00 2.122374880551315679e-14 -1.739078987154224487e-13 -4.580524463415960867e-14 1.037400214017915323e-13
3.708000000000000000e+03 7.675308990478515625e+01 -3.040586709976196289e+00 1.307214563374750615e-13 3.314801097454786460e-14 4.916084019360687785e-14 -4.990000180096244853e-14
3.709000000000000000e+03 7.746308135986328125e+01 -1.370101451873779297e+00 1.212839778694935200e-13 -8.527399842023566934e-14 1.080299129367851343e-14 -1.330479509117216130e-13
3.710000000000000000e+03 7.474136352539062500e+01 -3.969744682312011719e+00 3.484769439156265580e-14 3.351913744394779959e-13 1.110117179388067643e-13 -1.323404954416476653e-14
3.711000000000000000e+03 7.540664672851562500e+01 -3.153397560119628906e+00 1.453703287303612091e-13 5.198110821988399799e-13 1.995544165024967787e-13 -3.231971439608682939e-14
3.712000000000000000e+03 7.745413208007812500e+01 1.870784378051757812e+01 4.217090747242989435e-14 -4.394362478066238253e-13 -1.191795956628077802e-13 1.835828377879690498e-14
3.713000000000000000e+03 7.602941131591796875e+01 1.707683563232421875e+01 2.881407542036293346e-14 -5.627753308940636190e-14 -8.239036961899849631e-15 -6.110240893981988552e-14
3.714000000000000000e+03 7.255309295654296875e+01 1.713013458251953125e+01 2.565173042783173291e-14 1.177642835678560651e-12 3.609883659355661578e-13 -1.114512873808502780e-13
3.715000000000000000e+03 7.674578857421875000e+01 2.030912780761718750e+01 8.225875086339054509e-14 -5.366331294262560725e-13 -1.363123074702224380e-13 5.659225326315638072e-14
3.716000000000000000e+03 7.752342987060546875e+01 -1.419576549530029297e+01 -5.584580547838852854e-15 2.492368290918367535e-13 7.309567718900150668e-14 -1.751982754835332279e-13
3.717000000000000000e+03 7.748941802978515625e+01 -8.608865737915039062e+00 9.787364739196127705e-14 -4.955604882613678930e-14 1.449527821449463072e-14 -1.340024960569050072e-13
3.718000000000000000e+03 7.612225341796875000e+01 -1.026820278167724609e+01 1.218097752655675214e-13 3.267098776845583918e-13 1.345558999507959208e-13 -2.847689870911530863e-14
3.719000000000000000e+03 7.741325378417968750e+01 2.826643180847167969e+01 -3.036335627913146207e-14 -5.848997501611830074e-13 -1.845789282051493729e-13 -4.691921493254341824e-14
3.720000000000000000e+03 7.179868316650390625e+01 2.374604034423828125e+01 1.961758256925974497e-13 1.273600040534172972e-12 4.409327449602512550e-13 -1.490178829941998795e-13
3.721000000000000000e+03 7.669461822509765625e+01 2.821388816833496094e+01 6.593398058568145439e-15 -3.174308960216670750e-13 -9.325125307352299941e-14 2.005822401620130369e-13
3.722000000000000000e+03 7.530354309082031250e+01 1.224151611328125000e+01 1.913831303179160115e-14 1.912059242490868338e-13 6.310327016782399379e-14 -2.018587425304477906e-14
3.723000000000000000e+03 7.679223632812500000e+01 8.974399566650390625e+00 -3.264613474181639026e-16 -1.373927555926857114e-13 -4.131576672580447585e-14 -1.103327769858691854e-13
3.724000000000000000e+03 7.674463653564453125e+01 9.778263092041015625e+00 -2.662943853599074318e-14 -1.944164095121422853e-13 -6.631375543087944524e-14 -2.485528906445103742e-14
3.725000000000000000e+03 7.683502960205078125e+01 8.179383277893066406e+00 -1.758423119027803516e-14 -1.447889388678930134e-13 -4.871195338914356687e-14 -7.120559431797110483e-14
3.726000000000000000e+03 7.672045898437500000e+01 1.303648757934570312e+01 -5.657583776463859238e-14 -2.530015314004124827e-13 -9.287321210476803812e-14 -1.373388436396588697e-13
3.727000000000000000e+03 7.677682495117187500e+01 2.428834342956542969e+01 -8.257966115391909834e-14 -3.098969648604454896e-13 -1.177429871266830186e-13 -1.232849949515599230e-13
3.728000000000000000e+03 7.748206329345703125e+01 2.508961296081542969e+01 -3.432919841949398643e-14 -4.264710600724447298e-13 -1.382400731430102891e-13 -8.032731245574339929e-14
3.729000000000000000e+03 7.531445312500000000e+01 1.304923343658447266e+01 -1.731400057504960122e-14 -7.420285597721423126e-15 -7.420285597721423126e-15 -2.240149729669342615e-14
3.730000000000000000e+03 7.747789764404296875e+01 2.588298988342285156e+01 1.056464045748588959e-14 -4.301063086416256898e-13 -1.258624958812640249e-13 7.942689610402134393e-14
3.731000000000000000e+03 7.610970306396484375e+01 2.584916114807128906e+01 1.616779220269329298e-13 -6.796230516293438884e-14 2.811468709207863570e-14 2.318464024280222913e-14
3.732000000000000000e+03 7.685694885253906250e+01 7.394101619720458984e+00 1.764144000729382742e-15 7.560617145983068894e-16 7.560617145983068894e-16 -1.839824950375379409e-13
3.733000000000000000e+03 7.350930786132812500e+01 5.145207405090332031e+00 1.045927193053970694e-13 8.683425072736339345e-13 2.918805876248736775e-13 3.082102173306011661e-14
3.734000000000000000e+03 7.685874938964843750e+01 6.615165233612060547e+00 -5.382846268329674611e-14 -2.060731414069844059e-13 -7.797048054945798778e-14 -1.110249028536637247e-14
3.735000000000000000e+03 7.686911010742187500e+01 -1.660299301147460938e+01 -6.986791923008564553e-14 1.988113449910566821e-13 3.868302908354402658e-14 -1.332405458751365068e-13
3.736000000000000000e+03 7.686166381835937500e+01 -1.580432319641113281e+01 3.202677313347661314e-14 4.712352470043201791e-13 1.509786084130312900e-13 -2.402071597185084784e-14
3.737000000000000000e+03 7.755352020263671875e+01 -1.903744697570800781e+01 -6.284710029951998123e-14 1.789448038531926688e-13 3.482930700034365945e-14 -1.119388124402355411e-13
3.738000000000000000e+03 7.481945037841796875e+01 -2.182303810119628906e+01 -9.579138968585781955e-14 9.619939529215484897e-14 1.224008930896766960e-16 -9.645761159205942792e-14
3.739000000000000000e+03 7.658683013916015625e+01 -2.257076263427734375e+01 -2.685578098609014280e-14 4.917507915626340154e-13 1.394685148620178339e-13 -8.387820331964140896e-14
3.740000000000000000e+03 7.684469604492187500e+01 -1.910314941406250000e+01 4.781606358149163849e-14 2.721228190699642724e-13 9.598166716712902558e-14 -7.092383050213285633e-14
3.741000000000000000e+03 7.682505798339843750e+01 1.850651651620864868e-01 2.592168287744028854e-13 -1.176618210415453225e-13 4.246649825409912204e-14 -7.190255335576267726e-14
3.742000000000000000e+03 7.678859710693359375e+01 -5.797871351242065430e-01 1.163788846108432251e-13 -2.932554372947482335e-13 -5.306296851567693373e-14 -5.125523079964680595e-14
3.743000000000000000e+03 7.284819030761718750e+01 -1.574218988418579102e+00 2.206938923060217106e-13 7.694096011354178977e-13 2.970310358351574420e-13 1.357486036556929121e-13
3.744000000000000000e+03 7.733599853515625000e+01 2.987466049194335938e+01 6.660498568693620780e-14 -5.433418472089446283e-13 -1.430210659104924620e-13 1.714698668426814510e-13
3.745000000000000000e+03 7.659821319580078125e+01 2.981386375427246094e+01 2.551488886707101167e-14 -4.008235800559423190e-13 -1.125926066790350344e-13 9.429407938060102579e-14
3.746000000000000000e+03 7.674917602539062500e+01 2.110786819458007812e+01 7.717402563355013623e-14 -2.414311155510273643e-13 -4.927712426473773721e-14 -1.925281155746964845e-14
3.747000000000000000e+03 7.603700256347656250e+01 2.032035636901855469e+01 -5.999291775166115670e-14 -2.315905171627885561e-13 -8.747503047433491385e-14 -1.809958839705735900e-13
3.748000000000000000e+03 7.674523925781250000e+01 -6.271069049835205078e+00 -3.175793165228167625e-14 -3.648601535374655647e-14 -2.047318444062164872e-14 -9.052447783345837773e-14
3.749000000000000000e+03 7.675222778320312500e+01 -7.070147514343261719e+00 -1.049066771494945594e-13 -4.496000400862169843e-14 -4.496000400862169843e-14 -1.240847024739852311e-13
3.750000000000000000e+03 7.677217102050781250e+01 -7.865958213806152344e+00 5.690270439085223786e-14 7.013782458466233383e-14 3.811215937028072931e-14 -1.839826170102823455e-13
3.751000000000000000e+03 7.686869812011718750e+01 -1.741298675537109375e+01 9.478670019019697079e-14 4.523814049056662512e-13 1.641504315287589666e-13 -2.065442950135651379e-13
3.752000000000000000e+03 7.685975646972656250e+01 -1.823790931701660156e+01 -1.027054147024336617e-13 2.533645493928149417e-13 4.519774582812524644e-14 -9.518578823362530694e-14
3.753000000000000000e+03 7.673952484130859375e+01 2.742737770080566406e+01 -6.973586255844396384e-15 -5.062491224838705506e-13 -1.539668051256729009e-13 4.302859609416065378e-14
3.754000000000000000e+03 2.642492866516113281e+01 -7.855255603790283203e+00 -1.662126789285164885e-13 -8.839061210394461021e-14 -7.638098595448561401e-14 4.396375096111550251e-14
3.755000000000000000e+03 7.681857299804687500e+01 -1.263859272003173828e+01 5.661977844581035646e-14 2.072694094265234432e-13 7.916675534526060320e-14 -4.317139907280415079e-14
3.756000000000000000e+03 7.682872009277343750e+01 -1.343011283874511719e+01 -4.958770414144157701e-14 2.075028652593138845e-13 4.737454935180122895e-14 -1.455720309920249811e-13
3.757000000000000000e+03 7.684042358398437500e+01 -1.421956443786621094e+01 5.360610637024712521e-14 2.517287864701317490e-13 9.160046717448730447e-14 -1.034059516073944363e-13
3.758000000000000000e+03 7.629706573486328125e+01 3.336457824707031250e+01 6.665302939570447172e-14 -8.581178980284279167e-14 -5.747627613921727635e-15 2.410476874527278657e-13
3.759000000000000000e+03 2.563086748123168945e+00 2.147025108337402344e+01 -3.284335694034301589e-14 -1.407572500802768342e-14 -1.407572500802768342e-14 3.767858353337198707e-14
3.760000000000000000e+03 3.353314161300659180e+00 2.295903396606445312e+01 7.491162773648821216e-14 -1.051478646990275378e-13 -9.070870749948618805e-15 -7.045021033560971979e-14
3.761000000000000000e+03 7.497357940673828125e+01 -2.114303016662597656e+01 -1.259120303680194564e-13 3.120452843601712045e-13 5.583997619764552445e-14 4.833954010729016315e-14
3.762000000000000000e+03 7.598731994628906250e+01 -2.223018646240234375e+01 -4.778451668640409933e-14 2.527187003230606938e-14 -6.753794335042587887e-15 4.962652874361192512e-14
3.763000000000000000e+03 2.489787101745605469e+00 4.833188056945800781e+00 3.049041799748318515e-14 5.881827278919962709e-14 2.679260588075212807e-14 -3.347171986193414606e-14
3.764000000000000000e+03 6.405658721923828125e+01 -1.823937797546386719e+01 -8.303363015606593511e-14 2.961085424166981506e-13 6.392247300056330683e-14 1.051192214328831864e-13
3.765000000000000000e+03 6.471961975097656250e+01 -1.863154602050781250e+01 -2.935840589732285899e-14 1.704216195247409971e-13 4.231896544347815703e-14 2.226622071400605196e-13
3.766000000000000000e+03 4.631097793579101562e+00 2.812773323059082031e+01 -3.035687817115086118e-14 -1.502629401115007646e-13 -5.418594446835595102e-14 2.076220902288376108e-14
3.767000000000000000e+03 2.498428106307983398e+00 1.504395294189453125e+01 -8.836640051418029329e-14 -1.751241567125166876e-13 -7.904716784563545207e-14 -5.599140874795564826e-14
3.768000000000000000e+03 3.971150875091552734e+00 1.718472290039062500e+01 -5.338000617157064032e-14 2.516285519792854641e-13 5.947456069299583703e-14 -5.619349386851157924e-14
3.769000000000000000e+03 2.453261375427246094e+00 7.957703590393066406e+00 -3.650837024729049196e-14 -1.986502461007524922e-13 -7.054758524322607416e-14 -2.648192944229230128e-14
3.770000000000000000e+03 3.131149768829345703e+00 9.449252128601074219e+00 -4.432862226160655394e-14 -3.850055853554107399e-13 -1.288002636403579038e-13 -1.174283109986462570e-14
3.771000000000000000e+03 3.246461391448974609e+00 1.731418800354003906e+01 -7.020938192804637712e-14 1.529140583687166322e-13 2.481140428745379212e-14 1.432938782821441270e-13
3.772000000000000000e+03 2.523364782333374023e+00 1.744999694824218750e+01 -5.775557170104722582e-14 -2.475238811388679600e-14 -2.475238811388679600e-14 2.339659329719367270e-14
3.773000000000000000e+03 3.120327234268188477e+00 1.099600505828857422e+01 1.074988893474265739e-13 -1.826837970177533355e-13 -2.255547094584531287e-14 4.251613777294001306e-14
3.774000000000000000e+03 3.214263200759887695e+00 1.491307258605957031e+01 -4.347816052498176820e-14 7.286840130859423281e-14 8.817072573896918286e-15 -7.404820470170454111e-15
3.775000000000000000e+03 3.197561740875244141e+00 1.411740779876708984e+01 -6.888769204594150097e-14 -1.210251923634483862e-13 -5.697386193468517712e-14 -6.419248677535724368e-14
3.776000000000000000e+03 2.452902555465698242e+00 6.381021499633789062e+00 5.048592498376434923e-14 -2.071179192779729061e-13 -4.698959998232846158e-14 -7.229884280233328520e-14
3.777000000000000000e+03 3.255391597747802734e+00 1.811905097961425781e+01 -1.134573731080730508e-13 1.343792021017350957e-13 6.276550985087571075e-15 2.279111889990324824e-14
3.778000000000000000e+03 3.270872354507446289e+00 1.972502708435058594e+01 -1.793330532630279389e-14 1.295671469420112132e-13 3.349015129886639963e-14 -4.277023749272093611e-14
3.779000000000000000e+03 3.282598495483398438e+00 2.052963447570800781e+01 -7.661867695201232675e-14 -7.858752711087380050e-14 -4.656186189649219598e-14 -1.430459182806813768e-15
3.780000000000000000e+03 2.662771463394165039e+00 2.629499435424804688e+01 2.772599891917668785e-14 -2.168721745157003999e-13 -5.674385183192416637e-14 1.484155815823298696e-13
3.781000000000000000e+03 3.507143974304199219e+00 2.876026725769042969e+01 -3.469909093129636135e-14 -2.436257846936268345e-13 -8.349746539798238998e-14 7.419913750257578489e-14
3.782000000000000000e+03 3.407514572143554688e+00 2.457721328735351562e+01 2.799181988088171591e-14 1.199649459767771278e-14 1.199649459767771278e-14 5.040281411097975728e-14
3.783000000000000000e+03 3.226664066314697266e+00 1.571019172668457031e+01 -1.897220444982417042e-13 -2.185622966248065846e-13 -1.224853009816617710e-13 1.896643141206886402e-14
3.784000000000000000e+03 3.794883728027343750e+00 1.016280078887939453e+01 8.184693022069908230e-14 -1.021755922057943078e-13 -6.098596986165967862e-15 7.832391012889752813e-14
3.785000000000000000e+03 2.928747653961181641e+00 3.202048873901367188e+01 5.835912672167917203e-14 2.537657855117975148e-13 9.363747976868022627e-14 5.164075699855665350e-15
3.786000000000000000e+03 4.130236148834228516e+00 3.388186645507812500e+01 6.146420466367945659e-15 7.126060402569758812e-14 2.322210789819107585e-14 5.943072504390953248e-14
3.787000000000000000e+03 4.121491909027099609e+00 3.279538726806640625e+01 2.433788576488432609e-14 1.705588388621961937e-13 5.846901738812415594e-14 3.453564406566238254e-14
3.788000000000000000e+03 3.854146718978881836e+00 5.450518608093261719e+00 -4.776224649615488926e-14 -1.577223865834725958e-13 -6.164539094032778221e-14 1.945989925461206332e-14
3.789000000000000000e+03 3.170369625091552734e+00 7.879476070404052734e+00 -9.308850585710345266e-15 -3.242461366678023316e-13 -1.000665004959218340e-13 -6.570982093948712910e-14
3.790000000000000000e+03 3.120394468307495117e+00 1.022258281707763672e+01 4.009346430159863028e-14 -1.658208753684345393e-13 -3.771822467530348832e-14 1.365971494037910086e-14
3.791000000000000000e+03 6.943549346923828125e+01 -8.464620590209960938e+00 1.114348888229914347e-13 6.882711089430115781e-13 2.399117959416691148e-13 1.842508215227009472e-13
3.792000000000000000e+03 6.981695556640625000e+01 -7.699683666229248047e+00 9.932985288235371413e-14 8.660870414942123396e-13 2.896250676353434583e-13 7.827963402267865134e-14
3.793000000000000000e+03 7.185942840576171875e+01 1.795341682434082031e+01 7.380795735874301489e-14 1.381284951869343747e-12 4.365278754789314597e-13 1.792150954547933051e-14
3.794000000000000000e+03 3.425005197525024414e+00 2.616502761840820312e+01 9.450228007903613281e-14 8.625192845102686023e-14 5.422626323664525572e-14 -1.132854135613191662e-14
3.795000000000000000e+03 7.185153961181640625e+01 1.713581275939941406e+01 -7.927550082316089930e-14 1.064047504620302398e-12 2.954316207903068259e-13 -8.491146831881082879e-14
3.796000000000000000e+03 7.254010772705078125e+01 1.631155967712402344e+01 -1.019866225433936624e-13 9.628122951688133924e-13 2.582477146625267173e-13 -3.225898552190048507e-14
3.797000000000000000e+03 7.254270935058593750e+01 2.122511672973632812e+01 9.706163417487825851e-14 9.108658922604706554e-13 3.023782396346930135e-13 -8.869923702860618708e-14
3.798000000000000000e+03 7.533329772949218750e+01 1.871401786804199219e+01 6.896221739277272333e-14 1.668080821040640593e-13 7.073108646091924578e-14 -6.265221495901571180e-14
3.799000000000000000e+03 3.384346485137939453e+00 2.377199935913085938e+01 -1.026464273279868722e-13 -8.974227339985513252e-14 -5.771660818547352800e-14 8.970869701382597206e-14
3.800000000000000000e+03 6.971558380126953125e+01 3.803716278076171875e+01 -8.001687826870648723e-14 4.189273981967250871e-13 1.016731525902737909e-13 1.023037658666475390e-16
3.801000000000000000e+03 7.255924987792968750e+01 1.958708572387695312e+01 -3.407199855912611264e-14 8.775412037656526998e-13 2.530407524140021458e-13 -9.532685648879282714e-14
3.802000000000000000e+03 7.602685546875000000e+01 1.626219558715820312e+01 4.214106819576401985e-14 -2.769049129802778758e-14 4.335173492837343309e-15 -4.875485730198789169e-14
3.803000000000000000e+03 4.848726654052734375e+01 -1.103293228149414062e+01 9.175253330544197450e-14 1.765753613203885353e-13 8.049836567724372172e-14 -8.678302488521888458e-14
3.804000000000000000e+03 4.036867141723632812e+01 1.441380596160888672e+01 2.203539102216527795e-14 5.584551376024149416e-13 1.741471550298356874e-13 -1.735117685110459246e-14
3.805000000000000000e+03 4.130559539794921875e+01 1.612230110168457031e+01 -6.952841487229896589e-14 1.074549520543865988e-13 1.137796234047241603e-14 1.745295124784898566e-14
3.806000000000000000e+03 7.677266693115234375e+01 3.571104812622070312e+01 -2.128363572894993033e-14 -1.234989351452456252e-13 -4.343476872115982490e-14 2.013503431911103925e-13
3.807000000000000000e+03 3.437730789184570312e+00 3.612953186035156250e+01 -6.793313334823095073e-14 1.081386431680923799e-13 1.206165345417819709e-14 -1.762703345916868947e-14
3.808000000000000000e+03 3.081398725509643555e+00 3.529430389404296875e+01 3.231504555048156369e-14 1.053512000402136162e-13 4.129987299958219615e-14 6.407796792088846227e-14
3.809000000000000000e+03 7.600926971435546875e+01 -2.229357004165649414e+00 1.206533652283944824e-13 2.575878421152977271e-13 1.134723622031076629e-13 8.141915317134724300e-15
3.810000000000000000e+03 5.748393630981445312e+01 -2.247486495971679688e+01 -3.656403725258404458e-14 1.673335000293776909e-13 3.923083578371948377e-14 -4.904561321959419185e-14
3.811000000000000000e+03 3.461273670196533203e+00 3.096369552612304688e+01 1.747403898010382872e-14 1.904926682973900887e-13 6.239001421612724863e-14 9.841722400959814626e-15
3.812000000000000000e+03 4.247688674926757812e+01 5.688014030456542969e-01 9.111738056774565386e-14 4.737093167408350583e-15 2.875634165467808034e-14 -8.868863217610656324e-14
3.813000000000000000e+03 3.541703033447265625e+01 -1.546639347076416016e+01 -2.410740809993643097e-14 -1.475845948272283548e-13 -5.150759918408354121e-14 1.363196935975224955e-13
3.814000000000000000e+03 6.634031677246093750e+01 -1.782514381408691406e+01 -4.649005383135576541e-14 -6.567525521897557561e-14 -3.364959339272576011e-14 6.522067635310671574e-14
3.815000000000000000e+03 4.009725952148437500e+01 6.882801055908203125e+00 -6.754959682971420354e-14 -1.662026771634753097e-13 -7.012568152033049618e-14 -3.589229607969812719e-14
3.816000000000000000e+03 3.996667861938476562e+01 1.799086952209472656e+01 -5.552983000181067885e-14 -2.379849857220457665e-14 -2.379849857220457665e-14 5.806310564727273915e-14
3.817000000000000000e+03 6.640511322021484375e+01 -1.334682369232177734e+01 1.080877873099392317e-13 6.410856546144871881e-13 2.247520339325806416e-13 1.925150983723630804e-13
3.818000000000000000e+03 6.969470214843750000e+01 3.206371307373046875e+01 1.013402144318942266e-13 8.211976563164691267e-13 2.767613612245090060e-13 -2.049406651327689843e-13
3.819000000000000000e+03 4.090134429931640625e+01 9.051820755004882812e+00 1.234588874274994419e-13 3.045411687586929705e-13 1.284000168558577237e-13 -6.497294293295735601e-14
3.820000000000000000e+03 4.477589416503906250e+01 -8.284273147583007812e-01 7.547043443003318731e-16 4.607439443534734613e-14 1.404872922096574162e-14 -5.255087611268950687e-14
3.821000000000000000e+03 3.624039459228515625e+01 -1.662043952941894531e+01 -1.195322866295173148e-13 4.027377389914654771e-14 -2.377755483555076682e-14 -1.277925172027904142e-15
3.822000000000000000e+03 4.915408325195312500e+01 -1.483577060699462891e+01 1.845830752784591300e-13 -1.953986560228326841e-13 -3.244674053905476779e-15 7.039623739621067577e-14
3.823000000000000000e+03 4.935418319702148438e+01 -1.225235652923583984e+01 1.874124770304130827e-13 4.005762735403983754e-13 1.763966305922542999e-13 -2.678390278662567958e-13
3.824000000000000000e+03 7.205983734130859375e+01 7.702030181884765625e+00 1.000635392687382330e-13 1.049405245860668412e-12 3.448406382493274247e-13 6.467764691875377281e-14
3.825000000000000000e+03 7.332784271240234375e+01 8.771741867065429688e+00 3.364760117123381800e-14 5.634317882044492798e-13 1.791238191843971816e-13 -3.116510345689375849e-14
3.826000000000000000e+03 4.209998703002929688e+01 2.578114891052246094e+01 2.770265299708446483e-14 1.187256605419788336e-14 1.187256605419788336e-14 9.601810991265169459e-14
3.827000000000000000e+03 7.192558288574218750e+01 1.692614316940307617e+00 2.012387652350344780e-13 1.458773640078403488e-12 4.980037107520096651e-13 2.784696538843996899e-14
3.828000000000000000e+03 7.286527252197265625e+01 3.311535120010375977e+00 1.656658209052419561e-13 1.123271506191236835e-12 3.866811927079327749e-13 3.818645432415029850e-14
3.829000000000000000e+03 4.139904785156250000e+01 2.692447853088378906e+01 -6.318465986965976500e-14 1.101737041983748278e-13 1.409671279039475048e-14 3.650828215586397751e-14
3.830000000000000000e+03 7.017172241210937500e+01 -6.930487632751464844e+00 1.246478099773198900e-13 7.396847349037949382e-13 2.592997702405980265e-13 4.786357535356902670e-14
3.831000000000000000e+03 3.967146301269531250e+01 1.160168170928955078e+01 9.358047783946180087e-14 1.316078187185362736e-13 6.755648828977306453e-14 1.266976042986868792e-14
3.832000000000000000e+03 4.052174377441406250e+01 1.082653999328613281e+01 1.209941570762609886e-13 2.806093844700402462e-13 1.204810583981322236e-13 2.238019780620176952e-14
3.833000000000000000e+03 4.088869094848632812e+01 2.144393157958984375e+01 1.077839735324180592e-13 2.978233436777555365e-13 1.216821917749202897e-13 -6.330748642327521658e-14
3.834000000000000000e+03 4.063212966918945312e+01 2.057946968078613281e+01 3.461841612526807277e-14 1.292138325590524994e-13 4.914967629936206617e-14 -8.367871689616765418e-14
3.835000000000000000e+03 4.300096130371093750e+01 2.622782945632934570e+00 1.049340668068769744e-13 3.652283824765595321e-13 1.410487395284154566e-13 7.519878545813457604e-14
3.836000000000000000e+03 6.903277587890625000e+01 -9.217844009399414062e+00 -7.394331322371425208e-14 6.545742138423793488e-13 1.741892762842367492e-13 1.006002328966457138e-13
3.837000000000000000e+03 7.380555725097656250e+01 -2.289857292175292969e+01 -3.655743039559546104e-14 2.130872789416621282e-13 5.295895286975410565e-14 -3.263928976269050986e-14
3.838000000000000000e+03 6.566799163818359375e+01 -1.713274002075195312e+01 -1.449079910426954998e-14 1.767934485873839945e-13 4.869079450612115445e-14 4.557124606500821424e-16
3.839000000000000000e+03 6.624169921875000000e+01 -1.591386127471923828e+01 -8.566433830738476307e-15 6.495509425469281339e-14 1.691659812718630113e-14 6.535778049408108581e-14
3.840000000000000000e+03 7.151698303222656250e+01 -1.870062708854675293e+00 1.005428650491940745e-13 1.141112595040572053e-12 3.724966298954135446e-13 4.968725084153469140e-14
3.841000000000000000e+03 1.427185916900634766e+01 2.533891916275024414e+00 -1.661624532628760975e-13 -9.408795221882079729e-14 -7.807511961162999503e-14 1.940505183839827397e-13
3.842000000000000000e+03 7.605934143066406250e+01 2.351970100402832031e+01 -3.125453954821197193e-15 -1.614678036459052390e-13 -4.937797539556962323e-14 -2.161383322752535863e-13
3.843000000000000000e+03 7.252388000488281250e+01 1.549861717224121094e+01 4.299397277540868700e-14 1.230826096425274851e-12 3.821460292305345341e-13 -1.133762205754625108e-13
3.844000000000000000e+03 6.357241439819335938e+01 -1.884914398193359375e+01 -8.463873726232210015e-14 1.152762781064797792e-13 9.191260389774819767e-15 7.021928543726567440e-15
3.845000000000000000e+03 4.792419433593750000e+01 -9.014079093933105469e+00 3.890030997517369971e-14 -7.483033290234253343e-14 -1.077900755577700792e-14 -5.275134170625028762e-14
3.846000000000000000e+03 4.812908172607421875e+01 -9.718924522399902344e+00 -5.100152071502161988e-14 2.389315280999435021e-14 -8.132510710321359804e-15 4.769734344360447575e-14
3.847000000000000000e+03 4.514313507080078125e+01 3.275120162963867188e+01 7.413611147503648691e-14 2.376518849333403294e-13 9.353639824488668708e-14 -2.386988989713095810e-14
3.848000000000000000e+03 7.017758178710937500e+01 -5.129634857177734375e+00 -6.971264538535972347e-15 9.577822476097841431e-13 2.852432916602976043e-13 2.209853122974586581e-13
3.849000000000000000e+03 2.500690269470214844e+01 -6.885451316833496094e+00 1.776099680197464059e-14 -2.211428875307022701e-13 -6.101456823505782556e-14 -1.464343613543066941e-14
3.850000000000000000e+03 6.819861602783203125e+01 -1.067306232452392578e+01 5.168425298743110907e-14 4.796598773552929185e-13 1.594032387640040294e-13 1.372273198936915795e-13
3.851000000000000000e+03 6.861765289306640625e+01 -9.956235885620117188e+00 1.580346232566212650e-13 9.598725893983361956e-13 3.353721651517399538e-13 8.564545286079278119e-14
3.852000000000000000e+03 6.830191802978515625e+01 3.543250656127929688e+01 9.978331874692988185e-15 6.676651961336210750e-13 2.032930573013513875e-13 -9.393810192605614451e-14
3.853000000000000000e+03 2.553648757934570312e+01 -6.461177825927734375e+00 -6.195112917670511643e-14 -1.797218075044997726e-14 -2.397699213111358085e-14 4.497454248212837125e-14
3.854000000000000000e+03 7.180523681640625000e+01 -3.042222976684570312e+00 1.938152600650805413e-13 9.980826928823738342e-13 3.575693614896874317e-13 4.144198141120894463e-14
3.855000000000000000e+03 7.050297546386718750e+01 -6.159065723419189453e+00 3.436423509032421331e-14 9.297465141527849752e-13 2.892332098651528849e-13 1.707261312574107071e-13
3.856000000000000000e+03 7.082006835937500000e+01 -5.383656501770019531e+00 6.704990837720636865e-14 7.607508373252969136e-13 2.483402210002455535e-13 1.017436392840125048e-13
3.857000000000000000e+03 4.194388580322265625e+01 2.211881828308105469e+01 6.053685520533355624e-14 3.004500673860904802e-13 1.082960760998008531e-13 -4.635092019943977404e-14
3.858000000000000000e+03 4.114148330688476562e+01 2.230501556396484375e+01 -2.375782786172568779e-15 2.277365579103629578e-13 6.760823183845493523e-14 -1.971611655676112212e-14
3.859000000000000000e+03 2.721331214904785156e+01 -9.231694221496582031e+00 -1.307540637178125631e-13 -1.017884032812090001e-13 -6.976273806682739553e-14 1.346908424636888979e-13
3.860000000000000000e+03 2.454873085021972656e+01 -5.054989337921142578e+00 1.236146838915538199e-14 -9.424628639358514914e-14 -2.456544455429598289e-14 -3.001905093859974505e-14
3.861000000000000000e+03 4.037791442871093750e+01 1.972566413879394531e+01 -1.522530203041522201e-14 8.497677117091234633e-14 2.092543904808324279e-14 9.472678446763999061e-14
3.862000000000000000e+03 5.628367614746093750e+01 -2.388481140136718750e+01 2.167218668251442298e-14 2.837937675657931091e-13 9.163978983203063811e-14 2.047829543742538116e-14
3.863000000000000000e+03 1.780353164672851562e+01 3.821175098419189453e-01 -5.299935972946992480e-14 6.878788445970063226e-14 4.736557842585685865e-15 1.865109087138827615e-13
3.864000000000000000e+03 4.373149490356445312e+01 2.760644340515136719e+01 -3.122088904679992671e-14 8.955925329687600134e-14 1.750150995264918019e-14 -1.948705513090103619e-14
3.865000000000000000e+03 2.922236251831054688e+01 -1.415327644348144531e+01 -1.609590417764664161e-13 -1.604843374077707940e-13 -9.643301375527116304e-14 9.196725276943915062e-14
3.866000000000000000e+03 3.189229583740234375e+01 -1.442585754394531250e+01 2.411387773758755931e-14 -5.158013773043368388e-13 -1.475062476677391210e-13 1.115853896370595788e-13
3.867000000000000000e+03 2.346103668212890625e+01 -3.663905858993530273e+00 3.747356767881855621e-14 -2.470078449504781171e-13 -6.286028690844283617e-14 1.096006423638440364e-13
3.868000000000000000e+03 7.094582366943359375e+01 -1.932332229614257812e+01 -1.216008088493480965e-13 1.366080371652950154e-13 4.502166461905002248e-15 -1.316025518676702463e-14
3.869000000000000000e+03 5.017829132080078125e+01 3.451980590820312500e+01 1.478357638130117779e-13 2.234864989467469365e-13 1.113966774726748987e-13 7.709344230708015111e-14
3.870000000000000000e+03 4.859914398193359375e+01 3.459412002563476562e+01 8.036588294802957111e-14 2.567635503086113102e-13 1.011388238783550442e-13 6.032158008772298130e-14
3.871000000000000000e+03 1.891572380065917969e+01 4.401396214962005615e-01 -2.609076793318437087e-14 1.169371674145103235e-14 -4.319115442223296283e-15 1.743707310703293545e-13
3.872000000000000000e+03 6.666278076171875000e+01 -1.931849288940429688e+01 -1.512146392259813843e-13 2.783258378543512768e-13 3.813335891088460994e-14 -5.127664040442160565e-14
3.873000000000000000e+03 6.694368743896484375e+01 -1.800321960449218750e+01 -3.759507286103629109e-14 3.041444591837805245e-13 7.996481623563644892e-14 -9.757574929254372864e-14
3.874000000000000000e+03 7.287061309814453125e+01 6.869650840759277344e+00 1.449021431272276561e-13 8.627425488426376798e-13 3.022934008146960227e-13 1.890168658527299761e-13
3.875000000000000000e+03 4.046381378173828125e+01 -1.736384773254394531e+01 -2.029364632068209051e-13 -8.697276704166742589e-14 -8.697276704166742589e-14 -6.221301143520541199e-14
3.876000000000000000e+03 3.857836914062500000e+01 -1.682689476013183594e+01 -1.389562428880455891e-13 -1.739300435447954651e-13 -9.386588728510503188e-14 2.385643901392855981e-14
3.877000000000000000e+03 2.051938247680664062e+01 -1.686328053474426270e+00 -1.035340636466007547e-13 -4.437174301488537587e-14 -4.437174301488537587e-14 7.519976124008981300e-14
3.878000000000000000e+03 2.029305267333984375e+01 -5.885857343673706055e-01 -1.193004435474584457e-13 6.059926543992020034e-15 -3.397215370343556473e-14 2.031894482312432415e-14
3.879000000000000000e+03 1.335400676727294922e+01 3.928193569183349609e+00 -3.425777321324971481e-14 -1.976856991905279193e-13 -6.958303833300150121e-14 1.076104876322932224e-14
3.880000000000000000e+03 7.254242706298828125e+01 -8.339492082595825195e-01 5.656316953987945706e-14 8.477584411380190144e-13 2.712964943842044452e-13 -1.217728615697261790e-14
3.881000000000000000e+03 2.793741798400878906e+01 -1.058764934539794922e+01 1.707184571389085831e-14 -1.299363448867968396e-13 -3.385934924365202603e-14 6.418660497857150982e-14
3.882000000000000000e+03 7.366779327392578125e+01 -2.351340484619140625e+01 -2.826890976891701518e-14 -1.036171474143310345e-13 -3.956581698556782545e-14 -1.103708070711350089e-14
3.883000000000000000e+03 7.145433807373046875e+01 -3.828183889389038086e+00 8.437238266986030188e-14 7.681747490710655324e-13 2.557641598510684844e-13 1.417761714235174497e-13
3.884000000000000000e+03 4.178054046630859375e+01 6.594910144805908203e+00 4.231237213901672956e-14 2.125753999909774095e-13 7.646633299425095731e-14 6.334181497456153886e-14
3.885000000000000000e+03 4.223438644409179688e+01 4.045947551727294922e+00 4.829724267003607241e-14 1.579516682378989678e-13 6.187467259475415426e-14 4.760390893325874839e-14
3.886000000000000000e+03 7.242073822021484375e+01 -3.390353441238403320e+00 5.397094717755207549e-14 6.865191466524922514e-13 2.221470349252768761e-13 7.405966844561268081e-14
3.887000000000000000e+03 7.678615570068359375e+01 2.585722541809082031e+01 -3.487541269772860553e-15 -4.132531990219678875e-13 -1.250222256450606029e-13 -8.804428404873484992e-14
3.888000000000000000e+03 7.208993530273437500e+01 2.767353248596191406e+01 2.155265440943743283e-13 1.007387532767078930e-12 3.668742013743925279e-13 -4.749426560043436274e-14
3.889000000000000000e+03 7.137516021728515625e+01 2.743972587585449219e+01 2.400456135948081382e-13 1.292401407247678602e-12 4.597340845687025723e-13 -2.418424618552683647e-13
3.890000000000000000e+03 7.248387908935546875e+01 2.466472434997558594e+01 1.072348048032634171e-13 9.381012676737410239e-13 3.136008163220904699e-13 -1.772139835050368095e-13
3.891000000000000000e+03 7.247332000732421875e+01 2.566403007507324219e+01 1.539933545263716397e-13 9.581406848480078509e-13 3.336402063913029847e-13 4.373555361474073437e-16
3.892000000000000000e+03 7.533594512939453125e+01 2.275959396362304688e+01 2.524140225719333219e-14 1.023196420169361631e-13 3.826831158817295409e-14 -2.072781779115934198e-13
3.893000000000000000e+03 7.251499176025390625e+01 2.289382171630859375e+01 1.953082064565930809e-13 1.067348900235520759e-12 3.787971455601613080e-13 -1.747161036723746119e-13
3.894000000000000000e+03 7.554332733154296875e+01 3.347142028808593750e+01 2.524138023433670358e-14 5.656868203030018805e-14 2.454301850998447804e-14 2.134202238763052706e-13
3.895000000000000000e+03 2.599391555786132812e+01 -7.159945487976074219e+00 -1.214819938437708413e-13 5.659479097386635460e-14 -1.946616052215816711e-14 2.282116485260825278e-14
3.896000000000000000e+03 4.187053680419921875e+01 2.485566139221191406e+01 4.375308370273799097e-14 2.475060629537895185e-13 8.737774365814507394e-14 7.225975053775160473e-14
3.897000000000000000e+03 4.141349411010742188e+01 2.313857841491699219e+01 6.961376868832788722e-14 2.128382648076965200e-13 8.473561072643367997e-14 -2.538698350390382330e-14
3.898000000000000000e+03 5.771236038208007812e+01 -2.358593559265136719e+01 8.267421713588699039e-14 8.118275474609804032e-14 4.915709291984822482e-14 6.986816995183803281e-14
3.899000000000000000e+03 6.227555847167968750e+01 -2.055462837219238281e+01 -1.840639457257459144e-13 3.557494739330618883e-13 5.150565439643664534e-14 6.528035490643846472e-14
3.900000000000000000e+03 7.247766113281250000e+01 1.312513637542724609e+01 -2.550715037406489638e-14 9.498382982919828521e-13 2.772993423424963133e-13 -1.507400161724486987e-13
3.901000000000000000e+03 1.539873504638671875e+01 2.728169202804565430e+00 -8.886187413074259078e-14 -3.011516275068515380e-13 -1.170040491360255230e-13 1.743970365255392840e-13
3.902000000000000000e+03 6.309170150756835938e+01 -1.940550041198730469e+01 -9.855485161693391949e-14 4.838981320677560038e-13 1.156029753261039739e-13 1.853235311521581052e-13
3.903000000000000000e+03 7.247256469726562500e+01 8.319115042686462402e-01 1.870265281620625553e-13 1.178177022088944259e-12 4.095610569437857507e-13 3.455225946395572290e-14
3.904000000000000000e+03 5.953300857543945312e+01 -2.181403350830078125e+01 -3.610287185851733527e-14 1.217801900987858232e-13 2.570319445564100969e-14 2.501304895087715086e-14
3.905000000000000000e+03 4.035464477539062500e+01 1.262983036041259766e+01 1.243749976056682249e-13 4.193111515556763313e-13 1.631058433931506513e-13 9.341759509777069342e-15
3.906000000000000000e+03 2.401699066162109375e+01 -4.355127334594726562e+00 -4.335269122857088320e-14 -1.701297387473807432e-13 -6.404473034803820353e-14 9.499022526676323408e-14
3.907000000000000000e+03 4.246356201171875000e+01 -1.722507667541503906e+01 -6.317406179342371919e-14 6.442729786086329180e-14 3.759707143527533761e-16 1.363502409937322746e-13
3.908000000000000000e+03 4.261207580566406250e+01 -1.662294960021972656e+01 -6.950592445348346970e-14 1.532155478878305388e-13 2.511288533623822622e-14 2.060873986655525902e-13
3.909000000000000000e+03 1.794230461120605469e+01 1.938717007637023926e+00 -2.040485598683253882e-14 -3.633147927471769290e-13 -1.151158975001148610e-13 1.746094046260748822e-14
3.910000000000000000e+03 7.360443115234375000e+01 3.085254907608032227e+00 -4.437852944285877732e-14 8.502486366877837209e-13 2.417610382721147033e-13 -2.740787197891281224e-14
3.911000000000000000e+03 6.988878631591796875e+01 3.357062530517578125e+01 3.592888451488772394e-14 7.016623068158145404e-13 2.212773692576719409e-13 -1.072926334366383627e-13
3.912000000000000000e+03 7.254144287109375000e+01 9.400999069213867188e+00 -9.639798216663861968e-15 9.566386311582464330e-13 2.840996481037055821e-13 -3.734393352140602182e-15
3.913000000000000000e+03 2.163072776794433594e+01 -1.726734638214111328e+00 -1.716465104816336518e-13 -4.496844384490814028e-14 -6.498448290983074860e-14 6.852151631471167792e-14
3.914000000000000000e+03 2.097015190124511719e+01 -1.143322706222534180e+00 3.650632381568992557e-14 -7.585632697069272234e-14 -1.180500162412719684e-14 -2.825621105097177871e-14
3.915000000000000000e+03 1.608675956726074219e+01 2.303744077682495117e+00 -1.002774049235245768e-13 -6.585150583464025043e-14 -4.983867322744944817e-14 2.119062033050650440e-13
3.916000000000000000e+03 6.682238769531250000e+01 -1.560208034515380859e+01 5.062320869572353721e-14 3.076390867311901145e-13 1.074786893057004533e-13 7.110458055681334599e-14
3.917000000000000000e+03 6.645220947265625000e+01 -1.497666072845458984e+01 8.191679349818861700e-14 8.085814461565588029e-14 4.883248278940606479e-14 5.623628258487507747e-14
3.918000000000000000e+03 5.865989685058593750e+01 -2.317804718017578125e+01 -8.321932010689481185e-14 3.296099965232127116e-14 -1.507749647518524111e-14 4.544560460915079980e-15
3.919000000000000000e+03 7.249026489257812500e+01 1.390077304840087891e+01 -5.520882484359203313e-14 1.005735425496645519e-12 2.851579920543773072e-13 -8.213204151074487980e-14
3.920000000000000000e+03 3.717335128784179688e+01 -1.627770614624023438e+01 -7.179769745315617291e-14 2.437352620079935583e-13 5.158126394544035320e-14 5.549450872791017453e-14
3.921000000000000000e+03 3.482231140136718750e+01 -1.551247310638427734e+01 -6.424678497540803335e-14 -2.753433569200377379e-14 -2.753433569200377379e-14 1.245651395616678703e-13
3.922000000000000000e+03 7.281646728515625000e+01 7.772083759307861328e+00 3.286725343385095421e-14 9.291049917273253023e-13 2.885916603346388998e-13 5.795803290423173770e-14
3.923000000000000000e+03 7.255890655517578125e+01 1.633199453353881836e+00 2.156992303953969570e-13 1.190465261091677718e-12 4.218493501566278336e-13 1.123656560592795062e-13
3.924000000000000000e+03 9.781092643737792969e+00 5.014055252075195312e+00 2.860270681870509535e-14 -2.164964442528255484e-13 -5.636812156904931481e-14 1.618780420310512308e-14
3.925000000000000000e+03 4.052193832397460938e+01 1.616667556762695312e+01 1.552723412424406903e-15 3.209220812271790235e-13 9.674244505529852600e-14 -1.179493514576884783e-13
3.926000000000000000e+03 6.539701080322265625e+01 -1.890493965148925781e+01 -1.575259698073996906e-14 3.135055149511289940e-13 8.932587877924849651e-14 -4.080650002472908933e-14
3.927000000000000000e+03 6.696971893310546875e+01 -1.275777721405029297e+01 8.920009777471302193e-14 4.156739514225848975e-13 1.514622167920684492e-13 9.356712182394949506e-14
3.928000000000000000e+03 7.116318511962890625e+01 -2.036737251281738281e+01 -2.420537186485771652e-13 2.508325578493009189e-13 2.633653496634667975e-15 -6.905152177046763873e-14
3.929000000000000000e+03 7.153039550781250000e+01 -1.967510795593261719e+01 -7.199310456595595098e-14 2.150571658688510412e-13 4.291921703561581147e-14 -1.181772507543449313e-13
3.930000000000000000e+03 4.482315826416015625e+01 -1.562265205383300781e+01 -9.519633887601630651e-14 -7.511164270852105362e-14 -5.109239379773485024e-14 1.434018478778647382e-14
3.931000000000000000e+03 1.224884128570556641e+01 4.523613929748535156e+00 1.031211588017368064e-13 -1.845599682196580327e-13 -2.443164214775001009e-14 5.253100133161513197e-14
3.932000000000000000e+03 4.207125473022460938e+01 -1.653593254089355469e+01 -4.905275201327365109e-14 3.449849726635395575e-13 8.877967127727745544e-14 -1.929018603923429720e-14
3.933000000000000000e+03 5.250490951538085938e+01 3.593777084350585938e+01 3.648644903461555067e-14 2.443918006335421556e-13 8.426347456163413296e-14 5.876730173456565232e-14
3.934000000000000000e+03 4.913308334350585938e+01 -1.343907070159912109e+01 1.243259916674718801e-13 9.903351332355911363e-14 6.700785488544108714e-14 -2.410615652405356801e-13
3.935000000000000000e+03 5.094911956787109375e+01 -1.375384616851806641e+01 3.215573152800382806e-13 9.205932863893748208e-14 1.240849870770555086e-13 -2.462146968511963463e-13
3.936000000000000000e+03 6.681735229492187500e+01 -1.397527694702148438e+01 5.919518212193705664e-14 2.998750607639127930e-13 1.077210694776231659e-13 4.127173117694261928e-14
3.937000000000000000e+03 7.084925842285156250e+01 2.925946044921875000e+01 1.729150541284960041e-13 1.103502814299439638e-12 3.829253537521171147e-13 -1.713230794210540697e-13
3.938000000000000000e+03 7.052550506591796875e+01 3.018327522277832031e+01 2.565982365823615829e-13 1.070740609891707162e-12 3.982016539422206236e-13 -2.031155869582426665e-13
3.939000000000000000e+03 4.769568634033203125e+01 -1.501554584503173828e+01 1.221421086424227462e-14 5.098561004814039510e-14 1.895994652782468509e-14 1.113767349289647435e-13
3.940000000000000000e+03 4.676719284057617188e+01 -1.538393592834472656e+01 -9.516537812772826732e-14 -8.653611139296246701e-14 -5.451044956671265151e-14 -1.849685963951712940e-15
3.941000000000000000e+03 6.325245666503906250e+01 4.133846664428710938e+01 -3.291787551091066022e-14 3.404621961959619636e-13 9.226329417263631760e-14 -5.375285991055661627e-14
3.942000000000000000e+03 4.111244964599609375e+01 -1.704640579223632812e+01 -1.511153127544545560e-13 -1.562655983344124477e-13 -9.221427468191281673e-14 1.277304406991849883e-13
3.943000000000000000e+03 3.612896347045898438e+01 -1.532954025268554688e+01 -4.979053126285930275e-14 -2.272180653264260775e-13 -8.310257863797243516e-14 1.689289441837715788e-13
3.944000000000000000e+03 4.068618392944335938e+01 9.929525375366210938e+00 1.178439500658639422e-14 1.423032969672527459e-13 4.622630810037151039e-14 -6.767153569280093262e-14
3.945000000000000000e+03 4.157437896728515625e+01 9.226784706115722656e+00 4.209393928257879058e-14 2.696704892810736220e-13 9.352932382571121916e-14 2.813729778957264199e-14
3.946000000000000000e+03 1.019744014739990234e+01 4.207655906677246094e+00 5.504903377215840388e-14 1.150943354294095555e-13 5.104301177690992453e-14 8.433531650808845370e-14
3.947000000000000000e+03 4.444175338745117188e+01 2.983987426757812500e+01 4.243716804423454739e-15 2.763244277489973477e-13 8.417044323897129865e-14 8.315792715887782016e-14
3.948000000000000000e+03 4.436106872558593750e+01 2.841932487487792969e+01 6.687252612552416209e-14 2.116634504386455395e-13 8.356079635738269951e-14 8.659898834270304824e-14
3.949000000000000000e+03 6.708932495117187500e+01 3.717458724975585938e+01 -7.003871495357000265e-14 4.503683667320124151e-13 1.140989023097963018e-13 -1.323411595154783127e-13
3.950000000000000000e+03 6.738319396972656250e+01 3.916884613037109375e+01 -1.532120919934057413e-13 5.176622477030823344e-13 1.093350534891665560e-13 -1.087347646275792223e-13
3.951000000000000000e+03 3.832003831863403320e+00 4.170308685302734375e+01 -4.200232758713555448e-14 3.918768792538634971e-14 -8.443920573434390408e-16 2.093308944966284363e-14
3.952000000000000000e+03 7.809130859375000000e+01 3.764553451538085938e+01 -5.388024434846124325e-15 -3.225657859307756725e-13 -9.838614298263159696e-14 8.893124274099092896e-14
3.953000000000000000e+03 7.753119659423828125e+01 3.901980209350585938e+01 6.514077234706042857e-15 -3.174648857597744955e-13 -9.328524281163041998e-14 1.312951890221000784e-13
3.954000000000000000e+03 6.034675216674804688e+01 4.012528610229492188e+01 3.211588777579134357e-14 1.767517068037433026e-13 6.266027871267357274e-14 -4.077005389107463129e-14
3.955000000000000000e+03 4.269797801971435547e+00 4.016411972045898438e+01 -3.515710875093107368e-14 5.355909265354272253e-14 5.520594831970315752e-15 2.835601524908085841e-14
3.956000000000000000e+03 2.884630966186523438e+01 -1.081915187835693359e+01 -9.510721068117442001e-14 -4.076023508515005944e-14 -4.076023508515005944e-14 1.889442005902509242e-14
3.957000000000000000e+03 7.245632934570312500e+01 1.088782691955566406e+01 -1.006841636973232479e-13 1.009121497301534998e-12 2.725311838182309376e-13 4.683894839639570623e-15
3.958000000000000000e+03 6.714979553222656250e+01 -1.466981983184814453e+01 6.276447054144942972e-14 5.301595208846709983e-13 1.778771899739461926e-13 9.479258198698270466e-14
3.959000000000000000e+03 7.208754730224609375e+01 -2.001502799987792969e+01 -1.706408723090718782e-13 2.928757767989981220e-13 3.667047541273601996e-14 -4.118456809853836276e-14
3.960000000000000000e+03 7.195782470703125000e+01 -1.899522972106933594e+01 -8.260540417925205103e-14 3.963722525115315198e-13 9.413005992069470307e-14 9.024669126082396180e-16
3.961000000000000000e+03 6.768263244628906250e+01 -1.301036071777343750e+01 9.363672760342306445e-14 5.662659468934350127e-13 1.979708037043101387e-13 9.692772843031272068e-14
3.962000000000000000e+03 7.468940734863281250e+01 -2.249559783935546875e+01 2.292631382861450712e-14 3.300822072269116170e-13 1.059025575025039634e-13 -8.889260448606897680e-14
3.963000000000000000e+03 7.333143615722656250e+01 -2.209259414672851562e+01 -1.299227381495321465e-13 1.501980912690589753e-13 6.082607121704174807e-15 -1.653871809469131815e-14
3.964000000000000000e+03 4.857082366943359375e+01 -1.459834384918212891e+01 4.533475340734362952e-15 -1.124344554633872895e-13 -3.237029242743327817e-14 -3.784401245610254094e-14
3.965000000000000000e+03 4.893420791625976562e+01 -1.543490219116210938e+01 -7.008836802493804974e-15 -1.402566349737247031e-13 -4.417964271871167858e-14 1.666065560252533162e-13
3.966000000000000000e+03 3.315422439575195312e+01 -1.442616367340087891e+01 -3.386311006993783512e-14 -1.060146572308753865e-13 -4.196333019024396649e-14 2.564352098450694423e-14
3.967000000000000000e+03 4.030475997924804688e+01 -1.645493888854980469e+01 -1.355713637055458443e-13 -1.953548542550642697e-13 -9.927786538818303419e-14 4.005536814776292087e-14
3.968000000000000000e+03 3.946976470947265625e+01 -1.662535667419433594e+01 -2.187184081851173412e-13 -3.224911928213086698e-13 -1.623628803019278033e-13 8.697761207012572049e-14
3.969000000000000000e+03 3.163614463806152344e+01 -1.379947090148925781e+01 -9.087995384449848446e-14 -3.894855358371751564e-14 -3.894855358371751564e-14 6.242261482020117214e-14
3.970000000000000000e+03 3.057990837097167969e+01 -1.448276233673095703e+01 9.693817065248647169e-14 -1.071456562796307965e-13 -3.062244968165292285e-15 -3.665401248037318538e-15
3.971000000000000000e+03 6.184996414184570312e+01 -2.140196037292480469e+01 -7.151366358901928288e-14 1.981060308202733933e-13 3.797771152462894872e-14 -6.946248182768469115e-14
3.972000000000000000e+03 6.085441970825195312e+01 -2.100370407104492188e+01 7.680412973361597229e-14 5.579152930119436749e-14 3.977870008213535424e-14 5.407192366926015514e-15
3.973000000000000000e+03 7.544900512695312500e+01 -2.194304084777832031e+01 7.196101895791395808e-14 2.595951882275460143e-13 9.946685537937441368e-14 8.648957201470852674e-14
3.974000000000000000e+03 7.671512603759765625e+01 1.059256458282470703e+01 3.449625025735147954e-14 -1.453442130105314645e-13 -3.325438814832763768e-14 -1.185079730745344784e-13
3.975000000000000000e+03 3.058955383300781250e+01 -1.360776424407958984e+01 -5.361499682806150635e-14 -2.803269498041077723e-13 -1.001825846672771414e-13 3.156343933506493282e-14
3.976000000000000000e+03 7.687252044677734375e+01 -2.193929672241210938e+01 -4.440644087253670103e-14 1.410969865250910615e-13 2.900716505101902376e-14 -1.047661425250838094e-14
3.977000000000000000e+03 7.706541442871093750e+01 -2.064376449584960938e+01 4.942432842657516756e-14 1.126837542004231751e-13 4.863242377165996611e-14 1.957426564315033896e-14
3.978000000000000000e+03 4.796161270141601562e+01 -1.434180068969726562e+01 1.285264483816966896e-13 -8.217008345447196493e-14 1.390690964757400686e-14 -5.516169593040680386e-14
3.979000000000000000e+03 3.246979904174804688e+01 -1.447429370880126953e+01 4.293483293503139175e-14 4.127611880760939655e-14 2.526328450635269979e-14 2.710356522821633779e-14
3.980000000000000000e+03 4.478058624267578125e+01 -2.497185230255126953e+00 1.022666177544380439e-13 1.353304539828195652e-13 7.127912355405635614e-14 2.808937097135109917e-14
3.981000000000000000e+03 4.572080612182617188e+01 -4.459485530853271484e+00 1.102386411322431314e-13 9.299607931596495791e-14 6.097041410158335339e-14 -1.520648163595358926e-13
3.982000000000000000e+03 4.509899139404296875e+01 -3.173982858657836914e+00 2.422564915598862667e-13 2.410770693316022228e-13 1.450000736884574093e-13 6.388613444009315009e-15
3.983000000000000000e+03 7.514318084716796875e+01 -2.043369102478027344e+01 -1.301029189980720813e-13 1.729963557389052609e-13 1.286803051403018552e-14 -1.102904795486150946e-13
3.984000000000000000e+03 4.351665496826171875e+01 -1.460769176483154297e+00 4.374948889490984372e-14 5.306299223259945685e-14 2.904374332181325347e-14 2.460101739698182174e-15
3.985000000000000000e+03 4.686136245727539062e+01 -5.495758533477783203e+00 1.696359998542944225e-14 -3.848083554277084706e-14 -6.455169904872768913e-15 4.127040980554490257e-16
3.986000000000000000e+03 4.633884048461914062e+01 -4.189828872680664062e+00 -4.130873296421047614e-14 2.804720736530267461e-14 -3.978457425562456282e-15 -6.126623188808244524e-14
3.987000000000000000e+03 4.701739120483398438e+01 -8.397957801818847656e+00 5.516765565422368511e-14 -2.210766834355448740e-14 9.917996023794169863e-15 -1.420378571703739823e-13
3.988000000000000000e+03 4.274411392211914062e+01 1.596161723136901855e+00 7.289514722093673460e-14 1.227426770248826737e-13 5.869134659611946470e-14 -3.943506220356607361e-14
3.989000000000000000e+03 4.604375457763671875e+01 -3.537797212600708008e+00 4.248594951869986980e-14 1.097101603357922284e-13 4.565883329516080835e-14 -1.227997873743183477e-13
3.990000000000000000e+03 4.261924362182617188e+01 3.327602386474609375e+00 -1.082072189555020880e-13 1.823802204094573942e-13 2.225190111381294966e-14 -1.187246644312328625e-13
3.991000000000000000e+03 2.953933906555175781e+01 -1.207138824462890625e+01 -1.379397491412318044e-13 -7.055476808261879063e-14 -6.254835516715517851e-14 -1.692190224750200755e-14
3.992000000000000000e+03 4.997831344604492188e+01 -1.547679615020751953e+01 1.820436162924821133e-13 -2.879888981368455836e-13 -3.178358319805632548e-14 4.045864731021427130e-14
3.993000000000000000e+03 5.111554718017578125e+01 -1.502043819427490234e+01 1.669733822777866306e-13 -6.569282607043341882e-14 3.038416957271139474e-14 -1.640498988823152482e-13
3.994000000000000000e+03 4.236966323852539062e+01 2.294605970382690430e+00 -5.222208502761969962e-14 6.912100557719680349e-14 5.069675571950068085e-15 -1.668717654291704267e-13
3.995000000000000000e+03 2.738691139221191406e+01 -8.115251541137695312e+00 -9.324972841421794167e-14 5.786780017842663160e-15 -2.623888350247304685e-14 6.472878060371362041e-14
3.996000000000000000e+03 4.601054382324218750e+01 -5.056265830993652344e+00 5.781661228335815972e-14 -2.097240024874491571e-14 1.105326327157079430e-14 -1.444974917714017537e-13
3.997000000000000000e+03 4.966278457641601562e+01 -1.508721828460693359e+01 2.123959238738495903e-13 -2.749807759966360621e-13 -1.877545597564912044e-14 6.054203904697075256e-14
3.998000000000000000e+03 4.797256469726562500e+01 -1.172591972351074219e+01 -4.952884551600277019e-14 4.739977399297046201e-14 -6.387209169261885786e-16 -8.412236564888514456e-14
3.999000000000000000e+03 4.831785583496093750e+01 -1.039465713500976562e+01 2.544394138740899147e-14 3.540366513409692883e-13 1.138441825618979886e-13 -1.739965729006046069e-13
4.000000000000000000e+03 4.619769573211669922e+00 4.695214271545410156e+00 -5.417993392256223451e-14 -9.184639133226132901e-14 -4.380789689882071125e-14 3.949901996734735132e-14
4.001000000000000000e+03 4.390261077880859375e+01 -1.606637763977050781e+01 -1.688501633434133509e-13 -3.011191014416769729e-13 -1.409907753697689503e-13 3.177817319862221226e-15
4.002000000000000000e+03 4.443930816650390625e+01 -1.409109383821487427e-01 6.915653352713643787e-14 -6.186338333963314895e-14 2.187946242097112831e-15 -2.213521216093330274e-14
4.003000000000000000e+03 7.720942974090576172e+00 5.945937156677246094e+00 -2.151963638752710239e-13 -2.360059271221039839e-14 -7.163909222784869968e-14 1.901421321824983690e-13
4.004000000000000000e+03 4.310592269897460938e+01 9.054859280586242676e-01 -1.237797570604465269e-13 8.420437876697009494e-14 -1.187261433507587685e-14 -2.557104376334218276e-14
4.005000000000000000e+03 4.088667869567871094e+00 3.065610504150390625e+01 2.162995870196200709e-14 -3.648096703738092084e-14 -4.455302246515789946e-15 9.474185487783753912e-14
4.006000000000000000e+03 7.154299163818359375e+01 2.954004287719726562e+01 1.833836495200927286e-13 7.191062524093683184e-13 2.707469665130801673e-13 -1.502076593532311599e-13
4.007000000000000000e+03 7.573988342285156250e+01 3.140220069885253906e+01 9.349304371051442297e-14 -2.801881990310839399e-13 -5.600854591854449727e-14 2.664076099480328086e-13
4.008000000000000000e+03 7.625378417968750000e+01 3.439977645874023438e+01 -4.778298186270367454e-14 -1.577312634887598208e-13 -6.165427462187858532e-14 1.798508851612659609e-13
4.009000000000000000e+03 7.086630249023437500e+01 3.149127006530761719e+01 1.289069220290761653e-13 7.872609899053917282e-13 2.748503735803403680e-13 -9.785264775113294844e-14
4.010000000000000000e+03 7.014031410217285156e+00 7.353890419006347656e+00 -1.394840325056115327e-13 -2.427826548741934820e-13 -1.146800075691942200e-13 1.274661799721688027e-13
4.011000000000000000e+03 3.897498130798339844e+00 7.814807891845703125e+00 -4.912342166612897187e-15 -1.393581295283316535e-13 -4.328114404958220696e-14 1.502579527815073313e-14
4.012000000000000000e+03 4.813352584838867188e+01 -1.227286720275878906e+01 1.507905264411593671e-13 4.306320924851725351e-13 1.744267843226468551e-13 -9.031800508223566948e-14
4.013000000000000000e+03 5.199454784393310547e+00 5.394815921783447266e+00 -1.071647314616029634e-13 -9.167869236123213361e-14 -5.965302714685052909e-14 7.214678344764219320e-14
4.014000000000000000e+03 6.721302986145019531e+00 4.857973575592041016e+00 -1.189023245097217685e-13 4.054376056888617241e-14 -2.350756985987703662e-14 -5.430160935840236749e-15
4.015000000000000000e+03 7.120049476623535156e+00 5.730144500732421875e+00 -9.824025002779651627e-14 -1.336048649101459485e-13 -6.955353448138273942e-14 -6.539559204484651778e-14
4.016000000000000000e+03 4.529574394226074219e+00 5.401367187500000000e+00 2.142688424692368310e-16 -9.141006772047169382e-14 -2.735873898577437929e-14 -9.611393983217225712e-14
4.017000000000000000e+03 3.511305809020996094e+00 2.783315658569335938e+01 8.722277051011542714e-14 8.313213669969982123e-14 5.110647148531821671e-14 3.359815138777311194e-14
4.018000000000000000e+03 4.333818912506103516e+00 2.966682434082031250e+01 -2.863469078279341773e-14 -1.495248559300541014e-13 -5.344786367504107683e-14 1.189774461677478579e-13
4.019000000000000000e+03 7.265885925292968750e+01 8.617589950561523438e+00 6.646775279695385508e-14 1.057882514227115323e-12 3.373050807848471111e-13 1.560887107499714377e-13
4.020000000000000000e+03 7.598855590820312500e+01 1.055698490142822266e+01 1.697871444134024799e-14 -6.134983065184465567e-14 -1.331133452433814340e-14 -1.837656613793044180e-14
4.021000000000000000e+03 7.580856323242187500e+01 3.057984542846679688e+01 6.194181181428531913e-14 -1.107063523969262220e-13 -1.462936183597909195e-14 3.160145756186949484e-14
4.022000000000000000e+03 7.591447448730468750e+01 2.894368171691894531e+01 -4.862585757225285077e-14 -1.123415528897324378e-13 -4.829022246096922877e-14 4.464300362217767104e-14
4.023000000000000000e+03 7.234242248535156250e+01 2.669940376281738281e+01 1.885052715051155348e-13 8.585541132200003034e-13 3.141178181280401827e-13 -6.855235509025531249e-14
4.024000000000000000e+03 3.325030088424682617e+00 2.214759635925292969e+01 -2.374899796676703534e-14 -1.016800372740690739e-13 -3.762871023343765386e-14 -2.658148969491257174e-14
4.025000000000000000e+03 4.165285587310791016e+00 2.365792083740234375e+01 2.627317139617790093e-14 -1.259929118500868750e-13 -2.991592298320563947e-14 -5.238565047786629403e-14
4.026000000000000000e+03 7.284400177001953125e+01 5.121941089630126953e+00 -2.306113098063129058e-14 9.280111401555046768e-13 2.714849829318910501e-13 2.036495565281917774e-14
4.027000000000000000e+03 7.318900299072265625e+01 1.234943389892578125e+01 -8.584150371863247253e-14 6.037240477506367053e-13 1.553647618543485542e-13 -7.506874896007209585e-14
4.028000000000000000e+03 7.604889678955078125e+01 2.272352027893066406e+01 7.745843896844739618e-14 -5.830542483282324939e-14 5.745905595939959642e-15 -6.080823778537025603e-14
4.029000000000000000e+03 7.603894805908203125e+01 2.112281799316406250e+01 9.108354668370052809e-14 -1.439679945354141455e-13 -1.586533367788772741e-14 -9.353746211826843848e-14
4.030000000000000000e+03 7.612947845458984375e+01 -1.186848258972167969e+01 8.326587981393948623e-14 2.186891753840417008e-13 9.058651452651528269e-14 -1.019073063782127697e-13
4.031000000000000000e+03 7.676776123046875000e+01 2.350072669982910156e+01 8.251576098837823392e-14 -3.763946348610963666e-13 -8.816366148418908200e-14 1.069270675691305628e-14
4.032000000000000000e+03 3.442794799804687500e+00 2.697352027893066406e+01 -9.269444071905233451e-15 -1.869764109166394128e-13 -5.887375683537657278e-14 1.641909400324284563e-13
4.033000000000000000e+03 3.776274204254150391e+00 2.994814109802246094e+01 6.754633067066959096e-14 2.894842839832462156e-14 2.894842839832462156e-14 6.416383673294931422e-14
4.034000000000000000e+03 7.621163177490234375e+01 -1.659118652343750000e+01 1.687517652199967133e-14 3.732397962745437336e-13 1.170345016645452096e-13 -2.382480877079901083e-13
4.035000000000000000e+03 7.597584533691406250e+01 2.815626144409179688e+01 7.677286405346692155e-14 -3.331049357787468912e-13 -7.689962083995763309e-14 -2.861592392081405145e-14
4.036000000000000000e+03 7.440888977050781250e+01 2.898048591613769531e+01 1.052669439788843364e-13 2.281181970750778554e-13 1.000155429938150153e-13 1.508849740029100106e-13
4.037000000000000000e+03 7.680252075195312500e+01 -9.448555946350097656e+00 3.540814898770651420e-14 -3.057602592339628278e-14 1.449636961644716789e-15 -1.423153858214759593e-13
4.038000000000000000e+03 7.612721252441406250e+01 -1.106481933593750000e+01 -7.931142179638805967e-14 8.038676061611349510e-14 3.226017623846608780e-16 -1.324796392379590237e-13
4.039000000000000000e+03 7.602506256103515625e+01 1.545147991180419922e+01 9.948904256039479282e-15 -1.861165843837497835e-14 -2.598826466458886535e-15 -7.486479020263683837e-14
4.040000000000000000e+03 7.673825836181640625e+01 1.788859558105468750e+01 -2.388637146421863228e-14 -2.618672423002066374e-13 -8.572608362110781255e-14 -3.121022320792810056e-14
4.041000000000000000e+03 7.463657379150390625e+01 1.791223144531250000e+01 1.039243899812226923e-13 5.249239628038471217e-13 1.886545119341581644e-13 -9.187164646661666323e-14
4.042000000000000000e+03 7.602383422851562500e+01 1.464704990386962891e+01 -9.490461225865245293e-15 8.743455585198331437e-14 2.338322881135189435e-14 -2.263038423376637770e-14
4.043000000000000000e+03 7.463788604736328125e+01 1.872982597351074219e+01 -2.694461303703784552e-16 4.116430503756096648e-13 1.234120905512295363e-13 -1.923240483970439785e-13
4.044000000000000000e+03 7.672911071777343750e+01 -2.204083204269409180e+00 -2.942140820793963385e-14 1.026630020686987443e-14 -5.746531976804454198e-15 -1.454254333057777848e-13
4.045000000000000000e+03 7.606287384033203125e+01 -3.088414669036865234e+00 9.322336874889938785e-14 1.314547700293627885e-13 6.740343960059957951e-14 -1.674508107044406224e-13
4.046000000000000000e+03 7.608252716064453125e+01 -3.902953863143920898e+00 1.297209410201782820e-13 5.559468900864783514e-14 5.559468900864783514e-14 -9.370419208360597496e-14
4.047000000000000000e+03 7.319947814941406250e+01 1.311298370361328125e+01 -4.979137151954297902e-14 8.021779312854249167e-13 2.257159709790831914e-13 -4.181480126887703042e-14
4.048000000000000000e+03 7.458334350585937500e+01 1.146681880950927734e+01 -6.544559832895356991e-15 5.004556339650856334e-13 1.481733166068879837e-13 1.001626692286212983e-13
4.049000000000000000e+03 7.682537841796875000e+01 5.032564163208007812e+00 8.598721032621915727e-15 -2.936960028475377182e-13 -8.552918573032086691e-14 -7.756283408513059419e-14
4.050000000000000000e+03 7.608758544921875000e+01 3.396836519241333008e+00 6.030450390350633461e-14 3.689769030677109152e-13 1.287844207361124593e-13 -1.998910206194720596e-13
4.051000000000000000e+03 7.610311889648437500e+01 2.574074268341064453e+00 2.450545192114739201e-13 1.965252640527895278e-13 1.324739336240263188e-13 -7.461438693463773308e-15
4.052000000000000000e+03 7.462754058837890625e+01 3.498252153396606445e+00 5.260694630566595253e-14 4.343043665585438751e-13 1.460733931816365905e-13 -5.156232767687153606e-14
4.053000000000000000e+03 7.614122772216796875e+01 1.750506281852722168e+00 2.166114781033262604e-13 9.283348964767360045e-14 9.283348964767360045e-14 -1.466522893791080695e-13
4.054000000000000000e+03 7.616355895996093750e+01 9.341515302658081055e-01 2.637716976262860502e-13 2.154311749607770721e-14 8.559444792484091624e-14 -8.218585181981805099e-14
4.055000000000000000e+03 7.621299743652343750e+01 7.359558582305908203e+00 -2.333842754470571990e-14 -1.000218262842177477e-14 -1.000218262842177477e-14 -1.670038619113606293e-14
4.056000000000000000e+03 7.670905303955078125e+01 1.141353130340576172e+01 3.980469382922069421e-14 -2.869179435596551364e-14 3.333869376108433182e-15 -3.855276896878347126e-14
4.057000000000000000e+03 7.312005615234375000e+01 1.018018627166748047e+01 1.757987405279735904e-14 9.225531579989953990e-13 2.820399350265262450e-13 -4.085675618355558147e-14
4.058000000000000000e+03 7.462216186523437500e+01 2.280422401428222656e+01 1.065667939634772077e-13 4.345545462098449052e-13 1.623363986638648448e-13 4.872406596028930337e-14
4.059000000000000000e+03 7.674314880371093750e+01 1.950637435913085938e+01 -2.585396123805459162e-14 -3.770878466251292860e-13 -1.208825520151307620e-13 -1.840039757930803099e-13
4.060000000000000000e+03 7.394409942626953125e+01 1.956360626220703125e+01 1.111781904061283355e-14 5.537761547068364987e-13 1.694681992393115566e-13 -1.355796442996382023e-13
4.061000000000000000e+03 7.601309967041015625e+01 1.303582096099853516e+01 -1.030496895497792775e-14 1.845905867666353811e-14 2.446226916505683108e-15 -5.657109776826575731e-14
4.062000000000000000e+03 7.603475189208984375e+01 9.719711303710937500e+00 6.428659552392898546e-14 -1.819954980448144910e-14 1.382611456286720816e-14 -1.394807256889854519e-13
4.063000000000000000e+03 7.354851531982421875e+01 7.996148586273193359e+00 5.855758315308906559e-14 6.656093861842626858e-13 2.172500867354473786e-13 1.908408869301381205e-13
4.064000000000000000e+03 7.684658813476562500e+01 5.830683231353759766e+00 -7.976514346491429819e-15 -3.418506178747503753e-15 -3.418506178747503753e-15 -1.156661572077055666e-13
4.065000000000000000e+03 7.685089111328125000e+01 -1.501185798645019531e+01 -4.951869467316287465e-14 2.075324504260955827e-13 4.740412435418756010e-14 -2.239179843063418551e-13
4.066000000000000000e+03 7.619439697265625000e+01 -1.580285835266113281e+01 -7.740931105750664676e-14 1.955793247623502373e-13 3.545100207857400376e-14 -2.911720344001000882e-13
4.067000000000000000e+03 7.620455932617187500e+01 6.602815628051757812e+00 4.092091384711241120e-14 3.835451379240184533e-13 1.273398162089656172e-13 -2.009194812477646530e-13
4.068000000000000000e+03 7.673343658447265625e+01 -1.366873025894165039e+00 1.194557555086669942e-13 2.341991075897886798e-13 1.060964602847894178e-13 6.873158048563074440e-14
4.069000000000000000e+03 7.492830657958984375e+01 -1.732734680175781250e+01 -1.137759184826128700e-13 3.172464732321272907e-13 6.104117184586518863e-14 -7.117744571906794993e-14
4.070000000000000000e+03 7.356769561767578125e+01 6.745944499969482422e+00 -2.858322167278645742e-14 1.040021909738675365e-12 3.034315962553713053e-13 -7.230136357238431399e-14
4.071000000000000000e+03 7.418331909179687500e+01 5.911251068115234375e+00 5.119704302430222453e-14 6.167038993191986673e-13 2.003702921898192768e-13 1.823408460829042781e-15
4.072000000000000000e+03 7.607482910156250000e+01 -4.702824592590332031e+00 -2.706490833856954603e-14 -8.022566850207288325e-14 -3.218717406863226549e-14 -2.066293777790509378e-13
4.073000000000000000e+03 7.604724121093750000e+01 -5.507211208343505859e+00 -3.429520868138656586e-14 8.177527970369084104e-15 -7.835303789788770901e-15 -1.259451391918617325e-13
4.074000000000000000e+03 7.620742797851562500e+01 1.776562929153442383e-01 8.830338126290457335e-14 -9.940853885502184961e-14 -3.331547235283535517e-15 9.139144993629104430e-15
4.075000000000000000e+03 7.270652770996093750e+01 -4.410207271575927734e+00 6.824819572329166029e-14 6.240115845920768400e-13 2.076779232525888252e-13 -1.857576075855386748e-15
4.076000000000000000e+03 7.604264068603515625e+01 2.192378997802734375e+01 2.912943129233986662e-15 -2.046308679145084075e-13 -6.051537444979118718e-14 -1.580817318410157601e-13
4.077000000000000000e+03 7.394612121582031250e+01 1.874549293518066406e+01 3.859867476639286532e-14 6.799310463614927080e-13 2.155589210817501766e-13 -1.381989954332002446e-13
4.078000000000000000e+03 7.679093933105468750e+01 -8.658854484558105469e+00 -8.464191532994019829e-14 -8.202605397212084370e-14 -5.000039214587102820e-14 -1.934718796845272260e-13
4.079000000000000000e+03 7.545755767822265625e+01 -1.108347415924072266e+01 1.189088991794583564e-14 2.567263079639864332e-13 8.058516283741476438e-14 -1.304429247993635355e-13
4.080000000000000000e+03 7.611617279052734375e+01 -9.487872123718261719e+00 -5.443508396319775289e-14 6.817257939802437439e-14 4.121248122228218097e-15 -1.937264774596811345e-13
4.081000000000000000e+03 7.601700592041015625e+01 -6.322691917419433594e+00 -6.807700697651977717e-14 -1.206777597772754063e-13 -5.662642934851219723e-14 -2.692836730509851062e-13
4.082000000000000000e+03 7.602622222900390625e+01 -7.135503292083740234e+00 1.342614560517372754e-14 1.887578635062503452e-13 6.065520264872392708e-14 -1.334276249599988806e-13
4.083000000000000000e+03 7.621742248535156250e+01 -1.739063453674316406e+01 -3.507218522763935753e-14 4.653540465297811846e-13 1.290845550025107591e-13 -8.110571540547936720e-14
4.084000000000000000e+03 7.677175140380859375e+01 2.664138031005859375e+01 1.763588868041246482e-13 -6.167046989183008754e-14 3.440652575131472601e-14 1.347907516938834371e-13
4.085000000000000000e+03 4.207929134368896484e+00 2.527554893493652344e+01 6.270158003918169243e-14 -1.887884312312508583e-14 1.314682124422357143e-14 1.405773013187644471e-13
4.086000000000000000e+03 7.620130157470703125e+01 -1.820793533325195312e+01 9.900413822094833449e-14 4.999398247815256546e-13 1.796831861902367655e-13 -8.787852308908897236e-14
4.087000000000000000e+03 7.605258178710937500e+01 2.738456916809082031e+01 8.671035623460804365e-14 -1.458422141734083688e-13 -1.773955839807963425e-14 8.402171780596059958e-14
4.088000000000000000e+03 3.164595127105712891e+00 5.521627902984619141e+00 -1.271131756032687840e-14 -1.427005486432514347e-13 -4.662355977637019921e-14 -2.026722160323318755e-13
4.089000000000000000e+03 3.982606172561645508e+00 1.799138832092285156e+01 -8.524927183443942180e-14 5.496649549364615583e-14 -9.084834088084105946e-15 -9.013880679191454970e-14
4.090000000000000000e+03 7.617478942871093750e+01 -1.501978588104248047e+01 3.949234534772298744e-14 3.829328889572158889e-13 1.267275672421630528e-13 -8.938414109349243630e-14
4.091000000000000000e+03 7.613365936279296875e+01 -1.266453075408935547e+01 -1.269858513047034121e-13 3.707939242648429501e-14 -2.697193630821301952e-14 -1.700635346522233471e-13
4.092000000000000000e+03 7.614417266845703125e+01 -1.345287990570068359e+01 9.321446473855785064e-14 2.687037875190312342e-13 1.085754817759139457e-13 -1.274707200687660857e-13
4.093000000000000000e+03 5.166074752807617188e+00 3.084584426879882812e+01 7.247791234364642232e-14 -1.468898787326811117e-14 1.733667734111349334e-14 -1.495483255189566235e-14
4.094000000000000000e+03 3.301508426666259766e+00 2.133827209472656250e+01 -2.900556924094639666e-14 -5.818190710032283830e-14 -2.615624188594123378e-14 -1.918779161437251385e-14
4.095000000000000000e+03 4.074796199798583984e+00 2.202420616149902344e+01 1.856390441487467541e-14 -8.354593601135607006e-14 -1.949461066479054455e-14 -6.229633237216092301e-14
4.096000000000000000e+03 3.151302099227905273e+00 8.670845031738281250e+00 -2.496127745010802076e-15 -9.257166837554550720e-14 -2.852033794678229817e-14 -4.424300417129808927e-14
4.097000000000000000e+03 4.456746101379394531e+00 1.012427997589111328e+01 6.621869122914320061e-14 1.656322919530578419e-13 6.955529630991302836e-14 -9.941060730947904461e-15
4.098000000000000000e+03 7.633764648437500000e+01 -2.171574592590332031e+01 -1.401268830787325004e-13 2.030135770863389366e-13 1.886600718584239417e-14 -2.390125552716778484e-14
4.099000000000000000e+03 7.703597259521484375e+01 -2.131380271911621094e+01 -3.466895349903305334e-14 1.681456758767865822e-13 4.004301501926016416e-14 -1.080789984960785211e-14
4.100000000000000000e+03 3.954822778701782227e+00 1.558184528350830078e+01 -4.681776410238487618e-14 7.143713924443254037e-14 7.385813050834067611e-15 8.964197792263664533e-14
4.101000000000000000e+03 3.848242998123168945e+00 8.634247779846191406e+00 2.351073945716566221e-14 -3.559315656879308287e-13 -9.972624397287799258e-14 2.259611328072046871e-14
4.102000000000000000e+03 4.021450042724609375e+00 2.040461921691894531e+01 -2.625051326483884839e-14 -1.125021960763110049e-14 -1.125021960763110049e-14 1.182190670768849816e-14
4.103000000000000000e+03 3.263184547424316406e+00 1.892235374450683594e+01 -4.664220466560516087e-14 1.172633360855754314e-13 2.118633874836472336e-14 1.775516752123163650e-14
4.104000000000000000e+03 4.007240772247314453e+00 1.959995841979980469e+01 -7.707476692465908830e-14 1.957226969471342892e-13 3.559438103962163369e-14 2.750231276439987771e-14
4.105000000000000000e+03 3.962691545486450195e+00 1.638068771362304688e+01 -1.207484497589214612e-13 -9.750028882133873753e-14 -6.547462360695713302e-14 3.134697837132820186e-14
4.106000000000000000e+03 3.151999950408935547e+00 1.254665374755859375e+01 1.535348352632321528e-14 -3.917088279171282439e-14 -7.145220118430061634e-15 2.792202267196206705e-14
4.107000000000000000e+03 3.131735086441040039e+00 1.176967430114746094e+01 -2.179585688094533985e-14 -1.465939321971740372e-13 -5.051693655402922367e-14 -3.838327767603788576e-14
4.108000000000000000e+03 3.940334320068359375e+00 1.478549766540527344e+01 -1.243587345730809424e-13 -5.329660391945219289e-14 -5.329660391945219289e-14 6.690059340926438058e-14
4.109000000000000000e+03 3.838160991668701172e+00 1.244058418273925781e+01 1.528510933275495365e-13 3.400133093914986526e-13 1.478593181052090255e-13 -5.911333163417797909e-14
4.110000000000000000e+03 4.116181373596191406e+00 2.283964538574218750e+01 -5.511334390164573938e-14 6.788189124305385458e-14 3.830564202422434561e-15 3.030504949565779142e-15
4.111000000000000000e+03 3.164534568786621094e+00 7.078826427459716797e+00 7.677185439019379443e-14 3.290222573017718977e-14 3.290222573017718977e-14 -5.240700926066425847e-14
4.112000000000000000e+03 3.805877685546875000e+00 1.167874908447265625e+01 3.860319114606762525e-14 -4.409652710254258201e-13 -1.207086188816097749e-13 3.814971681116198499e-14
4.113000000000000000e+03 3.717331171035766602e+00 3.479717636108398438e+01 -4.233117627044577502e-14 -1.814193292934331708e-14 -1.814193292934331708e-14 2.368520537441047222e-15
4.114000000000000000e+03 4.178647994995117188e+00 2.684744834899902344e+01 1.056406955727944019e-13 1.825274279594266136e-13 8.645043909254537806e-14 -3.771944101461574550e-14
4.115000000000000000e+03 3.418503284454345703e+00 2.537277412414550781e+01 4.654581570433941051e-15 -3.182618285666599656e-13 -9.408217206598873394e-14 -7.061745021478150336e-15
4.116000000000000000e+03 3.813871383666992188e+00 9.406124114990234375e+00 -3.914928006342605071e-14 -1.540311118670284474e-13 -5.795411622388363382e-14 3.069954365589669387e-14
4.117000000000000000e+03 3.790963172912597656e+00 1.092004108428955078e+01 4.326927542392527970e-14 -1.644598221712048614e-13 -3.635716470181023230e-14 8.178162059233398673e-14
4.118000000000000000e+03 3.995550155639648438e+00 1.879662322998046875e+01 -9.517119216187822084e-14 1.422161406651120674e-13 1.411348573681628013e-14 -1.248195611539687500e-13
4.119000000000000000e+03 7.256139373779296875e+01 1.876846313476562500e+01 5.166279594881126314e-14 1.188790385575622111e-12 3.721359700427362416e-13 -1.954175143643703538e-14
4.120000000000000000e+03 7.603369140625000000e+01 1.870117378234863281e+01 -3.633135052570971024e-14 -1.528234190670968440e-13 -5.674643358834739748e-14 -1.569148524766146580e-14
4.121000000000000000e+03 7.324579620361328125e+01 2.039526367187500000e+01 8.510906416474631198e-14 6.998640490925300828e-13 2.354919373653147074e-13 -1.349866263688700996e-13
4.122000000000000000e+03 7.255231475830078125e+01 2.040416717529296875e+01 6.451222477228679697e-14 1.011293479513675209e-12 3.227417248383157578e-13 -1.337667905046066585e-13
4.123000000000000000e+03 7.463384246826171875e+01 1.709449577331542969e+01 -7.824631513466545618e-14 3.095979690063282996e-13 6.940550022725699986e-14 -1.071555902820361950e-13
4.124000000000000000e+03 7.323676300048828125e+01 2.121648406982421875e+01 6.206089787040569572e-14 8.272391560822101031e-13 2.667900080542684460e-13 -7.184760463440839628e-14
4.125000000000000000e+03 7.323886108398437500e+01 1.630088043212890625e+01 5.869247145587341841e-14 9.401728527647090772e-13 2.996596026871856111e-13 -1.420029458604199490e-13
4.126000000000000000e+03 4.968838691711425781e+00 2.354834747314453125e+01 -7.893846302531662418e-14 -1.939590930357878995e-13 -8.186926478545228369e-14 3.312799389193835098e-14
4.127000000000000000e+03 4.200758934020996094e+00 2.447139930725097656e+01 -3.017743932347272118e-14 -1.044350830857812551e-13 -4.038375604514983508e-14 3.473126801889665771e-14
4.128000000000000000e+03 7.122771453857421875e+01 3.049981307983398438e+01 1.366637651569607703e-13 1.019340102777210877e-12 3.468011739327786502e-13 -4.422722564155663616e-14
4.129000000000000000e+03 6.529151153564453125e+01 -1.747435760498046875e+01 -2.186192545083117528e-14 1.278834487307770051e-13 3.180645647576398061e-14 4.310535760797262750e-14
4.130000000000000000e+03 3.609836196899414062e+01 -1.606362152099609375e+01 -4.111866893524197819e-14 7.387960956981715066e-14 9.828283376218677897e-15 8.316828806588863476e-14
4.131000000000000000e+03 3.387197494506835938e+01 -1.448517990112304688e+01 4.860569141184462039e-14 -1.507350423949824214e-13 -3.063880800544677152e-14 4.676255110675105187e-14
4.132000000000000000e+03 7.513440704345703125e+01 3.516071319580078125e+01 -3.136733765524840623e-14 1.009342281521434515e-13 2.087006681025533467e-14 1.404493790149383137e-13
4.133000000000000000e+03 7.519503021240234375e+01 3.280503082275390625e+01 -1.326598438034214816e-14 8.581647897723879148e-14 2.176514685440968794e-14 8.137769429671093402e-14
4.134000000000000000e+03 4.198535919189453125e+01 3.003509283065795898e+00 8.505538260468112344e-14 4.024598850797117544e-13 1.462545904697132304e-13 2.712544917144159989e-14
4.135000000000000000e+03 4.532003402709960938e+00 3.142588806152343750e+01 1.015883628981877410e-14 4.353786618336782932e-15 4.353786618336782932e-15 9.720402380144349541e-14
4.136000000000000000e+03 1.750232887268066406e+01 1.404907226562500000e+00 -7.476734075612112562e-14 -4.348088458294013803e-14 -3.547446827934473690e-14 1.448608892345645827e-13
4.137000000000000000e+03 1.706865119934082031e+01 3.404183626174926758e+00 -6.112779282318320240e-14 -1.577316023019387226e-13 -6.565781989278929309e-14 1.311041254942538203e-13
4.138000000000000000e+03 4.111346054077148438e+01 6.332155227661132812e+00 -5.251918352793503997e-14 2.324272806825903454e-14 -8.782936299089622728e-15 -2.095862071675898275e-14
4.139000000000000000e+03 7.270159912109375000e+01 2.444281578063964844e+00 2.206671938275242550e-14 1.061728938274442147e-12 3.251387061063010231e-13 1.461720013692241471e-14
4.140000000000000000e+03 7.611437988281250000e+01 4.221453189849853516e+00 1.328428063081601995e-13 -1.260711641418860163e-13 2.031493327508612778e-15 -9.313008670448416626e-15
4.141000000000000000e+03 6.910704040527343750e+01 -1.937347221374511719e+01 -1.018272583765654493e-13 9.361259055255810591e-14 -2.464399373114313681e-15 -2.464768044204606115e-15
4.142000000000000000e+03 6.990489959716796875e+01 -1.985928916931152344e+01 -1.569617916544197023e-13 2.423255891195914835e-14 -3.981876812867227167e-14 -4.543282796417441594e-14
4.143000000000000000e+03 4.446131896972656250e+01 -1.818538546562194824e+00 -6.689785579877885469e-14 -7.442145993430751560e-14 -4.239579471992591109e-14 -6.152131077795039427e-14
4.144000000000000000e+03 7.482106018066406250e+01 -1.110117912292480469e+01 1.634779411552312028e-15 2.752063171535673591e-13 8.305232586727773203e-14 -1.593469144611434074e-13
4.145000000000000000e+03 7.046823120117187500e+01 -7.969258308410644531e+00 1.348685431997592721e-13 6.640008638411631914e-13 2.396608302437930327e-13 3.255815078260712592e-14
4.146000000000000000e+03 7.322506713867187500e+01 2.204349136352539062e+01 9.756631673364310475e-14 6.594519309961743847e-13 2.271054709308134578e-13 -1.232830569401766052e-13
4.147000000000000000e+03 7.543092346191406250e+01 -9.524094581604003906e+00 1.284389007503343796e-14 2.800102272444704443e-13 8.785622918191723918e-14 -1.183057016067301515e-13
4.148000000000000000e+03 4.077571868896484375e+01 7.144497394561767578e+00 -8.592724886388302535e-15 2.708231046106429618e-13 7.866911332435333470e-14 2.531450120054137831e-14
4.149000000000000000e+03 4.722508239746093750e+01 -9.108322143554687500e+00 1.810756372047552659e-14 -3.799056270850469097e-14 -5.964900035221928215e-15 -1.156172054796178461e-13
4.150000000000000000e+03 7.250591278076171875e+01 1.469344520568847656e+01 -1.359122910786839111e-13 8.338953984797503605e-13 2.093949200230454943e-13 -1.066748042167792870e-14
4.151000000000000000e+03 7.463021087646484375e+01 1.627804946899414062e+01 -7.842779024954879552e-14 4.925239903419420529e-13 1.242288607053443350e-13 -9.835825865800798540e-14
4.152000000000000000e+03 2.558091735839843750e+01 -5.324177742004394531e+00 -9.650129477521522670e-15 -1.585452282697533133e-13 -5.045860647714950353e-14 2.546762612268011622e-14
4.153000000000000000e+03 2.506942176818847656e+01 -4.613160610198974609e+00 -7.065985437818694814e-14 -3.508575130732258240e-14 -3.172368102802650136e-14 2.117783284350839568e-14
4.154000000000000000e+03 7.182777404785156250e+01 2.860416221618652344e+01 2.217059950340369290e-13 1.021473595812227853e-12 3.729538650566049940e-13 -1.294404172605748138e-13
4.155000000000000000e+03 3.451953125000000000e+01 -1.470197486877441406e+01 -1.532419617632577169e-13 -2.601166623674572298e-13 -1.240075885944671996e-13 3.774142998992646714e-14
4.156000000000000000e+03 4.741100311279296875e+01 -9.815118789672851562e+00 3.891606817612441871e-14 3.955378911771681438e-14 2.354095651052601212e-14 -7.716725614623567986e-14
4.157000000000000000e+03 3.956174087524414062e+01 1.346410655975341797e+01 1.065729671395967970e-13 4.116817292881130852e-13 1.554764075730602491e-13 -1.361295194542708545e-14
4.158000000000000000e+03 3.880820465087890625e+01 1.240871810913085938e+01 7.325706745863955205e-14 7.714683926407506220e-14 4.512117066156166867e-14 -5.069112379743438701e-14
4.159000000000000000e+03 7.113357543945312500e+01 -4.606108665466308594e+00 1.651771210111588513e-15 7.784740191883743332e-13 2.340377512014685246e-13 2.512643955746018953e-14
4.160000000000000000e+03 7.406044006347656250e+01 -5.441730022430419922e+00 1.180292436052735039e-13 4.623425123653768232e-13 1.741115254359423825e-13 -3.373495737315004850e-14
4.161000000000000000e+03 6.653452301025390625e+01 -1.727800941467285156e+01 -1.061566877154709876e-13 1.375080740462567008e-13 9.405414882796177267e-15 2.557421166656491385e-15
4.162000000000000000e+03 6.612476348876953125e+01 -1.682649040222167969e+01 -5.126805149033644704e-14 -1.592248739541030078e-13 -6.314787831095819426e-14 3.181495729842262477e-14
4.163000000000000000e+03 4.010770797729492188e+01 2.158493232727050781e+01 4.962263239205455534e-14 1.127687420982188826e-13 4.871741166945567358e-14 7.931231626318036021e-14
4.164000000000000000e+03 2.653857994079589844e+01 -6.729235649108886719e+00 1.916552438873861917e-15 -3.349183181223375216e-14 -9.472583748480496030e-15 -1.771171134290570187e-14
4.165000000000000000e+03 2.682965087890625000e+01 -8.546353340148925781e+00 -1.184142302441959504e-13 1.322548434700213105e-13 4.152181765461945145e-15 5.326634112631269125e-14
4.166000000000000000e+03 2.142384147644042969e+01 -5.914734005928039551e-01 -9.831125171756716075e-14 2.094968214747319757e-13 3.335567296002851789e-14 -1.566357212391764758e-14
4.167000000000000000e+03 2.287862777709960938e+01 -2.989749193191528320e+00 -2.707666447825107792e-13 -1.310321768216481456e-14 -8.516096356749047747e-14 9.591628977612814966e-14
4.168000000000000000e+03 1.724279212951660156e+01 2.408963203430175781e+00 -2.125354742459756308e-13 -3.541545854322813991e-13 -1.700070206139825402e-13 2.040773420478730893e-13
4.169000000000000000e+03 2.210897827148437500e+01 -1.178000688552856445e+00 6.055811912044142820e-14 -3.123520390360852439e-14 8.796875073269639494e-15 5.724394347211489431e-14
4.170000000000000000e+03 3.980099105834960938e+01 1.067232799530029297e+01 -1.717012186456309125e-14 2.671470629347222348e-13 7.499308520095976371e-14 -1.355484057245434637e-13
4.171000000000000000e+03 2.697645568847656250e+01 -7.423527717590332031e+00 -7.673164404212173828e-14 6.433577764497835916e-14 -3.718759241516655933e-15 4.534322204275027801e-14
4.172000000000000000e+03 4.083525085449218750e+01 2.410237693786621094e+01 1.660371601493182414e-14 2.999135296122452943e-14 1.397852035403372717e-14 8.372241024371882001e-14
4.173000000000000000e+03 2.973539924621582031e+01 -1.363496398925781250e+01 -2.497530177461571022e-14 -1.479565439350266631e-13 -5.187955506814542761e-14 7.997613259581176637e-14
4.174000000000000000e+03 3.204986572265625000e+01 -1.390607261657714844e+01 1.209463437604543778e-13 -8.541869875268101597e-14 1.065829519639790307e-14 1.733338136650913741e-13
4.175000000000000000e+03 2.849686622619628906e+01 -1.015812206268310547e+01 -9.419316048713335943e-14 -4.036849928770389062e-14 -4.036849928770389062e-14 6.811992105375946904e-14
4.176000000000000000e+03 3.983992385864257812e+01 2.071367073059082031e+01 -2.810042813944455681e-14 1.252098061734277512e-13 2.913281391841472667e-14 4.266451761650823238e-14
4.177000000000000000e+03 3.927556991577148438e+01 1.898831558227539062e+01 1.443254780145392449e-15 9.212043698388419632e-14 2.806910655512098729e-14 6.143916213459388320e-14
4.178000000000000000e+03 7.082807922363281250e+01 -7.195970535278320312e+00 -4.566497936622608556e-14 9.068860029257108657e-13 2.583662992751423193e-13 8.880791474387070283e-15
4.179000000000000000e+03 7.069579315185546875e+01 3.413997268676757812e+01 -9.569458398438202007e-14 6.052201925385580772e-13 1.528576798557473859e-13 5.338305294908191403e-15
4.180000000000000000e+03 6.519990539550781250e+01 -1.956219291687011719e+01 -8.419403141248643641e-14 1.926715894034342069e-13 3.254326671965797335e-14 3.333825457450118046e-14
4.181000000000000000e+03 6.778365325927734375e+01 -1.136690044403076172e+01 5.800976967665003037e-14 3.908689235991580357e-13 1.346636018841051996e-13 1.808291878865539437e-13
4.182000000000000000e+03 4.115790557861328125e+01 8.204559326171875000e+00 5.143937451830024956e-17 2.516522689018085845e-13 7.551111022270975970e-14 1.979146056093586577e-15
4.183000000000000000e+03 4.250347900390625000e+01 5.075716495513916016e+00 -7.838178619611751996e-14 5.790970459239319634e-14 -6.141623295271170929e-15 7.845696037018633912e-15
4.184000000000000000e+03 7.234599304199218750e+01 -2.096355247497558594e+01 -1.295545159867017571e-13 4.934880087036075391e-13 1.091800464598190190e-13 -1.370594989499179794e-13
4.185000000000000000e+03 7.268219757080078125e+01 -2.188501930236816406e+01 -8.634741278110494300e-14 2.832506093824321836e-13 5.907095965802452997e-14 -1.338714566718329779e-13
4.186000000000000000e+03 4.230755996704101562e+01 2.677930831909179688e+01 5.241006874366974100e-14 2.283407295709805052e-13 8.422523610626328483e-14 4.953799685996490565e-14
4.187000000000000000e+03 7.208283996582031250e+01 -4.119606018066406250e+00 8.640166354731068643e-14 8.376708614948880083e-13 2.772217676770549755e-13 -2.788876985251875773e-14
4.188000000000000000e+03 7.610416412353515625e+01 -4.943841397762298584e-01 2.121870794303745700e-13 1.824392145601677617e-13 1.183878841314045527e-13 4.431530690367571634e-15
4.189000000000000000e+03 7.115429687500000000e+01 -6.420483589172363281e+00 1.251758570929017989e-13 6.941600614630838439e-13 2.458007755667956928e-13 5.120452063116058550e-14
4.190000000000000000e+03 7.146282196044921875e+01 -5.641856193542480469e+00 1.230035835014277323e-15 6.410404433838945426e-13 1.926811439350792354e-13 -2.217650671117784439e-14
4.191000000000000000e+03 6.966487884521484375e+01 -9.496415138244628906e+00 8.153740405298162686e-14 6.068314795971974096e-13 2.065106576411637751e-13 1.099159893419750234e-13
4.192000000000000000e+03 3.749834442138671875e+01 -1.584553241729736328e+01 -5.928454070974059631e-14 2.034328685596251823e-14 -1.168237666435319178e-14 1.169629849787426346e-13
4.193000000000000000e+03 3.802296447753906250e+01 -1.636129760742187500e+01 -8.879681522412988248e-14 5.344611878716973297e-14 -1.060520994752758156e-14 6.972805714983501546e-14
4.194000000000000000e+03 4.030405044555664062e+01 2.251130676269531250e+01 5.997134212842869516e-14 4.857747843843747415e-14 3.256464583124667189e-14 -3.750241762100203768e-15
4.195000000000000000e+03 4.166195678710937500e+01 2.397591972351074219e+01 -5.835920803684210845e-14 1.122417588560187252e-13 1.616476321287391160e-14 -2.968487611211718946e-14
4.196000000000000000e+03 4.579254531860351562e+01 -1.556174373626708984e+01 -3.255140501221519267e-14 1.690531937527384176e-13 4.095053628334378859e-14 3.546133249239871721e-14
4.197000000000000000e+03 4.643111419677734375e+01 -1.606261253356933594e+01 -9.122522480259007138e-14 9.815631922711898216e-14 2.079329089688325763e-15 3.072490255178806674e-15
4.198000000000000000e+03 7.319870758056640625e+01 2.461901473999023438e+01 5.725451444329662798e-14 6.421754404281609929e-13 2.098289939153272221e-13 4.915573427900082892e-14
4.199000000000000000e+03 2.777377319335937500e+01 -8.802651405334472656e+00 -1.456511506455621108e-13 -6.242191686505263459e-14 -6.242191686505263459e-14 1.187756625909211494e-13
4.200000000000000000e+03 6.924596405029296875e+01 -1.023761367797851562e+01 -2.460737607331685978e-14 7.557823724496648410e-13 2.193525038256954884e-13 1.331718752200367062e-13
4.201000000000000000e+03 7.007649993896484375e+01 -8.738893508911132812e+00 1.083221901255647032e-14 7.023443241924165470e-13 2.139529737188103353e-13 4.719388738854725374e-14
4.202000000000000000e+03 6.752148437500000000e+01 -1.880609321594238281e+01 8.584095314721675724e-15 2.781845934163307277e-13 8.603060890630467861e-14 -1.032901926966908746e-13
4.203000000000000000e+03 6.824798583984375000e+01 -1.881574821472167969e+01 -7.879728634993185543e-14 5.773163116182603027e-14 -6.319695878805389744e-15 -6.123133413065556807e-14
4.204000000000000000e+03 7.335120391845703125e+01 2.279807567596435547e+00 2.016269909279472250e-13 7.726758143901391040e-13 2.922908497269421924e-13 4.802408132081013858e-14
4.205000000000000000e+03 2.607177925109863281e+01 -6.029753208160400391e+00 -2.487909577246656678e-14 -5.355398335080488459e-14 -2.352992475342097212e-14 1.226282716728288244e-14
4.206000000000000000e+03 7.379471588134765625e+01 -2.600954294204711914e+00 1.980948161040517463e-14 4.931638864641429976e-13 1.538920087282985572e-13 -3.440709834558706992e-14
4.207000000000000000e+03 1.472078800201416016e+01 3.148465394973754883e+00 -1.011025573156854040e-13 -4.332966887306451131e-14 -4.332966887306451131e-14 5.888655635024253251e-15
4.208000000000000000e+03 2.453675842285156250e+01 -3.895549774169921875e+00 -5.197822339507223929e-15 -1.466290739000897236e-13 -4.554806849071425801e-14 1.423005864618215321e-14
4.209000000000000000e+03 2.398048591613769531e+01 -3.176090955734252930e+00 -3.205770677671034019e-14 1.020680732316016359e-13 2.100311027528056762e-14 1.832376616975675554e-13
4.210000000000000000e+03 8.329872131347656250e+00 6.212040901184082031e+00 7.493541242164711291e-14 -1.051376731986061741e-13 -9.060677555461360555e-15 6.790028879866821798e-14
4.211000000000000000e+03 1.864355468750000000e+01 1.460300445556640625e+00 -8.675093250091331365e-14 -2.201827722968577317e-13 -9.208011143933131359e-14 1.237227686837552576e-13
4.212000000000000000e+03 4.453774261474609375e+01 -1.617912673950195312e+01 -3.362026911209181623e-14 1.457196315652817264e-13 3.362981009120968867e-14 6.055187140542248048e-14
4.213000000000000000e+03 4.382368850708007812e+01 -1.533403491973876953e+01 7.116255149172343031e-14 2.135020269302193019e-13 8.539937284895646186e-14 -3.398052238895443722e-14
4.214000000000000000e+03 1.379667472839355469e+01 4.669675350189208984e+00 -1.301141133855029941e-13 -2.430941359939532004e-14 -4.632705758724972589e-14 1.561341252684714243e-13
4.215000000000000000e+03 1.405108737945556641e+01 3.559542179107666016e+00 -5.769437526467399713e-14 -7.047711210201451637e-14 -3.845144688763291185e-14 1.953954982840053201e-13
4.216000000000000000e+03 1.934070968627929688e+01 9.799198508262634277e-01 5.318358261923415709e-14 -1.830863070742885790e-13 -3.897081699770314767e-14 3.355031435504397808e-14
4.217000000000000000e+03 1.773026084899902344e+01 2.937156438827514648e+00 -3.009013055540153692e-14 -3.331524238339017563e-13 -1.089727605569669466e-13 9.949417727412104839e-14
4.218000000000000000e+03 7.536965942382812500e+01 2.435106086730957031e+01 4.172986080492636918e-14 -1.193686263115806279e-13 -2.329162728030402529e-14 -1.458376198667024615e-13
4.219000000000000000e+03 7.319731140136718750e+01 2.373107528686523438e+01 1.401156615862472754e-13 8.149402376880776622e-13 2.865167684270447657e-13 -1.154688053072588927e-13
4.220000000000000000e+03 4.159456634521484375e+01 3.728354930877685547e+00 -5.096056497795597995e-14 1.154126029771426754e-13 1.933561072212965082e-14 -1.232415184444432543e-13
4.221000000000000000e+03 7.310424804687500000e+01 1.286077201366424561e-01 1.312214497218439080e-13 9.712567122094339922e-13 3.307434621319105261e-13 -3.335523631454420830e-15
4.222000000000000000e+03 7.246284484863281250e+01 1.232271641492843628e-02 1.194207086734414003e-13 7.831955028091142079e-13 2.707848593790085356e-13 1.241522889269125463e-13
4.223000000000000000e+03 2.073005104064941406e+01 -4.171357676386833191e-02 1.018300976310046457e-13 -2.498495286801672571e-14 2.305354325948978655e-14 4.321765045985602460e-14
4.224000000000000000e+03 3.671297073364257812e+01 -1.603149223327636719e+01 -1.436267283490971769e-13 2.994758846290579424e-14 -3.410374196585741480e-14 4.970528586704762997e-14
4.225000000000000000e+03 3.492677688598632812e+01 -1.403919219970703125e+01 1.040638251568679062e-14 -2.128571299254977678e-13 -6.073522354531693535e-14 8.240009016910118667e-14
4.226000000000000000e+03 4.091557312011718750e+01 2.497504615783691406e+01 -2.064796630115578457e-14 1.512791899128257400e-13 3.918936843875370224e-14 7.740130829022098813e-14
4.227000000000000000e+03 4.111128616333007812e+01 2.595233917236328125e+01 1.207079971594264903e-14 2.568034218435044647e-13 8.066226316440563981e-14 -1.295798880116038124e-14
4.228000000000000000e+03 7.282341766357421875e+01 2.794906425476074219e+01 2.268086570335683949e-13 6.462150693026247339e-13 2.619071138350997918e-13 -3.582367963470695083e-14
4.229000000000000000e+03 7.465303039550781250e+01 2.442458724975585938e+01 1.301500411349937325e-13 1.930314361044821458e-13 9.695444723760091033e-14 9.452008809971920722e-14
4.230000000000000000e+03 7.348757934570312500e+01 2.637592697143554688e+01 1.186914336346461818e-13 5.998791415863513610e-13 2.155711725662992628e-13 1.848291112445821921e-14
4.231000000000000000e+03 4.196453857421875000e+01 2.770581436157226562e+01 -7.665545851071389749e-14 1.816052326965647556e-13 3.148493293338161525e-14 2.281279108489169677e-14
4.232000000000000000e+03 4.202122879028320312e+01 -1.709883689880371094e+01 -2.043567545002497599e-13 9.542232726634375384e-14 -3.268033020305087522e-14 4.298735575402473641e-14
4.233000000000000000e+03 1.578981685638427734e+01 4.349139690399169922e+00 2.921378349190865975e-14 -5.610622914615365220e-14 -8.067733865680087185e-15 1.345756866404437813e-13
4.234000000000000000e+03 7.493902587890625000e+01 3.388035964965820312e+01 3.428814103847467598e-14 1.959115649655812641e-13 6.905991078477724532e-14 1.270531396020332937e-13
4.235000000000000000e+03 4.706087493896484375e+01 -1.470477294921875000e+01 4.832988054355967511e-14 1.122147012355516338e-13 4.816337419492021377e-14 -1.840757093193173821e-14
4.236000000000000000e+03 4.430301189422607422e+00 3.548033142089843750e+01 3.580370998594248344e-14 1.534444737884190640e-14 1.534444737884190640e-14 8.389570640846347183e-14
4.237000000000000000e+03 7.320783996582031250e+01 1.389204311370849609e+01 -1.155930819812800436e-13 7.282262358236646360e-13 1.837899542842316714e-13 -1.285769044402987338e-13
4.238000000000000000e+03 3.981703186035156250e+01 1.709475898742675781e+01 2.243597492577846519e-14 3.984984813919928426e-13 1.262803338460127822e-13 -1.000799496850583378e-14
4.239000000000000000e+03 4.042790985107421875e+01 1.528900623321533203e+01 -8.937088672193380101e-14 1.447019858536596759e-13 1.659933007833094137e-14 -2.226129809732978887e-14
4.240000000000000000e+03 6.500773620605468750e+01 -1.800225448608398438e+01 -4.185959237112783782e-14 2.108149131608769156e-13 5.068659725336426003e-14 7.885863186410380088e-14
4.241000000000000000e+03 6.802740478515625000e+01 -1.230721473693847656e+01 2.841749628852436454e-14 5.154393621989439289e-13 1.631570583932734353e-13 6.836497107353192715e-14
4.242000000000000000e+03 7.483700561523437500e+01 2.272135734558105469e+00 2.309013440518481453e-13 7.051577746199078067e-13 2.808177410225376480e-13 1.005149197381982606e-13
4.243000000000000000e+03 6.788251495361328125e+01 -1.440885448455810547e+01 -2.162462747659198853e-14 3.567398926176273966e-13 1.005345776788381384e-13 -1.254969029087019128e-13
4.244000000000000000e+03 6.762731170654296875e+01 -1.373240661621093750e+01 -2.605371532393967876e-14 4.920945378614205445e-13 1.398122476082772070e-13 6.121337025591019887e-14
4.245000000000000000e+03 4.420631408691406250e+01 -1.416643142700195312e+01 8.249263360078640250e-14 -3.327243672636773231e-14 1.476605770707288545e-14 5.628565274723874162e-15
4.246000000000000000e+03 1.095447731018066406e+01 4.669603347778320312e+00 1.437141557017809768e-13 -2.586648614483905151e-13 -3.448520833585107248e-14 -7.157343023377754632e-14
4.247000000000000000e+03 1.261868858337402344e+01 3.847218751907348633e+00 1.309009544774595094e-14 7.423646116236359838e-14 2.619796842298887513e-14 6.744800708615231177e-14
4.248000000000000000e+03 7.474484252929687500e+01 3.701404953002929688e+01 -2.056644107404845268e-14 -8.814188426711517393e-15 -8.814188426711517393e-15 4.397627349620771009e-14
4.249000000000000000e+03 7.092445373535156250e+01 3.622571945190429688e+01 -1.798809040089166533e-13 4.790681740196589544e-13 8.975617829271725912e-14 7.158055886306163851e-14
4.250000000000000000e+03 7.343241882324218750e+01 3.125040054321289062e+01 7.241404605942344808e-14 4.885441010071822632e-13 1.682874353108390619e-13 8.306791127350721116e-14
4.251000000000000000e+03 4.640999984741210938e+01 -6.306993961334228516e+00 8.699706672285825726e-14 8.303540553712338013e-14 5.100974032274177561e-14 -2.909030641698971686e-14
4.252000000000000000e+03 4.659196090698242188e+01 -6.984754085540771484e+00 1.229038843354041122e-13 2.128014154863591689e-13 1.007115872360235531e-13 -9.692902269665612525e-14
4.253000000000000000e+03 7.245836639404296875e+01 1.162179946899414062e+01 -1.073638384143163482e-13 1.006258769885304272e-12 2.696684835070545239e-13 -9.836146383068039567e-15
4.254000000000000000e+03 6.714263153076171875e+01 -1.620038223266601562e+01 -1.777961797428707913e-14 6.100658579656290104e-14 1.296809051608933602e-14 -1.303968868646143697e-13
4.255000000000000000e+03 6.982148742675781250e+01 -1.918630027770996094e+01 -1.015011235868182315e-13 9.375236454138222153e-14 -2.324626866597855751e-15 -1.250549956557239772e-13
4.256000000000000000e+03 4.263591384887695312e+01 -1.595216846466064453e+01 -6.799676246322869377e-14 1.081113754834543694e-13 1.203438492250723940e-14 5.201246470196499438e-14
4.257000000000000000e+03 3.786524200439453125e+01 -1.530094718933105469e+01 -9.348500028564729614e-14 -8.581595042867970480e-14 -5.379028521429810028e-14 1.133029759424475369e-13
4.258000000000000000e+03 3.612929534912109375e+01 -1.456937789916992188e+01 -6.936021445776499594e-14 -2.584805470790679793e-13 -9.835222778342353478e-14 1.821747098876627668e-13
4.259000000000000000e+03 3.969864273071289062e+01 1.619191169738769531e+01 -3.450326030202295613e-14 1.224657311324484077e-13 2.638874226556717217e-14 6.536862251580594085e-14
4.260000000000000000e+03 3.961457824707031250e+01 1.528738403320312500e+01 -5.639442024799566633e-15 4.093416415291289967e-13 1.211106545996945560e-13 7.625065130082570031e-14
4.261000000000000000e+03 9.365209579467773438e+00 5.788981437683105469e+00 1.098136474331559698e-13 -2.156343104021875984e-14 2.647506508728775243e-14 2.838151432892500187e-14
4.262000000000000000e+03 4.047295761108398438e+01 7.984442710876464844e+00 -6.879279047453112916e-14 1.077702177173546494e-13 1.169322800344046662e-14 3.082793013377792268e-14
4.263000000000000000e+03 7.563258361816406250e+01 3.222207260131835938e+01 5.223946953182914688e-14 -2.521173374236962417e-13 -5.996336646619734867e-14 1.824694909058344194e-13
4.264000000000000000e+03 1.310877323150634766e+01 5.228060245513916016e+00 -2.047518005024537985e-14 1.742287141382609095e-13 4.612606005699806944e-14 -2.329846791838605102e-14
4.265000000000000000e+03 1.173193073272705078e+01 5.221362590789794922e+00 -6.877544323977136109e-14 1.020587897504997288e-13 9.985003106185563054e-15 -1.869291939120276691e-14
4.266000000000000000e+03 7.503675842285156250e+01 3.842638778686523438e+01 -7.607497666756515842e-14 -9.728087001855019456e-15 -2.574091960904582171e-14 1.334980574436289702e-13
4.267000000000000000e+03 4.891602706909179688e+01 3.672375106811523438e+01 1.490328890298934367e-14 1.893909156022374751e-13 6.128826152097463509e-14 3.978288103676300147e-14
4.268000000000000000e+03 6.756421661376953125e+01 4.137582778930664062e+01 -1.998903294405871001e-13 4.633440983323189322e-13 7.903612931226683402e-14 2.960265165931189914e-15
4.269000000000000000e+03 4.643930816650390625e+01 3.260297012329101562e+01 8.921662508157984783e-15 1.182009405718137396e-13 3.813678092399151731e-14 1.359554287726216781e-13
4.270000000000000000e+03 4.528332901000976562e+01 3.463692474365234375e+01 2.590930975895997662e-14 1.254813581600539019e-13 4.541720190036346860e-14 4.743475984182385363e-14
4.271000000000000000e+03 4.496070480346679688e+01 2.911443328857421875e+01 6.086603931369088949e-14 8.327413330297753213e-14 4.324205178500052649e-14 8.317791713643302165e-14
4.272000000000000000e+03 4.678881454467773438e+01 3.402809524536132812e+01 5.524042594878819656e-14 2.295537349615572875e-13 8.543824827310364523e-14 2.673464511023741080e-14
4.273000000000000000e+03 3.008846855163574219e+01 -1.162734031677246094e+01 -8.999031175186550380e-14 -2.215710660736711080e-13 -9.346841199240826792e-14 1.254767909584023067e-13
4.274000000000000000e+03 7.555253601074218750e+01 -1.657383155822753906e+01 -9.028921273829260130e-14 4.645650726088634830e-13 1.122827552506658333e-13 -1.497117046219548220e-13
4.275000000000000000e+03 7.379306793212890625e+01 -2.078680229187011719e+01 -5.183486560984829072e-14 1.150379027063316850e-13 1.896091214538455499e-14 3.573639797169007870e-14
4.276000000000000000e+03 7.399233245849609375e+01 -2.228510475158691406e+01 -2.201453198880619355e-14 1.278180442347218171e-13 3.174105536784058157e-14 -7.099562501474213083e-14
4.277000000000000000e+03 3.096165847778320312e+01 -1.398688888549804688e+01 -1.027551118195149660e-13 -6.691338021863613150e-14 -5.090054761144532924e-14 4.575848502733938228e-14
4.278000000000000000e+03 4.416602706909179688e+01 -2.812176942825317383e+00 4.347086926537180318e-14 3.006811108690471412e-14 2.206169308924341849e-14 -7.294676879687420068e-14
4.279000000000000000e+03 7.316898345947265625e+01 1.160144329071044922e+01 1.538941339339632182e-15 9.156785572839165610e-13 2.751652258912301585e-13 -9.306029796589398995e-14
4.280000000000000000e+03 7.640116119384765625e+01 -2.020438194274902344e+01 -3.235863386594726998e-14 2.148867563923906321e-13 5.475843709674618753e-14 -9.917781385645335623e-14
4.281000000000000000e+03 4.885582351684570312e+01 -1.400259208679199219e+01 1.135941519883956752e-13 2.932260350870831422e-15 3.495792387118654143e-14 -1.478754693294472705e-14
4.282000000000000000e+03 7.654392242431640625e+01 -2.125172042846679688e+01 -1.077563263770196789e-13 9.107156624969456327e-14 -5.005428546417303032e-15 -1.397215134389673263e-13
4.283000000000000000e+03 4.612450408935546875e+01 -1.496072864532470703e+01 2.049932048924212741e-14 1.002873185971392411e-13 3.623599155650782111e-14 -6.417188100484938831e-15
4.284000000000000000e+03 3.375935745239257812e+01 -1.327776432037353516e+01 -2.467112546699311293e-14 -1.478261821763124373e-13 -5.174919330943120177e-14 5.211473207188468959e-14
4.285000000000000000e+03 4.448196792602539062e+01 -3.494332790374755859e+00 1.654689026856642764e-15 -6.791727011519477220e-14 -1.987877398768825993e-14 -2.063657370801521423e-14
4.286000000000000000e+03 4.345771408081054688e+01 2.205873280763626099e-01 7.207848548703918445e-14 7.664172980070479979e-14 4.461606458632319527e-14 -3.720545125782646900e-14
4.287000000000000000e+03 7.317829132080078125e+01 9.489291191101074219e+00 1.857183264326097566e-14 8.314764350127179515e-13 2.550144882589033823e-13 1.997867203704789540e-13
4.288000000000000000e+03 7.418383026123046875e+01 -2.164418792724609375e+01 -1.219363965267866723e-13 2.222472287585416928e-13 3.009325102477922176e-14 -8.352188027565404793e-14
4.289000000000000000e+03 6.401107025146484375e+01 -1.937494850158691406e+01 -1.328907687017655270e-13 2.175524978264078979e-13 2.539851839857953236e-14 2.269474891217551638e-13
4.290000000000000000e+03 4.325082397460937500e+01 -2.445358276367187500e+00 4.621906088647480260e-14 -1.631956288855596071e-13 -3.509297141616497806e-14 -1.236698257364200748e-14
4.291000000000000000e+03 4.512917709350585938e+01 -4.788444995880126953e+00 6.595802192182337320e-14 1.883960381362376202e-13 7.630622343842916044e-14 3.784103767639178384e-14
4.292000000000000000e+03 6.683384704589843750e+01 -1.864787101745605469e+01 -2.928635388669761919e-14 3.319965287927606479e-14 1.173990100114183626e-15 -7.589885480090846626e-14
4.293000000000000000e+03 6.559845733642578125e+01 -1.827692413330078125e+01 -3.376164229912034798e-14 7.703261856520371431e-14 1.298129321863818880e-14 -2.487386153236900883e-15
4.294000000000000000e+03 4.173881912231445312e+01 1.959551692008972168e+00 2.528156008922265857e-14 3.539670726665500311e-13 1.137745903349515753e-13 -2.471057856761032373e-14
4.295000000000000000e+03 4.680040740966796875e+01 -7.687593936920166016e+00 -1.408227426677585367e-14 -1.432881049055756417e-13 -4.721111265056261719e-14 1.086945542795071662e-14
4.296000000000000000e+03 4.567572402954101562e+01 -8.621439933776855469e+00 1.487599106397841098e-13 -7.349860059761501030e-14 2.257839335146390874e-14 -1.488279036685261070e-13
4.297000000000000000e+03 4.211426162719726562e+01 1.259932875633239746e+00 -8.262325963378017168e-14 -1.253449265632396517e-14 -2.854732441648182018e-14 -3.423337188810521292e-14
4.298000000000000000e+03 2.919364166259765625e+01 -1.146015548706054688e+01 -1.375749828728262125e-13 -7.039844645813711499e-14 -6.239202676640992484e-14 2.810468702110335143e-14
4.299000000000000000e+03 2.940954589843750000e+01 -1.038454818725585938e+01 -1.321075817099434668e-13 -2.853722846137690672e-13 -1.252439585418610446e-13 4.981427190230494628e-14
4.300000000000000000e+03 3.031228637695312500e+01 -1.059348392486572266e+01 -1.124522905891246760e-13 -1.854466829664253025e-13 -8.936969409954406696e-14 1.149086793598985690e-13
4.301000000000000000e+03 7.313747406005859375e+01 1.087754726409912109e+01 -1.095224036245720511e-13 5.935751022645430197e-13 1.452158163682548686e-13 -3.651025743669697454e-14
4.302000000000000000e+03 4.624360561370849609e+00 3.027782440185546875e+01 3.270840087492288273e-14 1.970216795699891721e-13 6.891902548872633205e-14 1.958518898003813041e-14
4.303000000000000000e+03 4.946593093872070312e+01 -1.427980327606201172e+01 8.148572826693553650e-14 -2.052700186477157684e-13 -3.713528982473950080e-14 -9.678647043976501552e-14
4.304000000000000000e+03 4.733991241455078125e+01 -1.405662441253662109e+01 4.687958395500728404e-14 2.009125050844110666e-14 2.009125050844110666e-14 1.708819683790465532e-14
4.305000000000000000e+03 2.988526725769042969e+01 -1.263801765441894531e+01 -1.192017269396536405e-13 -3.599053563854703874e-13 -1.437321263527899240e-13 1.060646457272905463e-13
4.306000000000000000e+03 5.180463027954101562e+01 -1.493598365783691406e+01 3.458426307920842158e-13 -3.478551878510240114e-14 9.331713868429222791e-14 1.709986895191781958e-14
4.307000000000000000e+03 7.498733520507812500e+01 3.135321044921875000e+01 1.121302486625785910e-13 2.518034642828934772e-14 4.119317734141425547e-14 5.702092308523462605e-14
4.308000000000000000e+03 7.618737030029296875e+01 8.122844696044921875e+00 3.537270912919339427e-14 1.524125742063606181e-13 5.633558533947938263e-14 -1.897205401677273806e-13
4.309000000000000000e+03 4.763747406005859375e+01 -1.240387630462646484e+01 5.183593625949362016e-14 2.738456163220437389e-13 9.770446441920849212e-14 -9.253702811613459533e-14
4.310000000000000000e+03 4.777264022827148438e+01 -1.113861846923828125e+01 1.285631621777624800e-13 4.668570217913892151e-13 1.786260619670090866e-13 -4.858235734821365892e-14
4.311000000000000000e+03 7.379082679748535156e+00 6.655685424804687500e+00 4.449918081586567986e-14 -1.410572369629423117e-13 -2.896741887700206297e-14 9.860033559213558091e-15
4.312000000000000000e+03 7.082553100585937500e+01 -1.834034156799316406e+01 7.339280279437115917e-14 -1.429688954572051751e-14 1.772877397459519250e-14 6.653263806181237625e-15
4.313000000000000000e+03 4.348812580108642578e+00 2.886983871459960938e+01 2.784892542267991544e-14 -1.481930626389543759e-13 -3.610324116488233814e-14 7.391890829867972437e-16
4.314000000000000000e+03 5.143401622772216797e+00 2.907339668273925781e+01 6.174411093626437641e-15 -4.310477146117312752e-14 -1.107910878789036477e-14 1.276348953827347033e-13
4.315000000000000000e+03 3.511642456054687500e+01 -1.497809410095214844e+01 -8.240904161328777011e-14 -2.983861259204384497e-13 -1.142385475496124347e-13 1.412829949603081059e-13
4.316000000000000000e+03 5.891281127929687500e+00 3.147576332092285156e+01 4.794209191964771133e-14 1.577994598054091591e-13 6.172246416226434551e-14 1.426877550576161058e-13
4.317000000000000000e+03 5.860780239105224609e+00 5.447062492370605469e+00 -3.383581866837730157e-14 8.374408920497084657e-15 -7.638423686693717601e-15 -4.893822299440950263e-14
4.318000000000000000e+03 5.023108005523681641e+00 6.678904056549072266e+00 -2.096532413550355328e-14 -1.462379886239470461e-13 -5.016099298080223257e-14 5.841452945269318131e-14
4.319000000000000000e+03 4.621938705444335938e+00 7.871627330780029297e+00 -8.142690352281461985e-14 -4.009048410087701075e-13 -1.446995192937172714e-13 -2.873828291224261866e-14
4.320000000000000000e+03 6.502837657928466797e+00 5.561062335968017578e+00 -1.350812907710552402e-13 -1.493938843076178524e-13 -8.534254710259106536e-14 1.726375932400298074e-13
4.321000000000000000e+03 7.515148162841796875e+01 2.970844268798828125e+01 5.045807115232683882e-14 6.737583987904624538e-14 3.535017127653285185e-14 7.430597207414707528e-14
4.322000000000000000e+03 4.470672130584716797e+00 6.101571559906005859e+00 8.503591926986087731e-16 -2.283903047153174048e-13 -6.826198541967296030e-14 8.705444134657347455e-14
4.323000000000000000e+03 7.121192932128906250e+01 3.293501281738281250e+01 1.003324078549874820e-15 6.638187720862942509e-13 1.994466197014974074e-13 -2.199707972196096595e-14
4.324000000000000000e+03 4.633752059936523438e+01 -8.502952575683593750e+00 2.717518864017026692e-14 -1.122896500988564833e-14 4.783867173788680302e-15 -3.175704396175295374e-14
4.325000000000000000e+03 7.586753082275390625e+01 2.975585365295410156e+01 1.858132449446790735e-14 -3.580441607260731463e-13 -1.018388525635474662e-13 1.096831094915887150e-13
4.326000000000000000e+03 7.516615295410156250e+01 2.888446617126464844e+01 1.006647768072264915e-13 -2.313636478581959643e-13 -3.920965996003812626e-14 5.292774817597725723e-14
4.327000000000000000e+03 4.880107402801513672e+00 2.272233009338378906e+01 3.543367517260496979e-14 6.093681061049988079e-14 2.891114539611827627e-14 -1.534146751693346578e-14
4.328000000000000000e+03 7.456078338623046875e+01 2.784185791015625000e+01 2.365063169178921454e-13 1.471107984778521893e-13 1.150851332634705848e-13 1.366632095033473715e-13
4.329000000000000000e+03 5.032768249511718750e+00 2.521654891967773438e+01 -3.517689205244714512e-14 -6.082675731372902406e-14 -2.880109548747920856e-14 -2.517216917221655470e-14
4.330000000000000000e+03 7.507298278808593750e+01 3.052855300903320312e+01 7.758449102352599214e-14 -5.825140445957915913e-14 5.799926816216997155e-15 2.689584123992394549e-13
4.331000000000000000e+03 7.462423706054687500e+01 2.198847007751464844e+01 1.333938825555120583e-14 1.887206753717340924e-13 6.061802129047125232e-14 -1.134851151311615236e-13
4.332000000000000000e+03 7.414468383789062500e+01 2.610379791259765625e+01 1.127333835548686991e-13 4.600728435374956682e-13 1.718418701605883836e-13 -4.907167642338120667e-15
4.333000000000000000e+03 7.615042114257812500e+01 5.036161899566650391e+00 4.938322361171081087e-14 2.270435087766559112e-13 8.292802208820226895e-14 -2.337596533442259927e-13
4.334000000000000000e+03 7.545343780517578125e+01 -1.188771152496337891e+01 -1.376459561869931240e-15 2.281648448735490442e-13 6.803651202537744358e-14 -1.219999443266214789e-13
4.335000000000000000e+03 7.607558441162109375e+01 2.430602264404296875e+01 8.639393860683172721e-14 -7.735140110896876475e-14 2.712760868194062473e-15 -7.433224364803911466e-14
4.336000000000000000e+03 7.321005249023437500e+01 2.287801170349121094e+01 1.597407373477716108e-13 8.462264634682969966e-13 3.017901412712825637e-13 5.935678245574602108e-14
4.337000000000000000e+03 7.432820892333984375e+01 -1.805038261413574219e+01 -1.069564020141598737e-13 2.744181834893333338e-13 5.023853376492568024e-14 -9.421616590198078622e-14
4.338000000000000000e+03 7.325317382812500000e+01 1.957835960388183594e+01 2.555452238570598764e-15 7.559858229873317459e-13 2.275623808313531615e-13 -1.872704634864764267e-14
4.339000000000000000e+03 7.609534454345703125e+01 2.508081436157226562e+01 1.291047618205004577e-16 -1.371975178864753842e-13 -4.112052224333057060e-14 -7.527118983446587364e-14
4.340000000000000000e+03 4.231377601623535156e+00 2.762073135375976562e+01 5.187247048457459264e-14 -2.065236816197607572e-13 -4.639536571224810169e-14 1.085216985718950866e-13
4.341000000000000000e+03 4.962213993072509766e+00 2.976591682434082031e+01 1.353496308087454025e-14 -3.995025135900866220e-14 -7.924586144627057682e-15 -3.752235677658040391e-14
4.342000000000000000e+03 4.697018146514892578e+00 1.625752639770507812e+01 -4.559507627818802991e-15 4.379687530611103830e-14 1.177121009172943378e-14 1.248651416909263984e-14
4.343000000000000000e+03 7.532438659667968750e+01 1.545678424835205078e+01 5.942128570874533056e-14 3.228474345501330944e-13 1.146806174329162431e-13 -1.018728355253913087e-13
4.344000000000000000e+03 7.321697998046875000e+01 1.468491363525390625e+01 -4.831536917510731444e-14 8.714369286941248127e-13 2.469364773424742587e-13 -1.255649908051340025e-13
4.345000000000000000e+03 7.324830627441406250e+01 1.711933517456054688e+01 -1.052746485905725615e-13 7.097729522176354777e-13 1.813494965091297373e-13 -1.109030334472786705e-13
4.346000000000000000e+03 7.462401580810546875e+01 1.466311454772949219e+01 1.315606491477695761e-14 3.258949642266639746e-13 1.017153077259927429e-13 -1.129595430458514918e-14
4.347000000000000000e+03 7.325372314453125000e+01 1.793948173522949219e+01 7.255343380122361574e-14 1.129117090624409681e-12 3.605011525843054843e-13 2.951249813108736131e-14
4.348000000000000000e+03 7.603557586669921875e+01 1.951329040527343750e+01 3.248448602125031393e-14 -5.470450142679682271e-14 -6.666004028740889556e-15 2.618503761801609098e-14
4.349000000000000000e+03 7.325545501708984375e+01 1.875949478149414062e+01 -2.302764268602864456e-14 7.678971391048006190e-13 2.234608440128404983e-13 -1.389731970995178312e-13
4.350000000000000000e+03 7.541572570800781250e+01 -3.943369865417480469e+00 -2.277308387439030968e-14 -1.012617927335056345e-13 -3.721046230474242544e-14 -8.355032025389105832e-14
4.351000000000000000e+03 7.602014160156250000e+01 1.384176445007324219e+01 2.872066123880794020e-14 -1.020685136887342082e-13 -2.200435573497788039e-14 -1.452724388267129241e-13
4.352000000000000000e+03 7.532298278808593750e+01 1.465274238586425781e+01 -6.891472933761785824e-14 6.196701273853202907e-14 -2.084315784407048643e-15 -2.043802749111291173e-14
4.353000000000000000e+03 7.394113159179687500e+01 3.785276412963867188e+00 1.271393878848545156e-13 6.492506185451496492e-13 2.329170114157702587e-13 -2.097192929842624232e-14
4.354000000000000000e+03 7.370494842529296875e+01 1.379675865173339844e+00 2.829710749573111084e-13 4.186544774048561735e-13 2.104876738401664782e-13 -7.677331128686307182e-14
4.355000000000000000e+03 7.540141296386718750e+01 -4.724773406982421875e+00 1.103317808751232143e-13 2.760397975736655907e-13 1.159114715017575681e-13 -3.849320900006433788e-15
4.356000000000000000e+03 7.460816192626953125e+01 1.227368640899658203e+01 -2.072186272602367062e-15 2.736176086051700374e-13 8.146363087140756631e-14 7.611434675895353830e-15
4.357000000000000000e+03 7.611932373046875000e+01 8.907910346984863281e+00 4.523449689364071602e-14 6.513715890450744173e-14 3.311149707825762623e-14 -1.648452662079188252e-14
4.358000000000000000e+03 7.553480529785156250e+01 8.620901107788085938e-01 1.111672331879226538e-13 1.391450024862753154e-13 7.509367205751210639e-14 -1.094321573462397890e-13
4.359000000000000000e+03 7.618146514892578125e+01 5.830796241760253906e+00 -8.695359868607106107e-15 4.202436738442311137e-14 9.998702170041506854e-15 -1.232080843599492326e-13
4.360000000000000000e+03 7.543447113037109375e+01 4.243678569793701172e+00 -9.816064925954534615e-15 2.702988115450832840e-13 7.814482025879365690e-14 -1.752377539951388563e-13
4.361000000000000000e+03 7.531056976318359375e+01 9.631972312927246094e+00 -9.996665902836307516e-14 2.908095983193323929e-15 -2.911756732536414927e-14 1.139246303630964130e-13
4.362000000000000000e+03 7.451208496093750000e+01 1.063664054870605469e+01 6.559521399359183325e-14 1.653650767751216333e-13 6.928808790824039776e-14 7.479790170485806078e-14
4.363000000000000000e+03 7.371926116943359375e+01 1.017348957061767578e+01 -6.879924147745741791e-14 5.195259912375849165e-13 1.352180222175328184e-13 2.216299145347145477e-14
4.364000000000000000e+03 7.557198333740234375e+01 8.057487487792968750e+00 2.212932655249930623e-15 1.382012451527081520e-13 4.212425289769512748e-14 3.730115242833904887e-14
4.365000000000000000e+03 7.596914672851562500e+01 -1.298379063606262207e+00 7.400080304391029595e-14 7.746557437399506640e-14 4.543991254774525090e-14 -7.927843494529018820e-14
4.366000000000000000e+03 7.282610321044921875e+01 -2.711594343185424805e+00 9.263336625542351044e-14 7.831529478738441519e-13 2.627358779757477114e-13 1.533212813165703986e-14
4.367000000000000000e+03 7.328071594238281250e+01 -5.322958827018737793e-01 1.199279526598387435e-13 7.376619389105887326e-13 2.572769742473918209e-13 1.107344061281392844e-13
4.368000000000000000e+03 7.555021667480468750e+01 6.614475727081298828e+00 3.461130104851113665e-14 1.520862564574967934e-13 5.600926759061555793e-14 -2.655550103002491530e-14
4.369000000000000000e+03 7.548551940917968750e+01 5.062145233154296875e+00 7.062316091091189185e-14 3.276482275597902838e-13 1.194814239951005885e-13 -4.526262177562134781e-14
4.370000000000000000e+03 7.463314819335937500e+01 2.036080169677734375e+01 -3.251747964861176343e-14 2.834451152521760831e-13 7.527829135869565369e-14 -2.267273960807406064e-13
4.371000000000000000e+03 7.535787963867187500e+01 -5.516662597656250000e+00 -9.586613864938711704e-15 -4.108548980766507999e-15 -4.108548980766507999e-15 -1.020975499781660856e-13
4.372000000000000000e+03 7.356399536132812500e+01 -1.131864309310913086e+00 7.473465206062068766e-14 6.267914789623296734e-13 2.104578311753688147e-13 -8.140942753904686913e-14
4.373000000000000000e+03 7.386795806884765625e+01 -3.516206026077270508e+00 3.012326648429812515e-14 4.704194390796334613e-13 1.501628140408717282e-13 -6.697259798604457415e-14
4.374000000000000000e+03 7.609978485107421875e+01 -8.713116645812988281e+00 6.082443305532175826e-14 1.175695147790853379e-13 5.351818096219033982e-14 -1.334661412421764282e-13
4.375000000000000000e+03 7.543701934814453125e+01 -1.028958320617675781e+01 -5.246648791422045544e-14 1.376426777459707762e-13 2.555285796596463294e-14 -2.954006397132280526e-13
4.376000000000000000e+03 7.533283996582031250e+01 2.033974456787109375e+01 1.269547719718027573e-14 3.256975581161086764e-13 1.015179083917010228e-13 -5.424067634927573489e-14
4.377000000000000000e+03 7.071861267089843750e+01 -9.021031379699707031e+00 1.115993893976117979e-13 4.939000597392606551e-13 1.816498340634353781e-13 3.546303672268859286e-14
4.378000000000000000e+03 7.606704711914062500e+01 -7.931805610656738281e+00 -1.217464578586943680e-13 -5.217705675614366101e-14 -5.217705675614366101e-14 -1.736602262816452913e-13
4.379000000000000000e+03 7.473397064208984375e+01 -9.543919563293457031e+00 1.514181338093615464e-14 4.639988480242829283e-13 1.437421958804668831e-13 -1.834326961158705416e-13
4.380000000000000000e+03 7.610116577148437500e+01 2.661691665649414062e+01 5.759529951489955613e-14 -1.125691472545278793e-13 -1.649215499951485475e-14 -7.687212953862154752e-14
4.381000000000000000e+03 7.324835968017578125e+01 2.556926918029785156e+01 1.703894322727453337e-13 6.449108825093419206e-13 2.445901012108897543e-13 -8.602585874553647649e-14
4.382000000000000000e+03 7.526582336425781250e+01 -6.362226963043212891e+00 2.188600151532393151e-14 5.513066403135119531e-14 2.310499881696959079e-14 -2.217658463820899178e-15
4.383000000000000000e+03 7.527477264404296875e+01 -7.223315715789794922e+00 1.347191841861040268e-14 9.727557436856396067e-14 3.322424732793254065e-14 -1.691113883043465771e-13
4.384000000000000000e+03 4.044118881225585938e+00 2.121327972412109375e+01 -2.517248935067061683e-14 -2.395429503625895462e-13 -7.941463106694510166e-14 -3.177466859980294760e-15
4.385000000000000000e+03 7.488107299804687500e+01 -1.657119178771972656e+01 5.379419850651441515e-14 5.034396293943088629e-13 1.671701378670384375e-13 -5.969548043816691463e-14
4.386000000000000000e+03 7.614372253417968750e+01 -1.906596374511718750e+01 -1.052651821503540475e-13 2.065165665430038211e-13 3.037541802830036330e-14 -1.079096664455270194e-13
4.387000000000000000e+03 7.567843627929687500e+01 -2.057544136047363281e+01 -1.306672733339050985e-13 1.956299570038053104e-13 1.948880679503595809e-14 3.995728173247087289e-14
4.388000000000000000e+03 4.712076187133789062e+00 1.786475372314453125e+01 -6.931700222492787056e-14 4.278021892897138079e-13 1.075455574746884968e-13 -6.926799967486331477e-15
4.389000000000000000e+03 7.557314300537109375e+01 -1.735379028320312500e+01 -4.281240787503293871e-15 4.556746690045909709e-13 1.354180304133020818e-13 -1.264448750782146136e-13
4.390000000000000000e+03 7.556101226806640625e+01 -1.814224624633789062e+01 -1.022973345572372739e-13 4.136677708276720322e-13 9.341113223638314311e-14 -1.536896966029127620e-13
4.391000000000000000e+03 3.151335477828979492e+00 6.288949966430664062e+00 -3.418136067701200986e-14 -2.434039027190276760e-13 -8.327557664711965346e-14 -1.169969001779506967e-14
4.392000000000000000e+03 3.828465938568115234e+00 6.194163322448730469e+00 -4.406776321890654158e-14 -1.103880848491931022e-13 -4.633675442042989312e-14 -1.018501282661413154e-13
4.393000000000000000e+03 4.538483619689941406e+00 8.645874023437500000e+00 7.592351362406893345e-14 -1.321230027917811786e-14 1.881336408817053940e-14 -9.378366579691505694e-15
4.394000000000000000e+03 7.549155426025390625e+01 -1.893402099609375000e+01 4.171802606058733209e-14 3.838867429235143236e-13 1.276814347609886435e-13 -9.707402118469890540e-14
4.395000000000000000e+03 5.239930152893066406e+00 8.689495086669921875e+00 -2.467366995396666485e-14 -2.850801192333385359e-13 -9.292613472331248681e-14 4.072209149746930379e-14
4.396000000000000000e+03 7.523937988281250000e+01 2.807502365112304688e+01 7.486279628707900174e-15 2.548386306665262335e-13 7.869747198742740868e-14 9.440224209983361092e-14
4.397000000000000000e+03 7.615834045410156250e+01 -1.423658466339111328e+01 -6.255370163911824766e-14 1.104441177727198686e-13 1.436712382364094959e-14 -2.031776575326174616e-13
4.398000000000000000e+03 7.556803894042968750e+01 -2.127664947509765625e+01 4.509046741128959479e-14 3.395811193004916184e-13 1.154014763523475429e-13 -1.272031931827052875e-13
4.399000000000000000e+03 7.614067077636718750e+01 -2.070155906677246094e+01 1.286331423457987358e-14 3.257694949302530896e-13 1.015898384295818579e-13 -1.241460005543121303e-13
4.400000000000000000e+03 7.544441223144531250e+01 -1.268458747863769531e+01 8.900354547336855604e-14 1.296462801480754989e-13 6.559494294304871187e-14 -3.798222790430370865e-15
4.401000000000000000e+03 7.545217132568359375e+01 -1.347300529479980469e+01 -6.552126462916474381e-14 6.342135475644050668e-14 -6.299731312238605885e-16 -1.368478626858488090e-13
4.402000000000000000e+03 4.380256271362304688e+01 -4.613202810287475586e-01 -9.628007348631492657e-14 4.488060398717902758e-15 -2.753760354511428088e-14 2.039897249598091045e-14
4.403000000000000000e+03 4.771395206451416016e+00 2.028594017028808594e+01 -5.942211918916542879e-14 -2.591147477517315861e-15 -1.860397923767517087e-14 -1.112250821500883335e-13
4.404000000000000000e+03 3.914390563964843750e+00 1.399308013916015625e+01 2.917021889336547658e-14 1.955053144115509456e-13 6.740266033028810555e-14 4.937719612525814927e-14
4.405000000000000000e+03 4.698489189147949219e+00 1.545719623565673828e+01 -9.610129532433564492e-14 -1.326881719733094545e-13 -6.863684154454624542e-14 -2.338628490622558787e-14
4.406000000000000000e+03 4.821522712707519531e+00 2.190505599975585938e+01 -7.160306961066786879e-14 -7.643797433117688334e-14 -4.441231250492706784e-14 1.522660137895631011e-14
4.407000000000000000e+03 3.878140449523925781e+00 1.321077728271484375e+01 -1.257731982798326875e-13 -1.454046979392289995e-13 -8.135337428672936855e-14 -4.877135411566861645e-14
4.408000000000000000e+03 4.683939933776855469e+00 1.465535259246826172e+01 -2.473299105939467252e-14 5.802656803405997765e-14 9.988073600619359893e-15 5.225719623734928487e-14
4.409000000000000000e+03 4.698494911193847656e+00 1.706011009216308594e+01 -1.488686561176844059e-13 -1.781782322596639490e-13 -9.811406244744635963e-14 -2.083635998115229704e-14
4.410000000000000000e+03 5.435688495635986328e+00 1.614646911621093750e+01 -1.109515176131795067e-13 -1.390525471460166140e-13 -7.500122349351698303e-14 7.120362920153347486e-14
4.411000000000000000e+03 4.489231586456298828e+00 9.391527175903320312e+00 3.365736449650034469e-15 -4.103160682316503438e-13 -1.220851084072702153e-13 4.558392170130563803e-14
4.412000000000000000e+03 4.733741760253906250e+00 1.866999244689941406e+01 -1.238525070262203043e-13 1.756750940464651967e-13 1.554677475082075211e-14 -3.327297543932218604e-14
4.413000000000000000e+03 4.587267398834228516e+00 1.307997608184814453e+01 5.947847737334394091e-14 2.084945714339592193e-13 8.039191057643280125e-14 1.966359475420731417e-13
4.414000000000000000e+03 4.521247863769531250e+00 1.232554817199707031e+01 -4.605294078485928921e-14 -1.112388718464696336e-13 -4.718754480583821354e-14 1.537461428785177886e-13
4.415000000000000000e+03 3.842071914672851562e+01 -1.576269245147705078e+01 -1.169227746306705784e-13 -9.586071086226111149e-14 -6.383504564787950697e-14 -4.374614819696587276e-14
4.416000000000000000e+03 4.192785263061523438e+00 2.606512260437011719e+01 -6.460361623916374696e-14 -3.479438959175240598e-13 -1.237642529693799842e-13 9.836035252345359803e-14
4.417000000000000000e+03 5.337557792663574219e+00 2.834154891967773438e+01 9.600900939066639439e-14 1.555240853635952991e-13 7.545992910390486585e-14 -1.356482776852883237e-14
4.418000000000000000e+03 5.110477924346923828e+00 1.010687541961669922e+01 4.587998851549122264e-15 -3.182903430837963343e-13 -9.411070691191583681e-14 1.175614916830089451e-13
4.419000000000000000e+03 4.468135833740234375e+00 1.158816051483154297e+01 -1.710623863968117192e-14 -1.903350388540378524e-13 -6.223238477277501235e-14 1.081889569251592853e-13
4.420000000000000000e+03 7.533156585693359375e+01 1.789892387390136719e+01 -7.591714054817379209e-15 1.568747302199691163e-13 4.478490535776528947e-14 -1.072698855198069012e-13
4.421000000000000000e+03 5.701391220092773438e+00 6.111491680145263672e+00 -7.952585665731495834e-14 -1.027089315832306615e-13 -5.467043714979004376e-14 1.133418716953854544e-13
4.422000000000000000e+03 7.533169555664062500e+01 2.114748191833496094e+01 8.200862881032992824e-15 2.639012970553477472e-14 1.037729794537691971e-14 -1.737314041542689647e-13
4.423000000000000000e+03 4.907063484191894531e+00 2.679385185241699219e+01 7.625143734740075230e-14 -1.045736576759520586e-13 -8.496666267971981351e-15 1.201464329501217287e-13
4.424000000000000000e+03 7.532933807373046875e+01 1.708349037170410156e+01 8.166894488155843068e-14 2.180047727626602261e-13 8.990211190513380801e-14 -3.816316430623259426e-14
4.425000000000000000e+03 7.533213806152343750e+01 2.195427322387695312e+01 9.944808512926325839e-14 1.341225036848719965e-13 7.007118003237236548e-14 -1.310404963792560773e-13
4.426000000000000000e+03 7.322772216796875000e+01 1.548866653442382812e+01 -6.046505391646070371e-14 7.518525190451652573e-13 2.074162375057322927e-13 -3.597633868872469887e-14
4.427000000000000000e+03 7.532665252685546875e+01 1.626777267456054688e+01 -1.999296927557119019e-14 1.515599034078093932e-13 3.947008193373735541e-14 -1.266998912876444658e-14
4.428000000000000000e+03 4.737074279785156250e+01 -1.192214393615722656e+01 2.188612518213423064e-14 1.466326111096774576e-13 5.055562224279622208e-14 -7.054220488994511484e-14
4.429000000000000000e+03 4.703960418701171875e+01 -1.133983325958251953e+01 -2.986624958304685828e-14 -3.567529640300694249e-14 -1.966246379581614023e-14 -8.789170292174824928e-14
4.430000000000000000e+03 4.982303142547607422e+00 2.602291297912597656e+01 8.012683669778725148e-14 -8.003729515086710489e-14 2.686252330217583803e-17 -4.513835865412735293e-14
4.431000000000000000e+03 5.030279159545898438e+00 2.438195419311523438e+01 9.314479119644850091e-14 -2.870722729626448699e-14 1.933126883124202527e-14 -9.413230455800492696e-15
4.432000000000000000e+03 5.497675895690917969e+00 2.761318969726562500e+01 2.090015511460770192e-14 -8.254468885759286279e-14 -1.849336012289554826e-14 6.641537905575922718e-14
4.433000000000000000e+03 7.294561767578125000e+01 -2.121787834167480469e+01 -1.730777251119502980e-13 2.003295261881338218e-13 8.175540831074825515e-15 -1.551470269530591528e-13
4.434000000000000000e+03 7.264781188964843750e+01 -2.031780052185058594e+01 -1.147195131858541606e-13 1.795892400719908966e-13 1.946091569414876848e-14 -2.257612635248387734e-13
4.435000000000000000e+03 5.129644870758056641e+00 3.233381652832031250e+01 2.763983872778198042e-14 -1.025317255144014839e-13 -2.246756586657926158e-14 7.348389610565067565e-14
4.436000000000000000e+03 4.185218811035156250e+01 4.782811641693115234e+00 -2.307629117632124804e-14 8.161205814882083187e-14 1.756073110818941185e-14 -6.215142197554465731e-14
4.437000000000000000e+03 7.324707031250000000e+01 3.234272003173828125e+01 1.140896713447371244e-14 4.623990535086719422e-13 1.421424013648558971e-13 1.406777255449909170e-13
4.438000000000000000e+03 7.392190551757812500e+01 2.202018547058105469e+01 3.170046893713994451e-14 5.854727510093415965e-13 1.851519697108894302e-13 -1.237705125428601935e-14
4.439000000000000000e+03 2.814159393310546875e+01 -9.484003067016601562e+00 -6.080280999824425048e-14 1.969260122807944824e-14 -1.233306313926920902e-14 8.340257737909917424e-14
4.440000000000000000e+03 7.392295074462890625e+01 1.467453670501708984e+01 -5.998160816774941728e-14 6.148068707780007802e-13 1.664475848817126291e-13 -1.030754596801665424e-13
4.441000000000000000e+03 7.351110076904296875e+01 5.946613311767578125e+00 8.508687190152824931e-14 9.514847677111193391e-13 3.109714905285415609e-13 9.830776194182447303e-15
4.442000000000000000e+03 6.700527954101562500e+01 -1.744121932983398438e+01 -5.584065721213511690e-14 -6.968265618386218496e-14 -3.765699435761236946e-14 -4.301930583679516862e-14
4.443000000000000000e+03 6.820919036865234375e+01 -1.803191947937011719e+01 -5.662948883151767976e-14 2.502359213937821458e-13 5.808192333122894069e-14 -4.649013175838691281e-14
4.444000000000000000e+03 1.701048469543457031e+01 4.408659934997558594e+00 9.614986080539941748e-15 2.556646639729522053e-14 1.055443540453736978e-14 1.393090558274995283e-13
4.445000000000000000e+03 6.748367309570312500e+01 -1.532480907440185547e+01 5.961135312584561752e-14 2.085515191530690204e-13 8.044885829554260237e-14 -1.403607183822833115e-13
4.446000000000000000e+03 4.094184875488281250e+01 -1.559965801239013672e+01 -1.032569686763677719e-13 4.724891064880089309e-14 -1.680241808589642144e-14 5.774139575764197785e-14
4.447000000000000000e+03 3.023480033874511719e+01 -1.315172195434570312e+01 -1.037382189156797752e-13 1.291712221431243982e-15 -3.073395352234595257e-14 6.505765300394636408e-14
4.448000000000000000e+03 3.126202583312988281e+01 -1.230915260314941406e+01 -1.456048823178512919e-13 -1.665114647184627594e-14 -4.867681168622788046e-14 1.193632730633539807e-13
4.449000000000000000e+03 4.670798110961914062e+01 -9.900297164916992188e+00 8.647536218998538859e-14 -8.690080312246870053e-15 2.333558320806883996e-14 -7.687921751032417150e-14
4.450000000000000000e+03 7.253301239013671875e+01 2.887195777893066406e+01 2.299219029142790527e-13 7.161757623573572484e-13 2.838293022919963216e-13 -2.380547812368995209e-14
4.451000000000000000e+03 7.112895965576171875e+01 -8.249921798706054688e+00 -5.367977113160393721e-14 7.661982485106244578e-13 2.137555405032007250e-13 5.271720034924530854e-15
4.452000000000000000e+03 3.950110626220703125e+01 8.634885787963867188e+00 -2.706368183486192180e-14 -5.734966673645938706e-14 -2.532400491020957156e-14 -1.387611407071068226e-13
4.453000000000000000e+03 6.994894409179687500e+01 3.541545104980468750e+01 -2.942774062625330700e-14 5.721424310885236952e-13 1.628144098491865477e-13 3.505140920350910405e-15
4.454000000000000000e+03 7.160644531250000000e+01 3.895312118530273438e+01 -1.758074209216170525e-13 4.279144042145660576e-13 7.563209363263198592e-14 6.680886312920852887e-14
4.455000000000000000e+03 2.339476394653320312e+01 -2.472863912582397461e+00 3.385904092365922546e-14 -6.841257432516761883e-14 -1.036606035926569691e-14 3.913015744760883763e-14
4.456000000000000000e+03 2.328912925720214844e+01 -1.234631419181823730e+00 -4.211540648559400357e-14 -6.380040538846859510e-14 -3.177474356221877960e-14 1.029873411485977830e-13
4.457000000000000000e+03 3.953602218627929688e+01 1.986329460144042969e+01 2.937855511707214429e-14 1.498436520263463079e-13 5.376666315946507235e-14 3.186736153280335382e-14
4.458000000000000000e+03 1.049060726165771484e+01 5.426077365875244141e+00 -6.951641749763405598e-15 -2.088585381032626032e-13 -6.474305819107253890e-14 5.537186174527954086e-14
4.459000000000000000e+03 7.951142787933349609e+00 6.918619155883789062e+00 -2.227764549439861796e-13 -2.327284686579750295e-13 -1.366514865673573720e-13 1.009713146427060337e-13
4.460000000000000000e+03 3.104893875122070312e+01 -1.318198394775390625e+01 -1.065532414363211389e-13 -3.422793732471562933e-14 -4.223435362831103046e-14 4.710549780643537299e-14
4.461000000000000000e+03 3.947695922851562500e+01 2.254001808166503906e+01 4.631227855638603286e-14 1.571009625557853728e-13 6.102397368890413731e-14 6.165844202397907647e-14
4.462000000000000000e+03 3.910708618164062500e+01 2.088414955139160156e+01 3.563910099110487173e-14 1.182135308695417275e-13 4.615579091344669538e-14 1.411753031913941941e-14
4.463000000000000000e+03 3.977901458740234375e+01 7.744246006011962891e+00 1.097575602995205790e-13 3.672956036537833313e-13 1.431159471531120997e-13 4.700582235733427594e-14
4.464000000000000000e+03 4.120355224609375000e+01 4.474876880645751953e+00 2.148135354762981813e-14 2.379610451828245710e-13 7.783271911091654838e-14 1.225671582456844266e-13
4.465000000000000000e+03 7.530786132812500000e+01 -2.307693719863891602e+00 1.182131513987813576e-13 1.421646817195004742e-13 7.811335129073726513e-14 -1.147521612237731303e-13
4.466000000000000000e+03 7.534664154052734375e+01 2.356088256835937500e+01 1.293876979299377061e-13 2.384556582139124581e-13 1.103530109089131961e-13 3.847183412364037561e-15
4.467000000000000000e+03 7.177059936523437500e+01 -4.871127605438232422e+00 9.976463828231113551e-14 6.375186294670098786e-13 2.211849681275218638e-13 1.005137135632813705e-13
4.468000000000000000e+03 7.410169982910156250e+01 -4.050347805023193359e+00 1.628611118577663608e-13 4.358052005208612467e-13 1.795998923583355666e-13 -1.477808083153939189e-13
4.469000000000000000e+03 1.642175292968750000e+01 3.869110345840454102e+00 -5.387460903826316039e-14 -1.689202705663916948e-13 -6.683846184851738315e-14 -3.743554267575041616e-14
4.470000000000000000e+03 1.588366222381591797e+01 3.306416988372802734e+00 -2.706278906213551577e-14 -1.159833829049135637e-14 -1.159833829049135637e-14 1.679541922205984861e-13
4.471000000000000000e+03 7.150479125976562500e+01 -7.470130443572998047e+00 -2.863915634049134240e-14 5.481752204938850070e-13 1.558608114533149847e-13 -4.197642531960851797e-14
4.472000000000000000e+03 3.833030319213867188e+01 1.916397285461425781e+01 4.143542198806540733e-14 1.550108782652492856e-13 5.893388939836805007e-14 3.190910670457583476e-14
4.473000000000000000e+03 7.541912078857421875e+01 2.523212671279907227e+00 1.475679252188263901e-13 4.292509815477518753e-13 1.730456733852261952e-13 -2.706998579286856721e-13
4.474000000000000000e+03 4.465168380737304688e+01 -1.467736816406250000e+01 -1.121309669465178627e-13 -1.853089757379924873e-13 -8.923198009484767379e-14 3.615383613688773201e-14
4.475000000000000000e+03 2.660980415344238281e+01 -5.582119464874267578e+00 -1.331372739241413680e-14 4.004506483899251956e-14 8.019401318676809554e-15 -1.847877082741204019e-14
4.476000000000000000e+03 2.610679817199707031e+01 -4.877733707427978516e+00 2.316117912422917952e-14 1.300224576443465008e-13 4.595509153879247244e-14 6.891574577715456340e-14
4.477000000000000000e+03 3.933729553222656250e+01 -1.560718631744384766e+01 3.135911804752825049e-14 1.343962189936454346e-14 1.343962189936454346e-14 8.191849434034670363e-14
4.478000000000000000e+03 3.688014602661132812e+01 -1.545917320251464844e+01 -1.006056335787174072e-13 2.550972366015865495e-14 -2.252877246734785732e-14 9.885660541032736948e-14
4.479000000000000000e+03 4.623833465576171875e+01 -5.664545059204101562e+00 1.145422732357070927e-13 1.405914366045882269e-13 7.654011295208859589e-14 -9.004355285479812010e-14
4.480000000000000000e+03 1.840422439575195312e+01 2.462210893630981445e+00 -8.973022520321338735e-14 -2.328973331463396468e-13 -9.678827292587677267e-14 1.877169210004470123e-13
4.481000000000000000e+03 4.854618072509765625e+01 -1.320617866516113281e+01 1.231367574095268425e-13 2.989742039550581654e-14 4.591025300269661880e-14 2.928644536625592265e-14
4.482000000000000000e+03 4.098294448852539062e+01 2.848807716369628906e+01 -1.401507236680659199e-14 1.998728060229743031e-13 5.575732272265244982e-14 2.786739412906184821e-14
4.483000000000000000e+03 7.210219573974609375e+01 -5.894766807556152344e+00 4.851986325736523664e-14 4.554282298507850157e-13 1.511844306429505069e-13 2.857240336798412550e-14
4.484000000000000000e+03 2.834635543823242188e+01 -8.361995697021484375e+00 -8.556197606977497538e-14 -8.242036474972666560e-14 -5.039470292347685010e-14 4.579052066043748717e-15
4.485000000000000000e+03 3.920917892456054688e+01 2.774330139160156250e+01 -8.783909878759196821e-14 1.453584702690996489e-13 1.725581110563912529e-14 4.201582590418299901e-14
4.486000000000000000e+03 6.987476348876953125e+01 -1.052050113677978516e+01 1.030245496119047699e-13 7.189798886461651328e-13 2.466013233459046772e-13 1.005392465244434042e-13
4.487000000000000000e+03 2.906471443176269531e+01 -9.724973678588867188e+00 -5.777912853434331517e-15 4.327469982291949624e-14 1.124903630260378623e-14 -2.444022936776927418e-14
4.488000000000000000e+03 2.871313095092773438e+01 -9.049352645874023438e+00 -3.512238717635722540e-14 -1.065543527435479365e-13 -4.250302231478472748e-14 1.398364998556229921e-14
4.489000000000000000e+03 2.393600654602050781e+01 -1.931406259536743164e+00 -2.907373464089316011e-15 1.360068335081246471e-13 3.992983786497983356e-14 1.521068427462468620e-13
4.490000000000000000e+03 4.147631072998046875e+01 5.544677734375000000e+00 1.339790044451458564e-14 5.741957151856333721e-15 5.741957151856333721e-15 7.868058553859094695e-14
4.491000000000000000e+03 7.240782928466796875e+01 -5.134206295013427734e+00 2.755265532058698980e-14 5.836951473374429877e-13 1.833743389339365093e-13 -1.198324480009699267e-13
4.492000000000000000e+03 6.776253509521484375e+01 -1.596768951416015625e+01 3.689947585222390358e-14 -2.993688874271607792e-14 2.088776471665526602e-15 7.341346362202058606e-14
4.493000000000000000e+03 2.258482170104980469e+01 -6.058276295661926270e-01 -1.167397070938464010e-14 1.322497206147563165e-13 3.617272497161150291e-14 6.687621918917419084e-14
4.494000000000000000e+03 3.483242034912109375e+01 -1.301462841033935547e+01 1.065799195860278603e-14 -5.833984147553608612e-14 -1.430455519389316893e-14 6.800329478131791894e-14
4.495000000000000000e+03 7.029595184326171875e+01 -9.779199600219726562e+00 -1.291416111418378088e-13 6.652310538361738690e-13 1.608268233215318088e-13 -5.271229348738186438e-14
4.496000000000000000e+03 2.753931427001953125e+01 -6.972442150115966797e+00 -5.014969694941764922e-14 -2.149272750604554888e-14 -2.149272750604554888e-14 -2.092004006007744388e-14
4.497000000000000000e+03 3.957005310058593750e+01 1.438183689117431641e+01 1.557742717911599073e-14 1.210534087249873214e-13 4.098925246529688815e-14 6.669308304268128582e-15
4.498000000000000000e+03 6.888759613037109375e+01 -1.791480636596679688e+01 -8.328181758587502315e-14 -3.569220656876592734e-14 -3.569220656876592734e-14 -6.125331632970271167e-14
4.499000000000000000e+03 3.790986251831054688e+01 1.324653816223144531e+01 6.007298608209921120e-14 7.149651286590327781e-14 3.947084765152167329e-14 -9.456304961080394533e-14
4.500000000000000000e+03 2.708943557739257812e+01 -6.278289318084716797e+00 -9.156081248002864714e-14 -5.067808626631024882e-14 -4.267166996271484769e-14 3.604352195396912095e-14
4.501000000000000000e+03 4.475744628906250000e+01 -8.085732460021972656e+00 -2.959733017482077400e-15 -4.701940537767644590e-14 -1.499374185736073589e-14 -1.347173376542790124e-13
4.502000000000000000e+03 6.822745513916015625e+01 -1.506626510620117188e+01 -3.589406468449199417e-14 3.506244231586685967e-13 9.441910821987933855e-14 1.519646089737439199e-13
4.503000000000000000e+03 7.540673065185546875e+01 2.512092399597167969e+01 1.323057874196009731e-13 -8.055036672394155772e-14 1.552662891920325583e-14 -3.437567342324393538e-14
4.504000000000000000e+03 4.071342849731445312e+01 2.334453821182250977e+00 1.151723319172586260e-14 1.421888052178382766e-13 4.611180957469346309e-14 -5.125280828541765865e-14
4.505000000000000000e+03 4.004846572875976562e+01 2.615549278259277344e+01 -4.780180971105524312e-14 2.768946638816160988e-13 6.872786031692640352e-14 4.482845640378131657e-14
4.506000000000000000e+03 7.563462829589843750e+01 3.833920054603368044e-04 1.037001837482162681e-13 1.359448306963856323e-13 7.189350704388600133e-14 -6.296738575429366991e-14
4.507000000000000000e+03 2.506371688842773438e+01 -3.436234712600708008e+00 -2.911166265868883954e-15 4.450330756038470281e-14 1.247764234600309829e-14 6.324473822254261801e-14
4.508000000000000000e+03 2.451720809936523438e+01 -2.682971715927124023e+00 3.349323449879440528e-14 -2.144005052705580394e-13 -5.427217919865001683e-14 -2.391122552847344158e-15
4.509000000000000000e+03 7.546110534667968750e+01 2.659948921203613281e+01 8.864741216476137997e-14 -5.351014770171858004e-14 1.054117933891283998e-14 8.385859958911015544e-14
4.510000000000000000e+03 6.905887603759765625e+01 -1.191214656829833984e+01 8.023324436475312571e-14 4.232687334307372318e-13 1.510505994372843275e-13 5.698493434937168534e-14
4.511000000000000000e+03 6.882779693603515625e+01 -1.095326328277587891e+01 4.068663131016544976e-14 5.778862631478087764e-13 1.855718676597659100e-13 5.568551465751601925e-14
4.512000000000000000e+03 6.946083831787109375e+01 -1.123626995086669922e+01 -9.778939133063199729e-14 7.701696268583302363e-13 2.017140659149249671e-13 1.070452930397765290e-13
4.513000000000000000e+03 2.186915969848632812e+01 -2.411325834691524506e-02 9.104793064233437927e-14 -6.730406484819475774e-15 2.529525830604565512e-14 7.782832809211798208e-14
4.514000000000000000e+03 4.206043243408203125e+01 -1.593421173095703125e+01 -6.765317201850445938e-14 -7.474516204543021902e-14 -4.271950021918040352e-14 1.341052919753837891e-13
4.515000000000000000e+03 7.539134979248046875e+01 2.732143211364746094e+01 9.134485973606026876e-14 -9.810505001688757387e-14 -2.028055856050418014e-15 5.060777490839161660e-15
4.516000000000000000e+03 1.454058456420898438e+01 5.406893730163574219e+00 9.289458613415905314e-15 1.240774383194295782e-13 4.001006882574376089e-14 -1.659955200096312200e-14
4.517000000000000000e+03 1.453852081298828125e+01 4.213020324707031250e+00 3.818272060291880154e-14 -7.925831812455113538e-16 1.121704048005420229e-14 2.246032373488023731e-14
4.518000000000000000e+03 4.104216003417968750e+01 -1.606578254699707031e+01 -5.541301399398894378e-14 2.200251428535054954e-14 -1.002315008199810772e-14 1.046722455347488812e-13
4.519000000000000000e+03 6.896167755126953125e+01 -1.866634941101074219e+01 9.613386882335525629e-15 2.786257281752607673e-13 8.647173011270756215e-14 -1.861694527921856079e-13
4.520000000000000000e+03 3.986961746215820312e+01 2.497632980346679688e+01 -2.009421173562470769e-14 1.743919949854372264e-13 4.628933412791080837e-14 -5.484980908186535067e-15
4.521000000000000000e+03 4.060328674316406250e+01 2.335053062438964844e+01 2.804056154479851737e-14 1.378324944413186759e-13 4.976191510176926347e-14 1.541341449547324605e-14
4.522000000000000000e+03 4.020766830444335938e+01 -1.553570270538330078e+01 -9.981619209561282124e-14 4.872353063546663865e-14 -1.532779809923067588e-14 1.218112795960818451e-13
4.523000000000000000e+03 7.374749755859375000e+01 2.709110069274902344e+01 2.170710307466613975e-13 5.276644464251301070e-13 2.234206472172955982e-13 -4.600567126420481573e-15
4.524000000000000000e+03 7.306055450439453125e+01 2.701124000549316406e+01 2.040758783749402339e-13 7.508498488760506628e-13 2.864777100437809754e-13 -2.207785786600881955e-14
4.525000000000000000e+03 7.315788269042968750e+01 1.545874714851379395e+00 7.656902726877606868e-14 1.107962571515741512e-12 3.553594864116188523e-13 -4.690834580576425106e-14
4.526000000000000000e+03 7.452581024169921875e+01 1.729344725608825684e+00 2.445274885354287164e-13 3.335522233850057860e-13 1.734239108656249195e-13 -1.602681203895228723e-14
4.527000000000000000e+03 7.582950592041015625e+01 3.675437545776367188e+01 -3.615878958556327516e-14 -3.837209684113412900e-14 -2.235926592800922125e-14 1.827159978222761549e-13
4.528000000000000000e+03 7.402418518066406250e+01 9.499188661575317383e-01 2.154813193112545266e-13 6.413604998652122635e-13 2.570525443976873214e-13 1.034536836080381106e-13
4.529000000000000000e+03 7.554062652587890625e+01 1.706696629524230957e+00 2.690487264402074974e-13 3.440613408327991563e-13 1.839330283134182897e-13 -1.212597188458841568e-13
4.530000000000000000e+03 7.161524200439453125e+01 3.182803535461425781e+01 4.065727992447719374e-14 7.951906819646248348e-13 2.507543868726647140e-13 6.846373765628062033e-15
4.531000000000000000e+03 4.519613647460937500e+01 -1.509714698791503906e+01 -2.133204874408319712e-14 3.660864200758645604e-14 4.582978063754272399e-15 -3.736723793888382938e-14
4.532000000000000000e+03 4.606822204589843750e+01 -1.062632846832275391e+01 9.721971762789022309e-14 -4.983630492332892514e-14 1.421502381136838938e-14 -1.509457841922592913e-13
4.533000000000000000e+03 3.891068267822265625e+01 1.144824981689453125e+01 -5.403279074709700647e-14 2.284733003916211702e-13 5.233215526504950144e-14 -8.509908950475944533e-14
4.534000000000000000e+03 3.998222351074218750e+01 9.752720832824707031e+00 1.682662120533126582e-13 3.466197869093218253e-13 1.544657956230321982e-13 5.003909138716518268e-14
4.535000000000000000e+03 1.395336914062500000e+01 6.059886455535888672e+00 -6.233949039488942412e-14 -2.671692518098085084e-14 -2.671692518098085084e-14 1.785054986854286985e-13
4.536000000000000000e+03 4.546539306640625000e+01 -5.304649353027343750e+00 1.250634253276150520e-13 2.366024043354286732e-13 1.084997502541658332e-13 -1.254989222352481670e-13
4.537000000000000000e+03 7.420774841308593750e+01 3.133818817138671875e+01 9.831922060353492920e-14 4.310198844972162879e-13 1.588017233987090715e-13 2.021676825513657461e-13
4.538000000000000000e+03 4.404463195800781250e+01 3.100334548950195312e+01 2.399677882076144131e-14 2.619145406199813175e-13 8.577340226967322678e-14 3.601306942544943435e-14
4.539000000000000000e+03 4.359238052368164062e+01 3.257086944580078125e+01 -2.582315634382884723e-14 1.261857778640448902e-13 3.010878560903186563e-14 6.204219538293032077e-14
4.540000000000000000e+03 4.284808349609375000e+01 3.042237091064453125e+01 -5.853394500463003983e-15 2.719971058280645781e-13 7.984310776551137301e-14 6.065302746811537804e-14
4.541000000000000000e+03 3.138780021667480469e+01 -1.426115322113037109e+01 -6.982013979559692496e-14 -2.358021818169714345e-13 -9.168670190478137028e-14 -3.742032996401772893e-14
4.542000000000000000e+03 3.252666473388671875e+01 -1.384412384033203125e+01 3.382970647862991453e-14 -3.972601056705798994e-13 -1.090291187411454588e-13 -2.729053081066377950e-14
4.543000000000000000e+03 3.875197219848632812e+01 1.336909961700439453e+01 6.508446667892464621e-14 1.880216631260783755e-13 7.593184165200633773e-14 2.638072255762256846e-14
4.544000000000000000e+03 3.876428985595703125e+01 1.526427173614501953e+01 4.928764864910737190e-15 -6.651409566356403236e-14 -1.847559953605752009e-14 7.832730503695012336e-14
4.545000000000000000e+03 2.003486251831054688e+01 4.821771085262298584e-01 -5.211812697993728483e-14 1.263542493291219815e-13 2.227083399424997778e-14 1.336166827138260405e-13
4.546000000000000000e+03 6.739323425292968750e+01 -1.679143905639648438e+01 -3.077367259130860122e-14 -1.275660892023633419e-13 -4.750192955454111965e-14 -8.375261205048611934e-14
4.547000000000000000e+03 3.725644683837890625e+01 -1.484949207305908203e+01 -1.364724712361528591e-13 -1.385523640262675826e-13 -8.250744651296798571e-14 2.816282228040520308e-14
4.548000000000000000e+03 7.598522663116455078e+00 7.557816982269287109e+00 1.057018106940046942e-13 -1.377030135968695945e-13 -9.600362903738543507e-15 1.932261046045519182e-14
4.549000000000000000e+03 6.283438491821289062e+01 -2.044512939453125000e+01 -3.556979675536052488e-14 3.278879175550725167e-13 8.769543522347406084e-14 8.045034229726619190e-14
4.550000000000000000e+03 3.894630813598632812e+01 1.713552093505859375e+01 -1.713190034985118820e-14 2.214125015059451029e-13 6.128418221030065838e-14 1.392034545358994402e-13
4.551000000000000000e+03 3.883594512939453125e+01 1.620062065124511719e+01 -3.705545104023015221e-15 4.559213792089400474e-13 1.356647541701783144e-13 5.561057595860653679e-14
4.552000000000000000e+03 7.495117950439453125e+01 3.215081787109375000e+01 5.931905899640710356e-14 7.117340028971186339e-14 3.914773846346204789e-14 1.005900820538058182e-13
4.553000000000000000e+03 1.250566673278808594e+01 5.881437778472900391e+00 4.413519720590335094e-14 3.321225672953120878e-14 2.320423550300401011e-14 1.647219890327754344e-14
4.554000000000000000e+03 7.224532318115234375e+01 2.981333732604980469e+01 8.831956298032891950e-14 7.584286931122674602e-13 2.540244761501525561e-13 5.353397982072252703e-14
4.555000000000000000e+03 3.906232070922851562e+01 1.049351119995117188e+01 1.787864832309554730e-13 1.681246830122218316e-13 1.040733525834586226e-13 -1.375734480491257877e-14
4.556000000000000000e+03 6.061138629913330078e+00 3.325203323364257812e+01 7.206232409840557240e-14 8.521310691572345219e-14 4.718262862661234958e-14 1.029795958793280897e-13
4.557000000000000000e+03 3.938311004638671875e+01 2.168521690368652344e+01 6.770017218268170600e-14 1.891426739623197628e-13 7.705285248824772504e-14 4.843826687949033538e-14
4.558000000000000000e+03 4.762174606323242188e+01 3.540944290161132812e+01 4.642310434720478551e-14 1.171163860336221774e-13 4.906184575899537326e-14 7.889728367155290911e-14
4.559000000000000000e+03 7.447287750244140625e+01 3.590164184570312500e+01 -9.851334022625488074e-14 4.928189475429667343e-14 -1.476943398040064109e-14 2.091293989110037943e-13
4.560000000000000000e+03 7.441903686523437500e+01 3.322148132324218750e+01 7.577516088555502627e-14 7.822601344898566511e-14 4.620035162273584961e-14 1.599052785799734422e-13
4.561000000000000000e+03 5.077021789550781250e+01 3.789645767211914062e+01 5.605480069372816010e-14 8.121217050629028766e-14 4.118009237644507103e-14 3.643864164803957070e-15
4.562000000000000000e+03 5.284760665893554688e+01 4.115261077880859375e+01 7.908882831411320757e-14 6.820842583235217638e-14 4.418917353343418397e-14 3.631744817394642541e-16
4.563000000000000000e+03 7.140209960937500000e+01 -1.863106918334960938e+01 -7.596991070078773500e-15 3.970649492795325086e-13 1.168403888180888361e-13 -9.272311786651457610e-14
4.564000000000000000e+03 7.321592712402343750e+01 -2.057187652587890625e+01 -6.769509676126175823e-14 2.454935126711133009e-13 5.333952477295546279e-14 -1.246053228046856143e-13
4.565000000000000000e+03 6.930616760253906250e+01 -1.283938980102539062e+01 1.460661561321352497e-13 1.998526263100389166e-13 1.037756306668941031e-13 5.541902369274971304e-15
4.566000000000000000e+03 6.924771118164062500e+01 -1.572411251068115234e+01 -5.363856128465412099e-14 6.851394045203143546e-14 4.462614258432962694e-15 -4.868051491427327626e-14
4.567000000000000000e+03 6.835145568847656250e+01 -1.362423133850097656e+01 8.179840539721677795e-14 6.298187882683436989e-13 2.134851675864371523e-13 -9.110579315702721503e-14
4.568000000000000000e+03 7.387831115722656250e+01 1.154588699340820312e+01 2.189038236972713075e-14 4.668910657396052599e-13 1.466344407008435269e-13 1.651783809726678921e-15
4.569000000000000000e+03 7.381730651855468750e+01 1.081100463867187500e+01 -2.266674058192842678e-14 5.850480148082704002e-13 1.687143805738366975e-13 -1.633666346732148833e-14
4.570000000000000000e+03 7.394017028808593750e+01 7.315336227416992188e+00 6.988716381864726324e-14 6.761837726028396833e-13 2.238212870250833042e-13 -3.628970699789089982e-14
4.571000000000000000e+03 7.420618438720703125e+01 8.343646049499511719e+00 7.429188422216834176e-14 5.350997965038184478e-13 1.828175062506751103e-13 -1.636739924365873677e-13
4.572000000000000000e+03 7.486731719970703125e+01 6.673410415649414062e+00 3.296701019811498767e-14 4.716381907417244168e-13 1.513815657029626838e-13 -1.081298204729137791e-13
4.573000000000000000e+03 7.419748687744140625e+01 6.667265892028808594e+00 1.031720349886806887e-13 9.134845657676748942e-13 3.049969944570601887e-13 4.880478481203084917e-14
4.574000000000000000e+03 7.045909881591796875e+01 -1.888825988769531250e+01 2.520176492691009358e-15 1.840838679406653355e-13 5.598121385940249550e-14 7.376751661770930557e-14
4.575000000000000000e+03 4.384527587890625000e+01 -2.133234262466430664e+00 3.287006558323583849e-14 -7.741472529210549625e-14 -1.336339825147407623e-14 3.932605922764981221e-14
4.576000000000000000e+03 4.357547760009765625e+01 -3.118022918701171875e+00 3.773724903529881991e-14 -2.125816341534692011e-13 -5.245331485782475656e-14 -1.526880056038851935e-14
4.577000000000000000e+03 4.317819595336914062e+01 -7.899839282035827637e-01 1.584428118220349013e-13 1.071537844077926488e-14 5.074745826469037602e-14 -4.712054449971039838e-14
4.578000000000000000e+03 4.291178512573242188e+01 -1.785677313804626465e+00 8.114171091760588594e-14 -1.939797199821194362e-13 -3.385140407460678069e-14 -7.595937361092389151e-14
4.579000000000000000e+03 1.188047885894775391e+01 6.524335384368896484e+00 -3.681641580141614689e-14 7.572343088940031164e-14 1.167210554283478613e-14 1.503224966920881089e-14
4.580000000000000000e+03 1.120062255859375000e+01 5.927784442901611328e+00 1.022226669088709128e-13 -1.391940761871074406e-13 -1.109142379991049504e-14 -2.217413671299142686e-14
4.581000000000000000e+03 7.376464843750000000e+01 9.623151779174804688e+00 2.408976101551333487e-14 5.364600907595273860e-13 1.681649611229296681e-13 5.957539827130056698e-14
4.582000000000000000e+03 7.528252410888671875e+01 1.141065406799316406e+01 9.265524681051698352e-14 2.227131917472216505e-13 9.461053088969523239e-14 -3.699523970317458027e-15
4.583000000000000000e+03 4.420360565185546875e+01 -4.509920597076416016e+00 1.287639293150524833e-13 5.518454210306014684e-14 5.518454210306014684e-14 1.849096471372071310e-14
4.584000000000000000e+03 4.479810333251953125e+01 -4.164845466613769531e+00 8.973523286199755478e-14 -1.216703604187130416e-13 -9.580538944641003862e-15 -1.530494345624786034e-14
4.585000000000000000e+03 2.817671012878417969e+01 -4.057335376739501953e+00 1.063327723126780006e-14 1.875609178603535043e-13 5.945825700282708626e-14 3.081566509670168041e-14
4.586000000000000000e+03 4.572656250000000000e+01 -6.405191421508789062e+00 9.890342261538800916e-14 1.338890749571358674e-13 6.983775130463623637e-14 -1.735679471242396188e-13
4.587000000000000000e+03 4.148612976074218750e+01 9.211164712905883789e-01 1.075903621294664603e-14 -8.689088267259045817e-14 -2.283955393789314364e-14 -5.740823398256433840e-14
4.588000000000000000e+03 4.388715362548828125e+01 -3.806407928466796875e+00 3.155581265040785510e-14 5.927487098161474122e-14 2.724920407316724219e-14 -9.384715091631176676e-14
4.589000000000000000e+03 4.283074188232421875e+01 -1.145616769790649414e-01 -4.654625954960377177e-14 1.173044544529669442e-13 2.122745711575623612e-14 -1.358446199224618706e-14
4.590000000000000000e+03 4.135126495361328125e+01 2.671151876449584961e+00 -1.124649418732248662e-13 1.119290613969467496e-13 -1.607648416856164754e-16 -1.610728694520502380e-13
4.591000000000000000e+03 4.110652160644531250e+01 1.622168660163879395e+00 -1.256844021219061247e-13 1.291390497142053118e-13 1.036395950579826943e-15 -1.641375024178520770e-13
4.592000000000000000e+03 6.731398582458496094e+00 2.958177757263183594e+01 -2.022344355238729630e-14 1.420828481724003417e-14 -1.804547578192531275e-15 1.267924838472406224e-13
4.593000000000000000e+03 6.963521575927734375e+01 -1.851343917846679688e+01 -6.388048473033496391e-15 1.116396336270017442e-13 3.157547736731131094e-14 -8.986631968091463030e-14
4.594000000000000000e+03 3.131881332397460938e+01 -1.357198047637939453e+01 1.154841467679995626e-13 -4.080162856884284039e-13 -8.775964032087593680e-14 -1.126788210805383661e-13
4.595000000000000000e+03 3.176861381530761719e+01 -1.034333515167236328e+01 2.999625939957149996e-15 -1.817182472205192134e-13 -5.361558297486100633e-14 6.626714828998972462e-14
4.596000000000000000e+03 4.123738479614257812e+01 -1.118057519197463989e-01 -5.062733713430845467e-15 -1.737357951730675309e-13 -5.363956078353188106e-14 -3.277947032732930754e-14
4.597000000000000000e+03 7.294617462158203125e+01 3.007501983642578125e+01 1.250789565237359069e-13 4.424883311322791446e-13 1.702701835862990842e-13 3.812314369354072308e-14
4.598000000000000000e+03 3.074069404602050781e+01 -1.270872592926025391e+01 -5.377072891761189299e-14 -6.178069123993767953e-13 -2.014732917174702487e-13 -8.828116867089577657e-14
4.599000000000000000e+03 3.064462852478027344e+01 -1.119802951812744141e+01 4.562441326431618260e-15 4.770628133526390313e-14 1.568061612088229861e-14 -1.386253985951116374e-13
4.600000000000000000e+03 4.246158218383789062e+01 -1.458493518829345703e+01 3.363629031677265770e-15 9.294345485301794274e-14 2.889212442425473371e-14 -5.396463508802913644e-14
4.601000000000000000e+03 4.610997772216796875e+01 -7.802453041076660156e+00 6.584423744491986127e-15 -1.344309456504169664e-13 -3.835395678353573090e-14 -6.068324960367341148e-14
4.602000000000000000e+03 4.642481994628906250e+01 -1.433692264556884766e+01 8.979995295543136136e-14 6.136116734081070723e-14 4.534833473361990497e-14 -2.782182714463135587e-14
4.603000000000000000e+03 4.681884384155273438e+01 -1.063784599304199219e+01 -8.162645093266057694e-14 5.651913399101760049e-14 -7.532193896646766779e-15 -2.859105842161445421e-14
4.604000000000000000e+03 4.654430770874023438e+01 -9.196319580078125000e+00 6.996205508371169945e-14 -6.151815981538660827e-14 2.533168495794232630e-15 -6.513904270578213529e-14
4.605000000000000000e+03 4.185277175903320312e+01 2.272603064775466919e-01 -2.424611990944468970e-14 8.111070273547280052e-14 1.705937569484138050e-14 6.245585154601848363e-15
4.606000000000000000e+03 7.448168182373046875e+01 1.058481097221374512e+00 6.520479956754338113e-14 8.057110209049034300e-13 2.612747529179976214e-13 -1.394419383562647829e-13
4.607000000000000000e+03 7.397286224365234375e+01 1.999448299407958984e+00 9.871740740390738678e-14 9.115755025823624180e-13 3.030878770616390883e-13 -2.875888614165163226e-14
4.608000000000000000e+03 7.393079376220703125e+01 2.119835662841796875e+01 7.890499505950471226e-14 4.684504195141825367e-13 1.642066338588751839e-13 -1.373983663389283238e-13
4.609000000000000000e+03 7.194676208496093750e+01 3.079431152343750000e+01 1.831609137362827378e-13 7.876372622693528225e-13 2.912394446701743744e-13 -3.530634917997370337e-14
4.610000000000000000e+03 6.085386753082275391e+00 2.851254272460937500e+01 -3.200464185663075278e-14 -1.509691216440220418e-13 -5.489212938900901728e-14 1.237023179202767498e-13
4.611000000000000000e+03 6.284249782562255859e+00 6.228214263916015625e+00 -3.829678883585964366e-14 -3.928838320215594093e-14 -2.327555059496513867e-14 -4.310717025847975170e-14
4.612000000000000000e+03 5.429993629455566406e+00 7.355551242828369141e+00 -5.912298780977667811e-14 -3.455950532259971508e-13 -1.214154102778530753e-13 1.151637785785572521e-13
4.613000000000000000e+03 2.997701454162597656e+01 -9.955920219421386719e+00 3.503516649971255559e-14 1.980188609656055587e-13 6.991621366060629672e-14 2.635463394284713601e-14
4.614000000000000000e+03 4.497617721557617188e+00 6.787928104400634766e+00 7.875978650729101305e-14 1.252560880536657262e-13 6.120476440116609518e-14 -3.606979013972937131e-14
4.615000000000000000e+03 7.388928222656250000e+01 2.948646926879882812e+01 1.312552497245711436e-13 2.850069897968043886e-13 1.248786772774235221e-13 5.989647119215499305e-14
4.616000000000000000e+03 6.835517883300781250e+00 6.419173717498779297e+00 -6.521770834965953667e-14 -2.452674565181500732e-13 -9.314555013796924077e-14 1.355315328282341580e-13
4.617000000000000000e+03 7.462062835693359375e+01 9.372758865356445312e+00 8.803916796973343395e-14 3.579877008979409636e-13 1.338080579497968881e-13 -1.231767644696915576e-13
4.618000000000000000e+03 7.524346160888671875e+01 1.052753162384033203e+01 1.962418976506150742e-14 3.286669981311662880e-13 1.044873619592857905e-13 -5.998954994866287360e-14
4.619000000000000000e+03 4.686332321166992188e+01 -1.227909946441650391e+01 8.443221030099076763e-14 3.618523395417655442e-14 3.618523395417655442e-14 -5.995235503788304277e-14
4.620000000000000000e+03 7.532025909423828125e+01 1.385081672668457031e+01 2.348930782953423391e-14 3.760744428545070850e-13 1.198691211394542488e-13 -2.452079236544852520e-14
4.621000000000000000e+03 7.390364837646484375e+01 1.231429100036621094e+01 -7.304612914971891913e-14 7.464606732211775952e-13 2.020243510241631624e-13 8.049946173787746878e-15
4.622000000000000000e+03 5.620822429656982422e+00 2.259328651428222656e+01 -1.633601802821568055e-14 -1.213785202989342560e-13 -4.131436065111203371e-14 2.604890163570043257e-15
4.623000000000000000e+03 3.224771881103515625e+01 -1.341295719146728516e+01 -1.239798872289601950e-13 -2.361380405449531317e-13 -1.080353729111631356e-13 7.386624000177768878e-14
4.624000000000000000e+03 7.476436614990234375e+01 2.719368171691894531e+01 3.904504080080514750e-14 2.226128623886852731e-13 7.849736892396805277e-14 3.805822708846315350e-14
4.625000000000000000e+03 5.556522369384765625e+00 2.179454040527343750e+01 -1.315913625624370170e-14 1.087377394072899794e-13 2.867358314759954618e-14 -7.201469035358377957e-15
4.626000000000000000e+03 7.448057556152343750e+01 2.968336105346679688e+01 4.822815188659443364e-14 -9.370816297406270312e-14 -1.364400332624048084e-14 2.123960322940668388e-13
4.627000000000000000e+03 7.547010803222656250e+01 8.809068679809570312e+00 7.599563339732995360e-14 2.613243009572802089e-13 1.011959816616357644e-13 -4.579225453688051672e-14
4.628000000000000000e+03 5.441227436065673828e+00 1.773289299011230469e+01 -1.488460843837059733e-14 2.223756254008182887e-13 6.224730610517384410e-14 6.552234480793072986e-16
4.629000000000000000e+03 5.462153434753417969e+00 1.534000587463378906e+01 1.824458824035285476e-14 9.932100985838437923e-14 3.526967942962117020e-14 1.108682644388597760e-13
4.630000000000000000e+03 7.393810272216796875e+01 2.037988090515136719e+01 -1.709674509440834572e-14 5.416842105074315405e-13 1.573762414873794424e-13 -7.468606625076618100e-14
4.631000000000000000e+03 7.462820434570312500e+01 2.361878395080566406e+01 1.388011884248530059e-13 3.568673947931116919e-13 1.487005776758948405e-13 -1.152233961455167988e-13
4.632000000000000000e+03 7.544821929931640625e+01 2.586764907836914062e+01 9.032696330268583096e-14 3.132172526985194105e-13 1.210632614122297834e-13 -7.654667237523213319e-14
4.633000000000000000e+03 7.470870208740234375e+01 2.520534896850585938e+01 6.247832248307619296e-14 3.012821112383101685e-13 1.091281335045476975e-13 -4.861336214221495533e-14
4.634000000000000000e+03 7.479252624511718750e+01 2.593754005432128906e+01 1.910135867836879053e-13 1.276139160706971087e-13 9.558825085631550422e-14 7.764864868708282186e-14
4.635000000000000000e+03 7.478347778320312500e+01 -1.188747978210449219e+01 1.183921667299858704e-14 1.423267970493413692e-13 4.624980479432834468e-14 -1.087336126627709565e-13
4.636000000000000000e+03 7.551812744140625000e+01 -1.579911327362060547e+01 4.982266769287813091e-14 3.644847011013974125e-13 1.242922052172718006e-13 -2.897634321613433428e-14
4.637000000000000000e+03 7.548620605468750000e+01 -1.502554988861083984e+01 -2.595293534387536211e-14 2.405075379303955874e-13 6.436637925129676252e-14 -2.271344733389274451e-13
4.638000000000000000e+03 7.541259765625000000e+01 -8.777809143066406250e+00 -4.263932346852510047e-14 2.562316949328985460e-13 6.407771042287249696e-14 -2.174313924437412671e-13
4.639000000000000000e+03 7.135088348388671875e+01 -9.320958137512207031e+00 -1.212689616694045958e-13 4.970389876589320632e-13 1.127310050863528090e-13 7.394882232600319405e-15
4.640000000000000000e+03 4.853472709655761719e+00 2.750476646423339844e+01 5.060219550236805253e-14 6.743760552156002896e-14 3.541194030717842445e-14 -4.227944966242284941e-14
4.641000000000000000e+03 7.391831970214843750e+01 1.387917804718017578e+01 -3.852373267935159384e-14 4.867502885128049961e-13 1.344679576020801903e-13 -1.304912260061477647e-13
4.642000000000000000e+03 7.393485260009765625e+01 1.628935623168945312e+01 -2.202692746895631298e-14 5.853222095376919842e-13 1.689885888557854376e-13 -3.332878135801908837e-14
4.643000000000000000e+03 7.394069671630859375e+01 1.710667991638183594e+01 3.831751403801306188e-14 7.255614837241297632e-13 2.291636932300056273e-13 -6.494881943461955354e-14
4.644000000000000000e+03 7.533380126953125000e+01 1.952869796752929688e+01 -5.286887938614308335e-14 9.171928218006455968e-14 1.165511999114349564e-14 -1.938827109927362957e-13
4.645000000000000000e+03 7.394461822509765625e+01 1.792606925964355469e+01 -3.424207261053940909e-14 6.487135589990089546e-13 1.843414608243207353e-13 -1.290827389638718459e-13
4.646000000000000000e+03 7.462149810791015625e+01 1.386469936370849609e+01 -8.194095087784430964e-14 3.308900462656305663e-13 7.468472455057773018e-14 -7.409164563343742516e-14
4.647000000000000000e+03 7.518458557128906250e+01 -1.343000411987304688e+00 7.077112062613827304e-14 3.963380730380439143e-13 1.401327648755182342e-13 -6.564417249794313181e-14
4.648000000000000000e+03 7.300457763671875000e+01 -3.728661298751831055e+00 9.763479765336272043e-14 8.539228352200112226e-13 2.854672878291331095e-13 1.043026630370052013e-15
4.649000000000000000e+03 7.425120544433593750e+01 9.959135055541992188e+00 -1.005596363015497097e-13 2.771596428925715561e-13 5.298000333255926952e-14 9.997008104146998253e-14
4.650000000000000000e+03 7.477045440673828125e+01 4.312354564666748047e+00 1.667962371953296552e-13 5.289935698683800869e-13 2.087369448296183538e-13 -4.546815262620670928e-15
4.651000000000000000e+03 7.551890563964843750e+01 5.852032661437988281e+00 6.673778690053852602e-14 5.089868955997223221e-13 1.727173905199247406e-13 -1.638129871551000094e-13
4.652000000000000000e+03 7.397692108154296875e+01 9.020899772644042969e+00 -2.845511895094255880e-15 3.647880879743131688e-13 1.085827730355239107e-13 2.095668609350745393e-13
4.653000000000000000e+03 7.496952819824218750e+01 7.372083663940429688e+00 1.838368189231373573e-13 3.532928886506442323e-13 1.611389109168817613e-13 8.088965424129374027e-14
4.654000000000000000e+03 7.485366821289062500e+01 5.886020660400390625e+00 1.092541245732540911e-13 6.873364724602204490e-13 2.389771865639322979e-13 8.074954821555430096e-15
4.655000000000000000e+03 7.558717346191406250e+01 7.340260505676269531e+00 3.614477627248390001e-14 2.899962984592024950e-13 9.784232750170360204e-14 -1.333386255141649768e-13
4.656000000000000000e+03 7.388840484619140625e+01 -1.925127208232879639e-01 1.315770951394734656e-13 5.138996866937972641e-13 1.936430345499812189e-13 -1.232550438665450110e-13
4.657000000000000000e+03 7.463682556152343750e+01 1.954650115966796875e+01 3.416745917228167229e-14 3.806507789094054628e-13 1.244454707468797827e-13 -1.121173534329895916e-13
4.658000000000000000e+03 7.470037078857421875e+01 -5.476579189300537109e+00 4.299417945144781705e-14 2.471808294070981793e-13 8.705250333519015671e-14 -5.356851165991619035e-14
4.659000000000000000e+03 7.496677398681640625e+01 -3.579440414905548096e-01 1.743874006787313191e-13 1.662393503019596319e-13 1.021880266494600009e-13 -1.513991704357384172e-13
4.660000000000000000e+03 7.332476806640625000e+01 -2.138860225677490234e+00 1.457440261141626503e-13 6.486457421531199863e-13 2.383169345459429378e-13 6.880709093177962352e-15
4.661000000000000000e+03 7.473628997802734375e+01 -1.269506168365478516e+01 -1.274914435768536095e-14 2.690417604412492780e-13 7.688778948375038502e-14 -1.808405584568378854e-13
4.662000000000000000e+03 7.472532653808593750e+01 -1.030550575256347656e+01 -6.729559536575516199e-14 2.685402085162574837e-13 6.037337784651347627e-14 -3.748193636433742870e-14
4.663000000000000000e+03 7.456688690185546875e+01 -6.248927593231201172e+00 -2.465068995010765568e-14 1.266882649134104533e-13 3.061127265839742873e-14 -4.235109170910161813e-14
4.664000000000000000e+03 7.363052368164062500e+01 -1.741480255126953125e+01 -1.421997150021989120e-13 2.593139190789489623e-13 3.513425919014594168e-14 -1.132146134653899683e-13
4.665000000000000000e+03 7.536600494384765625e+01 -8.024027824401855469e+00 -7.977926858634271090e-14 8.018625775310303516e-14 1.220976949992290590e-16 -2.135412072862274968e-13
4.666000000000000000e+03 7.222771453857421875e+01 -7.758494377136230469e+00 2.045594732014502370e-14 5.349027427589692074e-13 1.666076131223714896e-13 -6.968317795615769361e-14
4.667000000000000000e+03 7.414960479736328125e+01 -6.948779582977294922e+00 -4.059120119019599127e-14 -1.739622883950315418e-14 -1.739622883950315418e-14 2.741747394440288699e-14
4.668000000000000000e+03 7.465892791748046875e+01 -8.159556388854980469e+00 3.620442094449775883e-14 1.756445059926739494e-13 6.355467774233833356e-14 -3.966578042587098896e-14
4.669000000000000000e+03 7.361798095703125000e+01 -9.861399650573730469e+00 8.289784061022570372e-14 5.573744048768813908e-13 1.920816750013848440e-13 -1.027968536031556579e-13
4.670000000000000000e+03 7.373106384277343750e+01 -1.807508277893066406e+01 -6.244850692333284159e-14 5.222477181612839026e-13 1.379397762462861166e-13 -2.483453675724330706e-14
4.671000000000000000e+03 5.327085018157958984e+00 7.991957664489746094e+00 -3.216310478040308729e-14 -2.425389262258187406e-13 -8.241061370643787409e-14 6.423170778894690680e-14
4.672000000000000000e+03 4.753868103027343750e+00 1.947694969177246094e+01 8.220425106949830890e-15 2.322777929199271174e-13 7.214946007175551679e-14 -8.491180035572615248e-14
4.673000000000000000e+03 5.169554233551025391e+00 9.402535438537597656e+00 2.787212904323699975e-14 -3.380574899874977390e-14 -1.780086113708774335e-15 -4.495563670674565526e-14
4.674000000000000000e+03 4.445754528045654297e+00 1.085595512390136719e+01 -5.168836448535708145e-15 -2.767209204834752967e-13 -8.456692242092209155e-14 4.204419473165244003e-14
4.675000000000000000e+03 7.546501159667968750e+01 -1.425148677825927734e+01 5.469601415666533462e-14 2.979468343052016355e-13 1.057928565714391644e-13 -7.174949111406203617e-14
4.676000000000000000e+03 7.533742523193359375e+01 -1.969957351684570312e+01 -1.012237033559335031e-13 2.997505401444028328e-13 5.955804426027722087e-14 -7.295000107460092309e-14
4.677000000000000000e+03 4.791211605072021484e+00 2.109570884704589844e+01 -8.060743641579576346e-14 -1.717988950969764894e-13 -7.572189945383167586e-14 -8.794913175557209084e-14
4.678000000000000000e+03 7.457910919189453125e+01 -2.028250885009765625e+01 -1.008441648329277962e-13 4.371660368776564276e-13 1.008965589029131582e-13 -8.602094595444240155e-14
4.679000000000000000e+03 7.488394165039062500e+01 -1.883039093017578125e+01 -1.034930536994264905e-13 4.131553226708467585e-13 9.289868407955786944e-14 -7.110256800653066978e-14
4.680000000000000000e+03 7.475909423828125000e+01 -1.956587600708007812e+01 -7.985205243343437842e-14 3.317852719994518473e-13 7.557997061318974530e-14 -1.187871280288951836e-13
4.681000000000000000e+03 5.534338474273681641e+00 2.017261886596679688e+01 -7.183795523507327530e-14 3.783872697051167411e-14 -1.019976830996189091e-14 -2.708827458945250316e-14
4.682000000000000000e+03 7.474774932861328125e+01 -1.349368190765380859e+01 4.779597873624634452e-14 2.034877800115297841e-13 7.538513270653052212e-14 -2.102308500624271853e-14
4.683000000000000000e+03 7.474773406982421875e+01 -1.426699066162109375e+01 -7.754625934441872204e-14 1.497696823331284843e-13 2.166702655779974979e-14 -2.008710987258174874e-13
4.684000000000000000e+03 5.479953289031982422e+00 1.853156661987304688e+01 -7.758418609166498059e-14 1.955043792871771768e-13 3.537605999153273229e-14 -1.571974734897955278e-14
4.685000000000000000e+03 5.421905517578125000e+00 1.694099235534667969e+01 1.235539431589062140e-15 9.203141720925955838e-14 2.798008678049634934e-14 7.320641488839374489e-14
4.686000000000000000e+03 6.256561279296875000e+00 1.525196456909179688e+01 -3.097597455229902930e-14 -8.190183828447189507e-14 -3.386334385103127731e-14 4.963182100546636999e-14
4.687000000000000000e+03 5.612195968627929688e+00 2.685984039306640625e+01 1.322472405022867559e-13 1.092644126354314418e-14 4.295210563089180145e-14 -5.421048809503559163e-14
4.688000000000000000e+03 4.645417690277099609e+00 1.385832595825195312e+01 -4.863462944545461630e-14 1.392849052241074137e-13 2.719508375003537592e-14 6.667506580486023959e-14
4.689000000000000000e+03 5.450222969055175781e+00 1.451794433593750000e+01 1.597815169019842219e-14 5.259872669794579680e-14 2.057306317763008680e-14 -3.571809528376580778e-14
4.690000000000000000e+03 4.837416648864746094e+00 7.221591949462890625e+00 4.655484507555714135e-14 -1.173007681655804935e-13 -2.122377760463336344e-14 -1.736718238567590972e-14
4.691000000000000000e+03 5.554331779479980469e+00 6.746921062469482422e+00 -1.138426426559998803e-14 -1.421318168411470073e-13 -4.605482458613398278e-14 -3.271762675778437657e-14
4.692000000000000000e+03 5.394575595855712891e+00 1.369952201843261719e+01 3.329401573773198286e-14 1.057707591759111942e-13 4.171943213527977423e-14 2.150124018716545460e-14
4.693000000000000000e+03 5.541563510894775391e+00 2.099220085144042969e+01 -9.529183675862154534e-14 2.778706491247603938e-14 -2.025143121503047289e-14 -7.197744631489300798e-15
4.694000000000000000e+03 5.205683231353759766e+00 1.217746162414550781e+01 7.569085061411712223e-14 2.383182084834956083e-13 9.420271501877838793e-14 -5.581960674932995303e-14
4.695000000000000000e+03 5.078333854675292969e+00 1.080191326141357422e+01 4.184644641978645108e-14 6.368514114500622991e-14 3.165947593062462539e-14 2.666697395401537024e-14
4.696000000000000000e+03 5.114728450775146484e+00 1.148308372497558594e+01 -1.158521114328139867e-13 -1.869037558185557280e-13 -9.082676017541091440e-14 2.727987513618732041e-14
4.697000000000000000e+03 6.187875270843505859e+00 2.772661209106445312e+01 4.758691745233682713e-14 6.614534495217455623e-14 3.411967973779295171e-14 6.163741527809643572e-14
4.698000000000000000e+03 5.805319309234619141e+00 2.341419219970703125e+01 -5.167183887255615005e-15 -1.852183093313183870e-13 -5.711564847379196896e-14 -2.230546578333141711e-14
4.699000000000000000e+03 5.912849903106689453e+00 2.429626655578613281e+01 -4.525565577666312844e-14 -2.023990784000284648e-13 -7.429641754250204677e-14 -6.961525353708442401e-15
4.700000000000000000e+03 7.415043640136718750e+01 4.415863037109375000e+00 5.891660992624406235e-14 8.030161279849734601e-13 2.585798057879590273e-13 -7.409596888960021110e-14
4.701000000000000000e+03 7.443440246582031250e+01 3.455797195434570312e+01 1.060155449214041090e-13 1.369371331822258342e-13 7.288580275346262516e-14 2.077320113884686958e-13
4.702000000000000000e+03 7.203101348876953125e+01 3.327214431762695312e+01 -7.326577495733732626e-14 3.574834384675179555e-13 8.526530447406505120e-14 6.713894848062174070e-14
4.703000000000000000e+03 5.906081676483154297e+00 2.521687889099121094e+01 1.396389378910053991e-13 -7.740758311029424799e-14 1.866940745065288204e-14 -3.388428038790503548e-15
4.704000000000000000e+03 3.546496582031250000e+01 -1.339418411254882812e+01 -8.224086830380811231e-14 -1.939446866994209984e-13 -8.285566514571601759e-14 1.473304849430520647e-13
4.705000000000000000e+03 7.416848754882812500e+01 5.146706104278564453e+00 1.388551274829341597e-13 7.457735600943649068e-13 2.653886225362223072e-13 7.778532253531998675e-15
4.706000000000000000e+03 7.392839813232421875e+01 1.547807979583740234e+01 1.476593404026258632e-14 7.612188874031589059e-13 2.327954452471803215e-13 -1.407459896242760355e-13
4.707000000000000000e+03 3.041818809509277344e+01 -1.218857574462890625e+01 -1.070492910352875693e-13 1.371255268622223467e-13 9.022872780959506622e-15 -2.023658950372868304e-14
4.708000000000000000e+03 4.547690200805664062e+01 -9.950829505920410156e+00 1.205992093298788315e-13 -2.228203244743903744e-13 -3.066633318810074726e-14 -1.753552408530548168e-13
4.709000000000000000e+03 4.465767669677734375e+01 -1.044177341461181641e+01 1.233137263091307889e-13 -3.865315592556026192e-14 2.539817111507115810e-14 -3.484310347298853749e-14
4.710000000000000000e+03 1.002207756042480469e+01 6.179328441619873047e+00 6.836152873163428567e-14 -1.308305270760271033e-13 -1.874069713162559297e-14 -4.716646723797873753e-14
4.711000000000000000e+03 8.944098472595214844e+00 6.537793159484863281e+00 -1.210118160191453462e-13 -1.433641074778668756e-13 -7.931277704910366655e-14 5.914340469193729577e-14
4.712000000000000000e+03 4.316956329345703125e+01 -1.452880001068115234e+01 -4.222440946151026497e-14 -1.553490273703203584e-13 -5.927203172717554480e-14 1.539368370999990437e-14
4.713000000000000000e+03 7.391307830810546875e+01 1.309271621704101562e+01 -1.052473334720895048e-13 5.039054026476086356e-13 1.195974200750293814e-13 -2.697871426585694843e-14
4.714000000000000000e+03 3.157172966003417969e+01 -1.283718776702880859e+01 -7.839742581245562336e-14 -2.394781692827835373e-13 -9.536267581806631699e-14 -9.162168365575013018e-14
4.715000000000000000e+03 4.774353408813476562e+01 -1.288995075225830078e+01 1.105316196643030269e-13 9.312164348006593539e-14 6.109597826568433088e-14 -7.620208581976192774e-14
4.716000000000000000e+03 7.462850189208984375e+01 2.117404937744140625e+01 -1.648257336281551411e-14 4.504455348216390709e-13 1.301888826778230257e-13 -7.986817994075010030e-14
4.717000000000000000e+03 7.431243896484375000e+01 2.729045629501342773e+00 1.620497762670411457e-13 5.040839165353083740e-13 1.998401037749467091e-13 -3.907154192062589279e-15
4.718000000000000000e+03 7.412236022949218750e+01 3.138314485549926758e-01 -7.661628493096928061e-14 6.534287000370397891e-13 1.730437218213157213e-13 -1.386494814358679717e-13
4.719000000000000000e+03 7.358255004882812500e+01 8.448089361190795898e-01 7.631036373547533946e-14 8.562215064560063649e-13 2.797595597021917957e-13 -6.428894011112698537e-14
4.720000000000000000e+03 3.989825057983398438e+01 3.829661607742309570e+00 4.412433485538776179e-14 1.104123235440117312e-13 4.636099989151210021e-14 -3.599427884654754495e-14
4.721000000000000000e+03 7.391204833984375000e+01 2.284637641906738281e+01 8.137846001449525191e-14 4.695104981883302386e-13 1.652666854279685738e-13 -1.001892389581107712e-13
4.722000000000000000e+03 1.777213668823242188e+01 5.889864921569824219e+00 -6.363349246401445169e-14 -1.530866091444677002e-13 -6.501603319305007678e-14 1.142430469886282496e-13
4.723000000000000000e+03 7.309933471679687500e+01 -1.134500789642333984e+01 4.145826477258696130e-14 3.208678711185547483e-13 1.086978407673425129e-13 -1.297670467175632281e-13
4.724000000000000000e+03 7.473742675781250000e+01 -4.735822200775146484e+00 -3.080744548898152468e-14 -1.320319043983039786e-14 -1.320319043983039786e-14 -1.598401044768799073e-13
4.725000000000000000e+03 2.963900947570800781e+01 -9.294031143188476562e+00 -6.105134301749581827e-14 -2.091686605821749256e-13 -8.106599972464850756e-14 7.190426097418434193e-14
4.726000000000000000e+03 1.908638572692871094e+01 1.986352324485778809e+00 5.886878305791029553e-14 -3.179026323869155179e-13 -7.771015683158064014e-14 7.383878935802307142e-14
4.727000000000000000e+03 1.824725914001464844e+01 3.452816009521484375e+00 1.215494820408762749e-14 4.524134430798631978e-14 1.721888724540241583e-14 1.535150451854525033e-13
4.728000000000000000e+03 3.882397460937500000e+01 -1.514672946929931641e+01 -7.646376479035488227e-14 1.044826592323626346e-13 8.405670365481399120e-15 -5.360289103317934789e-14
4.729000000000000000e+03 3.678081512451171875e+01 -1.432646560668945312e+01 -5.537799765194945101e-14 -1.609862688035229583e-13 -6.490927993664172280e-14 9.461191324746515141e-14
4.730000000000000000e+03 4.549972915649414062e+01 -1.452755165100097656e+01 3.676766312607103113e-15 1.575756991117329905e-15 1.575756991117329905e-15 7.179365202380008637e-14
4.731000000000000000e+03 4.580703353881835938e+01 -1.128294563293457031e+01 1.996247676709639318e-13 8.555347185898454221e-14 8.555347185898454221e-14 -5.992482307896548899e-14
4.732000000000000000e+03 6.753585052490234375e+01 -1.740607261657714844e+01 1.669933587028146760e-14 3.731644442235559911e-13 1.169591360610303110e-13 -9.424117709084731120e-14
4.733000000000000000e+03 6.689481353759765625e+01 -1.696739959716796875e+01 -1.214818583184992806e-13 1.656276874819565675e-14 -3.147572737931085551e-14 -2.527428915840342766e-14
4.734000000000000000e+03 2.559111595153808594e+01 -4.165675640106201172e+00 -4.556017089746462745e-14 -2.940314821047590454e-13 -1.018774975947329964e-13 3.337198342646084670e-14
4.735000000000000000e+03 3.733522033691406250e+01 1.924071693420410156e+01 -2.429606774827838128e-14 5.821382330177538034e-14 1.017532717426886807e-14 5.232098374750816447e-15
4.736000000000000000e+03 3.818088912963867188e+01 1.814699554443359375e+01 -2.505047933681631839e-14 1.493924070821578409e-13 3.730257544369043610e-14 1.222374930226130529e-14
4.737000000000000000e+03 3.908848571777343750e+01 1.806981277465820312e+01 -3.723790617223346477e-14 9.841826924825505807e-14 1.835410960043283579e-14 8.365018882650412935e-14
4.738000000000000000e+03 3.526400756835937500e+01 -1.240161037445068359e+01 8.108825128017287803e-15 7.210163320342174997e-14 2.406313707591523771e-14 1.789583563803487376e-13
4.739000000000000000e+03 7.367225646972656250e+01 -1.932918739318847656e+01 -1.021382414409521822e-13 3.679849936051582393e-13 7.975402700451453275e-14 1.442221992872805281e-14
4.740000000000000000e+03 4.196943283081054688e+01 -1.531426143646240234e+01 -9.676225207373712056e-14 5.003236255743219452e-14 -1.401896617726512001e-14 1.218512053410836238e-13
4.741000000000000000e+03 4.320387649536132812e+01 -1.528476428985595703e+01 -7.564003541354544224e-14 -3.241715706633896410e-14 -3.241715706633896410e-14 -1.227188194948903091e-14
4.742000000000000000e+03 2.382822799682617188e+01 -5.936557054519653320e-01 -3.963242596247400912e-15 2.270562074946011477e-13 6.692788819895670316e-14 7.020667142261516336e-14
4.743000000000000000e+03 7.181755828857421875e+01 -6.681882858276367188e+00 5.069656852521933765e-14 8.223687030829707201e-13 2.619195821600833751e-13 -6.251497529276978105e-14
4.744000000000000000e+03 3.866944122314453125e+01 2.008821868896484375e+01 4.467947177868875769e-15 4.766578299598978052e-14 1.564011947567407051e-14 4.993640388890364934e-14
4.745000000000000000e+03 2.714542961120605469e+01 -5.108578205108642578e+00 1.004327389075897539e-14 1.873080548086755726e-13 5.920540072741273252e-14 2.781024947479181046e-15
4.746000000000000000e+03 2.662877655029296875e+01 -4.411955356597900391e+00 -2.411420808043698849e-14 -1.933384550546757286e-13 -6.523580097341288853e-14 -4.466842477499066710e-14
4.747000000000000000e+03 2.303707504272460938e+01 4.997988231480121613e-03 2.643378408957036685e-14 5.707971394803765253e-14 2.505404873365604801e-14 8.061058737835954946e-14
4.748000000000000000e+03 7.404449462890625000e+01 -4.764946460723876953e+00 -3.449089700912483236e-14 3.512257758936376817e-13 9.502046773111200162e-14 -4.486547174357632950e-14
4.749000000000000000e+03 4.020836639404296875e+01 8.854161262512207031e+00 2.369255169116200876e-14 2.846596385257943451e-13 9.250566079203187408e-14 1.142977991983387676e-13
4.750000000000000000e+03 7.263048553466796875e+01 -1.102562999725341797e+01 4.900139471161572835e-14 4.785100809513720410e-13 1.582534423600831519e-13 -1.435411305875794463e-13
4.751000000000000000e+03 7.425367736816406250e+01 -3.034455060958862305e+00 1.158432751851082299e-13 5.986584925704585558e-13 2.143505371029336137e-13 -1.061923308618914485e-13
4.752000000000000000e+03 7.336509704589843750e+01 -3.129283666610717773e+00 6.393706907231039294e-14 3.991280504885008629e-13 1.389195426445069548e-13 1.042000822648950220e-13
4.753000000000000000e+03 7.271514129638671875e+01 -6.121239185333251953e+00 9.321841530022384470e-14 5.432112008471601250e-13 1.909288834889624753e-13 -9.952474499912156158e-14
4.754000000000000000e+03 6.620178222656250000e+01 -1.847657012939453125e+01 -1.411530126723542500e-13 1.682606013070700457e-13 8.132277776260864871e-15 7.315486785135563719e-14
4.755000000000000000e+03 4.044742202758789062e+01 6.050541400909423828e+00 5.197410766198153065e-14 2.052784076620253750e-13 7.717575358076253500e-14 -4.714177114536859114e-15
4.756000000000000000e+03 7.091735076904296875e+01 -1.007114982604980469e+01 1.075091011766386717e-13 5.950866969334223100e-13 2.107787414658973679e-13 1.943971615354488786e-14
4.757000000000000000e+03 6.838026428222656250e+01 -1.310741901397705078e+01 -6.239251465738754332e-14 2.706415278518059520e-13 6.247469718206194456e-14 -3.136462376168540345e-14
4.758000000000000000e+03 6.970195007324218750e+01 -1.221380710601806641e+01 -1.048754656794541329e-13 6.870685661033992808e-13 1.746579226732936085e-13 9.081978740018911700e-14
4.759000000000000000e+03 1.642648124694824219e+01 4.907717227935791016e+00 -3.120792266644335788e-14 -4.768803624558004550e-14 -2.366878733479384211e-14 -2.778355141981082854e-14
4.760000000000000000e+03 1.977227783203125000e+01 1.515544652938842773e+00 -1.086846812634739701e-13 -2.067074674405242063e-13 -9.461764596645216852e-14 1.639275060095687908e-13
4.761000000000000000e+03 1.762143898010253906e+01 3.929012537002563477e+00 7.590848387145285314e-15 -1.139835838562253123e-13 -3.191782097953718700e-14 8.798268781281051720e-14
4.762000000000000000e+03 3.977588653564453125e+01 5.756183147430419922e+00 2.168414848179554821e-14 6.648189485904121288e-14 2.644981164699831272e-14 -7.484739553403202406e-14
4.763000000000000000e+03 2.559726524353027344e+01 -2.979986906051635742e+00 -7.883629729935059949e-14 -7.739335973304395377e-14 -4.686889439921293476e-14 2.826802207838829267e-14
4.764000000000000000e+03 2.507570075988769531e+01 -2.201219797134399414e+00 1.084411813139949873e-15 -8.388856422665222357e-14 -2.484124525818556112e-14 4.342665753365691772e-14
4.765000000000000000e+03 4.545137786865234375e+01 -1.043805789947509766e+01 1.788506951046209270e-13 7.665029499786743528e-14 7.665029499786743528e-14 -9.710930518914973053e-14
4.766000000000000000e+03 4.604733276367187500e+01 -9.937640190124511719e+00 -1.346204286147836479e-14 -5.769447182642998412e-15 -5.769447182642998412e-15 3.037143019718469006e-14
4.767000000000000000e+03 3.941391754150390625e+01 6.605350971221923828e+00 3.272720839448371721e-14 1.402594657578344270e-14 1.402594657578344270e-14 -1.295046206639107952e-14
4.768000000000000000e+03 3.949095916748046875e+01 4.623722076416015625e+00 -5.417283239833245445e-14 2.253402068348904497e-14 -9.491642836826665042e-15 -5.642392748774621714e-14
4.769000000000000000e+03 7.427945709228515625e+01 -2.093954086303710938e+00 2.163410374239269074e-13 4.280756250776146521e-13 1.933249973952097522e-13 3.558100130718680476e-14
4.770000000000000000e+03 7.387193298339843750e+01 -1.686314463615417480e+00 3.954809028004768745e-14 4.401454515527009059e-13 1.439080652603300092e-13 -7.943288632102432634e-15
4.771000000000000000e+03 3.759529495239257812e+01 2.506659317016601562e+01 1.168956966814127529e-14 2.108890861420020801e-13 6.677359945354843784e-14 1.311653304009565216e-14
4.772000000000000000e+03 2.100345420837402344e+01 3.210496425628662109e+00 -4.384808014183845526e-14 -8.741845544972190463e-14 -3.937996101628128687e-14 7.198606402809837324e-14
4.773000000000000000e+03 2.158240509033203125e+01 1.096176385879516602e+00 9.838667788393778806e-16 4.617260621151558775e-14 1.414694184416693049e-14 9.458873842602827375e-14
4.774000000000000000e+03 7.009574890136718750e+01 -1.152679157257080078e+01 1.537893347825641799e-13 5.691701450427633091e-13 2.168878412370928155e-13 6.984355856252261185e-14
4.775000000000000000e+03 7.392562866210937500e+01 2.452149963378906250e+01 1.456303204113232330e-13 4.741715375379540465e-13 1.859405506085196058e-13 -1.487925451251759235e-13
4.776000000000000000e+03 3.799884033203125000e+01 1.225502967834472656e+01 2.693726386155011199e-14 1.716728565944250495e-13 5.958303512035301175e-14 -5.062141637400714711e-14
4.777000000000000000e+03 7.160149383544921875e+01 3.461548614501953125e+01 -2.652850863109476251e-15 5.478744628112375281e-13 1.635664802386582739e-13 2.934589352662601847e-14
4.778000000000000000e+03 4.015823745727539062e+01 4.940151691436767578e+00 1.198730107147480406e-13 1.428760403173953697e-13 7.882471666489573869e-14 9.287129272810955988e-15
4.779000000000000000e+03 1.536213207244873047e+01 6.025249958038330078e+00 -1.714973107101724903e-13 -8.493658115163102429e-14 -7.693016823616741218e-14 -5.230772005858710938e-14
4.780000000000000000e+03 1.515958690643310547e+01 4.853020668029785156e+00 -1.628551622983448466e-13 -1.598672501887735131e-13 -9.681672645664093912e-14 -2.261918307007188683e-14
4.781000000000000000e+03 3.977651977539062500e+01 -1.503823280334472656e+01 -8.886550620802041722e-14 5.341667931005496250e-14 -1.063464942464235202e-14 1.082058298214685910e-13
4.782000000000000000e+03 7.399585723876953125e+01 2.534864234924316406e+01 1.728197256524802161e-13 3.485712966096871090e-13 1.564173053233974819e-13 8.402515337159466302e-14
4.783000000000000000e+03 4.000763702392578125e+01 2.392980384826660156e+01 -3.019377477737699399e-15 1.359588304569378514e-13 3.988183481379303785e-14 3.081303632994987669e-16
4.784000000000000000e+03 4.484473800659179688e+01 -1.414021396636962891e+01 9.447964735868549790e-14 1.319931712756919340e-13 6.794184762319230297e-14 4.486295182055824796e-15
4.785000000000000000e+03 7.325225067138671875e+01 2.915248107910156250e+01 1.337014537711872508e-13 5.148100912580333421e-13 1.945534662192716091e-13 1.130490151360699635e-13
4.786000000000000000e+03 4.457559967041015625e+01 -5.224721431732177734e+00 3.468529784678327232e-14 -7.663676957576567861e-14 -1.258544084106836408e-14 -7.131101942671816407e-14
4.787000000000000000e+03 4.507379150390625000e+01 -5.717477321624755859e+00 1.506194664433954666e-14 -6.217130353288261024e-14 -1.413280740537609798e-14 -2.350194725517316258e-14
4.788000000000000000e+03 8.057889938354492188e+00 7.905478954315185547e+00 -1.586503721635618841e-14 -9.830120251868093573e-14 -3.424987208991772669e-14 6.205832966650962068e-14
4.789000000000000000e+03 3.812983703613281250e+01 1.126819896697998047e+01 1.113388623918271092e-13 9.346760561704248182e-14 6.144194040266087731e-14 -5.032127533134526931e-14
4.790000000000000000e+03 4.823791885375976562e+01 -1.280964660644531250e+01 4.259438328847557631e-14 2.012585248196280263e-13 7.315587751462876431e-14 -1.220905700757141110e-13
4.791000000000000000e+03 4.671599578857421875e+01 -1.372647094726562500e+01 -5.428939090813822421e-14 2.248406776245766986e-14 -9.541596604890987404e-15 -4.162597729614331277e-14
4.792000000000000000e+03 1.491122245788574219e+01 6.722290039062500000e+00 -8.940554731013544698e-14 -1.069430866562290361e-13 -5.890458883465662931e-14 -9.161120755225848900e-14
4.793000000000000000e+03 6.890480041503906250e+01 -1.471451663970947266e+01 2.299328702968801014e-14 5.560521593411631158e-14 2.357955071973470706e-14 -2.354898502761326728e-13
4.794000000000000000e+03 4.518768310546875000e+01 -7.195363521575927734e+00 3.977939126102031375e-14 -5.157811298287656721e-14 -3.539616220095344497e-15 -2.054490339789202813e-13
4.795000000000000000e+03 3.873789215087890625e+01 1.432161903381347656e+01 7.887378358946428580e-14 2.854332709859713768e-13 1.092921190831361300e-13 4.548035328877896022e-14
4.796000000000000000e+03 6.953763580322265625e+01 -1.786105537414550781e+01 -1.006633605681386823e-14 2.701915568451701555e-13 7.803756555888052837e-14 -1.960740191086010609e-13
4.797000000000000000e+03 7.362916564941406250e+01 3.605532073974609375e+01 -1.744816191180697303e-15 6.787864541279997610e-14 1.984014928529346383e-14 1.302037498001132332e-13
4.798000000000000000e+03 2.893110847473144531e+01 -7.914577484130859375e+00 -1.263519453995054498e-13 -9.990178308086697379e-14 -6.787611786648536927e-14 9.576377641177732936e-14
4.799000000000000000e+03 2.811424064636230469e+01 -6.495721817016601562e+00 -8.401409450943531088e-14 5.549585720436220337e-14 -8.555472377368058406e-15 3.563225018862747895e-14
4.800000000000000000e+03 4.060456848144531250e+01 -1.593969631195068359e+01 -9.280597801754678078e-14 2.347316948019678717e-13 4.257771706820540070e-14 1.251385605381682975e-13
4.801000000000000000e+03 4.109790039062500000e+01 -1.655808067321777344e+01 -1.162962955103541418e-13 3.161663097127342947e-13 5.996100832647219270e-14 7.261905513771330090e-14
4.802000000000000000e+03 3.430258178710937500e+01 -1.370373344421386719e+01 -1.803058163928408786e-13 -1.087276969846673325e-13 -8.671005807901061013e-14 2.344397632026307826e-14
4.803000000000000000e+03 3.787066268920898438e+01 1.522354316711425781e+01 6.764054106319500326e-14 2.806190338693753672e-13 1.044778684140129643e-13 -6.126640807093547414e-14
4.804000000000000000e+03 4.196221160888671875e+01 3.185681533813476562e+01 -2.080531622363542693e-14 1.569306208419607440e-13 4.083759291015690018e-14 5.906492200717650132e-14
4.805000000000000000e+03 4.277536392211914062e+01 2.846705818176269531e+01 -7.955387650721013060e-14 1.417606944375052191e-13 1.866204334620945315e-14 4.963358283399665893e-14
4.806000000000000000e+03 1.953738403320312500e+01 2.505803346633911133e+00 3.654219057880846167e-14 -8.727869501342494507e-14 -1.522095166919812392e-14 1.850127310468879793e-13
4.807000000000000000e+03 3.926905059814453125e+01 -1.448093509674072266e+01 -1.934993913146540456e-13 1.343886888707443439e-13 -1.773321073317291052e-14 2.861286782594035794e-14
4.808000000000000000e+03 7.364845275878906250e+01 2.776600718498229980e-01 2.235292978275058018e-13 6.905606186706492178e-13 2.742269573311612030e-13 8.919198658721011475e-14
4.809000000000000000e+03 7.424234771728515625e+01 -7.352645993232727051e-01 7.298668776561240135e-14 3.972875901956524070e-13 1.410822820331267269e-13 8.609453617689985516e-14
4.810000000000000000e+03 3.804344177246093750e+01 1.717112350463867188e+01 -2.319904996730091928e-14 4.018160858296898619e-13 1.135851124527825773e-13 -2.837160743157391557e-14
4.811000000000000000e+03 3.793151855468750000e+01 1.620284080505371094e+01 2.233937590034179577e-14 3.244949339613334427e-14 1.643666078894254201e-14 -3.591826610986094404e-14
4.812000000000000000e+03 7.363816070556640625e+01 3.030926704406738281e+01 1.140841165026690307e-13 4.149007797483311721e-13 1.586954715858054921e-13 2.099782885544784761e-13
4.813000000000000000e+03 1.325236892700195312e+01 6.681969165802001953e+00 3.338667394238155166e-15 5.004123946271941958e-14 1.601397271353780655e-14 3.218696400446134642e-14
4.814000000000000000e+03 7.394032287597656250e+01 3.527919387817382812e+01 2.847028846399493607e-14 3.381770503820685780e-13 1.099942077524562745e-13 1.554433800643809094e-13
4.815000000000000000e+03 7.327952575683593750e+01 3.486632537841796875e+01 -2.570748891268358899e-14 8.048439979800939281e-14 1.643307445144386730e-14 1.517891037470728288e-13
4.816000000000000000e+03 3.830588150024414062e+01 1.029168128967285156e+01 3.759999581652573308e-14 2.906199857589247815e-13 9.846599447263515437e-14 -1.146759011534659312e-13
4.817000000000000000e+03 3.926150131225585938e+01 9.553148269653320312e+00 4.552139372913932558e-14 3.855167595746833431e-13 1.293114514121576630e-13 -1.589130574092961767e-13
4.818000000000000000e+03 7.363595485687255859e+00 3.094301223754882812e+01 6.539805860478892230e-14 1.080919005019310986e-13 5.204698637676329065e-14 1.124314671311493763e-13
4.819000000000000000e+03 4.630049896240234375e+01 3.632168960571289062e+01 6.076167130206200362e-14 2.090445194334253354e-13 8.094185857589891731e-14 2.438550765124485736e-14
4.820000000000000000e+03 7.351596832275390625e+01 3.723465347290039062e+01 -1.223633011322028397e-13 3.821925957138427865e-13 7.794878972974469966e-14 1.278826626842019532e-13
4.821000000000000000e+03 7.414472961425781250e+01 3.232841491699218750e+01 2.344947716398078450e-16 1.602288180607702728e-13 4.813899319856644599e-14 1.603711467009633074e-13
4.822000000000000000e+03 3.923725128173828125e+01 2.341292572021484375e+01 1.868990056577875258e-15 1.151783610977771821e-13 3.511420822621853788e-14 2.983018292015277018e-14
4.823000000000000000e+03 3.874863433837890625e+01 2.500627708435058594e+01 1.286188528999785557e-14 2.800179250798950914e-13 8.786394734613262036e-14 3.793220213843886968e-14
4.824000000000000000e+03 5.171883106231689453e+00 3.652005386352539062e+01 6.145136364419908140e-15 1.398864747995109958e-13 4.380948254449797130e-14 -1.091103796939732473e-14
4.825000000000000000e+03 7.308002471923828125e+00 3.407886505126953125e+01 6.903750168112468555e-14 1.243089544467708071e-14 2.444051905303723515e-14 1.933027780269373774e-14
4.826000000000000000e+03 5.249626636505126953e+00 3.443102645874023438e+01 1.093020208982895328e-14 7.331079645254978683e-14 2.527229863097738005e-14 5.186396288565237045e-14
4.827000000000000000e+03 5.333704376220703125e+01 3.860080337524414062e+01 9.793043248074520535e-14 1.906607738442339661e-13 8.657735850936196242e-14 1.043625499604419749e-13
4.828000000000000000e+03 7.464668273925781250e+01 4.073113250732421875e+01 -1.134352486074907684e-13 -2.573963211896599518e-14 -4.175246303209090293e-14 4.163447134253837889e-14
4.829000000000000000e+03 7.366352844238281250e+01 3.887604141235351562e+01 -1.116654308624433212e-13 8.939623672397922771e-14 -6.680758072132638586e-15 1.015435696783545654e-15
4.830000000000000000e+03 4.301045608520507812e+01 -3.405136108398437500e+00 1.228081357310464861e-13 -3.886983711786327900e-14 2.518148992276814102e-14 -3.199803499964216924e-14
4.831000000000000000e+03 7.392671966552734375e+01 2.777909660339355469e+01 1.284875119711773039e-13 5.125755505805407175e-13 1.923189255417789845e-13 1.148257649987577400e-13
4.832000000000000000e+03 7.350911712646484375e+01 2.830038261413574219e+01 1.908841737018746043e-13 4.935660170499178712e-13 2.053350572255377426e-13 1.412669352156281644e-13
4.833000000000000000e+03 4.331063842773437500e+01 -4.087400436401367188e+00 1.908562826009874147e-13 8.179555259025042546e-14 8.179555259025042546e-14 -9.484243156999451474e-15
4.834000000000000000e+03 3.174166870117187500e+01 -1.333830070495605469e+01 4.496000739675348745e-14 -1.179842763201696676e-13 -2.190727898295895953e-14 2.283054658953204141e-13
4.835000000000000000e+03 4.360895156860351562e+01 -4.812492370605468750e+00 5.221129043973989081e-14 2.237626757332650956e-14 2.237626757332650956e-14 -1.147955970733083308e-13
4.836000000000000000e+03 6.888662719726562500e+01 -1.334721660614013672e+01 -4.574213051519379625e-14 5.751585731121611200e-13 1.588249253252002613e-13 1.908942567820787195e-13
4.837000000000000000e+03 3.878360748291015625e+01 8.395462036132812500e+00 -2.653978348665566450e-14 1.830673335362700827e-13 4.695826653954363050e-14 -6.965952879627035355e-14
4.838000000000000000e+03 4.221093750000000000e+01 -4.568986892700195312e-01 6.747002316651734555e-14 -1.683522536600947500e-14 1.519043984837212952e-14 -4.973970589789225571e-14
4.839000000000000000e+03 4.195379257202148438e+01 -1.476555347442626953e+00 6.810298717107796107e-14 -1.881300155806911456e-13 -3.600810581237852415e-14 -1.338206346949977199e-13
4.840000000000000000e+03 7.415827178955078125e+01 2.835173034667968750e+01 1.925827796929804880e-13 3.112902188621979871e-13 1.511619063428171206e-13 -7.408817618648547154e-15
4.841000000000000000e+03 7.434355163574218750e+01 3.046065330505371094e+01 4.151156686189177991e-14 1.321680395335866898e-13 5.210388327389625651e-14 4.890141094252183074e-14
4.842000000000000000e+03 4.086521911621093750e+01 5.863627791404724121e-01 -1.182560451472303154e-13 2.123867894705463999e-13 2.823922465224754097e-14 -1.685318009279901386e-13
4.843000000000000000e+03 4.267841339111328125e+01 -2.754160404205322266e+00 1.160497072787494699e-13 -1.790191530171708623e-13 -1.889083541559231222e-14 -2.626291382718665135e-14
4.844000000000000000e+03 4.542874526977539062e+01 -7.929439544677734375e+00 5.822954423327642015e-14 -2.079542965507507474e-14 1.123023555930652978e-14 -9.551491813187401592e-14
4.845000000000000000e+03 3.320317077636718750e+01 -1.299248218536376953e+01 -1.526484152839305275e-14 3.920887391346307427e-14 7.183209546114417005e-15 1.429884788589456945e-14
4.846000000000000000e+03 3.120899772644042969e+01 -1.077751636505126953e+01 -1.067401511145940618e-13 -4.574577953313056777e-14 -4.574577953313056777e-14 1.925057539048889710e-14
4.847000000000000000e+03 4.047614288330078125e+01 1.285113573074340820e+00 8.573147413878413892e-15 -1.107031675530445458e-13 -3.063900451709053452e-14 -7.443339293446843419e-14
4.848000000000000000e+03 7.294351959228515625e+01 -1.972236061096191406e+01 8.779787030591731239e-15 4.612722421908077575e-13 1.410156171520460244e-13 -1.669482965500207472e-13
4.849000000000000000e+03 3.155254554748535156e+01 -1.135867309570312500e+01 -6.146344826325755850e-14 -2.634147782711038221e-14 -2.634147782711038221e-14 1.130707940472097661e-13
4.850000000000000000e+03 3.427372360229492188e+01 -1.261645221710205078e+01 -1.511551300792390862e-14 1.765257184134158552e-13 4.842306094402122618e-14 4.709283635793981571e-14
4.851000000000000000e+03 4.172850418090820312e+01 -2.486565589904785156e+00 9.903177860008313682e-14 -9.481065428194532241e-14 1.266336067243570805e-15 -4.551530525631446167e-14
4.852000000000000000e+03 3.087518310546875000e+01 -1.017424488067626953e+01 -3.564768990519003034e-14 -1.067794805484009735e-13 -4.272815011963776444e-14 -1.323254385839772729e-13
4.853000000000000000e+03 2.767333793640136719e+01 -4.601521492004394531e+00 5.524541666691341890e-14 -6.782528911338653321e-14 -3.773962072755113195e-15 -2.654557041575130588e-14
4.854000000000000000e+03 4.256402587890625000e+01 -1.127025961875915527e+00 7.626120871948027791e-14 7.843432256763802068e-14 4.640866074138820518e-14 -3.826005809913490818e-14
4.855000000000000000e+03 7.462667083740234375e+01 1.546703243255615234e+01 -4.197166838257673782e-14 4.166461555106526493e-13 1.124023495265545625e-13 1.035345989714234194e-14
4.856000000000000000e+03 6.772903442382812500e+00 8.073121070861816406e+00 1.107193357179417359e-14 -4.100583398227233833e-14 -8.980170461956628325e-15 7.124123068812798776e-14
4.857000000000000000e+03 6.887964725494384766e+00 2.864528274536132812e+01 -8.895373993607000318e-15 1.906317104497477766e-14 3.050339073058685839e-15 -5.816957430061081569e-14
4.858000000000000000e+03 6.036874771118164062e+00 7.378713607788085938e+00 -9.537995020799262119e-15 -2.328424454113575681e-13 -7.271413289197670160e-14 -7.675813891507449757e-17
4.859000000000000000e+03 6.797071838378906250e+01 -1.662674713134765625e+01 -3.038843523063376739e-14 2.386066062613767524e-13 6.246544758227792760e-14 -5.226178037965982515e-14
4.860000000000000000e+03 6.974752044677734375e+01 -1.731989097595214844e+01 -5.462608989280359761e-14 2.335804889352227631e-13 5.368631700222031844e-14 -1.549510845154367100e-13
4.861000000000000000e+03 2.611203956604003906e+01 -3.707738876342773438e+00 5.489391832259361836e-14 -2.222498410081510251e-14 9.800681113566502012e-15 9.609742607783258728e-14
4.862000000000000000e+03 6.517943382263183594e+00 7.058917999267578125e+00 4.766373656438921413e-14 -1.997491256601480192e-13 -4.562561605110128371e-14 -3.338698268589082585e-14
4.863000000000000000e+03 7.483579254150390625e+01 8.629234313964843750e+00 6.695272998123377728e-14 3.947016053839486061e-13 1.384962972214229260e-13 3.676624773401616919e-14
4.864000000000000000e+03 6.847479248046875000e+01 -1.576290035247802734e+01 -2.019379739923339578e-14 4.488550102346028359e-13 1.285983580907867907e-13 -8.869686533635387504e-14
4.865000000000000000e+03 6.286628723144531250e+00 2.244857597351074219e+01 -6.893604068657077644e-14 -7.529496774336119636e-14 -4.326930252897959184e-14 -7.364664162800432790e-14
4.866000000000000000e+03 6.525806903839111328e+00 2.308824157714843750e+01 -5.323729975468313030e-15 -1.852853943407409276e-13 -5.718274025947808759e-14 -6.593728655527458793e-14
4.867000000000000000e+03 4.473758316040039062e+01 -9.597680091857910156e+00 1.167210046063710260e-13 -4.147861050398000959e-14 2.257271823071730493e-14 -8.685172942163657539e-14
4.868000000000000000e+03 7.434955596923828125e+01 2.677983474731445312e+01 1.248048702145315714e-13 4.194953846098359307e-13 1.632900764473102506e-13 1.232419656778394046e-13
4.869000000000000000e+03 6.278082847595214844e+00 2.171540069580078125e+01 -3.831212013220494650e-14 2.933146686146838322e-14 -2.694196023572616346e-15 -2.256355333422801340e-14
4.870000000000000000e+03 7.373146057128906250e+01 3.394351959228515625e+01 -2.251335138551014553e-14 2.191061595395796258e-13 5.897784702019875924e-14 8.149321603818926452e-14
4.871000000000000000e+03 7.290887451171875000e+01 3.352151870727539062e+01 3.285270140781712533e-14 3.000231627806743129e-13 9.986275857892107366e-14 1.243109212572743316e-13
4.872000000000000000e+03 6.127057075500488281e+00 1.682816696166992188e+01 -1.737646485033828014e-13 -1.659724603846751689e-13 -1.019211367321755379e-13 -7.254339137860096876e-15
4.873000000000000000e+03 6.159770011901855469e+00 1.607191467285156250e+01 4.175417065051256760e-14 6.364559487076482114e-14 3.161992965638321662e-14 4.558015579282214541e-15
4.874000000000000000e+03 6.840714454650878906e+00 2.697952461242675781e+01 6.012804407070368798e-15 7.120333782219961938e-14 2.316484338875900162e-14 -5.968861184799762951e-16
4.875000000000000000e+03 3.096460342407226562e+01 -1.176344776153564453e+01 -9.064539348074482361e-14 -3.591046730810898424e-13 -1.349250165804186108e-13 -6.362962321751139405e-14
4.876000000000000000e+03 7.341574096679687500e+01 -1.176806735992431641e+01 2.372745791891835848e-14 6.049312526595906903e-13 1.885976048726298315e-13 1.854536794585696230e-14
4.877000000000000000e+03 6.660830497741699219e+00 8.805078506469726562e+00 -1.466545390986159769e-13 -4.288595303533759839e-13 -1.726542221908503039e-13 3.689784277270159729e-14
4.878000000000000000e+03 7.378425598144531250e+01 -1.222866916656494141e+01 4.713647888351414628e-14 1.917674054491627644e-13 7.167116428336353651e-14 -4.324193658851969990e-14
4.879000000000000000e+03 4.055356597900390625e+01 4.156197547912597656e+00 -3.519472379005274265e-14 1.922975701471128090e-14 -4.789490202009027975e-15 -1.402914785210429560e-13
4.880000000000000000e+03 8.516147613525390625e+00 7.253131866455078125e+00 1.375892536839215530e-13 5.896682203935729727e-14 5.896682203935729727e-14 9.664892584165807321e-14
4.881000000000000000e+03 6.521963119506835938e+00 9.524440765380859375e+00 1.304430332195807840e-13 1.474060538344743043e-13 8.335472340571109529e-14 7.930259232494588084e-14
4.882000000000000000e+03 7.478259277343750000e+01 -3.226797342300415039e+00 1.128255339632663889e-13 2.313576034310843577e-13 1.032549425735579396e-13 2.087326181853237789e-14
4.883000000000000000e+03 7.468625640869140625e+01 -2.557580709457397461e+00 1.822511241179663663e-15 5.040415242303641907e-13 1.517592068721665410e-13 -1.437073387806214742e-14
4.884000000000000000e+03 7.354744720458984375e+01 -4.005909442901611328e+00 3.139428346736646003e-14 6.539679821976340790e-13 2.056086827488187718e-13 6.366342322023862965e-14
4.885000000000000000e+03 7.405310058593750000e+01 -1.049053192138671875e+01 -8.825115659950866220e-14 1.909328137218377353e-13 3.080449781432507972e-14 -1.003278271008087308e-13
4.886000000000000000e+03 7.447066497802734375e+01 -1.465257406234741211e+00 2.185678396084134167e-13 5.740569152846985990e-13 2.377874102049010174e-13 -2.500662674707106875e-14
4.887000000000000000e+03 7.481952667236328125e+01 -1.580846691131591797e+01 -1.229834241172830800e-13 2.446739913539858202e-13 3.650717084863717987e-14 -1.853836637151495825e-13
4.888000000000000000e+03 7.428109741210937500e+01 -1.733932113647460938e+01 2.998076504938385067e-14 5.389848181484857559e-13 1.706896749593608820e-13 -7.171241817602660995e-14
4.889000000000000000e+03 7.325437927246093750e+01 -1.872382164001464844e+01 -1.549023902853649548e-13 5.741265210641721684e-13 1.257672487204111733e-13 -7.914769371581559243e-14
4.890000000000000000e+03 9.547900199890136719e+00 6.923508167266845703e+00 -3.163189314973023636e-14 -9.362068818753385702e-14 -3.757577406236604911e-14 6.616839102460345123e-14
4.891000000000000000e+03 7.325406646728515625e+01 -6.300021648406982422e+00 1.652723368317926544e-13 3.910876342824026741e-13 1.669079913342585986e-13 2.511616165967820585e-14
4.892000000000000000e+03 7.471388244628906250e+01 -8.856011390686035156e+00 -8.417826982340392838e-14 3.756821514034475173e-13 8.745116447401307669e-14 -7.764468457288967174e-14
4.893000000000000000e+03 7.303575134277343750e+01 -9.355844497680664062e+00 1.753942484143417718e-14 6.451707657700866960e-13 1.988130526094783468e-13 -1.535549268847410248e-14
4.894000000000000000e+03 7.318721008300781250e+01 -6.919982433319091797e+00 1.093035303110015399e-13 3.213500700347676764e-13 1.291960787484780493e-13 -7.099438495850735054e-14
4.895000000000000000e+03 7.179029846191406250e+01 -8.557108879089355469e+00 -3.653310022121852851e-14 4.876033929922252153e-13 1.353210891865547216e-13 1.461343253437302758e-14
4.896000000000000000e+03 7.369038391113281250e+01 -6.558369636535644531e+00 -8.003980914465455565e-14 4.232067170664710609e-13 1.029500716989185938e-13 -1.523738410837485735e-13
4.897000000000000000e+03 7.413794708251953125e+01 -9.239671707153320312e+00 5.725699455576618857e-14 4.362972385717894808e-13 1.480662787474093522e-13 2.030048077542360128e-15
4.898000000000000000e+03 7.347192382812500000e+01 -1.994479942321777344e+01 -1.107782350009620109e-13 3.642821450305228081e-13 7.605117165361552356e-14 -6.734977159306154704e-14
4.899000000000000000e+03 7.430819702148437500e+01 -1.875269126892089844e+01 2.164626239213075787e-14 5.582883330981780468e-13 1.739803911831802608e-13 -1.088653093454100551e-13
4.900000000000000000e+03 7.402278900146484375e+01 -1.351461791992187500e+01 -7.710061837020928954e-14 2.872135309531925751e-13 6.303387445252134347e-14 -1.474100111724038764e-13
4.901000000000000000e+03 6.770032882690429688e+00 2.434871101379394531e+01 4.329884703817982183e-14 -2.559490434265315750e-13 -6.379505891650552596e-14 1.414352491325770664e-14
4.902000000000000000e+03 5.515297412872314453e+00 1.934675407409667969e+01 -3.259342123453079498e-14 7.753328957593036419e-14 1.348195999420010241e-14 -4.605257825475786437e-14
4.903000000000000000e+03 6.242156505584716797e+00 1.437950992584228516e+01 6.567681375959852352e-14 1.654000558477114469e-13 6.932306020456663331e-14 1.135406466111835155e-13
4.904000000000000000e+03 5.953138351440429688e+00 8.735863685607910156e+00 4.565607874401633737e-14 -7.193500488203788401e-14 -7.883677841406463993e-15 8.775137327931073483e-14
4.905000000000000000e+03 7.476969909667968750e+01 -1.503818130493164062e+01 1.110739172621895421e-13 4.136106875832906704e-13 1.574053794207649903e-13 2.343633777714473898e-14
4.906000000000000000e+03 6.931552886962890625e+01 -1.380531024932861328e+01 1.102522139881899343e-13 2.874434360238681263e-13 1.193086970364964916e-13 -7.820159857131400716e-14
4.907000000000000000e+03 9.064620018005371094e+00 7.653868198394775391e+00 -9.511168301513592271e-14 -7.793479674545605862e-14 -5.191394121767216319e-14 -5.887751088539880384e-14
4.908000000000000000e+03 6.293856143951416016e+00 2.091768836975097656e+01 -1.074231103918334151e-13 9.121436922833806027e-14 -4.862620909092596130e-15 -2.786715865390251151e-14
4.909000000000000000e+03 6.171381473541259766e+00 1.757752037048339844e+01 -1.757747356142484035e-14 2.212215463983160935e-13 6.109322032640807087e-14 -8.689042188666715183e-14
4.910000000000000000e+03 6.241824626922607422e+00 1.836117362976074219e+01 2.078242261713703770e-14 1.004086475965039471e-13 3.635732055587252709e-14 2.844479277228258163e-14
4.911000000000000000e+03 7.398860931396484375e+01 -1.428111457824707031e+01 9.721180295203107891e-14 2.246660024901939168e-13 9.656334163266749870e-14 4.309242510893394884e-14
4.912000000000000000e+03 7.401270294189453125e+01 -1.506723117828369141e+01 -5.880863016612808414e-14 2.493019896424031323e-13 5.714800513237708324e-14 -2.270038540821972539e-13
4.913000000000000000e+03 7.420051574707031250e+01 -1.944625663757324219e+01 -1.773750688428138433e-13 3.586161315821678741e-13 5.437231882180620923e-14 -1.128395608288729202e-13
4.914000000000000000e+03 7.350427246093750000e+01 -1.670563507080078125e+01 -6.976858598229523922e-14 3.818577127678163263e-13 9.362673939090904174e-14 -1.777633318051762695e-14
4.915000000000000000e+03 6.157855987548828125e+00 1.350952816009521484e+01 2.676579559390563495e-14 -1.029063173649952256e-13 -2.284215602310710885e-14 1.009476044964464914e-13
4.916000000000000000e+03 5.307929039001464844e+00 1.291577911376953125e+01 2.249623369667908337e-15 9.641242407838930550e-16 9.641242407838930550e-16 2.826546234482169018e-14
4.917000000000000000e+03 7.401706695556640625e+01 -2.012369728088378906e+01 -7.508648921811938992e-14 4.482050310321977760e-13 1.119355666099816626e-13 -6.480202523672859427e-14
4.918000000000000000e+03 5.658985614776611328e+00 1.076734733581542969e+01 -1.253704307252814787e-13 -1.909830393874781262e-13 -9.490604374433331270e-14 1.567777889932217561e-13
4.919000000000000000e+03 5.735156536102294922e+00 1.132787799835205078e+01 1.284878778894105178e-13 1.694436014025232917e-13 8.937944514283285846e-14 1.582092746740815237e-13
4.920000000000000000e+03 6.038707733154296875e+00 1.270501804351806641e+01 7.213527735208669078e-14 1.681679697839583154e-13 7.209097414081350186e-14 1.748238869208468271e-13
4.921000000000000000e+03 6.488799095153808594e+00 2.637475013732910156e+01 2.521667058919940113e-14 -3.494380552602170675e-14 -2.918140311640102236e-15 1.156651407681688615e-13
4.922000000000000000e+03 6.247362136840820312e+00 2.699989509582519531e+01 -8.023660539148783077e-14 5.711478111205398056e-14 -6.936545928577439457e-15 8.382291578510822627e-14
4.923000000000000000e+03 6.754492759704589844e+00 2.514035415649414062e+01 1.858105852612246950e-14 9.946520874732495132e-14 3.541388170669353130e-14 1.773533339773872980e-14
4.924000000000000000e+03 7.181879043579101562e+00 2.356241798400878906e+01 2.197253609528132534e-14 -2.489641081997433919e-14 -8.771621738859318191e-16 1.266648918862639181e-14
4.925000000000000000e+03 4.640200042724609375e+01 -1.175492668151855469e+01 4.364666925950853871e-14 1.102076126213193119e-13 4.615628558068789189e-14 -7.185083691213511869e-14
4.926000000000000000e+03 6.868262481689453125e+01 -1.253888416290283203e+01 -4.658527049902251582e-15 7.185809564567990915e-13 2.141767259421570313e-13 3.560679515449659271e-14
4.927000000000000000e+03 4.534311294555664062e+01 -1.185622310638427734e+01 -1.278161705978424906e-14 1.088995362527427069e-13 2.883537660492048460e-14 -3.649532593990277574e-14
4.928000000000000000e+03 4.645500183105468750e+01 -1.277471256256103516e+01 -1.315668917805908403e-14 1.201765331129353576e-13 3.210595038525415612e-14 -4.786891504926851781e-14
4.929000000000000000e+03 4.528800582885742188e+01 -9.396382331848144531e+00 1.626415473653108901e-13 9.257899351647336239e-14 7.656616090928256013e-14 -1.105041961256027216e-13
4.930000000000000000e+03 2.854168701171875000e+01 -7.205420970916748047e+00 -9.070346605960857844e-14 6.878035857196427780e-15 -2.514762893366870311e-14 -6.459402528510198652e-15
4.931000000000000000e+03 3.054641914367675781e+01 -9.538022994995117188e+00 -1.026122004206542204e-13 -8.972760956547226607e-14 -5.770194435109066156e-14 -1.740597649466015667e-14
4.932000000000000000e+03 2.929358100891113281e+01 -8.612988471984863281e+00 -1.017691722451745384e-13 4.788653672270319628e-14 -1.616479201199411825e-14 -9.905069115172943084e-14
4.933000000000000000e+03 7.438162994384765625e+01 -2.097563552856445312e+01 -6.783653093466249229e-14 2.454329057696713612e-13 5.327890770711815605e-14 -1.249783967722378764e-13
4.934000000000000000e+03 1.066501903533935547e+01 6.641660690307617188e+00 -2.136627565141584889e-14 8.234492460731240859e-14 1.829359417854919956e-14 9.817748827453676164e-14
4.935000000000000000e+03 3.827375793457031250e+01 -1.471539115905761719e+01 -1.416083233746895376e-13 -6.068928047825786209e-14 -6.068928047825786209e-14 4.032365736347624796e-14
4.936000000000000000e+03 3.661043548583984375e+01 -1.367430686950683594e+01 5.421883983989551903e-14 -2.251430345054285936e-14 9.511360916805797899e-15 2.152377532932056581e-13
4.937000000000000000e+03 3.720873641967773438e+01 -1.385653781890869141e+01 -7.297939650600243633e-14 -3.127688470087701400e-14 -3.127688470087701400e-14 1.275533616852978988e-14
4.938000000000000000e+03 3.678755569458007812e+01 -1.289319419860839844e+01 1.574552425563039565e-14 -1.762557114148854964e-13 -4.815305733362265639e-14 1.272622144384699672e-13
4.939000000000000000e+03 3.803144836425781250e+01 2.059577178955078125e+01 2.399756147920470428e-14 1.475375133478881717e-13 5.146052448100693621e-14 1.592547301714278274e-14
4.940000000000000000e+03 3.876173019409179688e+01 2.236486434936523438e+01 1.492049214214807851e-14 9.789639530879273854e-14 3.384506488002952951e-14 -1.067991486534362183e-14
4.941000000000000000e+03 7.026126098632812500e+01 -1.830968666076660156e+01 -9.196834374787521416e-14 3.723435405486585914e-13 8.411256039548772878e-14 -1.252001296690383181e-13
4.942000000000000000e+03 4.500441360473632812e+01 -6.406813144683837891e+00 1.032327232052855648e-13 2.136712099029720868e-14 3.737995359748801094e-14 -6.247272528936073654e-14
4.943000000000000000e+03 7.356829071044921875e+01 -8.681924819946289062e+00 2.763258134948990558e-14 1.004849957582376607e-13 3.843527533460393275e-14 -1.251197089728942058e-13
4.944000000000000000e+03 7.244174194335937500e+01 -1.941271781921386719e+01 -7.582116493898630183e-14 3.792637590701447570e-13 9.103277891697389435e-14 -2.086419958243629358e-13
4.945000000000000000e+03 7.335083770751953125e+01 -4.670590877532958984e+00 7.148285191852996046e-14 4.423940597533815300e-13 1.541630728239470893e-13 1.564423097360004289e-14
4.946000000000000000e+03 3.714274597167968750e+01 2.037807083129882812e+01 4.855755622351805301e-14 1.695009692499749310e-13 6.541755391510292728e-14 -5.279333082351157780e-14
4.947000000000000000e+03 1.763347244262695312e+01 4.920011520385742188e+00 -4.132272256036732816e-14 -3.200690851679760529e-14 -2.199888898433630113e-14 6.529578445860564906e-14
4.948000000000000000e+03 4.141817474365234375e+01 -1.542501258850097656e+01 -2.496059728265137556e-14 -3.357287253649525460e-14 -1.756004162337034685e-14 1.402609311248331769e-13
4.949000000000000000e+03 4.066207885742187500e+01 -1.513122940063476562e+01 -1.209207565891837199e-13 2.226825088257403107e-13 3.052852431571426162e-14 1.448155018211189082e-13
4.950000000000000000e+03 7.356005096435546875e+01 -5.725513935089111328e+00 -4.288117509188872634e-14 4.391318309416442078e-13 1.188752059028824748e-13 -8.110233404995392803e-14
4.951000000000000000e+03 7.351066589355468750e+01 -7.513081550598144531e+00 1.224015057062557976e-13 5.156861266134016297e-13 1.914262883406445126e-13 -1.223124927078947377e-13
4.952000000000000000e+03 7.049845886230468750e+01 -1.080840015411376953e+01 -5.311401749734205591e-14 7.550029937179736361e-13 2.105666850734863593e-13 -2.470906407270063304e-14
4.953000000000000000e+03 7.383525085449218750e+01 -1.138297843933105469e+01 6.233036954411338981e-14 3.012187125162740786e-13 1.090647212299844515e-13 -1.916258899605990940e-14
4.954000000000000000e+03 2.614083480834960938e+01 -2.526191949844360352e+00 7.162454358994665982e-14 1.068019438621621575e-14 2.469142207047522047e-14 6.527716328629321052e-14
4.955000000000000000e+03 3.868026733398437500e+01 -1.339983081817626953e+01 -7.514617454771471694e-14 1.354544511359681222e-14 -1.848021925375184504e-14 6.452307357027523005e-14
4.956000000000000000e+03 4.375276184082031250e+01 -1.022881317138671875e+01 8.558822731487628066e-14 1.310420007097704009e-13 6.498907044027307789e-14 2.172433511294508124e-14
4.957000000000000000e+03 2.987988090515136719e+01 -8.187743186950683594e+00 -9.880845328134185701e-14 -4.234648046173676572e-14 -4.234648046173676572e-14 1.692068387531067697e-13
4.958000000000000000e+03 1.705592536926269531e+01 6.986227035522460938e+00 -1.383055182966469454e-13 1.466054789503110078e-13 2.489989932516760603e-15 1.128472180067160990e-13
4.959000000000000000e+03 1.587151432037353516e+01 5.436405658721923828e+00 9.401387410538572520e-14 -1.827442141838150902e-13 -2.661910303996834620e-14 8.418125815564184156e-14
4.960000000000000000e+03 2.452547645568847656e+01 -1.349808454513549805e+00 -6.490383182072498314e-14 -1.050206539028770980e-13 -5.097734639470698215e-14 1.534237045405523886e-14
4.961000000000000000e+03 2.423129463195800781e+01 2.061734497547149658e-01 -5.295666079859883552e-15 -4.802052039429988151e-14 -1.599485517991827699e-14 7.450744902504687767e-15
4.962000000000000000e+03 7.251293945312500000e+01 -6.920159339904785156e+00 2.324680229673532772e-14 4.903478881615463969e-13 1.540784101868031275e-13 5.477133571446697602e-14
4.963000000000000000e+03 1.888405418395996094e+01 2.976246833801269531e+00 -4.049036022375947230e-14 -3.147341870630981919e-13 -1.065673631696177626e-13 1.381106329561426760e-13
4.964000000000000000e+03 7.288917541503906250e+01 -1.187816047668457031e+01 -2.486818598810593139e-14 4.926026492095558762e-13 1.403203318513582265e-13 -1.901567960168812355e-13
4.965000000000000000e+03 4.158134460449218750e+01 -1.405040168762207031e+01 -9.275923026918781594e-15 2.019038690577457107e-13 5.778838236929206840e-14 -5.262859646779777245e-14
4.966000000000000000e+03 4.382096481323242188e+01 -1.468065261840820312e+01 -7.080416846360834682e-14 -3.034464362726072006e-14 -3.034464362726072006e-14 -6.085807042772312103e-14
4.967000000000000000e+03 2.522301101684570312e+01 -9.139640331268310547e-01 1.103191041800346064e-14 -6.389846469870633094e-14 -1.585996518306802966e-14 2.163653675983038399e-14
4.968000000000000000e+03 3.824845123291015625e+01 2.198149871826171875e+01 4.020262651970897549e-14 2.459844394148147373e-13 8.585612011917029274e-14 5.642922313773245102e-14
4.969000000000000000e+03 7.482995986938476562e+00 1.326903152465820312e+01 8.264185370103829809e-14 5.829341051749939440e-14 4.228057791030859214e-14 -3.411315419596730458e-14
4.970000000000000000e+03 3.923435974121093750e+01 3.495673656463623047e+00 -6.177257463142390992e-14 6.502793908815668322e-14 9.766087652725925945e-16 -2.508753872232458854e-14
4.971000000000000000e+03 7.072785186767578125e+01 -1.182307815551757812e+01 -7.695532172656907588e-14 4.931550502164372407e-13 1.248599205798395229e-13 5.052332318245152110e-14
4.972000000000000000e+03 2.377269744873046875e+01 1.396813035011291504e+00 -1.232374831794825348e-14 -5.103255600220901744e-14 -1.900689078782741293e-14 2.310638964506898235e-14
4.973000000000000000e+03 2.229574012756347656e+01 5.675464868545532227e-01 -7.455112373787320390e-14 1.968042563768243602e-13 3.667594046931170471e-14 7.665908381172814590e-14
4.974000000000000000e+03 4.120232009887695312e+01 -1.485739612579345703e+01 -3.965555165599994603e-14 1.202576043303829612e-13 2.418061715756762015e-14 8.098442706369612942e-14
4.975000000000000000e+03 4.092010879516601562e+01 -1.424090003967285156e+01 -1.712078388945142277e-14 1.756663120088680641e-13 4.756366131573701306e-14 1.719105543682153403e-13
4.976000000000000000e+03 4.030879974365234375e+01 3.067440271377563477e+00 -5.155290867049806824e-14 2.066606434591999886e-13 4.653232077542375500e-14 -1.455123998725382783e-13
4.977000000000000000e+03 1.248197174072265625e+01 7.220498085021972656e+00 3.407900521566580021e-14 1.518581403204058433e-13 5.578114128912924075e-14 1.819119805962152170e-14
4.978000000000000000e+03 2.714291763305664062e+01 -3.922184228897094727e+00 1.293528577707512423e-14 5.543693843958414150e-15 5.543693843958414150e-15 3.272130965703903827e-14
4.979000000000000000e+03 2.566393852233886719e+01 -1.768772840499877930e+00 -2.029989674620646944e-14 -2.202980907504287211e-13 -7.217939760424327278e-14 5.344023360225221009e-14
4.980000000000000000e+03 2.914000129699707031e+01 -6.733376026153564453e+00 -3.388935792690735138e-14 7.697788668428393044e-14 1.292655879661956317e-14 4.407303854010204136e-14
4.981000000000000000e+03 1.621679687500000000e+01 6.537763595581054688e+00 1.923783093276450890e-14 -2.433854441770411103e-13 -6.724427872167870746e-14 1.005201510136805032e-13
4.982000000000000000e+03 3.727559661865234375e+01 1.820370483398437500e+01 -1.928406537915743763e-14 1.976146703957029627e-13 5.349918031911753136e-14 -6.376650374178768899e-14
4.983000000000000000e+03 7.661390304565429688e+00 2.980034446716308594e+01 3.149437226854581717e-14 1.349758859910989151e-14 1.349758859910989151e-14 -4.722164296416288265e-14
4.984000000000000000e+03 8.507107734680175781e+00 3.128824996948242188e+01 6.186795054128474414e-14 7.226578818859963338e-14 4.024011958608623984e-14 1.282707392993159834e-14
4.985000000000000000e+03 3.908068847656250000e+01 7.485582828521728516e+00 1.788006422337017759e-14 4.197609667082498330e-14 1.795684776003877992e-14 -1.460504080955798978e-13
4.986000000000000000e+03 3.623085403442382812e+01 2.632502555847167969e+01 2.274594493876028189e-14 1.470011043230509684e-13 5.092411545616973290e-14 -5.891451267266666070e-15
4.987000000000000000e+03 3.812957000732421875e+01 -1.373858547210693359e+01 1.220663923672676843e-14 -4.051953203846291041e-14 -8.493867671114253143e-15 7.994080115751589499e-14
4.988000000000000000e+03 3.554563903808593750e+01 -1.184874343872070312e+01 -1.643551153463970738e-13 -7.043791141721558735e-14 -7.043791141721558735e-14 1.019422786745390053e-13
4.989000000000000000e+03 3.716477584838867188e+01 1.207305049896240234e+01 1.040962766831431130e-13 1.132391164344881407e-13 6.520061861291573391e-14 -7.504061391369609701e-14
4.990000000000000000e+03 3.848623275756835938e+01 2.299026107788085938e+01 8.063487350702322476e-14 1.260596987039119821e-13 6.200837505141235106e-14 4.645793434199588234e-14
4.991000000000000000e+03 7.487215423583984375e+01 2.659795570373535156e+01 1.975506211523633815e-13 3.134192937733620843e-13 1.532909812539812178e-13 -5.987505142298482630e-14
4.992000000000000000e+03 4.395642852783203125e+01 -5.604602813720703125e+00 6.061796708036262804e-14 -2.942775146827503185e-13 -7.009786495834266495e-14 -5.125587793281850824e-14
4.993000000000000000e+03 4.425378417968750000e+01 -6.472951889038085938e+00 -1.041526873833643549e-14 8.703821219530408215e-14 2.298688176654087312e-14 -6.720194062684314851e-14
4.994000000000000000e+03 2.020593452453613281e+01 2.052184581756591797e+00 -2.921816773444364801e-14 -2.298390698683011601e-13 -7.771717026438390574e-14 1.172551910167546341e-13
4.995000000000000000e+03 1.938297080993652344e+01 3.482851266860961914e+00 -4.494399169778680314e-14 -1.136230392000288358e-13 -4.757010893053151279e-14 1.645219740607425929e-13
4.996000000000000000e+03 1.589798545837402344e+01 7.193697929382324219e+00 1.590141389330897159e-14 3.728224868583540630e-13 1.166171651433012268e-13 4.483460925111017181e-14
4.997000000000000000e+03 3.786561584472656250e+01 1.423645401000976562e+01 2.373983815247542734e-14 1.017421586704207043e-14 1.017421586704207043e-14 -4.202766573071971962e-15
4.998000000000000000e+03 3.703990173339843750e+01 1.309583854675292969e+01 2.053037102302257555e-14 7.742515396175209119e-14 2.938665614017968442e-14 -2.589975183918315910e-14
4.999000000000000000e+03 4.442396926879882812e+01 -8.986696243286132812e+00 1.273746326512295579e-13 1.117778151938850217e-13 7.174573706403980511e-14 -2.064958582815093480e-13
5.000000000000000000e+03 3.871818923950195312e+01 6.315601825714111328e+00 4.834319251335872369e-14 2.037223064939655548e-13 7.561965241270271476e-14 -1.198034049352744712e-13
5.001000000000000000e+03 2.088637924194335938e+01 1.591167449951171875e+00 1.566603190759647407e-14 -1.762897824681558534e-13 -4.818712499876122435e-14 4.940833983266279539e-14
5.002000000000000000e+03 3.850255203247070312e+01 2.383894920349121094e+01 -7.157502943198196244e-15 1.913740297959307113e-13 5.526495941107247012e-14 5.767422943305650085e-14
5.003000000000000000e+03 4.578076171875000000e+01 -1.393070030212402344e+01 -7.924574624978975024e-14 1.178848702275457974e-14 -2.023717734459407752e-14 1.677226710110595737e-14
5.004000000000000000e+03 3.695755767822265625e+01 1.412917518615722656e+01 4.863911872007506410e-14 1.123472313986108306e-13 4.829590435797941061e-14 -1.223835892653554747e-13
5.005000000000000000e+03 1.374078750610351562e+01 7.592186450958251953e+00 -5.334458325371646548e-14 2.288898508662901010e-14 -9.136680127752594416e-15 6.011879362388672376e-14
5.006000000000000000e+03 3.852500152587890625e+01 9.332200050354003906e+00 1.331081241322945585e-13 1.129539018064227782e-14 4.332105285392504057e-14 -8.001441848502766074e-14
5.007000000000000000e+03 3.711332702636718750e+01 1.722407341003417969e+01 4.350106768400731350e-14 1.330206832270836026e-13 5.295652696739316934e-14 -1.181247076065608526e-13
5.008000000000000000e+03 3.697928619384765625e+01 1.621693229675292969e+01 3.066635690502327038e-14 2.190219983459404385e-13 7.490650488122321815e-14 -1.064910014553568929e-13
5.009000000000000000e+03 6.358050823211669922e+00 3.539849472045898438e+01 -9.420659781780860165e-15 -9.553932623328209583e-14 -3.148799580451888680e-14 8.071658169324716359e-14
5.010000000000000000e+03 7.268033599853515625e+01 3.105437850952148438e+01 4.824655621847237508e-14 6.840658681867006763e-13 2.196937293544309888e-13 1.043972647587522451e-13
5.011000000000000000e+03 4.061706161499023438e+01 3.067105102539062500e+01 2.167738746481056439e-14 2.323261754418742830e-13 7.620106938022522258e-14 3.028782804529069062e-14
5.012000000000000000e+03 7.239769744873046875e+01 3.211642837524414062e+01 1.483328840616235378e-13 6.583335764552555869e-13 2.419999422208218842e-13 2.608522664364343324e-14
5.013000000000000000e+03 4.768463897705078125e+01 3.784359741210937500e+01 6.384117816641762810e-14 1.188623987647199898e-13 5.481107511222035877e-14 6.369364535579666309e-14
5.014000000000000000e+03 7.774711608886718750e+00 2.870658302307128906e+01 -1.720102332054482264e-14 1.550360656369688395e-14 -5.092247729444974308e-16 4.984337256624081502e-14
5.015000000000000000e+03 7.278392028808593750e+01 3.566839981079101562e+01 -4.476730401312134511e-14 4.840744233410021469e-13 1.317921466403859654e-13 8.188825187599793609e-14
5.016000000000000000e+03 3.664693832397460938e+01 2.374874114990234375e+01 -5.348383716431096696e-15 1.349606868318933839e-13 3.888368780061678132e-14 -3.713209481646245758e-14
5.017000000000000000e+03 4.180603027343750000e+01 2.953428840637207031e+01 -1.639904066762318952e-14 2.031402661101938678e-13 5.602236610811189843e-14 6.357737144906117077e-14
5.018000000000000000e+03 4.195676040649414062e+01 4.105048370361328125e+01 3.873531473331214003e-14 1.767291689510827601e-13 6.463934747701072236e-14 -3.319451647148391471e-14
5.019000000000000000e+03 3.973859024047851562e+01 2.921961212158203125e+01 -4.970415274872244053e-16 1.599153074500689331e-13 4.782547919973331729e-14 8.981086104572610224e-15
5.020000000000000000e+03 6.876071166992187500e+01 -1.717764091491699219e+01 3.832205074647855592e-14 2.451784706248433254e-13 8.505015810546245891e-14 -9.427260540132223476e-14
5.021000000000000000e+03 4.246944427490234375e+01 -3.667453289031982422e+00 1.363156684969571431e-13 -7.883184529417983089e-14 1.724514526676729914e-14 -4.733749335442474782e-14
5.022000000000000000e+03 2.870641517639160156e+01 -5.987862586975097656e+00 -1.380548914119497650e-13 -1.506682826462116265e-13 -8.661695221744841744e-14 -2.098958993537649448e-14
5.023000000000000000e+03 4.026327133178710938e+01 2.580518424510955811e-01 1.309836435278363687e-13 5.613584819425324057e-14 5.613584819425324057e-14 -6.108367257102662040e-14
5.024000000000000000e+03 4.213554382324218750e+01 -3.068009614944458008e+00 8.585281330254421195e-14 -2.033984146474626664e-13 -3.526367904822282073e-14 5.730202875647285796e-15
5.025000000000000000e+03 7.109545135498046875e+01 -1.773133087158203125e+01 -8.625154898026649031e-14 4.205445399470958412e-13 1.002878945795433741e-13 -1.706641115050127472e-14
5.026000000000000000e+03 4.273003005981445312e+01 -4.322890758514404297e+00 5.073121894902561657e-14 -1.155108994566056424e-13 -1.943390381346082885e-14 -1.262381041713944718e-13
5.027000000000000000e+03 7.228763580322265625e+01 -1.781718063354492188e+01 -1.109407162490361198e-13 2.727106192777772886e-13 4.853097294150142405e-14 -1.391139807516150739e-13
5.028000000000000000e+03 7.164237976074218750e+01 -1.793439674377441406e+01 4.579678446908243272e-14 2.026309892447231142e-13 7.452832838719669617e-14 -5.835287223039664628e-14
5.029000000000000000e+03 3.942861938476562500e+01 -1.311993122100830078e+01 -1.086055073998282161e-13 -7.942680885962777673e-16 -3.281993139715375096e-14 -2.837120254982512801e-14
5.030000000000000000e+03 4.609848022460937500e+01 -1.333883476257324219e+01 1.001104005195121299e-14 -2.473397734455845542e-13 -7.119862154274930743e-14 -5.293307770728138129e-14
5.031000000000000000e+03 6.048846244812011719e+00 8.014519691467285156e+00 -5.759721042122856183e-14 -5.050694563100976975e-13 -1.688000054404087402e-13 3.620070416392520696e-14
5.032000000000000000e+03 7.469448089599609375e+00 8.176924705505371094e+00 -1.210385280501699579e-13 -2.348774657840585478e-13 -1.067747981502685517e-13 8.485229120898385435e-14
5.033000000000000000e+03 3.006661224365234375e+01 -5.054901599884033203e+00 -7.227742980942669648e-14 1.405900135892368397e-13 2.049377411750350625e-14 -1.129424922726232627e-13
5.034000000000000000e+03 2.764619064331054688e+01 -3.407906770706176758e+00 -1.146071356306760380e-13 -1.863701928244212991e-13 -9.029319718127648553e-14 -3.224216514163390918e-15
5.035000000000000000e+03 3.777113342285156250e+01 9.091233253479003906e+00 1.394018499809371314e-13 3.800002847109684723e-13 1.558206417628243967e-13 -5.462657778378121609e-14
5.036000000000000000e+03 4.074749374389648438e+01 -3.632872819900512695e+00 4.417436739751617880e-14 -7.257002887072622199e-14 -8.518698441963012957e-15 2.776442202773003742e-14
5.037000000000000000e+03 4.098233413696289062e+01 -1.146470904350280762e+00 6.486996405536196719e-14 -1.552023890264916939e-13 -2.709972478083348679e-14 -4.174393171624615761e-14
5.038000000000000000e+03 4.159651947021484375e+01 -8.042252063751220703e-01 -6.374179748478217555e-14 -6.163112690549601980e-14 -3.761187799470981641e-14 2.395772551969533454e-14
5.039000000000000000e+03 4.231789779663085938e+01 -2.120709657669067383e+00 3.774026447259104522e-14 -2.957655076255873150e-14 2.449114028306399390e-15 3.869383383581920244e-14
5.040000000000000000e+03 4.503478622436523438e+01 -8.774483680725097656e+00 5.230645967356159498e-14 2.054208447224356582e-13 7.731819064117281814e-14 -6.109256302884100154e-14
5.041000000000000000e+03 4.180422210693359375e+01 -1.468839168548583984e+01 -9.748987370421929866e-14 -6.465685056583278523e-14 -4.864401457051019395e-14 1.640711221398416519e-13
5.042000000000000000e+03 2.096723747253417969e+01 3.846370697021484375e+00 2.497147360921059440e-15 -7.899395384775714790e-14 -2.294904141665523450e-14 7.467739263338629696e-14
5.043000000000000000e+03 4.297939300537109375e+01 -5.039833068847656250e+00 1.094699350156873308e-13 1.164737747473088090e-15 3.319040327949204783e-14 -6.301683892588616498e-14
5.044000000000000000e+03 3.206182479858398438e+01 -1.245608997344970703e+01 1.940404929020190378e-14 5.406697022058461199e-14 2.204130670026890199e-14 -6.033117527694947801e-15
5.045000000000000000e+03 3.179433631896972656e+01 -1.195093154907226562e+01 -4.409374341346472548e-14 -1.561501714606242097e-13 -6.007316904121581813e-14 3.203826313540611773e-15
5.046000000000000000e+03 3.143744087219238281e+01 -9.760359764099121094e+00 -1.156347017921763309e-13 -7.243320255655855133e-14 -5.642036994936774907e-14 3.065505070924331998e-14
5.047000000000000000e+03 4.063756179809570312e+01 -4.354841709136962891e-01 -6.080056027873634306e-14 6.544451666787992616e-14 1.393185497962888281e-15 -6.577013646159521332e-14
5.048000000000000000e+03 7.598024368286132812e+00 2.271903419494628906e+01 1.020908143721695194e-14 4.375320736954829010e-15 4.375320736954829010e-15 7.944028938898332892e-15
5.049000000000000000e+03 6.894022464752197266e+00 2.248343086242675781e+01 -5.416967804763687944e-14 -1.604684267408895693e-13 -6.439143109774475571e-14 -7.421117892295395202e-14
5.050000000000000000e+03 2.199855422973632812e+01 1.709909558296203613e+00 -4.251917692715476149e-14 7.327939524712917541e-14 9.228065665398913625e-15 9.672734076378308732e-14
5.051000000000000000e+03 4.448707199096679688e+01 -7.324053764343261719e+00 -1.041150282985294287e-14 -2.332168204215168128e-13 -7.308849434960879021e-14 -1.210161138643197146e-14
5.052000000000000000e+03 4.377597427368164062e+01 -7.509962558746337891e+00 -4.069791717715466606e-14 -1.318193330098610394e-13 -5.175517675017060615e-14 -1.133643079040923263e-13
5.053000000000000000e+03 7.059229373931884766e+00 1.534622383117675781e+01 4.395976990626340730e-14 -2.691104819183259139e-14 5.114616599032539498e-15 -3.175322214909494234e-14
5.054000000000000000e+03 4.007282257080078125e+01 1.993593215942382812e+00 -8.137724028705120571e-14 -1.200048581692517505e-14 -2.801331757708303005e-14 -1.710794998504780451e-13
5.055000000000000000e+03 6.358792304992675781e+00 1.022629928588867188e+01 -1.134623943193843743e-13 -1.401286313547356333e-13 -7.607730770223600225e-14 1.528405630139492710e-13
5.056000000000000000e+03 7.074638366699218750e+00 1.905196380615234375e+01 -9.514583538356921610e-14 -6.365226271412560699e-14 -4.763942671880301571e-14 6.974295137717953508e-14
5.057000000000000000e+03 7.230123901367187500e+01 -1.166808700561523438e+01 -2.853286387000629476e-14 3.309037343180581958e-13 9.071126553898689604e-14 -8.152690762069925157e-14
5.058000000000000000e+03 7.426844787597656250e+01 -1.115062332153320312e+01 1.226778010773865724e-13 2.813309481208836615e-13 1.212026220489756390e-13 -6.911627574521933548e-14
5.059000000000000000e+03 7.151959991455078125e+01 -1.037687587738037109e+01 -3.120494788673260078e-14 3.469151777912155010e-13 9.471306931015804897e-14 6.567289030298684160e-14
5.060000000000000000e+03 7.419531250000000000e+01 -1.660853195190429688e+01 -1.267543199307691326e-13 2.430578795956789273e-13 3.489106925472565401e-14 -1.691038530992478028e-13
5.061000000000000000e+03 7.409616088867187500e+01 -1.585053253173828125e+01 2.086792720503057030e-14 4.207019389974864243e-13 1.324709656205791397e-13 -3.243268826245981895e-14
5.062000000000000000e+03 7.196141052246093750e+01 -9.651211738586425781e+00 1.267771965966085768e-13 5.747501541537858305e-13 2.104581970936020285e-13 -1.250451785438652999e-14
5.063000000000000000e+03 7.136610984802246094e+00 1.277931785583496094e+01 1.759545945902683817e-14 8.152877109318321103e-14 2.973727018210255146e-14 1.011861086456025682e-13
5.064000000000000000e+03 7.281802368164062500e+01 -1.894186210632324219e+01 -9.213758093073662336e-14 5.552747931597545872e-13 1.389411589253208845e-13 -2.019690296083120895e-13
5.065000000000000000e+03 7.292311096191406250e+01 -8.169066429138183594e+00 -3.161491860946726018e-14 5.354621368698631034e-13 1.511541678498110053e-13 -4.967641220794162538e-14
5.066000000000000000e+03 7.327620697021484375e+01 -1.347276020050048828e+01 4.255942793280828584e-14 8.686617641558494474e-14 3.882768198214432698e-14 -1.470113093759994882e-14
5.067000000000000000e+03 7.341504669189453125e+01 -1.275005340576171875e+01 1.132360569514826582e-14 2.793586759489152804e-13 8.720468466262565332e-14 -9.842512682699602888e-14
5.068000000000000000e+03 7.530137062072753906e+00 2.674079322814941406e+01 -1.453003028225458015e-14 3.952379398698864510e-14 7.498128772607040582e-15 4.654093001829964771e-14
5.069000000000000000e+03 6.923602581024169922e+00 2.776269340515136719e+01 -1.966305841294511275e-14 3.732392406209303348e-14 5.298259271227902592e-15 7.989609137042802400e-14
5.070000000000000000e+03 7.024121761322021484e+00 1.813835144042968750e+01 -8.038139381535969186e-14 1.485546305109511356e-13 2.045197134749061202e-14 -2.953456503342923034e-14
5.071000000000000000e+03 6.291923522949218750e+00 1.920256423950195312e+01 -9.078589930603536695e-14 7.546913126984383657e-14 -4.595030495560753839e-15 -4.718009091590237569e-14
5.072000000000000000e+03 6.933498382568359375e+00 1.037898159027099609e+01 -2.961405060519957388e-14 -1.728200509131319618e-13 -6.073022943905992399e-14 5.117963819130204317e-14
5.073000000000000000e+03 7.376238250732421875e+01 -1.870807266235351562e+01 -1.204092164516779029e-13 3.601545873598704928e-13 7.192361398296320818e-14 -1.511652944746061378e-14
5.074000000000000000e+03 6.303480148315429688e+00 2.007144355773925781e+01 -3.275222974774560925e-14 1.003407020016069962e-13 2.027654235378477388e-14 -6.524086284230568022e-14
5.075000000000000000e+03 7.011907196044921875e+01 -1.772381210327148438e+01 2.380045352424683958e-14 1.017020940120155759e-13 3.765076358325236683e-14 2.371339208979625357e-14
5.076000000000000000e+03 8.543004035949707031e+00 8.369837760925292969e+00 -5.900010026978902422e-14 -3.255263625930732152e-13 -1.153579320825950938e-13 5.602799718314524502e-14
5.077000000000000000e+03 5.894778251647949219e+00 1.196018886566162109e+01 -1.081769019522539621e-13 -9.211248165044358394e-14 -6.008681643606197942e-14 1.035520410738732799e-13
5.078000000000000000e+03 6.812400817871093750e+01 -1.731220817565917969e+01 -2.172212266288685301e-14 8.219241801922516633e-14 1.814108759046195729e-14 -8.448775533353991563e-14
5.079000000000000000e+03 7.320146179199218750e+01 -1.513129138946533203e+01 5.280974632202936614e-14 3.886403460336140814e-13 1.324350243185612452e-13 -1.347061568193752557e-14
5.080000000000000000e+03 6.676755905151367188e+00 1.110050201416015625e+01 -4.150411974821952010e-14 7.371441781631182799e-14 9.663089928647460719e-15 1.697141776071942054e-13
5.081000000000000000e+03 7.316130065917968750e+01 -1.427842807769775391e+01 -6.165386804606390325e-14 4.310864003004982736e-13 1.108297617092093845e-13 -2.040371452523281892e-13
5.082000000000000000e+03 6.851928234100341797e+00 1.341101360321044922e+01 4.173636262982949319e-15 2.305434489147106802e-13 7.041512284280265765e-14 5.824988657653767943e-14
5.083000000000000000e+03 7.438524723052978516e+00 2.474637222290039062e+01 1.556247535353105782e-14 -1.305832205604831597e-13 -3.450622152920655716e-14 4.225671529811854399e-14
5.084000000000000000e+03 3.111712265014648438e+01 -9.134530067443847656e+00 2.230994997575418137e-14 5.531235598666903175e-14 2.328669246635332174e-14 -1.681101004930019016e-13
5.085000000000000000e+03 8.080211639404296875e+00 2.401524925231933594e+01 -7.768425456405360363e-15 -5.479914211205944019e-14 -1.877027043994602962e-14 3.625787211160129420e-14
5.086000000000000000e+03 4.506864547729492188e+01 -1.350679683685302734e+01 1.108271257426775291e-13 -1.240687240444682260e-13 -3.972476949438367294e-15 3.448120695220824317e-14
5.087000000000000000e+03 4.517168807983398438e+01 -1.089947700500488281e+01 -9.529416271109470565e-15 -9.558593337417181646e-14 -3.153460633354039644e-14 -5.004798862124314185e-14
5.088000000000000000e+03 4.423760986328125000e+01 -9.888545036315917969e+00 -5.429852192330962557e-14 1.768896037675563027e-13 3.677732692496625544e-14 -1.485676815946024298e-13
5.089000000000000000e+03 3.965726470947265625e+01 2.727608203887939453e+00 2.609873173695445581e-14 -2.525661401601395377e-16 7.753849713449008363e-15 -1.149654780012096533e-13
5.090000000000000000e+03 6.992092132568359375e+01 -1.325301170349121094e+01 -3.584899236730269834e-14 5.908361907364101384e-13 1.664961706915671358e-13 1.186450975442995825e-13
5.091000000000000000e+03 7.400144195556640625e+01 -6.025066852569580078e+00 3.869946829898433804e-14 4.283440193254134387e-13 1.401130459485061541e-13 2.295040683376620844e-14
5.092000000000000000e+03 2.270158958435058594e+01 1.196079492568969727e+00 1.666883929604852377e-14 5.289473760795686264e-14 2.086907239357525812e-14 1.522813586384355600e-13
5.093000000000000000e+03 3.593913269042968750e+01 -1.269987392425537109e+01 -5.888917961128017908e-14 -1.281778502781882878e-13 -5.612011032209325567e-14 1.508704321412715488e-13
5.094000000000000000e+03 7.490426540374755859e+00 1.056188869476318359e+01 -3.276616174566204798e-14 1.232101985541855793e-13 2.713321307543613281e-14 1.009744927103241319e-13
5.095000000000000000e+03 3.474497604370117188e+01 -1.205901336669921875e+01 9.054466262859144771e-15 -2.706252106091100451e-13 -7.847121932282041801e-14 6.688079994335294209e-14
5.096000000000000000e+03 3.732671737670898438e+01 1.106289196014404297e+01 3.897317174929651462e-14 3.957826159362888563e-14 2.356543068050397788e-14 -1.151033749650226534e-13
5.097000000000000000e+03 3.752913284301757812e+01 1.006709480285644531e+01 9.487111888185212338e-14 1.779118979959928848e-13 8.183490235284807124e-14 -7.023443377449437031e-14
5.098000000000000000e+03 4.299599838256835938e+01 -1.373585510253906250e+01 4.467966659626662618e-14 1.564012726837718525e-13 6.032428381689061703e-14 -6.910369900001850363e-14
5.099000000000000000e+03 3.986682128906250000e+01 -1.390274715423583984e+01 -3.185376157180223877e-14 1.236012296202196326e-13 2.752424075333839704e-14 2.261255588429256919e-14
5.100000000000000000e+03 7.242883300781250000e+01 -8.922172546386718750e+00 3.705102021088306496e-14 3.933243433642402698e-13 1.291126087337238215e-13 -9.373647420329173086e-14
5.101000000000000000e+03 7.392365932464599609e+00 8.895565986633300781e+00 2.384041145650061394e-14 -1.270355213167304043e-13 -3.095853583798095776e-14 1.186072317834255263e-13
5.102000000000000000e+03 3.772279357910156250e+01 -1.428600502014160156e+01 -4.403750720203061797e-14 -1.103751150807047443e-13 -4.632378804007332429e-14 9.772534208729241612e-14
5.103000000000000000e+03 3.079718208312988281e+01 -8.475628852844238281e+00 -2.874432056309064731e-14 -1.038208893313317949e-13 -3.976956229070037485e-14 -8.493356571433879898e-14
5.104000000000000000e+03 7.254042053222656250e+01 -1.002091026306152344e+01 6.195702452601800636e-14 4.011388931527554158e-13 1.389287854680273937e-13 -1.280422436914646633e-13
5.105000000000000000e+03 2.715930747985839844e+01 -2.744626760482788086e+00 3.940915315977545907e-14 1.688963706847519675e-14 1.688963706847519675e-14 2.227048332260981450e-14
5.106000000000000000e+03 1.937734794616699219e+01 4.459977626800537109e+00 1.230677250713585642e-15 3.579567198208621903e-13 1.077562179568024303e-13 1.468180638912811031e-13
5.107000000000000000e+03 7.250148773193359375e+01 -1.847056388854980469e+01 -4.347195007941249967e-14 5.075050622804777589e-13 1.392099326438800411e-13 -1.565355104652527141e-13
5.108000000000000000e+03 7.281282806396484375e+01 -1.686911582946777344e+01 -9.791730008193097468e-14 2.325411456276238464e-13 4.038715095320243031e-14 -1.762435954556079709e-13
5.109000000000000000e+03 3.805155944824218750e+01 8.138495445251464844e+00 1.404775818239500929e-13 -7.704817009011530327e-14 1.902882385896361578e-14 7.006716170807059108e-14
5.110000000000000000e+03 3.607492065429687500e+01 2.010258865356445312e+01 -3.111855391424445116e-14 7.816537266622583524e-14 1.411404647262736248e-14 -5.460025877604413047e-14
5.111000000000000000e+03 4.476303100585937500e+01 -1.136691665649414062e+01 1.714742714140071733e-13 4.862549334808553142e-15 5.290104630934801266e-14 1.584151849954272551e-14
5.112000000000000000e+03 4.591300582885742188e+01 -1.232496166229248047e+01 1.597388535464969173e-13 -6.879333935188094995e-14 2.728365290313207459e-14 -4.431643176342967005e-14
5.113000000000000000e+03 1.820710563659667969e+01 4.437871456146240234e+00 8.772106982858976498e-14 1.900842052933015419e-14 3.201884490509031289e-14 1.033495798706887681e-13
5.114000000000000000e+03 1.736577796936035156e+01 6.405583381652832031e+00 -4.201576915297553297e-15 -1.848044693620806700e-13 -5.670181528081782996e-14 -1.337631804501854607e-14
5.115000000000000000e+03 1.126981163024902344e+01 7.174850940704345703e+00 8.703041271592576456e-14 4.873648685142784043e-14 4.073007054783243930e-14 2.096045200199094655e-14
5.116000000000000000e+03 1.879449081420898438e+01 3.959241628646850586e+00 1.971271487244494885e-14 -2.317441757156840643e-13 -6.360943672831242957e-14 1.087829099803011568e-13
5.117000000000000000e+03 1.881641960144042969e+01 4.940127849578857422e+00 7.309913308342630422e-14 1.028140585363802872e-13 5.277395748594197744e-14 1.033424580176682539e-13
5.118000000000000000e+03 7.111054229736328125e+01 -1.110152626037597656e+01 1.064532847722815534e-13 6.518228881993715085e-13 2.274828546020013498e-13 5.580891719353560376e-14
5.119000000000000000e+03 2.627305030822753906e+01 -1.361082196235656738e+00 5.205317988167361409e-14 -6.919338962473736698e-14 -5.142063007622420592e-15 8.385508948457673362e-14
5.120000000000000000e+03 2.663320541381835938e+01 -3.234090566635131836e+00 -2.547103458325986752e-14 -1.395907044468569502e-13 -4.951852187844163478e-14 -1.815025418101714333e-14
5.121000000000000000e+03 3.909494400024414062e+01 5.452161312103271484e+00 7.839379373517779692e-14 2.166011375251061799e-13 8.849847666757976183e-14 -3.739810551354767060e-15
5.122000000000000000e+03 3.881333541870117188e+01 4.298887729644775391e+00 2.985630202811430378e-14 1.500484036066201954e-13 5.397141135160717085e-14 -5.485883082978655623e-14
5.123000000000000000e+03 2.952503585815429688e+01 -7.472196578979492188e+00 -1.339429327000540848e-13 -1.165316758020007448e-14 -4.367883279458167900e-14 -9.085284879018634685e-14
5.124000000000000000e+03 4.547711563110351562e+01 -1.290235328674316406e+01 8.888031912020200043e-15 4.956010441988824289e-14 1.753444089957253288e-14 4.015025955477792563e-15
5.125000000000000000e+03 2.507760810852050781e+01 1.632405072450637817e-02 -1.693098074663067915e-14 1.528721810598043795e-13 4.078236297386413078e-14 -3.049060773286337012e-14
5.126000000000000000e+03 3.258568954467773438e+01 -1.130071258544921875e+01 -4.543115422707064144e-15 1.520955568792576457e-14 3.199932291323846940e-15 4.854238078123504496e-14
5.127000000000000000e+03 2.343182945251464844e+01 6.822067499160766602e-01 -4.095726172494498774e-14 1.654506880891665199e-13 3.734802723164010185e-14 7.904302077232569501e-14
5.128000000000000000e+03 3.643318557739257812e+01 1.910718917846679688e+01 7.722172375287592039e-14 1.703478666719576706e-13 7.427087780507643511e-14 -1.379645502659274103e-13
5.129000000000000000e+03 4.320304489135742188e+01 -1.266964626312255859e+01 9.998152445658738813e-15 -8.721697680475620773e-14 -2.316564637599299870e-14 -2.220582590961410474e-14
5.130000000000000000e+03 1.566952800750732422e+01 7.928889751434326172e+00 -5.422960096997391129e-16 1.370204405666541891e-13 4.094344153537758657e-14 -1.037546378023293525e-13
5.131000000000000000e+03 1.662100219726562500e+01 5.952944755554199219e+00 -1.301988979953913605e-13 -4.436179207182103235e-14 -5.236820837541643348e-14 5.365134131776229387e-14
5.132000000000000000e+03 7.034639739990234375e+01 -1.254026031494140625e+01 1.137179543239663637e-13 3.804306316582822811e-13 1.482445757946745934e-13 4.683174353414636115e-14
5.133000000000000000e+03 7.274142456054687500e+01 -1.256036758422851562e+01 -3.869809610560978608e-14 3.036717470365768445e-13 7.949209731216919095e-14 -9.544816515936679902e-14
5.134000000000000000e+03 2.863221740722656250e+01 -3.475586891174316406e+00 -3.140881855274134382e-14 -5.921187205912975537e-14 -2.718620684474815086e-14 -4.220061122382420815e-14
5.135000000000000000e+03 2.518055915832519531e+01 8.768341541290283203e-01 -6.063557181313836142e-14 -2.598667266616450089e-14 -2.598667266616450089e-14 6.962108959409100614e-15
5.136000000000000000e+03 3.775556564331054688e+01 2.244699668884277344e+01 -7.663771825266660342e-14 1.044081067804771001e-13 8.331117066562917367e-15 -3.762303850082283907e-14
5.137000000000000000e+03 2.063050079345703125e+01 2.606044292449951172e+00 2.034844698067719143e-14 -1.415471167739209418e-14 1.858120506282234449e-15 8.594309346219436430e-14
5.138000000000000000e+03 4.289135742187500000e+01 -8.887148857116699219e+00 1.089037510886882443e-13 9.242398648712582543e-14 6.039832127274422091e-14 2.690441338275674846e-15
5.139000000000000000e+03 3.343268966674804688e+01 -1.099430656433105469e+01 1.254972552744079706e-13 8.033586579444477321e-15 4.005925094679313458e-14 1.127129598964445034e-13
5.140000000000000000e+03 9.622546195983886719e+00 8.086434364318847656e+00 -1.135078969293108753e-13 -9.439718700720439726e-14 -6.237152179282279274e-14 -4.725327879770988351e-16
5.141000000000000000e+03 3.502164840698242188e+01 1.384827423095703125e+01 6.138879416741835349e-14 7.206043352086730081e-14 4.003476830648569629e-14 -1.225241831820725324e-13
5.142000000000000000e+03 3.614668273925781250e+01 1.291888046264648438e+01 1.136437610140504650e-13 1.859573150846116629e-13 8.988032621773042741e-14 -1.457726083939347994e-13
5.143000000000000000e+03 8.717403411865234375e+00 3.490943908691406250e+01 1.363818759802463282e-14 1.728267560259424268e-14 9.276258451965894297e-15 4.512087589409602417e-14
5.144000000000000000e+03 3.283262252807617188e+01 -1.215583705902099609e+01 6.907884451224722069e-15 4.871147227442952643e-14 1.668580706004792191e-14 4.847419462898107378e-14
5.145000000000000000e+03 3.763356399536132812e+01 2.644219970703125000e+01 -3.482346628465586742e-15 2.272623143275906421e-13 6.713398825568261952e-14 -3.789749496342512472e-15
5.146000000000000000e+03 3.640509414672851562e+01 2.488979148864746094e+01 -2.373792385801463262e-14 1.728304050438791983e-13 4.472774418635278026e-14 -3.370464036990192258e-14
5.147000000000000000e+03 6.859540557861328125e+01 -1.414793205261230469e+01 -5.297866840863439675e-14 4.805553199295486966e-13 1.282729890188238908e-13 1.406721012462211484e-13
5.148000000000000000e+03 6.859349060058593750e+01 -1.647466468811035156e+01 -1.715656425520933892e-14 -5.310376162241670084e-14 -2.107809810210099083e-14 -1.177533412574302552e-13
5.149000000000000000e+03 4.349921417236328125e+01 -6.669211864471435547e+00 1.024692754692663188e-13 -2.077148132315076445e-13 -3.157366132867239772e-14 -3.342321197911078678e-14
5.150000000000000000e+03 3.644177246093750000e+01 1.828042030334472656e+01 -6.873984498609710461e-15 6.568043228434919389e-14 1.764193276871089261e-14 -1.620428373731372385e-13
5.151000000000000000e+03 7.738033771514892578e+00 2.768253326416015625e+01 -8.278852592618485273e-15 6.507834093665010311e-14 1.703984650320948535e-14 3.609958198255019957e-14
5.152000000000000000e+03 9.450954437255859375e+00 3.318885421752929688e+01 3.184355651885371896e-14 -2.066597252754851649e-14 3.353275112688266016e-15 1.422104452155747295e-14
5.153000000000000000e+03 2.820913124084472656e+01 -5.278098583221435547e+00 8.306315306592601012e-16 1.376088370856620724e-13 4.153183805438546983e-14 4.358554397390287938e-14
5.154000000000000000e+03 1.294135379791259766e+01 7.984332084655761719e+00 -6.032123449828050155e-14 -1.631047998485596340e-13 -6.702781098167839846e-14 -1.200420767969541044e-14
5.155000000000000000e+03 1.181007480621337891e+01 7.779726028442382812e+00 -8.253709266612188622e-14 -1.440315423352489521e-13 -6.797059253329032491e-14 9.785458237438447726e-15
5.156000000000000000e+03 3.836856079101562500e+01 7.211762905120849609e+00 7.384527995973964431e-16 9.181837825862973479e-14 2.776704952393242026e-14 -8.374190385996693048e-15
5.157000000000000000e+03 3.856192398071289062e+01 3.151285409927368164e+00 -2.095899510532166915e-14 -8.982426110695166527e-15 -8.982426110695166527e-15 -1.050938578783106037e-13
5.158000000000000000e+03 3.693249893188476562e+01 1.517372512817382812e+01 5.417937488081704667e-14 6.897068094598168830e-14 3.694501573160008379e-14 -1.078602471552524145e-13
5.159000000000000000e+03 3.601520538330078125e+01 1.400006103515625000e+01 -1.980108243170020099e-14 -8.486178306019078604e-15 -8.486178306019078604e-15 -7.320873237053743265e-14
5.160000000000000000e+03 7.361230850219726562e+00 1.461273956298828125e+01 -2.436408110581111258e-15 -9.254607442801127126e-14 -2.849474399924806223e-14 6.706184815363086527e-14
5.161000000000000000e+03 4.324385833740234375e+01 3.457785797119140625e+01 6.453343447728604465e-14 2.220987201659654908e-13 8.598964639297546064e-14 1.506825026353301317e-14
5.162000000000000000e+03 4.083118820190429688e+01 3.362476348876953125e+01 -6.823021067272260973e-15 2.429871896140328724e-13 7.084925094519300970e-14 4.048670104142733372e-14
5.163000000000000000e+03 8.031980514526367188e+00 3.268481063842773438e+01 1.666932146955374828e-15 -1.072333800938461354e-14 -2.716921705789212410e-15 5.913414153962612274e-14
5.164000000000000000e+03 7.039573192596435547e+00 2.088748550415039062e+01 -9.786399799262615606e-14 -1.334436169420430418e-13 -6.939228651327983277e-14 -2.436295963418894789e-14
5.165000000000000000e+03 3.636499404907226562e+01 2.210210418701171875e+01 -4.040475907410995271e-14 1.656874642911101980e-13 3.758481359797914700e-14 -5.824506187687011893e-14
5.166000000000000000e+03 3.614973831176757812e+01 1.736731338500976562e+01 7.070056616976377883e-14 1.675530916268874737e-13 7.147609598374266016e-14 -6.305580244145986279e-14
5.167000000000000000e+03 7.545032024383544922e+00 3.654067611694335938e+01 3.237335191043876070e-14 1.387429379690703277e-14 1.387429379690703277e-14 3.267795173453498514e-14
5.168000000000000000e+03 5.911064147949218750e+00 2.932409477233886719e+01 -1.120118381152336497e-15 9.102184880382252485e-14 2.697051837505931582e-14 -3.162973490978063240e-14
5.169000000000000000e+03 3.516921615600585938e+01 2.441637039184570312e+01 3.054738604538372038e-14 8.171816088392569455e-14 3.367966306235328777e-14 -2.302463571906589179e-14
5.170000000000000000e+03 4.274873352050781250e+01 3.694374847412109375e+01 4.243367064519533438e-14 1.783141776595664751e-13 6.622435618549443737e-14 1.054146140088427566e-14
5.171000000000000000e+03 3.901322937011718750e+01 3.194207382202148438e+01 2.848306172083953092e-14 1.666164764751315586e-13 5.852986145879132684e-14 1.538266889355380945e-14
5.172000000000000000e+03 3.779537200927734375e+01 2.802444839477539062e+01 -7.050993632278651502e-15 8.848004523064750826e-14 2.442871480188429922e-14 -2.922761723400321698e-15
5.173000000000000000e+03 3.694309234619140625e+01 3.849959182739257812e+01 1.239513117254516239e-14 1.883159969108538778e-13 6.021333605332745975e-14 1.982836536293126201e-14
5.174000000000000000e+03 4.005455398559570312e+01 3.584614944458007812e+01 3.066964339285861707e-14 2.418988674732919231e-13 8.177055495391105655e-14 -3.026042144724933047e-15
5.175000000000000000e+03 4.195588684082031250e+01 -3.881235599517822266e+00 1.313799329744069766e-13 -2.182000104688705533e-13 -2.604601918258092619e-14 -3.122254923137654514e-14
5.176000000000000000e+03 4.211413955688476562e+01 -4.489764690399169922e+00 1.521282015290448264e-13 -1.635569392595404015e-13 -3.428620387412430540e-15 -4.309218793970871764e-14
5.177000000000000000e+03 4.324315261840820312e+01 -5.826635360717773438e+00 8.510256572797497698e-14 1.359705398404006949e-14 2.960988659123087174e-14 -6.963759403106825618e-14
5.178000000000000000e+03 4.113484954833984375e+01 -2.941067695617675781e+00 1.121781043300325645e-14 -9.562999941621977418e-14 -2.532365593263530279e-14 5.168090551322356008e-14
5.179000000000000000e+03 2.171221542358398438e+01 2.875425338745117188e+00 2.821561276180988009e-14 -1.251604478695253486e-13 -2.908344883824874605e-14 1.262485396173046448e-13
5.180000000000000000e+03 3.925653457641601562e+01 5.776324272155761719e-01 4.217125306187237410e-14 -1.191794465850090634e-13 -2.310245941219372240e-14 -8.595519586894473374e-14
5.181000000000000000e+03 4.066798019409179688e+01 -2.252191066741943359e+00 8.651677193671075683e-14 -1.001742295342854250e-13 -4.097237702788874072e-15 -5.803459790639994842e-14
5.182000000000000000e+03 7.119972991943359375e+01 -1.671383857727050781e+01 -4.168153249308782782e-14 3.023931203095103770e-13 7.821347736136630147e-14 5.813372786628301370e-14
5.183000000000000000e+03 6.934629058837890625e+01 -1.692806053161621094e+01 -6.708889899783437860e-14 6.274951532773270779e-14 -1.301815630426093277e-15 -3.958156586915612465e-15
5.184000000000000000e+03 3.012657356262207031e+01 -7.053166389465332031e+00 -7.205959326418362454e-14 6.061921391286098637e-14 -3.432112280737486393e-15 1.061668927684195074e-13
5.185000000000000000e+03 2.878427314758300781e+01 -4.698230266571044922e+00 -1.057978371251690197e-13 8.047317830552416784e-14 -7.597397645893455564e-15 -3.431938638983299261e-15
5.186000000000000000e+03 4.409762573242187500e+01 -8.289959907531738281e+00 8.073045270479140001e-14 -1.140918143380936778e-13 -1.000841086168293564e-14 -3.993538762485024374e-14
5.187000000000000000e+03 4.199833679199218750e+01 -1.327264785766601562e+01 -5.496611941101757493e-14 2.966997307563001840e-13 7.252008103189253041e-14 4.636469973142570700e-14
5.188000000000000000e+03 7.166097640991210938e+00 9.657278060913085938e+00 1.214880721522003382e-14 9.670852985609046382e-14 3.265719942732725478e-14 7.222546942031032868e-14
5.189000000000000000e+03 4.133269119262695312e+01 -1.847563862800598145e+00 3.479598472419867528e-14 1.491256560782767276e-14 1.491256560782767276e-14 4.866571894275063814e-14
5.190000000000000000e+03 4.374088668823242188e+01 -1.344071292877197266e+01 1.060697143724469160e-13 1.369603486612441801e-13 7.290901823248097102e-14 2.580647148883383202e-14
5.191000000000000000e+03 3.900105667114257812e+01 2.377386808395385742e+00 -7.499763546195241382e-15 -4.896513153707787724e-14 -1.693946971082806174e-14 -4.825218729350572167e-14
5.192000000000000000e+03 3.943377685546875000e+01 1.642834663391113281e+00 -1.809580520910174239e-14 -7.755344726600912203e-15 -7.755344726600912203e-15 -8.476012216586132492e-15
5.193000000000000000e+03 4.165961074829101562e+01 -3.406221628189086914e+00 8.810415233744678387e-14 -1.309477022258184742e-13 -1.285306598295104380e-14 -1.818749991377380942e-14
5.194000000000000000e+03 3.200234985351562500e+01 -9.350413322448730469e+00 -9.518022830935952971e-15 -1.551688973437572588e-14 -7.510473430780324755e-15 5.810503716629361604e-14
5.195000000000000000e+03 3.212847518920898438e+01 -1.088623905181884766e+01 -1.156321691636640406e-14 -2.051160619392228268e-13 -6.500378170850099058e-14 1.073710991807402121e-14
5.196000000000000000e+03 2.726888847351074219e+01 -1.582977771759033203e+00 3.567317882063880674e-14 6.103945745117994592e-14 2.901378884866655239e-14 2.457925288540212250e-14
5.197000000000000000e+03 3.168985748291015625e+01 -8.744874954223632812e+00 -3.827566044602333239e-14 1.551622057834739499e-13 3.506596122954293293e-14 4.191680436451718228e-14
5.198000000000000000e+03 3.985675811767578125e+01 9.421827793121337891e-01 5.494945319074739931e-14 2.065535649421398889e-13 7.845090408461347087e-14 -1.435796062121755257e-13
5.199000000000000000e+03 6.837535381317138672e+00 1.608840560913085938e+01 -7.326832283244266719e-14 1.058521353252198094e-13 9.775143917239732111e-15 1.876078367093678145e-14
5.200000000000000000e+03 8.877980232238769531e+00 1.778759384155273438e+01 1.262030281135321976e-15 -4.521007862783726905e-14 -1.318441426048861179e-14 -5.978189135131400933e-14
5.201000000000000000e+03 3.512800216674804688e+01 -1.159690952301025391e+01 -4.692734644883705952e-14 -9.445701463833486300e-14 -4.241530697089886115e-14 2.934288554322372899e-13
5.202000000000000000e+03 8.836541175842285156e+00 2.483996391296386719e+01 2.461837225503811510e-14 1.626960048075557635e-14 1.226639148192492854e-14 2.083134385203865707e-14
5.203000000000000000e+03 7.351493835449218750e+01 -1.089345359802246094e+01 8.829827196016673541e-15 6.442974951302582465e-13 1.959381956814429393e-13 -2.566883879930037526e-14
5.204000000000000000e+03 7.307113647460937500e+01 -1.043052387237548828e+01 4.208078316684203679e-14 2.239138914431407223e-13 7.979840475468708005e-14 -2.940856380032746964e-14
5.205000000000000000e+03 7.209403991699218750e+01 -1.069844627380371094e+01 -3.124376232450758184e-14 2.954287205494954272e-13 7.925548374055138567e-14 -3.890784179214068494e-14
5.206000000000000000e+03 7.669382572174072266e+00 1.700818634033203125e+01 -9.490970292666545127e-14 5.082631025581617334e-14 -1.322501847888114118e-14 5.869546656437490961e-14
5.207000000000000000e+03 7.136688995361328125e+01 -1.210987281799316406e+01 1.506882590712396719e-13 4.877769737600401445e-13 1.915395739151420917e-13 4.721129899781101313e-14
5.208000000000000000e+03 7.153932189941406250e+01 -1.731654930114746094e+01 -1.273912480495228983e-13 1.284075520609564980e-13 3.048894299548466020e-16 -8.530307536724901496e-14
5.209000000000000000e+03 8.093904495239257812e+00 9.116992950439453125e+00 -1.552772159170521388e-14 3.909621175521467429e-14 7.070546964349543398e-15 4.674360467378686768e-14
5.210000000000000000e+03 7.319290161132812500e+01 -1.920391845703125000e+01 -8.561796833572027365e-14 4.894424709273037521e-13 1.211473548432331904e-13 -1.415416720461359912e-13
5.211000000000000000e+03 7.312553405761718750e+01 -1.819565582275390625e+01 -1.102580076935491538e-13 5.475089240487840403e-13 1.311752627092960255e-13 -1.600504396983420952e-13
5.212000000000000000e+03 7.812474250793457031e+00 1.904329681396484375e+01 9.903571899735376383e-15 2.101236529607544701e-13 6.600816627230082778e-14 -6.186171722582589974e-15
5.213000000000000000e+03 7.245165348052978516e+00 1.124814510345458984e+01 6.628058620300011808e-17 1.372812589517727333e-13 4.120425992049613073e-14 2.202682413093674796e-14
5.214000000000000000e+03 6.673587799072265625e+00 1.238607501983642578e+01 -2.734285711801336116e-14 -5.746931522245674051e-14 -2.544365170214103050e-14 -9.852126506650939197e-15
5.215000000000000000e+03 7.000926017761230469e+00 2.172224235534667969e+01 -1.491513042359195879e-14 8.510970113352264721e-14 2.105837070475943817e-14 -5.632599015025288591e-14
5.216000000000000000e+03 7.053602218627929688e+00 2.000027465820312500e+01 -2.424659255382925760e-14 2.869897787298458791e-13 7.882295483636544975e-14 2.276809823846277087e-14
5.217000000000000000e+03 7.336519622802734375e+01 -1.594923114776611328e+01 6.684103216999582632e-16 4.349204644430587630e-13 1.306766652352242541e-13 -2.471342087136813026e-13
5.218000000000000000e+03 7.213805389404296875e+01 -1.707736206054687500e+01 4.980975891076197537e-14 3.416036713482090148e-13 1.174240284000649392e-13 3.954899829936714406e-14
5.219000000000000000e+03 7.037516117095947266e+00 1.188625621795654297e+01 1.341420349940862598e-15 -6.805152822546636782e-14 -2.001303209795985555e-14 1.121533896026975785e-13
5.220000000000000000e+03 6.523881912231445312e+00 1.179710865020751953e+01 -6.502324313749710538e-14 2.008876463614750474e-13 4.075932028956702480e-14 4.343755037735860802e-14
5.221000000000000000e+03 7.251733398437500000e+01 -1.332566261291503906e+01 -9.180627585187936535e-14 3.724129836978062880e-13 8.418201709716258141e-14 -7.031595222533812417e-14
5.222000000000000000e+03 7.065532684326171875e+01 -1.361852264404296875e+01 1.369604164238799604e-14 2.231867441511090067e-13 7.106483099466459619e-14 3.273101326648278353e-14
5.223000000000000000e+03 8.662852287292480469e+00 2.750279998779296875e+01 2.133868101206019829e-14 -1.373032530092811385e-14 2.282507094504451599e-15 4.337515454233206724e-14
5.224000000000000000e+03 7.119570732116699219e+00 2.591216659545898438e+01 7.769370406361317261e-14 9.048598865633514232e-14 5.045390713835813667e-14 -3.573485975985786489e-14
5.225000000000000000e+03 7.296834564208984375e+01 -1.757420539855957031e+01 -1.338022032580654663e-13 2.629128468753516579e-13 3.873318698654863723e-14 -1.048674493596413182e-13
5.226000000000000000e+03 8.508593559265136719e+00 2.298091697692871094e+01 -1.862505172333696335e-14 -9.948406031259904303e-14 -3.543273327196762301e-14 3.428731094618636677e-14
5.227000000000000000e+03 9.902597427368164062e+00 2.423966407775878906e+01 2.679598787155227767e-16 3.442805055257035229e-14 1.040880333585004341e-14 3.359639294737461201e-14
5.228000000000000000e+03 6.945018768310546875e+01 -1.506112670898437500e+01 1.984823929697268965e-15 4.812356025826747263e-13 1.449661246079314569e-13 2.075412832856695505e-14
5.229000000000000000e+03 4.268564224243164062e+01 -1.199277400970458984e+01 -5.709373403738060571e-14 -1.045329052267937597e-13 -4.848799110162595183e-14 -6.007132589752259277e-14
5.230000000000000000e+03 4.422659301757812500e+01 -1.082479286193847656e+01 3.924370390825417110e-14 1.681873024639464476e-14 1.681873024639464476e-14 -8.436104598089425033e-14
5.231000000000000000e+03 4.436570739746093750e+01 -1.295202255249023438e+01 6.712927875249588561e-14 7.452063732803562712e-14 4.249497550178581162e-14 -3.772903959197403123e-14
5.232000000000000000e+03 3.758186340332031250e+01 -1.321391201019287109e+01 -1.705688202984466384e-14 3.844085558766044408e-14 6.415192067344734073e-15 4.141182026202311350e-14
5.233000000000000000e+03 3.557207489013671875e+01 -1.134321880340576172e+01 6.512486676237688732e-14 7.366160361798462786e-14 4.163594179173481236e-14 3.395888916748156239e-14
5.234000000000000000e+03 7.102616119384765625e+01 -1.284720420837402344e+01 -7.378155872990888736e-15 6.030380188259965024e-13 1.786979581235720316e-13 3.782873875799765140e-14
5.235000000000000000e+03 2.130592727661132812e+01 2.190110206604003906e+00 3.624468550267843925e-14 -4.165524736666863237e-14 -1.623168495669586892e-15 1.282824080251973586e-13
5.236000000000000000e+03 4.259215164184570312e+01 -1.299668025970458984e+01 1.138373402297500683e-14 -1.952816570558943421e-13 -5.516937682517250585e-14 -5.648838669503226939e-14
5.237000000000000000e+03 2.446405792236328125e+01 1.043148398399353027e+00 -6.465997103521047007e-15 -4.852208925995062094e-14 -1.649642573963491093e-14 7.406992093240624686e-14
5.238000000000000000e+03 3.138011741638183594e+01 -8.094396591186523438e+00 -1.027969687996364845e-13 1.695105627451355332e-15 -3.033055916341377556e-14 -2.865680511898033300e-14
5.239000000000000000e+03 4.154403305053710938e+01 -1.278889560699462891e+01 -1.123913364041743621e-14 -2.164149122494546384e-13 -6.829621232700561206e-14 1.396749198506047618e-13
5.240000000000000000e+03 4.279253005981445312e+01 -9.942910194396972656e+00 -1.746641060138085649e-14 -1.333007190957094523e-13 -4.523013636802825088e-14 1.309617036804365878e-14
5.241000000000000000e+03 4.136557388305664062e+01 -1.337557792663574219e+01 1.372720821968221802e-14 -2.914980810984207915e-13 -8.333126398120394018e-14 4.296343893172606399e-14
5.242000000000000000e+03 4.486535644531250000e+01 -1.240056037902832031e+01 1.800174863775955147e-13 -1.435154349960915399e-14 4.969978354102226603e-14 3.217259832567591349e-14
5.243000000000000000e+03 3.840192794799804688e+01 5.138295650482177734e+00 3.681490130650645620e-14 1.187174544867858339e-13 4.665970436629543472e-14 -9.253292847666988452e-14
5.244000000000000000e+03 4.062200164794921875e+01 -1.351282501220703125e+01 -7.541273242808385624e-14 5.918215814334007452e-14 -4.869172285423134516e-15 1.706436234720845602e-13
5.245000000000000000e+03 7.768913745880126953e+00 1.997452163696289062e+01 -6.498215865142348280e-14 -9.647592105624727687e-14 -4.843742323467487010e-14 -6.383558097270217169e-14
5.246000000000000000e+03 3.106676673889160156e+01 -7.405141830444335938e+00 -5.574344493484463536e-14 1.705514798399504484e-13 3.444241284322399621e-14 -1.206156366868578814e-14
5.247000000000000000e+03 3.046984291076660156e+01 -7.783296585083007812e+00 -1.103743629154475825e-13 -9.305424676251880522e-14 -6.102858154813720071e-14 -1.609148876429919439e-13
5.248000000000000000e+03 7.170975494384765625e+01 -1.139456462860107422e+01 1.095338080761738830e-13 6.302676479677526977e-13 2.219404402013097632e-13 8.009308412890506212e-14
5.249000000000000000e+03 3.800793838500976562e+01 6.013380050659179688e+00 8.998838051674576399e-14 3.130721322377322258e-13 1.209181545039697547e-13 -8.360297351595828014e-15
5.250000000000000000e+03 1.470201683044433594e+01 7.572831153869628906e+00 1.078062284760742187e-14 5.037121639391538286e-14 1.834555117953377834e-14 7.544871438768321892e-14
5.251000000000000000e+03 3.616159820556640625e+01 -1.196246719360351562e+01 -4.929898110290868718e-14 -1.126300319827765184e-13 -4.857870494214509838e-14 2.057261153966261080e-13
5.252000000000000000e+03 3.348393630981445312e+01 -1.044879817962646484e+01 -5.552504934785637558e-14 -2.525511809230163163e-13 -9.242287517989902779e-14 1.500983446691903089e-13
5.253000000000000000e+03 7.540695667266845703e+00 1.396060180664062500e+01 -2.174604964958089248e-14 1.279331051902768412e-13 3.185611971152739474e-14 5.203515163242425356e-14
5.254000000000000000e+03 1.880667686462402344e+01 6.866229534149169922e+00 2.366742191768286818e-14 -8.135871398242885966e-14 -1.730738863586333415e-14 3.105455888101349426e-14
5.255000000000000000e+03 1.826976776123046875e+01 5.412075996398925781e+00 -1.803556422589301655e-14 -7.729528009401548383e-15 -7.729528009401548383e-15 9.753242186322577667e-14
5.256000000000000000e+03 3.630859756469726562e+01 1.186708736419677734e+01 -7.435528802640211515e-15 -4.893760296629211248e-14 -1.691193944597640247e-14 -7.766160490304402364e-14
5.257000000000000000e+03 3.673031234741210938e+01 9.820554733276367188e+00 9.689061483469582625e-14 1.330264430511249318e-13 6.897511939862530084e-14 -8.171991593619240546e-14
5.258000000000000000e+03 2.670025825500488281e+01 -2.065527915954589844e+00 -5.901685119335392526e-14 -1.625457852084261079e-13 -6.646878956528129434e-14 4.109812669220516690e-14
5.259000000000000000e+03 1.790174674987792969e+01 7.356713294982910156e+00 2.106846733749070943e-14 1.920331434016389616e-13 6.393048254411254350e-14 9.553835045132685888e-14
5.260000000000000000e+03 3.577268600463867188e+01 1.866380500793457031e+01 1.024606713085881096e-14 5.014212108673740675e-14 1.811645587235580224e-14 -1.106253692709051328e-13
5.261000000000000000e+03 3.728094863891601562e+01 5.696377754211425781e+00 1.177972649979430741e-13 1.877373853164526762e-13 9.166039644957144072e-14 -5.869964751900255684e-14
5.262000000000000000e+03 1.992027282714843750e+01 3.977079868316650391e+00 1.066360202721904071e-13 -9.298140870531851343e-14 4.096383893578041738e-15 1.362360338473880828e-13
5.263000000000000000e+03 1.999163436889648438e+01 4.949419021606445312e+00 1.297574938799840941e-14 -1.116757714406634017e-13 -2.961000517584348735e-14 4.417602080582921920e-14
5.264000000000000000e+03 2.593555259704589844e+01 9.080482125282287598e-01 -3.062906373842155805e-14 9.748732582911395772e-15 -6.264100024279406487e-15 -2.821991738324782645e-14
5.265000000000000000e+03 2.591919898986816406e+01 -6.575264930725097656e-01 4.161426113641689128e-14 6.358563171436279471e-14 3.155996649998119019e-14 8.778237468518024222e-14
5.266000000000000000e+03 4.023758697509765625e+01 -1.271915531158447266e+01 -6.633229528802894737e-14 -2.842812655201240601e-14 -2.842812655201240601e-14 7.814103232745353567e-14
5.267000000000000000e+03 2.587194824218750000e+01 7.866838574409484863e-02 7.656413480647272785e-14 -1.273151235044872598e-13 -1.522529694821753848e-14 2.127470969575176452e-14
5.268000000000000000e+03 7.264328002929687500e+01 -1.612586784362792969e+01 -5.452032935900942567e-14 3.426417407182552610e-13 8.643641900320242488e-14 6.759449635218225949e-14
5.269000000000000000e+03 7.065016937255859375e+01 -1.727880477905273438e+01 -1.778466967878450378e-14 3.812894756329530954e-14 6.103283619463125906e-15 -6.777700823539303809e-14
5.270000000000000000e+03 2.814197921752929688e+01 -2.875898122787475586e+00 1.321805502102176358e-14 1.429177278909274373e-13 4.684073563591441280e-14 1.059336537760635633e-13
5.271000000000000000e+03 2.686296272277832031e+01 -8.998435139656066895e-01 -4.755681051325962028e-14 -1.576343358145396167e-13 -6.155734694765838122e-14 3.443721206092785481e-14
5.272000000000000000e+03 3.388961410522460938e+01 -1.215142726898193359e+01 4.045316531297964147e-14 -7.416482928008019671e-14 -1.011349885131698767e-14 1.004773182516037477e-13
5.273000000000000000e+03 7.756475925445556641e+00 2.180199241638183594e+01 6.797686735336358477e-15 -6.571312775611320989e-14 -1.767463332267259213e-14 3.595127667788133863e-14
5.274000000000000000e+03 1.883718681335449219e+01 7.593168735504150391e+00 9.648840293375801624e-14 2.929823809776077592e-13 1.168412426272996685e-13 4.546126116614784829e-14
5.275000000000000000e+03 1.679583168029785156e+01 7.638891220092773438e+00 1.552692165378982692e-13 1.580458447491064899e-13 9.399452109660685895e-14 7.512442951789280454e-14
5.276000000000000000e+03 4.252116394042968750e+01 -5.978192806243896484e+00 9.090238327694177833e-14 -7.541920375980087909e-14 4.644953770438975046e-15 -1.023433521631957055e-13
5.277000000000000000e+03 4.272941970825195312e+01 -6.853762626647949219e+00 -1.062599190088846582e-14 -1.418068407924716334e-13 -4.572985192559039791e-14 -8.376171934873499758e-14
5.278000000000000000e+03 9.139842987060546875e+00 8.802947044372558594e+00 -3.087801010975138594e-14 -5.898437933828798441e-14 -2.695871751203816891e-14 5.977111031596135660e-14
5.279000000000000000e+03 4.331948852539062500e+01 -9.583228111267089844e+00 2.653079562005234912e-15 -1.704290192045682106e-13 -5.033278481503256074e-14 -8.441836639450084334e-14
5.280000000000000000e+03 3.763899612426757812e+01 6.922410011291503906e+00 8.350341495740390418e-14 9.297586572171168129e-14 5.294378420373467564e-14 4.370182126877016071e-14
5.281000000000000000e+03 3.769491195678710938e+01 4.810854434967041016e+00 1.848658555338340836e-14 1.909266202169274118e-13 6.282395935940099374e-14 -7.874172776485555136e-14
5.282000000000000000e+03 8.777038574218750000e+00 2.868132019042968750e+01 7.548616002021543703e-14 1.009776368966243398e-13 5.293913907505193306e-14 3.206223670891225619e-14
5.283000000000000000e+03 4.374916839599609375e+01 -1.122276592254638672e+01 1.125886493411054623e-13 -1.612012796468539899e-13 -1.458379146341681060e-14 1.635780032748727214e-14
5.284000000000000000e+03 3.524460220336914062e+01 1.271503162384033203e+01 -3.920879259830013785e-14 -1.680376825641434479e-14 -1.680376825641434479e-14 -4.682106075461558992e-14
5.285000000000000000e+03 2.309972190856933594e+01 1.855435013771057129e+00 -5.710050352469506207e-14 2.127930400245767184e-14 -1.074635951785803817e-14 1.432485721838613890e-13
5.286000000000000000e+03 1.166799926757812500e+01 8.938426971435546875e+00 -7.460347715027709770e-14 5.952898086579103132e-14 -4.522348292422756835e-15 2.443559948567958218e-14
5.287000000000000000e+03 1.394845008850097656e+01 8.468755722045898438e+00 -4.930020083035273337e-14 -2.112865749872260002e-14 -2.112865749872260002e-14 1.646803488930884130e-14
5.288000000000000000e+03 3.650098800659179688e+01 1.083452415466308594e+01 6.633135338739160058e-14 1.885560392718421685e-13 7.646621779777013073e-14 -5.739520322770377825e-14
5.289000000000000000e+03 1.121313858032226562e+01 8.362364768981933594e+00 1.202499048008924196e-14 9.379603078387907522e-14 3.174630697211355823e-14 3.513598036109476241e-14
5.290000000000000000e+03 1.069626235961914062e+01 7.843885898590087891e+00 -8.115112314771577573e-14 -3.477905422964895632e-14 -3.477905422964895632e-14 5.144397006908579817e-14
5.291000000000000000e+03 2.975696754455566406e+01 -6.281155109405517578e+00 -2.172854452787975621e-13 -1.388732743167961359e-13 -1.068476158786781094e-13 -8.916142563847317959e-14
5.292000000000000000e+03 2.933847618103027344e+01 -5.450756072998046875e+00 2.286257798746541003e-14 1.470510995957297062e-13 5.097410056445310367e-14 5.296480417335373836e-14
5.293000000000000000e+03 3.596087646484375000e+01 1.511161899566650391e+01 6.228588337372359396e-14 2.096977376898206957e-13 8.159509038482143373e-14 -8.297889827514615124e-14
5.294000000000000000e+03 3.500986480712890625e+01 1.619848823547363281e+01 1.722197552752810501e-14 9.888274145894784817e-14 3.483141780644821717e-14 -1.205395917629192848e-13
5.295000000000000000e+03 3.794355010986328125e+01 2.132193756103515625e+01 -2.899609136578309466e-15 9.025920744316906497e-14 2.620788040253764495e-14 5.314482577969958932e-14
5.296000000000000000e+03 3.517140579223632812e+01 1.945681571960449219e+01 4.777281069107304490e-14 1.434297423668837168e-13 5.736076625620020741e-14 -7.894885103738175092e-14
5.297000000000000000e+03 3.472653198242187500e+01 2.590672302246093750e+01 3.765839026790944455e-15 1.388667826562883789e-13 4.278978362501177635e-14 -1.672055743374197684e-14
5.298000000000000000e+03 1.037166404724121094e+01 3.572926330566406250e+01 4.053672341916038369e-14 -1.694033029630247211e-14 7.078917767450784021e-15 1.196121398135867667e-14
5.299000000000000000e+03 3.544464874267578125e+01 2.123417663574218750e+01 4.587147922250310594e-14 1.569120538797569298e-13 6.083505823661211620e-14 -7.024851485020952579e-14
5.300000000000000000e+03 3.755214691162109375e+01 2.391352081298828125e+01 -6.770240834966245735e-14 2.912413149189219119e-13 6.706167874704141441e-14 -4.238676873683996926e-14
5.301000000000000000e+03 3.719222640991210938e+01 2.149845695495605469e+01 2.685302812901156633e-14 1.830745028231356430e-13 6.297826165733641512e-14 -7.759952755240565048e-14
5.302000000000000000e+03 3.713855361938476562e+01 2.299433898925781250e+01 1.556202388497017128e-15 1.493575228772581198e-13 4.527411770678148317e-14 -2.140704673529898738e-14
5.303000000000000000e+03 7.252189636230468750e+00 4.139603805541992188e+01 -1.453858700908774310e-14 5.206913967646577962e-15 -2.799502124190586354e-15 -8.796366006468339660e-15
5.304000000000000000e+03 6.667761325836181641e+00 3.943339538574218750e+01 1.872790354599026402e-14 1.452790931175465539e-13 4.920209747440174031e-14 6.031868577614221336e-15
5.305000000000000000e+03 3.615099716186523438e+01 2.805175781250000000e+01 5.237664228247224454e-15 1.623730311447676988e-13 5.028320967069566105e-14 -1.084601717926724287e-14
5.306000000000000000e+03 4.644548797607421875e+01 4.090799713134765625e+01 7.243714634196096736e-14 1.511407372953993411e-13 6.707336102544994572e-14 2.840516518287823644e-14
5.307000000000000000e+03 4.143128585815429688e+01 -4.541868686676025391e+00 9.645282077370975760e-14 -5.016497403565432778e-14 1.388635300497709224e-14 -3.256283656887133671e-14
5.308000000000000000e+03 4.006402587890625000e+01 -7.242809534072875977e-01 4.022944019468725763e-14 -1.200116530675546245e-13 -2.393466589473928346e-14 -7.816190321927388163e-14
5.309000000000000000e+03 4.157948684692382812e+01 -5.275730609893798828e+00 8.917865090048854304e-14 -9.903342523213259918e-14 -2.956433612394285086e-15 4.581078761776644082e-14
5.310000000000000000e+03 4.230410766601562500e+01 -5.194487571716308594e+00 1.071333302561823519e-13 9.166523470176615729e-14 5.963956948738455277e-14 -1.578463244443148450e-13
5.311000000000000000e+03 7.021105194091796875e+01 -1.681884384155273438e+01 -3.531041832625231303e-14 2.536537874273797621e-13 6.550300937508551913e-14 -5.792047207521869301e-14
5.312000000000000000e+03 8.899427413940429688e+00 1.056382656097412109e+01 1.803041257150781590e-14 5.347826876971571719e-14 2.145260355533411267e-14 1.594768560915157951e-14
5.313000000000000000e+03 3.969392776489257812e+01 -6.682255119085311890e-02 -3.053730296517960519e-14 7.841448166788153595e-14 1.436315293318422143e-14 -1.511202594268665211e-13
5.314000000000000000e+03 3.904762649536132812e+01 -1.682143449783325195e+00 6.580540945461772415e-15 4.857117990144169117e-14 1.654551638112598116e-14 -9.557908257169442368e-14
5.315000000000000000e+03 4.385520935058593750e+01 -9.259911537170410156e+00 9.158442945266399154e-15 3.925046916040389119e-15 3.925046916040389119e-15 1.294166224110205460e-14
5.316000000000000000e+03 4.346931838989257812e+01 -8.552300453186035156e+00 2.794889563924665699e-14 5.772904940540279917e-14 2.570338249695530014e-14 -7.302536667811582172e-14
5.317000000000000000e+03 8.466039657592773438e+00 1.913207244873046875e+01 3.151290873756353028e-14 1.350553207408924233e-14 1.350553207408924233e-14 1.044613817647276066e-13
5.318000000000000000e+03 7.403044700622558594e+00 1.636287689208984375e+01 -5.756604638503318161e-14 -2.467116273644279212e-14 -2.467116273644279212e-14 3.611057985833734940e-14
5.319000000000000000e+03 3.265646362304687500e+01 -1.037680625915527344e+01 -8.206614234744849523e-14 -1.495485728525772218e-13 -6.948441659288678851e-14 9.647326476092468739e-14
5.320000000000000000e+03 3.337127685546875000e+01 -1.233242416381835938e+01 5.505939129103742946e-14 -2.509088043670809620e-13 -5.875482663331849098e-14 2.090915602551840502e-13
5.321000000000000000e+03 3.834485244750976562e+01 2.010082721710205078e+00 1.245080918926702931e-14 -1.753941298297291562e-14 -1.526581328694179025e-15 -7.528075114237448018e-14
5.322000000000000000e+03 4.178520202636718750e+01 -6.051949024200439453e+00 3.060934481140947794e-14 -9.757183430626151927e-15 6.255648753048176705e-15 -8.493784153665653869e-14
5.323000000000000000e+03 3.953131866455078125e+01 -9.512115716934204102e-01 1.624423523211709908e-14 1.670901372992361633e-13 5.500031243703233652e-14 -7.339693631515376016e-14
5.324000000000000000e+03 4.036394882202148438e+01 -1.450378417968750000e+00 -4.508034367350401139e-14 -1.108220435449940033e-13 -4.677071650436258332e-14 -1.085779280070656161e-13
5.325000000000000000e+03 2.164157867431640625e+01 4.210790634155273438e+00 8.067857363083796862e-14 -1.484272638607384009e-13 -2.032460639134377189e-14 1.705011050965113406e-13
5.326000000000000000e+03 7.772945404052734375e+00 9.862387657165527344e+00 -8.085657082843988180e-15 -2.207822818881335913e-13 -6.866038228421633693e-14 8.509385822927720278e-14
5.327000000000000000e+03 7.836115360260009766e+00 1.564143943786621094e+01 -4.405227268036715493e-14 -1.887954616047130690e-14 -1.887954616047130690e-14 8.596373396105305709e-14
5.328000000000000000e+03 3.226140594482421875e+01 -8.373528480529785156e+00 -5.160332068338685518e-14 2.363523974788488830e-14 -8.390423772430821714e-15 -2.812796687462568862e-14
5.329000000000000000e+03 3.232374572753906250e+01 -9.897680282592773438e+00 -4.232408491061136202e-14 1.534271705993725532e-13 3.333092265730974724e-14 3.229833528449813085e-14
5.330000000000000000e+03 7.779250621795654297e+00 2.088592529296875000e+01 3.303717501933374490e-14 1.285361655436675909e-13 4.847199911958179064e-14 -4.592608404848080167e-15
5.331000000000000000e+03 4.325420761108398438e+01 -1.059426116943359375e+01 5.329876554753358586e-14 6.859327694600306224e-14 3.656761173162145773e-14 -6.424511801456783688e-14
5.332000000000000000e+03 3.433550262451171875e+01 -1.165061283111572266e+01 3.519077661651853761e-14 -2.136729785077659538e-13 -5.354466260025329827e-14 8.732923238718992565e-14
5.333000000000000000e+03 4.377016448974609375e+01 -1.227505111694335938e+01 1.034105662428910777e-13 -4.718308263627207788e-14 1.686824609842523665e-14 4.222797038802052205e-14
5.334000000000000000e+03 4.428716278076171875e+01 -1.183086967468261719e+01 1.115418318147799737e-13 2.052692868112493407e-15 3.407835808249409792e-14 -6.594939573828853541e-14
5.335000000000000000e+03 9.724718093872070312e+00 9.255514144897460938e+00 -3.436377769253269598e-14 -6.047828118296502686e-14 -2.845261935671521136e-14 2.416529433155178985e-14
5.336000000000000000e+03 8.538063049316406250e+00 1.683702468872070312e+01 -4.372019849559379001e-14 -1.873722768467363936e-14 -1.873722768467363936e-14 8.051220958373364600e-14
5.337000000000000000e+03 3.616274261474609375e+01 -1.125934410095214844e+01 -5.592773558724464800e-14 -2.396902832734349592e-14 -2.396902832734349592e-14 1.938305879732940551e-13
5.338000000000000000e+03 8.021402359008789062e+00 1.078586959838867188e+01 4.768689783329893572e-14 1.119391377008872868e-13 4.788781066025586675e-14 6.755526856232901833e-14
5.339000000000000000e+03 7.737700939178466797e+00 1.779346084594726562e+01 -3.614747661351974672e-14 -1.069936714638390629e-13 -4.294234442320764289e-14 8.944349438617243964e-15
5.340000000000000000e+03 7.189254760742187500e+01 -1.633712196350097656e+01 -3.715389066826120523e-14 7.557879831959074535e-14 1.152747297302521984e-14 -1.213980630430933072e-13
5.341000000000000000e+03 8.208554267883300781e+00 1.227930545806884766e+01 -6.802700492757746131e-14 -1.435318064488960710e-13 -6.346764341294205969e-14 8.137568174642825780e-14
5.342000000000000000e+03 7.556005001068115234e+00 1.214590835571289062e+01 -1.013502433019897175e-13 -4.343581904201442023e-14 -4.343581904201442023e-14 2.559642595263960513e-14
5.343000000000000000e+03 4.304947662353515625e+01 -7.747429370880126953e+00 9.407072018054185580e-14 2.887828729402838746e-14 3.688470020949199957e-14 2.994030059142761824e-14
5.344000000000000000e+03 4.097171020507812500e+01 -1.225148773193359375e+01 1.948662992036151453e-14 3.694575434433008954e-14 1.692971527940748122e-14 1.452484915112281505e-13
5.345000000000000000e+03 7.245989227294921875e+01 -1.536710453033447266e+01 -4.028199011873491442e-14 3.487438744904924892e-13 9.253856632796680914e-14 -1.316279306688358797e-13
5.346000000000000000e+03 9.688156127929687500e+00 2.722733497619628906e+01 5.588179252018557475e-14 4.682481480463782098e-14 3.081198219744701872e-14 5.467435044200635863e-14
5.347000000000000000e+03 7.949652194976806641e+00 2.547052192687988281e+01 -5.554825466247935439e-14 -1.153082891756224138e-13 -5.125696213499099374e-14 6.198191374214012672e-14
5.348000000000000000e+03 3.782814407348632812e+01 -1.186336421966552734e+01 -2.109240152396480057e-15 -9.240585998205458340e-14 -2.835452955329137437e-14 1.296619468694679145e-13
5.349000000000000000e+03 3.536638259887695312e+01 -1.082279777526855469e+01 -1.423488876686057614e-13 -2.668859328414791010e-13 -1.227704461530254587e-13 1.580848895798431242e-13
5.350000000000000000e+03 1.548583889007568359e+01 8.704333305358886719e+00 -5.303467761523864010e-14 2.060255991417209165e-13 4.589727645794468291e-14 -9.853671155933552139e-14
5.351000000000000000e+03 1.468972587585449219e+01 9.141050338745117188e+00 -2.282385841738052146e-14 1.732221408413253672e-13 4.511948337193073810e-14 -2.282966567526689694e-14
5.352000000000000000e+03 3.902104568481445312e+01 -1.231102943420410156e+01 -1.002555175921675257e-13 -1.344685539132750574e-13 -7.041721670824827028e-14 4.090012765858679067e-14
5.353000000000000000e+03 7.039593505859375000e+01 -1.442935371398925781e+01 2.972852880208688708e-14 5.160012499748345416e-13 1.637189326166368919e-13 -7.609399763942870099e-14
5.354000000000000000e+03 7.099667358398437500e+01 -1.544310760498046875e+01 -2.685004149083954766e-14 3.545004188202499629e-13 9.829511743398786083e-14 -1.304538616887784830e-13
5.355000000000000000e+03 3.812440872192382812e+01 3.962257862091064453e+00 3.519326689338346525e-14 1.065847239569046867e-13 4.253339691627326669e-14 -1.443661677832594470e-13
5.356000000000000000e+03 3.867713928222656250e+01 1.545293182134628296e-01 -5.702851250044202458e-14 -2.444079010358035653e-14 -2.444079010358035653e-14 -1.273402312551097718e-14
5.357000000000000000e+03 3.695631790161132812e+01 -1.201907253265380859e+01 -3.655623438507393796e-14 -3.854243177869517978e-14 -2.252960086557027203e-14 1.383941111666661672e-13
5.358000000000000000e+03 8.073507308959960938e+00 1.477430152893066406e+01 -7.370465322049588042e-14 1.416324129917094499e-14 -1.786242222114476502e-14 2.718783823020456264e-14
5.359000000000000000e+03 2.525200462341308594e+01 1.552778840065002441e+00 -9.504516721185393702e-14 -1.322355446713510685e-13 -6.818421424258785946e-14 -1.545338564144099758e-13
5.360000000000000000e+03 2.468801116943359375e+01 1.742775559425354004e+00 9.325659107515659602e-15 9.549860766544168711e-14 3.144728062481026709e-14 7.794370753206117386e-14
5.361000000000000000e+03 3.699755477905273438e+01 8.830957412719726562e+00 2.175251488266069511e-13 3.219798017616015695e-13 1.618514892422207030e-13 -1.008257469485226987e-13
5.362000000000000000e+03 2.769410514831542969e+01 -2.240388870239257812e+00 -6.137040338806756812e-14 -1.635544455945436848e-13 -6.747745672766244929e-14 9.955965630907559483e-14
5.363000000000000000e+03 6.957876586914062500e+01 -1.441078472137451172e+01 1.021601016672549211e-14 4.161368244350732715e-13 1.279058510581659869e-13 1.844941571477881626e-13
5.364000000000000000e+03 6.973055267333984375e+01 -1.648851585388183594e+01 -1.215886251274347907e-13 8.514343337361410247e-14 -1.093355634030008031e-14 -1.165425991388885363e-13
5.365000000000000000e+03 6.920081329345703125e+01 -1.637484359741210938e+01 4.268847848452016203e-14 3.385516964427709441e-13 1.143720534946268685e-13 -1.323409951910865454e-14
5.366000000000000000e+03 3.074273490905761719e+01 -6.675029754638671875e+00 -5.706532116419790746e-14 1.013585442248728097e-13 1.328796742642223902e-14 -1.292322775485119091e-13
5.367000000000000000e+03 7.176326751708984375e+01 -1.556891059875488281e+01 8.205884431157495218e-14 3.096737818432393485e-13 1.175197905569497214e-13 1.524611532399515468e-14
5.368000000000000000e+03 2.006349945068359375e+01 5.974702358245849609e+00 -4.233509295079387891e-14 -1.039266397007305998e-13 -4.387851911783098580e-14 5.641933148697441530e-15
5.369000000000000000e+03 2.042135620117187500e+01 3.511317968368530273e+00 -5.090672777558673343e-16 7.412711937326843525e-14 2.208541509396422242e-14 1.737276365517195775e-13
5.370000000000000000e+03 1.226795768737792969e+01 8.455307006835937500e+00 1.680680402249730421e-14 -4.234820840894916449e-15 3.771595039184011053e-15 1.720431319651195834e-14
5.371000000000000000e+03 3.730118179321289062e+01 7.864021778106689453e+00 8.208349635847184134e-14 3.517864032845027800e-14 3.517864032845027800e-14 -3.559907360214942251e-14
5.372000000000000000e+03 3.742657470703125000e+01 3.608507633209228516e+00 4.124476164790204236e-14 2.121178531216613705e-13 7.600878612493491837e-14 -6.042606414286564101e-15
5.373000000000000000e+03 8.573050498962402344e+00 2.185332107543945312e+01 1.870476429993717105e-14 1.223936994506139020e-13 4.232953980279167971e-14 -2.588531500963015680e-14
5.374000000000000000e+03 8.295913696289062500e+00 1.158538341522216797e+01 -1.098901921065334464e-14 -5.046052754787387629e-14 -1.843486402755816628e-14 1.449307389595269613e-13
5.375000000000000000e+03 8.941754341125488281e+00 1.302941608428955078e+01 3.167679944846187035e-14 1.357577058717441068e-14 1.357577058717441068e-14 5.685039841229339030e-14
5.376000000000000000e+03 7.203208923339843750e+01 -1.236630153656005859e+01 -2.665652834370983021e-14 6.748400124302611491e-13 1.944550477670642374e-13 4.268830568979892215e-14
5.377000000000000000e+03 4.234370803833007812e+01 -9.273990631103515625e+00 9.045910721872107985e-14 -1.899865491707466991e-13 -2.985823326323404359e-14 -5.783751028023281782e-14
5.378000000000000000e+03 1.943929481506347656e+01 5.450679302215576172e+00 -3.583021195279617599e-14 -1.268737448000684109e-13 -4.881118499298030267e-14 6.710129278391860352e-14
5.379000000000000000e+03 7.121762084960937500e+01 -1.463581371307373047e+01 -1.950163087385738819e-14 2.432723889955051844e-13 6.713122354014278148e-14 2.407600350638403053e-14
5.380000000000000000e+03 1.807530212402343750e+01 6.770558357238769531e+00 -4.081597324121118142e-14 2.825838961971211677e-14 -3.767275171153014121e-15 1.577532456878069644e-13
5.381000000000000000e+03 3.543875503540039062e+01 1.164369773864746094e+01 7.820323842709989148e-14 1.478930503453004808e-13 6.782888730934646948e-14 -1.134574408707088311e-13
5.382000000000000000e+03 3.565718460083007812e+01 1.058955764770507812e+01 1.111309801777801698e-13 1.391294577376273045e-13 7.507813408512767350e-14 -5.913996235003965429e-14
5.383000000000000000e+03 2.579249382019042969e+01 2.573908090591430664e+00 -1.062304168513317909e-14 8.694916531562513207e-14 2.289783658092781754e-14 1.130128298885632598e-13
5.384000000000000000e+03 1.017562866210937500e+01 8.539012908935546875e+00 -9.632506110020949697e-14 1.417216225017142728e-13 1.361896842045143274e-14 9.955876184228329429e-14
5.385000000000000000e+03 2.784239387512207031e+01 -1.083253622055053711e+00 -3.735818485074357542e-14 -6.176159708442749419e-14 -2.973593525817767869e-14 8.455531468141291862e-14
5.386000000000000000e+03 2.700807380676269531e+01 3.117029964923858643e-01 -3.449641288767735237e-14 -1.478417743588054944e-14 -1.478417743588054944e-14 3.249250572919491764e-14
5.387000000000000000e+03 2.906085586547851562e+01 -2.909744739532470703e+00 3.354279609060414891e-14 6.012643047293916854e-14 2.810076864668935304e-14 -2.158082570882357415e-14
5.388000000000000000e+03 2.864643859863281250e+01 -2.353002548217773438e+00 -4.497013113453907085e-14 -1.565257661982275006e-13 -6.044877055508268704e-14 -7.833582957653129064e-14
5.389000000000000000e+03 2.824264907836914062e+01 -1.733329057693481445e+00 -4.281991428101150632e-14 2.739955750350256403e-14 -4.626107287362566864e-15 9.049334090231730965e-14
5.390000000000000000e+03 2.645416831970214844e+01 -2.219077795743942261e-01 4.786993826506880101e-14 -7.098621278463224105e-14 -6.934881932352558384e-15 6.027572511209042250e-14
5.391000000000000000e+03 1.861603927612304688e+01 8.393895149230957031e+00 2.889231754776670769e-14 1.238242144317161161e-14 1.238242144317161161e-14 4.900471846890075422e-14
5.392000000000000000e+03 8.464657783508300781e+00 1.995367622375488281e+01 -5.816028404324533052e-14 -9.355226147792286562e-14 -4.551376365635045884e-14 7.199108523940969673e-14
5.393000000000000000e+03 7.175931549072265625e+01 -1.310938072204589844e+01 -1.275932738777725214e-14 2.690373965275050239e-13 7.688342557000613087e-14 9.131110039091450137e-14
5.394000000000000000e+03 3.040581130981445312e+01 -5.898128986358642578e+00 -5.888142756574690773e-14 -1.853632129516710747e-13 -7.327339147759903693e-14 5.227087073724975830e-14
5.395000000000000000e+03 3.444459152221679688e+01 1.865155220031738281e+01 -1.544025358143994581e-14 -6.617251353395773791e-15 -6.617251353395773791e-15 -5.975738160595225890e-14
5.396000000000000000e+03 3.362536239624023438e+01 1.951506805419921875e+01 4.763086829790395826e-14 2.034170222672479489e-13 7.531436818598510885e-14 -8.144944137547516227e-14
5.397000000000000000e+03 4.194010543823242188e+01 -6.876724243164062500e+00 1.203048755451033291e-13 2.868375770736196484e-14 4.469659031455276710e-14 -1.724282947868950588e-14
5.398000000000000000e+03 3.446549606323242188e+01 2.043025588989257812e+01 3.497440374420832110e-14 1.751173533438843410e-13 6.302752509354872523e-14 -3.458128558899223326e-14
5.399000000000000000e+03 3.697609710693359375e+01 4.466106891632080078e+00 7.104099887566064919e-14 1.791367211902497592e-13 7.505331940790491152e-14 -9.004944142784743200e-14
5.400000000000000000e+03 4.323471450805664062e+01 -1.161546230316162109e+01 6.658325420964145147e-14 -1.721526872065174546e-14 1.481039479966396455e-14 -5.076885092880623063e-14
5.401000000000000000e+03 3.822057723999023438e+01 -1.267259407043457031e+01 -5.930093249133586153e-14 7.752494799546580384e-14 5.467204651238982693e-15 7.561434659832111382e-14
5.402000000000000000e+03 1.626967430114746094e+01 9.169381141662597656e+00 -2.903048217399104014e-14 3.330931315275939553e-14 1.283648997168975077e-15 4.847471301314479342e-15
5.403000000000000000e+03 1.654701805114746094e+01 8.367813110351562500e+00 -6.757571932580752616e-14 1.997937270270186416e-13 3.966540095511061903e-14 3.944564672727496335e-14
5.404000000000000000e+03 8.530194282531738281e+00 2.085677337646484375e+01 6.641210103825335304e-15 2.846232931890606103e-15 2.846232931890606103e-15 9.980700178813511209e-15
5.405000000000000000e+03 2.411564445495605469e+01 2.077421188354492188e+00 -1.386011260189751182e-13 1.693542631435104862e-13 9.225942153800147094e-15 -1.569397150111989398e-15
5.406000000000000000e+03 3.689059448242187500e+01 6.616833209991455078e+00 1.248524531373765289e-13 9.925914257191692514e-14 6.723347735753532062e-14 -8.502160970700819997e-14
5.407000000000000000e+03 3.055181694030761719e+01 -3.327575445175170898e+00 -6.754853295633245214e-14 -2.894937029896196834e-14 -2.894937029896196834e-14 9.935548240527173475e-15
5.408000000000000000e+03 2.921995735168457031e+01 -4.000451087951660156e+00 -6.421349996871272836e-14 1.823087816506859665e-14 -1.379478535524711336e-14 -1.113142747194342114e-14
5.409000000000000000e+03 3.232006835937500000e+01 -1.190998172760009766e+01 -3.554955605605293611e-14 -1.524883734907445110e-13 -5.641137784759969742e-14 1.514790219257419746e-13
5.410000000000000000e+03 3.480471038818359375e+01 -1.117697334289550781e+01 -1.267705558583021030e-13 3.717166141949460045e-14 -2.687966731520271407e-14 7.099205392383650670e-14
5.411000000000000000e+03 9.840999603271484375e+00 3.152810287475585938e+01 3.805202341915746300e-15 1.306853845923832899e-14 5.062122155642927862e-15 7.319303854409070498e-14
5.412000000000000000e+03 8.738535881042480469e+00 2.994553184509277344e+01 -2.019327054474020361e-14 -3.152973420002778970e-14 -1.551690159283698744e-14 9.672886542308814506e-14
5.413000000000000000e+03 3.524764251708984375e+01 1.785660171508789062e+01 -5.010135169692016277e-14 9.290536547544581136e-14 1.284120328652474732e-14 -1.009206078623516023e-13
5.414000000000000000e+03 3.591191864013671875e+01 9.556658744812011719e+00 1.046158534692524789e-13 1.477749942812439654e-13 7.571725771328072230e-14 -6.799257473233746851e-14
5.415000000000000000e+03 3.620385742187500000e+01 8.550572395324707031e+00 4.740560496777936061e-14 6.606763476146165770e-14 3.404197293521184220e-14 -3.825598556472450951e-14
5.416000000000000000e+03 2.117222785949707031e+01 4.885495662689208984e+00 1.270894739273387142e-13 -1.056614038342888751e-13 6.428421027914951735e-15 3.378792064927596539e-14
5.417000000000000000e+03 3.411754226684570312e+01 1.352603626251220703e+01 3.581187538355401490e-14 6.109889883528646370e-14 2.907323023277307017e-14 -5.450326672731993505e-14
5.418000000000000000e+03 3.494232177734375000e+01 1.504357337951660156e+01 5.107459594144714288e-14 1.362664863759077694e-13 5.620232333995375806e-14 -8.142884831046151572e-14
5.419000000000000000e+03 3.349557495117187500e+01 1.422176361083984375e+01 9.255463962517390675e-14 1.311681747375934015e-13 6.711684430883019248e-14 -5.190506770051672714e-14
5.420000000000000000e+03 8.379434585571289062e+00 2.641407775878906250e+01 8.424149236258698936e-14 9.329218170553432721e-14 5.326010357568911058e-14 3.983420106897124502e-14
5.421000000000000000e+03 3.414359283447265625e+01 1.629765319824218750e+01 8.757823974489195584e-14 1.465805761816617314e-14 3.067089022535697540e-14 -5.603750089281343827e-14
5.422000000000000000e+03 3.597252655029296875e+01 1.626668167114257812e+01 6.815114607632705157e-14 1.207095269009292315e-13 5.665820324842960054e-14 -1.031964295375616125e-13
5.423000000000000000e+03 3.569014358520507812e+01 2.315592765808105469e+01 2.461329852768406184e-14 2.393032874723616255e-13 7.917498172924433697e-14 -2.912190413405409128e-14
5.424000000000000000e+03 3.623746490478515625e+01 3.012532997131347656e+01 3.942982415182025302e-15 1.732559137389982906e-13 5.315966579693548466e-14 -2.452758387561961018e-14
5.425000000000000000e+03 3.433544540405273438e+01 2.769529151916503906e+01 1.070911209103547757e-14 1.647179436034193478e-13 5.262811535308373201e-14 -1.808966422023414872e-14
5.426000000000000000e+03 3.466641235351562500e+01 2.239372444152832031e+01 6.974580249007999305e-15 1.402419575868146806e-13 4.416495855553807803e-14 -4.298946317199750511e-14
5.427000000000000000e+03 1.055289363861083984e+01 3.951738357543945312e+01 3.193736033556444920e-14 -9.188034888311675391e-15 6.824797295362653241e-15 1.791855001236162398e-14
5.428000000000000000e+03 3.682093048095703125e+01 3.556920242309570312e+01 1.705146779524581435e-14 1.674360926599491317e-13 5.534626779774530492e-14 8.625340737055276624e-15
5.429000000000000000e+03 4.106964492797851562e+01 -6.105935096740722656e+00 8.024818602594269157e-14 -3.087400398272405200e-13 -6.854755749564206413e-14 3.429517818820046471e-14
5.430000000000000000e+03 6.998428344726562500e+01 -1.590052127838134766e+01 -1.575178213504471042e-14 4.507587337242158210e-13 1.305020815803997758e-13 -7.066459098642799419e-14
5.431000000000000000e+03 3.138568115234375000e+01 -6.340363979339599609e+00 -1.543954986646736693e-13 -1.119204487659390679e-13 -7.989478355155746336e-14 -3.019046330206970330e-14
5.432000000000000000e+03 3.972195434570312500e+01 -1.645156502723693848e+00 1.024259615924755229e-13 -4.760505750993522522e-14 1.644626953069619479e-14 -3.732794577452659690e-14
5.433000000000000000e+03 3.977548217773437500e+01 -4.321733474731445312e+00 7.052415970003680923e-14 -1.552631043481508821e-14 1.649935477956651630e-14 -3.936220381757504772e-14
5.434000000000000000e+03 8.345354080200195312e+00 1.015788173675537109e+01 -5.069042923041763848e-14 1.258874257549676134e-14 -1.143050633528944204e-14 4.705177220065692723e-14
5.435000000000000000e+03 3.834756088256835938e+01 -2.336691617965698242e+00 -6.245928838220196795e-16 -4.601863256236370103e-14 -1.399296734798209652e-14 -1.911767761513059188e-14
5.436000000000000000e+03 3.906494140625000000e+01 -3.254738569259643555e+00 6.041593278178353232e-14 7.164349002291084401e-14 3.961782480852923949e-14 -4.453321798781814667e-14
5.437000000000000000e+03 3.918186950683593750e+01 -4.158397316932678223e-01 5.473622789286917978e-14 -1.514398009121523114e-14 1.187767450990277404e-14 -2.209076495405908058e-14
5.438000000000000000e+03 3.836567687988281250e+01 -8.974949121475219727e-01 -1.017562871799809060e-14 -1.416138257007149015e-13 -4.553683683383366598e-14 2.573239506946465444e-14
5.439000000000000000e+03 7.066550445556640625e+01 -1.620415306091308594e+01 -1.323832367241661173e-14 2.573943933426720010e-13 7.324682174810956403e-14 -2.834970993582149740e-14
5.440000000000000000e+03 3.990494155883789062e+01 -2.478194713592529297e+00 1.585820504860363522e-14 6.796373410751640684e-15 6.796373410751640684e-15 -5.159110308015565916e-14
5.441000000000000000e+03 4.225781250000000000e+01 -1.032173156738281250e+01 6.618214683966686107e-14 -2.175475782590502449e-13 -4.540962603768322614e-14 1.102376958434739956e-14
5.442000000000000000e+03 9.045387268066406250e+00 1.913285064697265625e+01 3.591419357545054536e-14 1.526446476813811404e-13 5.656765203823632682e-14 -1.544779386873640359e-14
5.443000000000000000e+03 4.241851425170898438e+01 -8.146897315979003906e+00 4.268160057698845711e-14 -1.189607359017644250e-13 -2.288373856455371697e-14 -9.365150959890207287e-16
5.444000000000000000e+03 4.188507843017578125e+01 -8.625105857849121094e+00 2.862035220906229693e-14 -3.348508265371002990e-14 -1.459418921636083076e-15 -5.838718045289223446e-14
5.445000000000000000e+03 3.288803482055664062e+01 -9.475858688354492188e+00 1.092758475802193749e-14 5.043419837574142361e-14 1.840853485542571361e-14 4.128257997493105236e-14
5.446000000000000000e+03 3.354999542236328125e+01 -1.179043579101562500e+01 1.353306763289682194e-15 -1.824238053367913115e-13 -5.432115125552847146e-14 2.336810215816664815e-13
5.447000000000000000e+03 2.948885345458984375e+01 -3.337020635604858398e+00 -3.186092408240422114e-14 -1.051565789739888901e-13 -4.110525193335747007e-14 2.043699411091726148e-14
5.448000000000000000e+03 7.148083496093750000e+01 -1.387183284759521484e+01 -7.514471087478186151e-14 6.311839072237201975e-13 1.668117548389233540e-13 -8.542922229001770340e-14
5.449000000000000000e+03 3.599580383300781250e+01 -1.058730888366699219e+01 -2.211460215526071110e-14 -3.068588406377609212e-13 -9.869203707307122597e-14 4.845731156827640107e-14
5.450000000000000000e+03 9.429883003234863281e+00 1.792749595642089844e+01 9.480534846756372147e-14 -5.120084196707066007e-15 2.690557974712511763e-14 -9.024529577404336034e-15
5.451000000000000000e+03 9.146318435668945312e+00 1.855681419372558594e+01 -7.712967535900881549e-17 -4.578400443597425984e-14 -1.375834006862560258e-14 -1.018731404572523203e-13
5.452000000000000000e+03 8.627981185913085938e+00 1.842503929138183594e+01 3.184016838706470176e-14 1.051476817399109309e-13 4.109635469927951090e-14 7.526431870319774675e-14
5.453000000000000000e+03 9.427403450012207031e+00 1.114586734771728516e+01 -3.864522092091038363e-14 -1.656223681150478105e-14 -1.656223681150478105e-14 8.109908144343647152e-14
5.454000000000000000e+03 1.265247535705566406e+01 9.190266609191894531e+00 1.529521104768390843e-14 9.805698597932857585e-14 3.400565893869715584e-14 1.023734438556798618e-14
5.455000000000000000e+03 7.775558471679687500e+00 1.143828868865966797e+01 -9.897846973451474017e-14 3.331605468798659250e-15 -2.869405762800057713e-14 6.527498810568466148e-14
5.456000000000000000e+03 8.185421943664550781e+00 1.309543228149414062e+01 -4.020991439118715149e-14 2.115219213975547130e-13 5.139360210191026845e-14 1.086005268460983608e-13
5.457000000000000000e+03 3.281999588012695312e+01 -8.035573005676269531e+00 -1.534318055636599287e-13 2.574540888366626951e-14 -3.830591985103104502e-14 -3.931200864512075788e-14
5.458000000000000000e+03 3.256896591186523438e+01 -8.954916000366210938e+00 -5.697213398747277835e-14 -4.729210255284728437e-14 -3.127927333378827113e-14 -6.501668202028767357e-16
5.459000000000000000e+03 1.039040946960449219e+01 2.552021217346191406e+01 -6.189941019197871611e-15 -2.552830586895551979e-14 -9.515474108797664782e-15 1.566430904258175882e-14
5.460000000000000000e+03 9.579105377197265625e+00 2.295582580566406250e+01 4.898024938112047200e-14 1.124934292853069229e-13 4.844210563280729187e-14 1.074863210725552146e-14
5.461000000000000000e+03 1.524868583679199219e+01 9.383237838745117188e+00 -4.710282118232204940e-14 -6.593786931394229889e-14 -3.391220748769248339e-14 7.546481478994462866e-14
5.462000000000000000e+03 3.196648788452148438e+01 -7.739828586578369141e+00 -1.070545968496691702e-13 -9.163148890914754596e-14 -5.960582369476594145e-14 1.377812929937230479e-14
5.463000000000000000e+03 4.091189956665039062e+01 -8.420194625854492188e+00 6.427024439991518845e-14 2.754438997308768233e-14 2.754438997308768233e-14 -1.607320572753929977e-14
5.464000000000000000e+03 8.192256927490234375e+00 1.393722629547119141e+01 -3.101892928712018938e-14 -5.904477617555900504e-14 -2.701911265524329503e-14 7.496133840609667254e-14
5.465000000000000000e+03 2.352334403991699219e+01 2.518065452575683594e+00 2.093285439801998056e-15 -9.060477655685808540e-14 -2.655344612809487637e-14 7.075882848400771863e-14
5.466000000000000000e+03 4.210818099975585938e+01 -1.236488151550292969e+01 -1.944802724082334705e-14 -2.549147518234300830e-14 -1.348185072694990660e-14 3.245078427434495982e-14
5.467000000000000000e+03 7.230570220947265625e+01 -1.413144016265869141e+01 4.994704262272116335e-14 2.501606235529030275e-13 9.003229748099500496e-14 1.122726315128802499e-13
5.468000000000000000e+03 4.184239196777343750e+01 -7.603015899658203125e+00 2.431595099968222873e-14 3.329659749415521397e-14 1.728376488696441171e-14 -7.400497044601078711e-14
5.469000000000000000e+03 9.626970291137695312e+00 1.475790786743164062e+01 -5.682108768418660250e-14 1.129009537768899119e-13 1.682395813374509830e-14 -1.240515241934412802e-14
5.470000000000000000e+03 3.863786315917968750e+01 -1.153500556945800781e+01 -4.033409535048526270e-15 8.977329513451537402e-14 2.572196470575216498e-14 7.079737864750315635e-14
5.471000000000000000e+03 3.788433456420898438e+01 2.790550470352172852e+00 1.223656321668736835e-13 1.039122333643636986e-13 6.788336169225028804e-14 -9.757676573208043380e-14
5.472000000000000000e+03 3.756563186645507812e+01 4.393129348754882812e-01 4.974835918648140565e-14 2.132072560764430164e-14 2.132072560764430164e-14 -1.579756257177791084e-14
5.473000000000000000e+03 2.670951652526855469e+01 1.209179282188415527e+00 1.299561908687510078e-14 -2.003097123934316492e-13 -5.619422909310979597e-14 1.454651422103450664e-13
5.474000000000000000e+03 3.167787361145019531e+01 -7.061067104339599609e+00 6.607481760085437417e-14 1.198196815203889098e-13 5.576834770349391179e-14 -6.773879010881292406e-14
5.475000000000000000e+03 7.022093963623046875e+01 -1.521178722381591797e+01 -1.067791247945631267e-14 2.928049241870261943e-13 8.463810029354576492e-14 7.179674199999167006e-14
5.476000000000000000e+03 2.579220199584960938e+01 1.633240818977355957e+00 -9.098190273003001205e-14 -1.304941397994863195e-13 -6.644280937072311044e-14 1.921399508681559398e-13
5.477000000000000000e+03 4.122346878051757812e+01 -7.470438480377197266e+00 8.193992766204402645e-14 -1.478866806575371284e-13 -1.978402657627428840e-14 1.602610476644132989e-15
5.478000000000000000e+03 3.880235290527343750e+01 1.270305156707763672e+00 5.019746960764279176e-14 6.726415350275308236e-14 3.523848490023968882e-14 -1.762356231815084134e-14
5.479000000000000000e+03 3.720814895629882812e+01 2.408447265625000000e+00 -4.241822415236920496e-14 5.044718508488872655e-14 2.408687898591030212e-15 -1.050412130865728544e-13
5.480000000000000000e+03 3.672588348388671875e+01 3.233079910278320312e+00 1.697992332676256932e-13 4.144675782999851163e-15 5.218317233402283706e-14 -1.103733193708565652e-13
5.481000000000000000e+03 1.327703952789306641e+01 8.766931533813476562e+00 -2.146399953660647203e-14 2.195558866007266130e-13 5.942756730508216845e-14 3.630073536686415081e-14
5.482000000000000000e+03 9.705977439880371094e+00 1.199558353424072266e+01 -3.931659956369487618e-14 -1.684997051555527786e-14 -1.684997051555527786e-14 1.624745565138255993e-14
5.483000000000000000e+03 1.949077796936035156e+01 6.529017925262451172e+00 8.564789231568087358e-14 -1.005466055466891495e-13 -4.469615409258493113e-15 8.767522162922078421e-14
5.484000000000000000e+03 2.051597023010253906e+01 4.428297996520996094e+00 5.468950216736684355e-14 -2.803145932874732266e-14 7.997413190399035171e-15 5.921805878777650078e-14
5.485000000000000000e+03 2.287858581542968750e+01 3.008156299591064453e+00 -7.133258149742346954e-14 -7.632205279014744881e-14 -4.429639096389763331e-14 7.884682083668728692e-14
5.486000000000000000e+03 2.454192543029785156e+01 2.674166917800903320e+00 2.559733566602495625e-14 1.024721824863412956e-13 3.842085544570987554e-14 5.047161351508754057e-14
5.487000000000000000e+03 8.715159416198730469e+00 9.500773429870605469e+00 -4.034085552043729928e-14 -5.160214838978785523e-14 -2.758290117306754635e-14 1.744716262468744977e-14
5.488000000000000000e+03 2.843946838378906250e+01 -5.687384605407714844e-01 -1.835724362233767670e-14 3.788355873034394972e-14 5.857894362995292453e-15 1.107402404910799720e-13
5.489000000000000000e+03 3.769638442993164062e+01 1.621798634529113770e+00 5.935935743590567415e-14 7.119067298557227308e-14 3.916501115932245758e-14 -1.352950734166127530e-14
5.490000000000000000e+03 3.977980422973632812e+01 -1.194824695587158203e+01 -6.228330161730036285e-14 -7.244379385653101910e-14 -4.041812864214941459e-14 3.627265791872856526e-14
5.491000000000000000e+03 4.065843200683593750e+01 -1.045597934722900391e+01 3.796823492001506761e-14 -1.667317000610124555e-13 -3.862903920348603748e-14 2.459390824945551640e-14
5.492000000000000000e+03 3.827085494995117188e+01 -3.064618349075317383e+00 1.399892707179897777e-14 1.432523804439922444e-13 4.717539496524279785e-14 -5.963313203698542009e-14
5.493000000000000000e+03 3.480095672607421875e+01 1.033891201019287109e+01 8.989533564155577361e-14 1.529039481834582048e-13 7.283978514750419353e-14 -1.177785896155220113e-13
5.494000000000000000e+03 4.121138381958007812e+01 -6.813211441040039062e+00 1.668714266159915249e-13 1.630182263050866664e-13 9.896689587632345741e-14 -1.334772949720258728e-13
5.495000000000000000e+03 1.983450508117675781e+01 7.873338222503662109e+00 8.353076395720485103e-14 1.292342562174766951e-14 2.893625822893847177e-14 7.385398174096502455e-14
5.496000000000000000e+03 3.455858612060546875e+01 1.141296195983886719e+01 -1.748041057369131238e-15 -7.491604607209932740e-16 -7.491604607209932740e-16 -4.474022267573173062e-14
5.497000000000000000e+03 4.047727966308593750e+01 -1.154584789276123047e+01 -1.101668076561182832e-14 -4.475351431674004510e-14 -1.673105894822203565e-14 7.769877270876954234e-14
5.498000000000000000e+03 2.801965904235839844e+01 7.663946598768234253e-02 4.473481521739645916e-14 1.917206221254200149e-14 1.917206221254200149e-14 7.906568059773064205e-14
5.499000000000000000e+03 3.653907775878906250e+01 5.362659454345703125e+00 -1.168820933322798489e-14 1.322436084250089294e-13 3.616662294625948293e-14 -1.105745811753877650e-13
5.500000000000000000e+03 1.955682563781738281e+01 8.728790283203125000e+00 3.974099695158717083e-14 2.000356531892816259e-13 7.193299233175520779e-14 5.256808443404592524e-14
5.501000000000000000e+03 2.918918800354003906e+01 -1.865779519081115723e+00 -1.372896344135551838e-13 3.266348441179588169e-14 -3.138784262883553833e-14 -4.662760520572628575e-14
5.502000000000000000e+03 3.085274124145507812e+01 2.021060562133789062e+01 4.058617997888466777e-14 8.602049872104625128e-14 3.798200428760563352e-14 -5.240246916406697542e-14
5.503000000000000000e+03 4.273375701904296875e+01 -1.097010517120361328e+01 -1.967841681434472773e-14 -5.418455533432245397e-14 -2.215889181400674396e-14 -2.255364304874513809e-14
5.504000000000000000e+03 9.311262130737304688e+00 2.072944450378417969e+01 -1.020301752834755840e-14 -2.724819610396000957e-14 -1.123536434380215457e-14 4.361549167078600242e-14
5.505000000000000000e+03 9.454330444335937500e+00 2.175563621520996094e+01 -1.177484047494136571e-14 -5.046360566560419841e-15 -5.046360566560419841e-15 1.907760448639599093e-14
5.506000000000000000e+03 2.993003273010253906e+01 -4.192498207092285156e+00 -1.807090244045246596e-14 -7.744672111465508019e-15 -7.744672111465508019e-15 -5.364205783666038674e-14
5.507000000000000000e+03 3.036694526672363281e+01 -2.669998168945312500e+00 1.644800764230396062e-14 5.280009353456245613e-14 2.077443001424674612e-14 -6.449267779296300948e-15
5.508000000000000000e+03 1.804234504699707031e+01 1.012655735015869141e+01 8.632343836056585729e-14 1.056221828206992119e-13 5.758368499912680516e-14 2.960470952585725346e-14
5.509000000000000000e+03 1.742798614501953125e+01 8.815013885498046875e+00 7.656067213578435227e-14 -1.293923040951048750e-14 1.908643395783816976e-14 8.389021763496526396e-14
5.510000000000000000e+03 3.653059005737304688e+01 7.569802284240722656e+00 3.429648261893923633e-14 6.044944140517691245e-14 2.842377619079530793e-14 -1.176443789390954620e-13
5.511000000000000000e+03 2.069277763366699219e+01 6.462073802947998047e+00 7.733809252730150519e-14 1.017713203207287753e-13 5.373282588728815756e-14 1.578248436887724759e-13
5.512000000000000000e+03 9.159971237182617188e+00 1.984796714782714844e+01 2.722459946011539927e-14 -7.983421053143341384e-14 -1.578288349080199382e-14 -2.950629107364988180e-14
5.513000000000000000e+03 3.290915679931640625e+01 1.850320243835449219e+01 2.712232192580033702e-14 5.737479989807031666e-14 2.534913637775460665e-14 -1.347447273116614275e-13
5.514000000000000000e+03 1.069938182830810547e+01 8.984876632690429688e+00 -5.740116633965244852e-14 -2.460049816578515486e-14 -2.460049816578515486e-14 4.131135537821517545e-14
5.515000000000000000e+03 3.109562110900878906e+01 -5.585296154022216797e+00 -1.018058453836588606e-13 9.362177238970634252e-14 -2.455223465196707845e-15 -1.385150810240612373e-13
5.516000000000000000e+03 3.084120941162109375e+01 -4.810882568359375000e+00 2.642570339525356082e-14 1.028271977114580960e-13 3.877587067082667593e-14 8.911777972476706000e-14
5.517000000000000000e+03 3.539285278320312500e+01 8.255600929260253906e+00 1.266350983493771953e-13 7.714765919196800437e-14 6.113482658477720211e-14 -1.151434362352959928e-13
5.518000000000000000e+03 3.574036788940429688e+01 7.258754730224609375e+00 1.203956503719946780e-13 2.002887195288668987e-13 9.620531097025847300e-14 3.223982902476538182e-14
5.519000000000000000e+03 3.329300308227539062e+01 1.330476665496826172e+01 5.171600317042598927e-14 -2.358694701143013162e-14 8.438717355918525648e-15 -1.139914578745029883e-13
5.520000000000000000e+03 1.362198734283447266e+01 9.507385253906250000e+00 -2.372946199887156216e-14 2.185849700027386877e-13 5.845665070709424316e-14 -3.825076106550584498e-14
5.521000000000000000e+03 3.325613021850585938e+01 1.678277015686035156e+01 -6.159565570676385146e-15 -7.126623510073093470e-14 -2.322774066729031694e-14 -7.757051159176450716e-14
5.522000000000000000e+03 2.242087745666503906e+01 2.359117746353149414e+00 -5.085827727924555064e-14 -1.132983003205786932e-13 -4.924697327994727314e-14 1.097889479524140344e-13
5.523000000000000000e+03 3.462978363037109375e+01 1.708406639099121094e+01 3.362979653868253260e-14 1.441277042916848383e-14 1.441277042916848383e-14 -2.142268635163709078e-14
5.524000000000000000e+03 9.966823577880859375e+00 2.997921562194824219e+01 5.825347799623403766e-14 -2.078517208608382516e-14 1.124049312829777936e-14 1.949235586308495360e-14
5.525000000000000000e+03 9.899471282958984375e+00 2.854825973510742188e+01 1.768521445824969285e-14 9.908127242925710010e-14 3.502994538862568008e-14 7.140944465518911377e-14
5.526000000000000000e+03 3.393009567260742188e+01 2.367853546142578125e+01 3.686871839184320543e-14 1.530537307135870773e-13 5.697673507044226371e-14 -2.039254351591125031e-14
5.527000000000000000e+03 3.245450973510742188e+01 2.693436622619628906e+01 4.065493872541098286e-14 2.004273347766191704e-13 7.232468069535633037e-14 -2.183588088176900005e-14
5.528000000000000000e+03 3.368902587890625000e+01 3.245734405517578125e+01 3.888401644940031598e-14 1.424796831081889814e-13 5.440911054490314702e-14 -5.655538191896240102e-15
5.529000000000000000e+03 3.400122070312500000e+01 2.987395477294921875e+01 1.154382155594017509e-14 1.650756761102309400e-13 5.298584785989532420e-14 -1.050399713362721796e-14
5.530000000000000000e+03 3.327946090698242188e+01 3.533545684814453125e+01 1.569867316925186579e-14 1.439808558836852548e-13 4.790385685240865221e-14 1.973937226984446257e-15
5.531000000000000000e+03 3.811303329467773438e+01 -3.787492513656616211e+00 1.301008048038357345e-13 -8.149535733747992339e-14 1.458163491753310115e-14 1.713512754538022709e-14
5.532000000000000000e+03 3.949213027954101562e+01 -5.123843669891357422e+00 -5.783849707361636908e-15 -1.168561639596985002e-13 -3.679200431187627796e-14 -1.168701501677235632e-13
5.533000000000000000e+03 3.826458740234375000e+01 -6.421317577362060547e+00 2.119240181020116964e-14 -1.052949163949344624e-13 -2.523075335898045113e-14 -7.453655477118042993e-14
5.534000000000000000e+03 3.345164871215820312e+01 -9.069948196411132812e+00 -6.271436684855344335e-14 6.462431094813106403e-14 5.729849133512688718e-16 -1.275007101172965715e-14
5.535000000000000000e+03 3.897429275512695312e+01 -9.571802616119384766e-01 -5.141067150986333711e-14 -1.135350426412044811e-13 -4.948371560057306107e-14 -4.416632058451726295e-14
5.536000000000000000e+03 3.910393142700195312e+01 -2.451330900192260742e+00 6.398541093667609037e-14 -2.470833867368460446e-13 -5.492938867429283945e-14 -8.752346720639070377e-14
5.537000000000000000e+03 4.218403625488281250e+01 -1.135601711273193359e+01 -1.705361078860236773e-14 -7.879454873944632953e-14 -2.875444768900801973e-14 -5.528319772449274971e-14
5.538000000000000000e+03 3.230747222900390625e+01 -6.764322757720947266e+00 -1.025945347015062847e-13 -4.396908726868320461e-14 -4.396908726868320461e-14 2.331429557603844488e-14
5.539000000000000000e+03 3.320559692382812500e+01 -9.955796241760253906e+00 6.509934735374200976e-14 2.789972029446086133e-14 2.789972029446086133e-14 -7.057102433894249516e-15
5.540000000000000000e+03 3.392013549804687500e+01 -1.123882484436035156e+01 6.577635707155984890e-14 -3.378177186770525697e-13 -8.161241051452688966e-14 1.467130318058215699e-13
5.541000000000000000e+03 4.080380630493164062e+01 -5.336203098297119141e+00 1.595109271447861521e-13 2.261087537092521665e-14 5.463653889124092666e-14 -5.113433886928288319e-14
5.542000000000000000e+03 4.063495635986328125e+01 -7.418167114257812500e+00 -3.128863813005311467e-14 3.234153396480810017e-14 3.158686180775976396e-16 -1.209307448016977427e-13
5.543000000000000000e+03 9.552055358886718750e+00 1.889497756958007812e+01 3.716753128684378849e-14 6.167988889820355536e-14 2.965422707195373986e-14 -5.078978280699877890e-14
5.544000000000000000e+03 3.758787155151367188e+01 -1.100194263458251953e+01 -7.042023214554049559e-14 1.557084912124761383e-14 -1.645481439906809618e-14 7.352780629363633857e-14
5.545000000000000000e+03 3.665766906738281250e+01 -1.039894485473632812e+01 -8.683484974906369169e-14 -1.433946142164951865e-14 -3.035229402884032091e-14 1.891707819036414495e-13
5.546000000000000000e+03 8.825130462646484375e+00 1.150236415863037109e+01 -1.678735275789655645e-13 -1.176967459040265118e-13 -8.567108068964490730e-14 -2.988795056715551346e-14
5.547000000000000000e+03 8.505090713500976562e+00 1.105865001678466797e+01 -4.662866399691035363e-15 2.267563713838002815e-13 6.662805208815583691e-14 7.237250756369009719e-14
5.548000000000000000e+03 8.935404777526855469e+00 1.219688701629638672e+01 -8.377018967820754058e-14 5.560038784631696207e-14 -8.450940041347405202e-15 1.156481052415336830e-13
5.549000000000000000e+03 7.198754882812500000e+01 -1.486333465576171875e+01 -6.097709189758126948e-16 5.029991180516280025e-13 1.507168006934303528e-13 4.626897145585881499e-14
5.550000000000000000e+03 9.735912322998046875e+00 1.572304248809814453e+01 -5.811342618060322263e-14 1.809735223007660765e-13 3.685802883604885616e-14 -1.922368040034767855e-14
5.551000000000000000e+03 9.294970512390136719e+00 1.722159576416015625e+01 -1.373174848568609052e-13 -8.601497606623015324e-14 -6.699973692167460193e-14 -9.036762427228582639e-15
5.552000000000000000e+03 4.142055892944335938e+01 -8.050127029418945312e+00 2.977142255053584485e-14 -9.018045370786514914e-14 -1.812271036363832799e-14 -7.522535518762404894e-14
5.553000000000000000e+03 4.111130905151367188e+01 -1.112414646148681641e+01 8.428656298571039068e-15 -1.354432448900759478e-14 -1.534700457130966714e-15 4.661054596216858414e-14
5.554000000000000000e+03 9.696702957153320312e+00 1.296107959747314453e+01 -6.548805416136879720e-14 4.056011508103175844e-14 -7.478381893507701078e-15 1.664970143363826011e-14
5.555000000000000000e+03 2.496346855163574219e+01 2.307148694992065430e+00 8.556669234922528733e-15 -3.064606877187063538e-14 -6.626819437567958368e-15 -9.821192524604033247e-14
5.556000000000000000e+03 2.379615211486816406e+01 4.307175159454345703e+00 -3.610182153766273994e-14 7.602969089807315450e-14 1.197836046930994547e-14 1.240468231605840188e-13
5.557000000000000000e+03 3.936644744873046875e+01 -1.119679927825927734e+01 3.519356843711268779e-14 -3.066798998454557668e-14 1.357673641649251740e-15 -2.992417308411189636e-14
5.558000000000000000e+03 3.255345535278320312e+01 -7.428932189941406250e+00 -2.231839997643599027e-14 3.618592174492972491e-14 4.160256107031646763e-15 3.179426597758709672e-14
5.559000000000000000e+03 3.311774444580078125e+01 -8.584607124328613281e+00 2.506863125287597804e-14 -2.637619940168423049e-13 -7.160800950681625587e-14 -1.291636221400051590e-14
5.560000000000000000e+03 4.159812927246093750e+01 -1.176615428924560547e+01 1.858876822000837814e-14 -1.350050984633838214e-13 -3.492489975063899077e-14 1.053620149568841591e-13
5.561000000000000000e+03 3.809014129638671875e+01 -2.475751340389251709e-01 2.234170947611148136e-15 -9.050518242291992477e-15 -2.044904188404253302e-15 -6.787116611187572063e-15
5.562000000000000000e+03 2.858263587951660156e+01 6.490249037742614746e-01 -8.345905414789030197e-15 -3.576816424831095673e-15 -3.576816424831095673e-15 7.094493856317843350e-14
5.563000000000000000e+03 3.830865859985351562e+01 -1.074485874176025391e+01 5.699881213717949979e-14 -1.585757350083816242e-13 -3.047307753898699512e-14 1.212653838022353936e-13
5.564000000000000000e+03 3.818282699584960938e+01 8.699502944946289062e-01 -5.734304632694364745e-14 -1.160774899594194109e-13 -5.202616291878799093e-14 -1.110202899122329778e-13
5.565000000000000000e+03 2.220062637329101562e+01 3.549018383026123047e+00 -5.596953581615870046e-15 1.348541504159195270e-13 3.877715816090650247e-14 1.044416425089247924e-13
5.566000000000000000e+03 3.067164039611816406e+01 -4.045940399169921875e+00 -9.611566100312107785e-14 5.030947108019233338e-14 -1.374185680747203389e-14 -1.236707134269487973e-13
5.567000000000000000e+03 2.997338676452636719e+01 -3.467518091201782227e+00 -6.116033921714850163e-14 -2.621157516025356821e-14 -2.621157516025356821e-14 -6.128931861809280845e-14
5.568000000000000000e+03 3.612421417236328125e+01 6.295166015625000000e+00 8.784200580466694497e-14 1.062729955035243701e-13 5.823449768195196330e-14 -5.960791756021155408e-14
5.569000000000000000e+03 3.625276184082031250e+01 4.101600170135498047e+00 8.559881183858517040e-15 2.896119487890563837e-13 8.945155136356672254e-14 -4.106012201792776095e-14
5.570000000000000000e+03 2.023032760620117188e+01 7.102614879608154297e+00 8.621578386110162473e-14 3.343307889650676268e-13 1.261639718478507755e-13 3.644623868654349452e-14
5.571000000000000000e+03 2.062892723083496094e+01 5.442057132720947266e+00 3.168027101299619210e-15 -2.760074070337625862e-13 -8.185180913047526707e-14 4.081533288430305717e-14
5.572000000000000000e+03 4.005716705322265625e+01 -8.259880065917968750e+00 5.828202639468829660e-14 5.929122210562853823e-14 3.527197319484233484e-14 -1.921354480410083360e-14
5.573000000000000000e+03 1.153218460083007812e+01 2.500209045410156250e+01 -2.891940566141990021e-14 -3.526950663489993032e-14 -1.925667233364323355e-14 7.714454211072210854e-14
5.574000000000000000e+03 3.653886795043945312e+01 1.999164223670959473e+00 1.882104498293624140e-13 1.721635122875833646e-13 1.081121886350837336e-13 -9.781186650285444290e-15
5.575000000000000000e+03 4.124377441406250000e+01 -1.006534004211425781e+01 -3.556931902877827345e-14 -1.067458906098446569e-13 -4.269456356921323692e-14 3.962658990546742699e-14
5.576000000000000000e+03 3.706404495239257812e+01 1.217038869857788086e+00 5.721067201794674539e-14 -1.127339866423271442e-13 -1.665699608138001414e-14 -1.109925004552994587e-13
5.577000000000000000e+03 3.206262207031250000e+01 -6.053194999694824219e+00 -8.078288743235823022e-15 1.795416707016730951e-13 5.143901323227846600e-14 -5.272168877683280908e-14
5.578000000000000000e+03 3.570651245117187500e+01 -4.695533275604248047e+00 -8.971602215475382724e-14 -7.848180384652930774e-14 -5.045934847801129830e-14 5.862443099328637497e-14
5.579000000000000000e+03 9.849930763244628906e+00 1.957074356079101562e+01 8.855616808161725223e-15 2.325500089803839154e-13 7.242168968473947088e-14 2.536764065952032410e-14
5.580000000000000000e+03 1.012205696105957031e+01 2.044994163513183594e+01 -6.439739420969342598e-14 -1.419762609344496496e-13 -6.191209789849563827e-14 -4.744355627898108954e-15
5.581000000000000000e+03 2.984885597229003906e+01 -2.932197570800781250e+00 -1.364140327390558904e-13 -1.499650555646103722e-13 -8.591372513584716319e-14 -3.570152731931751366e-14
5.582000000000000000e+03 2.944333076477050781e+01 -7.681761980056762695e-01 -3.057644943986990993e-14 -9.316835226490932653e-14 -3.712344152787330764e-14 -1.150062287563020577e-14
5.583000000000000000e+03 4.056825637817382812e+01 -6.843395233154296875e+00 4.597158496434140817e-14 -4.892431471341558702e-14 -8.858187447277523618e-16 -3.283545920514281680e-14
5.584000000000000000e+03 4.180017089843750000e+01 -9.670397758483886719e+00 2.853549178972515123e-15 -1.989374512562439024e-13 -5.882517102552206611e-14 -2.587994143261277552e-14
5.585000000000000000e+03 3.344026184082031250e+01 1.227819538116455078e+01 5.813678396115670721e-14 2.491576382875320544e-14 2.491576382875320544e-14 -5.155100792856442959e-14
5.586000000000000000e+03 3.434983825683593750e+01 1.247921466827392578e+01 5.995405588004112940e-14 7.144554181126930303e-14 3.941987998501948753e-14 -1.456888537761102942e-13
5.587000000000000000e+03 2.125647544860839844e+01 5.998703479766845703e+00 9.560950799515979814e-14 1.725094812008234890e-13 8.043569879167405956e-14 4.140766302431798940e-14
5.588000000000000000e+03 2.882398605346679688e+01 -1.234696149826049805e+00 -3.469576717401133548e-14 -1.486961595520419621e-14 -1.486961595520419621e-14 -9.778494610172480672e-14
5.589000000000000000e+03 2.077708625793457031e+01 8.246953010559082031e+00 7.570731015834816779e-14 1.925743093635079450e-13 8.048448788943590726e-14 9.908471985335242510e-15
5.590000000000000000e+03 2.046875953674316406e+01 9.071395874023437500e+00 8.388457978366833934e-14 -1.928042144341834963e-13 -3.267589175040726268e-14 1.541525255696878788e-14
5.591000000000000000e+03 3.069256782531738281e+01 -1.725955843925476074e+00 1.657762231795870816e-14 -3.864625430110603388e-14 -6.620589510240902989e-15 -5.874071845254902335e-14
5.592000000000000000e+03 4.041962432861328125e+01 -6.229172229766845703e+00 -2.712675699031216053e-14 -2.861314429749434174e-13 -9.397745846491736832e-14 -7.223715169871885999e-14
5.593000000000000000e+03 1.927423667907714844e+01 9.609127044677734375e+00 1.490693283872843167e-14 6.388685865326305252e-15 6.388685865326305252e-15 9.262790458697961471e-14
5.594000000000000000e+03 1.834538078308105469e+01 9.229659080505371094e+00 -2.044938112073790837e-14 1.742397730004202616e-13 4.613711891915742158e-14 2.126349497953011758e-14
5.595000000000000000e+03 3.891087341308593750e+01 -4.049525260925292969e+00 -4.028616429709898361e-14 -8.589191911965304849e-14 -3.785342468621243073e-14 -1.032911345973282213e-13
5.596000000000000000e+03 3.394414901733398438e+01 1.009479522705078125e+01 1.409490776318415156e-14 5.179162288382506418e-14 1.976595936350935417e-14 -2.681581966570457942e-14
5.597000000000000000e+03 3.424370956420898438e+01 9.011936187744140625e+00 7.380440659662812486e-14 1.803210358808371438e-13 7.623763409849229622e-14 -8.640246992267647252e-14
5.598000000000000000e+03 3.508013916015625000e+01 9.284248352050781250e+00 4.705415405730460632e-14 -2.709408523547066766e-15 1.330342323661078824e-14 -4.684935165505388355e-14
5.599000000000000000e+03 3.364667129516601562e+01 2.150395965576171875e+01 1.527761139710585858e-14 1.666758636491294521e-13 5.458604556318920331e-14 -5.635502051045413255e-15
5.600000000000000000e+03 2.545214653015136719e+01 2.059309244155883789e+00 1.536186542555606493e-13 2.717158366794675262e-13 1.276003499910138839e-13 -1.727994138024050580e-14
5.601000000000000000e+03 2.907666969299316406e+01 -2.281112410128116608e-02 -3.589843876263161537e-14 3.036590415423680300e-14 -1.659760213111854260e-15 -1.568623432101484694e-13
5.602000000000000000e+03 1.416423511505126953e+01 9.853376388549804688e+00 -7.964026539750059669e-15 1.338396895481791526e-13 3.776270068129791713e-14 9.077173013889369702e-14
5.603000000000000000e+03 1.155947971343994141e+01 1.074238204956054688e+01 -5.126554766094436333e-14 6.953094919487715075e-14 5.479620460179836228e-15 5.160666815759440418e-14
5.604000000000000000e+03 3.553576278686523438e+01 3.718120098114013672e+00 1.403036215853747937e-14 1.890168116426213518e-13 6.091415078509493375e-14 -5.306239253327280081e-14
5.605000000000000000e+03 1.030140018463134766e+01 9.686944007873535156e+00 -1.041331734383255103e-13 4.687339383822874961e-14 -1.717793320240267041e-14 6.893798547421767231e-14
5.606000000000000000e+03 1.480858898162841797e+01 9.763852119445800781e+00 5.391009971875311557e-14 6.885527440098418439e-14 3.682961257473436889e-14 3.643166633171893154e-14
5.607000000000000000e+03 1.412007617950439453e+01 9.184883117675781250e+00 4.462539888940193766e-14 2.707553961849712421e-13 9.461423750587241721e-14 7.111847867341189455e-14
5.608000000000000000e+03 3.230340576171875000e+01 1.739269447326660156e+01 1.040576723095390510e-13 9.034709558177617117e-14 5.832143036739456665e-14 -1.063478122296894479e-13
5.609000000000000000e+03 1.038028335571289062e+01 1.455465602874755859e+01 -1.027385980651752961e-13 9.322202027244735900e-14 -2.854972617840375974e-15 4.362709263403159732e-14
5.610000000000000000e+03 3.455178451538085938e+01 5.587286949157714844e+00 6.139268120161330347e-15 1.856349140160959421e-13 5.753225315856952404e-14 -8.212971047607403596e-14
5.611000000000000000e+03 1.008407115936279297e+01 1.672145843505859375e+01 1.754978744251088629e-14 7.521337475361808411e-15 7.521337475361808411e-15 -2.496670269613518456e-14
5.612000000000000000e+03 8.729270935058593750e+00 1.584804153442382812e+01 6.095090269764335059e-15 2.313669275697677330e-13 7.123860149785971041e-14 2.721730142424185622e-14
5.613000000000000000e+03 1.133218574523925781e+01 2.985718154907226562e+01 2.835655904423299567e-14 3.502828520404906165e-14 1.901545259685825939e-14 6.067327494368654484e-14
5.614000000000000000e+03 3.456791687011718750e+01 7.955434799194335938e+00 1.162674150749845592e-13 1.985194777662235843e-13 9.443606920761515866e-14 4.007023527005312835e-14
5.615000000000000000e+03 1.080511379241943359e+01 2.685336303710937500e+01 -6.881534103268588040e-15 5.423945662183168870e-14 1.420737679792057756e-14 6.875488405607560471e-14
5.616000000000000000e+03 9.336357116699218750e+00 2.599235725402832031e+01 -2.136454601013755561e-14 3.659471339780180632e-14 4.569050724519043566e-15 2.506086904294733964e-14
5.617000000000000000e+03 3.246984863281250000e+01 1.454530620574951172e+01 1.051275833421384809e-13 1.594320514367378316e-13 7.936788840078382035e-14 -1.180404922028130410e-13
5.618000000000000000e+03 3.282091140747070312e+01 1.568781185150146484e+01 6.390158855621580480e-14 -2.980229181926558057e-14 1.022978800464553056e-14 -8.191599389908640894e-14
5.619000000000000000e+03 1.135922050476074219e+01 3.160729598999023438e+01 5.291399913717742542e-14 -1.163578392302357448e-14 1.238346414072968166e-14 -2.439470473498614456e-14
5.620000000000000000e+03 1.110417175292968750e+01 3.356545257568359375e+01 1.165188517231793147e-14 2.786913901693319207e-14 1.185630725677533706e-14 6.599297388935887465e-14
5.621000000000000000e+03 3.387769699096679688e+01 1.523352813720703125e+01 8.481849798252019679e-14 1.278526844941327290e-13 6.380135406536951992e-14 -9.092576138628599702e-14
5.622000000000000000e+03 1.068042755126953125e+01 2.256116485595703125e+01 1.092078647158727447e-14 -4.107061167394655821e-14 -9.044948153630848198e-15 6.690799986535517219e-14
5.623000000000000000e+03 3.274704360961914062e+01 2.271345138549804688e+01 2.483858896286297163e-14 1.478979563601309777e-13 5.182096410511795315e-14 -1.199279560479705325e-14
5.624000000000000000e+03 3.059111022949218750e+01 2.577267265319824219e+01 9.815204340480124245e-15 1.185838943316627758e-13 3.851972790757697551e-14 2.691333899243844065e-15
5.625000000000000000e+03 2.964978790283203125e+01 2.109012985229492188e+01 5.408560494542420660e-14 9.180597092001835380e-14 4.376747309844594702e-14 -2.218735381510038296e-14
5.626000000000000000e+03 3.100494384765625000e+01 3.175125885009765625e+01 2.310162423770772966e-14 1.128403333229208161e-13 4.078258659056220592e-14 -8.217591781741265256e-16
5.627000000000000000e+03 3.410320281982421875e+01 -1.012435054779052734e+01 1.040921634911512461e-13 4.461092817853104520e-14 4.461092817853104520e-14 6.630115835688787929e-14
5.628000000000000000e+03 3.931640243530273438e+01 -7.765087604522705078e+00 1.243488835799043749e-14 5.329237807207834118e-15 5.329237807207834118e-15 -1.294063868648859250e-13
5.629000000000000000e+03 3.685531616210937500e+01 -1.117229938507080078e+01 -5.863713648749518947e-14 -4.800567698893219715e-14 -3.199284438174139489e-14 1.707833364745364735e-13
5.630000000000000000e+03 3.181984519958496094e+01 -5.314912796020507812e+00 -2.561034609209478230e-14 8.052603316143283618e-14 1.647470781486731067e-14 4.203860092606877263e-14
5.631000000000000000e+03 3.277905654907226562e+01 -5.828615188598632812e+00 -6.699889666499092566e-14 6.278808582001887961e-14 -1.263242702920198100e-15 -6.188463370221386484e-14
5.632000000000000000e+03 3.768065643310546875e+01 -1.484280109405517578e+00 1.456207353864921034e-14 -2.225138611778101905e-13 -6.238553510590216789e-14 1.622050136893503358e-14
5.633000000000000000e+03 3.752917480468750000e+01 -2.841829061508178711e+00 4.015865873348289927e-14 -2.115438900440747005e-13 -5.141557074843025599e-14 3.964310704793888585e-14
5.634000000000000000e+03 1.003017330169677734e+01 1.831460189819335938e+01 6.785359123701137796e-16 -1.369620427271386887e-13 -4.088505386025745314e-14 -6.159101820137763417e-15
5.635000000000000000e+03 1.052979469299316406e+01 1.911541175842285156e+01 2.222722873812532640e-14 1.010278557860011528e-13 3.697652535723794376e-14 2.419574516600558195e-14
5.636000000000000000e+03 3.637737274169921875e+01 -1.532863259315490723e+00 6.290355335138858583e-14 7.270961312417015265e-14 4.068395129792033715e-14 8.465206617278009382e-14
5.637000000000000000e+03 3.774023437500000000e+01 -7.754868268966674805e-01 9.534423929893637989e-15 -1.878929310587546669e-14 -2.776460498684664435e-15 -6.708196010393047137e-14
5.638000000000000000e+03 3.916432952880859375e+01 -5.820158481597900391e+00 1.706116801655777060e-14 -1.070654456476576033e-13 -2.700128261170359201e-14 -2.005581573212567026e-13
5.639000000000000000e+03 3.296215438842773438e+01 -6.537069320678710938e+00 -2.119298456886888060e-14 -1.005846068328347664e-13 -3.653327640407155741e-14 -6.817683489155137999e-14
5.640000000000000000e+03 1.057873344421386719e+01 1.192867565155029297e+01 -5.961171904407883138e-14 -2.554787910630067216e-14 -2.554787910630067216e-14 6.563766728490821878e-14
5.641000000000000000e+03 9.948848724365234375e+00 1.049280548095703125e+01 -8.422276277005730227e-14 1.469083237221405214e-13 1.880566964087768134e-14 2.967961434344884575e-14
5.642000000000000000e+03 1.233238697052001953e+01 1.037871646881103516e+01 4.211741564774489077e-14 1.553031656184242215e-13 5.922617675154298600e-14 1.065573715689719508e-14
5.643000000000000000e+03 3.379616928100585938e+01 -9.551763534545898438e+00 2.891140501171660972e-15 -1.817647323886645294e-13 -5.366207830740168938e-14 1.077551744122114130e-13
5.644000000000000000e+03 4.135311889648437500e+01 -9.034852027893066406e+00 2.786818356376868921e-14 -4.524517967317148726e-14 -5.213098578710955236e-15 -5.038718127090523191e-14
5.645000000000000000e+03 3.335769271850585938e+01 -7.746553897857666016e+00 1.874366682913866655e-14 -1.063443698877918064e-13 -2.628021193403547867e-14 -2.317770812516189993e-14
5.646000000000000000e+03 3.313770675659179688e+01 -7.181663513183593750e+00 -1.710668417901142768e-13 2.011913313899882372e-13 9.037345185896293598e-15 2.814629158540658815e-14
5.647000000000000000e+03 3.692243576049804688e+01 -1.979730367660522461e+00 2.659658043390085436e-14 1.139853422966238122e-14 1.139853422966238122e-14 4.935152763882455496e-14
5.648000000000000000e+03 4.009406661987304688e+01 -7.146304130554199219e+00 6.351523988831417333e-14 -3.845377250129289326e-13 -9.630674485975806998e-14 1.192741906082912459e-14
5.649000000000000000e+03 3.257655334472656250e+01 -5.086914539337158203e+00 -5.828752194445008250e-14 1.580234288691903521e-13 2.992077139979572309e-14 -6.820294383511754654e-14
5.650000000000000000e+03 4.015070724487304688e+01 -5.596556186676025391e+00 1.078348971532069878e-13 -1.367888414300841293e-13 -8.686181419590658509e-15 -8.189388125696538817e-15
5.651000000000000000e+03 4.023904037475585938e+01 -9.787008285522460938e+00 -1.927827845006179625e-14 -9.976401486606195634e-14 -3.571268782543053633e-14 -5.552133256728382371e-14
5.652000000000000000e+03 4.003615951538085938e+01 -1.083600616455078125e+01 -1.204872383505153910e-13 6.273998112487841339e-14 -1.732417852294380889e-14 2.282143759721726867e-14
5.653000000000000000e+03 1.115731430053710938e+01 9.405276298522949219e+00 -8.655841885266135627e-14 5.440543103378027434e-14 -9.645896006851145676e-15 -1.073003380483265878e-14
5.654000000000000000e+03 1.304984760284423828e+01 9.983288764953613281e+00 -4.869100795842386253e-14 1.163852678511337335e-13 2.030827898425249800e-14 1.227031714082227332e-13
5.655000000000000000e+03 3.139175605773925781e+01 -3.823818206787109375e+00 -8.005232490348318519e-14 -1.715609804827517015e-13 -7.548399161587046602e-14 1.652959216171760032e-14
5.656000000000000000e+03 3.578892517089843750e+01 5.010520458221435547e+00 7.220707864095954331e-14 1.224477875864937726e-13 5.839645715773056356e-14 -1.181676420125912785e-13
5.657000000000000000e+03 3.602711868286132812e+01 2.832873821258544922e+00 2.319343752699241229e-14 9.940044291411199301e-15 9.940044291411199301e-15 -1.425010554435141019e-13
5.658000000000000000e+03 1.038502311706542969e+01 2.145459747314453125e+01 -3.443644634314353692e-15 2.139962672668103971e-14 5.386794543006711081e-15 4.747188698996790412e-14
5.659000000000000000e+03 3.443927764892578125e+01 -1.069157123565673828e+01 -6.547020548310425458e-14 -1.424360304182192838e-13 -6.237187415852885053e-14 1.047434234073725545e-13
5.660000000000000000e+03 3.508280563354492188e+01 -1.026415920257568359e+01 -1.304467500001533359e-14 1.728489991111373247e-14 1.272067409802048622e-15 4.625087544397367412e-14
5.661000000000000000e+03 3.125502967834472656e+01 1.339327526092529297e+01 1.370693109795789733e-14 5.162534692814725601e-14 1.959968340783154600e-14 -6.871789243320311491e-14
5.662000000000000000e+03 3.411260223388671875e+01 -8.052961349487304688e+00 -1.401529513647171987e-14 -7.463298100189585949e-14 -2.659448148625755820e-14 -3.342758266911861897e-14
5.663000000000000000e+03 3.982316207885742188e+01 -6.132694721221923828e+00 -8.690418278392824519e-15 -2.782301570126294310e-13 -8.607617250260338193e-14 1.926902885027777929e-14
5.664000000000000000e+03 2.336687278747558594e+01 3.647216320037841797e+00 3.461172795311655281e-14 -3.091734970795366466e-14 1.108313177087334907e-15 1.188898968423196534e-13
5.665000000000000000e+03 2.192306709289550781e+01 5.450394153594970703e+00 -4.710143204828855235e-14 -2.031901258576010449e-13 -7.508746500007462688e-14 6.835947552377014125e-14
5.666000000000000000e+03 1.672710990905761719e+01 1.061722660064697266e+01 -2.346486457625884293e-15 9.049626147191944248e-14 2.644493273722212795e-14 9.448049439163275220e-14
5.667000000000000000e+03 1.711974716186523438e+01 9.671403884887695312e+00 3.537879760201825818e-14 3.811699220146458345e-13 1.249646138521201544e-13 1.225576308190937103e-13
5.668000000000000000e+03 1.586721897125244141e+01 9.996627807617187500e+00 4.387586197547544906e-15 2.763860917475574608e-13 8.423210046126783368e-14 -9.546458574008227088e-15
5.669000000000000000e+03 4.170147705078125000e+01 -1.071487236022949219e+01 -2.404663179190504041e-14 -2.848113997248880036e-13 -9.265740843859837650e-14 5.446957175667815898e-14
5.670000000000000000e+03 3.532390975952148438e+01 2.407812118530273438e+00 4.081183972042858044e-14 9.183607785909556065e-14 3.979437696792313683e-14 -6.127466833623709808e-14
5.671000000000000000e+03 3.645913314819335938e+01 7.974984645843505859e-01 -3.889989916419428137e-15 7.553758508450914011e-14 2.149427927040491876e-14 -2.556124189807655600e-14
5.672000000000000000e+03 2.965466690063476562e+01 1.238254308700561523e+00 -8.046165865744150936e-15 3.168082929241172740e-13 9.262863642344604242e-14 -3.268898687977181416e-14
5.673000000000000000e+03 2.760711479187011719e+01 6.920974254608154297e-01 4.755132851602499044e-14 -1.168737009298384533e-13 -2.079671375702311226e-14 1.534661341149462510e-13
5.674000000000000000e+03 1.067534446716308594e+01 1.533107471466064453e+01 -3.418013417330438564e-15 9.972874441413828728e-15 1.966458349576664412e-15 4.654407759273164469e-14
5.675000000000000000e+03 1.066017532348632812e+01 1.766724967956542969e+01 -4.213074117007109542e-14 1.649477673589319626e-13 3.684510650140554455e-14 1.191651605273206724e-14
5.676000000000000000e+03 2.143092155456542969e+01 6.702011108398437500e+00 9.706605229873113694e-14 2.017280521229500301e-13 8.963823064887799230e-14 -3.600649983791052999e-14
5.677000000000000000e+03 2.112013626098632812e+01 7.475723743438720703e+00 1.937725594401435575e-14 -3.744641180252958335e-14 -5.420746164631505201e-15 1.098094732547919006e-13
5.678000000000000000e+03 1.340493297576904297e+01 1.090053081512451172e+01 -4.710729012815176309e-14 -2.018883886836016911e-14 -2.018883886836016911e-14 9.799019234923989075e-14
5.679000000000000000e+03 1.106907176971435547e+01 2.374390792846679688e+01 6.126129792116468895e-15 1.741915395562718127e-13 5.409530177860437383e-14 5.944953595160215598e-14
5.680000000000000000e+03 3.009334373474121094e+01 -2.054468393325805664e+00 -5.018559759385407548e-14 6.999378154978405653e-14 5.942455779702057392e-15 -3.059183833445562606e-14
5.681000000000000000e+03 3.039843940734863281e+01 -1.067433714866638184e+00 2.518664835341691971e-14 5.654522599392482196e-14 2.451956247360911195e-14 6.450235175625360085e-14
5.682000000000000000e+03 2.803239250183105469e+01 1.172267675399780273e+00 -3.954101840197106130e-15 -9.319651441633963751e-14 -2.914518398757642847e-14 1.364569400400320043e-13
5.683000000000000000e+03 2.772805213928222656e+01 2.378703832626342773e+00 1.044547562730141835e-14 1.989181660101008164e-13 6.280909223711078626e-14 2.120166665657823718e-14
5.684000000000000000e+03 8.833851814270019531e+00 1.483271694183349609e+01 -7.342586418436838902e-14 3.715819698376504610e-14 -1.088030083780736068e-14 4.869987808744750957e-14
5.685000000000000000e+03 1.033144378662109375e+01 1.383474826812744141e+01 -2.922142034096110452e-14 1.018539026449542806e-13 2.178974469119795282e-14 1.087858779837483358e-13
5.686000000000000000e+03 1.046611881256103516e+01 1.298053455352783203e+01 -1.102201893665201438e-13 4.426467466222064329e-14 -1.978665407247667124e-14 3.483006932999618832e-14
5.687000000000000000e+03 1.516483688354492188e+01 1.054553985595703125e+01 -3.367034315883464871e-15 1.472475705819112357e-13 4.316416202330281005e-14 1.015509901104889867e-13
5.688000000000000000e+03 3.096079254150390625e+01 -2.397817373275756836e+00 -1.184701344187147343e-13 -7.364838990400746077e-14 -5.763555729681665851e-14 -7.161420301172657932e-14
5.689000000000000000e+03 3.160064697265625000e+01 -2.110584497451782227e+00 -9.211938158083191747e-15 1.104293997282283779e-13 3.036523669227436661e-14 -6.816285545978989502e-14
5.690000000000000000e+03 3.341455841064453125e+01 8.751433372497558594e+00 1.146513304217319784e-13 3.236419650071847842e-13 1.314879872734223132e-13 -5.522776365325969203e-15
5.691000000000000000e+03 1.093385314941406250e+01 2.001941871643066406e+01 -3.851035633504855393e-14 -6.225539018762243915e-14 -3.022972158510904561e-14 3.301868937229286705e-14
5.692000000000000000e+03 1.132360744476318359e+01 2.099406433105468750e+01 -2.825417139563479035e-14 1.076654431299110815e-14 -5.246287870683220486e-15 4.402926048925615010e-14
5.693000000000000000e+03 2.018570518493652344e+01 9.957196235656738281e+00 8.220873526192107317e-14 2.182361144012143206e-13 9.013345354368790252e-14 -1.302244716141348624e-14
5.694000000000000000e+03 3.504161453247070312e+01 4.635330677032470703e+00 1.319739673447117845e-13 1.080932371199218658e-14 4.283498807934084385e-14 -4.582846011317795454e-14
5.695000000000000000e+03 2.897206497192382812e+01 1.377692818641662598e+00 -3.585493515046063451e-14 1.218864419116894027e-13 2.580945304480816715e-14 -8.075185214517083265e-14
5.696000000000000000e+03 3.534304428100585938e+01 5.953854560852050781e+00 1.274519498186549304e-13 2.147505805995264527e-13 1.026607591254544150e-13 -2.187498500481194208e-14
5.697000000000000000e+03 3.409778976440429688e+01 6.591975688934326172e+00 1.122765075356468856e-13 1.167449248168014875e-13 6.870642699522908070e-14 -6.510205785917322352e-14
5.698000000000000000e+03 3.310543441772460938e+01 9.860544204711914062e+00 -1.270479286553417853e-14 4.030603907817335851e-14 8.280373016758806742e-15 -1.389115466534848742e-13
5.699000000000000000e+03 3.367004394531250000e+01 1.119248771667480469e+01 2.438645124594809865e-14 1.019532358927446869e-13 3.790190546398147786e-14 -1.298672269983008887e-13
5.700000000000000000e+03 3.250937652587890625e+01 1.214636421203613281e+01 2.328756829842078269e-14 -2.433282559005742890e-14 -3.135769439690215283e-16 -6.749475652857717112e-14
5.701000000000000000e+03 2.971964645385742188e+01 1.754112815856933594e+01 4.620456645868138701e-14 4.267742978675617693e-14 2.666459887363126918e-14 -4.349701547838764892e-14
5.702000000000000000e+03 3.178448486328125000e+01 1.618725013732910156e+01 -3.256620394835314618e-15 -4.714664327888119788e-14 -1.512097975856548787e-14 -7.847718921103266632e-14
5.703000000000000000e+03 3.493146514892578125e+01 6.933405876159667969e+00 1.228651105552105993e-13 1.441583804369026001e-13 8.010704323187581299e-14 -5.788266052445326104e-14
5.704000000000000000e+03 3.461085128784179688e+01 2.113658428192138672e+00 -4.550329094099060667e-14 7.200048391699243044e-14 7.949158570426904935e-15 3.858939170880743182e-16
5.705000000000000000e+03 3.372586059570312500e+01 7.654464244842529297e+00 3.841644409812057515e-14 1.646419105379420128e-14 1.646419105379420128e-14 -1.136736849940110650e-14
5.706000000000000000e+03 2.403444290161132812e+01 3.171817302703857422e+00 -4.801281578261165639e-14 1.109570538205227608e-13 1.888327141137333132e-14 5.885160522973997832e-14
5.707000000000000000e+03 2.450849151611328125e+01 3.863417387008666992e+00 -2.977846647652521161e-14 -1.276219967650139148e-14 -1.276219967650139148e-14 -1.916310229802594550e-14
5.708000000000000000e+03 2.307687568664550781e+01 4.729355812072753906e+00 -4.690181835811447261e-16 4.554994212759358452e-14 1.352427691321198000e-14 9.459193004617352796e-14
5.709000000000000000e+03 2.274460601806640625e+01 4.107699871063232422e+00 -9.805338100710506155e-15 -4.995323612763148680e-14 -1.792757260731577679e-14 8.528147941522581932e-14
5.710000000000000000e+03 1.112919712066650391e+01 2.828378677368164062e+01 8.990967421528689441e-14 8.428366782709667548e-14 5.225800261271507097e-14 -9.706291997089219054e-15
5.711000000000000000e+03 3.132315254211425781e+01 1.485925674438476562e+01 9.034360580603348345e-14 7.303189899620504688e-14 4.901265008541884349e-14 -1.292873143612927045e-14
5.712000000000000000e+03 1.220606899261474609e+01 2.316561126708984375e+01 -8.031081903019446355e-15 -1.487962957870663655e-14 -6.873213275111235421e-15 6.674343830436260672e-14
5.713000000000000000e+03 1.174005317687988281e+01 2.203953361511230469e+01 -6.756140785713071750e-14 1.679606025659433066e-14 -1.522960326372137935e-14 1.021275823783439340e-13
5.714000000000000000e+03 1.281432819366455078e+01 2.952234840393066406e+01 9.817258903596984276e-14 8.782491606792314220e-14 5.579925085354153769e-14 -6.252998916351810033e-16
5.715000000000000000e+03 1.240856266021728516e+01 3.639037322998046875e+01 1.917793045680057928e-14 1.679741550930993754e-14 1.079260328161338670e-14 3.750795044021350277e-14
5.716000000000000000e+03 3.129331779479980469e+01 1.809647560119628906e+01 -5.002950975046584203e-15 -7.077054464373414011e-14 -2.273204851622762784e-14 -7.240026313930572610e-14
5.717000000000000000e+03 3.073754310607910156e+01 1.682015991210937500e+01 1.047803066100277958e-13 9.065679793234665551e-14 5.863113271796505099e-14 -2.218451794879297556e-14
5.718000000000000000e+03 3.020936012268066406e+01 1.883658027648925781e+01 6.687310888419187305e-14 -5.653306683596698648e-15 1.836594095664008386e-14 -4.845354735385880296e-14
5.719000000000000000e+03 2.570249176025390625e+01 2.700386619567871094e+01 1.582059000948196625e-14 8.684441105697229824e-14 3.079950031993627935e-14 -2.099525319766183673e-14
5.720000000000000000e+03 3.899163436889648438e+01 -1.044740104675292969e+01 -1.048214317536828866e-13 -9.067441621764954496e-14 -5.864875100326794044e-14 -7.928309701463187587e-15
5.721000000000000000e+03 3.542534637451171875e+01 -9.271299362182617188e+00 -1.545996064999076436e-14 -5.237664482357108631e-14 -2.035098299732127081e-14 1.016389121304139831e-13
5.722000000000000000e+03 3.573775863647460938e+01 -9.935590744018554688e+00 -4.704726598537753435e-14 -2.016311278368616150e-14 -2.016311278368616150e-14 1.204289624837442951e-13
5.723000000000000000e+03 3.365891265869140625e+01 -6.423704147338867188e+00 -1.338139668516369341e-13 1.485304256974503967e-13 4.414936044381439009e-15 -8.538197987441754205e-15
5.724000000000000000e+03 3.694070053100585938e+01 9.397304803133010864e-02 -1.630049791333080828e-15 -2.294533378403851298e-13 -6.932501854474068526e-14 -6.857518432224971039e-14
5.725000000000000000e+03 3.579336547851562500e+01 -1.984638452529907227e+00 -7.507786981084813016e-14 -2.931679625082193874e-14 -3.131839947968784177e-14 -1.025083677338479993e-14
5.726000000000000000e+03 2.743685722351074219e+01 1.436803579330444336e+00 -5.469369328638985783e-14 -1.378175324513383759e-13 -5.775336263912078660e-14 9.029323106259437570e-14
5.727000000000000000e+03 4.081121063232421875e+01 -9.423107147216796875e+00 2.079254804898851561e-14 -8.259080810750496493e-14 -1.853947767874175589e-14 -9.864045107251754457e-15
5.728000000000000000e+03 3.639392852783203125e+01 -9.670452117919921875e+00 3.000224241679443071e-14 -1.015192704206802077e-13 -2.145510738472619638e-14 1.629366536441342883e-13
5.729000000000000000e+03 1.425848674774169922e+01 1.071455001831054688e+01 1.757094293740150970e-14 1.676587200235418740e-13 5.556890193760162522e-14 4.755073898109370145e-14
5.730000000000000000e+03 1.207727336883544922e+01 1.227075386047363281e+01 -3.174193628210572604e-14 3.214726187615764286e-14 1.215983161372634455e-16 -5.084250213763588655e-14
5.731000000000000000e+03 3.769623184204101562e+01 -9.182740211486816406e+00 -7.834073559136178755e-14 -7.932555030594826140e-14 -4.729988509156665688e-14 2.603344582551188335e-14
5.732000000000000000e+03 3.865716171264648438e+01 -4.814426898956298828e+00 1.224181346570762940e-13 -8.478793025751968360e-14 1.128906284452628819e-14 -7.945791106241800739e-14
5.733000000000000000e+03 3.786302947998046875e+01 -4.503660678863525391e+00 -9.806601873867809571e-14 3.722653475491657579e-15 -2.830301131537347331e-14 6.168044455181695418e-14
5.734000000000000000e+03 9.629590034484863281e+00 1.386105251312255859e+01 -6.752989145522927950e-14 1.680956704397124774e-14 -1.521609817041035678e-14 1.102759393810425273e-14
5.735000000000000000e+03 3.159359359741210938e+01 -4.565516471862792969e+00 -9.264825370650445202e-14 1.432974019392047049e-13 1.519474277574418136e-14 -1.302488119529071620e-13
5.736000000000000000e+03 3.680687332153320312e+01 -2.607404947280883789e+00 -5.300660016710305456e-14 -1.142190183579805396e-13 -5.016768454108554154e-14 8.110408232595706091e-14
5.737000000000000000e+03 3.738214111328125000e+01 -3.510127544403076172e+00 -6.427929071179186438e-14 1.820268043825450099e-14 -1.382298308206120901e-14 2.677585156905543801e-14
5.738000000000000000e+03 1.122380638122558594e+01 1.857529067993164062e+01 -4.320944779279481396e-14 -6.426928217048710756e-14 -3.224362034423729206e-14 -4.037301566737865055e-14
5.739000000000000000e+03 3.361110687255859375e+01 -8.244791984558105469e+00 -1.079699277575264793e-13 -9.202377358394353557e-14 -5.999810836956193105e-14 -3.548832912649360627e-14
5.740000000000000000e+03 3.733111190795898438e+01 -1.019400310516357422e+01 -4.641850665236708917e-15 -1.392422147635657970e-13 -4.316521912042098341e-14 4.339935935583280613e-14
5.741000000000000000e+03 3.589533615112304688e+01 -5.820607662200927734e+00 3.316124459379929217e-15 1.844249850491835874e-13 5.632233435605253635e-14 2.646632540133798256e-14
5.742000000000000000e+03 3.762512969970703125e+01 -2.169541597366333008e+00 1.974269306251417305e-14 1.914649537006207769e-13 6.336229284309435883e-14 5.732494015066313953e-14
5.743000000000000000e+03 3.312220764160156250e+01 -4.098678112030029297e+00 -1.077283742897602870e-13 6.820806669038254055e-14 -1.185609295743968172e-14 -7.679291501739432535e-14
5.744000000000000000e+03 4.040752029418945312e+01 -8.811191558837890625e+00 2.807616911583519365e-14 1.492854911954236141e-13 5.320849894041058958e-14 -1.781108524827757639e-14
5.745000000000000000e+03 3.991567993164062500e+01 -7.711595058441162109e+00 1.373111981783263838e-14 -8.561713485530017542e-14 -2.156580442653696639e-14 -5.570682854756777921e-15
5.746000000000000000e+03 3.587483978271484375e+01 1.545024514198303223e+00 6.368843271503926012e-15 5.419932081265899093e-14 1.817044914054558036e-14 -8.615276460982590478e-14
5.747000000000000000e+03 3.211020660400390625e+01 -3.570327997207641602e+00 -2.022413981346993933e-14 2.200872540854617587e-13 5.995893478981731417e-14 -7.018823998568290978e-14
5.748000000000000000e+03 3.119219398498535156e+01 -3.099361896514892578e+00 -9.808417234880364988e-14 1.180922493040220678e-13 6.002422747752346466e-15 -5.991283586869594613e-14
5.749000000000000000e+03 3.132883834838867188e+01 -1.412855267524719238e+00 -3.787002992011040403e-14 5.239641118442821266e-14 4.357913786372279510e-15 7.731539882057866797e-14
5.750000000000000000e+03 2.164961051940917969e+01 8.579066276550292969e+00 4.959742807967605638e-14 -9.312133177194134581e-14 -1.305717043005322903e-14 4.591032754159597717e-14
5.751000000000000000e+03 3.591822433471679688e+01 3.135961890220642090e-01 -7.089717945748044703e-14 -7.613545481999911546e-14 -4.410979299374929996e-14 -5.391895968338139555e-14
5.752000000000000000e+03 2.530028724670410156e+01 3.552319526672363281e+00 6.208267678154549829e-14 2.553615955844246166e-13 9.523328306504375007e-14 -4.336435466049633810e-16
5.753000000000000000e+03 1.199729442596435547e+01 1.576015186309814453e+01 -3.591321101723173037e-14 5.323504495297753936e-14 5.196550519536921597e-15 8.138852276590863299e-14
5.754000000000000000e+03 3.909597778320312500e+01 -7.095082283020019531e+00 -5.773156339919024993e-14 -1.619949427421676913e-13 -6.591795387528645578e-14 5.121662981417453298e-14
5.755000000000000000e+03 1.086166286468505859e+01 9.987851142883300781e+00 -8.056271985244431444e-14 5.697502067575702100e-14 -7.076310176522661657e-15 5.479807230944705801e-15
5.756000000000000000e+03 1.142753314971923828e+01 9.950605392456054688e+00 -6.254887693945068716e-14 -4.968213476253327543e-14 -3.366930215534247317e-14 6.611839659895766066e-15
5.757000000000000000e+03 1.098037624359130859e+01 1.406847953796386719e+01 -7.495680000356528400e-15 2.827310054912685056e-13 8.257059451325168831e-14 -1.654253821328343504e-14
5.758000000000000000e+03 1.898558235168457031e+01 1.053836059570312500e+01 4.770604077790688291e-14 3.178266027095699719e-13 1.096597991448802767e-13 5.008378762172589760e-14
5.759000000000000000e+03 3.642504882812500000e+01 -3.167713582515716553e-01 -6.639908891811763247e-14 -7.420770269973842037e-14 -4.218203748535681585e-14 1.017101577656734368e-13
5.760000000000000000e+03 1.138366508483886719e+01 1.216494560241699219e+01 -1.031626430873615330e-13 -2.133708689605346570e-14 -3.734991780917837345e-14 8.664290700101818371e-15
5.761000000000000000e+03 3.864757919311523438e+01 -9.694469451904296875e+00 1.576959354385957385e-14 9.826029421546034204e-14 3.420896717482892202e-14 2.614811206371348701e-14
5.762000000000000000e+03 3.867781066894531250e+01 -7.964978694915771484e+00 6.834220960417330959e-15 -4.282199798206175190e-14 -1.079633276768014738e-14 5.592263983703396613e-14
5.763000000000000000e+03 1.447523212432861328e+01 1.173378562927246094e+01 -6.301536847668973151e-14 6.449531121839602310e-14 4.439839660063662694e-16 9.478735748776404013e-14
5.764000000000000000e+03 1.223101425170898438e+01 2.042201995849609375e+01 -7.724278438007645131e-14 1.041487927258728796e-13 8.071803011958696844e-15 4.328931961158910546e-14
5.765000000000000000e+03 3.285287857055664062e+01 7.378987312316894531e+00 -2.512250593645314056e-14 1.264860612082419067e-13 3.040906556509709313e-14 -1.058085012699749514e-14
5.766000000000000000e+03 1.742736244201660156e+01 1.208583927154541016e+01 1.748481323919290342e-14 -1.538198279686653347e-14 6.308489632913215350e-16 1.094680986482576834e-14
5.767000000000000000e+03 3.799935913085937500e+01 -9.956037521362304688e+00 -1.098548200106561068e-13 -4.708063569536756476e-14 -4.708063569536756476e-14 9.839587369712965437e-14
5.768000000000000000e+03 3.963386917114257812e+01 -1.012727642059326172e+01 -1.554360176540033750e-14 2.765166838992333398e-14 3.632420326170077846e-15 -3.069707709595428935e-14
5.769000000000000000e+03 2.106501960754394531e+01 1.026633644104003906e+01 8.891461379017043254e-14 -7.644685801272768644e-15 2.438097941310883587e-14 6.801108070816908047e-14
5.770000000000000000e+03 1.643586158752441406e+01 1.167655372619628906e+01 -4.422464049700161604e-14 2.784277528585649142e-13 7.026093574134806286e-14 7.782779954355889540e-14
5.771000000000000000e+03 2.274936294555664062e+01 6.071302413940429688e+00 1.500706975137919286e-13 8.719148450117564231e-14 7.117865189398484005e-14 2.400356694280073727e-14
5.772000000000000000e+03 1.275525093078613281e+01 2.141072082519531250e+01 -7.964745670722278570e-14 1.161632418809335418e-14 -2.040934017925530308e-14 1.160327903367269070e-14
5.773000000000000000e+03 3.076031112670898438e+01 -5.883882939815521240e-02 7.202960660378492780e-15 3.086983200664564567e-15 3.086983200664564567e-15 5.595377338004324519e-14
5.774000000000000000e+03 3.484026718139648438e+01 3.328177452087402344e+00 5.638036627733482298e-14 1.442592518965252202e-13 6.019188917910298087e-14 6.022191437950077768e-16
5.775000000000000000e+03 2.977815437316894531e+01 3.762334287166595459e-01 -2.287671666142097882e-14 -3.267978132570105443e-14 -1.666694871851025217e-14 6.554988756651836113e-14
5.776000000000000000e+03 3.230607986450195312e+01 9.641987800598144531e+00 -2.292554641676429472e-14 8.167666304577381187e-14 1.762533600514239185e-14 -8.839477272978152333e-14
5.777000000000000000e+03 3.116114044189453125e+01 1.051368427276611328e+01 2.470312806580627490e-14 5.633800446557674091e-14 2.431233925119513639e-14 -1.072568937284619148e-14
5.778000000000000000e+03 3.235557937622070312e+01 5.679993629455566406e+00 6.224120746795361314e-14 9.530122865994070103e-14 4.726273083836829425e-14 -1.616505967440545061e-14
5.779000000000000000e+03 3.376328277587890625e+01 5.179452419281005859e+00 9.081084950852968962e-14 1.604345962449762325e-14 3.205629053762253100e-14 -9.124070856486587999e-14
5.780000000000000000e+03 3.158808898925781250e+01 1.199286651611328125e+01 8.094667819336879427e-15 -6.515727763107062587e-14 -1.711878319763000811e-14 -1.427089749270107205e-14
5.781000000000000000e+03 2.513384628295898438e+01 2.857656478881835938e+00 -7.111164142346165784e-14 1.525273776638996770e-13 2.442472019450504794e-14 -4.284018208537340722e-14
5.782000000000000000e+03 2.234098052978515625e+01 4.701880455017089844e+00 -1.298921212966206926e-14 -9.706870181779014839e-14 -3.301737477715872837e-14 1.073815109097278619e-13
5.783000000000000000e+03 2.345000839233398438e+01 5.430908203125000000e+00 -1.097400030005898919e-13 -2.414729657548853048e-13 -1.053638919818952746e-13 1.205744353102375377e-13
5.784000000000000000e+03 3.013311386108398438e+01 1.553258514404296875e+01 -2.560804555061003962e-14 3.477607267367462118e-14 2.750408094567727106e-15 -5.346389631466670622e-14
5.785000000000000000e+03 1.390690135955810547e+01 2.365407562255859375e+01 1.720274279742774887e-14 7.372604419054584052e-15 7.372604419054584052e-15 3.580049464887470612e-14
5.786000000000000000e+03 1.200553989410400391e+01 2.636360931396484375e+01 6.271612867708373229e-14 4.002866797519957082e-15 2.001569855767781209e-14 1.733334511349899493e-14
5.787000000000000000e+03 2.866735839843750000e+01 1.791399955749511719e+01 3.662372597031116062e-14 -7.580601321362581690e-14 -1.175468617299439689e-14 4.826321905061076167e-14
5.788000000000000000e+03 2.904662132263183594e+01 1.658863830566406250e+01 7.897222914672596961e-14 5.672071427993696791e-14 4.070788167274616565e-14 -2.716352838461836422e-14
5.789000000000000000e+03 1.271709442138671875e+01 2.438653182983398438e+01 2.156480492765920631e-14 1.007439574471358235e-13 3.669262701837261442e-14 -1.099333569055255255e-14
5.790000000000000000e+03 1.244345092773437500e+01 2.785173225402832031e+01 3.775412531973991459e-14 3.905581167176243318e-14 2.304298075863752543e-14 5.361730075767803805e-14
5.791000000000000000e+03 1.306921768188476562e+01 3.368915939331054688e+01 6.687563643050647988e-14 4.009872268213518498e-14 3.209230637853978385e-14 3.274728900456427491e-15
5.792000000000000000e+03 2.956250572204589844e+01 2.806658363342285156e+01 4.307938757780981065e-14 1.214022236689302203e-13 4.934448371283518819e-14 7.028278326215659302e-15
5.793000000000000000e+03 2.915732765197753906e+01 2.397861862182617188e+01 3.031817554172491769e-14 9.019822784723033338e-14 3.615492033906021752e-14 -3.966881280382215935e-14
5.794000000000000000e+03 3.985669708251953125e+01 -9.127990722656250000e+00 5.505914734554862022e-14 -1.594070199190805726e-13 -3.130436244968594350e-14 -5.038638844806660189e-14
5.795000000000000000e+03 3.958073806762695312e+01 -6.739637851715087891e+00 4.981686636422238620e-16 -9.128839990792808612e-14 -2.723706778509898258e-14 -2.738185654778402256e-13
5.796000000000000000e+03 3.608422470092773438e+01 -8.953282356262207031e+00 -5.339620144152214254e-14 -1.144634923953488648e-14 -1.945276554313028761e-14 3.171552579481033696e-14
5.797000000000000000e+03 3.440647125244140625e+01 -9.049821853637695312e+00 6.211497923002198829e-14 -2.021340451789643833e-13 -4.200571910705636069e-14 7.881418635129547323e-14
5.798000000000000000e+03 3.353905105590820312e+01 -5.685046672821044922e+00 1.828588956686097444e-14 9.933870945885020509e-14 3.528737903008699606e-14 -1.654320228711408242e-14
5.799000000000000000e+03 3.476578903198242188e+01 -9.667474746704101562e+00 -5.281875875258815189e-14 -1.255762394026735396e-13 -5.351850283471029646e-14 1.740479640835804198e-13
5.800000000000000000e+03 3.371040344238281250e+01 -7.042181015014648438e+00 7.995327795282895084e-15 3.426569297130654251e-15 3.426569297130654251e-15 -6.188137431943283029e-14
5.801000000000000000e+03 3.698726272583007812e+01 -1.343928098678588867e+00 -4.952371249634240913e-14 2.075302955742777677e-13 4.740197289050153417e-14 4.155439284770495734e-14
5.802000000000000000e+03 3.508260345458984375e+01 -3.017836093902587891e+00 -7.815812884046091646e-14 1.952584009192945280e-13 3.513008162365008347e-14 -2.007422514620129522e-14
5.803000000000000000e+03 3.713756561279296875e+01 -4.151684284210205078e+00 -6.643226550459568891e-14 1.727997695562429048e-14 -1.474568656469141953e-14 -3.212806472144107139e-14
5.804000000000000000e+03 1.250582122802734375e+01 1.889195251464843750e+01 -6.363513909606391405e-14 -7.302315083992580447e-14 -4.099748562554419995e-14 4.853066123337683446e-14
5.805000000000000000e+03 3.833166503906250000e+01 -8.938935279846191406e+00 -1.570347042505193524e-13 2.420131186653493721e-14 -3.985001686816237731e-14 1.207100283444340061e-13
5.806000000000000000e+03 3.397269439697265625e+01 -8.611641883850097656e+00 -1.086247333536649942e-14 -5.326572787445887913e-14 -1.923846112527726609e-14 2.656063235561938185e-14
5.807000000000000000e+03 3.516487121582031250e+01 -6.538999080657958984e+00 2.405843943118976536e-14 1.933145483967724232e-13 6.521190109177316119e-14 1.585988962772913458e-13
5.808000000000000000e+03 3.835493087768554688e+01 -5.589961051940917969e+00 -3.925972299535264443e-14 -8.545201764069421113e-14 -3.741352320725359337e-14 -1.372947763270614911e-15
5.809000000000000000e+03 3.533010864257812500e+01 9.603450894355773926e-01 6.141040367196870520e-14 7.206968989691489580e-14 4.004402807066508030e-14 -6.663070160721484836e-14
5.810000000000000000e+03 3.701001358032226562e+01 -5.836093425750732422e+00 -6.341295896586732206e-14 -1.572812382720154001e-13 -6.620826255949660566e-14 9.281106021523030658e-14
5.811000000000000000e+03 1.104169559478759766e+01 1.622318649291992188e+01 -3.965863824405974070e-14 1.731665348224040168e-14 -6.702595428545801703e-15 -1.374719989130331402e-14
5.812000000000000000e+03 3.541611099243164062e+01 -1.992326974868774414e-01 -4.080791287568510950e-14 -1.547419554688914123e-13 -5.866495982574659873e-14 -2.361020484209584019e-15
5.813000000000000000e+03 3.235168457031250000e+01 -4.327600955963134766e+00 -1.359669484207043366e-13 -5.827155029119665541e-14 -5.827155029119665541e-14 7.252845649367498093e-14
5.814000000000000000e+03 2.215555572509765625e+01 9.696573257446289062e+00 7.660175662185797485e-14 -1.292162482970180687e-14 1.910403869061390314e-14 9.954443004481575152e-15
5.815000000000000000e+03 1.546608829498291016e+01 1.900509452819824219e+01 -2.240783987940246635e-14 8.189853824410939231e-14 1.784720950941207779e-14 -5.258485229826977136e-14
5.816000000000000000e+03 1.309938621520996094e+01 1.976207351684570312e+01 -3.601602387636945735e-14 5.319098568719315967e-14 5.152487865620752894e-15 -3.122052694021497550e-15
5.817000000000000000e+03 3.186083221435546875e+01 -2.831102609634399414e+00 -7.172646537042387527e-14 -7.649086306840344185e-14 -4.446519785402183733e-14 5.080172597155506453e-14
5.818000000000000000e+03 3.104641532897949219e+01 -7.337936758995056152e-01 7.642408129677601830e-15 1.862791198419325167e-13 5.817645898440609864e-14 -7.880873145911515554e-14
5.819000000000000000e+03 3.388268280029296875e+01 -1.976578116416931152e+00 -1.127647305501806863e-13 2.029868210096010678e-14 -2.773981402654640549e-14 3.041057074264436402e-15
5.820000000000000000e+03 1.282549476623535156e+01 1.209437084197998047e+01 -8.998226155073479893e-14 -3.856382444281103439e-14 -3.856382444281103439e-14 1.094739126824076370e-13
5.821000000000000000e+03 3.591532516479492188e+01 -8.474382162094116211e-01 2.137954696363342927e-14 5.491361353268317536e-14 2.288794831830157084e-14 -3.614503038236807630e-14
5.822000000000000000e+03 3.953288269042968750e+01 -8.466080665588378906e+00 -5.772593232415690334e-14 -7.049063074785269500e-14 -3.846496892160287950e-14 8.061546290000394521e-15
5.823000000000000000e+03 3.574379730224609375e+01 -8.218132972717285156e+00 2.143640659131671594e-14 -1.368844290981817771e-14 2.324389485614387733e-15 2.250936524846036679e-14
5.824000000000000000e+03 3.678033828735351562e+01 -4.736703395843505859e+00 -1.178690137707731969e-14 -1.648926661716471759e-14 -8.482850313569316458e-15 1.206417371600945754e-13
5.825000000000000000e+03 2.690078544616699219e+01 2.821897745132446289e+00 -1.798027330322804485e-14 2.896753475110924736e-13 8.150851684134846620e-14 5.837143241633688251e-14
5.826000000000000000e+03 2.531927490234375000e+01 5.035353660583496094e+00 7.569921591150420570e-15 9.760558518107781412e-14 3.155265152344870205e-14 -6.643232394986904946e-15
5.827000000000000000e+03 2.246732902526855469e+01 8.924221038818359375e+00 1.966292119360765756e-14 1.113665976386520040e-13 3.930885768255697188e-14 -1.784144460317306502e-14
5.828000000000000000e+03 1.772400856018066406e+01 1.108301067352294922e+01 1.469749886032212238e-14 3.036800953933049829e-13 9.551327827608813159e-14 6.175228649827127492e-14
5.829000000000000000e+03 3.704786300659179688e+01 -9.425488471984863281e+00 -1.097074498303610146e-13 -2.071457968263329397e-13 -9.505597535226090189e-14 1.110713151769755769e-13
5.830000000000000000e+03 1.184535312652587891e+01 1.151784324645996094e+01 -1.185957934505058042e-13 -1.537664039066161115e-13 -8.170866056238929032e-14 2.686458843467569302e-14
5.831000000000000000e+03 1.071428585052490234e+01 1.084922790527343750e+01 -4.856836436392501788e-14 -6.656596118499030768e-14 -3.454029935874049217e-14 -3.083802168431151042e-15
5.832000000000000000e+03 3.899671173095703125e+01 -6.476203441619873047e+00 2.848908581916040350e-14 -1.250432320621525095e-13 -2.896624658340306302e-14 8.664131966127502915e-14
5.833000000000000000e+03 3.751995086669921875e+01 -5.228978633880615234e+00 -1.101402633376172280e-13 -9.295391740398242786e-14 -6.092825218960082334e-14 -4.527640808387085880e-14
5.834000000000000000e+03 3.418567276000976562e+01 -4.766612052917480469e+00 -3.240325217347683751e-14 1.233657409083557810e-13 2.728874695927686195e-14 2.534106245970137866e-14
5.835000000000000000e+03 1.126620769500732422e+01 1.317925739288330078e+01 -5.229192797631850020e-14 4.646487641227334178e-16 -1.554818251957908876e-14 3.662506142363162543e-16
5.836000000000000000e+03 1.837943267822265625e+01 1.255051994323730469e+01 2.179884013098556950e-14 5.509330987837728066e-14 2.306764466399567615e-14 6.034778389897924034e-14
5.837000000000000000e+03 3.431596374511718750e+01 4.233917713165283203e+00 2.096534277022839288e-14 1.862700803063194188e-13 6.217062590652480680e-14 -3.128721511470172745e-14
5.838000000000000000e+03 3.460533142089843750e+01 1.345962643623352051e+00 -1.707693129970617313e-14 1.528096361469791220e-13 4.071981128477529521e-14 -3.196927992514878025e-14
5.839000000000000000e+03 1.991692161560058594e+01 1.090319252014160156e+01 6.189362580398191649e-14 2.652583963027796421e-14 2.652583963027796421e-14 -4.443818089113621417e-14
5.840000000000000000e+03 2.815666389465332031e+01 3.451662540435791016e+00 5.821139062315086599e-14 1.164496423551250603e-13 5.239830853823006229e-14 7.362650257265040965e-14
5.841000000000000000e+03 3.261285018920898438e+01 8.536128044128417969e+00 6.006232024322738505e-14 2.201825283513689224e-13 8.407345457837889224e-14 -1.215991825460893683e-13
5.842000000000000000e+03 2.401104354858398438e+01 6.050663471221923828e+00 8.704397201934541140e-14 2.014795428206209854e-14 3.215757873745520024e-14 5.018949733354323428e-14
5.843000000000000000e+03 2.485082817077636719e+01 4.541850090026855469e+00 -5.006919154997881150e-14 1.157946216126179428e-13 1.971762766353902380e-14 1.516224483206346507e-13
5.844000000000000000e+03 2.901497459411621094e+01 2.221213579177856445e+00 3.621035356326032795e-14 8.414514744703449622e-14 3.610664962546208945e-14 -9.510635856602948218e-15
5.845000000000000000e+03 2.351970100402832031e+01 6.578434944152832031e+00 -1.313805614728538393e-14 -3.030117660691306058e-13 -9.484494895191375452e-14 9.233896470801222778e-14
5.846000000000000000e+03 3.171111297607421875e+01 -4.092415273189544678e-01 -1.121685497983875360e-15 -2.335619660187322061e-14 -7.343364841715365604e-15 3.383309461041893174e-14
5.847000000000000000e+03 3.321870803833007812e+01 6.223146915435791016e+00 7.951889743462031701e-14 1.827701130632103377e-13 7.868670450460191201e-14 5.285387335044952617e-15
5.848000000000000000e+03 3.074351692199707031e+01 2.631777048110961914e+00 -1.553598355107273232e-14 3.909267115749515131e-14 7.067005943113546795e-15 -6.529649596628134267e-14
5.849000000000000000e+03 3.184362030029296875e+01 8.392147064208984375e+00 -6.333588913206254778e-15 3.175422435847813363e-13 9.336260063663726072e-14 -6.202213256054165541e-15
5.850000000000000000e+03 3.155044746398925781e+01 9.431289672851562500e+00 1.031555347868681749e-13 6.708498909374985275e-14 5.107215987469083951e-14 5.322836355708959744e-14
5.851000000000000000e+03 3.195457267761230469e+01 1.077237415313720703e+01 8.684738583668305534e-14 -1.229080178561867132e-13 -1.081818791178520284e-14 -1.160450316568806262e-13
5.852000000000000000e+03 2.231538581848144531e+01 6.936476707458496094e+00 -2.886740122659027519e-14 -2.182510086285588402e-13 -7.413552194010519791e-14 9.466852215339605081e-14
5.853000000000000000e+03 3.193354797363281250e+01 1.932875823974609375e+01 6.213728668972087754e-14 7.238121506238787140e-14 4.035554984800626688e-14 -7.432852347933477377e-14
5.854000000000000000e+03 2.741963005065917969e+01 1.823410987854003906e+01 2.169979995659491318e-14 6.648860335998346693e-14 2.645652014794056678e-14 -3.342638665859709590e-14
5.855000000000000000e+03 1.331401443481445312e+01 2.248263168334960938e+01 -3.255897071050006808e-14 2.607823523369679625e-14 -1.944220770095923638e-15 2.446824074733497389e-14
5.856000000000000000e+03 1.438925647735595703e+01 2.169993972778320312e+01 -4.898367817049095740e-15 -5.928798305163823779e-14 -1.925590661585891566e-14 4.104060637882302187e-14
5.857000000000000000e+03 2.986291122436523438e+01 1.122854328155517578e+01 1.145296710795178433e-14 -1.796705958925087776e-14 -1.954227829093022756e-15 -4.593500669354717847e-14
5.858000000000000000e+03 1.437414646148681641e+01 2.890712928771972656e+01 4.556547671184622839e-15 3.054714887615848917e-14 1.053110896420293360e-14 5.298459763926517685e-14
5.859000000000000000e+03 1.381331825256347656e+01 2.721675872802734375e+01 8.672489809624650547e-14 1.057942389292090835e-13 5.775574110763667668e-14 -2.113707361808651874e-14
5.860000000000000000e+03 3.620061874389648438e+01 -3.066485404968261719e+00 -6.849351679360723977e-14 6.214753240025086556e-14 -1.903795487413501714e-15 8.381422861520118617e-14
5.861000000000000000e+03 3.628995132446289062e+01 -5.259863853454589844e+00 1.853304869867209576e-14 -2.551252124057684645e-13 -7.097765436373318360e-14 2.028871591130271268e-14
5.862000000000000000e+03 3.674159622192382812e+01 -8.676903724670410156e+00 2.299446948768237714e-14 -5.877165209578275040e-14 -1.073315427421034363e-14 2.377572524438469753e-14
5.863000000000000000e+03 3.844059371948242188e+01 -7.225216388702392578e+00 3.439213635560676996e-14 -2.826416672322557000e-13 -7.447486366756600473e-14 -1.626187384621072263e-13
5.864000000000000000e+03 2.611927223205566406e+01 3.278788566589355469e+00 -1.015385082329782473e-13 9.373634545428374820e-14 -2.340648494795170842e-15 1.284188514804728704e-14
5.865000000000000000e+03 3.505955505371093750e+01 -8.567342758178710938e+00 -2.905483267715870677e-14 -1.039539683717408125e-13 -3.990264133110939249e-14 1.506369898610082636e-13
5.866000000000000000e+03 3.644739913940429688e+01 -6.264803409576416016e+00 -1.138426257153409352e-14 -9.638087040703818831e-14 -3.232953997827497927e-14 2.080979533386050767e-14
5.867000000000000000e+03 3.226382446289062500e+01 -1.817879080772399902e+00 1.581884745095122734e-15 1.150553177037272334e-13 3.499116144403680018e-14 1.681814138908971357e-13
5.868000000000000000e+03 3.336403656005859375e+01 -4.901839256286621094e+00 -9.949818882215924476e-14 7.173529484186605409e-14 -8.328868194087957200e-15 -3.001966419045355716e-14
5.869000000000000000e+03 3.431851959228515625e+01 -5.636064052581787109e+00 -1.115186637696066740e-13 1.580855536536737715e-13 1.397006950631897101e-14 4.901683104004649072e-14
5.870000000000000000e+03 3.672966766357421875e+01 -3.249170541763305664e+00 1.297034108263019070e-14 -1.088186547706752882e-13 -2.875449512285306597e-14 7.396936118090821632e-14
5.871000000000000000e+03 3.804289245605468750e+01 -8.180534362792968750e+00 2.354293009729311464e-14 -1.271630234922146996e-13 -3.108602784906988603e-14 8.899460080544555063e-14
5.872000000000000000e+03 3.926856994628906250e+01 -9.417638778686523438e+00 -1.822723422932950865e-14 -1.107513061295029022e-13 -3.869356278527608106e-14 -5.652100762789692701e-14
5.873000000000000000e+03 3.390229415893554688e+01 -3.868378400802612305e+00 -1.340474362369545314e-13 1.141171575638755264e-13 -5.979082331374280593e-15 9.717396429621133480e-14
5.874000000000000000e+03 1.296226882934570312e+01 1.303126811981201172e+01 1.001887425968036802e-14 1.644221190406566779e-13 5.233230095471642918e-14 -7.344621838609090986e-15
5.875000000000000000e+03 3.168898773193359375e+01 6.552157878875732422e+00 -9.491155284662225466e-14 3.868090472491231280e-13 8.756924764312390419e-14 -6.651796850995711583e-16
5.876000000000000000e+03 3.494668197631835938e+01 3.595415949821472168e-01 -3.820816886078610974e-14 -6.212587546185546761e-14 -3.010021363560565211e-14 3.160765445491160730e-14
5.877000000000000000e+03 1.152273464202880859e+01 1.478235244750976562e+01 -3.574826998547879497e-14 9.905668136873241325e-14 1.899252341497608548e-14 1.102651227703060899e-14
5.878000000000000000e+03 3.200782775878906250e+01 7.347865104675292969e+00 -2.731719879597513390e-14 2.856738012379372860e-13 7.750697734445685660e-14 8.840676841038053874e-15
5.879000000000000000e+03 2.958067321777343750e+01 7.484209060668945312e+00 -9.271515914494217470e-15 1.332793332078571757e-13 3.720234772910772925e-14 7.159689643454827945e-14
5.880000000000000000e+03 3.031068420410156250e+01 1.297126173973083496e+00 1.663485294607289222e-14 5.288017202939587769e-14 2.085450681501427317e-14 1.243993243919133684e-14
5.881000000000000000e+03 3.191640281677246094e+01 3.143449068069458008e+00 -6.280651048068755515e-14 6.458482566026185756e-14 5.334940138887868475e-16 -3.418132001943054166e-14
5.882000000000000000e+03 3.426737213134765625e+01 -7.181317329406738281e+00 -9.019003534456448978e-14 -8.440381775659880348e-14 -5.237815593034898798e-14 1.292652915046640927e-13
5.883000000000000000e+03 3.470216751098632812e+01 -7.778791427612304688e+00 2.360422817762001385e-14 -3.563485227384144416e-14 -3.609186635943366014e-15 1.194712189421520687e-13
5.884000000000000000e+03 3.254063034057617188e+01 -2.548633813858032227e+00 -5.681434191379466925e-14 4.427742081401092600e-14 -3.761076584045007151e-15 -6.591318338572751956e-14
5.885000000000000000e+03 3.142958068847656250e+01 2.699770629405975342e-01 2.131221462059029043e-14 5.488475342610432683e-14 2.285909159985451133e-14 -1.220717185104400193e-13
5.886000000000000000e+03 3.321535873413085938e+01 -2.263861417770385742e+00 -9.264648510171058504e-14 6.045312684553041591e-15 -2.598035210631208930e-14 4.603212071501577851e-14
5.887000000000000000e+03 2.553944015502929688e+01 4.347314834594726562e+00 -1.068329588205588210e-13 1.600937129175514229e-13 1.597822622909778056e-14 2.865498230407784175e-14
5.888000000000000000e+03 1.464042282104492188e+01 1.988025665283203125e+01 -9.900988449246250767e-15 1.863219390514821161e-14 2.619361509715646165e-15 2.127834685522727448e-14
5.889000000000000000e+03 1.541519832611083984e+01 1.158452129364013672e+01 -4.135712903868479784e-14 5.150990734886480918e-15 -1.086184144878784771e-14 5.717677799456236457e-15
5.890000000000000000e+03 2.326001739501953125e+01 7.365878105163574219e+00 9.434787613714704091e-14 1.776876443291414143e-13 8.161065546226017875e-14 5.906381747621328171e-14
5.891000000000000000e+03 2.360375785827636719e+01 8.733383178710937500e+00 1.782590459790955872e-13 -2.438599181527750792e-13 -1.968025995803795308e-14 5.604807864025874997e-14
5.892000000000000000e+03 3.104710960388183594e+01 5.978098392486572266e+00 -4.125324891803353045e-14 1.856972962985953268e-13 4.333321624704761232e-14 -3.448167790252691656e-14
5.893000000000000000e+03 1.362735843658447266e+01 1.189728164672851562e+01 -1.027499500007343983e-14 6.422285121245041584e-14 1.618435847307569259e-14 1.538492200119350589e-14
5.894000000000000000e+03 1.869073867797851562e+01 1.151944255828857422e+01 4.829453894086843668e-14 4.357313324715970937e-14 2.756030233403480162e-14 2.575030981629908289e-14
5.895000000000000000e+03 3.417107772827148438e+01 2.941941499710083008e+00 7.614750301664086063e-14 1.698874873244660133e-13 7.381049845758477779e-14 -6.288561658169752877e-14
5.896000000000000000e+03 3.399527359008789062e+01 1.772438168525695801e+00 3.330050401010795080e-14 6.288202516200117054e-14 2.885476010688545201e-14 -8.077165238734584918e-14
5.897000000000000000e+03 1.261758804321289062e+01 1.120416164398193359e+01 -8.939494923389940118e-14 7.438827995969767015e-15 -2.458683552434594299e-14 4.479219661737525449e-14
5.898000000000000000e+03 1.229942131042480469e+01 1.671003913879394531e+01 3.878291120868425368e-14 6.237219941918059618e-14 3.034653081666720265e-14 2.836993877666782460e-14
5.899000000000000000e+03 1.391660690307617188e+01 1.902480316162109375e+01 -1.563408351889193637e-14 8.480157765236584488e-14 2.075024722360263585e-14 1.780860344174212129e-14
5.900000000000000000e+03 3.527767562866210938e+01 -1.320334076881408691e+00 3.208417486224614257e-14 1.281277330327651454e-13 4.806357338494292308e-14 5.865697061098809617e-14
5.901000000000000000e+03 3.282908248901367188e+01 -3.305943727493286133e+00 -6.894516831361038878e-14 6.195396843114431285e-14 -2.097360303553001681e-15 7.122985334158046800e-14
5.902000000000000000e+03 1.211474418640136719e+01 1.323267078399658203e+01 -1.039575868964914829e-13 4.694864424526282165e-14 -1.710268279536859837e-14 8.566137708020116204e-14
5.903000000000000000e+03 1.235978031158447266e+01 1.427200984954833984e+01 -3.209993306319686157e-14 2.607485896036904061e-13 6.859459154113720092e-14 -1.230335854084194797e-14
5.904000000000000000e+03 2.424588966369628906e+01 6.720408916473388672e+00 2.054786902964695489e-14 1.689345549300141913e-13 5.684472667967857551e-14 2.671987878486792659e-15
5.905000000000000000e+03 1.631393432617187500e+01 1.558003520965576172e+01 3.383112483530009186e-15 1.501404930286456829e-13 4.605708108190546823e-14 5.068293129476854342e-14
5.906000000000000000e+03 2.082555580139160156e+01 1.121238040924072266e+01 4.994887560201902166e-14 2.044104631653692605e-13 7.630780230784284246e-14 6.519351708868595385e-14
5.907000000000000000e+03 1.964818191528320312e+01 1.190735816955566406e+01 3.219056897668486072e-14 1.739242837207541359e-13 6.183445547041852008e-14 7.410363559656404659e-16
5.908000000000000000e+03 3.363129043579101562e+01 3.786916494369506836e+00 1.468135102421566640e-14 1.435448575325473652e-13 4.746786188940255169e-14 -1.457084541185097587e-14
5.909000000000000000e+03 1.541852951049804688e+01 2.082381248474121094e+01 3.632006127058870493e-14 -7.309733398544633609e-15 8.703098361613221395e-15 -2.253776965131359250e-14
5.910000000000000000e+03 2.974788284301757812e+01 2.119131088256835938e+00 -5.468236337368738431e-14 2.231565050748920281e-14 -9.710013859859454449e-15 -8.740889414181329808e-14
5.911000000000000000e+03 3.114294433593750000e+01 9.341648221015930176e-01 -6.895987958183830147e-14 -1.668070792170545102e-13 -7.073009035017327473e-14 -2.920623812241451844e-14
5.912000000000000000e+03 2.423880767822265625e+01 7.566791057586669922e+00 1.085308194226711209e-13 -9.073963775458812608e-14 5.337354923941372078e-15 1.810959287260396899e-13
5.913000000000000000e+03 2.820493316650390625e+01 1.565518951416015625e+01 3.346021037824685462e-14 -8.535384991023922674e-15 7.477446769133932331e-15 1.577998324999059510e-14
5.914000000000000000e+03 2.726978111267089844e+01 3.822931051254272461e+00 -4.697812776809084934e-14 2.561746455698350744e-14 -6.408199386848676196e-15 9.026383563119286246e-14
5.915000000000000000e+03 2.932091903686523438e+01 1.442291736602783203e+01 9.004405429830289465e-14 3.716059239293988126e-14 3.816139570143872728e-14 -5.196635561644825929e-14
5.916000000000000000e+03 3.016788101196289062e+01 1.307188892364501953e+01 2.627607502512108867e-14 5.701212071884675936e-14 2.498645889259694386e-14 8.494903592408745152e-15
5.917000000000000000e+03 1.145680522918701172e+01 1.713622283935546875e+01 -3.067692109994142602e-14 8.979238386901469693e-14 1.773463883072198127e-14 3.997988734776719566e-14
5.918000000000000000e+03 3.170051193237304688e+01 2.154131126403808594e+01 6.266689234592573432e-14 7.260818601093413371e-14 4.058252418468431821e-14 -5.595212674799378283e-14
5.919000000000000000e+03 2.903995895385742188e+01 1.947725677490234375e+01 3.286105315267705274e-14 8.270973153329946870e-14 3.467123371172706192e-14 6.790099437711328081e-15
5.920000000000000000e+03 3.070460510253906250e+01 1.170245933532714844e+01 -2.031623939989079392e-14 -5.445790980706036177e-14 -2.243224459267875726e-14 6.233611581562756299e-14
5.921000000000000000e+03 2.921955108642578125e+01 1.236400794982910156e+01 -1.725865883040779425e-14 -3.027204273928565947e-14 -1.425921013209485722e-14 2.422159661155578320e-14
5.922000000000000000e+03 1.623245239257812500e+01 2.186750793457031250e+01 1.939796928770651241e-14 -1.060639545484055868e-13 -2.599979659464925902e-14 6.565559727833569781e-14
5.923000000000000000e+03 1.518662643432617188e+01 2.636829566955566406e+01 -3.061158436652201831e-14 9.756223742296912804e-15 -6.256608864893889455e-15 4.697749079931451410e-14
5.924000000000000000e+03 1.452831554412841797e+01 2.494223594665527344e+01 5.499180822624190335e-14 6.411312232929835750e-15 1.842093711183941107e-14 1.371927406206528699e-14
5.925000000000000000e+03 1.591210842132568359e+01 2.795270538330078125e+01 4.308225732543510822e-14 7.026087899014059682e-15 1.503250377909298718e-14 -3.055967479938248577e-14
5.926000000000000000e+03 1.677817726135253906e+01 2.969880676269531250e+01 6.733119107833057670e-15 7.151204406202413266e-14 2.347354962858351490e-14 2.687776826733496993e-14
5.927000000000000000e+03 1.555413722991943359e+01 3.327423095703125000e+01 9.657225919553619198e-15 3.845202287003704478e-14 1.443277395925084139e-14 3.839283559581470329e-14
5.928000000000000000e+03 1.508020496368408203e+01 2.281159019470214844e+01 3.016469317168243847e-14 5.867867498322854036e-14 2.665300976884693585e-14 -2.041646033820992273e-14
5.929000000000000000e+03 3.486328125000000000e+01 -6.283149719238281250e-01 -1.785176010921790679e-13 3.786982663220306300e-14 -4.219433301561915928e-14 7.996149586648321206e-14
5.930000000000000000e+03 3.536594772338867188e+01 -2.486990451812744141e+00 -1.133265370109083625e-13 4.293338281462569239e-14 -2.111794592007162213e-14 1.023863001217532875e-13
5.931000000000000000e+03 3.618359756469726562e+01 -2.562096357345581055e+00 -3.177126733900324795e-14 -1.279936307765558445e-13 -4.792946774060183324e-14 3.063939754037806051e-14
5.932000000000000000e+03 3.601520156860351562e+01 -3.500928640365600586e+00 -7.668280073425126631e-14 1.043887876530161241e-13 8.311795398003099522e-15 -7.957073585099228019e-14
5.933000000000000000e+03 3.777091217041015625e+01 -7.409388542175292969e+00 -5.118427315558941870e-14 -6.768706688892178747e-14 -3.566140167454018295e-14 7.103500865865766678e-14
5.934000000000000000e+03 3.739752578735351562e+01 -8.419993400573730469e+00 -5.080404006556696328e-14 -2.177315978609071362e-14 -2.177315978609071362e-14 7.578395647567931492e-14
5.935000000000000000e+03 3.502958297729492188e+01 -4.809665679931640625e+00 -1.031064746385632058e-13 -2.131301591375839299e-14 -3.732584852094919525e-14 8.284656462373071739e-14
5.936000000000000000e+03 3.587420654296875000e+01 -6.479486942291259766e+00 -8.795412247369731318e-15 -2.664493754485960236e-14 -1.063210493766880010e-14 1.781450387325269474e-14
5.937000000000000000e+03 3.642241287231445312e+01 -7.932682514190673828e+00 -8.825990475578790462e-14 7.925276476479069937e-15 -2.410038789086958733e-14 7.388728030018748560e-14
5.938000000000000000e+03 3.580049514770507812e+01 -2.846420526504516602e+00 -9.941884555192403994e-14 2.318976174281450753e-13 3.974362952998723719e-14 -8.954729996792434865e-14
5.939000000000000000e+03 3.651001739501953125e+01 -3.807752847671508789e+00 -2.487197053131426361e-14 3.509153146015464575e-14 3.065868363355409368e-15 1.694836626727966311e-13
5.940000000000000000e+03 3.894766616821289062e+01 -8.696767807006835938e+00 1.150383905973093035e-13 -1.222638933455130750e-13 -2.167647309274400337e-15 -8.224148494379371344e-14
5.941000000000000000e+03 3.611273956298828125e+01 -7.193257331848144531e+00 4.982620490246586487e-14 8.998051327473166605e-14 4.194201545315925928e-14 7.017818401053310673e-14
5.942000000000000000e+03 3.512353897094726562e+01 -5.655955791473388672e+00 -6.858218420252581993e-14 1.078604843244776457e-13 1.178348868133283212e-14 1.279880877929490124e-13
5.943000000000000000e+03 3.749349975585937500e+01 -6.588641166687011719e+00 2.485222449924787136e-14 1.021528510652264243e-13 3.810152402459500431e-14 2.360372334598345029e-14
5.944000000000000000e+03 3.450930404663085938e+01 -4.701733589172363281e-03 -1.101797486254864344e-13 -1.158463109511911893e-13 -6.780781990588236052e-14 -6.693095784635755274e-14
5.945000000000000000e+03 3.352769470214843750e+01 -3.028666973114013672e+00 -1.065814374690693400e-13 4.582414024514695761e-14 -1.822718848955035692e-14 -1.370030120167314847e-13
5.946000000000000000e+03 3.437926864624023438e+01 6.407538652420043945e-01 -1.059140500455323097e-14 -5.029012145954525614e-14 -1.826445793922954614e-14 -6.142539954326689533e-14
5.947000000000000000e+03 3.330559921264648438e+01 -5.090850591659545898e-01 -7.494187020083697970e-14 1.051349017068027580e-13 9.057910298822680756e-15 -4.918523474248780170e-14
5.948000000000000000e+03 1.311935806274414062e+01 1.682902336120605469e+01 -7.280961044579120633e-14 1.060487282841457435e-13 9.971734335066824439e-15 -2.704627191966405692e-14
5.949000000000000000e+03 1.360978221893310547e+01 1.601585388183593750e+01 -1.480164494931882763e-14 1.194715442028038144e-13 3.140097163951797998e-14 1.875412260383957364e-14
5.950000000000000000e+03 3.234604644775390625e+01 1.667515039443969727e+00 2.770482309549533034e-14 1.491263438690298981e-13 5.304934822588508458e-14 3.450761066324005422e-14
5.951000000000000000e+03 3.237166976928710938e+01 -8.768803626298904419e-02 -1.671031998178322455e-15 9.078574345197307216e-14 2.673441302320986313e-14 1.420913354425318298e-14
5.952000000000000000e+03 3.298764801025390625e+01 4.667855262756347656e+00 -7.118400514221148723e-15 1.527884264419798743e-13 4.370100811714079658e-14 5.013232260960356901e-15
5.953000000000000000e+03 3.249876785278320312e+01 2.726158857345581055e+00 5.067338353938709294e-14 -2.028077751852104538e-14 9.117781975666403721e-15 2.975041952157572722e-14
5.954000000000000000e+03 3.125173950195312500e+01 7.331420898437500000e+00 7.124819329895441811e-15 2.546837252811323671e-13 7.854255982576996420e-14 3.102662373441304744e-14
5.955000000000000000e+03 2.637719917297363281e+01 4.183063983917236328e+00 -3.882558811669871435e-14 1.206133039581211430e-13 2.453631678530580201e-14 2.131240774410226441e-14
5.956000000000000000e+03 2.619785881042480469e+01 6.358586311340332031e+00 2.775707994614323715e-14 -3.385505648067534124e-14 -1.829393383876104853e-15 -4.483035714571495522e-14
5.957000000000000000e+03 3.370316696166992188e+01 5.325151085853576660e-01 -1.415859074947733998e-13 -6.067967851276778735e-14 -6.067967851276778735e-14 -5.969676115198316313e-14
5.958000000000000000e+03 2.190669441223144531e+01 1.053340339660644531e+01 1.444996195181652565e-13 2.449321941013632431e-13 1.168295467963639811e-13 3.664527787662109903e-14
5.959000000000000000e+03 1.546532440185546875e+01 1.266590881347656250e+01 -9.624953964263230355e-14 2.790068523439437342e-13 5.482719245514071360e-14 7.642997156389122471e-14
5.960000000000000000e+03 3.479708099365234375e+01 -2.417005538940429688e+00 -3.925473566535921111e-14 -1.083253563347215398e-13 -4.427402590595833076e-14 -2.573535799071414998e-14
5.961000000000000000e+03 2.289661407470703125e+01 8.178081512451171875e+00 -1.127331501972917305e-16 -3.436152458489299955e-14 -1.034227736817269067e-14 1.670752295193644876e-13
5.962000000000000000e+03 1.631662750244140625e+01 1.268880081176757812e+01 -6.079585755181318718e-14 1.569484288626438184e-13 2.884577139324918937e-14 2.583448625653132075e-14
5.963000000000000000e+03 1.314725685119628906e+01 1.392045688629150391e+01 -9.201278248441996377e-14 -8.518499897440176549e-14 -5.315933376002016097e-14 4.874336137082775633e-14
5.964000000000000000e+03 3.538942718505859375e+01 -7.419897556304931641e+00 1.384292731983725877e-14 -8.556921311927631613e-14 -2.151788607864489611e-14 1.713429609783920227e-13
5.965000000000000000e+03 2.937285423278808594e+01 4.317299842834472656e+00 -4.785171011604388847e-14 7.099401904027413668e-14 6.942693693708611169e-15 4.579214611666326817e-14
5.966000000000000000e+03 1.378028678894042969e+01 1.286946105957031250e+01 1.066179683060185235e-14 9.607123581910348431e-14 3.201991216660385331e-14 9.787159418409713263e-14
5.967000000000000000e+03 3.710146713256835938e+01 -7.661766052246093750e+00 2.847590937463291560e-14 -3.354698720962716318e-14 -1.521323583432334769e-15 8.700151872802902586e-14
5.968000000000000000e+03 2.841289520263671875e+01 1.348308086395263672e+01 1.245286155009822648e-13 9.340148283704802212e-14 6.537903085666180170e-14 2.351386162060924157e-14
5.969000000000000000e+03 2.585388946533203125e+01 5.582933902740478516e+00 -8.610265414066634038e-14 5.460076021954890502e-14 -9.450566821082515001e-15 -1.030963525948435169e-14
5.970000000000000000e+03 1.263877201080322266e+01 1.750580024719238281e+01 -4.490980544803561958e-14 2.364445546635101508e-14 -6.379605248615265525e-15 4.064424239335305555e-14
5.971000000000000000e+03 1.324291896820068359e+01 1.823002624511718750e+01 -5.576802921910574418e-14 2.185036514516704859e-14 -1.017530006921455593e-14 3.120148182791243618e-14
5.972000000000000000e+03 3.339068984985351562e+01 1.319082975387573242e+00 -4.933993683997432711e-14 1.729787073839327439e-15 -1.428304563923059323e-14 1.080341481015214058e-14
5.973000000000000000e+03 3.294928741455078125e+01 2.057797431945800781e+00 3.733457296030591455e-14 1.132212948612779102e-13 4.516676136291468413e-14 -7.100770031643818814e-14
5.974000000000000000e+03 2.551833724975585938e+01 7.937881946563720703e+00 5.153700477988042150e-14 -7.881868155514655180e-16 1.522464473284815267e-14 -4.368555145991930011e-14
5.975000000000000000e+03 2.907564544677734375e+01 3.208272933959960938e+00 1.829453258517563892e-16 -1.142989647156741895e-13 -3.423480506785196720e-14 1.329615484689039909e-14
5.976000000000000000e+03 2.861900711059570312e+01 5.590715885162353516e+00 -3.053855996207333057e-14 1.470403659942220997e-13 3.495054113201827295e-14 -1.569570897745294936e-15
5.977000000000000000e+03 3.041923141479492188e+01 8.170072555541992188e+00 3.434775860543422266e-14 1.977242696828140911e-13 6.962160882528767303e-14 -3.453097860818890585e-14
5.978000000000000000e+03 2.879630851745605469e+01 7.565505981445312500e+00 1.414737467800297743e-14 1.890669559930988064e-13 6.096430191183596636e-14 7.153416178634283695e-14
5.979000000000000000e+03 2.059795379638671875e+01 1.222795772552490234e+01 3.501933037173068919e-14 6.075923184717391123e-14 2.873357002092409573e-14 -1.412275990055576746e-14
5.980000000000000000e+03 1.936082267761230469e+01 1.297062778472900391e+01 3.302009544698530918e-14 -5.447495210995911830e-14 -6.436457253002026910e-15 2.222930396884609944e-14
5.981000000000000000e+03 1.194465065002441406e+01 1.802787971496582031e+01 -1.892333945791024874e-14 3.764094477732779498e-14 5.615282104045032224e-15 2.345326149543087990e-14
5.982000000000000000e+03 3.038743400573730469e+01 1.942400455474853516e+00 -1.069115668661958091e-14 1.097954463891853694e-13 2.973128674136314709e-14 -6.905217906803470806e-14
5.983000000000000000e+03 3.265221023559570312e+01 -8.022961020469665527e-01 -8.854874807299930456e-15 4.195600166118432228e-14 9.930338140868612273e-15 1.462369179743017167e-13
5.984000000000000000e+03 2.726272964477539062e+01 8.082295417785644531e+00 -4.205952263986595385e-15 -1.802551121535852889e-15 -1.802551121535852889e-15 7.395103138792963327e-14
5.985000000000000000e+03 3.083872032165527344e+01 1.548855781555175781e+00 -6.929974308159461693e-14 6.180201072040689136e-14 -2.249320343631028112e-15 -7.521573289334324008e-14
5.986000000000000000e+03 3.207704544067382812e+01 6.095368266105651855e-01 -1.299735211628518308e-14 4.018065448505719894e-14 8.154990964741488935e-15 1.478844648193471112e-14
5.987000000000000000e+03 3.054057312011718750e+01 2.270680809020996094e+01 9.445331310435536171e-15 -1.882747565707179604e-14 -2.814643049880993786e-15 -3.769463650178835057e-14
5.988000000000000000e+03 2.776738548278808594e+01 2.002599334716796875e+01 3.155798444288461513e-14 8.215127254677934143e-14 3.411277811333872367e-14 -4.711461526907961828e-15
5.989000000000000000e+03 2.312497520446777344e+01 1.636833763122558594e+01 9.203423782897391520e-15 -1.893114910168393339e-14 -2.918317765042552012e-15 4.725786886925105457e-14
5.990000000000000000e+03 2.699728012084960938e+01 1.664208602905273438e+01 7.715914495873277268e-15 -4.244412980802803048e-14 -1.041846459364642596e-14 -6.379633963032177446e-14
5.991000000000000000e+03 2.836820411682128906e+01 1.157457447052001953e+01 5.077158853929175653e-14 1.132611528436439086e-13 4.920982241488069953e-14 5.991125022301868608e-14
5.992000000000000000e+03 2.295564460754394531e+01 9.990239143371582031e+00 1.186300000290477219e-13 3.253471168689070492e-13 1.331931391351445781e-13 -6.827832299115960124e-14
5.993000000000000000e+03 2.906327438354492188e+01 1.060210418701171875e+01 1.522493102998432463e-14 6.524970501924206787e-15 6.524970501924206787e-15 9.503846887530705001e-15
5.994000000000000000e+03 3.040215682983398438e+01 1.016522121429443359e+01 1.049501265515569159e-14 -1.327549859321888737e-13 -3.667799028904406011e-14 -7.281470450193599370e-15
5.995000000000000000e+03 1.650044441223144531e+01 2.535689353942871094e+01 3.876781708156418205e-14 3.949025487040916382e-14 2.347742056915246706e-14 -3.341562934016696629e-14
5.996000000000000000e+03 2.745182991027832031e+01 1.450546932220458984e+01 -1.887556595265215895e-15 4.494199608816307201e-14 1.291633172081441475e-14 -5.407465958567978653e-15
5.997000000000000000e+03 3.458201217651367188e+01 -1.691460013389587402e+00 -2.863258675295243805e-14 1.707326906805542444e-13 4.263002982302782629e-14 6.123302819655007667e-14
5.998000000000000000e+03 3.556429672241210938e+01 -3.313345909118652344e+00 5.054366552571278037e-14 -1.213903033742635106e-15 1.479892936168993034e-14 1.350822123429018529e-13
5.999000000000000000e+03 3.616410827636718750e+01 -4.276065349578857422e+00 7.137383539008654298e-14 7.633973206182254057e-14 4.431407023557272506e-14 1.857842086552471961e-14
6.000000000000000000e+03 3.567147827148437500e+01 -3.806530237197875977e+00 -7.661607486679836154e-14 -3.016222796699274955e-13 -1.134715083938968305e-13 1.190262217129825495e-14
6.001000000000000000e+03 3.424417877197265625e+01 -9.595889449119567871e-01 1.269929138654176184e-14 -1.743292061271231597e-14 -1.420088958433579369e-15 4.286693816211127606e-14
6.002000000000000000e+03 3.417694091796875000e+01 -2.717244625091552734e+00 -7.601028367918566397e-14 2.419298485503706964e-13 4.977587081660822532e-14 1.299169241153821930e-13
6.003000000000000000e+03 2.904933738708496094e+01 9.015247344970703125e+00 2.595635058071869145e-14 -3.462679836331410133e-14 -2.601133995965444062e-15 2.298205706687331262e-14
6.004000000000000000e+03 2.968184089660644531e+01 9.678651809692382812e+00 -1.836849221987721381e-14 1.751315834973982133e-13 4.702892602800358424e-14 3.911269162823645396e-14
6.005000000000000000e+03 3.459738159179687500e+01 -3.501458406448364258e+00 -4.790092611841115233e-14 1.378424403021853359e-14 -1.023500488056766980e-14 6.610435533379102613e-14
6.006000000000000000e+03 3.302853393554687500e+01 2.303945422172546387e-01 -1.081792956673629028e-14 -1.647645778493633806e-13 -5.267475298715955379e-14 -2.880947772552523711e-14
6.007000000000000000e+03 3.359364318847656250e+01 -1.245912194252014160e+00 -1.155048821345483478e-13 4.199980342895273666e-14 -2.205152530574457787e-14 8.964619953484576076e-14
6.008000000000000000e+03 1.388656139373779297e+01 1.381702518463134766e+01 4.126203095563066303e-14 -5.191746572176568833e-15 1.082108561149775980e-14 2.177686470820200393e-14
6.009000000000000000e+03 3.679851531982421875e+01 -6.923860073089599609e+00 -4.037666468531542208e-14 1.656995124877519432e-13 3.759685501835731414e-14 1.564682797661632457e-14
6.010000000000000000e+03 3.037701416015625000e+01 5.517806529998779297e+00 -7.690972424895248238e-14 2.415443875729977874e-13 4.939039628670816029e-14 7.920229854179328816e-15
6.011000000000000000e+03 2.665494918823242188e+01 5.144157409667968750e+00 -5.360976555257926379e-14 5.708855019574340939e-14 1.043634588267943787e-15 -3.382918724743324765e-15
6.012000000000000000e+03 3.293132400512695312e+01 -1.529049038887023926e+00 -6.371242915843497445e-14 1.556984657305124364e-13 2.759580995518370189e-14 -1.214266588753926124e-13
6.013000000000000000e+03 3.354420089721679688e+01 2.512135028839111328e+00 -4.969675793933467367e-14 2.074561361456797592e-13 4.732781346190352567e-14 -1.564987390709465104e-14
6.014000000000000000e+03 3.234836959838867188e+01 3.951416492462158203e+00 4.977637226011299987e-14 2.133273145263868409e-14 2.133273145263868409e-14 1.816949876957876103e-14
6.015000000000000000e+03 3.156114196777343750e+01 4.354696273803710938e+00 -3.370535865384119423e-14 -6.019610401504851827e-14 -2.817043880066691375e-14 -4.695154448607422037e-14
6.016000000000000000e+03 2.843621826171875000e+01 4.548152446746826172e+00 -1.663359933731095586e-13 -9.416232848785330289e-14 -7.814949588066250064e-14 9.864771014487551393e-15
6.017000000000000000e+03 1.709783172607421875e+01 1.306701564788818359e+01 -5.590590924225979919e-14 1.361686506823681087e-13 2.407882073796659833e-14 1.412488934138516478e-14
6.018000000000000000e+03 2.504078865051269531e+01 7.417535305023193359e+00 -1.348308570098700337e-14 8.572343410204880110e-14 2.167210367328559206e-14 1.721812830388167598e-14
6.019000000000000000e+03 1.427168273925781250e+01 1.524020481109619141e+01 -7.512734331123135934e-14 1.107742844392960169e-13 1.069408233841939726e-14 1.291313383262535086e-13
6.020000000000000000e+03 1.388286018371582031e+01 1.748598861694335938e+01 -6.759758294024205416e-15 8.860485722949132392e-14 2.455353018885990390e-14 3.159072734849367736e-14
6.021000000000000000e+03 1.465111827850341797e+01 1.822487068176269531e+01 -5.366707241365870074e-14 6.850172284880023943e-14 4.450394961135872157e-15 7.153576098454725307e-14
6.022000000000000000e+03 2.256091690063476562e+01 1.163091468811035156e+01 1.157780739769603828e-13 1.411210693658473958e-13 7.706974571334776480e-14 -2.701875181920776470e-14
6.023000000000000000e+03 2.845958518981933594e+01 8.385144233703613281e+00 -1.262219495590244378e-13 3.740677743686166012e-14 -2.664455129783565440e-14 5.111791320636972780e-14
6.024000000000000000e+03 3.111094284057617188e+01 8.265931129455566406e+00 -3.567592998365148871e-14 7.621221633381108918e-14 1.216088505801493289e-14 9.653402751642892188e-14
6.025000000000000000e+03 2.607565879821777344e+01 1.077576065063476562e+01 9.964773418306288599e-14 -4.474494742551151510e-15 2.855197293329635178e-14 -4.791046032126544674e-14
6.026000000000000000e+03 2.271748733520507812e+01 1.075915527343750000e+01 -1.577147734513426741e-14 -2.963467755153111061e-14 -1.362184663840620286e-14 1.017313674706726845e-14
6.027000000000000000e+03 3.082663154602050781e+01 4.755977153778076172e+00 8.990764303027937859e-15 4.960413319248652142e-14 1.757846967217081141e-14 -3.566509812632200072e-14
6.028000000000000000e+03 2.831456375122070312e+01 2.189453697204589844e+01 1.451883758888956183e-14 1.148808560216471597e-13 3.881990960782032152e-14 6.267168824647308817e-15
6.029000000000000000e+03 2.995493698120117188e+01 2.999364614486694336e+00 -4.558780788846764076e-14 -4.241310807336778899e-14 -2.640027377211109222e-14 -7.514041133554159868e-15
6.030000000000000000e+03 3.174488449096679688e+01 1.304591894149780273e+00 1.508306825791227990e-14 -3.928677722768794678e-14 -7.261112860339289515e-15 -8.191288359410409115e-14
6.031000000000000000e+03 3.271906280517578125e+01 9.560416340827941895e-01 -7.793598936784579267e-14 9.241397116955749058e-14 4.343394794623393548e-15 -3.159127961397528717e-14
6.032000000000000000e+03 2.336419105529785156e+01 1.170042896270751953e+01 8.853242574810571419e-14 1.751953074800860488e-13 7.911831861320481329e-14 -3.415868391094811773e-14
6.033000000000000000e+03 2.683374595642089844e+01 9.867568016052246094e+00 2.921565712878798626e-14 1.252099603334241515e-14 1.252099603334241515e-14 9.116335031634256562e-16
6.034000000000000000e+03 1.359993743896484375e+01 1.459867954254150391e+01 2.727473872839517033e-14 3.201506442764012750e-13 1.042276142238125758e-13 -4.207979722049143279e-14
6.035000000000000000e+03 2.953817939758300781e+01 6.473141193389892578e+00 3.154299195971821401e-14 2.880241076023970503e-13 9.587013664489815734e-14 1.105752520254819904e-13
6.036000000000000000e+03 3.030079269409179688e+01 3.951260566711425781e+00 1.536815921916734329e-14 1.209637316527956141e-13 4.089956522870981381e-14 -7.548567890550139659e-14
6.037000000000000000e+03 2.758389282226562500e+01 1.254067897796630859e+01 7.139078282529520703e-14 -4.517895863735514606e-14 7.863546409349071037e-15 3.989110474236778892e-14
6.038000000000000000e+03 2.008931159973144531e+01 1.447453594207763672e+01 1.456659161238986477e-14 1.768056255330337223e-14 9.674146249707971101e-15 -2.015784254468834524e-14
6.039000000000000000e+03 1.703022003173828125e+01 2.301945304870605469e+01 2.711406674269639661e-14 -1.125515950377948757e-14 4.757672256378367437e-15 6.037334481222853336e-15
6.040000000000000000e+03 1.776273918151855469e+01 2.427556800842285156e+01 1.103866127059307742e-14 2.760633010438860030e-14 1.159349749719779804e-14 2.924963331436825076e-14
6.041000000000000000e+03 2.153746795654296875e+01 1.247143840789794922e+01 -1.730977726877459127e-14 1.298343756724745779e-13 3.375737664119797532e-14 4.783599596080642669e-14
6.042000000000000000e+03 2.641901969909667969e+01 1.534700965881347656e+01 7.218052924026080452e-14 1.281552717679462772e-13 6.010074165771484012e-14 3.493235702870661763e-14
6.043000000000000000e+03 1.824297332763671875e+01 2.815777587890625000e+01 -1.898892225440083383e-16 4.566956689666841485e-14 1.364390337635270484e-14 -2.763409415033370176e-14
6.044000000000000000e+03 1.838847541809082031e+01 2.191540336608886719e+01 -2.753142867492879703e-14 1.107629070927484971e-14 -4.936541050883005294e-15 3.743328617997893071e-14
6.045000000000000000e+03 1.733084487915039062e+01 2.081799697875976562e+01 4.328219437043680229e-14 6.430045975920964385e-14 3.227479793295982835e-14 -5.530844354148566414e-15
6.046000000000000000e+03 3.393544006347656250e+01 -2.378140836954116821e-01 -5.458139704637467171e-14 1.138608250652456411e-13 1.778382772803493300e-14 7.613037262231558966e-15
6.047000000000000000e+03 1.470417499542236328e+01 1.376862525939941406e+01 -6.188790663752205545e-14 2.479822987580537763e-13 5.582831763615951626e-14 1.622811856682310205e-13
6.048000000000000000e+03 2.636255836486816406e+01 7.219529151916503906e+00 2.917366462339490707e-14 8.112942555173890957e-14 3.309092434203471378e-14 -5.244899498979375962e-14
6.049000000000000000e+03 2.754455757141113281e+01 4.826538562774658203e+00 1.782859850149500630e-14 -1.523464649788933145e-14 7.781854210872011634e-16 6.273569852629709565e-14
6.050000000000000000e+03 3.044823455810546875e+01 7.289721965789794922e+00 3.483768585025789899e-14 1.979342389860430651e-13 6.983157812851664703e-14 4.543891982513106886e-14
6.051000000000000000e+03 2.974071311950683594e+01 8.363776206970214844e+00 -2.202039853899887684e-14 8.206458380682554732e-14 1.801325507212823279e-14 5.657888369511691884e-14
6.052000000000000000e+03 1.460957241058349609e+01 1.275294303894042969e+01 5.149623539006317752e-14 6.782076256931640623e-14 3.579510074306659073e-14 1.026036555522823190e-13
6.053000000000000000e+03 2.694424629211425781e+01 6.082429409027099609e+00 -4.864281517185688186e-14 2.490402903430194437e-14 -7.121635333046712896e-15 1.785255428730925242e-14
6.054000000000000000e+03 3.115250396728515625e+01 3.468574762344360352e+00 3.134150992662072810e-14 1.506849251495592790e-13 5.460792950641446541e-14 5.976130845069572983e-15
6.055000000000000000e+03 3.134453010559082031e+01 2.033015966415405273e+00 1.825116291008944264e-14 7.821927445485730990e-15 7.821927445485730990e-15 -3.729932622530476860e-14
6.056000000000000000e+03 2.951810264587402344e+01 5.426412582397460938e+00 -7.714118786025098151e-14 -5.593598230001911586e-14 -3.992314969282831361e-14 8.150870657672865116e-14
6.057000000000000000e+03 1.798526191711425781e+01 1.363870811462402344e+01 3.243460255692061367e-14 3.677601910609569480e-14 2.076318649890489254e-14 1.959640539032567186e-14
6.058000000000000000e+03 1.556638336181640625e+01 1.363318920135498047e+01 3.952688057504843977e-14 2.228193622449622935e-13 7.870387555650865119e-14 3.113289248797557196e-14
6.059000000000000000e+03 1.501451396942138672e+01 1.592695236206054688e+01 5.341207653301958264e-15 4.804003942153640960e-14 1.601437420715480509e-14 2.301778322252260450e-14
6.060000000000000000e+03 2.765790557861328125e+01 9.056229591369628906e+00 2.790837019491822224e-14 2.339846693407299921e-14 1.539205063047759808e-14 -2.742359968667743009e-14
6.061000000000000000e+03 2.349274826049804688e+01 1.265243434906005859e+01 2.087656185889488064e-14 3.182257381868433543e-14 1.580973951742763867e-14 2.396045974204907142e-14
6.062000000000000000e+03 1.678297424316406250e+01 1.707157897949218750e+01 -5.137522487508663915e-14 2.373299582032750710e-14 -8.292669394054097420e-15 6.676569833021644973e-14
6.063000000000000000e+03 2.248494529724121094e+01 1.262185668945312500e+01 6.453126607294107364e-14 -6.384564372411555278e-14 2.056866384732072557e-16 5.282835055368285959e-14
6.064000000000000000e+03 2.170619201660156250e+01 1.146030807495117188e+01 4.617356844094366863e-14 -7.171322455139239604e-14 -7.661897510760976027e-15 5.486449578613779299e-14
6.065000000000000000e+03 2.671461105346679688e+01 1.344107532501220703e+01 1.067078689949083059e-13 1.143583654421992390e-13 6.631986762062683227e-14 3.973603079741741886e-15
6.066000000000000000e+03 2.380963897705078125e+01 1.026891231536865234e+01 4.322082852747412274e-14 -1.416051114257535493e-13 -2.951528317541793345e-14 1.474138058800075757e-13
6.067000000000000000e+03 2.833007049560546875e+01 9.868181228637695312e+00 1.076532882071179822e-14 2.033443942742185762e-13 6.423292074012737496e-14 3.527018426125773376e-14
6.068000000000000000e+03 2.035901641845703125e+01 1.331399726867675781e+01 -1.563545063006880481e-14 1.763028877619157719e-13 4.820023029252114288e-14 1.122625958665211809e-14
6.069000000000000000e+03 2.347153472900390625e+01 1.097930431365966797e+01 1.657997334260710720e-13 2.311853508109307231e-13 1.190955293368586854e-13 -3.086144892156666986e-14
6.070000000000000000e+03 2.392111206054687500e+01 9.474489212036132812e+00 1.066933034163473210e-14 7.319899487977579722e-14 2.516049705820339044e-14 4.114861663212510123e-14
6.071000000000000000e+03 1.445484828948974609e+01 1.669960403442382812e+01 -6.848240202727336884e-15 3.287594263663706773e-13 9.657335695023583355e-14 5.045372079110974073e-14
6.072000000000000000e+03 1.780052947998046875e+01 1.768213844299316406e+01 -6.179898173058750999e-14 -7.223623012687224731e-14 -4.021056152435885378e-14 3.219183952610574218e-14
6.073000000000000000e+03 1.635618591308593750e+01 1.986054611206054688e+01 2.935728442570069430e-14 -6.719488230129367842e-15 6.791338646913161123e-15 3.468388838395904117e-14
6.074000000000000000e+03 2.518179512023925781e+01 8.639640808105468750e+00 2.089190670776733955e-14 -8.254822606718059674e-14 -1.849689394435149320e-14 8.176748530651020697e-14
6.075000000000000000e+03 2.681263160705566406e+01 1.162784671783447266e+01 7.301261375006196097e-15 1.346630868880732690e-13 4.258930447892383953e-14 1.826659754445431050e-14
6.076000000000000000e+03 2.636436080932617188e+01 2.054602432250976562e+01 6.242436987246788305e-14 1.182552048905466391e-13 5.420387107365164103e-14 4.863573821158257218e-15
6.077000000000000000e+03 1.825129890441894531e+01 1.962871551513671875e+01 3.675537860723700201e-14 -5.287411743788890395e-14 -4.835621310382391680e-15 -1.229038199609001208e-14
6.078000000000000000e+03 2.404115104675292969e+01 1.144361114501953125e+01 1.289321974922222336e-13 1.925095011786476240e-13 9.643251231176638849e-14 1.449637122580976767e-13
6.079000000000000000e+03 2.339485168457031250e+01 2.340447235107421875e+01 1.935433015026397086e-14 4.260792565123627806e-14 1.858867674045007468e-14 1.327699263228290186e-15
6.080000000000000000e+03 1.729721069335937500e+01 2.676672554016113281e+01 -2.262564423739354263e-14 4.600466753016231938e-15 -5.407553202961545846e-15 2.799692748955365934e-14
6.081000000000000000e+03 2.059699058532714844e+01 2.307982063293457031e+01 -4.828909760121527506e-14 1.165575204712873680e-13 2.048052652220844899e-14 -4.080051827805557946e-15
6.082000000000000000e+03 1.951999282836914062e+01 2.051950645446777344e+01 1.502723184602927642e-14 1.894440415086892648e-13 6.134138065116284677e-14 -5.615475735776774557e-14
6.083000000000000000e+03 2.712509727478027344e+01 7.043736934661865234e+00 4.812751081993346669e-14 8.925249862096196196e-14 4.121400418752134420e-14 2.865441987420086489e-14
6.084000000000000000e+03 1.549910736083984375e+01 1.521526336669921875e+01 3.834684848304237281e-14 -8.650527261741883245e-14 -1.444752588506022228e-14 5.931661276525543314e-14
6.085000000000000000e+03 2.872864532470703125e+01 6.595467567443847656e+00 5.843488873661338567e-15 -2.037112205267518905e-14 -4.358289869000860420e-15 -3.429869506899746456e-14
6.086000000000000000e+03 2.776153564453125000e+01 5.818030834197998047e+00 6.616079483313247467e-15 1.172128393693919191e-13 3.714867294530611874e-14 5.835036501287277355e-14
6.087000000000000000e+03 1.657149124145507812e+01 1.455051517486572266e+01 3.636022069080480741e-16 2.303130356242667764e-14 7.018471802268822640e-15 -1.687343841039190551e-14
6.088000000000000000e+03 2.758514022827148438e+01 1.073630046844482422e+01 5.036406404770876755e-14 2.158459839357064480e-14 2.158459839357064480e-14 1.563953671700635956e-14
6.089000000000000000e+03 2.807222938537597656e+01 7.702160835266113281e+00 5.112201962209801664e-14 -1.153434037734837880e-13 -1.926641660066844702e-14 -5.545178099791887860e-14
6.090000000000000000e+03 1.903528976440429688e+01 1.409415817260742188e+01 5.199471089139054425e-14 2.510382038963671070e-13 9.090987104819550635e-14 2.889224300886734931e-14
6.091000000000000000e+03 2.600992393493652344e+01 9.164046287536621094e+00 1.080524762004340944e-13 9.205915245608445319e-14 6.003348724170284867e-14 -8.282386414074430214e-14
6.092000000000000000e+03 2.341938400268554688e+01 1.381888389587402344e+01 1.101948867983197633e-13 2.531056419140254032e-13 1.089901620018353390e-13 8.887274325752175796e-14
6.093000000000000000e+03 2.531658172607421875e+01 1.158749675750732422e+01 6.737098807432437275e-14 1.661261324900978331e-13 7.004913684695301956e-14 3.140164587774399441e-14
6.094000000000000000e+03 2.581470489501953125e+01 1.422556304931640625e+01 4.979636562579999037e-14 -2.440964809024160492e-14 7.616015430074105086e-15 -1.855602192626752689e-14
6.095000000000000000e+03 2.236637306213378906e+01 1.373055171966552734e+01 1.079512523751054165e-13 1.377667240270302740e-13 7.371539359826706495e-14 -5.237551572865239632e-15
6.096000000000000000e+03 2.636271286010742188e+01 8.187875747680664062e+00 3.710357013493072176e-14 -9.847584038361403835e-14 -1.841168073579181608e-14 -2.481430283419929633e-14
6.097000000000000000e+03 2.535143280029296875e+01 1.595063400268554688e+01 3.139879307077764192e-14 -9.418849672372577725e-15 6.593982511301750907e-15 -2.568506625650387315e-14
6.098000000000000000e+03 2.456335639953613281e+01 1.922673988342285156e+01 3.037951089150149608e-14 1.502726301684173538e-13 5.419564468966790727e-14 2.321029517670866738e-14
6.099000000000000000e+03 1.726078605651855469e+01 1.599159049987792969e+01 -5.836869480585135661e-14 1.122376930978719045e-13 1.616069914879298547e-14 2.016310600742258347e-14
6.100000000000000000e+03 1.529476451873779297e+01 1.738145065307617188e+01 -1.098866599791433959e-14 1.382622857350190859e-13 3.818208702227425533e-14 -2.490262973587308026e-14
6.101000000000000000e+03 2.509906768798828125e+01 1.325991821289062500e+01 3.398861324766661030e-14 8.891184229836701647e-14 3.687013801906280364e-14 6.911685850388704644e-14
6.102000000000000000e+03 2.462847137451171875e+01 1.077944850921630859e+01 8.770617560124524537e-14 1.290902606164434641e-13 6.503893018768025502e-14 4.784661775396499561e-14
6.103000000000000000e+03 1.585986232757568359e+01 1.650687980651855469e+01 -8.239516382547995565e-15 1.565970931486498907e-13 4.450727506270964196e-14 6.083045037737905281e-14
6.104000000000000000e+03 1.618167877197265625e+01 1.807065582275390625e+01 -7.628210904569554095e-16 6.829949881484095875e-14 2.026100438140034099e-14 7.839144237171621898e-14
6.105000000000000000e+03 2.180783271789550781e+01 2.425538635253906250e+01 2.029619478871049452e-15 2.374531167938058462e-14 7.732479072189782365e-15 -1.613308248658070626e-14
6.106000000000000000e+03 2.058889770507812500e+01 1.743149948120117188e+01 1.152150986107654956e-14 2.781326364153461489e-14 1.180043188137675989e-14 -1.351427620696198529e-15
6.107000000000000000e+03 2.746084022521972656e+01 2.731431007385253906e+01 2.800227057338493947e-14 1.200097286086984627e-14 1.200097286086984627e-14 -4.298854160015089243e-14
6.108000000000000000e+03 2.121415519714355469e+01 2.660504722595214844e+01 6.593397973864850714e-14 2.825742061402045785e-14 2.825742061402045785e-14 2.179346147177050469e-14
6.109000000000000000e+03 1.941138458251953125e+01 2.933409309387207031e+01 2.171525830788230416e-14 3.218201394391759229e-14 1.616918133672679003e-14 4.503596592333146409e-14
6.110000000000000000e+03 1.645101165771484375e+01 1.357001686096191406e+01 -2.097001161583365858e-14 1.511411709762683353e-13 3.905134950219629753e-14 3.662935365721271819e-14
6.111000000000000000e+03 1.761007690429687500e+01 1.481354618072509766e+01 -3.355523053426984204e-14 2.944380850244954217e-13 7.826485499181495831e-14 1.324374235393843430e-15
6.112000000000000000e+03 2.530989074707031250e+01 1.000111484527587891e+01 -1.704418839409711089e-14 -5.305559932903582132e-14 -2.102993580872011131e-14 4.771668967611976397e-14
6.113000000000000000e+03 1.868614578247070312e+01 1.527254867553710938e+01 -2.461665447222108338e-14 1.232547965329244127e-14 -3.687352953898360985e-15 -4.381639433334756639e-14
6.114000000000000000e+03 2.424635696411132812e+01 1.628547668457031250e+01 -7.456835069395446186e-15 -3.195786700321747581e-15 -3.195786700321747581e-15 4.363066372493722145e-14
6.115000000000000000e+03 2.447848510742187500e+01 1.230294132232666016e+01 5.879843188944314236e-14 -6.630256781971211044e-14 -2.251241414355400865e-15 9.930682036245197519e-14
6.116000000000000000e+03 2.497583580017089844e+01 1.485944080352783203e+01 3.647249670790837783e-14 6.138201790384031908e-14 2.935635607759050358e-14 4.518792024593709655e-14
6.117000000000000000e+03 2.135702133178710938e+01 1.356838607788085938e+01 5.957030252108988511e-14 7.128108189423040808e-14 3.925541667984880356e-14 -2.106959050317876864e-14
6.118000000000000000e+03 2.439715385437011719e+01 1.765552711486816406e+01 1.049103752953422716e-14 5.024710912648368277e-14 1.822144391210207826e-14 -2.419175564082401420e-14
6.119000000000000000e+03 2.599311256408691406e+01 1.247529506683349609e+01 7.000637184751204445e-14 7.575368013001265721e-14 4.372801491563105269e-14 -4.477789192496202386e-14
6.120000000000000000e+03 1.715624427795410156e+01 1.881410408020019531e+01 6.509854775463980170e-15 5.425975491937969075e-14 1.823088324726628018e-14 -1.551578012121482275e-14
6.121000000000000000e+03 2.414521217346191406e+01 1.511611652374267578e+01 7.670559608492777404e-14 3.287382640952164758e-14 3.287382640952164758e-14 -4.475164406799250760e-14
6.122000000000000000e+03 1.969781112670898438e+01 2.441121864318847656e+01 -4.058636971426485274e-14 5.481316220140239337e-15 -1.053151554001761567e-14 3.935910706511988599e-14
6.123000000000000000e+03 2.395120048522949219e+01 2.534460067749023438e+01 1.421285710108931288e-14 1.752896229046969206e-14 9.522545986874290935e-15 6.824209030980785129e-14
6.124000000000000000e+03 2.114134597778320312e+01 1.476204490661621094e+01 4.557966620777863243e-14 3.097188168909789652e-14 2.296546369143660088e-14 -8.255554104371308488e-15
6.125000000000000000e+03 1.829792404174804688e+01 1.648555946350097656e+01 2.209388881156855444e-14 2.153480844167832142e-13 7.123259095206599389e-14 -9.590940509233286670e-14
6.126000000000000000e+03 1.978089332580566406e+01 1.570309257507324219e+01 8.306240894748184722e-14 1.271000720035747600e-13 6.304874157481155095e-14 2.469938587424530541e-14
6.127000000000000000e+03 2.089116668701171875e+01 1.604875373840332031e+01 3.278451525556315416e-14 2.548824290461628589e-14 1.748182660102088476e-14 -7.098991940080942586e-14
6.128000000000000000e+03 2.304857444763183594e+01 1.944728851318359375e+01 5.398962933623671634e-14 1.146403122171540945e-13 5.058898178839088544e-14 6.223408137976836271e-15
6.129000000000000000e+03 1.941282081604003906e+01 1.699330902099609375e+01 7.546298519877855937e-14 3.234127985492392388e-14 3.234127985492392388e-14 -1.884137885586802813e-14
6.130000000000000000e+03 1.892665481567382812e+01 1.832265281677246094e+01 -8.766237891567451451e-15 1.106204158222295897e-13 3.055625278627557839e-14 -8.115381332435625539e-14
6.131000000000000000e+03 2.053028869628906250e+01 2.544476699829101562e+01 1.861085375707508677e-14 7.976080665622435617e-15 7.976080665622435617e-15 8.314488962775368197e-15
6.132000000000000000e+03 2.308813285827636719e+01 1.780761718750000000e+01 5.151051297742209600e-14 1.135778279694361903e-13 4.952650431693655930e-14 2.315482807119066677e-14
6.133000000000000000e+03 2.181611442565917969e+01 1.772344970703125000e+01 4.245188524169309086e-15 1.161967386458656604e-13 3.613257899804343809e-14 -1.339863821021164414e-14
6.134000000000000000e+03 2.017291069030761719e+01 1.892632102966308594e+01 1.513365137145641220e-14 2.936132646692499182e-14 1.334849301270124231e-14 -3.875978720922421128e-15
6.135000000000000000e+03 2.115797615051269531e+01 2.125177383422851562e+01 2.515098487820572465e-14 7.940541534847897487e-14 3.136692091503835711e-14 -2.917225304298830778e-15
6.136000000000000000e+03 2.479319381713867188e+01 2.100649261474609375e+01 1.446782926480590786e-14 4.051371122804937885e-14 1.649446231726317547e-14 6.501024456988854089e-15
6.137000000000000000e+03 2.518560600280761719e+01 2.294372177124023438e+01 4.468719841323361142e-14 6.490260531701735891e-14 3.287694010263575439e-14 1.460974285885478785e-14
6.138000000000000000e+03 2.320683670043945312e+01 1.506118297576904297e+01 5.801180933198701872e-14 1.392395720207703635e-13 5.917541576107993029e-14 6.870763994640954886e-14
6.139000000000000000e+03 2.155755043029785156e+01 1.935122299194335938e+01 -3.128638163428162922e-14 7.809344940460857809e-14 1.404211982287831631e-14 1.840229391667034392e-14
6.140000000000000000e+03 2.200796508789062500e+01 1.627785491943359375e+01 -1.776708866293129352e-14 3.823270825230101408e-15 -4.183145054848826094e-15 4.857364307325230668e-14
6.141000000000000000e+03 2.683469772338867188e+01 2.249645614624023438e+01 1.847831342962052287e-14 6.510795998474969148e-14 2.507588354897036936e-14 3.916112412512750759e-15
6.142000000000000000e+03 2.303413772583007812e+01 2.136815261840820312e+01 1.730390563638422446e-14 9.891785605680922244e-14 3.486652901617780242e-14 1.966466269334721240e-14
6.143000000000000000e+03 2.218714714050292969e+01 1.495291423797607422e+01 3.394514012868173058e-14 1.060498124863182290e-13 4.199848883381859799e-14 2.422537268443464287e-14
6.144000000000000000e+03 2.276452255249023438e+01 2.775037956237792969e+01 2.614766991251502026e-15 2.399608933594237631e-14 7.983256728751574050e-15 -3.536492574344107451e-15
6.145000000000000000e+03 2.246636199951171875e+01 2.593287849426269531e+01 2.699329678507687846e-14 1.259459252384367844e-13 4.588176897874635118e-14 -5.987309985907435239e-14
6.146000000000000000e+03 2.743905830383300781e+01 2.475390625000000000e+01 6.140311241235874018e-14 1.006609143369870119e-13 4.861921005768279902e-14 1.657360568772282827e-14
6.147000000000000000e+03 2.138090896606445312e+01 2.800898551940917969e+01 1.965070062576114614e-15 -9.065972527821236637e-14 -2.660839654351505185e-14 -5.003377879652000371e-14
6.148000000000000000e+03 2.561539077758789062e+01 2.497972106933593750e+01 3.200930053784065143e-14 1.052201674314051649e-13 4.116884039077374491e-14 -3.435090956799800865e-14
6.149000000000000000e+03 2.485389709472656250e+01 2.881709098815917969e+01 -1.127439498673692229e-15 2.239228666042498289e-14 6.379454053234180633e-15 -2.694379956777112617e-14
6.150000000000000000e+03 1.531810760498046875e+01 3.653668212890625000e+01 4.131324256762165803e-14 3.486228029891437485e-14 2.285265753758716767e-14 1.835610351599067241e-14
6.151000000000000000e+03 3.174621391296386719e+01 2.913516235351562500e+01 2.379509349975661436e-14 9.026206025013541745e-14 3.421714612496760954e-14 -9.118947493001825638e-15
6.152000000000000000e+03 2.648074913024902344e+01 2.990560340881347656e+01 3.699881587627788793e-14 6.732645447008953066e-14 3.129757940984433107e-14 -4.005464986382364923e-14
6.153000000000000000e+03 2.992375946044921875e+01 3.467053985595703125e+01 2.583512153124176147e-14 9.685522241002775257e-14 3.680710182712813860e-14 1.695904803037089764e-14
6.154000000000000000e+03 2.747086334228515625e+01 3.342366027832031250e+01 1.744659003041510587e-14 1.104167416678646096e-13 3.835900171176957751e-14 -4.228486050888990988e-14
6.155000000000000000e+03 7.191339111328125000e+01 4.129277420043945312e+01 -1.594353718058910685e-13 2.690838003804874035e-13 3.289453128288433170e-14 -2.195305264342858192e-15
6.156000000000000000e+03 4.066719055175781250e+01 3.834411621093750000e+01 3.659351061101670521e-14 1.758112562868022200e-13 6.372142803646660414e-14 6.318643440368426276e-15
6.157000000000000000e+03 2.279601287841796875e+01 3.560804367065429688e+01 6.487156325356638331e-14 6.211531126693731197e-14 3.809606235615110859e-14 -2.832322490962674993e-14
6.158000000000000000e+03 2.096317863464355469e+01 2.998485183715820312e+01 1.508197219727853283e-14 6.365238468687001161e-14 2.362030825109068949e-14 -4.412435179604670688e-14
6.159000000000000000e+03 1.792549705505371094e+01 3.160762405395507812e+01 2.441324459213564668e-14 9.052697827471867242e-14 3.448206753768265354e-14 -2.764384349955659875e-14
6.160000000000000000e+03 2.001387596130371094e+01 3.274020004272460938e+01 2.870247035923270684e-14 5.805200612753191880e-14 2.602634260721620879e-14 -1.188510298885019426e-14
6.161000000000000000e+03 2.545267295837402344e+01 3.243956375122070312e+01 3.797415737438226968e-14 5.058785015237335370e-14 2.656860293565304482e-14 1.864501798396964172e-14
6.162000000000000000e+03 2.484805870056152344e+01 3.733869934082031250e+01 3.600848528313889407e-14 7.833975980940655059e-14 3.430447522182952791e-14 2.537655144612543934e-14
6.163000000000000000e+03 2.285989761352539062e+01 3.257177352905273438e+01 2.840511436090140118e-14 6.936230832321060857e-14 2.933022680523360293e-14 -2.090484767713549075e-14
6.164000000000000000e+03 5.845201492309570312e+01 -1.592261886596679688e+01 1.664347587700121256e-12 3.015332666715664356e-13 5.897642400484737202e-13 8.289234099470577100e-13
6.165000000000000000e+03 5.899195480346679688e+01 -1.566721534729003906e+01 1.243243572326968582e-12 -1.076946149446145196e-13 3.406646980567279437e-13 4.831975206238958709e-13
6.166000000000000000e+03 5.181995010375976562e+01 -2.136599349975585938e+01 -9.345149843851749405e-14 2.573305338347126048e-13 4.916370994123217542e-14 7.969917315085034426e-14
6.167000000000000000e+03 6.541945648193359375e+01 -1.315356063842773438e+01 1.611521517359132405e-13 2.520690091118577003e-13 1.239663482543312822e-13 2.485211472377790720e-13
6.168000000000000000e+03 7.735810852050781250e+01 3.980118560791015625e+01 -9.237110452616284495e-14 -2.683423687248331913e-13 -1.082140358766615906e-13 6.129853433655893524e-14
6.169000000000000000e+03 8.903015136718750000e+00 3.788515090942382812e+01 2.063675836119771567e-14 2.028206162046908290e-14 1.227564616390662902e-14 3.429319274297210063e-14
6.170000000000000000e+03 4.455967330932617188e+01 -1.678808975219726562e+01 -7.732017608640118222e-14 -3.313721638666805580e-14 -3.313721638666805580e-14 8.352434683559645245e-14
6.171000000000000000e+03 1.144502043724060059e+00 3.997324752807617188e+01 -4.961385374258921177e-14 2.448786819478875054e-14 -7.537795325526959467e-15 -1.142157250938816149e-13
6.172000000000000000e+03 2.109610319137573242e+00 3.846105194091796875e+01 2.967575864947294417e-14 1.499710322290861986e-13 5.389403658594138502e-14 3.006837197305246845e-14
6.173000000000000000e+03 3.914550399780273438e+01 -1.720819664001464844e+01 -1.977128584549486812e-13 -1.304850325012374412e-13 -9.845936728685583672e-14 4.982648611740435329e-14
6.174000000000000000e+03 3.997346878051757812e+01 -1.702003288269042969e+01 -1.236042518337754359e-13 -1.444751572066485523e-13 -8.042382000162176525e-14 1.886657334266433894e-13
6.175000000000000000e+03 6.014917373657226562e+01 3.685695266723632812e+01 6.859553344177454770e-14 -1.635286212540477957e-14 1.567280139491093044e-14 -8.722988558687236327e-14
6.176000000000000000e+03 5.803549194335937500e+01 3.759613418579101562e+01 1.396881064595276167e-13 -1.145591596845435545e-13 7.538683016055681974e-15 4.780221120467224166e-15
6.177000000000000000e+03 5.960517883300781250e+01 3.815169906616210938e+01 1.187765028476048257e-13 5.153265441866332341e-15 3.717892896218204235e-14 -9.183792100278878601e-15
6.178000000000000000e+03 1.750478982925415039e+00 3.965888214111328125e+01 1.053925894581482503e-13 6.804372874608805022e-14 5.203089275076545894e-14 -1.023879704707252730e-14
6.179000000000000000e+03 4.542229843139648438e+01 -1.609553527832031250e+01 -2.895422549181562999e-14 1.019684147231594840e-13 2.190425676940315619e-14 -4.892852277309754638e-14
6.180000000000000000e+03 5.043491363525390625e+01 -1.410354995727539062e+01 2.159353425235099877e-13 -2.734638687371115928e-13 -1.725855718645412373e-14 -1.851081679431210159e-13
6.181000000000000000e+03 5.005211639404296875e+01 -1.465173721313476562e+01 3.133751667449419243e-13 -2.145473469022940449e-13 2.964834188703621698e-14 -9.952161944754619322e-15
6.182000000000000000e+03 7.672429656982421875e+01 3.664282226562500000e+01 1.829610647827075581e-14 -8.366071236384081677e-14 -1.960938193507760774e-14 1.306638038869531449e-13
6.183000000000000000e+03 7.764028167724609375e+01 3.719370651245117188e+01 2.165000797182351638e-14 -2.194761706359946163e-13 -5.934785134035017173e-14 1.509700838734501227e-13
6.184000000000000000e+03 7.746626281738281250e+01 3.650893020629882812e+01 -3.903416828589419130e-14 -3.369855664046156329e-13 -1.128059234564715574e-13 1.053932467557153196e-13
6.185000000000000000e+03 6.444786834716796875e+01 -1.760933685302734375e+01 3.645915424492322809e-14 1.185649885562800598e-13 4.650724182392144967e-14 2.619845529752695690e-13
6.186000000000000000e+03 6.841804504394531250e+01 -1.163732242584228516e+01 2.328445799343846490e-14 5.818659356421340689e-13 1.815451136861004344e-13 8.018518032719412769e-14
6.187000000000000000e+03 6.382014846801757812e+01 3.659855651855468750e+01 5.190193706674367524e-14 3.882512800840176581e-13 1.320459583689648220e-13 -1.350525187559029061e-13
6.188000000000000000e+03 6.250885009765625000e+01 -2.118801689147949219e+01 -1.589187223656474135e-13 3.436505095245900865e-13 5.541953614768280190e-14 7.181882584299248418e-14
6.189000000000000000e+03 4.072159576416015625e+01 -1.682376098632812500e+01 -2.468388449368419391e-13 1.687176196278269980e-13 -2.343636488219905112e-14 2.003390942723060064e-13
6.190000000000000000e+03 3.982368469238281250e+01 -1.605432510375976562e+01 -1.360341418503441258e-13 3.320154684494612540e-14 -3.084978019568529461e-14 1.085238534237129016e-13
6.191000000000000000e+03 3.894889831542968750e+01 -1.620725822448730469e+01 -1.539915384877327265e-13 -1.117473220077838669e-13 -7.972166356966584044e-14 -9.463126625624401767e-14
6.192000000000000000e+03 6.159718322753906250e+01 -2.072849464416503906e+01 -8.391751920092116457e-14 1.012881930564056565e-13 5.211202495458526485e-15 1.163970314447052012e-13
6.193000000000000000e+03 4.862394332885742188e+01 -1.164130210876464844e+01 3.701095894060972558e-14 2.903675292830615318e-13 9.821354477303548269e-14 -1.038168032443942401e-13
6.194000000000000000e+03 5.123380279541015625e+01 3.416626739501953125e+01 1.703354118995012434e-13 1.645027836822895995e-13 1.004514600297899685e-13 2.681410527101933672e-14
6.195000000000000000e+03 5.181042098999023438e+01 3.411191177368164062e+01 4.239239642374152683e-14 6.391911875009217980e-14 3.189345353571057529e-14 1.125586779272998161e-13
6.196000000000000000e+03 7.597284698486328125e+01 3.552314758300781250e+01 -1.274637710104668115e-14 -2.342174848166123091e-13 -7.408915874470428653e-14 1.297950733437219784e-13
6.197000000000000000e+03 5.061420440673828125e+01 3.381179809570312500e+01 -4.256833871941340108e-14 2.562621068038367644e-13 6.410813584633787143e-14 -1.790287651470563041e-14
6.198000000000000000e+03 7.251503753662109375e+01 3.474127960205078125e+01 -1.471100056550135593e-14 4.512047744979763575e-13 1.309481359066874684e-13 1.200374706317869355e-13
6.199000000000000000e+03 6.780528259277343750e+01 3.469938659667968750e+01 5.215281806132503195e-15 7.857201217778553293e-13 2.372806270044269805e-13 -2.359185438151334413e-13
6.200000000000000000e+03 4.430672454833984375e+01 -1.512739562988281250e+01 2.236610148389356345e-14 9.585472064525812907e-15 9.585472064525812907e-15 1.013321167969184755e-13
6.201000000000000000e+03 1.301156902313232422e+01 3.320829391479492188e+00 -8.441502569655687238e-14 -3.106835535365837231e-13 -1.185295758028212521e-13 -3.790676065683513951e-14
6.202000000000000000e+03 4.257548141479492188e+01 -1.527016735076904297e+01 -3.653654256311616999e-14 -1.986623078499213935e-13 -7.055966054492213146e-14 5.533171915984326505e-14
6.203000000000000000e+03 4.157501983642578125e+01 -1.653031921386718750e+01 -1.634351426979888111e-13 -7.004363452092765563e-14 -7.004363452092765563e-14 2.640217959624241439e-13
6.204000000000000000e+03 6.577732086181640625e+01 -1.767958450317382812e+01 -2.086652282440402267e-14 2.655629080354493521e-13 7.340890997289614694e-14 -3.641330943368603634e-14
6.205000000000000000e+03 4.760631942749023438e+01 -1.344818687438964844e+01 -2.515212032587151904e-15 -1.077947998840333901e-15 -1.077947998840333901e-15 -8.693154703032224262e-14
6.206000000000000000e+03 4.870803070068359375e+01 -1.221696853637695312e+01 1.105483976929222401e-13 3.218835788187934810e-13 1.297295875325038539e-13 -1.598911297416225064e-13
6.207000000000000000e+03 4.732232666015625000e+01 3.133236312866210938e+01 -2.008799959598954465e-14 1.515191780637054064e-13 3.942935320150157963e-14 7.043276823315985924e-14
6.208000000000000000e+03 4.153498458862304688e+01 -1.598034763336181641e+01 -1.358633529031233467e-13 2.162785467212102741e-13 2.412455882305243604e-14 1.282131681639570031e-13
6.209000000000000000e+03 4.727661132812500000e+01 -1.268873500823974609e+01 1.553429151805729713e-13 1.580774356899072863e-13 9.402610526114407730e-14 -3.482142959393419446e-14
6.210000000000000000e+03 4.700297546386718750e+01 -1.316302299499511719e+01 -5.047055557093641995e-15 -2.309177697147613006e-13 -7.078944364285327806e-14 1.776068678791594552e-14
6.211000000000000000e+03 4.030456924438476562e+01 -1.456701946258544922e+01 9.248127640754631729e-15 -2.247912549461703047e-13 -6.466294242678943816e-14 1.495774939455282726e-13
6.212000000000000000e+03 4.226890945434570312e+01 -1.390494537353515625e+01 1.569547985504071708e-14 6.726634223588878747e-15 6.726634223588878747e-15 7.144092717577266161e-14
6.213000000000000000e+03 1.938718795776367188e+01 2.670208168029785156e+01 -2.040158474559024271e-14 1.413193750253926781e-14 -1.880894257618587195e-15 4.020761046157061980e-14
6.214000000000000000e+03 1.852512168884277344e+01 2.554706764221191406e+01 5.595961451924751084e-14 6.973364079102331581e-14 3.770797557664171129e-14 -2.588793742363485612e-14
6.215000000000000000e+03 7.609506988525390625e+01 -2.127246856689453125e+01 -5.363384161707202002e-14 1.142669129889500867e-13 1.818992242800295672e-14 1.274837694583514855e-14
6.216000000000000000e+03 7.657085418701171875e+01 -2.071525382995605469e+01 -5.607585115653332397e-14 2.171843976363219131e-14 -1.030722375668351870e-14 -1.436142193665321254e-13
6.217000000000000000e+03 1.521658802032470703e+01 3.756072759628295898e+00 -1.399047436061173766e-13 2.010498599471378239e-14 -3.593992643638813100e-14 3.473488654364732808e-14
6.218000000000000000e+03 2.795742607116699219e+01 -7.668165683746337891e+00 -1.299123298086762857e-13 -1.471786017712140016e-13 -8.312727811871437056e-14 7.109759422906439252e-14
6.219000000000000000e+03 5.627392292022705078e+00 3.012291526794433594e+01 -3.197669654563493891e-14 -1.052061947759072580e-13 -4.115486773527583797e-14 1.316009475872681467e-13
6.220000000000000000e+03 3.867338562011718750e+01 -1.408975219726562500e+01 -5.420949198428962057e-14 5.683151974196498646e-14 7.866087402311715531e-16 6.138255322866298380e-14
6.221000000000000000e+03 4.589522552490234375e+01 -9.281844139099121094e+00 9.557395971642942967e-14 8.671121682008245402e-14 5.468555160570084950e-14 -1.032092570045148316e-13
6.222000000000000000e+03 7.551725006103515625e+01 3.426639556884765625e+01 -3.387436798483979203e-15 4.429918956075536152e-14 1.227352604043965151e-14 1.702542864719450155e-13
6.223000000000000000e+03 3.875897884368896484e+00 6.979985713958740234e+00 -1.496076855879002049e-14 -1.436646076624983892e-13 -4.758761201935357565e-14 -4.021993309688727536e-14
6.224000000000000000e+03 7.306475067138671875e+01 8.394030928611755371e-01 2.554694194904783000e-13 7.500001596334737730e-13 3.016408737371856219e-13 1.114067402240882798e-13
6.225000000000000000e+03 6.077204704284667969e+00 6.829020500183105469e+00 -4.710525386094656375e-14 -1.116898660689057132e-13 -4.763853564014250419e-14 1.333342073903120983e-13
6.226000000000000000e+03 3.021694755554199219e+01 -8.875711441040039062e+00 1.707959775942412967e-15 1.837357712806617083e-13 5.563312058753065725e-14 -6.978552664124032523e-14
6.227000000000000000e+03 3.315041732788085938e+01 -1.368849086761474609e+01 -2.799481329531731261e-14 -1.492506205430510491e-13 -5.317363167616981356e-14 1.526369362934293372e-13
6.228000000000000000e+03 4.504158782958984375e+01 -1.010984802246093750e+01 -1.189436381182076233e-15 -8.629278932040240768e-14 -2.624466704343689921e-14 3.059652623830220498e-15
6.229000000000000000e+03 1.910078430175781250e+01 2.322983169555664062e+01 4.143119021146092484e-14 -7.374567672019730069e-14 -9.694345444401144402e-15 -5.000137978628752672e-15
6.230000000000000000e+03 7.493569946289062500e+01 -1.808122062683105469e+01 1.873823014816671483e-15 4.583125328902482032e-13 1.380559078514864702e-13 -8.891571832113365215e-14
6.231000000000000000e+03 3.256314849853515625e+01 -1.281447792053222656e+01 -6.398263266860909626e-14 -4.391796713625051307e-13 -1.509486844330706901e-13 9.488168985303385705e-14
6.232000000000000000e+03 7.464759063720703125e+01 4.127662479877471924e-01 1.197922105478435584e-13 5.088489850833821659e-13 1.885923600446204329e-13 7.462716696774590597e-14
6.233000000000000000e+03 7.498060607910156250e+01 9.379028081893920898e-01 2.461383148081447425e-13 3.799935355524447500e-13 1.878395578186822790e-13 -1.378836552313328356e-13
6.234000000000000000e+03 7.501867675781250000e+01 1.655275821685791016e+00 -9.188314409184269310e-15 5.908244813529472950e-13 1.744908471185135923e-13 -2.261422386157230235e-13
6.235000000000000000e+03 1.203077507019042969e+01 9.612275123596191406e+00 -9.254079571868398246e-14 4.040382056160439495e-14 -1.564109186949751845e-14 -1.739377583208790573e-14
6.236000000000000000e+03 1.709893035888671875e+01 5.421139240264892578e+00 1.067892976602596508e-14 4.460876316231786320e-14 1.658630779379985376e-14 6.926526545250957789e-14
6.237000000000000000e+03 7.304795074462890625e+01 -5.392792701721191406e+00 3.019861514715407869e-14 3.903875920446830960e-13 1.261758574141666478e-13 1.693510071488612406e-14
6.238000000000000000e+03 9.317778587341308594e+00 9.956947326660156250e+00 -8.448703874366653849e-15 3.069233709958145428e-14 6.673090306377619033e-15 7.357600585646689728e-14
6.239000000000000000e+03 7.482745361328125000e+01 5.105814933776855469e+00 9.306978642896913262e-15 5.072491363576625556e-13 1.549668325519920620e-13 -1.067363970645718307e-13
6.240000000000000000e+03 7.404761505126953125e+01 -1.278017997741699219e+01 3.781300088583766650e-14 3.364622220159568800e-13 1.122825655152856483e-13 8.620618867187512802e-14
6.241000000000000000e+03 3.309506225585937500e+01 -1.156460762023925781e+01 1.213536564938005533e-14 -2.121161319507125498e-13 -5.999423234679529537e-14 1.183722716201207614e-13
6.242000000000000000e+03 7.499703216552734375e+01 7.973231792449951172e+00 8.734702007908226595e-14 4.034420367227120607e-13 1.472367150076592246e-13 -8.839679883259135562e-14
6.243000000000000000e+03 7.456047058105468750e+01 -7.476560592651367188e+00 1.262344636237871728e-14 1.884138461569206946e-13 6.031118529939427653e-14 1.542596921781744929e-14
6.244000000000000000e+03 3.875679779052734375e+01 2.176395034790039062e+01 5.064066096256876481e-14 2.733333579005986502e-13 9.719220599776340341e-14 -1.085941978159164767e-14
6.245000000000000000e+03 3.850794219970703125e+01 2.113246726989746094e+01 -5.156520165966156991e-15 1.007297001885676391e-13 2.867195345620902891e-14 1.308551130543541066e-14
6.246000000000000000e+03 1.998776817321777344e+01 3.020037174224853516e+00 5.361610813528830399e-14 -3.430292616797558924e-13 -8.682394674096663434e-14 1.344247656980337990e-13
6.247000000000000000e+03 7.403784942626953125e+01 -8.008199691772460938e+00 1.182898133862220289e-15 4.122654908428335929e-13 1.240345174659263083e-13 3.150872100667230502e-14
6.248000000000000000e+03 4.564746093750000000e+01 -5.798378944396972656e+00 2.691367738210086874e-14 1.153443304275280842e-14 1.153443304275280842e-14 -1.265862414889795673e-13
6.249000000000000000e+03 5.852905273437500000e+00 9.442521095275878906e+00 -4.031779589548124820e-14 -2.460337977187171399e-13 -8.590547842307269533e-14 1.437265427116016236e-13
6.250000000000000000e+03 1.839255905151367188e+01 6.324360370635986328e+00 -1.017882745322010174e-13 -3.591465859653858797e-15 -3.161392249872128912e-14 8.118812154685184357e-14
6.251000000000000000e+03 3.299806594848632812e+01 -1.077161979675292969e+01 7.220101219099130802e-15 -2.256604191702704654e-13 -6.553209309836244278e-14 -1.019724859870204618e-15
6.252000000000000000e+03 7.420586395263671875e+01 -1.175199317932128906e+01 1.032314424914693163e-13 4.102496337435312945e-13 1.540443255810056145e-13 -2.052893276107813775e-14
6.253000000000000000e+03 1.889621925354003906e+01 5.919750213623046875e+00 -5.483820388345501950e-14 -1.207228490351236472e-13 -5.266831892489221012e-14 1.103731364117399583e-13
6.254000000000000000e+03 6.154594421386718750e+00 1.090149593353271484e+01 -2.510300723800734657e-14 -5.650937955959701997e-14 -2.448371603928130996e-14 4.908823930563181726e-14
6.255000000000000000e+03 4.044264984130859375e+01 -7.936776638031005859e+00 5.695359413032327622e-14 -2.043460615563236216e-13 -4.421773887254738800e-14 -5.563684075623499814e-14
6.256000000000000000e+03 2.743681335449218750e+01 -4.122841358184814453e-01 -9.347030595807832853e-15 -4.975681935155858160e-14 -1.773115583124287159e-14 9.881812300946771210e-14
6.257000000000000000e+03 2.954039001464843750e+01 -2.434971332550048828e+00 7.433351758559178513e-14 -5.964467879012239071e-14 4.406652909190239206e-15 -1.246348402088315321e-13
6.258000000000000000e+03 1.494053745269775391e+01 1.465421485900878906e+01 -2.445559115730067817e-14 -1.477338081512166723e-13 -5.165682267246722581e-14 7.307822153402449006e-14
6.259000000000000000e+03 1.567578029632568359e+01 1.448571205139160156e+01 -4.278716121100707703e-14 -6.408830172284496474e-14 -3.206263989659514924e-14 1.148051685456123044e-14
6.260000000000000000e+03 2.437102890014648438e+01 1.411299800872802734e+01 7.802153291925489897e-14 1.192208224504165415e-13 5.917270525564871653e-14 -9.169386610944924715e-15
6.261000000000000000e+03 2.977856636047363281e+01 -1.435591220855712891e+00 1.815894643312186696e-14 -3.796854324000786818e-14 -5.942879296175684542e-15 -5.940226473688178799e-14
6.262000000000000000e+03 4.141696929931640625e+01 -3.885629892349243164e+00 5.601198487231034973e-14 -2.505005480390315453e-13 -5.834657030526907429e-14 1.185501485390441645e-13
6.263000000000000000e+03 8.902479171752929688e+00 1.391074657440185547e+01 -4.021196082278771788e-14 7.426820118096311152e-14 1.021687159923284974e-14 2.810072460097609581e-14
6.264000000000000000e+03 6.940036773681640625e+00 1.414476490020751953e+01 6.786835226842494184e-14 -1.081664055199715868e-13 -1.208941580605740404e-14 1.361870838133662567e-14
6.265000000000000000e+03 1.287969684600830078e+01 1.522652912139892578e+01 -8.875049268631043931e-14 1.735622144052526017e-13 2.544351617686946981e-14 5.527060234456707827e-15
6.266000000000000000e+03 3.009043312072753906e+01 -3.844893872737884521e-01 3.078398267634258056e-14 1.046950341091618109e-13 4.064370368039860182e-14 1.669496433324068815e-15
6.267000000000000000e+03 3.198836898803710938e+01 -1.104070305824279785e+00 5.326585662346686179e-14 4.570369893631097413e-14 2.969086632912017187e-14 -7.507875750137685267e-14
6.268000000000000000e+03 3.386451721191406250e+01 -7.527113914489746094e+00 -1.083865866524126587e-13 -4.645139524764307914e-14 -4.645139524764307914e-14 3.201546016143308471e-14
6.269000000000000000e+03 3.049320411682128906e+01 6.232133507728576660e-01 -3.823220087956560875e-14 -3.926070216543967040e-14 -2.324787125231476265e-14 -3.388379800264157415e-14
6.270000000000000000e+03 2.420044708251953125e+01 4.969861507415771484e+00 1.080159385872213329e-13 1.149189657280100252e-13 6.688047468270119644e-14 -6.707611218846262768e-14
6.271000000000000000e+03 3.836349105834960938e+01 -1.613899707794189453e+00 2.891739311113722399e-14 -1.706106230684595326e-13 -4.250796898719669259e-14 2.240584257571284071e-14
6.272000000000000000e+03 3.019269371032714844e+01 8.896283149719238281e+00 6.990899016363211205e-14 -3.294655943463647985e-14 1.108873023513822637e-14 -2.090321967981086798e-14
6.273000000000000000e+03 2.792136192321777344e+01 6.791762828826904297e+00 -2.994373276892989266e-14 1.015443425959189350e-13 2.148018294809671269e-14 7.492176502680095163e-14
6.274000000000000000e+03 2.435238456726074219e+01 8.442052841186523438e+00 -3.580552941271318568e-14 3.040572147902133315e-14 -1.619942994206442517e-15 4.487474844841465860e-14
6.275000000000000000e+03 2.468298912048339844e+01 5.593324184417724609e+00 -1.224592530244678068e-13 -2.960706427745062042e-14 -4.561989688464142267e-14 4.636611597051351619e-14
6.276000000000000000e+03 8.070027351379394531e+00 1.826370429992675781e+01 -1.294791080315394957e-14 1.660169533313285428e-13 4.592071216552931490e-14 1.208008302763796671e-13
6.277000000000000000e+03 3.440116119384765625e+01 -6.488761425018310547e+00 3.770861254541804652e-14 1.305382126177978552e-13 5.047404619371205492e-14 5.984842070712315110e-14
6.278000000000000000e+03 2.467510604858398438e+01 9.246869087219238281e+00 7.679946766427428462e-14 -2.415916316826638433e-13 -4.943765056076958320e-14 5.823888192448695156e-14
6.279000000000000000e+03 3.083691215515136719e+01 9.195280075073242188e+00 2.259244901619064660e-14 1.698107935732898199e-13 5.772097209921778216e-14 -1.993350798619041193e-15
6.280000000000000000e+03 2.319342994689941406e+01 9.292637825012207031e+00 6.299909189157529288e-14 -2.475060900588438306e-13 -5.535209877255420352e-14 8.661832779895475842e-14
6.281000000000000000e+03 2.493524360656738281e+01 6.692796230316162109e+00 1.645415201930334331e-14 -3.869917014338690453e-14 -6.673504929005300013e-15 5.038435895712498058e-14
6.282000000000000000e+03 2.566751861572265625e+01 7.275815486907958984e+00 4.380288246377296579e-14 -2.697828566718563775e-14 5.047379123679493138e-15 -3.860716881278793144e-14
6.283000000000000000e+03 2.520668411254882812e+01 6.092988491058349609e+00 9.419194753595289127e-14 4.322741166754018316e-14 4.122580843867428013e-14 -5.206889827207581214e-15
6.284000000000000000e+03 2.554794883728027344e+01 6.612334251403808594e+00 3.804686710609105245e-16 -6.846336242068498668e-14 -2.042486968131026343e-14 5.641441700181444585e-14
6.285000000000000000e+03 8.346582412719726562e+00 1.762069702148437500e+01 1.710873738687557211e-14 5.308326681322493579e-14 2.105760159884333127e-14 9.146761852703994000e-14
6.286000000000000000e+03 3.704718780517578125e+01 -6.226866841316223145e-01 1.099821036516400105e-14 -1.096638513504999413e-13 -2.959969170267771899e-14 4.362479717474453816e-15
6.287000000000000000e+03 3.301599502563476562e+01 3.262278795242309570e+00 -2.933795513384435116e-14 7.892848836532975754e-14 1.487715963063244301e-14 5.700601615239589762e-15
6.288000000000000000e+03 3.155013847351074219e+01 5.196854591369628906e+00 3.299853676441179273e-14 1.285196043554828749e-13 4.845544131952886358e-14 -2.673949691495928344e-14
6.289000000000000000e+03 3.036027145385742188e+01 6.379749774932861328e+00 -3.835061608559175994e-14 1.665678229026412716e-13 3.846515865698306447e-14 -1.629872316754807371e-14
6.290000000000000000e+03 3.194303321838378906e+01 2.389743328094482422e+00 -3.448730897756026315e-14 1.682235215927710414e-13 4.012086412337641239e-14 3.513721025293417566e-14
6.291000000000000000e+03 3.518433761596679688e+01 -4.147404670715332031e+00 -4.056702009361777550e-14 1.656179262742724090e-13 3.751527219300956895e-14 5.441261048504120179e-14
6.292000000000000000e+03 7.158032989501953125e+01 -2.613537025451660156e+01 -2.266669992434695857e-14 3.603664743456920505e-14 4.010984337769968669e-15 3.666585061284401148e-14
6.293000000000000000e+03 7.225865936279296875e+01 -2.611459541320800781e+01 1.424080037920605335e-13 1.528105373900350006e-14 4.730671895338510458e-14 7.275354364094654969e-14
6.294000000000000000e+03 7.236230468750000000e+01 -2.673562240600585938e+01 -9.745886552208621323e-14 -2.476473616019186919e-13 -1.035318681372014715e-13 6.766673809818768426e-14
6.295000000000000000e+03 7.166560363769531250e+01 -2.687954711914062500e+01 -6.536722237034412950e-15 4.294949676941425820e-14 1.092383240206560094e-14 1.060453994446630341e-14
6.296000000000000000e+03 7.291873168945312500e+01 -2.609382438659667969e+01 5.423496057094766287e-14 -2.512621458550939879e-13 -5.910815456880436081e-14 -1.055824264822868841e-13
6.297000000000000000e+03 7.283872985839843750e+01 -2.706465530395507812e+01 -1.587709862671191074e-13 -2.229375978800036268e-14 -5.431942330831607268e-14 -6.251462970332730129e-14
6.298000000000000000e+03 7.293415832519531250e+01 -2.658774948120117188e+01 4.880549293157475377e-14 -2.483430805834754840e-14 7.191355461968161611e-15 -4.111615832958631644e-14
6.299000000000000000e+03 7.435037231445312500e+01 -2.660381126403808594e+01 2.465096692988140784e-15 9.255836657014182567e-14 2.850703952951040565e-14 -6.740738338600199553e-14
6.300000000000000000e+03 7.362010955810546875e+01 -2.609982109069824219e+01 -9.335629193524611069e-14 -4.000984182091389674e-14 -4.000984182091389674e-14 -1.034120231395603551e-13
6.301000000000000000e+03 7.359963989257812500e+01 -2.708649635314941406e+01 8.986689566331876322e-14 3.851438482374569539e-14 3.851438482374569539e-14 -7.198977064427555805e-15
6.302000000000000000e+03 7.360988616943359375e+01 -2.659354972839355469e+01 3.566989233280346006e-14 1.528709816611510675e-14 1.528709816611510675e-14 -1.630572304782418325e-13
6.303000000000000000e+03 7.508823394775390625e+01 -2.611919975280761719e+01 6.863128500841225721e-14 3.496700541963382314e-13 1.254903976956669998e-13 -1.500888341832585376e-14
6.304000000000000000e+03 7.583950805664062500e+01 -2.711456298828125000e+01 1.705340648425548999e-13 -1.556687179334048654e-13 4.459606444437262673e-15 -9.219486746302532620e-14
6.305000000000000000e+03 7.583103942871093750e+01 -2.662133026123046875e+01 2.317469404312239023e-13 1.450710618257008977e-13 1.130453966113192932e-13 -3.379242347642356925e-14
6.306000000000000000e+03 7.582215881347656250e+01 -2.612803268432617188e+01 1.127069967844958331e-13 9.405394892818622066e-14 6.202828371380461614e-14 -4.392707443449939131e-14
6.307000000000000000e+03 7.509315490722656250e+01 -2.710516357421875000e+01 1.921961125406906890e-13 -9.132132407858786077e-15 5.491919717387147570e-14 1.017165274534367891e-13
6.308000000000000000e+03 7.434636688232421875e+01 -2.709625625610351562e+01 2.448937320292943198e-13 2.879582423204185559e-13 1.598555950154192939e-13 -7.831636137127159780e-14
6.309000000000000000e+03 7.435413360595703125e+01 -2.610982322692871094e+01 1.536424931508281744e-13 1.573486756471439985e-13 9.329735199464436746e-14 -1.414232907214277302e-13
6.310000000000000000e+03 7.509101104736328125e+01 -2.661259460449218750e+01 1.049947550234818505e-13 -9.225509489370689598e-14 3.821898631855549441e-15 -3.839606448540963668e-14
6.311000000000000000e+03 7.717639923095703125e+01 -2.701811027526855469e+01 1.205171081203673666e-13 -2.686064532689963480e-13 -4.442680693272048342e-14 1.353846640914438404e-13
6.312000000000000000e+03 7.937857055664062500e+01 -2.604552459716796875e+01 3.775327489866087127e-14 -5.244644711468841869e-14 -4.407952681247800930e-15 -4.146346216675131369e-14
6.313000000000000000e+03 7.655825805664062500e+01 -2.712063026428222656e+01 2.868626018150133294e-13 3.059449124164642653e-13 1.778422515589378472e-13 -2.188991650160614089e-14
6.314000000000000000e+03 7.985607910156250000e+01 -2.604024314880371094e+01 -7.617807074164137382e-14 1.503560459730629573e-13 2.225339358586601174e-14 -9.353087728413648355e-15
6.315000000000000000e+03 7.660035705566406250e+01 -2.667923545837402344e+01 -5.903089161148761255e-14 2.034557960474414617e-13 4.332746997553343915e-14 -1.074105116237759547e-14
6.316000000000000000e+03 7.661837005615234375e+01 -2.616293144226074219e+01 1.583046844652602481e-13 4.796033904221064237e-13 1.913724305977262952e-13 9.705817150418988293e-14
6.317000000000000000e+03 7.968909454345703125e+01 -2.680004882812500000e+01 -3.858241173380558275e-14 5.209110324078808363e-14 4.052607960314518615e-15 -4.428931654472216539e-14
6.318000000000000000e+03 7.742279052734375000e+01 -2.615484428405761719e+01 1.329560241200219983e-13 1.484830596150399362e-13 8.443172241001314915e-14 1.174418228682208576e-13
6.319000000000000000e+03 7.811077117919921875e+01 -2.604147911071777344e+01 3.171475668889423005e-14 -7.790986009548889202e-14 -1.385853051375863024e-14 6.326079119095898151e-14
6.320000000000000000e+03 7.873431396484375000e+01 -2.600492095947265625e+01 8.281090792478310036e-14 1.269922887551025448e-13 6.294095832633933574e-14 -1.162024713648526775e-13
6.321000000000000000e+03 7.782653808593750000e+01 -2.687680625915527344e+01 -3.800153347923752867e-14 -1.077882696835265330e-13 -4.373694264289511302e-14 1.219842640527019073e-13
6.322000000000000000e+03 7.843991851806640625e+01 -2.656050109863281250e+01 -6.868273717776027243e-14 -2.124392513031675422e-13 -8.433659722190470220e-14 -3.244666769422130392e-14
6.323000000000000000e+03 7.904193878173828125e+01 -2.681424140930175781e+01 -2.199613951538951367e-14 9.351271520368145684e-14 2.145497355352053021e-14 -1.096316437697135437e-14
6.324000000000000000e+03 4.795404052734375000e+01 -1.900103569030761719e+01 -1.477083700577447312e-13 -1.090545365058266658e-13 -7.702887129144506129e-14 8.649445092448471151e-14
6.325000000000000000e+03 4.875728988647460938e+01 -1.981459236145019531e+01 -3.281630609613950256e-13 1.109889090356031005e-13 -6.515224964349572434e-14 -1.112781199651136088e-13
6.326000000000000000e+03 4.835401153564453125e+01 -1.936160278320312500e+01 -1.885493578759542266e-13 -1.322766901437968934e-13 -9.624781169541990478e-14 6.821013345077384105e-14
6.327000000000000000e+03 4.860531997680664062e+01 -1.893436813354492188e+01 -3.892584225870937553e-13 -2.125759963021722765e-13 -1.805503310877906720e-13 1.655844515321969190e-13
