# el_label, x, y, sXX, sYY, sZZ, sXY
1.000000000000000000e+00 4.595927047729492188e+01 -2.076156997680664062e+01 6.126455664634704590e-01 -2.993441343307495117e+00 -7.142387032508850098e-01 -1.219439387321472168e+00
2.000000000000000000e+00 4.577444839477539062e+01 -2.083545112609863281e+01 1.874252319335937500e+00 1.373203754425048828e+00 9.742367863655090332e-01 1.120980739593505859e+00
3.000000000000000000e+00 4.558963012695312500e+01 -2.090933227539062500e+01 8.259285688400268555e-01 -1.548099368810653687e-01 2.013355791568756104e-01 4.506828784942626953e-01
4.000000000000000000e+00 4.540480804443359375e+01 -2.098321342468261719e+01 3.208115994930267334e-01 3.321887254714965820e-01 1.959000974893569946e-01 3.164250850677490234e-01
5.000000000000000000e+00 4.598614883422851562e+01 -2.081342124938964844e+01 9.646939277648925781e+00 1.364861726760864258e-01 2.935027599334716797e+00 5.343173503875732422e+00
6.000000000000000000e+00 4.581924819946289062e+01 -2.092187118530273438e+01 4.183494091033935547e+00 1.529917001724243164e+00 1.714023351669311523e+00 2.479606389999389648e+00
7.000000000000000000e+00 4.565234756469726562e+01 -2.103031921386718750e+01 3.467753887176513672e+00 2.073783636093139648e+00 1.662461280822753906e+00 2.809844970703125000e+00
8.000000000000000000e+00 4.548544692993164062e+01 -2.113876914978027344e+01 2.697331666946411133e+00 1.213009357452392578e+00 1.173102378845214844e+00 2.029399871826171875e+00
9.000000000000000000e+00 4.602260971069335938e+01 -2.085904884338378906e+01 1.032025432586669922e+01 7.375213623046875000e+00 5.308640480041503906e+00 1.019247245788574219e+01
1.000000000000000000e+01 4.588001632690429688e+01 -2.099791526794433594e+01 6.711928844451904297e+00 4.533280849456787109e+00 3.373562812805175781e+00 6.091486454010009766e+00
1.100000000000000000e+01 4.573741912841796875e+01 -2.113678169250488281e+01 4.569516181945800781e+00 4.067633628845214844e+00 2.591144800186157227e+00 4.483804702758789062e+00
1.200000000000000000e+01 4.559482574462890625e+01 -2.127565002441406250e+01 3.807329893112182617e+00 3.832380294799804688e+00 2.291913032531738281e+00 4.070250034332275391e+00
1.300000000000000000e+01 4.606725311279296875e+01 -2.089670372009277344e+01 9.263116836547851562e+00 1.523971652984619141e+01 7.350850105285644531e+00 1.259257698059082031e+01
1.400000000000000000e+01 4.595442199707031250e+01 -2.106067466735839844e+01 6.132147789001464844e+00 9.600608825683593750e+00 4.719827175140380859e+00 8.285724639892578125e+00
1.500000000000000000e+01 4.584159088134765625e+01 -2.122464561462402344e+01 4.994353294372558594e+00 7.748207092285156250e+00 3.822768211364746094e+00 6.482105731964111328e+00
1.600000000000000000e+01 4.572875976562500000e+01 -2.138861656188964844e+01 3.666166543960571289e+00 6.620000839233398438e+00 3.085850238800048828e+00 5.417653083801269531e+00
1.700000000000000000e+01 4.611837387084960938e+01 -2.092494773864746094e+01 6.547305583953857422e+00 2.284587669372558594e+01 8.817955017089843750e+00 1.247897148132324219e+01
1.800000000000000000e+01 4.603962707519531250e+01 -2.110774612426757812e+01 5.111903190612792969e+00 1.546718883514404297e+01 6.173727512359619141e+00 8.926756858825683594e+00
1.900000000000000000e+01 4.596087646484375000e+01 -2.129054641723632812e+01 3.800396442413330078e+00 1.203618144989013672e+01 4.750973224639892578e+00 7.074179649353027344e+00
2.000000000000000000e+01 4.588212203979492188e+01 -2.147334671020507812e+01 3.236113071441650391e+00 1.037938404083251953e+01 4.084649085998535156e+00 6.180603504180908203e+00
2.100000000000000000e+01 4.617401885986328125e+01 -2.094269752502441406e+01 4.811155796051025391e+00 2.975545120239257812e+01 1.036998176574707031e+01 1.005764770507812500e+01
2.200000000000000000e+01 4.613236236572265625e+01 -2.113733100891113281e+01 3.258486747741699219e+00 2.055075454711914062e+01 7.142772674560546875e+00 7.903881549835205078e+00
2.300000000000000000e+01 4.609070587158203125e+01 -2.133196449279785156e+01 2.855019569396972656e+00 1.686183738708496094e+01 5.915057182312011719e+00 6.425409793853759766e+00
2.400000000000000000e+01 4.604904937744140625e+01 -2.152659797668457031e+01 2.053377151489257812e+00 1.400125026702880859e+01 4.816388130187988281e+00 5.505346775054931641e+00
2.500000000000000000e+01 4.623205184936523438e+01 -2.094927787780761719e+01 3.299724817276000977e+00 3.435114288330078125e+01 1.129526042938232422e+01 6.272639751434326172e+00
2.600000000000000000e+01 4.622908401489257812e+01 -2.114829635620117188e+01 2.827626705169677734e+00 2.512147331237792969e+01 8.384729385375976562e+00 5.386810302734375000e+00
2.700000000000000000e+01 4.622611618041992188e+01 -2.134731483459472656e+01 1.537618637084960938e+00 2.033018493652343750e+01 6.560340881347656250e+00 4.709565639495849609e+00
2.800000000000000000e+01 4.622314834594726562e+01 -2.154633331298828125e+01 1.609706759452819824e+00 1.810634803771972656e+01 5.914816379547119141e+00 3.964114427566528320e+00
2.900000000000000000e+01 4.629025650024414062e+01 -2.094443130493164062e+01 4.458420753479003906e+00 3.720877838134765625e+01 1.250016021728515625e+01 1.657964229583740234e+00
3.000000000000000000e+01 4.632609176635742188e+01 -2.114022064208984375e+01 2.405112028121948242e+00 2.775356101989746094e+01 9.047601699829101562e+00 2.274325132369995117e+00
3.100000000000000000e+01 4.636192321777343750e+01 -2.133600807189941406e+01 1.960325598716735840e+00 2.325347137451171875e+01 7.564139366149902344e+00 1.983661532402038574e+00
3.200000000000000000e+01 4.639775848388671875e+01 -2.153179740905761719e+01 1.130441308021545410e+00 1.989590263366699219e+01 6.307903289794921875e+00 1.974178075790405273e+00
3.300000000000000000e+01 4.634640121459960938e+01 -2.092834854125976562e+01 6.227306365966796875e+00 3.759729003906250000e+01 1.314737892150878906e+01 -2.564361810684204102e+00
3.400000000000000000e+01 4.641966629028320312e+01 -2.111341285705566406e+01 4.116787910461425781e+00 2.913353538513183594e+01 9.975096702575683594e+00 -1.178841233253479004e+00
3.500000000000000000e+01 4.649293518066406250e+01 -2.129847908020019531e+01 2.534928083419799805e+00 2.441029739379882812e+01 8.083567619323730469e+00 -7.020342350006103516e-01
3.600000000000000000e+01 4.656620025634765625e+01 -2.148354530334472656e+01 2.180865526199340820e+00 2.117310905456542969e+01 7.006192207336425781e+00 -1.038844704627990723e+00
3.700000000000000000e+01 4.639834213256835938e+01 -2.090163993835449219e+01 1.009155559539794922e+01 3.644730758666992188e+01 1.396165943145751953e+01 -5.881220340728759766e+00
3.800000000000000000e+01 4.650623703002929688e+01 -2.106890106201171875e+01 6.006024360656738281e+00 2.895713806152343750e+01 1.048894882202148438e+01 -4.003768920898437500e+00
3.900000000000000000e+01 4.661412811279296875e+01 -2.123616218566894531e+01 4.905869483947753906e+00 2.431349182128906250e+01 8.765808105468750000e+00 -3.464186906814575195e+00
4.000000000000000000e+01 4.672202301025390625e+01 -2.140342330932617188e+01 3.218437671661376953e+00 2.181145095825195312e+01 7.508966445922851562e+00 -3.080980777740478516e+00
4.100000000000000000e+01 4.644409179687500000e+01 -2.086533164978027344e+01 1.383171653747558594e+01 3.429384231567382812e+01 1.443766784667968750e+01 -7.783256530761718750e+00
4.200000000000000000e+01 4.658248138427734375e+01 -2.100838851928710938e+01 9.400362014770507812e+00 2.753638076782226562e+01 1.108102321624755859e+01 -5.915507316589355469e+00
4.300000000000000000e+01 4.672087478637695312e+01 -2.115144348144531250e+01 6.914853572845458984e+00 2.366423797607421875e+01 9.173727989196777344e+00 -5.364610195159912109e+00
4.400000000000000000e+01 4.685926437377929688e+01 -2.129450035095214844e+01 6.207450389862060547e+00 2.076122283935546875e+01 8.090601921081542969e+00 -4.668546676635742188e+00
4.500000000000000000e+01 4.648189163208007812e+01 -2.082081222534179688e+01 1.790815353393554688e+01 3.172966384887695312e+01 1.489134502410888672e+01 -8.095882415771484375e+00
4.600000000000000000e+01 4.664548873901367188e+01 -2.093418884277343750e+01 1.253329372406005859e+01 2.575883674621582031e+01 1.148763942718505859e+01 -6.826116561889648438e+00
4.700000000000000000e+01 4.680908584594726562e+01 -2.104756546020507812e+01 9.853055953979492188e+00 2.196681976318359375e+01 9.545963287353515625e+00 -5.860325813293457031e+00
4.800000000000000000e+01 4.697267532348632812e+01 -2.116094207763671875e+01 8.112819671630859375e+00 1.987192726135253906e+01 8.395423889160156250e+00 -5.746613025665283203e+00
4.900000000000000000e+01 4.651030731201171875e+01 -2.076978492736816406e+01 2.129500961303710938e+01 2.964713859558105469e+01 1.528264427185058594e+01 -7.187178134918212891e+00
5.000000000000000000e+01 4.669284439086914062e+01 -2.084914207458496094e+01 1.539358139038085938e+01 2.370370674133300781e+01 1.172918701171875000e+01 -6.346876621246337891e+00
5.100000000000000000e+01 4.687538146972656250e+01 -2.092850112915039062e+01 1.257174682617187500e+01 2.042480850219726562e+01 9.898966789245605469e+00 -5.696369171142578125e+00
5.200000000000000000e+01 4.705791854858398438e+01 -2.100785827636718750e+01 1.006769466400146484e+01 1.809263992309570312e+01 8.448100090026855469e+00 -4.803692340850830078e+00
5.300000000000000000e+01 4.652824401855468750e+01 -2.071420097351074219e+01 2.334995841979980469e+01 2.781473541259765625e+01 1.534940814971923828e+01 -5.491085052490234375e+00
5.400000000000000000e+01 4.672273635864257812e+01 -2.075650405883789062e+01 1.781532096862792969e+01 2.250880050659179688e+01 1.209723567962646484e+01 -4.851512908935546875e+00
5.500000000000000000e+01 4.691723251342773438e+01 -2.079880714416503906e+01 1.419685268402099609e+01 1.892485046386718750e+01 9.936511039733886719e+00 -4.524736881256103516e+00
5.600000000000000000e+01 4.711172485351562500e+01 -2.084111022949218750e+01 1.264093112945556641e+01 1.640959167480468750e+01 8.715156555175781250e+00 -3.776028871536254883e+00
5.700000000000000000e+01 4.653501510620117188e+01 -2.065619087219238281e+01 2.448956108093261719e+01 2.766545677185058594e+01 1.564650535583496094e+01 -3.230232000350952148e+00
5.800000000000000000e+01 4.673402023315429688e+01 -2.065981864929199219e+01 1.886161041259765625e+01 2.133220100402832031e+01 1.205814361572265625e+01 -2.966034889221191406e+00
5.900000000000000000e+01 4.693302917480468750e+01 -2.066344833374023438e+01 1.543183612823486328e+01 1.871146202087402344e+01 1.024298954010009766e+01 -2.515146493911743164e+00
6.000000000000000000e+01 4.713203811645507812e+01 -2.066707611083984375e+01 1.317565059661865234e+01 1.554165935516357422e+01 8.615193367004394531e+00 -2.900534629821777344e+00
6.100000000000000000e+01 4.653036117553710938e+01 -2.059797096252441406e+01 2.424432182312011719e+01 2.782756996154785156e+01 1.562156772613525391e+01 -8.405522108078002930e-01
6.200000000000000000e+01 4.672626876831054688e+01 -2.056278610229492188e+01 1.865067863464355469e+01 2.183549880981445312e+01 1.214585304260253906e+01 -1.003239393234252930e+00
6.300000000000000000e+01 4.692217636108398438e+01 -2.052760314941406250e+01 1.557642078399658203e+01 1.838868522644042969e+01 1.018953227996826172e+01 -7.039998173713684082e-01
6.400000000000000000e+01 4.711808395385742188e+01 -2.049241828918457031e+01 1.318179512023925781e+01 1.687282752990722656e+01 9.016386985778808594e+00 -1.032400846481323242e+00
6.500000000000000000e+01 4.651446533203125000e+01 -2.054177284240722656e+01 2.279413032531738281e+01 2.849729919433593750e+01 1.538742923736572266e+01 8.839682340621948242e-01
6.600000000000000000e+01 4.669977188110351562e+01 -2.046912193298339844e+01 1.745084953308105469e+01 2.342229843139648438e+01 1.226194381713867188e+01 8.196629285812377930e-01
6.700000000000000000e+01 4.688508224487304688e+01 -2.039647102355957031e+01 1.427522373199462891e+01 1.900169181823730469e+01 9.983075141906738281e+00 4.716063737869262695e-01
6.800000000000000000e+01 4.707038879394531250e+01 -2.032382011413574219e+01 1.248859786987304688e+01 1.781116676330566406e+01 9.089929580688476562e+00 5.336594581604003906e-01
6.900000000000000000e+01 4.648793029785156250e+01 -2.048974227905273438e+01 2.075423812866210938e+01 3.126719665527343750e+01 1.560643005371093750e+01 1.852153539657592773e+00
7.000000000000000000e+01 4.665554809570312500e+01 -2.038240623474121094e+01 1.504376125335693359e+01 2.416361808776855469e+01 1.176221370697021484e+01 1.903806567192077637e+00
7.100000000000000000e+01 4.682316589355468750e+01 -2.027506828308105469e+01 1.249498462677001953e+01 2.171103477478027344e+01 1.026180553436279297e+01 1.025347232818603516e+00
7.200000000000000000e+01 4.699078750610351562e+01 -2.016773033142089844e+01 9.757667541503906250e+00 1.777579879760742188e+01 8.260039329528808594e+00 1.123531818389892578e+00
7.300000000000000000e+01 4.645177459716796875e+01 -2.044387435913085938e+01 1.726957130432128906e+01 3.265864181518554688e+01 1.497846412658691406e+01 2.246297121047973633e+00
7.400000000000000000e+01 4.659528732299804688e+01 -2.030595779418945312e+01 1.281855678558349609e+01 2.681955146789550781e+01 1.189143276214599609e+01 1.338464736938476562e+00
7.500000000000000000e+01 4.673880386352539062e+01 -2.016804313659667969e+01 9.599003791809082031e+00 2.255591583251953125e+01 9.646475791931152344e+00 1.298161745071411133e+00
7.600000000000000000e+01 4.688232040405273438e+01 -2.003012657165527344e+01 8.351349830627441406e+00 2.060656929016113281e+01 8.687376022338867188e+00 8.994033336639404297e-01
7.700000000000000000e+01 4.640737915039062500e+01 -2.040592193603515625e+01 1.447804355621337891e+01 3.507197570800781250e+01 1.486500549316406250e+01 9.494351744651794434e-01
7.800000000000000000e+01 4.652130126953125000e+01 -2.024270629882812500e+01 9.790966987609863281e+00 2.803921318054199219e+01 1.134905433654785156e+01 1.873985975980758667e-01
7.900000000000000000e+01 4.663521957397460938e+01 -2.007948875427246094e+01 7.608091831207275391e+00 2.412010192871093750e+01 9.518458366394042969e+00 9.949668310582637787e-03
8.000000000000000000e+01 4.674913787841796875e+01 -1.991627311706542969e+01 6.722584247589111328e+00 2.125215530395507812e+01 8.392421722412109375e+00 7.637375965714454651e-03
8.100000000000000000e+01 4.635644912719726562e+01 -2.037734031677246094e+01 1.149544143676757812e+01 3.630025863647460938e+01 1.433871078491210938e+01 -1.395064473152160645e+00
8.200000000000000000e+01 4.643640899658203125e+01 -2.019506835937500000e+01 7.638462066650390625e+00 2.898453330993652344e+01 1.098689842224121094e+01 -2.110904455184936523e+00
8.300000000000000000e+01 4.651637268066406250e+01 -2.001279640197753906e+01 6.026419162750244141e+00 2.440360069274902344e+01 9.129006385803222656e+00 -1.973452210426330566e+00
8.400000000000000000e+01 4.659633636474609375e+01 -1.983052444458007812e+01 4.460008621215820312e+00 2.146331787109375000e+01 7.776998043060302734e+00 -2.379040241241455078e+00
8.500000000000000000e+01 4.630092239379882812e+01 -2.035922050476074219e+01 9.417297363281250000e+00 3.658356094360351562e+01 1.380025672912597656e+01 -4.905918598175048828e+00
8.600000000000000000e+01 4.634387207031250000e+01 -2.016486740112304688e+01 6.465768814086914062e+00 2.833960151672363281e+01 1.044161128997802734e+01 -4.847509860992431641e+00
8.700000000000000000e+01 4.638682174682617188e+01 -1.997051620483398438e+01 4.872827529907226562e+00 2.394671630859375000e+01 8.645863533020019531e+00 -4.751846790313720703e+00
8.800000000000000000e+01 4.642976760864257812e+01 -1.977616310119628906e+01 3.292165040969848633e+00 2.118515968322753906e+01 7.343197345733642578e+00 -4.300068855285644531e+00
8.900000000000000000e+01 4.624293518066406250e+01 -2.035225677490234375e+01 8.558538436889648438e+00 3.497019577026367188e+01 1.305862045288085938e+01 -8.685154914855957031e+00
9.000000000000000000e+01 4.624722671508789062e+01 -2.015326118469238281e+01 6.453235626220703125e+00 2.643352699279785156e+01 9.866028785705566406e+00 -7.971972942352294922e+00
9.100000000000000000e+01 4.625151443481445312e+01 -1.995426750183105469e+01 4.539713382720947266e+00 2.219414520263671875e+01 8.020157814025878906e+00 -7.056147098541259766e+00
9.200000000000000000e+01 4.625580596923828125e+01 -1.975527191162109375e+01 3.620376586914062500e+00 1.965623283386230469e+01 6.982982635498046875e+00 -6.406930446624755859e+00
9.300000000000000000e+01 4.618470001220703125e+01 -2.035671424865722656e+01 9.512379646301269531e+00 3.154361534118652344e+01 1.231679821014404297e+01 -1.245616149902343750e+01
9.400000000000000000e+01 4.615016555786132812e+01 -2.016069221496582031e+01 7.102210044860839844e+00 2.311859321594238281e+01 9.066241264343261719e+00 -1.039684009552001953e+01
9.500000000000000000e+01 4.611563491821289062e+01 -1.996467018127441406e+01 5.610346317291259766e+00 1.917705726623535156e+01 7.436221122741699219e+00 -9.043068885803222656e+00
9.600000000000000000e+01 4.608110046386718750e+01 -1.976864814758300781e+01 4.295161724090576172e+00 1.680454635620117188e+01 6.329912185668945312e+00 -7.929316043853759766e+00
9.700000000000000000e+01 4.612844848632812500e+01 -2.037242507934570312e+01 1.140655326843261719e+01 2.629597663879394531e+01 1.131075954437255859e+01 -1.514110565185546875e+01
9.800000000000000000e+01 4.605641174316406250e+01 -2.018687629699707031e+01 8.868067741394042969e+00 1.868772125244140625e+01 8.266736984252929688e+00 -1.188816356658935547e+01
9.900000000000000000e+01 4.598437881469726562e+01 -2.000132751464843750e+01 6.905686855316162109e+00 1.527567005157470703e+01 6.654407024383544922e+00 -1.008322525024414062e+01
1.000000000000000000e+02 4.591234207153320312e+01 -1.981578063964843750e+01 5.816743850708007812e+00 1.306643581390380859e+01 5.664954185485839844e+00 -8.860045433044433594e+00
1.010000000000000000e+02 4.607633209228515625e+01 -2.039878654479980469e+01 1.422346687316894531e+01 1.988105201721191406e+01 1.023135566711425781e+01 -1.615468025207519531e+01
1.020000000000000000e+02 4.596955108642578125e+01 -2.023081207275390625e+01 1.063136672973632812e+01 1.364725017547607422e+01 7.283585071563720703e+00 -1.203202152252197266e+01
1.030000000000000000e+02 4.586277008056640625e+01 -2.006283760070800781e+01 8.544019699096679688e+00 1.085112190246582031e+01 5.818542480468750000e+00 -9.994024276733398438e+00
1.040000000000000000e+02 4.575599288940429688e+01 -1.989486503601074219e+01 7.012788772583007812e+00 9.365630149841308594e+00 4.913525581359863281e+00 -8.755849838256835938e+00
1.050000000000000000e+02 4.603034591674804688e+01 -2.043479156494140625e+01 1.672725486755371094e+01 1.310198593139648438e+01 8.948772430419921875e+00 -1.514173412322998047e+01
1.060000000000000000e+02 4.589290618896484375e+01 -2.029081726074218750e+01 1.209034061431884766e+01 8.573333740234375000e+00 6.199102401733398438e+00 -1.073388576507568359e+01
1.070000000000000000e+02 4.575546646118164062e+01 -2.014684677124023438e+01 9.548036575317382812e+00 6.734245777130126953e+00 4.884684562683105469e+00 -8.765816688537597656e+00
1.080000000000000000e+02 4.561803054809570312e+01 -2.000287437438964844e+01 7.917766094207763672e+00 5.632422447204589844e+00 4.065056324005126953e+00 -7.488135337829589844e+00
1.090000000000000000e+02 4.599224853515625000e+01 -2.047905921936035156e+01 1.806723213195800781e+01 6.926074504852294922e+00 7.497992038726806641e+00 -1.216299915313720703e+01
1.100000000000000000e+02 4.582941055297851562e+01 -2.036459732055664062e+01 1.236828899383544922e+01 4.170713424682617188e+00 4.961700916290283203e+00 -8.273270606994628906e+00
1.110000000000000000e+02 4.566656875610351562e+01 -2.025013732910156250e+01 9.584511756896972656e+00 3.287925243377685547e+00 3.861731290817260742e+00 -6.459062576293945312e+00
1.120000000000000000e+02 4.550373077392578125e+01 -2.013567733764648438e+01 7.835000514984130859e+00 2.821521282196044922e+00 3.196956634521484375e+00 -5.707860469818115234e+00
1.130000000000000000e+02 4.596349334716796875e+01 -2.052989578247070312e+01 1.728452682495117188e+01 1.995007634162902832e+00 5.783860683441162109e+00 -7.823062896728515625e+00
1.140000000000000000e+02 4.578149032592773438e+01 -2.044932746887207031e+01 1.082619476318359375e+01 1.117616415023803711e+00 3.583143472671508789e+00 -4.964262962341308594e+00
1.150000000000000000e+02 4.559948348999023438e+01 -2.036875915527343750e+01 8.250837326049804688e+00 9.754362106323242188e-01 2.767882108688354492e+00 -3.986558437347412109e+00
1.160000000000000000e+02 4.541747665405273438e+01 -2.028819084167480469e+01 6.562122344970703125e+00 1.073818922042846680e+00 2.290782451629638672e+00 -3.373417139053344727e+00
1.170000000000000000e+02 4.594519042968750000e+01 -2.058535766601562500e+01 1.330034542083740234e+01 -8.632023930549621582e-01 3.731142997741699219e+00 -3.115839242935180664e+00
1.180000000000000000e+02 4.575098037719726562e+01 -2.054176521301269531e+01 7.524168491363525391e+00 -5.315378308296203613e-01 2.097789287567138672e+00 -1.761589288711547852e+00
1.190000000000000000e+02 4.555677032470703125e+01 -2.049817085266113281e+01 5.032244205474853516e+00 2.283796370029449463e-01 1.578187108039855957e+00 -1.723182320594787598e+00
1.200000000000000000e+02 4.536256408691406250e+01 -2.045457839965820312e+01 4.409549236297607422e+00 1.415557712316513062e-01 1.365331530570983887e+00 -1.824015974998474121e+00
1.210000000000000000e+02 4.593803405761718750e+01 -2.064332389831542969e+01 6.089735031127929688e+00 -1.949130177497863770e+00 1.242181420326232910e+00 1.375850200653076172e+00
1.220000000000000000e+02 4.573905181884765625e+01 -2.063837432861328125e+01 1.464147806167602539e+00 -1.370038837194442749e-01 3.981432020664215088e-01 -2.290272861719131470e-01
1.230000000000000000e+02 4.554007339477539062e+01 -2.063342285156250000e+01 2.049864053726196289e+00 -3.993855323642492294e-03 6.137610673904418945e-01 -9.136987328529357910e-01
1.240000000000000000e+02 4.534109497070312500e+01 -2.062847137451171875e+01 9.961022734642028809e-01 -2.323885262012481689e-01 2.291141301393508911e-01 -4.525344669818878174e-01
1.250000000000000000e+02 4.594229888916015625e+01 -2.070157241821289062e+01 -7.426868438720703125e+00 -1.177269816398620605e+00 -2.581241607666015625e+00 1.022561311721801758e+00
1.260000000000000000e+02 4.574616241455078125e+01 -2.073545455932617188e+01 -1.581358671188354492e+00 4.036251306533813477e-01 -3.533200621604919434e-01 -1.089013814926147461e+00
1.270000000000000000e+02 4.555002593994140625e+01 -2.076933670043945312e+01 -2.446479320526123047e+00 -4.676487147808074951e-01 -8.742384314537048340e-01 -4.144853353500366211e-01
1.280000000000000000e+02 4.535388946533203125e+01 -2.080321884155273438e+01 -2.248996019363403320e+00 2.461980655789375305e-02 -6.673128604888916016e-01 -6.852850914001464844e-01
1.290000000000000000e+02 4.348954772949218750e+01 -2.248652267456054688e+01 4.099401235580444336e-01 5.097312927246093750e-01 2.759014368057250977e-01 3.622624874114990234e-01
1.300000000000000000e+02 4.235750579833984375e+01 -2.301950263977050781e+01 1.420871913433074951e-01 -4.963633045554161072e-02 2.773525938391685486e-02 -9.195034205913543701e-02
1.310000000000000000e+02 4.324429702758789062e+01 -2.280698013305664062e+01 6.093483567237854004e-01 7.403298616409301758e-01 4.049034416675567627e-01 4.625367224216461182e-01
1.320000000000000000e+02 4.336234664916992188e+01 -2.227815818786621094e+01 3.743049502372741699e-01 1.160563528537750244e-01 1.471083909273147583e-01 1.595194041728973389e-01
1.330000000000000000e+02 4.315962982177734375e+01 -2.167229270935058594e+01 -8.529310822486877441e-01 -7.823388278484344482e-02 -2.793495059013366699e-01 -3.358335494995117188e-01
1.340000000000000000e+02 4.302129745483398438e+01 -2.191846656799316406e+01 -5.314608812332153320e-01 -6.627107411623001099e-02 -1.793195754289627075e-01 -2.573336958885192871e-01
1.350000000000000000e+02 4.182607269287109375e+01 -2.303541183471679688e+01 3.657215461134910583e-02 -5.151323676109313965e-01 -1.435680538415908813e-01 -4.711519926786422729e-02
1.360000000000000000e+02 4.204034042358398438e+01 -2.234805679321289062e+01 -7.596135884523391724e-02 -2.027452141046524048e-01 -8.361197263002395630e-02 -1.405884176492691040e-01
1.370000000000000000e+02 4.356603622436523438e+01 -2.266124534606933594e+01 8.830320239067077637e-01 6.619594693183898926e-01 4.634974300861358643e-01 6.834353804588317871e-01
1.380000000000000000e+02 4.259962081909179688e+01 -2.209998893737792969e+01 -3.017261624336242676e-01 -1.118227317929267883e-01 -1.240646690130233765e-01 -3.364058732986450195e-01
1.390000000000000000e+02 4.331654357910156250e+01 -2.203413772583007812e+01 -1.502948850393295288e-01 1.040189340710639954e-01 -1.388278510421514511e-02 2.217914350330829620e-02
1.400000000000000000e+02 4.347326278686523438e+01 -2.291274452209472656e+01 7.401390671730041504e-01 8.472529649734497070e-01 4.762175977230072021e-01 6.538172960281372070e-01
1.410000000000000000e+02 4.291952514648437500e+01 -2.262654685974121094e+01 3.205735087394714355e-01 3.163446485996246338e-01 1.910754442214965820e-01 4.442452266812324524e-02
1.420000000000000000e+02 4.330431747436523438e+01 -2.183392524719238281e+01 -3.884140849113464355e-01 -8.561534434556961060e-02 -1.422088295221328735e-01 -2.635746002197265625e-01
1.430000000000000000e+02 4.379542922973632812e+01 -2.123129272460937500e+01 -2.185294866561889648e+00 -1.249610707163810730e-01 -6.930767893791198730e-01 -6.114508509635925293e-01
1.440000000000000000e+02 4.307796478271484375e+01 -2.031581115722656250e+01 3.639047965407371521e-02 3.823237419128417969e-01 1.256142705678939819e-01 -4.825035575777292252e-03
1.450000000000000000e+02 4.678322982788085938e+01 -1.942722511291503906e+01 3.135317564010620117e+00 1.744190025329589844e+01 6.173165321350097656e+00 -1.351618766784667969e+00
1.460000000000000000e+02 4.738031768798828125e+01 -1.995734596252441406e+01 8.076632499694824219e+00 1.501441955566406250e+01 6.927315711975097656e+00 9.862496852874755859e-01
1.470000000000000000e+02 4.729108047485351562e+01 -2.088799476623535156e+01 1.110571575164794922e+01 1.475099945068359375e+01 7.757014274597167969e+00 -3.160694837570190430e+00
1.480000000000000000e+02 4.733583450317382812e+01 -2.023073387145996094e+01 8.829699516296386719e+00 1.500010871887207031e+01 7.148942470550537109e+00 1.679518371820449829e-01
1.490000000000000000e+02 4.695877456665039062e+01 -2.145157623291015625e+01 4.454464912414550781e+00 1.883984756469726562e+01 6.988293647766113281e+00 -3.352997779846191406e+00
1.500000000000000000e+02 4.634241485595703125e+01 -2.204456329345703125e+01 1.723024547100067139e-01 1.504877090454101562e+01 4.566321849822998047e+00 2.039366722106933594e+00
1.510000000000000000e+02 4.521808242797851562e+01 -2.105416679382324219e+01 -7.372851483523845673e-03 6.803943961858749390e-02 1.819997653365135193e-02 1.518176645040512085e-01
1.520000000000000000e+02 4.465631866455078125e+01 -2.123300361633300781e+01 -5.690034031867980957e-01 4.454506188631057739e-02 -1.573375016450881958e-01 -1.135955527424812317e-01
1.530000000000000000e+02 4.348569107055664062e+01 -2.156218910217285156e+01 -9.198099970817565918e-01 -2.051383107900619507e-01 -3.374844789505004883e-01 -2.708779871463775635e-01
1.540000000000000000e+02 4.598361587524414062e+01 -2.214465904235839844e+01 8.650567531585693359e-01 1.141308307647705078e+01 3.683442115783691406e+00 4.161296844482421875e+00
1.550000000000000000e+02 4.680476760864257812e+01 -2.152933311462402344e+01 2.971103191375732422e+00 2.133826637268066406e+01 7.292811393737792969e+00 -3.337799787521362305e+00
1.560000000000000000e+02 4.710304260253906250e+01 -1.985094261169433594e+01 6.845427513122558594e+00 1.661949348449707031e+01 7.039476394653320312e+00 3.471645712852478027e-01
1.570000000000000000e+02 4.566028594970703125e+01 -1.967396163940429688e+01 5.875302314758300781e+00 8.399247169494628906e+00 4.282364845275878906e+00 -7.833064556121826172e+00
1.580000000000000000e+02 4.340925979614257812e+01 -2.132097434997558594e+01 -2.130133867263793945e+00 -2.936560213565826416e-01 -7.271369695663452148e-01 -5.689448118209838867e-01
1.590000000000000000e+02 4.360593414306640625e+01 -2.127075195312500000e+01 -2.186831235885620117e+00 -9.504263103008270264e-02 -6.845621466636657715e-01 -5.333423614501953125e-01
1.600000000000000000e+02 4.352565765380859375e+01 -2.086231803894042969e+01 -9.340091347694396973e-01 1.177618652582168579e-02 -2.766698896884918213e-01 -1.311468482017517090e-01
1.610000000000000000e+02 4.515238952636718750e+01 -2.083430671691894531e+01 -2.295902490615844727e+00 -2.266405373811721802e-01 -7.567629218101501465e-01 -5.296877622604370117e-01
1.620000000000000000e+02 4.717705917358398438e+01 -2.005989265441894531e+01 9.781517028808593750e+00 1.706757354736328125e+01 8.054726600646972656e+00 1.828408122062683105e+00
1.630000000000000000e+02 4.576651000976562500e+01 -1.936432647705078125e+01 3.779299020767211914e+00 1.004518318176269531e+01 4.147344589233398438e+00 -7.032845973968505859e+00
1.640000000000000000e+02 4.538438415527343750e+01 -1.946078300476074219e+01 4.887986183166503906e+00 6.373515129089355469e+00 3.378450393676757812e+00 -6.689273834228515625e+00
1.650000000000000000e+02 4.544528198242187500e+01 -1.987591552734375000e+01 6.826418876647949219e+00 4.874773979187011719e+00 3.510357856750488281e+00 -6.694536209106445312e+00
1.660000000000000000e+02 4.494445037841796875e+01 -2.086585807800292969e+01 -2.229676246643066406e+00 -1.320750862360000610e-01 -7.085254192352294922e-01 -6.000214219093322754e-01
1.670000000000000000e+02 4.483884811401367188e+01 -2.116648101806640625e+01 -4.395163357257843018e-01 1.664467342197895050e-02 -1.268614977598190308e-01 -3.247741376981139183e-03
1.680000000000000000e+02 4.575259399414062500e+01 -2.190516662597656250e+01 2.138382434844970703e+00 9.107712745666503906e+00 3.373828411102294922e+00 4.500963211059570312e+00
1.690000000000000000e+02 4.627222442626953125e+01 -2.178043746948242188e+01 6.211178898811340332e-01 1.568637657165527344e+01 4.892248153686523438e+00 3.614340305328369141e+00
1.700000000000000000e+02 4.649250411987304688e+01 -2.173127937316894531e+01 1.138199925422668457e+00 1.805845451354980469e+01 5.758996486663818359e+00 8.678073287010192871e-01
1.710000000000000000e+02 4.693766021728515625e+01 -2.177996063232421875e+01 1.905682682991027832e+00 1.773549079895019531e+01 5.892352104187011719e+00 -2.156265497207641602e+00
1.720000000000000000e+02 4.539558410644531250e+01 -2.229637908935546875e+01 1.592592477798461914e+00 5.897700309753417969e+00 2.247087717056274414e+00 3.566968202590942383e+00
1.730000000000000000e+02 4.406694412231445312e+01 -2.142239952087402344e+01 -9.004573822021484375e-01 1.314140409231185913e-01 -2.307130098342895508e-01 -2.337476909160614014e-01
1.740000000000000000e+02 4.387774658203125000e+01 -2.276675605773925781e+01 9.950214624404907227e-01 1.549829244613647461e+00 7.634552121162414551e-01 1.049567103385925293e+00
1.750000000000000000e+02 4.424594497680664062e+01 -2.265447044372558594e+01 1.094613552093505859e+00 1.943956375122070312e+00 9.115709662437438965e-01 1.472993850708007812e+00
1.760000000000000000e+02 4.374326705932617188e+01 -2.236303520202636719e+01 7.683476805686950684e-01 4.936276972293853760e-01 3.785926103591918945e-01 5.705543756484985352e-01
1.770000000000000000e+02 4.374164962768554688e+01 -2.173562240600585938e+01 -2.735956311225891113e-01 -5.432628467679023743e-02 -9.837657213211059570e-02 -3.783331811428070068e-02
1.780000000000000000e+02 4.368000030517578125e+01 -2.151455879211425781e+01 -9.436471462249755859e-01 4.719634354114532471e-02 -2.689352333545684814e-01 -3.306203782558441162e-01
1.790000000000000000e+02 4.579212188720703125e+01 -2.217642402648925781e+01 1.224957823753356934e+00 9.050472259521484375e+00 3.082628965377807617e+00 3.953595638275146484e+00
1.800000000000000000e+02 4.555172729492187500e+01 -2.197584724426269531e+01 2.126517534255981445e+00 6.797683715820312500e+00 2.677260398864746094e+00 4.262472152709960938e+00
1.810000000000000000e+02 4.301252746582031250e+01 -2.011423492431640625e+01 3.485700786113739014e-01 5.887523889541625977e-01 2.811967432498931885e-01 -2.241168469190597534e-01
1.820000000000000000e+02 4.326223373413085938e+01 -2.026127243041992188e+01 3.388783633708953857e-01 4.191669225692749023e-01 2.274135798215866089e-01 -2.167100608348846436e-01
1.830000000000000000e+02 4.395800018310546875e+01 -2.116369247436523438e+01 -2.192325830459594727e+00 -1.978489160537719727e-01 -7.170524001121520996e-01 -5.652853250503540039e-01
1.840000000000000000e+02 4.529116821289062500e+01 -1.972277641296386719e+01 5.736305236816406250e+00 4.039243698120117188e+00 2.932664632797241211e+00 -5.735837459564208984e+00
1.850000000000000000e+02 4.547087860107421875e+01 -1.969725418090820312e+01 5.875100612640380859e+00 6.268914222717285156e+00 3.643204450607299805e+00 -7.009033203125000000e+00
1.860000000000000000e+02 4.607875823974609375e+01 -2.190149497985839844e+01 1.178097486495971680e+00 1.303163528442382812e+01 4.262919902801513672e+00 3.940975666046142578e+00
1.870000000000000000e+02 4.578013229370117188e+01 -2.167814064025878906e+01 2.317926645278930664e+00 8.958024024963378906e+00 3.382785320281982422e+00 5.220382213592529297e+00
1.880000000000000000e+02 4.686530303955078125e+01 -2.161808967590332031e+01 2.712330579757690430e+00 1.970203208923339844e+01 6.724308967590332031e+00 -2.856469392776489258e+00
1.890000000000000000e+02 4.530567932128906250e+01 -2.125423049926757812e+01 2.083475828170776367e+00 1.276760458946228027e+00 1.008070826530456543e+00 1.739950060844421387e+00
1.900000000000000000e+02 4.560007858276367188e+01 -2.158647155761718750e+01 3.093528985977172852e+00 6.216835021972656250e+00 2.793109178543090820e+00 4.752305984497070312e+00
1.910000000000000000e+02 4.734809875488281250e+01 -2.135947227478027344e+01 6.872897624969482422e+00 1.519072055816650391e+01 6.619085311889648438e+00 -4.643623352050781250e+00
1.920000000000000000e+02 4.756422424316406250e+01 -2.066415023803710938e+01 1.053734302520751953e+01 1.269770431518554688e+01 6.970514297485351562e+00 -2.315578699111938477e+00
1.930000000000000000e+02 4.723074722290039062e+01 -2.106530189514160156e+01 8.553318977355957031e+00 1.617943763732910156e+01 7.419826984405517578e+00 -4.548451423645019531e+00
1.940000000000000000e+02 4.665039062500000000e+01 -1.966048049926757812e+01 3.433324098587036133e+00 1.909476089477539062e+01 6.758425712585449219e+00 -2.345147848129272461e+00
1.950000000000000000e+02 4.604484176635742188e+01 -1.957586097717285156e+01 3.937809705734252930e+00 1.478881549835205078e+01 5.617987632751464844e+00 -7.337996006011962891e+00
1.960000000000000000e+02 4.583966445922851562e+01 -1.960824584960937500e+01 4.703378677368164062e+00 1.179887104034423828e+01 4.950675010681152344e+00 -7.916769981384277344e+00
1.970000000000000000e+02 4.627020645141601562e+01 -1.928631401062011719e+01 2.007816553115844727e+00 1.538034439086914062e+01 5.216448307037353516e+00 -5.835763454437255859e+00
1.980000000000000000e+02 4.691312789916992188e+01 -1.970140457153320312e+01 4.650833606719970703e+00 1.836438751220703125e+01 6.904566287994384766e+00 -2.824476957321166992e-01
1.990000000000000000e+02 4.559022521972656250e+01 -2.224395751953125000e+01 1.471139550209045410e+00 7.674267768859863281e+00 2.743622303009033203e+00 3.943216323852539062e+00
2.000000000000000000e+02 4.615901947021484375e+01 -2.211099433898925781e+01 6.118106842041015625e-01 1.272035026550292969e+01 3.999648332595825195e+00 3.076983690261840820e+00
2.010000000000000000e+02 4.520094299316406250e+01 -2.234450912475585938e+01 1.655050873756408691e+00 4.785696983337402344e+00 1.932224273681640625e+00 3.174975872039794922e+00
2.020000000000000000e+02 4.394335174560546875e+01 -2.172082901000976562e+01 -5.828342586755752563e-02 2.270675599575042725e-01 5.063524097204208374e-02 2.786884643137454987e-02
2.030000000000000000e+02 4.536022186279296875e+01 -2.201781463623046875e+01 2.158049583435058594e+00 5.017542839050292969e+00 2.152677774429321289e+00 3.607104539871215820e+00
2.040000000000000000e+02 4.427275466918945312e+01 -2.138306617736816406e+01 -8.083492517471313477e-01 -8.911085128784179688e-02 -2.692380547523498535e-01 -7.346542924642562866e-02
2.050000000000000000e+02 4.482044219970703125e+01 -2.246773910522460938e+01 1.601451039314270020e+00 3.226108551025390625e+00 1.448267936706542969e+00 2.459273576736450195e+00
2.060000000000000000e+02 4.447443389892578125e+01 -2.132058906555175781e+01 -6.490259766578674316e-01 -3.867698833346366882e-02 -2.063108980655670166e-01 -1.323917359113693237e-01
2.070000000000000000e+02 4.354902648925781250e+01 -2.176837730407714844e+01 -4.861959218978881836e-01 8.241925388574600220e-02 -1.211329996585845947e-01 -1.309118568897247314e-01
2.080000000000000000e+02 4.360788726806640625e+01 -2.197090530395507812e+01 2.154463529586791992e-01 5.885841697454452515e-02 8.229143172502517700e-02 -2.472371049225330353e-02
2.090000000000000000e+02 4.329252243041992188e+01 -2.091531181335449219e+01 -8.852954506874084473e-01 1.391042917966842651e-01 -2.238573431968688965e-01 4.701357334852218628e-02
2.100000000000000000e+02 4.473670578002929688e+01 -2.090492057800292969e+01 -2.237040042877197266e+00 -1.600269079208374023e-01 -7.191200852394104004e-01 -5.786356329917907715e-01
2.110000000000000000e+02 4.519628143310546875e+01 -2.018782997131347656e+01 5.430603504180908203e+00 9.034122824668884277e-01 1.900204658508300781e+00 -3.178760528564453125e+00
2.120000000000000000e+02 4.512564086914062500e+01 -2.061516380310058594e+01 8.604603409767150879e-01 -9.379698336124420166e-02 2.299990057945251465e-01 -6.848672628402709961e-01
2.130000000000000000e+02 4.439572143554687500e+01 -2.065756988525390625e+01 -2.005915194749832153e-01 -6.911904364824295044e-02 -8.091316372156143188e-02 -3.750461339950561523e-01
2.140000000000000000e+02 4.360797119140625000e+01 -1.997993850708007812e+01 1.255812525749206543e+00 5.379136800765991211e-01 5.381178259849548340e-01 -7.621250152587890625e-01
2.150000000000000000e+02 4.473027038574218750e+01 -1.994734573364257812e+01 3.742016077041625977e+00 8.608334064483642578e-01 1.380854845046997070e+00 -2.442990303039550781e+00
2.160000000000000000e+02 4.460937118530273438e+01 -1.969544601440429688e+01 3.837603569030761719e+00 1.400721788406372070e+00 1.571497678756713867e+00 -2.865714073181152344e+00
2.170000000000000000e+02 4.512421798706054688e+01 -1.981607818603515625e+01 5.356388568878173828e+00 2.748075008392333984e+00 2.431339025497436523e+00 -4.650300025939941406e+00
2.180000000000000000e+02 4.421235275268554688e+01 -1.980451393127441406e+01 2.745479583740234375e+00 8.989254832267761230e-01 1.093321561813354492e+00 -1.762831091880798340e+00
2.190000000000000000e+02 4.400981903076171875e+01 -1.986093521118164062e+01 2.131174802780151367e+00 5.774689912796020508e-01 8.125931620597839355e-01 -1.291421651840209961e+00
2.200000000000000000e+02 4.320817565917968750e+01 -2.006210136413574219e+01 4.682963490486145020e-01 4.299803376197814941e-01 2.694830000400543213e-01 -2.496977001428604126e-01
2.210000000000000000e+02 4.441348648071289062e+01 -1.975296783447265625e+01 3.231960535049438477e+00 1.094319701194763184e+00 1.297884106636047363e+00 -2.306759119033813477e+00
2.220000000000000000e+02 4.530702209472656250e+01 -2.000773048400878906e+01 6.460387706756591797e+00 2.477354764938354492e+00 2.681322574615478516e+00 -4.782644271850585938e+00
2.230000000000000000e+02 4.500055313110351562e+01 -1.957626533508300781e+01 4.569617748260498047e+00 3.248104333877563477e+00 2.345316648483276367e+00 -4.545691013336181641e+00
2.240000000000000000e+02 4.340614318847656250e+01 -2.002015304565429688e+01 8.450829982757568359e-01 5.613204836845397949e-01 4.219210445880889893e-01 -5.383110046386718750e-01
2.250000000000000000e+02 4.380917358398437500e+01 -1.992412376403808594e+01 1.649572134017944336e+00 5.362795591354370117e-01 6.557555198669433594e-01 -9.783239960670471191e-01
2.260000000000000000e+02 4.492116546630859375e+01 -1.987993240356445312e+01 4.863537788391113281e+00 1.569898247718811035e+00 1.930030822753906250e+00 -3.432450771331787109e+00
2.270000000000000000e+02 4.557579040527343750e+01 -1.941388320922851562e+01 4.219106674194335938e+00 8.436543464660644531e+00 3.796694993972778320e+00 -7.172750473022460938e+00
2.280000000000000000e+02 4.367362213134765625e+01 -2.216669082641601562e+01 3.148139715194702148e-01 4.312645494937896729e-01 2.238235622644424438e-01 3.241826593875885010e-01
2.290000000000000000e+02 4.387375640869140625e+01 -2.146969795227050781e+01 -9.736071825027465820e-01 -1.629372090101242065e-01 -3.409633338451385498e-01 -2.263105362653732300e-01
2.300000000000000000e+02 4.406294631958007812e+01 -2.271299552917480469e+01 9.616532921791076660e-01 1.577634572982788086e+00 7.617863416671752930e-01 1.283585309982299805e+00
2.310000000000000000e+02 4.346501159667968750e+01 -2.062670135498046875e+01 -3.005633354187011719e-01 1.687112301588058472e-01 -3.955562785267829895e-02 -3.458255901932716370e-02
2.320000000000000000e+02 4.335619354248046875e+01 -2.042954254150390625e+01 -1.526497397571802139e-02 3.237244486808776855e-01 9.253784269094467163e-02 -8.942567557096481323e-02
2.330000000000000000e+02 4.462185287475585938e+01 -2.251324653625488281e+01 1.403041005134582520e+00 2.597614288330078125e+00 1.200196623802185059e+00 2.082412958145141602e+00
2.340000000000000000e+02 4.500939941406250000e+01 -2.240462684631347656e+01 1.689708709716796875e+00 3.928139686584472656e+00 1.685354471206665039e+00 2.930157899856567383e+00
2.350000000000000000e+02 4.543466949462890625e+01 -2.143738555908203125e+01 2.968786239624023438e+00 3.091558456420898438e+00 1.818103432655334473e+00 3.340696811676025391e+00
2.360000000000000000e+02 4.486507797241210938e+01 -2.170986175537109375e+01 1.717877984046936035e+00 1.454695105552673340e+00 9.517719149589538574e-01 1.758895397186279297e+00
2.370000000000000000e+02 4.429672241210937500e+01 -2.236784744262695312e+01 1.161942362785339355e+00 1.630293846130371094e+00 8.376708626747131348e-01 1.361783146858215332e+00
2.380000000000000000e+02 4.413205337524414062e+01 -2.167627906799316406e+01 1.081472821533679962e-02 6.052423268556594849e-02 2.140168845653533936e-02 1.232004091143608093e-01
2.390000000000000000e+02 4.433783340454101562e+01 -2.102146720886230469e+01 -2.221764802932739258e+00 -1.399307996034622192e-01 -7.085086703300476074e-01 -5.902937650680541992e-01
2.400000000000000000e+02 4.492974472045898438e+01 -2.010002899169921875e+01 4.245439052581787109e+00 8.948880434036254883e-01 1.542098164558410645e+00 -2.480542659759521484e+00
2.410000000000000000e+02 4.344762802124023438e+01 -2.025852203369140625e+01 4.335311055183410645e-01 3.044629096984863281e-01 2.213982045650482178e-01 -2.259579896926879883e-01
2.420000000000000000e+02 4.487482070922851562e+01 -2.033325767517089844e+01 2.897659540176391602e+00 1.323273330926895142e-01 9.089960455894470215e-01 -1.381749272346496582e+00
2.430000000000000000e+02 4.390578460693359375e+01 -2.019394493103027344e+01 1.116871356964111328e+00 2.445768266916275024e-01 4.084344506263732910e-01 -6.333335638046264648e-01
2.440000000000000000e+02 4.476356506347656250e+01 -2.190447616577148438e+01 1.683544754981994629e+00 1.758151769638061523e+00 1.032508969306945801e+00 1.879416227340698242e+00
2.450000000000000000e+02 4.514070892333984375e+01 -2.039883232116699219e+01 3.439185619354248047e+00 5.232333019375801086e-02 1.047452688217163086e+00 -1.414086103439331055e+00
2.460000000000000000e+02 4.502806854248046875e+01 -2.111360549926757812e+01 -2.233899831771850586e-01 8.841922879219055176e-02 -4.049122706055641174e-02 5.254530906677246094e-02
2.470000000000000000e+02 4.543833541870117188e+01 -2.179295158386230469e+01 2.615552902221679688e+00 5.166589736938476562e+00 2.334642648696899414e+00 3.984128236770629883e+00
2.480000000000000000e+02 4.458143615722656250e+01 -2.225952529907226562e+01 1.431667685508728027e+00 2.060600280761718750e+00 1.047680377960205078e+00 1.751505255699157715e+00
2.490000000000000000e+02 4.464130020141601562e+01 -2.060527610778808594e+01 2.854442298412322998e-01 -3.742631524801254272e-02 7.440537214279174805e-02 -4.807152748107910156e-01
2.500000000000000000e+02 4.436631774902343750e+01 -2.027686309814453125e+01 1.600074529647827148e+00 1.182023882865905762e-01 5.154830813407897949e-01 -8.869220614433288574e-01
2.510000000000000000e+02 4.367760086059570312e+01 -2.026795387268066406e+01 6.765152812004089355e-01 3.252904713153839111e-01 3.005417287349700928e-01 -4.052643179893493652e-01
2.520000000000000000e+02 4.510968780517578125e+01 -2.154295730590820312e+01 2.034515142440795898e+00 1.564171671867370605e+00 1.079606056213378906e+00 2.013171195983886719e+00
2.530000000000000000e+02 4.416177749633789062e+01 -2.205562210083007812e+01 9.149335026741027832e-01 7.907201647758483887e-01 5.116961002349853516e-01 7.713716030120849609e-01
2.540000000000000000e+02 4.459698486328125000e+01 -2.030268669128417969e+01 2.133404731750488281e+00 2.041505724191665649e-01 7.012665867805480957e-01 -1.094258666038513184e+00
2.550000000000000000e+02 4.419981002807617188e+01 -2.076402854919433594e+01 -7.837454080581665039e-01 1.663108915090560913e-02 -2.301343083381652832e-01 -3.732410371303558350e-01
2.560000000000000000e+02 4.315159988403320312e+01 -2.051198387145996094e+01 -1.878287792205810547e-01 2.249334454536437988e-01 1.113139744848012924e-02 4.787536337971687317e-02
2.570000000000000000e+02 4.322739410400390625e+01 -2.071002006530761719e+01 -5.900225043296813965e-01 2.658212184906005859e-01 -9.726038575172424316e-02 2.509550191462039948e-02
2.580000000000000000e+02 4.335036849975585938e+01 -2.111930274963378906e+01 -1.395046949386596680e+00 -2.080108523368835449e-01 -4.809173643589019775e-01 -1.974141597747802734e-01
2.590000000000000000e+02 4.356388092041015625e+01 -2.107373809814453125e+01 -1.555407166481018066e+00 -2.676936052739620209e-02 -4.746529757976531982e-01 -3.469275832176208496e-01
2.600000000000000000e+02 4.378451919555664062e+01 -2.106037902832031250e+01 -1.803663253784179688e+00 -3.368752077221870422e-02 -5.512052178382873535e-01 -3.664299249649047852e-01
2.610000000000000000e+02 4.431131362915039062e+01 -2.004687309265136719e+01 2.356059789657592773e+00 4.248853921890258789e-01 8.342835307121276855e-01 -1.305207848548889160e+00
2.620000000000000000e+02 4.381012725830078125e+01 -2.256496047973632812e+01 7.231342792510986328e-01 9.580686688423156738e-01 5.043608546257019043e-01 7.446789145469665527e-01
2.630000000000000000e+02 4.398980712890625000e+01 -2.251092338562011719e+01 9.893537759780883789e-01 1.278372526168823242e+00 6.803178787231445312e-01 1.053538084030151367e+00
2.640000000000000000e+02 4.415876007080078125e+01 -2.246133613586425781e+01 1.101230740547180176e+00 1.408329606056213379e+00 7.528680562973022461e-01 1.258406519889831543e+00
2.650000000000000000e+02 4.453724288940429688e+01 -2.174239349365234375e+01 9.006758332252502441e-01 5.877229571342468262e-01 4.465196430683135986e-01 8.860607743263244629e-01
2.660000000000000000e+02 4.491593170166015625e+01 -2.135071182250976562e+01 6.559689044952392578e-01 5.169833302497863770e-01 3.518856763839721680e-01 7.163431048393249512e-01
2.670000000000000000e+02 4.527701950073242188e+01 -2.163981056213378906e+01 2.554196834564208984e+00 3.221802949905395508e+00 1.732799887657165527e+00 3.101181030273437500e+00
2.680000000000000000e+02 4.510470199584960938e+01 -2.132662200927734375e+01 1.380674839019775391e+00 8.514565825462341309e-01 6.696394085884094238e-01 1.243093132972717285e+00
2.690000000000000000e+02 4.453315734863281250e+01 -2.001851844787597656e+01 3.122608184814453125e+00 6.171996593475341797e-01 1.121942281723022461e+00 -1.849320888519287109e+00
2.700000000000000000e+02 4.480540466308593750e+01 -1.963619232177734375e+01 4.233253955841064453e+00 2.221649646759033203e+00 1.936471104621887207e+00 -3.822220802307128906e+00
2.710000000000000000e+02 4.519094085693359375e+01 -1.951322174072265625e+01 4.869001388549804688e+00 4.632803916931152344e+00 2.850541591644287109e+00 -5.783779621124267578e+00
2.720000000000000000e+02 4.600998306274414062e+01 -1.938370513916015625e+01 2.564633607864379883e+00 1.336249732971191406e+01 4.778139114379882812e+00 -6.431298255920410156e+00
2.730000000000000000e+02 4.413548660278320312e+01 -2.108411216735839844e+01 -2.217536211013793945e+00 -1.443598717451095581e-01 -7.085688114166259766e-01 -5.692090392112731934e-01
2.740000000000000000e+02 4.377612686157226562e+01 -2.084445571899414062e+01 -1.110479116439819336e+00 3.032636828720569611e-02 -3.240458071231842041e-01 -2.214638441801071167e-01
2.750000000000000000e+02 4.399871826171875000e+01 -2.060036087036132812e+01 -1.029885336756706238e-01 7.554032653570175171e-02 -8.234461769461631775e-03 -2.512477636337280273e-01
2.760000000000000000e+02 4.401610946655273438e+01 -2.083738708496093750e+01 -1.181850910186767578e+00 -4.789116978645324707e-02 -3.689226210117340088e-01 -2.813871502876281738e-01
2.770000000000000000e+02 4.453361511230468750e+01 -2.095673370361328125e+01 -2.223778009414672852e+00 -1.618622541427612305e-01 -7.156921029090881348e-01 -5.860543251037597656e-01
2.780000000000000000e+02 4.488772201538085938e+01 -2.060114097595214844e+01 5.629236698150634766e-01 -1.379120945930480957e-01 1.275034695863723755e-01 -5.267753005027770996e-01
2.790000000000000000e+02 4.442762374877929688e+01 -2.257605552673339844e+01 1.291840791702270508e+00 2.177941560745239258e+00 1.040934681892395020e+00 1.750915288925170898e+00
2.800000000000000000e+02 4.411988449096679688e+01 -2.227557754516601562e+01 9.046386480331420898e-01 9.625839591026306152e-01 5.601667761802673340e-01 9.759278893470764160e-01
2.810000000000000000e+02 4.438200378417968750e+01 -2.217955970764160156e+01 1.203091979026794434e+00 1.378936409950256348e+00 7.746084928512573242e-01 1.382969379425048828e+00
2.820000000000000000e+02 4.475408172607421875e+01 -2.222885131835937500e+01 1.585178017616271973e+00 2.485881805419921875e+00 1.221318006515502930e+00 2.213521480560302734e+00
2.830000000000000000e+02 4.492517852783203125e+01 -2.212484931945800781e+01 1.768694519996643066e+00 2.886690855026245117e+00 1.396615624427795410e+00 2.518007993698120117e+00
2.840000000000000000e+02 4.514047241210937500e+01 -2.203640937805175781e+01 2.008582592010498047e+00 3.689411401748657227e+00 1.709398269653320312e+00 3.020278930664062500e+00
2.850000000000000000e+02 4.655993652343750000e+01 -2.197681999206542969e+01 3.784444630146026611e-01 1.609812545776367188e+01 4.942970752716064453e+00 1.065691351890563965e+00
2.860000000000000000e+02 4.594359970092773438e+01 -2.175461006164550781e+01 1.676028490066528320e+00 1.207241344451904297e+01 4.124532699584960938e+00 5.217397689819335938e+00
2.870000000000000000e+02 4.743820953369140625e+01 -2.100492668151855469e+01 8.724395751953125000e+00 1.396307754516601562e+01 6.806241989135742188e+00 -3.786028623580932617e+00
2.880000000000000000e+02 4.667217636108398438e+01 -2.163756561279296875e+01 2.111566066741943359e+00 1.948838806152343750e+01 6.479986190795898438e+00 -1.379444956779479980e+00
2.890000000000000000e+02 4.712473297119140625e+01 -2.128942680358886719e+01 7.207568168640136719e+00 1.779646492004394531e+01 7.501209735870361328e+00 -5.068842411041259766e+00
2.900000000000000000e+02 4.626710128784179688e+01 -1.958033370971679688e+01 2.677953720092773438e+00 1.822219085693359375e+01 6.270043373107910156e+00 -5.438557624816894531e+00
2.910000000000000000e+02 4.646837234497070312e+01 -1.962010192871093750e+01 2.815006494522094727e+00 2.036647415161132812e+01 6.954444408416748047e+00 -4.376314640045166016e+00
2.920000000000000000e+02 4.655424499511718750e+01 -1.951480865478515625e+01 3.044334888458251953e+00 1.870657539367675781e+01 6.525272846221923828e+00 -3.439670324325561523e+00
2.930000000000000000e+02 4.630012893676757812e+01 -1.943776130676269531e+01 2.706433057785034180e+00 1.793185806274414062e+01 6.191487312316894531e+00 -5.506182670593261719e+00
2.940000000000000000e+02 4.733737182617187500e+01 -2.068326950073242188e+01 1.278064537048339844e+01 1.422441959381103516e+01 8.101519584655761719e+00 -2.699810743331909180e+00
2.950000000000000000e+02 4.739019393920898438e+01 -2.043816947937011719e+01 1.017118167877197266e+01 1.381917953491210938e+01 7.197108268737792969e+00 -1.433478951454162598e+00
2.960000000000000000e+02 4.377882003784179688e+01 -2.193759155273437500e+01 4.676114767789840698e-02 2.811296284198760986e-01 9.836722910404205322e-02 1.381686478853225708e-01
2.970000000000000000e+02 4.395476913452148438e+01 -2.196086692810058594e+01 3.776403367519378662e-01 2.111727595329284668e-01 1.766439229249954224e-01 3.460160195827484131e-01
2.980000000000000000e+02 4.431952667236328125e+01 -2.164848136901855469e+01 3.553263843059539795e-01 2.986113727092742920e-01 1.961813271045684814e-01 2.827844917774200439e-01
2.990000000000000000e+02 4.372855377197265625e+01 -2.056882476806640625e+01 -9.441222995519638062e-02 1.346484273672103882e-01 1.207085978239774704e-02 -1.581536978483200073e-01
3.000000000000000000e+02 4.477190399169921875e+01 -2.142001724243164062e+01 4.785002768039703369e-01 4.455867111682891846e-01 2.772260904312133789e-01 5.631370544433593750e-01
3.010000000000000000e+02 4.464351654052734375e+01 -2.155302810668945312e+01 6.237010955810546875e-01 5.124269723892211914e-01 3.408384323120117188e-01 6.915572881698608398e-01
3.020000000000000000e+02 4.492307662963867188e+01 -2.151966857910156250e+01 1.449111819267272949e+00 1.040943026542663574e+00 7.470164299011230469e-01 1.355357408523559570e+00
3.030000000000000000e+02 4.463883209228515625e+01 -2.206903266906738281e+01 1.406836509704589844e+00 1.689149618148803711e+00 9.287958145141601562e-01 1.729313015937805176e+00
3.040000000000000000e+02 4.425580596923828125e+01 -2.185046005249023438e+01 6.485310792922973633e-01 4.635228514671325684e-01 3.336161971092224121e-01 6.563763618469238281e-01
3.050000000000000000e+02 4.445482635498046875e+01 -2.195849990844726562e+01 1.223398089408874512e+00 1.156484484672546387e+00 7.139648199081420898e-01 1.227216720581054688e+00
3.060000000000000000e+02 4.410490798950195312e+01 -2.009844970703125000e+01 1.718079924583435059e+00 4.652075469493865967e-01 6.549862623214721680e-01 -9.525935649871826172e-01
3.070000000000000000e+02 4.427804565429687500e+01 -2.043008995056152344e+01 9.123788475990295410e-01 7.457417249679565430e-02 2.960858941078186035e-01 -5.574067234992980957e-01
3.080000000000000000e+02 4.509408569335937500e+01 -2.176240921020507812e+01 2.248258590698242188e+00 2.770931005477905273e+00 1.505756855010986328e+00 2.669154644012451172e+00
3.090000000000000000e+02 4.384744262695312500e+01 -2.210783958435058594e+01 7.371597290039062500e-01 3.868629336357116699e-01 3.372068107128143311e-01 3.835122883319854736e-01
3.100000000000000000e+02 4.392919540405273438e+01 -2.229757308959960938e+01 7.451155781745910645e-01 8.197662234306335449e-01 4.694645404815673828e-01 7.059796452522277832e-01
3.110000000000000000e+02 4.406967544555664062e+01 -2.040058326721191406e+01 7.657839059829711914e-01 1.392114311456680298e-01 2.714985907077789307e-01 -4.333349168300628662e-01
3.120000000000000000e+02 4.419353866577148438e+01 -2.028301429748535156e+01 1.398011922836303711e+00 3.673295080661773682e-01 5.296024084091186523e-01 -8.490617275238037109e-01
3.130000000000000000e+02 6.225642013549804688e+01 3.583441162109375000e+01 -1.523791790008544922e+00 -2.915116250514984131e-01 -5.445910096168518066e-01 8.537483215332031250e-01
3.140000000000000000e+02 6.470026397705078125e+01 3.433961486816406250e+01 -2.086081266403198242e+00 -9.875298738479614258e-01 -9.220833778381347656e-01 1.274919629096984863e+00
3.150000000000000000e+02 6.770748901367187500e+01 3.103386116027832031e+01 -7.263268232345581055e-01 6.012744307518005371e-01 -3.751571848988533020e-02 2.674152255058288574e-01
3.160000000000000000e+02 6.696212768554687500e+01 3.445324325561523438e+01 -1.127415776252746582e+00 1.063621640205383301e+00 -1.913826167583465576e-02 2.650733888149261475e-01
3.170000000000000000e+02 7.673664855957031250e+01 2.259182548522949219e+01 7.794504612684249878e-02 8.718714714050292969e+00 2.638997793197631836e+00 6.963372230529785156e-01
3.180000000000000000e+02 7.934117126464843750e+01 2.936506843566894531e+01 -3.417141269892454147e-03 1.118074703216552734e+01 3.353199005126953125e+00 2.277467995882034302e-01
3.190000000000000000e+02 7.936459350585937500e+01 3.220258712768554688e+01 -1.299516204744577408e-02 1.184828758239746094e+01 3.550587892532348633e+00 1.570522040128707886e-01
3.200000000000000000e+02 7.910419464111328125e+01 3.732387542724609375e+01 -5.398276448249816895e-02 1.188164997100830078e+01 3.548300027847290039e+00 -1.423721164464950562e-01
3.210000000000000000e+02 7.007448577880859375e+01 3.615037536621093750e+01 -4.088268876075744629e-01 4.174580097198486328e+00 1.129725933074951172e+00 -1.634941101074218750e-01
3.220000000000000000e+02 6.343645477294921875e+01 3.505740356445312500e+01 -2.210529088973999023e+00 -7.676828503608703613e-01 -8.934636116027832031e-01 1.073365449905395508e+00
3.230000000000000000e+02 6.043767929077148438e+01 3.669379806518554688e+01 -1.412727952003479004e+00 -5.808022022247314453e-01 -5.980590581893920898e-01 4.741379916667938232e-01
3.240000000000000000e+02 6.916372680664062500e+01 2.846616554260253906e+01 1.109162792563438416e-01 4.317466259002685547e+00 1.328514814376831055e+00 -6.141033768653869629e-01
3.250000000000000000e+02 6.977017211914062500e+01 2.558946228027343750e+01 1.685726046562194824e-01 7.128845214843750000e+00 2.189225196838378906e+00 -4.775420427322387695e-01
3.260000000000000000e+02 7.810307312011718750e+01 1.809312820434570312e+01 2.758040651679039001e-02 8.160894393920898438e+00 2.456542491912841797e+00 4.240944683551788330e-01
3.270000000000000000e+02 7.936509704589843750e+01 2.374953269958496094e+01 -3.965531475841999054e-03 9.462519645690917969e+00 2.837566137313842773e+00 2.301138937473297119e-01
3.280000000000000000e+02 7.095085144042968750e+01 2.557290840148925781e+01 2.556454241275787354e-01 7.151768684387207031e+00 2.222224235534667969e+00 1.588551551103591919e-01
3.290000000000000000e+02 6.991634368896484375e+01 1.999161338806152344e+01 1.807487569749355316e-03 8.552302360534667969e+00 2.566232919692993164e+00 1.591821014881134033e-01
3.300000000000000000e+02 7.822618103027343750e+01 1.111071872711181641e+01 -2.999580651521682739e-02 6.914216041564941406e+00 2.065266132354736328e+00 4.955825507640838623e-01
3.310000000000000000e+02 7.938482666015625000e+01 1.670821571350097656e+01 1.238838676363229752e-02 7.754628181457519531e+00 2.330105066299438477e+00 1.711581647396087646e-01
3.320000000000000000e+02 6.992012786865234375e+01 1.582762527465820312e+01 1.898241788148880005e-02 9.659305572509765625e+00 2.903486251831054688e+00 2.381356805562973022e-01
3.330000000000000000e+02 6.983769989013671875e+01 1.031261730194091797e+01 -2.162398993968963623e-01 8.934709548950195312e+00 2.615540742874145508e+00 -5.270546078681945801e-01
3.340000000000000000e+02 7.811859893798828125e+01 4.054631233215332031e+00 1.162779703736305237e-01 5.553533554077148438e+00 1.700943470001220703e+00 3.376610577106475830e-01
3.350000000000000000e+02 7.938217926025390625e+01 8.349674224853515625e+00 -1.214204914867877960e-02 5.518846988677978516e+00 1.652011394500732422e+00 2.151730209589004517e-01
3.360000000000000000e+02 7.002319335937500000e+01 8.931191444396972656e+00 5.881353840231895447e-02 1.078246402740478516e+01 3.252383470535278320e+00 -9.138225317001342773e-01
3.370000000000000000e+02 7.018185424804687500e+01 7.535490512847900391e+00 3.725928962230682373e-01 1.289490222930908203e+01 3.980248689651489258e+00 -6.804372072219848633e-01
3.380000000000000000e+02 7.019872283935546875e+01 1.894351959228515625e+00 6.326138973236083984e-01 1.513337230682373047e+01 4.729795932769775391e+00 1.261350631713867188e+00
3.390000000000000000e+02 6.967897796630859375e+01 -9.572405219078063965e-01 8.712700605392456055e-01 1.250563907623291016e+01 4.013072490692138672e+00 2.768947839736938477e+00
3.400000000000000000e+02 6.709613800048828125e+01 -7.570212841033935547e+00 1.138184905052185059e+00 5.998396396636962891e+00 2.140974521636962891e+00 2.507609128952026367e+00
3.410000000000000000e+02 6.769507598876953125e+01 -6.293835639953613281e+00 1.133874893188476562e+00 6.945400714874267578e+00 2.423782825469970703e+00 2.670637845993041992e+00
3.420000000000000000e+02 6.678857421875000000e+01 -1.064754486083984375e+01 1.222464561462402344e+00 4.610896587371826172e+00 1.750008344650268555e+00 1.802680134773254395e+00
3.430000000000000000e+02 6.576376342773437500e+01 -1.007455825805664062e+01 1.371233105659484863e+00 4.369531154632568359e+00 1.722229361534118652e+00 2.331658363342285156e+00
3.440000000000000000e+02 6.499565124511718750e+01 -1.128841686248779297e+01 1.760521769523620605e+00 3.772068977355957031e+00 1.659777283668518066e+00 2.300763130187988281e+00
3.450000000000000000e+02 6.393239974975585938e+01 -2.132653236389160156e+01 -4.921022653579711914e-01 8.909869194030761719e-01 1.196653917431831360e-01 1.195831298828125000e+00
3.460000000000000000e+02 6.309041976928710938e+01 -2.290875434875488281e+01 6.053609848022460938e-01 2.976463139057159424e-01 2.709021866321563721e-01 6.934714913368225098e-01
3.470000000000000000e+02 6.433760070800781250e+01 -2.255721664428710938e+01 -4.005789160728454590e-01 2.630057930946350098e-01 -4.127193614840507507e-02 2.814069986343383789e-01
3.480000000000000000e+02 5.943639373779296875e+01 -1.574301719665527344e+01 -1.225795596837997437e-01 5.197147130966186523e-01 1.191405430436134338e-01 6.152821183204650879e-01
3.490000000000000000e+02 5.542060470581054688e+01 -1.700513839721679688e+01 -4.903322219848632812e+00 -1.953812599182128906e+00 -2.057140350341796875e+00 1.946932673454284668e+00
3.500000000000000000e+02 5.750651931762695312e+01 -2.363052177429199219e+01 1.974978923797607422e+00 1.664686203002929688e+00 1.091899514198303223e+00 1.262160778045654297e+00
3.510000000000000000e+02 5.050396347045898438e+01 -1.193140411376953125e+01 -9.565477967262268066e-01 4.645084381103515625e+00 1.106561064720153809e+00 7.054335623979568481e-02
3.520000000000000000e+02 5.276410293579101562e+01 -1.407980918884277344e+01 -2.436894893646240234e+00 -5.069730281829833984e-01 -8.831604123115539551e-01 1.693332910537719727e+00
3.530000000000000000e+02 5.199079513549804688e+01 -1.284618949890136719e+01 -9.406281709671020508e-01 2.000312566757202148e+00 3.179052770137786865e-01 4.275735318660736084e-01
3.540000000000000000e+02 4.876893615722656250e+01 -1.945335769653320312e+01 4.017237186431884766e+00 9.128245353698730469e+00 3.943644762039184570e+00 -4.807979241013526917e-02
3.550000000000000000e+02 4.727520751953125000e+01 -1.800899696350097656e+01 -4.699927568435668945e-01 1.169147109985351562e+01 3.366443395614624023e+00 -1.517103314399719238e+00
3.560000000000000000e+02 4.841329574584960938e+01 -6.203494548797607422e+00 3.387501835823059082e-01 5.748222351074218750e+00 1.826091766357421875e+00 -1.743235826492309570e+00
3.570000000000000000e+02 4.597717666625976562e+01 4.064065217971801758e-02 8.597481846809387207e-01 5.864812850952148438e+00 2.017368316650390625e+00 -2.509594678878784180e+00
3.580000000000000000e+02 4.537158966064453125e+01 1.254918217658996582e+00 1.062056064605712891e+00 6.011510848999023438e+00 2.122070074081420898e+00 -2.719400167465209961e+00
3.590000000000000000e+02 4.276342391967773438e+01 9.073945045471191406e+00 1.720611691474914551e+00 1.178692626953125000e+01 4.052261352539062500e+00 -3.582419395446777344e+00
3.600000000000000000e+02 4.066798782348632812e+01 1.181781864166259766e+01 1.458740949630737305e+00 9.127755165100097656e+00 3.175948858261108398e+00 -1.240045189857482910e+00
3.610000000000000000e+02 4.246385192871093750e+01 1.628666496276855469e+01 5.183087587356567383e-01 9.321590423583984375e+00 2.951969861984252930e+00 1.116095662117004395e+00
3.620000000000000000e+02 4.312578964233398438e+01 1.909640693664550781e+01 5.572645664215087891e-01 7.344034194946289062e+00 2.370389699935913086e+00 1.714922308921813965e+00
3.630000000000000000e+02 4.451932525634765625e+01 2.317906570434570312e+01 9.349028468132019043e-01 5.354103088378906250e+00 1.886701822280883789e+00 2.001586914062500000e+00
3.640000000000000000e+02 3.736719512939453125e+01 2.874137115478515625e+01 -2.857339084148406982e-01 3.841969728469848633e+00 1.066870689392089844e+00 -2.772040963172912598e-01
3.650000000000000000e+02 2.759614181518554688e+01 4.027579498291015625e+01 -6.620919704437255859e-01 2.327057123184204102e+00 4.994895458221435547e-01 -1.185955405235290527e-01
3.660000000000000000e+02 1.772210884094238281e+01 4.078998947143554688e+01 -2.422902882099151611e-01 7.048661708831787109e-01 1.387727707624435425e-01 -4.641935229301452637e-02
3.670000000000000000e+02 2.257830429077148438e+01 4.064158248901367188e+01 -4.148722290992736816e-01 1.512988090515136719e+00 3.294347524642944336e-01 -7.627069950103759766e-02
3.680000000000000000e+02 1.597081184387207031e+01 3.243089294433593750e+01 -1.083909254521131516e-02 3.074993193149566650e-01 8.899806439876556396e-02 -1.996282488107681274e-01
3.690000000000000000e+02 1.405927658081054688e+01 2.574656867980957031e+01 2.711900174617767334e-01 -1.717761009931564331e-01 2.982417494058609009e-02 -1.163338646292686462e-01
3.700000000000000000e+02 1.572915840148925781e+01 6.453298091888427734e+00 2.145299762487411499e-01 -1.092366337776184082e+00 -2.633509039878845215e-01 7.672777175903320312e-01
3.710000000000000000e+02 1.085177326202392578e+01 1.791447877883911133e+00 -1.159641146659851074e+00 -7.731947302818298340e-01 -5.798507332801818848e-01 9.701225161552429199e-01
3.720000000000000000e+02 1.395120716094970703e+01 3.166752159595489502e-01 -1.778834462165832520e+00 -1.169593811035156250e+00 -8.845285177230834961e-01 1.345015883445739746e+00
3.730000000000000000e+02 1.503233623504638672e+01 5.392017960548400879e-01 -1.501775264739990234e+00 -1.352627635002136230e+00 -8.563208580017089844e-01 1.335657358169555664e+00
3.740000000000000000e+02 1.573913288116455078e+01 1.252875030040740967e-01 -1.569755077362060547e+00 -1.448980093002319336e+00 -9.056205749511718750e-01 1.391537189483642578e+00
3.750000000000000000e+02 1.737329673767089844e+01 -1.806766867637634277e+00 -2.108190536499023438e+00 -1.752968668937683105e+00 -1.158347725868225098e+00 1.721805691719055176e+00
3.760000000000000000e+02 1.926807022094726562e+01 -3.313336849212646484e+00 -2.124781847000122070e+00 -2.002204895019531250e+00 -1.238095998764038086e+00 1.812059998512268066e+00
3.770000000000000000e+02 1.985051918029785156e+01 -3.872735738754272461e+00 -2.107221841812133789e+00 -2.053649663925170898e+00 -1.248261451721191406e+00 1.839848995208740234e+00
3.780000000000000000e+02 2.203549003601074219e+01 -6.238699913024902344e+00 -1.871042609214782715e+00 -2.073913335800170898e+00 -1.183486700057983398e+00 1.784276247024536133e+00
3.790000000000000000e+02 2.354020118713378906e+01 -7.069423198699951172e+00 -1.649675011634826660e+00 -1.582801938056945801e+00 -9.697430729866027832e-01 1.508108615875244141e+00
3.800000000000000000e+02 2.389819526672363281e+01 -8.840216636657714844e+00 -1.498745918273925781e+00 -1.768842577934265137e+00 -9.802765250205993652e-01 1.575111389160156250e+00
3.810000000000000000e+02 2.542470741271972656e+01 -1.154604816436767578e+01 -1.106707096099853516e+00 -1.157147169113159180e+00 -6.791563034057617188e-01 1.306024193763732910e+00
3.820000000000000000e+02 2.752013206481933594e+01 -1.644848251342773438e+01 -1.114505529403686523e+00 -2.684139907360076904e-01 -4.148758649826049805e-01 6.034776568412780762e-01
3.830000000000000000e+02 2.926213073730468750e+01 -1.689576911926269531e+01 -1.419009804725646973e+00 -2.300441265106201172e-01 -4.947161674499511719e-01 6.466485857963562012e-01
3.840000000000000000e+02 3.280924606323242188e+01 -1.787786865234375000e+01 -2.129966497421264648e+00 4.026528820395469666e-02 -6.269103288650512695e-01 3.038652837276458740e-01
3.850000000000000000e+02 3.540995407104492188e+01 -1.801459121704101562e+01 -3.140807390213012695e+00 -1.057663559913635254e-02 -9.454151988029479980e-01 2.312134653329849243e-01
3.860000000000000000e+02 3.681747055053710938e+01 -1.729129409790039062e+01 -2.462716817855834961e+00 -2.676783502101898193e-01 -8.191184997558593750e-01 3.706226646900177002e-01
3.870000000000000000e+02 3.700916671752929688e+01 -1.539756202697753906e+01 -1.248860359191894531e+00 2.986053228378295898e-01 -2.850765287876129150e-01 -1.287775486707687378e-01
3.880000000000000000e+02 3.992724990844726562e+01 -5.670072078704833984e+00 -4.009344279766082764e-01 4.028818607330322266e+00 1.088365197181701660e+00 -1.151803255081176758e+00
3.890000000000000000e+02 4.008796691894531250e+01 6.688849449157714844e+00 1.470661163330078125e+00 7.216141223907470703e+00 2.606040716171264648e+00 -1.417551875114440918e+00
3.900000000000000000e+02 3.737231826782226562e+01 1.471835327148437500e+01 1.356117367744445801e+00 5.823217868804931641e+00 2.153800487518310547e+00 -8.344527482986450195e-01
3.910000000000000000e+02 3.792929458618164062e+01 1.612921714782714844e+01 1.104872822761535645e+00 6.109252452850341797e+00 2.164237499237060547e+00 -6.509422063827514648e-01
3.920000000000000000e+02 3.910050964355468750e+01 2.790667915344238281e+01 -1.688305586576461792e-01 4.054258823394775391e+00 1.165628433227539062e+00 -9.006291627883911133e-02
3.930000000000000000e+02 3.989618301391601562e+01 2.388668632507324219e+01 2.788222730159759521e-01 4.885618686676025391e+00 1.549332380294799805e+00 1.786223649978637695e-01
3.940000000000000000e+02 3.235269546508789062e+01 2.225822639465332031e+01 5.960782170295715332e-01 3.271756410598754883e+00 1.160350441932678223e+00 -7.883197665214538574e-01
3.950000000000000000e+02 2.494531440734863281e+01 2.934299850463867188e+01 3.233753889799118042e-02 1.726768612861633301e+00 5.277318358421325684e-01 -5.394989848136901855e-01
3.960000000000000000e+02 3.055545616149902344e+01 3.407789230346679688e+01 -5.638876557350158691e-01 2.723725557327270508e+00 6.479514241218566895e-01 -4.021928608417510986e-01
3.970000000000000000e+02 4.514124679565429688e+01 2.448512840270996094e+01 9.483805298805236816e-01 4.479654788970947266e+00 1.628410577774047852e+00 1.924677133560180664e+00
3.980000000000000000e+02 4.320791625976562500e+01 2.399051475524902344e+01 5.866912007331848145e-01 5.020034790039062500e+00 1.682017803192138672e+00 1.180853366851806641e+00
3.990000000000000000e+02 4.641727066040039062e+01 3.313316345214843750e+01 -4.571035504341125488e-01 2.459341526031494141e+00 6.006713509559631348e-01 4.993984103202819824e-01
4.000000000000000000e+02 4.167642593383789062e+01 3.540950775146484375e+01 -9.295014142990112305e-01 3.200804471969604492e+00 6.813908815383911133e-01 7.568210363388061523e-02
4.010000000000000000e+02 4.411353302001953125e+01 3.781435012817382812e+01 -9.846546649932861328e-01 2.831597089767456055e+00 5.540827512741088867e-01 1.291345506906509399e-01
4.020000000000000000e+02 3.782116317749023438e+01 4.045293045043945312e+01 -1.093145966529846191e+00 3.202390193939208984e+00 6.327732801437377930e-01 -3.566472604870796204e-02
4.030000000000000000e+02 3.801483917236328125e+01 3.652016448974609375e+01 -9.678601026535034180e-01 3.291029691696166992e+00 6.969509124755859375e-01 -9.817734360694885254e-02
4.040000000000000000e+02 3.611403656005859375e+01 3.032147026062011719e+01 -4.282847940921783447e-01 3.550946474075317383e+00 9.367985129356384277e-01 -3.887580633163452148e-01
4.050000000000000000e+02 4.580720138549804688e+01 3.150574874877929688e+01 -2.484050989151000977e-01 2.738816499710083008e+00 7.471233606338500977e-01 6.036403179168701172e-01
4.060000000000000000e+02 4.737368774414062500e+01 2.812207603454589844e+01 8.931864500045776367e-01 2.568027496337890625e+00 1.038364171981811523e+00 1.434527516365051270e+00
4.070000000000000000e+02 4.920758056640625000e+01 3.210683059692382812e+01 1.319139637053012848e-02 1.480421423912048340e+00 4.480838477611541748e-01 6.124268770217895508e-01
4.080000000000000000e+02 4.920130157470703125e+01 3.023700141906738281e+01 5.624127388000488281e-01 1.435490846633911133e+00 5.993710756301879883e-01 9.383215308189392090e-01
4.090000000000000000e+02 5.350575637817382812e+01 3.398816299438476562e+01 -3.885444998741149902e-01 1.124192327260971069e-01 -8.283758163452148438e-02 1.553846173919737339e-03
4.100000000000000000e+02 5.477994537353515625e+01 3.452823257446289062e+01 -5.046387314796447754e-01 2.317781746387481689e-02 -1.444382667541503906e-01 -2.551454007625579834e-01
4.110000000000000000e+02 5.827048110961914062e+01 3.662714385986328125e+01 -1.301653981208801270e+00 -2.887088358402252197e-01 -4.771088659763336182e-01 1.413648575544357300e-01
4.120000000000000000e+02 5.682279205322265625e+01 3.587853622436523438e+01 -9.895222187042236328e-01 -9.150078892707824707e-02 -3.243069052696228027e-01 -2.614061534404754639e-01
4.130000000000000000e+02 6.556678009033203125e+01 -2.202138519287109375e+01 -1.393124818801879883e+00 2.095917165279388428e-01 -3.550599217414855957e-01 -5.864907801151275635e-02
4.140000000000000000e+02 7.002029418945312500e+01 -2.068531036376953125e+01 -1.988901376724243164e+00 3.432572364807128906e+00 4.331012964248657227e-01 -1.512672066688537598e+00
4.150000000000000000e+02 7.057619476318359375e+01 -2.173442840576171875e+01 -9.602595567703247070e-01 4.333351612091064453e+00 1.011927604675292969e+00 -1.281371116638183594e+00
4.160000000000000000e+02 7.223310089111328125e+01 -2.213579559326171875e+01 -1.228150129318237305e+00 8.461466789245605469e+00 2.169994831085205078e+00 -8.252029865980148315e-02
4.170000000000000000e+02 7.169069671630859375e+01 -2.400529861450195312e+01 1.373979330062866211e+00 1.124013996124267578e+01 3.784235715866088867e+00 -1.793979287147521973e+00
4.180000000000000000e+02 7.202223968505859375e+01 -2.621315383911132812e+01 5.924541354179382324e-01 1.242319965362548828e+01 3.904695987701416016e+00 -5.155117809772491455e-02
4.190000000000000000e+02 7.147837066650390625e+01 -2.877576637268066406e+01 1.320853710174560547e+00 1.119383811950683594e+01 3.754407644271850586e+00 2.367047548294067383e+00
4.200000000000000000e+02 7.010662078857421875e+01 -3.119651985168457031e+01 1.037647962570190430e+00 4.337681770324707031e+00 1.612599015235900879e+00 2.027491569519042969e+00
4.210000000000000000e+02 6.816805267333984375e+01 -3.300409317016601562e+01 -2.574016749858856201e-01 9.079126715660095215e-01 1.951532959938049316e-01 4.023687839508056641e-01
4.220000000000000000e+02 6.518292999267578125e+01 -3.471638488769531250e+01 -1.421449899673461914e+00 -1.383926719427108765e-01 -4.679527580738067627e-01 -1.829659342765808105e-01
4.230000000000000000e+02 6.143169021606445312e+01 -3.475357055664062500e+01 -1.475090146064758301e+00 -4.078422789461910725e-04 -4.426493942737579346e-01 -1.578973829746246338e-01
4.240000000000000000e+02 6.033002090454101562e+01 -3.494761276245117188e+01 -4.272303581237792969e-01 3.369935750961303711e-01 -2.707103453576564789e-02 -5.930073857307434082e-01
4.250000000000000000e+02 5.798121643066406250e+01 -3.453011322021484375e+01 6.280101537704467773e-01 2.693469285964965820e+00 9.964438676834106445e-01 -1.691774606704711914e+00
4.260000000000000000e+02 5.707898330688476562e+01 -3.345227050781250000e+01 1.636230587959289551e+00 4.046321392059326172e+00 1.704765558242797852e+00 -2.846279621124267578e+00
4.270000000000000000e+02 5.596958160400390625e+01 -3.435512542724609375e+01 -1.100012436509132385e-01 6.267014503479003906e+00 1.847104072570800781e+00 -1.247134804725646973e+00
4.280000000000000000e+02 5.442509460449218750e+01 -3.045021820068359375e+01 2.063022375106811523e+00 6.749062061309814453e+00 2.643625259399414062e+00 -1.296445727348327637e+00
4.290000000000000000e+02 5.567839431762695312e+01 -3.057735824584960938e+01 1.358603477478027344e+00 1.059932804107666016e+01 3.587379455566406250e+00 -9.747493863105773926e-01
4.300000000000000000e+02 5.423108673095703125e+01 -2.848853111267089844e+01 9.799212813377380371e-01 6.780410766601562500e+00 2.328099727630615234e+00 -1.008733153343200684e+00
4.310000000000000000e+02 5.552245712280273438e+01 -2.805133438110351562e+01 1.089526772499084473e+00 6.503814697265625000e+00 2.278002500534057617e+00 4.301277995109558105e-01
4.320000000000000000e+02 5.749065780639648438e+01 -2.646187019348144531e+01 1.616994976997375488e+00 2.327475309371948242e+00 1.183341145515441895e+00 1.736526966094970703e+00
4.330000000000000000e+02 5.951136398315429688e+01 -2.469723510742187500e+01 2.459207773208618164e+00 1.414147138595581055e+00 1.162006497383117676e+00 1.801321387290954590e+00
4.340000000000000000e+02 5.847054672241210938e+01 -2.555743026733398438e+01 2.000118017196655273e+00 1.729933857917785645e+00 1.119015574455261230e+00 1.684781908988952637e+00
4.350000000000000000e+02 6.062151336669921875e+01 -2.392267608642578125e+01 2.556046724319458008e+00 1.241382718086242676e+00 1.139228820800781250e+00 1.728471994400024414e+00
4.360000000000000000e+02 4.042706680297851562e+01 -2.036432456970214844e+01 -8.378534913063049316e-01 -6.981584429740905762e-01 -4.608035683631896973e-01 7.566431164741516113e-01
4.370000000000000000e+02 4.110856246948242188e+01 -2.022832870483398438e+01 -6.473405361175537109e-01 1.024599522352218628e-01 -1.634641736745834351e-01 3.857268691062927246e-01
4.380000000000000000e+02 4.314179611206054688e+01 -1.975617027282714844e+01 9.276600480079650879e-01 7.167951464653015137e-01 4.933365583419799805e-01 -6.132194995880126953e-01
4.390000000000000000e+02 4.624765014648437500e+01 -7.620253562927246094e+00 -3.980680108070373535e-01 5.471570968627929688e+00 1.522050857543945312e+00 -1.470224380493164062e+00
4.400000000000000000e+02 4.537449264526367188e+01 -1.493682503700256348e+00 5.058584809303283691e-01 5.704460144042968750e+00 1.863095641136169434e+00 -2.253213882446289062e+00
4.410000000000000000e+02 4.411543655395507812e+01 3.672374248504638672e+00 1.255361557006835938e+00 6.872755050659179688e+00 2.438435077667236328e+00 -3.001251697540283203e+00
4.420000000000000000e+02 4.286734008789062500e+01 -1.977913093566894531e+01 6.185041069984436035e-01 6.168742179870605469e-01 3.706135153770446777e-01 -4.305472970008850098e-01
4.430000000000000000e+02 4.603593063354492188e+01 -1.893256950378417969e+01 1.370986342430114746e+00 1.275704669952392578e+01 4.238409996032714844e+00 -5.290307998657226562e+00
4.440000000000000000e+02 4.707396697998046875e+01 -1.889496994018554688e+01 1.471584677696228027e+00 1.485187721252441406e+01 4.897038459777832031e+00 -1.192782044410705566e+00
4.450000000000000000e+02 4.792065048217773438e+01 -1.974621009826660156e+01 6.055919170379638672e+00 1.220107269287109375e+01 5.477097511291503906e+00 3.545566201210021973e-01
4.460000000000000000e+02 4.780406570434570312e+01 -2.216676902770996094e+01 2.868689775466918945e+00 1.295508670806884766e+01 4.747132778167724609e+00 -3.653608560562133789e+00
4.470000000000000000e+02 4.845279312133789062e+01 -2.095664405822753906e+01 6.853236675262451172e+00 9.969495773315429688e+00 5.046819686889648438e+00 -2.933935642242431641e+00
4.480000000000000000e+02 4.644539642333984375e+01 -2.231656837463378906e+01 -1.051370799541473389e-01 1.431456661224365234e+01 4.262828826904296875e+00 1.748172163963317871e+00
4.490000000000000000e+02 4.265634918212890625e+01 -2.376682853698730469e+01 3.057328760623931885e-01 6.953660845756530762e-01 3.003296852111816406e-01 3.930263221263885498e-01
4.500000000000000000e+02 4.201684188842773438e+01 -2.417504119873046875e+01 9.252432733774185181e-03 -1.623993963003158569e-01 -4.594408720731735229e-02 1.895650029182434082e-01
4.510000000000000000e+02 4.415892028808593750e+01 -2.301376533508300781e+01 1.116170406341552734e+00 2.196698665618896484e+00 9.938607215881347656e-01 1.501714229583740234e+00
4.520000000000000000e+02 4.319660186767578125e+01 -2.723077011108398438e+01 2.081718891859054565e-01 3.438255071640014648e+00 1.093928098678588867e+00 1.277958273887634277e+00
4.530000000000000000e+02 4.077861022949218750e+01 -3.116943931579589844e+01 5.024828314781188965e-01 1.477902412414550781e+00 5.941155552864074707e-01 9.580458402633666992e-01
4.540000000000000000e+02 4.393565750122070312e+01 -2.931727981567382812e+01 5.212752223014831543e-01 3.809556722640991211e+00 1.299249529838562012e+00 8.954268693923950195e-01
4.550000000000000000e+02 4.175539779663085938e+01 -3.232690811157226562e+01 6.907211244106292725e-02 2.885367870330810547e+00 8.863319754600524902e-01 1.009671211242675781e+00
4.560000000000000000e+02 4.173800277709960938e+01 -3.662295532226562500e+01 -2.447595149278640747e-01 2.465579509735107422e+00 6.662459969520568848e-01 6.474898457527160645e-01
4.570000000000000000e+02 4.770336914062500000e+01 -3.705784606933593750e+01 -5.699859261512756348e-01 4.507265567779541016e+00 1.181183815002441406e+00 3.496105968952178955e-01
4.580000000000000000e+02 5.143503189086914062e+01 -3.692956542968750000e+01 -6.708524823188781738e-01 5.291079521179199219e+00 1.386068105697631836e+00 1.712525337934494019e-01
4.590000000000000000e+02 5.200123214721679688e+01 -2.991090774536132812e+01 1.107358217239379883e+00 5.816266536712646484e+00 2.077087402343750000e+00 -9.550308585166931152e-01
4.600000000000000000e+02 4.671780395507812500e+01 -3.261147689819335938e+01 -3.669391199946403503e-02 4.567975044250488281e+00 1.359384417533874512e+00 3.404894471168518066e-01
4.610000000000000000e+02 3.483898925781250000e+01 -3.302403259277343750e+01 -6.731978058815002441e-01 -2.700461819767951965e-02 -2.100607156753540039e-01 5.337195098400115967e-02
4.620000000000000000e+02 3.161034584045410156e+01 -3.426166915893554688e+01 -2.523402571678161621e-01 6.834969390183687210e-03 -7.365158945322036743e-02 -1.054529622197151184e-01
4.630000000000000000e+02 3.071164894104003906e+01 -3.220247268676757812e+01 -2.908472716808319092e-01 9.879894554615020752e-03 -8.429021388292312622e-02 2.186081185936927795e-02
4.640000000000000000e+02 2.663561058044433594e+01 -3.147281074523925781e+01 -1.744885146617889404e-01 -1.614384911954402924e-02 -5.718971043825149536e-02 -2.348772017285227776e-03
4.650000000000000000e+02 2.361176872253417969e+01 -3.503287124633789062e+01 -2.103346772491931915e-02 -1.410528272390365601e-02 -1.054162532091140747e-02 -5.457399785518646240e-02
4.660000000000000000e+02 2.530119895935058594e+01 -3.757689285278320312e+01 4.971374198794364929e-02 -4.344810545444488525e-02 1.879691379144787788e-03 -7.490598410367965698e-02
4.670000000000000000e+02 3.494647979736328125e+01 -3.711433792114257812e+01 1.590204834938049316e-01 3.137444555759429932e-01 1.418294906616210938e-01 5.346444621682167053e-02
4.680000000000000000e+02 3.996249389648437500e+01 -3.642451095581054688e+01 -6.254785507917404175e-02 1.720244526863098145e+00 4.973089993000030518e-01 6.257547140121459961e-01
4.690000000000000000e+02 4.220572662353515625e+01 -3.861001205444335938e+01 -2.919588983058929443e-01 2.646169662475585938e+00 7.062632441520690918e-01 4.375560581684112549e-01
4.700000000000000000e+02 2.544766044616699219e+01 -3.137644195556640625e+01 -1.297920793294906616e-01 1.617866940796375275e-02 -3.408402204513549805e-02 -1.767102396115660667e-03
4.710000000000000000e+02 1.989844131469726562e+01 -3.167416572570800781e+01 -4.703311249613761902e-02 -3.213883319403976202e-04 -1.420635078102350235e-02 -1.103928126394748688e-02
4.720000000000000000e+02 1.544868755340576172e+01 -3.117128372192382812e+01 -1.201351359486579895e-02 -6.269568693824112415e-04 -3.792141098529100418e-03 -2.379472833126783371e-03
4.730000000000000000e+02 9.537482261657714844e+00 -2.973436355590820312e+01 2.302665234310552478e-04 -5.632253596559166908e-04 -9.988765668822452426e-05 2.722722420003265142e-04
4.740000000000000000e+02 4.549415588378906250e+00 -2.518575859069824219e+01 -3.195430617779493332e-04 -3.077409928664565086e-04 -1.881852222140878439e-04 -1.125822745962068439e-04
4.750000000000000000e+02 7.286975383758544922e-01 -3.038527870178222656e+01 2.074542222544550896e-03 5.635681445710361004e-04 7.914330926723778248e-04 2.287174575030803680e-04
4.760000000000000000e+02 8.005045056343078613e-01 -3.178166770935058594e+01 -1.731285592541098595e-03 8.233543485403060913e-04 -2.723793732002377510e-04 7.566240674350410700e-05
4.770000000000000000e+02 6.590249538421630859e-01 -3.737693405151367188e+01 -2.489521633833646774e-03 5.692824488505721092e-04 -5.760717904195189476e-04 -3.313699562568217516e-04
4.780000000000000000e+02 1.094610023498535156e+01 -4.054648208618164062e+01 7.137584034353494644e-03 -9.029810316860675812e-03 -5.676680011674761772e-04 -2.434950554743409157e-03
4.790000000000000000e+02 8.404880523681640625e+00 -3.669778823852539062e+01 -2.960395533591508865e-03 -4.069794435054063797e-03 -2.109057037159800529e-03 -1.891915802843868732e-03
4.800000000000000000e+02 1.693665885925292969e+01 -3.152457809448242188e+01 -2.225763350725173950e-02 -9.504480403847992420e-04 -6.962424609810113907e-03 -4.492523614317178726e-03
4.810000000000000000e+02 1.047223377227783203e+01 -2.825285339355468750e+01 5.865914863534271717e-04 5.086518940515816212e-04 3.285730199422687292e-04 -5.875460919924080372e-04
4.820000000000000000e+02 8.580569267272949219e+00 -2.527210998535156250e+01 -1.567100291140377522e-03 -1.499744103057309985e-04 -5.151224322617053986e-04 2.543498412705957890e-04
4.830000000000000000e+02 8.604692459106445312e+00 -2.254658699035644531e+01 -1.039418508298695087e-03 -8.065936708590015769e-05 -3.360233677085489035e-04 1.911124709295108914e-04
4.840000000000000000e+02 8.827857971191406250e+00 -2.116453170776367188e+01 8.852389873936772346e-04 1.297695780522190034e-05 2.694647700991481543e-04 -1.592312473803758621e-04
4.850000000000000000e+02 7.707502841949462891e+00 -2.104827499389648438e+01 -7.985010743141174316e-04 -1.508179557276889682e-04 -2.847957075573503971e-04 1.330441446043550968e-04
4.860000000000000000e+02 8.047758102416992188e+00 -1.968069267272949219e+01 8.089911425486207008e-04 4.456359965843148530e-05 2.560664142947643995e-04 -5.907824015594087541e-05
4.870000000000000000e+02 1.165200614929199219e+01 -1.577853393554687500e+01 8.440759120276197791e-05 4.719518983620218933e-05 3.948083394789136946e-05 -2.644809428602457047e-04
4.880000000000000000e+02 1.400008487701416016e+01 -1.424902629852294922e+01 1.045367826009169221e-04 2.547879994381219149e-04 1.077974375220946968e-04 -1.288505300180986524e-04
4.890000000000000000e+02 1.680970382690429688e+01 -1.350210857391357422e+01 2.987892185046803206e-05 3.372244536876678467e-04 1.101310117519460618e-04 -4.243169314577244222e-05
4.900000000000000000e+02 1.952910232543945312e+01 -1.342810344696044922e+01 7.452688441844657063e-05 2.681701153051108122e-04 1.028090991894714534e-04 -7.360183371929451823e-05
4.910000000000000000e+02 1.819859695434570312e+01 -1.340945816040039062e+01 -2.803898314596153796e-05 -3.061390016227960587e-04 -1.002533972496166825e-04 4.987860302207991481e-05
4.920000000000000000e+02 2.137505149841308594e+01 -1.388850688934326172e+01 7.065848330967128277e-05 -2.750169005594216287e-05 1.294703724852297455e-05 1.720276486594229937e-05
4.930000000000000000e+02 2.078286552429199219e+01 -1.224412250518798828e+01 -3.700135130202397704e-05 -1.941512309713289142e-04 -6.934577686479315162e-05 -1.513731490376812872e-06
4.940000000000000000e+02 2.184322929382324219e+01 -1.261107254028320312e+01 -5.651147148455493152e-05 -5.029321619076654315e-05 -3.204140739399008453e-05 2.567500087025109679e-05
4.950000000000000000e+02 1.774168968200683594e+01 -6.997161865234375000e+00 -1.124353511841036379e-04 1.041890482156304643e-05 -3.060493327211588621e-05 -4.137169071327662095e-06
4.960000000000000000e+02 1.618494415283203125e+01 -6.438124179840087891e+00 1.350174716208130121e-04 -1.042034341480757575e-06 4.019262996735051274e-05 -2.771856634353753179e-05
4.970000000000000000e+02 1.337238883972167969e+01 -3.626855134963989258e+00 -9.204431989928707480e-05 -3.733822450158186257e-05 -3.881476368405856192e-05 -2.170733932871371508e-05
4.980000000000000000e+02 1.071721076965332031e+01 -2.308305263519287109e+00 -8.576891559641808271e-05 -1.009307452477514744e-04 -5.600989607046358287e-05 -1.678743137745186687e-05
4.990000000000000000e+02 1.283443260192871094e+01 -4.156682968139648438e+00 1.158239319920539856e-04 4.146477658650837839e-05 4.718661148217506707e-05 1.665713898546528071e-05
5.000000000000000000e+02 9.179569244384765625e+00 -1.884461641311645508e+00 -5.693521598004736006e-05 -1.191389601444825530e-04 -5.282225174596533179e-05 -2.591919655969832093e-05
5.010000000000000000e+02 3.526357173919677734e+00 -2.056921958923339844e+00 1.076883563655428588e-04 2.912909621954895556e-05 4.104523395653814077e-05 1.049773854902014136e-04
5.020000000000000000e+02 5.701283216476440430e-01 -1.070646762847900391e+01 5.770805291831493378e-04 -8.146063009917270392e-06 1.706803304841741920e-04 2.507858698663767427e-05
5.030000000000000000e+02 1.705038666725158691e+00 -1.075767803192138672e+01 -5.757961189374327660e-04 -2.077283852486289106e-06 -1.733620301820337772e-04 -7.147056749090552330e-05
5.040000000000000000e+02 6.357170939445495605e-01 -1.772773170471191406e+01 -8.142398437485098839e-04 -2.621299427119083703e-05 -2.521358546800911427e-04 -4.768908547703176737e-05
5.050000000000000000e+02 9.249739646911621094e+00 -1.983461761474609375e+01 -8.719647303223609924e-04 -6.060594023438170552e-05 -2.797711931634694338e-04 1.212423449032939970e-04
5.060000000000000000e+02 1.925485014915466309e+00 -1.766135978698730469e+01 8.034900529310107231e-04 7.147523865569382906e-05 2.624895714689046144e-04 7.537609781138598919e-05
5.070000000000000000e+02 6.577680706977844238e-01 -2.337915992736816406e+01 -1.147951465100049973e-03 -6.056253914721310139e-05 -3.625542158260941505e-04 -1.378861052216961980e-04
5.080000000000000000e+02 2.505174636840820312e+00 -3.780786895751953125e+01 -1.269489177502691746e-03 -7.012463174760341644e-04 -5.912206252105534077e-04 -1.065476797521114349e-03
5.090000000000000000e+02 5.636426162719726562e+01 -3.572710800170898438e+01 -5.386930108070373535e-01 4.659512996673583984e+00 1.236245989799499512e+00 -1.490901231765747070e+00
5.100000000000000000e+02 5.743218231201171875e+01 -4.087490463256835938e+01 -2.705414593219757080e-01 3.072650671005249023e+00 8.406327962875366211e-01 -4.396058917045593262e-01
5.110000000000000000e+02 6.303513717651367188e+01 -3.581222915649414062e+01 -6.642001271247863770e-01 8.113220334053039551e-02 -1.749203801155090332e-01 -3.657101392745971680e-01
5.120000000000000000e+02 6.870175170898437500e+01 -3.666934585571289062e+01 -2.181871235370635986e-01 2.585695266723632812e+00 7.102524638175964355e-01 8.409519791603088379e-01
5.130000000000000000e+02 7.867777252197265625e+01 -4.011911773681640625e+01 -1.484526395797729492e-01 7.935480117797851562e+00 2.336108207702636719e+00 1.434583216905593872e-01
5.140000000000000000e+02 7.747412109375000000e+01 -3.687972259521484375e+01 -1.834926754236221313e-01 7.673784732818603516e+00 2.247087478637695312e+00 -1.888180524110794067e-01
5.150000000000000000e+02 7.935721588134765625e+01 -3.331967926025390625e+01 -3.844734653830528259e-02 7.475927352905273438e+00 2.231244087219238281e+00 -2.018451690673828125e-01
5.160000000000000000e+02 7.815660095214843750e+01 -3.029747009277343750e+01 4.348229989409446716e-02 6.810331821441650391e+00 2.056144237518310547e+00 -5.444102287292480469e-01
5.170000000000000000e+02 7.935849761962890625e+01 -2.631464576721191406e+01 4.844575375318527222e-02 5.736392974853515625e+00 1.735451698303222656e+00 1.760120876133441925e-02
5.180000000000000000e+02 7.402433776855468750e+01 -2.616470336914062500e+01 1.097709059715270996e+00 8.716411590576171875e+00 2.944236278533935547e+00 2.763814926147460938e-01
5.190000000000000000e+02 7.809680938720703125e+01 -1.669303131103515625e+01 -1.278914511203765869e-01 7.403946399688720703e+00 2.182816505432128906e+00 -1.012189239263534546e-01
5.200000000000000000e+02 7.812431335449218750e+01 -9.703435897827148438e+00 -1.012577954679727554e-02 6.477918148040771484e+00 1.940337657928466797e+00 -4.414044022560119629e-01
5.210000000000000000e+02 7.829464721679687500e+01 -2.823128223419189453e+00 5.275131762027740479e-02 5.383623600006103516e+00 1.630912542343139648e+00 -3.327917158603668213e-01
5.220000000000000000e+02 7.938323211669921875e+01 2.739824771881103516e+00 2.380332723259925842e-02 4.153772354125976562e+00 1.253272771835327148e+00 7.222576439380645752e-02
5.230000000000000000e+02 7.138465118408203125e+01 6.166883945465087891e+00 4.456383883953094482e-01 1.174297809600830078e+01 3.656584978103637695e+00 1.510525792837142944e-01
5.240000000000000000e+02 5.008004760742187500e+01 3.577772521972656250e+01 -5.301062464714050293e-01 1.401578664779663086e+00 2.614417374134063721e-01 3.220923542976379395e-01
5.250000000000000000e+02 5.115638351440429688e+01 3.226452255249023438e+01 1.633939743041992188e-01 5.964435935020446777e-01 2.279512584209442139e-01 3.757496178150177002e-01
5.260000000000000000e+02 3.271397399902343750e+01 4.024272155761718750e+01 -8.974010944366455078e-01 2.914530754089355469e+00 6.051388978958129883e-01 -1.153521165251731873e-01
5.270000000000000000e+02 1.297984409332275391e+01 4.089530944824218750e+01 -1.231044456362724304e-01 -5.135319009423255920e-02 -5.233728885650634766e-02 -3.456049412488937378e-02
5.280000000000000000e+02 9.913092613220214844e+00 3.790066909790039062e+01 -5.725219845771789551e-02 -5.864445567131042480e-01 -1.931090205907821655e-01 -5.367963388562202454e-02
5.290000000000000000e+02 7.817686080932617188e+00 2.969415855407714844e+01 5.412532761693000793e-02 -9.367557168006896973e-01 -2.647891044616699219e-01 -4.866012558341026306e-02
5.300000000000000000e+02 9.352960586547851562e+00 2.275754356384277344e+01 2.283166944980621338e-01 -8.505524992942810059e-01 -1.866707503795623779e-01 9.745902568101882935e-02
5.310000000000000000e+02 7.341544151306152344e+00 1.466115951538085938e+01 2.201279103755950928e-01 -1.026555657386779785e+00 -2.419283241033554077e-01 4.819633960723876953e-01
5.320000000000000000e+02 8.105134010314941406e+00 8.512781143188476562e+00 4.604390263557434082e-02 -8.558259010314941406e-01 -2.429345995187759399e-01 7.831022739410400391e-01
5.330000000000000000e+02 6.263890743255615234e+00 1.857481360435485840e+00 -4.715015590190887451e-01 -9.773798286914825439e-02 -1.707718670368194580e-01 3.318845331668853760e-01
5.340000000000000000e+02 1.165952396392822266e+01 1.402902841567993164e+00 -1.373625993728637695e+00 -8.671377301216125488e-01 -6.722291707992553711e-01 1.033830642700195312e+00
5.350000000000000000e+02 2.070863008499145508e+00 4.162181472778320312e+01 -6.021169200539588928e-02 -1.765856623649597168e+00 -5.478205084800720215e-01 -1.704037748277187347e-02
5.360000000000000000e+02 5.170316696166992188e+00 3.705633163452148438e+01 5.305034108459949493e-03 -1.355075478553771973e+00 -4.049311280250549316e-01 1.581044518388807774e-03
5.370000000000000000e+02 2.181140422821044922e+00 3.571118164062500000e+01 1.289891172200441360e-02 -1.777769446372985840e+00 -5.294611454010009766e-01 -4.882908239960670471e-02
5.380000000000000000e+02 2.101200580596923828e+00 2.897495079040527344e+01 8.586303330957889557e-03 -1.826038956642150879e+00 -5.452358126640319824e-01 -8.429920300841331482e-03
5.390000000000000000e+02 2.001530885696411133e+00 2.337466239929199219e+01 1.629033498466014862e-02 -1.795675396919250488e+00 -5.338155031204223633e-01 4.497380927205085754e-02
5.400000000000000000e+02 1.872551798820495605e+00 1.770659446716308594e+01 2.202693559229373932e-02 -1.579072356224060059e+00 -4.671136438846588135e-01 1.324511319398880005e-01
5.410000000000000000e+02 5.797381997108459473e-01 6.465987682342529297e+00 -3.335424000397324562e-03 -3.327992558479309082e-01 -1.008404046297073364e-01 7.706143707036972046e-02
5.420000000000000000e+02 1.715863466262817383e+00 9.341690063476562500e+00 6.403734441846609116e-03 -7.661479711532592773e-01 -2.279232740402221680e-01 2.435637116432189941e-01
5.430000000000000000e+02 4.831991672515869141e+00 2.636241674423217773e+00 -2.921792268753051758e-01 -1.423608213663101196e-01 -1.303620189428329468e-01 3.005160987377166748e-01
5.440000000000000000e+02 3.803943634033203125e+01 -1.843005371093750000e+01 -3.359959125518798828e+00 -5.819911956787109375e-01 -1.182585120201110840e+00 9.967721700668334961e-01
5.450000000000000000e+02 4.220015335083007812e+01 -1.938574981689453125e+01 2.280696779489517212e-01 7.065152525901794434e-01 2.803754806518554688e-01 -4.542206525802612305e-01
5.460000000000000000e+02 6.679969787597656250e+01 3.219296264648437500e+01 -1.186981320381164551e+00 -2.846728861331939697e-01 -4.414962530136108398e-01 8.222630023956298828e-01
5.470000000000000000e+02 2.216503715515136719e+01 2.996431159973144531e+01 4.169809445738792419e-02 1.240916013717651367e+00 3.847842514514923096e-01 -4.460142552852630615e-01
5.480000000000000000e+02 1.945275115966796875e+01 3.003816986083984375e+01 8.176467567682266235e-02 8.205522298812866211e-01 2.706950604915618896e-01 -3.490715324878692627e-01
5.490000000000000000e+02 2.578199577331542969e+01 2.308198165893554688e+01 5.855494737625122070e-01 1.642699718475341797e+00 6.684747934341430664e-01 -6.615507602691650391e-01
5.500000000000000000e+02 2.526537322998046875e+01 1.824342918395996094e+01 1.009721994400024414e+00 1.257924914360046387e+00 6.802940368652343750e-01 -5.784543156623840332e-01
5.510000000000000000e+02 2.717432212829589844e+01 1.280865383148193359e+01 1.308369040489196777e+00 1.413780570030212402e+00 8.166449069976806641e-01 -4.859637916088104248e-01
5.520000000000000000e+02 2.094030380249023438e+01 5.462558194994926453e-02 -7.731689214706420898e-01 -1.146994352340698242e+00 -5.760489702224731445e-01 8.604984283447265625e-01
5.530000000000000000e+02 2.821051025390625000e+01 7.040114998817443848e-01 7.014319300651550293e-03 9.670255780220031738e-01 2.922119498252868652e-01 1.773115396499633789e-01
5.540000000000000000e+02 2.675762367248535156e+01 -4.147859573364257812e+00 -9.941892027854919434e-01 9.829332679510116577e-02 -2.687687575817108154e-01 7.094006538391113281e-01
5.550000000000000000e+02 2.566324806213378906e+01 -5.176314830780029297e+00 -1.258185267448425293e+00 -3.883816599845886230e-01 -4.939700961112976074e-01 9.388853311538696289e-01
5.560000000000000000e+02 2.726718139648437500e+01 -1.200962543487548828e+01 -1.125404357910156250e+00 -4.587542712688446045e-01 -4.752475917339324951e-01 1.244739770889282227e+00
5.570000000000000000e+02 3.600432968139648438e+01 -1.516901874542236328e+01 -1.331551194190979004e+00 2.547440528869628906e-01 -3.230421245098114014e-01 1.649715900421142578e-01
5.580000000000000000e+02 1.429439735412597656e+01 3.081374549865722656e+01 7.286903262138366699e-02 -2.959629520773887634e-02 1.298182178288698196e-02 -1.759862303733825684e-01
5.590000000000000000e+02 6.538639545440673828e+00 3.159348678588867188e+01 3.048909455537796021e-02 -1.121951222419738770e+00 -3.274386525154113770e-01 -4.210536926984786987e-02
5.600000000000000000e+02 7.323483467102050781e+00 2.438333892822265625e+01 1.243351027369499207e-01 -1.076608419418334961e+00 -2.856819927692413330e-01 6.478097289800643921e-02
5.610000000000000000e+02 1.520061874389648438e+01 2.410864067077636719e+01 3.923807144165039062e-01 -7.710035145282745361e-02 9.458410739898681641e-02 -1.274217516183853149e-01
5.620000000000000000e+02 3.059438323974609375e+01 2.330477142333984375e+01 5.027617216110229492e-01 2.790313959121704102e+00 9.879226684570312500e-01 -7.833961248397827148e-01
5.630000000000000000e+02 3.315708541870117188e+01 1.962532043457031250e+01 9.003757834434509277e-01 3.570375919342041016e+00 1.341225504875183105e+00 -8.358324170112609863e-01
5.640000000000000000e+02 3.370284271240234375e+01 1.179187202453613281e+01 1.689220786094665527e+00 3.737177848815917969e+00 1.627919554710388184e+00 -8.009191751480102539e-01
5.650000000000000000e+02 3.292005157470703125e+01 5.849700927734375000e+00 1.151603698730468750e+00 3.024369001388549805e+00 1.252791762351989746e+00 -4.083492457866668701e-01
5.660000000000000000e+02 4.008380126953125000e+01 3.631144046783447266e+00 8.306122422218322754e-01 6.128242015838623047e+00 2.087656259536743164e+00 -1.400872707366943359e+00
5.670000000000000000e+02 2.124827861785888672e+00 3.175972557067871094e+01 6.651505827903747559e-03 -1.817642331123352051e+00 -5.432972311973571777e-01 -2.268128655850887299e-02
5.680000000000000000e+02 6.925801086425781250e+01 -2.337639331817626953e+00 9.414102435111999512e-01 1.091962242126464844e+01 3.558309793472290039e+00 2.884379863739013672e+00
5.690000000000000000e+02 7.940764617919921875e+01 -5.571359634399414062e+00 3.442190587520599365e-03 5.254769802093505859e+00 1.577463626861572266e+00 -1.622917652130126953e-01
5.700000000000000000e+02 7.937596893310546875e+01 -1.251367568969726562e+01 -8.759941905736923218e-03 7.107337474822998047e+00 2.129573345184326172e+00 -1.493063718080520630e-01
5.710000000000000000e+02 7.949344635009765625e+01 -2.223321533203125000e+01 -3.348124446347355843e-03 6.846450805664062500e+00 2.052930831909179688e+00 1.938589662313461304e-01
5.720000000000000000e+02 5.690808486938476562e+01 -1.805919837951660156e+01 -1.075146913528442383e+00 -7.270702719688415527e-01 -5.406651496887207031e-01 2.078190088272094727e+00
5.730000000000000000e+02 6.221383285522460938e+01 -2.071186256408691406e+01 -1.829594075679779053e-01 1.412411928176879883e+00 3.688357770442962646e-01 1.880712509155273438e+00
5.740000000000000000e+02 6.824323272705078125e+01 -2.133967399597167969e+01 -3.622155189514160156e+00 -7.156191021203994751e-02 -1.108115077018737793e+00 -1.313189864158630371e-01
5.750000000000000000e+02 6.930611419677734375e+01 -1.976023864746093750e+01 -9.893826842308044434e-01 2.541328191757202148e+00 4.655836820602416992e-01 -1.299655199050903320e+00
5.760000000000000000e+02 6.685877990722656250e+01 -2.153536033630371094e+01 -3.212427854537963867e+00 -9.008837491273880005e-02 -9.907549023628234863e-01 -2.389195412397384644e-01
5.770000000000000000e+02 4.638511657714843750e+01 -8.724013328552246094e+00 -6.445181965827941895e-01 5.548670291900634766e+00 1.471245646476745605e+00 -1.340552449226379395e+00
5.780000000000000000e+02 4.590097808837890625e+01 -2.685047626495361328e+00 4.146761000156402588e-01 5.645915985107421875e+00 1.818177700042724609e+00 -2.177267551422119141e+00
5.790000000000000000e+02 3.949892044067382812e+01 -2.170157194137573242e+00 -4.183292761445045471e-02 4.561358928680419922e+00 1.355857729911804199e+00 -1.159037709236145020e+00
5.800000000000000000e+02 5.040642166137695312e+01 -8.783635139465332031e+00 2.045222371816635132e-01 5.646116733551025391e+00 1.755191683769226074e+00 -1.444973111152648926e+00
5.810000000000000000e+02 4.879313659667968750e+01 -3.422233581542968750e+00 6.465633511543273926e-01 5.906064033508300781e+00 1.965788245201110840e+00 -2.105138301849365234e+00
5.820000000000000000e+02 3.236611557006835938e+01 9.113903045654296875e+00 1.524958372116088867e+00 3.009537935256958008e+00 1.360348820686340332e+00 -5.689075589179992676e-01
5.830000000000000000e+02 4.006660079956054688e+01 9.797950744628906250e+00 1.942049503326416016e+00 8.138593673706054688e+00 3.024193048477172852e+00 -1.331489920616149902e+00
5.840000000000000000e+02 4.391936111450195312e+01 6.488987445831298828e+00 2.132540225982666016e+00 8.667349815368652344e+00 3.239967107772827148e+00 -3.981383562088012695e+00
5.850000000000000000e+02 2.969249153137207031e+01 2.100621986389160156e+01 7.998040318489074707e-01 2.506674289703369141e+00 9.919434785842895508e-01 -8.130405545234680176e-01
5.860000000000000000e+02 3.934363174438476562e+01 1.556913566589355469e+01 9.531571865081787109e-01 7.193918228149414062e+00 2.444122552871704102e+00 -4.226616919040679932e-01
5.870000000000000000e+02 2.113684654235839844e+01 8.475599288940429688e+00 7.960901856422424316e-01 -3.070797026157379150e-01 1.467031389474868774e-01 1.976168751716613770e-01
5.880000000000000000e+02 1.496465110778808594e+01 8.476102828979492188e+00 4.101646542549133301e-01 -9.822894334793090820e-01 -1.716374307870864868e-01 6.898788809776306152e-01
5.890000000000000000e+02 6.399385929107666016e+00 1.037834835052490234e+01 9.289681911468505859e-02 -8.981340527534484863e-01 -2.415711730718612671e-01 6.351832747459411621e-01
5.900000000000000000e+02 4.234569168090820312e+01 1.046172428131103516e+01 1.168737649917602539e+00 1.299704837799072266e+01 4.249735832214355469e+00 -2.136854171752929688e+00
5.910000000000000000e+02 2.269684219360351562e+01 1.985301589965820312e+01 8.342594504356384277e-01 8.375868797302246094e-01 5.015538930892944336e-01 -4.520276784896850586e-01
5.920000000000000000e+02 1.355477905273437500e+01 1.745409393310546875e+01 5.300869345664978027e-01 -5.904620289802551270e-01 -1.811254024505615234e-02 2.267749160528182983e-01
5.930000000000000000e+02 6.623403549194335938e+00 1.728146171569824219e+01 1.847879588603973389e-01 -1.116778492927551270e+00 -2.795971632003784180e-01 3.438246548175811768e-01
5.940000000000000000e+02 1.841516733169555664e+00 1.629877281188964844e+01 1.891095563769340515e-02 -1.484143376350402832e+00 -4.395697116851806641e-01 1.572746336460113525e-01
5.950000000000000000e+02 1.199023818969726562e+01 -3.141044616699218750e+01 -3.969412762671709061e-03 6.676674238406121731e-04 -9.905236074700951576e-04 -8.094763034023344517e-04
5.960000000000000000e+02 7.087086486816406250e+01 -3.644044876098632812e+01 -3.879904448986053467e-01 4.338016033172607422e+00 1.185007572174072266e+00 7.398261427879333496e-01
5.970000000000000000e+02 7.054730987548828125e+01 -3.452729797363281250e+01 -6.386256814002990723e-01 4.476143360137939453e+00 1.151255369186401367e+00 9.727757573127746582e-01
5.980000000000000000e+02 6.385544204711914062e+01 -3.473477935791015625e+01 -1.646384596824645996e+00 4.400948435068130493e-02 -4.807125329971313477e-01 -1.489813178777694702e-01
5.990000000000000000e+02 1.210503768920898438e+01 -1.399433040618896484e+01 1.958906796062365174e-04 9.945609781425446272e-05 8.860403613653033972e-05 -1.892319996841251850e-04
6.000000000000000000e+02 1.237080955505371094e+01 -1.237600326538085938e+01 2.606569905765354633e-04 9.985397628042846918e-05 1.081532973330467939e-04 -3.846291656373068690e-05
6.010000000000000000e+02 6.390117263793945312e+01 3.673398590087890625e+01 -7.555088996887207031e-01 -5.082471966743469238e-01 -3.791268169879913330e-01 5.164373517036437988e-01
6.020000000000000000e+02 6.853022766113281250e+01 2.980951881408691406e+01 -1.545976847410202026e-01 2.403029203414916992e+00 6.745294332504272461e-01 -2.809564769268035889e-01
6.030000000000000000e+02 6.956231689453125000e+01 2.703846549987792969e+01 1.891414076089859009e-01 5.837962627410888672e+00 1.808131217956542969e+00 -6.424124240875244141e-01
6.040000000000000000e+02 6.990872955322265625e+01 2.275363159179687500e+01 6.072631850838661194e-02 8.177799224853515625e+00 2.471557855606079102e+00 5.063608661293983459e-02
6.050000000000000000e+02 6.987060546875000000e+01 2.415737915039062500e+01 1.340565085411071777e-01 7.891468048095703125e+00 2.407657384872436523e+00 -1.875622868537902832e-01
6.060000000000000000e+02 6.991762542724609375e+01 1.860799789428710938e+01 1.200573612004518509e-02 8.868676185607910156e+00 2.664204597473144531e+00 1.747266650199890137e-01
6.070000000000000000e+02 6.990759277343750000e+01 1.443130779266357422e+01 2.240362912416458130e-01 1.021727848052978516e+01 3.132394552230834961e+00 5.255655646324157715e-01
6.080000000000000000e+02 6.981734466552734375e+01 1.305051994323730469e+01 7.047624140977859497e-02 9.218145370483398438e+00 2.786586523056030273e+00 6.956748366355895996e-01
6.090000000000000000e+02 7.133904266357421875e+01 4.771606445312500000e+00 2.103923410177230835e-01 1.246301555633544922e+01 3.802022457122802734e+00 3.922762870788574219e-01
6.100000000000000000e+02 7.002204895019531250e+01 4.578024148941040039e-01 8.256915211677551270e-01 1.433342170715332031e+01 4.547733783721923828e+00 2.272018909454345703e+00
6.110000000000000000e+02 6.878715515136718750e+01 -3.684468030929565430e+00 1.050183892250061035e+00 9.569644927978515625e+00 3.185948610305786133e+00 2.891155004501342773e+00
6.120000000000000000e+02 6.826689147949218750e+01 -5.002719879150390625e+00 1.143651485443115234e+00 8.287051200866699219e+00 2.829210758209228516e+00 2.850750446319580078e+00
6.130000000000000000e+02 6.976250457763671875e+01 -7.222814083099365234e+00 5.070970058441162109e-01 7.250843524932861328e+00 2.327382087707519531e+00 1.242508530616760254e+00
6.140000000000000000e+02 6.410102844238281250e+01 -1.242938613891601562e+01 2.055437326431274414e+00 2.956009864807128906e+00 1.503434062004089355e+00 2.275716781616210938e+00
6.150000000000000000e+02 6.189012527465820312e+01 -1.431406211853027344e+01 1.807712316513061523e+00 1.478848576545715332e+00 9.859682917594909668e-01 1.648327231407165527e+00
6.160000000000000000e+02 5.813182449340820312e+01 -1.636396980285644531e+01 -2.544000864028930664e+00 2.103046476840972900e-01 -7.001088261604309082e-01 3.670510947704315186e-01
6.170000000000000000e+02 5.089475250244140625e+01 -1.017513656616210938e+01 2.022462189197540283e-01 5.091649055480957031e+00 1.588168621063232422e+00 -1.115785241127014160e+00
6.180000000000000000e+02 5.005770492553710938e+01 -7.387213706970214844e+00 4.360239505767822266e-01 5.917278766632080078e+00 1.905990839004516602e+00 -1.721388578414916992e+00
6.190000000000000000e+02 4.966144943237304688e+01 -6.050549030303955078e+00 5.312597155570983887e-01 6.099782943725585938e+00 1.989312767982482910e+00 -1.905057668685913086e+00
6.200000000000000000e+02 4.757585906982421875e+01 -3.647999763488769531e+00 5.398697257041931152e-01 5.696519851684570312e+00 1.870916843414306641e+00 -2.124874353408813477e+00
6.210000000000000000e+02 4.777172470092773438e+01 -8.652538657188415527e-01 9.217427968978881836e-01 5.573948383331298828e+00 1.948707461357116699e+00 -2.459658384323120117e+00
6.220000000000000000e+02 4.717576980590820312e+01 3.763155043125152588e-01 1.241331100463867188e+00 5.806437015533447266e+00 2.114330530166625977e+00 -2.723351716995239258e+00
6.230000000000000000e+02 4.655593490600585938e+01 1.612633466720581055e+00 1.351249694824218750e+00 6.003340721130371094e+00 2.206377029418945312e+00 -2.912696361541748047e+00
6.240000000000000000e+02 4.592231750488281250e+01 2.841986417770385742e+00 1.493538260459899902e+00 6.098516464233398438e+00 2.277616500854492188e+00 -3.112033367156982422e+00
6.250000000000000000e+02 4.457931900024414062e+01 5.262037277221679688e+00 2.033785581588745117e+00 7.352922916412353516e+00 2.816012620925903320e+00 -3.793972015380859375e+00
6.260000000000000000e+02 4.331568145751953125e+01 7.759222984313964844e+00 1.790005326271057129e+00 9.750171661376953125e+00 3.462053060531616211e+00 -3.970471382141113281e+00
6.270000000000000000e+02 4.213035964965820312e+01 1.191936016082763672e+01 5.395032167434692383e-01 1.197539138793945312e+01 3.754468202590942383e+00 -6.028298139572143555e-01
6.280000000000000000e+02 4.226390075683593750e+01 1.484472846984863281e+01 2.588178813457489014e-01 9.676350593566894531e+00 2.980550527572631836e+00 6.135146617889404297e-01
6.290000000000000000e+02 4.276303863525390625e+01 1.770433807373046875e+01 4.860716164112091064e-01 8.260832786560058594e+00 2.624071359634399414e+00 1.570632934570312500e+00
6.300000000000000000e+02 4.398376083374023438e+01 2.183576202392578125e+01 8.112354874610900879e-01 6.108552932739257812e+00 2.075936555862426758e+00 1.930083036422729492e+00
6.310000000000000000e+02 4.582831573486328125e+01 2.574455261230468750e+01 9.026673436164855957e-01 3.760411739349365234e+00 1.398923635482788086e+00 1.769015789031982422e+00
6.320000000000000000e+02 4.656413269042968750e+01 2.695886993408203125e+01 9.305005073547363281e-01 3.211191892623901367e+00 1.242507696151733398e+00 1.606645822525024414e+00
6.330000000000000000e+02 4.826419830322265625e+01 2.921725463867187500e+01 7.689674496650695801e-01 1.906700372695922852e+00 8.027003407478332520e-01 1.165091395378112793e+00
6.340000000000000000e+02 5.015776062011718750e+01 3.124361228942871094e+01 3.939855098724365234e-01 1.036369323730468750e+00 4.291064739227294922e-01 6.246959567070007324e-01
6.350000000000000000e+02 5.580339050292968750e+01 3.515847396850585938e+01 -9.125673770904541016e-01 -1.976888477802276611e-01 -3.330768644809722900e-01 -2.726192176342010498e-01
6.360000000000000000e+02 7.251015472412109375e+01 -2.955627822875976562e+01 8.602850437164306641e-01 8.695396423339843750e+00 2.866704463958740234e+00 3.829089701175689697e-01
6.370000000000000000e+02 7.090053558349609375e+01 -3.006263351440429688e+01 1.356034159660339355e+00 7.249148845672607422e+00 2.581554889678955078e+00 2.732948541641235352e+00
6.380000000000000000e+02 6.916507720947265625e+01 -3.215710067749023438e+01 4.705094099044799805e-01 2.240390777587890625e+00 8.132700920104980469e-01 1.144632101058959961e+00
6.390000000000000000e+02 6.669803619384765625e+01 -3.484838867187500000e+01 -8.038856387138366699e-01 5.686275362968444824e-01 -7.057742774486541748e-02 1.426126807928085327e-01
6.400000000000000000e+02 6.265638732910156250e+01 -3.468001937866210938e+01 -1.746926546096801758e+00 -5.097437649965286255e-02 -5.393702983856201172e-01 -1.934903264045715332e-01
6.410000000000000000e+02 4.178805541992187500e+01 -2.007655143737792969e+01 -3.724421858787536621e-01 3.167443275451660156e-01 -1.670935377478599548e-02 1.513867974281311035e-01
6.420000000000000000e+02 4.371932601928710938e+01 -1.967351913452148438e+01 1.883309364318847656e+00 7.854419350624084473e-01 8.006253838539123535e-01 -1.301939010620117188e+00
6.430000000000000000e+02 4.471800231933593750e+01 -1.933131980895996094e+01 3.854983091354370117e+00 2.878597736358642578e+00 2.020074129104614258e+00 -4.073623657226562500e+00
6.440000000000000000e+02 4.528442001342773438e+01 -1.919767951965332031e+01 3.788564205169677734e+00 6.653694629669189453e+00 3.132677555084228516e+00 -6.332592010498046875e+00
6.450000000000000000e+02 4.548452758789062500e+01 -1.914741325378417969e+01 3.525745630264282227e+00 7.725691795349121094e+00 3.375431299209594727e+00 -6.464545249938964844e+00
6.460000000000000000e+02 4.630456542968750000e+01 -2.243455886840820312e+01 9.603442251682281494e-02 1.310058689117431641e+01 3.958986282348632812e+00 1.874261140823364258e+00
6.470000000000000000e+02 4.594989776611328125e+01 -2.240567016601562500e+01 6.131529211997985840e-01 1.065356159210205078e+01 3.380014419555664062e+00 3.272435426712036133e+00
6.480000000000000000e+02 4.513807296752929688e+01 -2.274393653869628906e+01 1.237496733665466309e+00 5.136365890502929688e+00 1.912158727645874023e+00 3.022731542587280273e+00
6.490000000000000000e+02 4.342564392089843750e+01 -2.336487197875976562e+01 6.884585022926330566e-01 1.311329483985900879e+00 5.999364256858825684e-01 8.318247795104980469e-01
6.500000000000000000e+02 4.434418869018554688e+01 -2.291720962524414062e+01 1.139600276947021484e+00 2.487188339233398438e+00 1.088036656379699707e+00 1.749025106430053711e+00
6.510000000000000000e+02 4.226195144653320312e+01 -2.719644927978515625e+01 -2.467667125165462494e-02 2.753646612167358398e+00 8.186910152435302734e-01 4.455070197582244873e-01
6.520000000000000000e+02 3.920716857910156250e+01 -3.247711181640625000e+01 -2.128748409450054169e-02 7.012006640434265137e-01 2.039739638566970825e-01 4.121787846088409424e-01
6.530000000000000000e+02 3.784820175170898438e+01 -3.311068344116210938e+01 -3.894611299037933350e-01 1.863073408603668213e-01 -6.094614043831825256e-02 1.345066130161285400e-01
6.540000000000000000e+02 3.212871932983398438e+01 -3.265566253662109375e+01 -4.114660918712615967e-01 -2.906114421784877777e-02 -1.321581751108169556e-01 4.321186337620019913e-03
6.550000000000000000e+02 2.734512710571289062e+01 -3.510643768310546875e+01 -6.586197018623352051e-02 1.872762665152549744e-02 -1.414030231535434723e-02 -9.112170338630676270e-02
6.560000000000000000e+02 2.418189430236816406e+01 -3.148222351074218750e+01 -1.031871959567070007e-01 -2.318638144060969353e-03 -3.165175020694732666e-02 -8.391778916120529175e-03
6.570000000000000000e+02 2.325175476074218750e+01 -3.331602478027343750e+01 -6.188834086060523987e-02 -5.736703518778085709e-03 -2.028751373291015625e-02 -4.276290535926818848e-02
6.580000000000000000e+02 2.134133338928222656e+01 -3.161524200439453125e+01 -6.335261464118957520e-02 -4.903160966932773590e-03 -2.047673240303993225e-02 -1.388699281960725784e-02
6.590000000000000000e+02 2.278010749816894531e+01 -3.154221916198730469e+01 -8.144987374544143677e-02 6.775189656764268875e-03 -2.240240573883056641e-02 -1.433823723345994949e-02
6.600000000000000000e+02 1.843391990661621094e+01 -3.167825698852539062e+01 -3.370085731148719788e-02 -3.395734820514917374e-03 -1.112897787243127823e-02 -8.151922374963760376e-03
6.610000000000000000e+02 1.402867317199707031e+01 -3.065665054321289062e+01 -4.949729423969984055e-03 4.257789405528455973e-04 -1.357185188680887222e-03 -1.038714661262929440e-03
6.620000000000000000e+02 1.270112800598144531e+01 -3.000369834899902344e+01 -8.305031224153935909e-04 2.436359063722193241e-04 -1.760601589921861887e-04 -9.586990345269441605e-04
6.630000000000000000e+02 9.472297668457031250e+00 -2.734739303588867188e+01 5.178538849577307701e-04 -4.760636074934154749e-04 1.253708705917233601e-05 -5.135106039233505726e-04
6.640000000000000000e+02 8.533901214599609375e+00 -2.393688964843750000e+01 1.214107032865285873e-03 -8.044613787205889821e-05 3.400982532184571028e-04 -1.690111675998196006e-04
6.650000000000000000e+02 9.759156227111816406e+00 -1.857981491088867188e+01 8.649035589769482613e-04 -5.016738214180804789e-06 2.579660504125058651e-04 -1.496035401942208409e-04
6.660000000000000000e+02 1.026245403289794922e+01 -1.621265029907226562e+01 8.499951800331473351e-04 1.281621953239664435e-04 2.934471995104104280e-04 1.940607762662693858e-04
6.670000000000000000e+02 1.277491474151611328e+01 -1.502425098419189453e+01 -8.497363160131499171e-05 -3.232490853406488895e-04 -1.224668085342273116e-04 1.431123528163880110e-04
6.680000000000000000e+02 1.537661552429199219e+01 -1.371938800811767578e+01 5.965516538708470762e-05 -2.903803833760321140e-04 -6.921756721567362547e-05 1.256091200048103929e-04
6.690000000000000000e+02 1.797206115722656250e+01 -8.467546463012695312e+00 1.354597916360944510e-04 -9.404082561559334863e-07 4.035581514472141862e-05 -2.428941843390930444e-05
6.700000000000000000e+02 2.148586654663085938e+01 -1.198795604705810547e+01 4.132242247578687966e-05 8.953274664236232638e-05 3.925655255443416536e-05 -1.400257951900130138e-05
6.710000000000000000e+02 2.252490425109863281e+01 -1.428729724884033203e+01 1.725319270917680115e-05 4.195978908683173358e-05 1.776389399310573936e-05 -1.715879079711157829e-05
6.720000000000000000e+02 2.242794036865234375e+01 -1.376152133941650391e+01 -1.315955614700214937e-05 3.105822179350070655e-05 5.369599421101156622e-06 4.183376586297526956e-05
6.730000000000000000e+02 2.220040702819824219e+01 -1.321436786651611328e+01 4.297777559258975089e-05 1.488775706093292683e-05 1.735965997795574367e-05 -4.032322613056749105e-05
6.740000000000000000e+02 2.119519615173339844e+01 -1.289797496795654297e+01 6.648166163358837366e-05 8.041431283345445991e-05 4.406879452290013433e-05 -6.412030052160844207e-05
6.750000000000000000e+02 2.044432067871093750e+01 -1.018202209472656250e+01 -1.383845083182677627e-04 7.286746040335856378e-06 -3.932933032047003508e-05 -7.388421363430097699e-05
6.760000000000000000e+02 2.079341316223144531e+01 -1.077301311492919922e+01 9.007015614770352840e-05 5.260932084638625383e-05 4.280384382582269609e-05 9.085722558666020632e-05
6.770000000000000000e+02 2.113319778442382812e+01 -1.137736606597900391e+01 -4.107660788577049971e-05 -1.109868389903567731e-04 -4.561903551802970469e-05 -4.552061727736145258e-05
6.780000000000000000e+02 2.003627395629882812e+01 -9.635807037353515625e+00 1.686658943071961403e-04 -1.735367004584986717e-05 4.539366636890918016e-05 3.979729444836266339e-05
6.790000000000000000e+02 1.866859436035156250e+01 -8.028148651123046875e+00 -1.211715425597503781e-04 -1.911120534714427777e-06 -3.692479731398634613e-05 2.747955477389041334e-06
6.800000000000000000e+02 1.675941085815429688e+01 -6.018870353698730469e+00 -1.095072439056821167e-04 -9.081341545424947981e-07 -3.312461558380164206e-05 6.469500476669054478e-06
6.810000000000000000e+02 1.725514030456542969e+01 -6.500659942626953125e+00 1.152552722487598658e-04 -9.274313924834132195e-06 3.179428676958195865e-05 -3.513062210913631134e-06
6.820000000000000000e+02 1.457901096343994141e+01 -5.213457584381103516e+00 -1.066250988515093923e-04 -3.670719161164015532e-05 -4.299968713894486427e-05 -1.702892404864542186e-06
6.830000000000000000e+02 1.512551498413085938e+01 -4.743476390838623047e+00 9.143239003606140614e-05 2.744679295574314892e-05 3.566375380614772439e-05 7.846007974876556545e-06
6.840000000000000000e+02 1.456017303466796875e+01 -4.341667175292968750e+00 -8.871550380717962980e-05 -3.185643436154350638e-05 -3.617158290580846369e-05 -1.306351896346313879e-05
6.850000000000000000e+02 1.215310478210449219e+01 -2.949723005294799805e+00 -9.343490091850981116e-05 -5.722290370613336563e-05 -4.519734284258447587e-05 -2.786095501505769789e-05
6.860000000000000000e+02 1.276476192474365234e+01 -3.287079811096191406e+00 9.172873978968709707e-05 4.419594915816560388e-05 4.077740595676004887e-05 2.444227357045747340e-05
6.870000000000000000e+02 1.405018138885498047e+01 -5.698320388793945312e+00 1.233554503414779902e-04 4.877485116594471037e-05 5.163909008842892945e-05 2.695592684176517650e-06
6.880000000000000000e+02 8.813501358032226562e+00 -3.256300926208496094e+00 -6.716978532494977117e-05 -9.116962610278278589e-05 -4.750182415591552854e-05 -6.537957960972562432e-05
6.890000000000000000e+02 9.952200889587402344e+00 -2.026534557342529297e+00 7.590490713482722640e-05 1.177645972347818315e-04 5.810084985569119453e-05 1.443260498490417376e-05
6.900000000000000000e+02 8.390749931335449219e+00 -1.874113082885742188e+00 6.635469617322087288e-05 1.219521218445152044e-04 5.649204467772506177e-05 3.437763007241301239e-05
6.910000000000000000e+02 6.802721977233886719e+00 -1.854196667671203613e+00 9.151266567641869187e-05 1.396122679580003023e-04 6.933748227311298251e-05 -1.992615216295234859e-05
6.920000000000000000e+02 7.589785575866699219e+00 -1.871302485466003418e+00 -9.249084541806951165e-05 -1.316094567300751805e-04 -6.723008846165612340e-05 -2.126886829501017928e-05
6.930000000000000000e+02 5.208164691925048828e+00 -1.926246643066406250e+00 -6.491943054243165534e-07 1.154231067630462348e-04 3.443217428866773844e-05 4.109694418730214238e-05
6.940000000000000000e+02 2.695105075836181641e+00 -2.061418294906616211e+00 -1.853010180639103055e-04 2.332761397383364965e-07 -5.552032598643563688e-05 -3.681332964333705604e-05
6.950000000000000000e+02 3.358317136764526367e+00 -3.213567972183227539e+00 -8.915721264202147722e-05 -7.004546205280348659e-05 -4.776080459123477340e-05 -1.335089764324948192e-04
6.960000000000000000e+02 4.374797344207763672e+00 -1.997757196426391602e+00 -2.822493843268603086e-05 -7.529787399107590318e-05 -3.105684299953281879e-05 -8.570042700739577413e-05
6.970000000000000000e+02 1.518972396850585938e+00 -2.861145734786987305e+00 -7.184193964349105954e-05 -5.210750896367244422e-05 -3.718483276315964758e-05 5.120066998642869294e-05
6.980000000000000000e+02 4.253500401973724365e-01 -2.145190000534057617e+00 1.577671355335041881e-04 5.989124838379211724e-05 6.529751408379524946e-05 7.290223584277555346e-05
6.990000000000000000e+02 2.027103185653686523e+00 -4.162098693847656250e+01 1.100032939575612545e-03 -1.861441851360723376e-04 2.741666103247553110e-04 -3.401474968995898962e-04
7.000000000000000000e+02 4.736653327941894531e+00 -3.758538436889648438e+01 -1.109839417040348053e-03 -1.044131000526249409e-03 -6.461911252699792385e-04 -8.576593245379626751e-04
7.010000000000000000e+02 9.304528236389160156e-01 -3.864548110961914062e+01 1.618791371583938599e-03 7.175034261308610439e-04 7.008884567767381668e-04 2.681668265722692013e-04
7.020000000000000000e+02 8.868850469589233398e-01 -3.467069625854492188e+01 -1.533219707198441029e-03 7.598151569254696369e-04 -2.320213679922744632e-04 -3.241171943955123425e-04
7.030000000000000000e+02 8.570440411567687988e-01 -3.319632720947265625e+01 1.334523665718734264e-03 9.845795575529336929e-04 6.957309669815003872e-04 1.086490083253011107e-04
7.040000000000000000e+02 6.681326031684875488e-01 -2.899279403686523438e+01 -2.147169085219502449e-03 4.373084520921111107e-04 -5.129582132212817669e-04 -1.477835467085242271e-04
7.050000000000000000e+02 6.330503821372985840e-01 -2.759915161132812500e+01 2.010871656239032745e-03 2.519775880500674248e-04 6.788547616451978683e-04 3.609875275287777185e-04
7.060000000000000000e+02 6.486487388610839844e-01 -2.478948402404785156e+01 1.406952505931258202e-03 5.715159568353556097e-05 4.392312257550656796e-04 2.290556876687332988e-04
7.070000000000000000e+02 6.296869516372680664e-01 -2.619859123229980469e+01 -1.684352289885282516e-03 4.720470678876154125e-05 -4.911442520096898079e-04 -2.146618789993226528e-04
7.080000000000000000e+02 6.496750116348266602e-01 -2.196676063537597656e+01 1.000063959509134293e-03 1.122344019677257165e-05 3.033862158190459013e-04 8.278186578536406159e-05
7.090000000000000000e+02 6.404563784599304199e-01 -2.055140686035156250e+01 -9.173827711492776871e-04 -2.094295086862985045e-05 -2.814977196976542473e-04 -6.233256135601550341e-05
7.100000000000000000e+02 1.908427238464355469e+00 -2.048141479492187500e+01 1.008284627459943295e-03 -1.194406013382831588e-05 2.989021595567464828e-04 1.024234079523012042e-04
7.110000000000000000e+02 6.192795038223266602e-01 -1.632295608520507812e+01 7.797630969434976578e-04 6.744236543454462662e-06 2.359522040933370590e-04 2.317685357411392033e-05
7.120000000000000000e+02 5.908387303352355957e-01 -1.491721153259277344e+01 -7.550100563094019890e-04 -8.681140570843126625e-06 -2.291073615197092295e-04 -1.275045815418707207e-05
7.130000000000000000e+02 5.689010024070739746e-01 -1.351263618469238281e+01 7.257827091962099075e-04 -1.105825231206836179e-05 2.144173340639099479e-04 1.667717515374533832e-05
7.140000000000000000e+02 1.702241420745849609e+00 -1.349759960174560547e+01 -7.282131700776517391e-04 1.721465196169447154e-05 -2.132995577994734049e-04 -6.550987745868042111e-05
7.150000000000000000e+02 5.912318229675292969e-01 -9.292318344116210938e+00 -4.769619554281234741e-04 4.404173978400649503e-06 -1.417673338437452912e-04 -3.452023884165100753e-05
7.160000000000000000e+02 6.323848962783813477e-01 -7.861034393310546875e+00 3.723114787135273218e-04 -6.683975698251742870e-06 1.096882479032501578e-04 4.321909000282175839e-05
7.170000000000000000e+02 4.318259716033935547e+00 -2.997004270553588867e+00 2.102546886817435734e-06 8.020248787943273783e-05 2.469150967954192311e-05 7.977920904522761703e-05
7.180000000000000000e+02 4.478944778442382812e+00 -3.955561399459838867e+00 1.410214008501498029e-05 -2.627828962431522086e-06 3.442293291300302371e-06 -7.428514072671532631e-05
7.190000000000000000e+02 7.138861083984375000e+01 -3.878603363037109375e+01 -8.983824402093887329e-02 4.387201309204101562e+00 1.289209008216857910e+00 4.036233723163604736e-01
7.200000000000000000e+02 5.397156524658203125e+01 -3.800559997558593750e+01 -7.771549820899963379e-01 4.836823940277099609e+00 1.217900633811950684e+00 -3.044680953025817871e-01
7.210000000000000000e+02 3.428242492675781250e+01 -3.971795272827148438e+01 2.319041192531585693e-01 3.148631155490875244e-01 1.640301793813705444e-01 -4.264752496965229511e-04
7.220000000000000000e+02 1.525828933715820312e+01 -3.731126785278320312e+01 8.744376245886087418e-04 -1.648781262338161469e-02 -4.684012383222579956e-03 -1.710152253508567810e-02
7.230000000000000000e+02 7.572538757324218750e+01 4.057197952270507812e+01 4.222477227449417114e-02 9.542364120483398438e+00 2.875376701354980469e+00 3.314404487609863281e-01
7.240000000000000000e+02 7.802108764648437500e+01 4.172718811035156250e+01 5.043145418167114258e-01 1.104800128936767578e+01 3.465694904327392578e+00 -1.418515741825103760e-01
7.250000000000000000e+02 7.871243286132812500e+01 3.872455596923828125e+01 -6.252487748861312866e-02 1.157930088043212891e+01 3.455032587051391602e+00 -2.258028686046600342e-01
7.260000000000000000e+02 7.690231323242187500e+01 3.777407455444335938e+01 -2.628022730350494385e-01 1.020901298522949219e+01 2.983863115310668945e+00 1.101843565702438354e-01
7.270000000000000000e+02 7.949777221679687500e+01 3.467952346801757812e+01 -2.507115527987480164e-02 1.224560546875000000e+01 3.666160345077514648e+00 2.593540772795677185e-02
7.280000000000000000e+02 7.857658386230468750e+01 3.400299835205078125e+01 -8.407684415578842163e-02 1.127223873138427734e+01 3.356448650360107422e+00 1.900215744972229004e-01
7.290000000000000000e+02 7.951097106933593750e+01 3.351060485839843750e+01 -2.420111186802387238e-02 1.210244846343994141e+01 3.623474121093750000e+00 1.149904429912567139e-01
7.300000000000000000e+02 7.932339477539062500e+01 3.078233909606933594e+01 -2.508045174181461334e-02 1.154705047607421875e+01 3.456590890884399414e+00 1.998553872108459473e-01
7.310000000000000000e+02 7.812416076660156250e+01 2.811248207092285156e+01 -2.534616738557815552e-02 1.008864021301269531e+01 3.018988370895385742e+00 5.587311387062072754e-01
7.320000000000000000e+02 7.938115692138671875e+01 2.655857849121093750e+01 -7.259111735038459301e-04 1.032408905029296875e+01 3.097008943557739258e+00 2.422388792037963867e-01
7.330000000000000000e+02 7.697827148437500000e+01 2.546688842773437500e+01 6.034218147397041321e-02 9.110859870910644531e+00 2.751360654830932617e+00 7.406085729598999023e-01
7.340000000000000000e+02 7.937904357910156250e+01 2.515563964843750000e+01 9.817688725888729095e-03 9.884087562561035156e+00 2.968171596527099609e+00 2.325069159269332886e-01
7.350000000000000000e+02 7.934345245361328125e+01 2.093391227722167969e+01 -7.354137487709522247e-03 8.716563224792480469e+00 2.612762689590454102e+00 2.033128440380096436e-01
7.360000000000000000e+02 7.934938049316406250e+01 1.952486991882324219e+01 2.042020857334136963e-02 8.381182670593261719e+00 2.520480871200561523e+00 1.899791657924652100e-01
7.370000000000000000e+02 7.804363250732421875e+01 1.954267883300781250e+01 1.189326867461204529e-02 8.409684181213378906e+00 2.526473283767700195e+00 4.482487142086029053e-01
7.380000000000000000e+02 7.936585998535156250e+01 1.811509513854980469e+01 -5.910505540668964386e-03 8.064551353454589844e+00 2.417592048645019531e+00 1.765830367803573608e-01
7.390000000000000000e+02 7.940874481201171875e+01 1.391730308532714844e+01 -4.170596599578857422e-03 7.128991603851318359e+00 2.137446403503417969e+00 1.726215332746505737e-01
7.400000000000000000e+02 7.941069793701171875e+01 1.252639102935791016e+01 -6.602148059755563736e-04 6.780411720275878906e+00 2.033925533294677734e+00 1.802399307489395142e-01
7.410000000000000000e+02 7.940660095214843750e+01 1.113627147674560547e+01 -1.773961633443832397e-02 6.390732288360595703e+00 1.911897897720336914e+00 2.035703361034393311e-01
7.420000000000000000e+02 7.936972808837890625e+01 6.952215671539306641e+00 2.020659483969211578e-02 5.086259365081787109e+00 1.531939864158630371e+00 2.084341794252395630e-01
7.430000000000000000e+02 7.936601257324218750e+01 5.548648357391357422e+00 7.571018300950527191e-03 4.693120956420898438e+00 1.410207629203796387e+00 1.786314249038696289e-01
7.440000000000000000e+02 7.937171936035156250e+01 4.142173290252685547e+00 3.301205113530158997e-02 4.370593070983886719e+00 1.321081519126892090e+00 1.362350881099700928e-01
7.450000000000000000e+02 7.941440582275390625e+01 -3.066442906856536865e-02 2.586932852864265442e-02 4.101016521453857422e+00 1.238065719604492188e+00 -4.247499257326126099e-02
7.460000000000000000e+02 7.942583465576171875e+01 -1.412364363670349121e+00 1.231383997946977615e-02 4.266493797302246094e+00 1.283642292022705078e+00 -8.894434571266174316e-02
7.470000000000000000e+02 7.826547241210937500e+01 -4.183968544006347656e+00 1.936225034296512604e-02 5.566418170928955078e+00 1.675734162330627441e+00 -3.731084167957305908e-01
7.480000000000000000e+02 7.941970825195312500e+01 -4.182783126831054688e+00 2.445412334054708481e-03 4.880161285400390625e+00 1.464781999588012695e+00 -1.551570147275924683e-01
7.490000000000000000e+02 7.938442230224609375e+01 -8.348254203796386719e+00 -1.294696936383843422e-03 6.024688720703125000e+00 1.807018160820007324e+00 -1.742239892482757568e-01
7.500000000000000000e+02 7.812337493896484375e+01 -1.108100986480712891e+01 -1.882728934288024902e-02 6.705503463745117188e+00 2.006002902984619141e+00 -4.227120876312255859e-01
7.510000000000000000e+02 7.937716674804687500e+01 -1.112341690063476562e+01 -2.880984917283058167e-03 6.766162395477294922e+00 2.028984308242797852e+00 -1.630203574895858765e-01
7.520000000000000000e+02 7.936800384521484375e+01 -1.530500030517578125e+01 -2.521375752985477448e-02 7.635904312133789062e+00 2.283207178115844727e+00 -8.634552359580993652e-02
7.530000000000000000e+02 7.813694000244140625e+01 -1.813425636291503906e+01 -1.463173180818557739e-01 7.449250221252441406e+00 2.190879821777343750e+00 6.816909462213516235e-02
7.540000000000000000e+02 7.938192749023437500e+01 -1.811272621154785156e+01 -3.816387429833412170e-02 7.764250755310058594e+00 2.317826032638549805e+00 3.220159932971000671e-02
7.550000000000000000e+02 7.948272705078125000e+01 -2.359019851684570312e+01 -2.327061956748366356e-03 6.297065734863281250e+00 1.888421535491943359e+00 2.019204199314117432e-01
7.560000000000000000e+02 7.686035919189453125e+01 -2.749133491516113281e+01 5.800775289535522461e-01 7.068220615386962891e+00 2.294489622116088867e+00 -1.602294445037841797e-01
7.570000000000000000e+02 7.942596435546875000e+01 -2.495233535766601562e+01 4.961501434445381165e-02 5.880039215087890625e+00 1.778896212577819824e+00 1.295003443956375122e-01
7.580000000000000000e+02 7.936622619628906250e+01 -2.912021827697753906e+01 7.071864604949951172e-02 6.108948707580566406e+00 1.853900194168090820e+00 -1.952102929353713989e-01
7.590000000000000000e+02 7.812889099121093750e+01 -3.169913864135742188e+01 -3.223849460482597351e-02 7.092094421386718750e+00 2.117956638336181641e+00 -5.551885366439819336e-01
7.600000000000000000e+02 7.937205505371093750e+01 -3.193162918090820312e+01 2.973783947527408600e-02 7.031389236450195312e+00 2.118338108062744141e+00 -2.245026975870132446e-01
7.610000000000000000e+02 7.924840545654296875e+01 -3.605825805664062500e+01 -7.789216190576553345e-02 8.049740791320800781e+00 2.391554594039916992e+00 -7.509448379278182983e-02
7.620000000000000000e+02 7.913718414306640625e+01 -3.740167999267578125e+01 -1.923294737935066223e-02 8.088550567626953125e+00 2.420795202255249023e+00 -3.833962604403495789e-03
7.630000000000000000e+02 7.898265075683593750e+01 -3.875198745727539062e+01 -5.242409184575080872e-03 8.069631576538085938e+00 2.419316768646240234e+00 1.027512364089488983e-02
7.640000000000000000e+02 5.310261249542236328e+00 4.017020797729492188e+01 -4.501114413142204285e-02 -1.315672159194946289e+00 -4.082050025463104248e-01 1.964152418076992035e-02
7.650000000000000000e+02 6.937002563476562500e+01 3.838719940185546875e+01 -9.300873428583145142e-02 3.354921579360961914e+00 9.785738587379455566e-01 -1.323338299989700317e-01
7.660000000000000000e+02 3.825968801975250244e-01 2.174557924270629883e+00 -2.808839082717895508e-03 1.734906993806362152e-02 4.362069536000490189e-03 1.745089073665440083e-03
7.670000000000000000e+02 2.690146446228027344e+00 2.926793098449707031e+00 -1.100814789533615112e-01 -1.086586862802505493e-01 -6.562204658985137939e-02 1.317215263843536377e-01
7.680000000000000000e+02 1.756762266159057617e+00 6.538728713989257812e+00 -2.097181044518947601e-02 -4.205269813537597656e-01 -1.324496418237686157e-01 2.180898189544677734e-01
7.690000000000000000e+02 5.732342004776000977e-01 9.294875144958496094e+00 -8.280949550680816174e-04 -7.432892918586730957e-01 -2.232352197170257568e-01 8.695632964372634888e-02
7.700000000000000000e+02 5.877549052238464355e-01 1.210364055633544922e+01 2.679232275113463402e-04 -1.154861807823181152e+00 -3.463781774044036865e-01 7.785637676715850830e-02
7.710000000000000000e+02 1.760304331779479980e+00 1.210083198547363281e+01 1.628235913813114166e-02 -1.091683864593505859e+00 -3.226204514503479004e-01 2.241619378328323364e-01
7.720000000000000000e+02 6.184429526329040527e-01 1.633133697509765625e+01 6.215760018676519394e-03 -1.636240482330322266e+00 -4.890074133872985840e-01 5.396368354558944702e-02
7.730000000000000000e+02 6.278688311576843262e-01 1.774370193481445312e+01 2.149302046746015549e-03 -1.752771377563476562e+00 -5.251865983009338379e-01 4.466646164655685425e-02
7.740000000000000000e+02 6.592340469360351562e-01 2.198844909667968750e+01 5.192507524043321609e-03 -1.978451490402221680e+00 -5.919777154922485352e-01 2.056427672505378723e-02
7.750000000000000000e+02 6.681730151176452637e-01 2.340268135070800781e+01 1.243773731403052807e-03 -2.019042968750000000e+00 -6.053397059440612793e-01 1.374361012130975723e-02
7.760000000000000000e+02 6.762136220932006836e-01 2.481442070007324219e+01 4.137523472309112549e-03 -2.045534133911132812e+00 -6.124190092086791992e-01 8.136082440614700317e-03
7.770000000000000000e+02 6.999401450157165527e-01 2.903823089599609375e+01 -4.769256338477134705e-04 -2.063075542449951172e+00 -6.190657615661621094e-01 -4.168531857430934906e-03
7.780000000000000000e+02 7.051657438278198242e-01 3.044526290893554688e+01 4.333388525992631912e-03 -2.052657127380371094e+00 -6.144971251487731934e-01 -8.179110474884510040e-03
7.790000000000000000e+02 2.121848344802856445e+00 3.037306594848632812e+01 6.179777905344963074e-03 -1.820954680442810059e+00 -5.444324612617492676e-01 -1.559792365878820419e-02
7.800000000000000000e+02 7.042776942253112793e-01 3.184797096252441406e+01 -1.756378100253641605e-03 -2.036096811294555664e+00 -6.113559007644653320e-01 -1.051263231784105301e-02
7.810000000000000000e+02 7.342293858528137207e-01 3.600277709960937500e+01 -4.789023660123348236e-03 -1.951690554618835449e+00 -5.869438648223876953e-01 -1.981670595705509186e-02
7.820000000000000000e+02 3.667865753173828125e+00 3.668487167358398438e+01 1.728225499391555786e-02 -1.586846828460693359e+00 -4.708693623542785645e-01 -5.312418565154075623e-02
7.830000000000000000e+02 1.019081592559814453e+00 3.868569183349609375e+01 4.218567337375134230e-04 -1.846677422523498535e+00 -5.538766980171203613e-01 -3.779288753867149353e-02
7.840000000000000000e+02 1.402992486953735352e+00 4.004247283935546875e+01 1.571341790258884430e-02 -1.788884401321411133e+00 -5.319512486457824707e-01 -5.195677652955055237e-02
7.850000000000000000e+02 1.001189231872558594e+01 1.954424142837524414e+00 -1.028648495674133301e+00 -6.378206610679626465e-01 -4.999407529830932617e-01 8.749436140060424805e-01
7.860000000000000000e+02 9.208999633789062500e+00 1.892898201942443848e+00 -9.350623488426208496e-01 -4.682877361774444580e-01 -4.210050106048583984e-01 7.928003072738647461e-01
7.870000000000000000e+02 8.461835861206054688e+00 1.863889217376708984e+00 -9.080089330673217773e-01 -2.850076854228973389e-01 -3.579049706459045410e-01 6.766974329948425293e-01
7.880000000000000000e+02 7.730862617492675781e+00 2.549722671508789062e+00 -6.750581860542297363e-01 -2.956902682781219482e-01 -2.912245392799377441e-01 6.509500741958618164e-01
7.890000000000000000e+02 6.996241092681884766e+00 1.851602196693420410e+00 -6.025590896606445312e-01 -1.423978805541992188e-01 -2.234870791435241699e-01 4.232330024242401123e-01
7.900000000000000000e+02 4.794392585754394531e+00 1.880276799201965332e+00 -2.703388929367065430e-01 -7.585624605417251587e-02 -1.038585454225540161e-01 2.111070603132247925e-01
7.910000000000000000e+02 4.058637142181396484e+00 1.900930047035217285e+00 -1.921904683113098145e-01 -7.499531656503677368e-02 -8.015573769807815552e-02 1.596225500106811523e-01
7.920000000000000000e+02 3.327748537063598633e+00 1.932897806167602539e+00 -1.364230662584304810e-01 -6.106197088956832886e-02 -5.924551188945770264e-02 1.112653315067291260e-01
7.930000000000000000e+02 1.871012687683105469e+00 2.011533260345458984e+00 -4.770527034997940063e-02 -5.739503726363182068e-02 -3.153008967638015747e-02 4.503780603408813477e-02
7.940000000000000000e+02 1.133483529090881348e+00 2.088641166687011719e+00 -1.689804904162883759e-02 -3.257325291633605957e-02 -1.484139077365398407e-02 1.099038496613502502e-02
7.950000000000000000e+02 1.320959663391113281e+01 6.881680488586425781e-01 -1.658598423004150391e+00 -1.060312151908874512e+00 -8.156731724739074707e-01 1.258452892303466797e+00
7.960000000000000000e+02 1.541256713867187500e+01 1.152487754821777344e+00 -1.177599310874938965e+00 -1.381352663040161133e+00 -7.676855921745300293e-01 1.241982817649841309e+00
7.970000000000000000e+02 1.604911422729492188e+01 -8.842282891273498535e-01 -2.002765655517578125e+00 -1.533747792243957520e+00 -1.060953974723815918e+00 1.586571812629699707e+00
7.980000000000000000e+02 1.801683425903320312e+01 -2.291761398315429688e+00 -2.125219821929931641e+00 -1.857944011688232422e+00 -1.194949150085449219e+00 1.761868834495544434e+00
7.990000000000000000e+02 2.099233055114746094e+01 -5.011475086212158203e+00 -2.000935554504394531e+00 -2.103950262069702148e+00 -1.231465697288513184e+00 1.827327251434326172e+00
8.000000000000000000e+02 2.153093719482421875e+01 -5.613011837005615234e+00 -1.945115566253662109e+00 -2.098643064498901367e+00 -1.213127613067626953e+00 1.801879405975341797e+00
8.010000000000000000e+02 2.253005790710449219e+01 -6.868733406066894531e+00 -1.788015842437744141e+00 -2.039213657379150391e+00 -1.148168921470642090e+00 1.745223999023437500e+00
8.020000000000000000e+02 2.301840782165527344e+01 -7.505862712860107422e+00 -1.685765027999877930e+00 -1.962343096733093262e+00 -1.094432353973388672e+00 1.689851403236389160e+00
8.030000000000000000e+02 2.347533988952636719e+01 -8.164292335510253906e+00 -1.601047039031982422e+00 -1.876814603805541992e+00 -1.043358445167541504e+00 1.626361608505249023e+00
8.040000000000000000e+02 2.431158256530761719e+01 -9.517000198364257812e+00 -1.398532629013061523e+00 -1.656115293502807617e+00 -9.163943529129028320e-01 1.507843971252441406e+00
8.050000000000000000e+02 2.575289726257324219e+01 -1.221790599822998047e+01 -1.014050841331481934e+00 -1.020467877388000488e+00 -6.103556156158447266e-01 1.263711810111999512e+00
8.060000000000000000e+02 2.633755111694335938e+01 -1.179696464538574219e+01 -1.114070057868957520e+00 -7.701029181480407715e-01 -5.652518868446350098e-01 1.275704503059387207e+00
8.070000000000000000e+02 2.641339492797851562e+01 -1.356285667419433594e+01 -8.350711464881896973e-01 -7.110742926597595215e-01 -4.638436138629913330e-01 1.082766294479370117e+00
8.080000000000000000e+02 2.675004959106445312e+01 -1.424087333679199219e+01 -7.871696949005126953e-01 -5.405498147010803223e-01 -3.983158469200134277e-01 1.021865606307983398e+00
8.090000000000000000e+02 2.737528991699218750e+01 -1.563529872894287109e+01 -8.637334108352661133e-01 -3.622127771377563477e-01 -3.677838444709777832e-01 7.910520434379577637e-01
8.100000000000000000e+02 3.034912681579589844e+01 -1.737070083618164062e+01 -1.565189361572265625e+00 -1.052855402231216431e-01 -5.011425018310546875e-01 5.695205330848693848e-01
8.110000000000000000e+02 3.155091094970703125e+01 -1.770070266723632812e+01 -1.784236669540405273e+00 -2.522867359220981598e-02 -5.428395867347717285e-01 4.302837252616882324e-01
8.120000000000000000e+02 3.674386978149414062e+01 -1.813023567199707031e+01 -3.689558744430541992e+00 -1.775168180465698242e-01 -1.160122752189636230e+00 4.597090482711791992e-01
8.130000000000000000e+02 4.008470535278320312e+01 -1.936195373535156250e+01 -1.094614982604980469e+00 -3.952777385711669922e-01 -4.469678103923797607e-01 5.263600945472717285e-01
8.140000000000000000e+02 4.393022918701171875e+01 -2.312606239318847656e+01 9.818326830863952637e-01 1.891805410385131836e+00 8.620914220809936523e-01 1.340884685516357422e+00
8.150000000000000000e+02 4.533874130249023438e+01 -2.264372062683105469e+01 1.269527554512023926e+00 5.955786228179931641e+00 2.167594194412231445e+00 3.289955139160156250e+00
8.160000000000000000e+02 4.491352844238281250e+01 -2.277248573303222656e+01 1.223978281021118164e+00 4.327910900115966797e+00 1.665566802024841309e+00 2.691674709320068359e+00
8.170000000000000000e+02 4.453205871582031250e+01 -2.288006210327148438e+01 1.200583219528198242e+00 2.999099254608154297e+00 1.259904742240905762e+00 2.087544918060302734e+00
8.180000000000000000e+02 4.796750259399414062e+01 -2.287762832641601562e+01 8.886909484863281250e-01 1.143402004241943359e+01 3.696813344955444336e+00 -2.460600852966308594e+00
8.190000000000000000e+02 4.567117691040039062e+01 -1.907374382019042969e+01 2.814393997192382812e+00 9.649211883544921875e+00 3.739081859588623047e+00 -6.661731719970703125e+00
8.200000000000000000e+02 4.089928436279296875e+01 -1.940408897399902344e+01 -6.333013176918029785e-01 1.951198726892471313e-01 -1.314544379711151123e-01 8.546286076307296753e-02
8.210000000000000000e+02 4.390664672851562500e+01 -1.961673355102539062e+01 2.197228908538818359e+00 8.889645934104919434e-01 9.258580803871154785e-01 -1.616031408309936523e+00
8.220000000000000000e+02 4.449222946166992188e+01 -1.936371803283691406e+01 3.409343242645263672e+00 2.319842338562011719e+00 1.718755722045898438e+00 -3.446502447128295898e+00
8.230000000000000000e+02 4.361324691772460938e+01 -1.943334960937500000e+01 1.922449707984924316e+00 1.192468285560607910e+00 9.344754219055175781e-01 -1.564297199249267578e+00
8.240000000000000000e+02 4.492403411865234375e+01 -1.932431793212890625e+01 4.058484554290771484e+00 3.753714084625244141e+00 2.343659400939941406e+00 -4.760531425476074219e+00
8.250000000000000000e+02 4.544954681396484375e+01 -1.884912872314453125e+01 2.507285594940185547e+00 8.447532653808593750e+00 3.286445379257202148e+00 -6.114136219024658203e+00
8.260000000000000000e+02 4.496644592285156250e+01 -1.907949447631835938e+01 3.457409858703613281e+00 4.825627326965332031e+00 2.484911203384399414e+00 -5.051767826080322266e+00
8.270000000000000000e+02 4.241833496093750000e+01 -1.990829277038574219e+01 6.727081537246704102e-02 5.750044584274291992e-01 1.926825791597366333e-01 -1.534086614847183228e-01
8.280000000000000000e+02 3.915491867065429688e+01 -1.899595069885253906e+01 -1.872732162475585938e+00 -6.849447488784790039e-01 -7.673030495643615723e-01 9.861806631088256836e-01
8.290000000000000000e+02 1.623688507080078125e+01 -5.572360992431640625e+00 1.077947890735231340e-04 8.996486030810046941e-06 3.503738480503670871e-05 -2.849246811820194125e-06
8.300000000000000000e+02 1.568577861785888672e+01 -5.155169486999511719e+00 -9.605687228031456470e-05 -2.129352833435405046e-05 -3.520512109389528632e-05 -1.407837771694175899e-06
8.310000000000000000e+02 1.397596931457519531e+01 -3.970723390579223633e+00 9.209977724822238088e-05 3.263570761191658676e-05 3.742064654943533242e-05 1.983236325031612068e-05
8.320000000000000000e+02 1.567338657379150391e+01 -6.012752532958984375e+00 -1.246111060027033091e-04 -1.774997508618980646e-05 -4.270832505426369607e-05 2.170904917875304818e-05
8.330000000000000000e+02 1.821726417541503906e+01 -7.502740859985351562e+00 1.131676617660559714e-04 -2.028837116085924208e-06 3.334164648549631238e-05 2.101080781358177774e-06
8.340000000000000000e+02 1.695335769653320312e+01 -1.101371383666992188e+01 1.780575839802622795e-04 4.088412970304489136e-05 6.568251410499215126e-05 5.655698987538926303e-05
8.350000000000000000e+02 1.342631340026855469e+01 -4.491286754608154297e+00 -1.154476703959517181e-04 -3.626660327427089214e-05 -4.551428355625830591e-05 -1.573740701132919639e-05
8.360000000000000000e+02 1.147259521484375000e+01 -2.620520114898681641e+00 8.604826871305704117e-05 7.255783566506579518e-05 4.758183058584108949e-05 2.534814484533853829e-05
8.370000000000000000e+02 1.223845577239990234e+01 -3.831206083297729492e+00 -1.102107344195246696e-04 -5.512764619197696447e-05 -4.960151272825896740e-05 -1.580334537720773369e-05
8.380000000000000000e+02 1.991221046447753906e+01 -1.043259811401367188e+01 1.461342326365411282e-04 -4.015035301563329995e-05 3.179516716045327485e-05 8.563437586417421699e-05
8.390000000000000000e+02 1.911208534240722656e+01 -8.572746276855468750e+00 1.404660288244485855e-04 -1.198228915200161282e-06 4.178033850621432066e-05 -6.893092177051585168e-07
8.400000000000000000e+02 1.957402801513671875e+01 -9.113432884216308594e+00 -1.572560577187687159e-04 1.193665411847177893e-05 -4.359582089819014072e-05 -1.291478474740870297e-05
8.410000000000000000e+02 1.843461799621582031e+01 -9.013737678527832031e+00 -1.728898932924494147e-04 1.539663026051130146e-05 -4.724798054667189717e-05 2.135779504897072911e-05
8.420000000000000000e+02 1.790292930603027344e+01 -1.193260097503662109e+01 2.123165722878184170e-05 9.573860734235495329e-05 3.509108137222938240e-05 5.184115070733241737e-05
8.430000000000000000e+02 2.045020103454589844e+01 -1.160293388366699219e+01 7.125826959963887930e-05 1.131253011408261955e-04 5.531507122213952243e-05 9.607741230865940452e-05
8.440000000000000000e+02 1.949247169494628906e+01 -1.113815593719482422e+01 9.511569078313186765e-05 -7.751982775516808033e-05 5.278758635540725663e-06 1.215267002407927066e-05
8.450000000000000000e+02 2.174245834350585938e+01 -1.346829128265380859e+01 -9.103946649702265859e-05 -4.558780517527338816e-07 -2.744860466918908060e-05 3.893835014423530083e-07
8.460000000000000000e+02 8.408823966979980469e+00 3.272672176361083984e+00 -6.274620294570922852e-01 -4.839062690734863281e-01 -3.334104716777801514e-01 8.087472319602966309e-01
8.470000000000000000e+02 8.445528030395507812e+00 2.574687480926513672e+00 -7.179060578346252441e-01 -4.091885089874267578e-01 -3.381283581256866455e-01 7.500610351562500000e-01
8.480000000000000000e+02 1.724691271781921387e+00 7.949593067169189453e+00 -1.098035089671611786e-02 -5.894454717636108398e-01 -1.801277399063110352e-01 2.435428947210311890e-01
8.490000000000000000e+02 5.529778957366943359e+00 1.867121577262878418e+00 -3.641539216041564941e-01 -9.100022912025451660e-02 -1.365462392568588257e-01 2.720924615859985352e-01
8.500000000000000000e+02 9.170366287231445312e+00 2.638735055923461914e+00 -8.007590770721435547e-01 -5.264313220977783203e-01 -3.981571197509765625e-01 8.398360013961791992e-01
8.510000000000000000e+02 7.728307247161865234e+00 1.852625489234924316e+00 -7.395537495613098145e-01 -1.719294935464859009e-01 -2.734449803829193115e-01 5.111579298973083496e-01
8.520000000000000000e+02 7.012984275817871094e+00 2.550239562988281250e+00 -5.586614012718200684e-01 -2.192327082157135010e-01 -2.333682328462600708e-01 5.284477472305297852e-01
8.530000000000000000e+02 7.724905490875244141e+00 3.230985879898071289e+00 -5.482721328735351562e-01 -4.010091125965118408e-01 -2.847843766212463379e-01 7.164639830589294434e-01
8.540000000000000000e+02 1.915645003318786621e+00 3.906682491302490234e+00 -5.634684860706329346e-02 -1.704363524913787842e-01 -6.803496181964874268e-02 1.410210579633712769e-01
8.550000000000000000e+02 4.198424339294433594e+00 3.443794965744018555e+00 -2.265345901250839233e-01 -1.989494413137435913e-01 -1.276452094316482544e-01 3.131804764270782471e-01
8.560000000000000000e+02 1.304196953773498535e+00 3.242879629135131836e+00 -3.487145528197288513e-02 -1.045530885457992554e-01 -4.182736203074455261e-02 7.027156651020050049e-02
8.570000000000000000e+02 2.602565765380859375e+00 1.969971776008605957e+00 -9.164273738861083984e-02 -5.847781896591186523e-02 -4.503616690635681152e-02 7.937177270650863647e-02
8.580000000000000000e+02 2.608143424987792969e+01 -1.288932991027832031e+01 -9.022810459136962891e-01 -8.882359862327575684e-01 -5.371550917625427246e-01 1.186782717704772949e+00
8.590000000000000000e+02 2.668279838562011719e+01 -1.246132183074951172e+01 -1.049540281295776367e+00 -6.520488858222961426e-01 -5.104767680168151855e-01 1.229993343353271484e+00
8.600000000000000000e+02 2.709068679809570312e+01 -1.493137168884277344e+01 -7.992685437202453613e-01 -4.744453430175781250e-01 -3.821141719818115234e-01 9.018654823303222656e-01
8.610000000000000000e+02 2.599286079406738281e+01 -1.113039875030517578e+01 -1.198682665824890137e+00 -8.947854042053222656e-01 -6.280404329299926758e-01 1.315618276596069336e+00
8.620000000000000000e+02 2.509110832214355469e+01 -1.087261009216308594e+01 -1.196542620658874512e+00 -1.338955163955688477e+00 -7.606493234634399414e-01 1.359976410865783691e+00
8.630000000000000000e+02 2.783894348144531250e+01 -1.153303527832031250e+01 -1.173710823059082031e+00 -2.763349115848541260e-01 -4.350137412548065186e-01 1.215510129928588867e+00
8.640000000000000000e+02 2.703749275207519531e+01 -1.312833499908447266e+01 -9.828022122383117676e-01 -5.405752658843994141e-01 -4.570132493972778320e-01 1.188963294029235840e+00
8.650000000000000000e+02 2.563691711425781250e+01 -1.045931529998779297e+01 -1.277859807014465332e+00 -1.011520743370056152e+00 -6.868141889572143555e-01 1.347872853279113770e+00
8.660000000000000000e+02 3.091495513916015625e+01 -1.636640930175781250e+01 -1.561613321304321289e+00 -1.567873358726501465e-02 -4.731876254081726074e-01 6.678120493888854980e-01
8.670000000000000000e+02 2.779736137390136719e+01 -1.450262832641601562e+01 -9.467840790748596191e-01 -3.770148456096649170e-01 -3.971396684646606445e-01 1.014447569847106934e+00
8.680000000000000000e+02 4.515798950195312500e+01 -1.887683868408203125e+01 2.905513286590576172e+00 6.693352699279785156e+00 2.879659891128540039e+00 -5.430962562561035156e+00
8.690000000000000000e+02 4.851606750488281250e+01 -2.278741455078125000e+01 2.131654500961303711e+00 1.049511432647705078e+01 3.788030624389648438e+00 -3.571143865585327148e+00
8.700000000000000000e+02 4.710527420043945312e+01 -2.222777557373046875e+01 1.161992907524108887e+00 1.476787471771240234e+01 4.778960227966308594e+00 -1.918408393859863281e+00
8.710000000000000000e+02 4.792493820190429688e+01 -1.810267448425292969e+01 -1.766920089721679688e-01 1.140636730194091797e+01 3.368902683258056641e+00 -5.228204131126403809e-01
8.720000000000000000e+02 4.811382675170898438e+01 -2.040540885925292969e+01 8.052080154418945312e+00 1.079572296142578125e+01 5.654340744018554688e+00 -1.477464079856872559e+00
8.730000000000000000e+02 4.792187118530273438e+01 -2.151669502258300781e+01 5.758453369140625000e+00 1.234791374206542969e+01 5.431910037994384766e+00 -4.154630661010742188e+00
8.740000000000000000e+02 5.285503768920898438e+01 -1.585356903076171875e+01 -3.666532993316650391e+00 1.014018654823303223e+00 -7.957543134689331055e-01 1.060792207717895508e+00
8.750000000000000000e+02 4.783157348632812500e+01 -1.895613098144531250e+01 2.707253217697143555e+00 1.263610553741455078e+01 4.603007793426513672e+00 2.280943691730499268e-01
8.760000000000000000e+02 4.737551116943359375e+01 -2.300451660156250000e+01 4.043746292591094971e-01 1.177409172058105469e+01 3.653539896011352539e+00 -1.399850845336914062e+00
8.770000000000000000e+02 4.913201904296875000e+01 -2.052173805236816406e+01 5.729475021362304688e+00 7.757488250732421875e+00 4.046089172363281250e+00 -1.569199204444885254e+00
8.780000000000000000e+02 2.525697898864746094e+01 -9.780918121337890625e+00 -1.361325144767761230e+00 -1.153473496437072754e+00 -7.544395923614501953e-01 1.382596969604492188e+00
8.790000000000000000e+02 2.471929931640625000e+01 -1.019545459747314453e+01 -1.287651538848876953e+00 -1.493722438812255859e+00 -8.344122171401977539e-01 1.437351107597351074e+00
8.800000000000000000e+02 2.485684967041015625e+01 -9.100054740905761719e+00 -1.437342882156372070e+00 -1.265546083450317383e+00 -8.108667135238647461e-01 1.418164253234863281e+00
8.810000000000000000e+02 2.444223213195800781e+01 -8.420304298400878906e+00 -1.515620946884155273e+00 -1.386747241020202637e+00 -8.707104325294494629e-01 1.447346091270446777e+00
8.820000000000000000e+02 2.400505638122558594e+01 -7.740768432617187500e+00 -1.579860091209411621e+00 -1.484272241592407227e+00 -9.192396998405456543e-01 1.479852199554443359e+00
8.830000000000000000e+02 2.305298614501953125e+01 -6.413708209991455078e+00 -1.701108217239379883e+00 -1.653577685356140137e+00 -1.006405711174011230e+00 1.533239364624023438e+00
8.840000000000000000e+02 2.147017669677734375e+01 -4.526031017303466797e+00 -1.818937897682189941e+00 -1.812223792076110840e+00 -1.089348554611206055e+00 1.574920296669006348e+00
8.850000000000000000e+02 2.254986381530761719e+01 -5.772504806518554688e+00 -1.751521825790405273e+00 -1.723288655281066895e+00 -1.042443156242370605e+00 1.549181103706359863e+00
8.860000000000000000e+02 2.357456016540527344e+01 -5.948339939117431641e+00 -1.603404402732849121e+00 -1.325799703598022461e+00 -8.787612318992614746e-01 1.349794507026672363e+00
8.870000000000000000e+02 1.683183670043945312e+01 2.825489342212677002e-01 -1.310910224914550781e+00 -1.513800263404846191e+00 -8.474131226539611816e-01 1.295592546463012695e+00
8.880000000000000000e+02 1.243718910217285156e+01 1.041278243064880371e+00 -1.565666437149047852e+00 -9.416920542716979980e-01 -7.522075772285461426e-01 1.150698065757751465e+00
8.890000000000000000e+02 1.465725326538085938e+01 -7.716237753629684448e-02 -1.868649721145629883e+00 -1.291611790657043457e+00 -9.480784535408020020e-01 1.446380615234375000e+00
8.900000000000000000e+02 1.535507965087890625e+01 -4.765415787696838379e-01 -1.945061922073364258e+00 -1.416351914405822754e+00 -1.008424162864685059e+00 1.517754197120666504e+00
8.910000000000000000e+02 2.042416763305664062e+01 -4.437830448150634766e+00 -2.065965890884399414e+00 -2.096982002258300781e+00 -1.248884439468383789e+00 1.844256401062011719e+00
8.920000000000000000e+02 1.865558433532714844e+01 -2.785413980484008789e+00 -2.126487016677856445e+00 -1.935811281204223633e+00 -1.218689441680908203e+00 1.788707971572875977e+00
8.930000000000000000e+02 2.031144332885742188e+01 -3.359155893325805664e+00 -1.840088367462158203e+00 -1.836463928222656250e+00 -1.102965712547302246e+00 1.575590014457702637e+00
8.940000000000000000e+02 2.077274513244628906e+01 -2.831461668014526367e+00 -1.594527125358581543e+00 -1.616744756698608398e+00 -9.633815884590148926e-01 1.357903242111206055e+00
8.950000000000000000e+02 2.202379798889160156e+01 -5.141489505767822266e+00 -1.785830974578857422e+00 -1.771670579910278320e+00 -1.067250490188598633e+00 1.565883398056030273e+00
8.960000000000000000e+02 1.844093894958496094e+01 -1.742847561836242676e+00 -1.784960746765136719e+00 -1.748479366302490234e+00 -1.060032010078430176e+00 1.535615682601928711e+00
8.970000000000000000e+02 1.778879165649414062e+01 -1.245909810066223145e+00 -1.745363712310791016e+00 -1.691514968872070312e+00 -1.031063556671142578e+00 1.506813287734985352e+00
8.980000000000000000e+02 1.672282981872558594e+01 -1.328391790390014648e+00 -2.063244581222534180e+00 -1.640166640281677246e+00 -1.111023426055908203e+00 1.650499343872070312e+00
8.990000000000000000e+02 1.970706176757812500e+01 -2.798718690872192383e+00 -1.834055185317993164e+00 -1.822099328041076660e+00 -1.096846342086791992e+00 1.569068908691406250e+00
9.000000000000000000e+02 1.172680091857910156e+01 -4.388000965118408203e+00 1.275198737857863307e-04 6.690048758173361421e-05 5.832610986544750631e-05 -4.510989128903020173e-06
9.010000000000000000e+02 6.018229484558105469e+00 -1.866049766540527344e+00 -2.663482700882013887e-05 -1.376607251586392522e-04 -4.928866837872192264e-05 1.741999085425049998e-06
9.020000000000000000e+02 7.391607761383056641e+00 -2.641176939010620117e+00 1.350359962088987231e-04 7.346604979829862714e-05 6.255061452975496650e-05 1.926041477418038994e-05
9.030000000000000000e+02 6.648066520690917969e+00 -2.563134431838989258e+00 -1.406621595378965139e-04 -1.552906178403645754e-04 -8.878583321347832680e-05 5.216188219492323697e-05
9.040000000000000000e+02 8.216087341308593750e+00 -2.609738826751708984e+00 -9.012896043714135885e-05 -1.068064375431276858e-04 -5.908061939408071339e-05 -3.241832746425643563e-05
9.050000000000000000e+02 6.490977764129638672e+00 -3.663283586502075195e+00 -6.375279554049484432e-06 -5.954333755653351545e-05 -1.977558531507384032e-05 6.142089114291593432e-05
9.060000000000000000e+02 1.753774762153625488e+00 -9.357049942016601562e+00 5.275629810057580471e-04 -1.469610288040712476e-05 1.538600627100095153e-04 5.475302532431669533e-05
9.070000000000000000e+02 1.942209959030151367e+00 -1.968592524528503418e+00 1.018286711769178510e-04 6.695824413327500224e-05 5.063607386546209455e-05 -5.329394116415642202e-05
9.080000000000000000e+02 6.914225220680236816e-01 -6.401012897491455078e+00 -2.830993907991796732e-04 -6.191417924128472805e-06 -8.678723679622635245e-05 -4.617633021553047001e-05
9.090000000000000000e+02 1.222566366195678711e+00 -1.988808512687683105e+00 3.580572229111567140e-05 -1.123622059822082520e-04 -2.296694401593413204e-05 -2.589966243249364197e-05
9.100000000000000000e+02 7.259057760238647461e-01 -4.889023303985595703e+00 2.266161609441041946e-04 4.755139798362506554e-06 6.941139145055785775e-05 4.520969378063455224e-05
9.110000000000000000e+02 5.872854590415954590e-01 -3.452898025512695312e+00 -2.098163677146658301e-04 4.090336915396619588e-06 -6.171780842123553157e-05 -8.228563092416152358e-05
9.120000000000000000e+02 1.207924652099609375e+01 2.150427579879760742e+00 -1.053710103034973145e+00 -9.935907721519470215e-01 -6.141902208328247070e-01 1.085009455680847168e+00
9.130000000000000000e+02 1.357198619842529297e+01 1.335430145263671875e+00 -1.329739332199096680e+00 -1.151385903358459473e+00 -7.443375587463378906e-01 1.209577798843383789e+00
9.140000000000000000e+02 1.431095027923583984e+01 9.408741593360900879e-01 -1.415273547172546387e+00 -1.257566571235656738e+00 -8.018520474433898926e-01 1.282973289489746094e+00
9.150000000000000000e+02 1.179640007019042969e+01 -5.253611087799072266e+00 1.871870917966589332e-04 2.596202830318361521e-05 6.394473894033581018e-05 -6.836751708760857582e-06
9.160000000000000000e+02 1.099570369720458984e+01 -3.211174249649047852e+00 -1.107793941628187895e-04 -7.405121141346171498e-05 -5.544918167288415134e-05 -7.335523150686640292e-06
9.170000000000000000e+02 4.227056503295898438e+01 -2.595832443237304688e+01 3.634138777852058411e-02 1.443561434745788574e+00 4.439708590507507324e-01 4.074079096317291260e-01
9.180000000000000000e+02 4.318751525878906250e+01 -2.626722145080566406e+01 -2.963832393288612366e-02 3.106537103652954102e+00 9.230696558952331543e-01 1.120041131973266602e+00
9.190000000000000000e+02 5.627232742309570312e+01 -3.247004318237304688e+01 2.288076877593994141e+00 8.069088935852050781e+00 3.107149839401245117e+00 -2.917176723480224609e+00
9.200000000000000000e+02 6.948679351806640625e+01 -2.171888351440429688e+01 -1.477659225463867188e+00 1.518548011779785156e+00 1.226666010916233063e-02 -7.510742545127868652e-01
9.210000000000000000e+02 6.521897125244140625e+01 -2.084154319763183594e+01 -1.361778140068054199e+00 8.849324584007263184e-01 -1.430537104606628418e-01 9.651761054992675781e-01
9.220000000000000000e+02 6.017168426513671875e+01 -2.301231384277343750e+01 1.662668347358703613e+00 1.229855537414550781e+00 8.677572011947631836e-01 1.526663899421691895e+00
9.230000000000000000e+02 6.182669830322265625e+01 -2.328284454345703125e+01 1.925658345222473145e+00 8.394528031349182129e-01 8.295333385467529297e-01 1.281944036483764648e+00
9.240000000000000000e+02 5.581302642822265625e+01 -2.935637283325195312e+01 4.925374388694763184e-01 8.557583808898925781e+00 2.715036392211914062e+00 7.853670120239257812e-01
9.250000000000000000e+02 5.661552047729492188e+01 -2.739507675170898438e+01 1.249348640441894531e+00 4.875386238098144531e+00 1.837420463562011719e+00 1.652036666870117188e+00
9.260000000000000000e+02 7.107503509521484375e+01 -2.289094543457031250e+01 6.194584965705871582e-01 6.636929512023925781e+00 2.176916360855102539e+00 -2.210759401321411133e+00
9.270000000000000000e+02 7.827695465087890625e+01 -2.463778305053710938e+01 1.907551884651184082e-01 6.597650527954101562e+00 2.036521673202514648e+00 4.081438183784484863e-01
9.280000000000000000e+02 7.196410369873046875e+01 -3.104576110839843750e+01 -2.655502967536449432e-02 7.542737483978271484e+00 2.254854917526245117e+00 6.452698707580566406e-01
9.290000000000000000e+02 5.905001068115234375e+01 -2.379941940307617188e+01 2.140670537948608398e+00 1.272148847579956055e+00 1.023845791816711426e+00 1.553232908248901367e+00
9.300000000000000000e+02 7.181304168701171875e+01 -2.746199226379394531e+01 7.529429197311401367e-01 1.259853935241699219e+01 4.005444526672363281e+00 1.138294696807861328e+00
9.310000000000000000e+02 7.296775817871093750e+01 -2.825020790100097656e+01 1.330416798591613770e+00 9.544425010681152344e+00 3.262452602386474609e+00 2.887285053730010986e-01
9.320000000000000000e+02 4.160203170776367188e+01 -1.941470527648925781e+01 -1.990476399660110474e-01 5.405873060226440430e-01 1.024618968367576599e-01 -1.448322236537933350e-01
9.330000000000000000e+02 3.923067474365234375e+01 -1.798576354980468750e+01 -1.744900226593017578e+00 4.877768829464912415e-02 -5.088368058204650879e-01 -9.067897498607635498e-02
9.340000000000000000e+02 7.005018615722656250e+01 -3.318527603149414062e+01 -4.032196104526519775e-01 4.095820426940917969e+00 1.107780218124389648e+00 1.151825070381164551e+00
9.350000000000000000e+02 5.592390060424804688e+01 -2.610056495666503906e+01 1.206898331642150879e+00 4.264896392822265625e+00 1.641538500785827637e+00 4.130337238311767578e-01
9.360000000000000000e+02 7.167027282714843750e+01 -2.101711845397949219e+01 -1.664328098297119141e+00 6.909190654754638672e+00 1.573458671569824219e+00 -1.287765860557556152e+00
9.370000000000000000e+02 5.518045425415039062e+01 -3.185736465454101562e+01 2.217589616775512695e+00 8.761695861816406250e+00 3.293785810470581055e+00 -1.360885739326477051e+00
9.380000000000000000e+02 3.426781845092773438e+01 -1.694746017456054688e+01 -2.174299955368041992e+00 3.644936904311180115e-02 -6.413551568984985352e-01 4.836938083171844482e-01
9.390000000000000000e+02 2.856955528259277344e+01 -1.613749122619628906e+01 -1.212329149246215820e+00 -3.096657097339630127e-01 -4.565984606742858887e-01 7.238145470619201660e-01
9.400000000000000000e+02 3.409812927246093750e+01 -1.795240402221679688e+01 -2.640540361404418945e+00 -4.624987952411174774e-03 -7.935495972633361816e-01 2.205127030611038208e-01
9.410000000000000000e+02 5.692278289794921875e+01 -2.538465118408203125e+01 1.713929414749145508e+00 2.963187932968139648e+00 1.403135180473327637e+00 1.364344000816345215e+00
9.420000000000000000e+02 6.714514160156250000e+01 -3.367530441284179688e+01 -1.088602304458618164e+00 3.009773194789886475e-01 -2.362874895334243774e-01 2.046152576804161072e-02
9.430000000000000000e+02 6.818695831298828125e+01 -3.490763473510742188e+01 -3.156748414039611816e-01 2.049513101577758789e+00 5.201514959335327148e-01 9.764944911003112793e-01
9.440000000000000000e+02 3.551992416381835938e+01 -1.708762931823730469e+01 -2.430072784423828125e+00 -6.089653447270393372e-02 -7.472908496856689453e-01 4.207537472248077393e-01
9.450000000000000000e+02 3.193992424011230469e+01 -1.666159057617187500e+01 -1.747456192970275879e+00 6.153186783194541931e-02 -5.057772994041442871e-01 6.103268265724182129e-01
9.460000000000000000e+02 6.368001937866210938e+01 -3.748652267456054688e+01 3.281462788581848145e-01 2.696777880191802979e-01 1.793472170829772949e-01 -1.149431765079498291e-01
9.470000000000000000e+02 6.498240661621093750e+01 -3.985616302490234375e+01 8.368873000144958496e-01 8.469790220260620117e-01 5.051599144935607910e-01 7.009581476449966431e-02
9.480000000000000000e+02 7.267089080810546875e+01 -2.513696861267089844e+01 1.285674333572387695e+00 1.088772010803222656e+01 3.652018308639526367e+00 -4.485601186752319336e-01
9.490000000000000000e+02 5.797302246093750000e+01 -2.460441207885742188e+01 2.213740348815917969e+00 1.569106817245483398e+00 1.134854197502136230e+00 1.444883108139038086e+00
9.500000000000000000e+02 5.585066223144531250e+01 -2.136320495605468750e+01 1.627631425857543945e+00 8.727632761001586914e-01 7.501184344291687012e-01 6.647129654884338379e-01
9.510000000000000000e+02 6.129780960083007812e+01 -1.596455955505371094e+01 2.304700613021850586e-01 1.539175510406494141e+00 5.308936834335327148e-01 1.451554894447326660e+00
9.520000000000000000e+02 7.111876678466796875e+01 -3.234320068359375000e+01 -3.661664128303527832e-01 5.709303379058837891e+00 1.602941155433654785e+00 1.042425394058227539e+00
9.530000000000000000e+02 5.697320938110351562e+01 4.099631118774414062e+01 -3.040133714675903320e-01 -3.626826703548431396e-01 -2.000088095664978027e-01 1.187964156270027161e-01
9.540000000000000000e+02 8.245449066162109375e+00 -2.672318840026855469e+01 1.951219630427658558e-03 8.157899137586355209e-04 8.301028865389525890e-04 -2.524847805034369230e-04
9.550000000000000000e+02 5.467123794555664062e+01 -1.605358314514160156e+01 -6.312974929809570312e+00 -2.488046884536743164e+00 -2.640306472778320312e+00 3.104010820388793945e+00
9.560000000000000000e+02 4.169383239746093750e+01 -3.040497779846191406e+01 8.852220177650451660e-01 2.961767196655273438e+00 1.154096722602844238e+00 1.271138191223144531e+00
9.570000000000000000e+02 4.229882049560546875e+01 -2.846247482299804688e+01 5.528292655944824219e-01 3.890052556991577148e+00 1.332864522933959961e+00 9.707724452018737793e-01
9.580000000000000000e+02 9.834730148315429688e+00 -1.504215335845947266e+01 -4.995936178602278233e-04 5.062110358267091215e-05 -1.346917415503412485e-04 -4.316681588534265757e-04
9.590000000000000000e+02 5.887590789794921875e+01 -1.729950904846191406e+01 -2.039884805679321289e+00 8.746836781501770020e-01 -3.495603203773498535e-01 1.882668972015380859e+00
9.600000000000000000e+02 5.672999191284179688e+01 -1.669698905944824219e+01 -5.651497840881347656e+00 -7.742167711257934570e-01 -1.927714347839355469e+00 1.473255753517150879e+00
9.610000000000000000e+02 3.629341506958007812e+01 -3.333572387695312500e+01 -5.927839875221252441e-01 2.234921045601367950e-02 -1.711304336786270142e-01 5.791795253753662109e-02
9.620000000000000000e+02 4.049925613403320312e+01 -3.230692672729492188e+01 2.575431168079376221e-01 1.323742270469665527e+00 4.743856191635131836e-01 7.994018197059631348e-01
9.630000000000000000e+02 5.577160263061523438e+01 3.855548095703125000e+01 -6.483818888664245605e-01 -6.372145563364028931e-02 -2.136310040950775146e-01 2.535743713378906250e-01
9.640000000000000000e+02 5.199034500122070312e+01 3.897499084472656250e+01 -6.337047815322875977e-01 9.002148509025573730e-01 7.995302975177764893e-02 1.888844668865203857e-01
9.650000000000000000e+02 1.342829132080078125e+01 -3.218228149414062500e+01 -7.010453846305608749e-03 -1.173892640508711338e-03 -2.455303911119699478e-03 -4.186060279607772827e-03
9.660000000000000000e+02 1.152411842346191406e+01 -2.917966651916503906e+01 5.742366192862391472e-04 5.846485728397965431e-04 3.476655692793428898e-04 -5.173658137209713459e-04
9.670000000000000000e+02 6.068194580078125000e+01 -1.507182884216308594e+01 1.138466119766235352e+00 1.012721419334411621e+00 6.453562378883361816e-01 1.106661081314086914e+00
9.680000000000000000e+02 2.484153366088867188e+01 -3.318941497802734375e+01 -9.551760554313659668e-02 1.053033675998449326e-02 -2.549618110060691833e-02 -4.687748476862907410e-02
9.690000000000000000e+02 4.119050979614257812e+01 1.022430706024169922e+01 1.887780070304870605e+00 9.709489822387695312e+00 3.479181051254272461e+00 -1.602022051811218262e+00
9.700000000000000000e+02 4.212921524047851562e+01 1.338831233978271484e+01 2.889458537101745605e-01 1.049061203002929688e+01 3.233867406845092773e+00 1.605676710605621338e-01
9.710000000000000000e+02 3.352137374877929688e+01 -3.288887023925781250e+01 -5.438081622123718262e-01 4.843198135495185852e-02 -1.486128419637680054e-01 2.500555478036403656e-02
9.720000000000000000e+02 1.676778602600097656e+01 -3.347528457641601562e+01 -1.772527769207954407e-02 -5.736508872359991074e-03 -7.038535550236701965e-03 -1.596884056925773621e-02
9.730000000000000000e+02 7.064986419677734375e+01 3.100731849670410156e+01 -8.580602407455444336e-01 5.090683460235595703e+00 1.269786953926086426e+00 2.923938632011413574e-01
9.740000000000000000e+02 3.568527984619140625e+01 -3.519918060302734375e+01 -1.833089068531990051e-02 1.000861600041389465e-01 2.452658116817474365e-02 8.282379806041717529e-02
9.750000000000000000e+02 4.007302856445312500e+01 1.869238471984863281e+01 6.544344425201416016e-01 6.541989326477050781e+00 2.158927202224731445e+00 2.183028310537338257e-01
9.760000000000000000e+02 4.109274673461914062e+01 1.668523979187011719e+01 6.870455741882324219e-01 7.821489810943603516e+00 2.552560567855834961e+00 4.277759194374084473e-01
9.770000000000000000e+02 7.023252868652343750e+01 6.132584571838378906e+00 1.956571042537689209e-01 1.360970306396484375e+01 4.141607761383056641e+00 -8.428730070590972900e-02
9.780000000000000000e+02 7.454933929443359375e+01 8.621733665466308594e+00 -2.273861551657319069e-03 8.747752189636230469e+00 2.623643398284912109e+00 9.486594796180725098e-01
9.790000000000000000e+02 7.505765438079833984e+00 -2.245318031311035156e+01 9.389800834469497204e-04 1.748078648233786225e-04 3.341363917570561171e-04 -3.248832945246249437e-04
9.800000000000000000e+02 1.069101619720458984e+01 -3.058914566040039062e+01 -1.618802780285477638e-03 -4.023639194201678038e-04 -6.063500186428427696e-04 -1.047945464961230755e-03
9.810000000000000000e+02 1.723217582702636719e+01 -8.915248870849609375e+00 -1.255421666428446770e-04 2.099911944242194295e-05 -3.136291343253105879e-05 5.373547901399433613e-05
9.820000000000000000e+02 7.804459381103515625e+01 3.263882064819335938e+01 -8.461106568574905396e-02 1.076406383514404297e+01 3.203835725784301758e+00 3.195109367370605469e-01
9.830000000000000000e+02 7.929695129394531250e+01 3.593888854980468750e+01 -3.970694541931152344e-02 1.212350082397460938e+01 3.625138282775878906e+00 -5.415802076458930969e-02
9.840000000000000000e+02 7.932234954833984375e+01 -3.469618988037109375e+01 7.961835362948477268e-04 7.844780921936035156e+00 2.353673219680786133e+00 -1.686097532510757446e-01
9.850000000000000000e+02 7.704470062255859375e+01 -2.873769378662109375e+01 2.761732339859008789e-01 6.988755226135253906e+00 2.179478645324707031e+00 -5.564412474632263184e-01
9.860000000000000000e+02 7.934188842773437500e+01 -2.770363426208496094e+01 3.811279684305191040e-02 5.804111480712890625e+00 1.752667188644409180e+00 -6.947232037782669067e-02
9.870000000000000000e+02 7.946064758300781250e+01 -2.087862014770507812e+01 -2.872134186327457428e-02 7.315043449401855469e+00 2.185896635055541992e+00 1.522802263498306274e-01
9.880000000000000000e+02 7.540518951416015625e+01 -2.253646278381347656e+01 -1.355089992284774780e-01 7.654459476470947266e+00 2.255685091018676758e+00 7.110552787780761719e-01
9.890000000000000000e+02 7.802186584472656250e+01 -2.595580101013183594e+01 2.539154589176177979e-01 6.541723728179931641e+00 2.038691759109497070e+00 1.738196015357971191e-01
9.900000000000000000e+02 7.937685394287109375e+01 -3.053167915344238281e+01 -3.230955824255943298e-02 6.556402206420898438e+00 1.957227826118469238e+00 -2.162641584873199463e-01
9.910000000000000000e+02 7.800073242187500000e+01 -3.439112854003906250e+01 -1.205020248889923096e-01 7.478642463684082031e+00 2.207442045211791992e+00 -4.201837778091430664e-01
9.920000000000000000e+02 7.808361053466796875e+01 -3.306951904296875000e+01 -4.394242540001869202e-02 7.323907375335693359e+00 2.183989524841308594e+00 -5.011603832244873047e-01
9.930000000000000000e+02 7.581240081787109375e+01 -3.623232269287109375e+01 -3.752368986606597900e-01 6.896250247955322266e+00 1.956304073333740234e+00 -2.585929930210113525e-01
9.940000000000000000e+02 7.719454956054687500e+01 -3.812590408325195312e+01 -1.816053390502929688e-01 7.550721645355224609e+00 2.210734844207763672e+00 3.584669157862663269e-02
9.950000000000000000e+02 7.657042694091796875e+01 -3.923658752441406250e+01 -1.690576970577239990e-01 7.521336078643798828e+00 2.205683469772338867e+00 -4.556022211909294128e-02
9.960000000000000000e+02 7.798269653320312500e+01 -4.165174865722656250e+01 1.947087347507476807e-01 7.856153964996337891e+00 2.415258646011352539e+00 5.458398535847663879e-02
9.970000000000000000e+02 7.801925659179687500e+01 2.099736404418945312e+01 4.099032282829284668e-02 8.651760101318359375e+00 2.607825040817260742e+00 4.796922504901885986e-01
9.980000000000000000e+02 7.935002899169921875e+01 2.234176254272460938e+01 1.985254511237144470e-02 9.073308944702148438e+00 2.727948427200317383e+00 2.126669138669967651e-01
9.990000000000000000e+02 7.823030853271484375e+01 1.386910533905029297e+01 -2.156108990311622620e-02 7.436911106109619141e+00 2.224605083465576172e+00 4.043980240821838379e-01
1.000000000000000000e+03 7.940008544921875000e+01 1.530957889556884766e+01 -3.365482669323682785e-03 7.447861671447753906e+00 2.233348846435546875e+00 1.620693355798721313e-01
1.001000000000000000e+03 7.795848846435546875e+01 3.102502822875976562e+01 -8.837561309337615967e-02 1.047013282775878906e+01 3.114526987075805664e+00 4.404200315475463867e-01
1.002000000000000000e+03 7.936719512939453125e+01 2.795993804931640625e+01 -2.777484245598316193e-03 1.076657676696777344e+01 3.229139804840087891e+00 2.360380142927169800e-01
1.003000000000000000e+03 7.815737915039062500e+01 2.530569267272949219e+01 1.002535689622163773e-02 9.508730888366699219e+00 2.855627059936523438e+00 5.595628023147583008e-01
1.004000000000000000e+03 7.810839843750000000e+01 2.388430404663085938e+01 3.966692462563514709e-02 9.201828002929687500e+00 2.772448539733886719e+00 5.248706340789794922e-01
1.005000000000000000e+03 7.820593261718750000e+01 1.525489330291748047e+01 -3.301729884697124362e-05 7.681380271911621094e+00 2.304404020309448242e+00 4.041332900524139404e-01
1.006000000000000000e+03 7.816310882568359375e+01 1.666050148010253906e+01 -8.838215726427733898e-04 7.923070430755615234e+00 2.376656055450439453e+00 3.928372859954833984e-01
1.007000000000000000e+03 7.823685455322265625e+01 1.248865127563476562e+01 -3.416671976447105408e-02 7.186266899108886719e+00 2.145630121231079102e+00 4.578747451305389404e-01
1.008000000000000000e+03 7.815187835693359375e+01 8.330989837646484375e+00 2.547403611242771149e-02 6.335787773132324219e+00 1.908378481864929199e+00 5.574444532394409180e-01
1.009000000000000000e+03 7.939641571044921875e+01 9.743923187255859375e+00 1.156588084995746613e-02 5.959989070892333984e+00 1.791466474533081055e+00 2.131600230932235718e-01
1.010000000000000000e+03 7.803743743896484375e+01 2.953425407409667969e+01 -5.093717575073242188e-02 1.029968738555908203e+01 3.074625015258789062e+00 5.113019347190856934e-01
1.011000000000000000e+03 7.684307098388671875e+01 6.905989646911621094e+00 1.009352207183837891e-01 6.999543666839599609e+00 2.130143642425537109e+00 7.511926889419555664e-01
1.012000000000000000e+03 7.823647308349609375e+01 -1.172990798950195312e-01 9.989875555038452148e-02 5.210401058197021484e+00 1.593089938163757324e+00 -1.016951650381088257e-01
1.013000000000000000e+03 7.939850616455078125e+01 1.349614143371582031e+00 2.470799908041954041e-02 4.063600063323974609e+00 1.226492524147033691e+00 1.726335287094116211e-02
1.014000000000000000e+03 7.939473724365234375e+01 -6.960327625274658203e+00 4.269371274858713150e-03 5.638991832733154297e+00 1.692978382110595703e+00 -1.709384471178054810e-01
1.015000000000000000e+03 7.937309265136718750e+01 -1.390696620941162109e+01 -1.083029806613922119e-02 7.405659675598144531e+00 2.218448877334594727e+00 -1.273156106472015381e-01
1.016000000000000000e+03 7.941611480712890625e+01 -1.950694465637207031e+01 -1.666918024420738220e-02 7.616658687591552734e+00 2.279996871948242188e+00 9.564982354640960693e-02
1.017000000000000000e+03 7.846658325195312500e+01 -2.338171005249023438e+01 1.082765683531761169e-02 6.750951766967773438e+00 2.028533697128295898e+00 5.294392108917236328e-01
1.018000000000000000e+03 7.848514556884765625e+01 4.019282150268554688e+01 -1.934105604887008667e-01 1.128411006927490234e+01 3.327209711074829102e+00 -3.631869852542877197e-01
1.019000000000000000e+03 7.643981170654296875e+01 3.639706420898437500e+01 -2.324011325836181641e-01 9.517911911010742188e+00 2.785653352737426758e+00 2.429406940937042236e-01
1.020000000000000000e+03 7.819657135009765625e+01 9.725491523742675781e+00 -1.789713092148303986e-02 6.635374069213867188e+00 1.985243082046508789e+00 5.496826767921447754e-01
1.021000000000000000e+03 7.243130493164062500e+01 4.795393943786621094e+00 5.397544503211975098e-01 1.090570163726806641e+01 3.433636665344238281e+00 6.547927856445312500e-01
1.022000000000000000e+03 7.818337249755859375e+01 1.236174464225769043e+00 1.070407629013061523e-01 5.250936508178710938e+00 1.607393145561218262e+00 1.523486059159040451e-02
1.023000000000000000e+03 7.703291320800781250e+01 -2.777212858200073242e-01 2.400963008403778076e-01 6.191431522369384766e+00 1.929458260536193848e+00 -1.515805423259735107e-01
1.024000000000000000e+03 7.828536224365234375e+01 -1.466692209243774414e+00 9.037267416715621948e-02 5.235156059265136719e+00 1.597658634185791016e+00 -2.341881990432739258e-01
1.025000000000000000e+03 7.942760467529296875e+01 -2.797239303588867188e+00 1.969629339873790741e-02 4.534784317016601562e+00 1.366344213485717773e+00 -1.282929182052612305e-01
1.026000000000000000e+03 7.814096832275390625e+01 -8.322794914245605469e+00 -5.013099405914545059e-03 6.255219459533691406e+00 1.875061988830566406e+00 -4.445070624351501465e-01
1.027000000000000000e+03 7.822389221191406250e+01 -5.560171604156494141e+00 2.096660993993282318e-02 5.778856754302978516e+00 1.739946961402893066e+00 -4.164023995399475098e-01
1.028000000000000000e+03 7.937908935546875000e+01 -9.735991477966308594e+00 -2.658365061506628990e-03 6.404175758361816406e+00 1.920455336570739746e+00 -1.692958176136016846e-01
1.029000000000000000e+03 7.810981750488281250e+01 -1.526301956176757812e+01 -9.207084029912948608e-02 7.282288551330566406e+00 2.157065391540527344e+00 -2.435335665941238403e-01
1.030000000000000000e+03 7.812688446044921875e+01 -1.246504783630371094e+01 -3.306445479393005371e-02 6.918633937835693359e+00 2.065670728683471680e+00 -3.918476104736328125e-01
1.031000000000000000e+03 7.936669921875000000e+01 -1.670862197875976562e+01 -2.191182412207126617e-02 7.761819839477539062e+00 2.321972370147705078e+00 -3.465315327048301697e-02
1.032000000000000000e+03 7.836348724365234375e+01 -2.088236618041992188e+01 -1.057361587882041931e-01 7.249927043914794922e+00 2.143257141113281250e+00 4.070538282394409180e-01
1.033000000000000000e+03 7.822961425781250000e+01 -1.954787063598632812e+01 -1.409089863300323486e-01 7.412148952484130859e+00 2.181371927261352539e+00 2.592247724533081055e-01
1.034000000000000000e+03 1.024915218353271484e+01 -1.740417098999023438e+01 -1.075833104550838470e-03 -9.986923396354541183e-05 -3.527107182890176773e-04 -6.240975835680728778e-06
1.035000000000000000e+03 8.389571189880371094e+00 -1.841980361938476562e+01 -9.231118019670248032e-04 -1.805019383027683944e-05 -2.823485992848873138e-04 2.967294312838930637e-05
1.036000000000000000e+03 2.609711265563964844e+01 -3.257949447631835938e+01 -1.294142156839370728e-01 1.469110953621566296e-03 -3.838352859020233154e-02 -3.659795597195625305e-02
1.037000000000000000e+03 3.856267166137695312e+01 -3.509151077270507812e+01 -3.144963644444942474e-03 9.823000431060791016e-01 2.937465310096740723e-01 5.502929091453552246e-01
1.038000000000000000e+03 8.627411842346191406e+00 -1.728534126281738281e+01 9.754613856784999371e-04 2.193455438828095794e-04 3.584420774132013321e-04 5.707285890821367502e-05
1.039000000000000000e+03 3.983532714843750000e+01 -3.420375442504882812e+01 -1.362710297107696533e-01 1.462115883827209473e+00 3.977534472942352295e-01 8.185496926307678223e-01
1.040000000000000000e+03 4.091082382202148438e+01 -3.369251632690429688e+01 -1.612054109573364258e-01 2.061217069625854492e+00 5.700034499168395996e-01 9.123196005821228027e-01
1.041000000000000000e+03 7.107194519042968750e+01 1.314239883422851562e+01 -1.617113500833511353e-01 9.209678649902343750e+00 2.714390039443969727e+00 5.427278205752372742e-02
1.042000000000000000e+03 2.931462097167968750e+01 -3.195203971862792969e+01 -2.455864995718002319e-01 -1.697865547612309456e-03 -7.418531179428100586e-02 8.162270300090312958e-03
1.043000000000000000e+03 3.037524604797363281e+01 -3.367665100097656250e+01 -2.738916873931884766e-01 1.348397135734558105e-02 -7.812231779098510742e-02 -6.503928452730178833e-02
1.044000000000000000e+03 1.958646535873413086e+00 -2.472997093200683594e+01 -1.209090230986475945e-03 -9.813358337851241231e-05 -3.921671304851770401e-04 -3.427136980462819338e-04
1.045000000000000000e+03 7.423437595367431641e+00 -2.380410385131835938e+01 -1.309493090957403183e-03 2.128713049387442879e-06 -3.922093019355088472e-04 4.965357366017997265e-04
1.046000000000000000e+03 2.792803764343261719e+01 -3.175167083740234375e+01 -2.115797549486160278e-01 1.241611223667860031e-02 -5.974909290671348572e-02 9.860876016318798065e-04
1.047000000000000000e+03 3.044333457946777344e+01 -3.501447677612304688e+01 -1.132966428995132446e-01 1.111673656851053238e-02 -3.065397217869758606e-02 -1.423743069171905518e-01
1.048000000000000000e+03 2.172268867492675781e+01 -3.344120407104492188e+01 -4.165710136294364929e-02 -5.463267676532268524e-03 -1.413611136376857758e-02 -3.188998624682426453e-02
1.049000000000000000e+03 8.492280006408691406e+00 -2.892706680297851562e+01 -1.010298219625838101e-04 2.330603601876646280e-04 3.960916001233272254e-05 -2.830649900715798140e-04
1.050000000000000000e+03 1.501498889923095703e+01 -3.289514923095703125e+01 -1.173813641071319580e-02 -1.141914166510105133e-03 -3.864015219733119011e-03 -8.386865258216857910e-03
1.051000000000000000e+03 2.020294189453125000e+01 -3.364053344726562500e+01 -3.055530041456222534e-02 -1.151114050298929214e-02 -1.261993218213319778e-02 -2.668328583240509033e-02
1.052000000000000000e+03 4.314180755615234375e+01 -2.440824699401855469e+01 2.900532484054565430e-01 1.729557394981384277e+00 6.058831810951232910e-01 9.217271208763122559e-01
1.053000000000000000e+03 4.258531570434570312e+01 -2.502377510070800781e+01 4.072879999876022339e-02 1.219515681266784668e+00 3.780733644962310791e-01 6.493968963623046875e-01
1.054000000000000000e+03 5.370972824096679688e+01 -1.514621067047119141e+01 -3.943716049194335938e+00 -2.296744346618652344e+00 -1.872138142585754395e+00 3.128639936447143555e+00
1.055000000000000000e+03 5.224773025512695312e+01 3.324395751953125000e+01 -1.048016622662544250e-01 3.391997814178466797e-01 7.031943649053573608e-02 1.565677076578140259e-01
1.056000000000000000e+03 6.581879425048828125e+01 3.331506729125976562e+01 -1.599687814712524414e+00 -7.856651544570922852e-01 -7.156059145927429199e-01 1.173381328582763672e+00
1.057000000000000000e+03 6.569441223144531250e+01 3.578672027587890625e+01 -8.594628572463989258e-01 2.270225584506988525e-01 -1.897320896387100220e-01 2.575538754463195801e-01
1.058000000000000000e+03 7.099701690673828125e+01 2.408544158935546875e+01 2.315254658460617065e-01 7.679396152496337891e+00 2.373276472091674805e+00 1.743938773870468140e-01
1.059000000000000000e+03 6.974616241455078125e+01 1.168450450897216797e+01 -4.312208890914916992e-01 8.156530380249023438e+00 2.317592859268188477e+00 1.668903678655624390e-01
1.060000000000000000e+03 4.708519744873046875e+01 -2.400898933410644531e+00 5.834241509437561035e-01 5.678975582122802734e+00 1.878719806671142578e+00 -2.296931505203247070e+00
1.061000000000000000e+03 6.645764923095703125e+01 -8.831333160400390625e+00 1.287515044212341309e+00 5.142670631408691406e+00 1.929055690765380859e+00 2.370831251144409180e+00
1.062000000000000000e+03 7.045952606201171875e+01 2.886658477783203125e+01 -2.834997773170471191e-01 5.480147361755371094e+00 1.558994293212890625e+00 2.437212616205215454e-01
1.063000000000000000e+03 6.305041503906250000e+01 -1.344220447540283203e+01 2.146759271621704102e+00 2.186997890472412109e+00 1.300127148628234863e+00 2.000671863555908203e+00
1.064000000000000000e+03 6.507202911376953125e+01 -1.322073650360107422e+01 1.488341450691223145e+00 3.081810712814331055e+00 1.371045589447021484e+00 1.589916825294494629e+00
1.065000000000000000e+03 6.991986846923828125e+01 1.721897506713867188e+01 1.220096740871667862e-02 9.231863021850585938e+00 2.773219347000122070e+00 2.021206319332122803e-01
1.066000000000000000e+03 4.079611206054687500e+01 1.514073753356933594e+01 6.997666954994201660e-01 8.444740295410156250e+00 2.743352174758911133e+00 1.049679890275001526e-01
1.067000000000000000e+03 4.620579910278320312e+01 2.920924758911132812e+01 2.757030725479125977e-01 2.929750919342041016e+00 9.616361856460571289e-01 9.461282491683959961e-01
1.068000000000000000e+03 4.714940261840820312e+01 3.040228271484375000e+01 1.223125234246253967e-01 2.430394411087036133e+00 7.658120989799499512e-01 8.760198354721069336e-01
1.069000000000000000e+03 4.382353591918945312e+01 2.541872215270996094e+01 4.722176194190979004e-01 4.467450618743896484e+00 1.481900572776794434e+00 1.196024417877197266e+00
1.070000000000000000e+03 6.876934051513671875e+01 3.171231079101562500e+01 -1.044551491737365723e+00 2.774279832839965820e+00 5.189185142517089844e-01 1.145169138908386230e-01
1.071000000000000000e+03 6.792482757568359375e+01 3.307194137573242188e+01 -1.145764827728271484e+00 1.712402224540710449e+00 1.699912101030349731e-01 1.503717154264450073e-01
1.072000000000000000e+03 4.879771423339843750e+01 -1.007556056976318359e+01 -6.335018873214721680e-01 5.620982170104980469e+00 1.496244072914123535e+00 -7.948684096336364746e-01
1.073000000000000000e+03 4.352885055541992188e+01 2.047146034240722656e+01 6.381920576095581055e-01 6.687540054321289062e+00 2.197719573974609375e+00 1.828177928924560547e+00
1.074000000000000000e+03 4.924084854125976562e+01 -4.730147361755371094e+00 6.177898049354553223e-01 6.072722911834716797e+00 2.007153749465942383e+00 -2.002789735794067383e+00
1.075000000000000000e+03 6.068403625488281250e+01 -1.757454872131347656e+01 -8.735638856887817383e-01 1.581964492797851562e+00 2.125201970338821411e-01 2.053538799285888672e+00
1.076000000000000000e+03 4.220450973510742188e+01 2.109917640686035156e+01 5.990571379661560059e-01 6.212157726287841797e+00 2.043364524841308594e+00 1.158577799797058105e+00
1.077000000000000000e+03 7.109086608886718750e+01 1.179913902282714844e+01 -5.961111187934875488e-01 9.687088012695312500e+00 2.727293252944946289e+00 1.608256697654724121e-01
1.078000000000000000e+03 5.131231689453125000e+01 -1.538112545013427734e+01 -3.061746835708618164e+00 4.476878643035888672e+00 4.245395362377166748e-01 9.070802330970764160e-01
1.079000000000000000e+03 6.256041717529296875e+01 -1.521454238891601562e+01 9.392433166503906250e-01 1.907350659370422363e+00 8.539781570434570312e-01 1.521648168563842773e+00
1.080000000000000000e+03 4.053311538696289062e+01 1.350831222534179688e+01 8.765521645545959473e-01 8.828325271606445312e+00 2.911463260650634766e+00 -6.336656808853149414e-01
1.081000000000000000e+03 7.037670898437500000e+01 -2.716073513031005859e+00 6.742963194847106934e-01 1.026941871643066406e+01 3.283114433288574219e+00 1.712427139282226562e+00
1.082000000000000000e+03 7.022357177734375000e+01 3.323269367218017578e+00 1.336845755577087402e-01 1.426203536987304688e+01 4.318716049194335938e+00 4.072468578815460205e-01
1.083000000000000000e+03 4.176323318481445312e+01 5.768833637237548828e+00 1.283550500869750977e+00 7.823339939117431641e+00 2.732067108154296875e+00 -2.218394517898559570e+00
1.084000000000000000e+03 4.802021026611328125e+01 -4.916359901428222656e+00 4.394786357879638672e-01 5.737662315368652344e+00 1.853142261505126953e+00 -1.953564763069152832e+00
1.085000000000000000e+03 4.830790328979492188e+01 -2.131921768188476562e+00 7.712182998657226562e-01 5.697860717773437500e+00 1.940723776817321777e+00 -2.239773035049438477e+00
1.086000000000000000e+03 7.089988708496093750e+01 2.720651626586914062e+01 7.018896285444498062e-03 6.404716491699218750e+00 1.923520684242248535e+00 2.457652539014816284e-01
1.087000000000000000e+03 6.987210845947265625e+01 -4.109460353851318359e+00 6.886613368988037109e-01 9.245619773864746094e+00 2.980284452438354492e+00 1.861505627632141113e+00
1.088000000000000000e+03 4.525814437866210938e+01 4.054540634155273438e+00 1.767546534538269043e+00 6.506975173950195312e+00 2.482356548309326172e+00 -3.424664735794067383e+00
1.089000000000000000e+03 4.532230377197265625e+01 2.803793525695800781e+01 3.767890036106109619e-01 3.399045705795288086e+00 1.132750391960144043e+00 1.081386089324951172e+00
1.090000000000000000e+03 6.006079864501953125e+01 -1.663583374023437500e+01 -8.297126889228820801e-01 1.329479098320007324e+00 1.499299257993698120e-01 1.313238859176635742e+00
1.091000000000000000e+03 4.655142211914062500e+01 -1.174024224281311035e+00 7.120934724807739258e-01 5.804039478302001953e+00 1.954839825630187988e+00 -2.421478271484375000e+00
1.092000000000000000e+03 6.873043823242187500e+01 -6.762937068939208984e+00 6.973018646240234375e-01 7.287050247192382812e+00 2.395305633544921875e+00 1.933306336402893066e+00
1.093000000000000000e+03 4.756279373168945312e+01 -9.847945213317871094e+00 -8.348391652107238770e-01 5.755879402160644531e+00 1.476312160491943359e+00 -1.047400593757629395e+00
1.094000000000000000e+03 6.812105560302734375e+01 -8.055543899536132812e+00 8.612589240074157715e-01 6.285377979278564453e+00 2.143991231918334961e+00 1.909223556518554688e+00
1.095000000000000000e+03 7.022228240966796875e+01 4.731101989746093750e+00 3.277886286377906799e-02 1.349669742584228516e+01 4.058842658996582031e+00 1.931597292423248291e-01
1.096000000000000000e+03 7.132477569580078125e+01 9.029028892517089844e+00 -8.326316624879837036e-02 1.045165348052978516e+01 3.110517024993896484e+00 4.675485193729400635e-01
1.097000000000000000e+03 7.118217468261718750e+01 1.043793010711669922e+01 -6.586872339248657227e-01 9.881362915039062500e+00 2.766802549362182617e+00 3.812410235404968262e-01
1.098000000000000000e+03 4.179516601562500000e+01 1.965669059753417969e+01 5.116382837295532227e-01 6.823360919952392578e+00 2.200499773025512695e+00 1.014599919319152832e+00
1.099000000000000000e+03 6.714947509765625000e+01 -1.259500598907470703e+01 1.048722028732299805e+00 4.015698909759521484e+00 1.519326329231262207e+00 1.105386734008789062e+00
1.100000000000000000e+03 4.984208297729492188e+01 -1.079670047760009766e+01 -6.280857920646667480e-01 5.280870437622070312e+00 1.395835399627685547e+00 -5.431006550788879395e-01
1.101000000000000000e+03 5.146408081054687500e+01 -1.150290107727050781e+01 -9.613194316625595093e-02 4.021497249603271484e+00 1.177609562873840332e+00 -6.800376772880554199e-01
1.102000000000000000e+03 5.010573577880859375e+01 3.325065231323242188e+01 -1.551388204097747803e-01 1.259420990943908691e+00 3.312846422195434570e-01 4.301126301288604736e-01
1.103000000000000000e+03 6.931747436523437500e+01 -5.451735496520996094e+00 7.176259756088256836e-01 8.213217735290527344e+00 2.679253101348876953e+00 1.876102328300476074e+00
1.104000000000000000e+03 4.452732086181640625e+01 2.678344726562500000e+01 4.492867290973663330e-01 3.921055316925048828e+00 1.311102628707885742e+00 1.173704624176025391e+00
1.105000000000000000e+03 4.173020553588867188e+01 8.776590347290039062e+00 1.691580176353454590e+00 9.950263977050781250e+00 3.492553234100341797e+00 -2.098587036132812500e+00
1.106000000000000000e+03 4.228963470458984375e+01 7.424370765686035156e+00 1.578116297721862793e+00 9.323010444641113281e+00 3.270338058471679688e+00 -2.826049327850341797e+00
1.107000000000000000e+03 4.348294448852539062e+01 4.889536380767822266e+00 1.436635851860046387e+00 7.578474521636962891e+00 2.704533100128173828e+00 -2.985256195068359375e+00
1.108000000000000000e+03 4.287144470214843750e+01 6.134449958801269531e+00 1.591966032981872559e+00 8.191246032714843750e+00 2.934963703155517578e+00 -2.988947153091430664e+00
1.109000000000000000e+03 4.822681427001953125e+01 3.129532623291015625e+01 9.514071792364120483e-02 1.941175222396850586e+00 6.108947396278381348e-01 7.522203326225280762e-01
1.110000000000000000e+03 6.991488647460937500e+01 2.136961364746093750e+01 1.255105808377265930e-02 8.271452903747558594e+00 2.485201120376586914e+00 1.431406736373901367e-01
1.111000000000000000e+03 7.104498291015625000e+01 2.268222427368164062e+01 1.655879169702529907e-01 8.046673774719238281e+00 2.463678598403930664e+00 2.242388576269149780e-01
1.112000000000000000e+03 4.359915542602539062e+01 2.082952976226806641e+00 8.455794453620910645e-01 6.367487430572509766e+00 2.163920164108276367e+00 -2.495897054672241211e+00
1.113000000000000000e+03 7.814574432373046875e+01 2.627363443374633789e+00 1.322531104087829590e-01 5.360660552978515625e+00 1.647874116897583008e+00 1.805273294448852539e-01
1.114000000000000000e+03 7.107540130615234375e+01 2.132812309265136719e+01 5.249012634158134460e-02 8.347060203552246094e+00 2.519865274429321289e+00 3.156761825084686279e-01
1.115000000000000000e+03 7.584583282470703125e+01 1.504235363006591797e+01 -2.764220722019672394e-02 8.186056137084960938e+00 2.447524070739746094e+00 6.607492566108703613e-01
1.116000000000000000e+03 7.106053161621093750e+01 1.863587570190429688e+01 3.171296417713165283e-02 8.774196624755859375e+00 2.641772985458374023e+00 4.211073815822601318e-01
1.117000000000000000e+03 1.320087909698486328e+00 -4.002837371826171875e+01 -1.546020270325243473e-03 1.962201204150915146e-04 -4.049400449730455875e-04 -6.278144428506493568e-04
1.118000000000000000e+03 8.168920278549194336e-01 3.735467529296875000e+01 1.233046315610408783e-02 -1.903676033020019531e+00 -5.674036741256713867e-01 -3.064020350575447083e-02
1.119000000000000000e+03 7.022941708564758301e-01 3.463387680053710938e+01 7.696722634136676788e-03 -1.989559292793273926e+00 -5.945587754249572754e-01 -1.886047422885894775e-02
1.120000000000000000e+03 6.991241574287414551e-01 3.324461746215820312e+01 6.557663436979055405e-04 -2.017547607421875000e+00 -6.050675511360168457e-01 -9.485554881393909454e-03
1.121000000000000000e+03 6.910272836685180664e-01 2.763089752197265625e+01 3.557215910404920578e-03 -2.065679788589477539e+00 -6.186367273330688477e-01 -1.112877507694065571e-03
1.122000000000000000e+03 6.829245090484619141e-01 2.622367286682128906e+01 6.247810670174658298e-04 -2.060758352279663086e+00 -6.180400848388671875e-01 3.195148892700672150e-03
1.123000000000000000e+03 7.189333438873291016e-01 -3.610464859008789062e+01 2.369005233049392700e-03 7.066783146001398563e-04 9.227050468325614929e-04 2.644540218170732260e-04
1.124000000000000000e+03 2.602732658386230469e+00 -3.289002990722656250e+01 -1.966512529179453850e-03 -1.805906649678945541e-04 -6.441309815272688866e-04 1.080517540685832500e-04
1.125000000000000000e+03 3.426268100738525391e+00 2.614184188842773438e+01 2.560268528759479523e-02 -1.609585642814636230e+00 -4.751949012279510498e-01 2.282636612653732300e-02
1.126000000000000000e+03 3.383462905883789062e+00 2.474527549743652344e+01 3.262353688478469849e-02 -1.605445265769958496e+00 -4.718465209007263184e-01 4.472752660512924194e-02
1.127000000000000000e+03 2.099072694778442383e+00 3.445562362670898438e+01 1.046425197273492813e-02 -1.795474648475646973e+00 -5.355030894279479980e-01 -2.946391887962818146e-02
1.128000000000000000e+03 2.106500148773193359e+00 3.312416839599609375e+01 2.278968924656510353e-03 -1.804227709770202637e+00 -5.405846238136291504e-01 -3.321671113371849060e-02
1.129000000000000000e+03 2.750644922256469727e+00 3.791907501220703125e+01 2.217195183038711548e-02 -1.672692894935607910e+00 -4.951562881469726562e-01 -6.323312222957611084e-02
1.130000000000000000e+03 3.738522768020629883e+00 3.889963912963867188e+01 -5.142255686223506927e-04 -1.615901350975036621e+00 -4.849246442317962646e-01 -2.727472223341464996e-02
1.131000000000000000e+03 2.177314043045043945e+00 -3.011356925964355469e+01 -2.194208325818181038e-03 5.213716649450361729e-04 -5.018510273657739162e-04 -6.423514423659071326e-05
1.132000000000000000e+03 2.920804023742675781e+00 -3.578013992309570312e+01 -1.203695544973015785e-03 -1.256550662219524384e-03 -7.380738388746976852e-04 -9.256532066501677036e-04
1.133000000000000000e+03 3.222766399383544922e+00 -2.177539825439453125e+01 1.147552276961505413e-03 6.706316344207152724e-05 3.643846430350095034e-04 1.544882397865876555e-04
1.134000000000000000e+03 6.488986611366271973e-01 2.057282829284667969e+01 1.713555306196212769e-03 -1.922010540962219238e+00 -5.760890841484069824e-01 2.796591632068157196e-02
1.135000000000000000e+03 6.378782987594604492e-01 1.915746498107910156e+01 5.686700344085693359e-03 -1.847236156463623047e+00 -5.524648427963256836e-01 3.598676994442939758e-02
1.136000000000000000e+03 6.082202196121215820e-01 1.491979503631591797e+01 1.529311644844710827e-03 -1.497474431991577148e+00 -4.487835168838500977e-01 6.276253610849380493e-02
1.137000000000000000e+03 5.978581905364990234e-01 1.350996875762939453e+01 5.694830790162086487e-03 -1.336153149604797363e+00 -3.991374969482421875e-01 7.097980380058288574e-02
1.138000000000000000e+03 5.748364329338073730e-01 7.885344028472900391e+00 -1.667623990215361118e-03 -5.305301547050476074e-01 -1.596593409776687622e-01 8.354002982378005981e-02
1.139000000000000000e+03 3.433534622192382812e+00 -3.900601577758789062e+01 1.019827555865049362e-03 -5.322170327417552471e-04 1.462831569369882345e-04 3.560757322702556849e-04
1.140000000000000000e+03 4.267143726348876953e+00 -3.560529708862304688e+01 3.162578213959932327e-04 -6.679396756226196885e-05 7.483915396733209491e-05 -1.122604124248027802e-03
1.141000000000000000e+03 2.677677631378173828e+00 -3.439077377319335938e+01 1.293425098992884159e-03 9.073457331396639347e-04 6.602312205359339714e-04 6.524025811813771725e-04
1.142000000000000000e+03 2.417501449584960938e+00 -3.146860504150390625e+01 2.092601265758275986e-03 3.713920523296110332e-05 6.389221525751054287e-04 1.597122609382495284e-04
1.143000000000000000e+03 1.885447621345520020e+00 -2.746488761901855469e+01 -1.593493274413049221e-03 5.804187367175472900e-06 -4.763067117892205715e-04 -2.804579853545874357e-04
1.144000000000000000e+03 3.395149707794189453e+00 -2.322360801696777344e+01 -9.231929434463381767e-04 -3.660288348328322172e-04 -3.867665363941341639e-04 -1.228529581567272544e-04
1.145000000000000000e+03 1.872427821159362793e+00 -2.612577247619628906e+01 1.546417013742029667e-03 9.573390707373619080e-05 4.926452529616653919e-04 5.327307735569775105e-04
1.146000000000000000e+03 6.382557749748229980e-01 -1.913692283630371094e+01 8.622818277217447758e-04 -6.552279501192970201e-06 2.567188639659434557e-04 5.784551831311546266e-05
1.147000000000000000e+03 3.131715536117553711e+00 -2.041493225097656250e+01 -1.032677246257662773e-03 3.222966188332065940e-05 -3.001342993229627609e-04 -2.117699768859893084e-04
1.148000000000000000e+03 1.874026417732238770e+00 -1.626233291625976562e+01 -7.794394623488187790e-04 -4.849045581067912281e-05 -2.483789576217532158e-04 -2.155096444766968489e-05
1.149000000000000000e+03 2.820644855499267578e+00 -1.347473812103271484e+01 7.306548650376498699e-04 -2.709344516915734857e-05 2.110684290528297424e-04 1.602121192263439298e-04
1.150000000000000000e+03 5.626636743545532227e-01 -1.211155033111572266e+01 -6.648150156252086163e-04 -4.986979092791443691e-06 -2.009406016441062093e-04 -2.258102358609903604e-05
1.151000000000000000e+03 1.687514424324035645e+00 -1.213514804840087891e+01 6.503381882794201374e-04 -8.971282113634515554e-06 1.924100797623395920e-04 7.579925295431166887e-05
1.152000000000000000e+03 2.055235624313354492e+00 -6.382238388061523438e+00 4.084203683305531740e-04 8.159564579557354591e-09 1.225285668624565005e-04 5.300697375787422061e-05
1.153000000000000000e+03 3.421876192092895508e+00 -4.479385852813720703e+00 1.912487641675397754e-05 4.548473589238710701e-05 1.938288369274232537e-05 1.051775470841675997e-04
1.154000000000000000e+03 5.813244581222534180e-01 5.003317832946777344e+00 -1.003121770918369293e-02 -1.651930958032608032e-01 -5.256729573011398315e-02 6.047463044524192810e-02
1.155000000000000000e+03 6.415859699249267578e+00 4.004181385040283203e+00 -3.720929026603698730e-01 -3.725299835205078125e-01 -2.233868688344955444e-01 6.150154471397399902e-01
1.156000000000000000e+03 1.731731295585632324e+00 1.072123718261718750e+01 8.153390139341354370e-03 -9.324148297309875488e-01 -2.772784531116485596e-01 2.372450977563858032e-01
1.157000000000000000e+03 5.782001018524169922e-01 1.069982337951660156e+01 4.284213297069072723e-03 -9.556735157966613770e-01 -2.854167819023132324e-01 8.314465731382369995e-02
1.158000000000000000e+03 1.788372755050659180e+00 1.349087047576904297e+01 1.592586375772953033e-02 -1.238485693931579590e+00 -3.667679429054260254e-01 2.052178382873535156e-01
1.159000000000000000e+03 1.904310107231140137e+00 1.911933898925781250e+01 1.764644868671894073e-02 -1.656868696212768555e+00 -4.917666614055633545e-01 1.079431399703025818e-01
1.160000000000000000e+03 2.028767585754394531e+00 2.478455543518066406e+01 1.140933670103549957e-02 -1.816409111022949219e+00 -5.414999127388000488e-01 2.776013500988483429e-02
1.161000000000000000e+03 2.016834068298339844e+01 -1.099064540863037109e+01 -1.112828540499322116e-04 2.688957465579733253e-06 -3.257816933910362422e-05 -8.856804197421297431e-05
1.162000000000000000e+03 1.888599967956542969e+01 -1.190575504302978516e+01 6.708861474180594087e-05 -7.431994890794157982e-05 -2.169399976992281154e-06 9.044852049555629492e-06
1.163000000000000000e+03 1.324476623535156250e+01 -1.323482418060302734e+01 -3.337926755193620920e-04 -2.279507898492738605e-04 -1.685230381553992629e-04 1.563407568028196692e-04
1.164000000000000000e+03 5.447004699707031250e+01 -3.588880538940429688e+01 -5.404012203216552734e-01 5.416304588317871094e+00 1.462770938873291016e+00 -5.110388994216918945e-01
1.165000000000000000e+03 1.099788665771484375e+01 -1.460790538787841797e+01 3.027274215128272772e-05 1.029541890602558851e-04 3.996807936346158385e-05 3.985002404078841209e-04
1.166000000000000000e+03 4.548376464843750000e+01 -2.252261352539062500e+01 1.292855262756347656e+00 6.959426403045654297e+00 2.475684404373168945e+00 3.531007528305053711e+00
1.167000000000000000e+03 4.492844772338867188e+01 -2.310271453857421875e+01 1.000247836112976074e+00 4.634761333465576172e+00 1.690502643585205078e+00 2.521797895431518555e+00
1.168000000000000000e+03 4.367132949829101562e+01 -2.392368316650390625e+01 5.462669730186462402e-01 2.190635681152343750e+00 8.210707902908325195e-01 1.166107177734375000e+00
1.169000000000000000e+03 4.524772644042968750e+01 -2.317807006835937500e+01 6.460120081901550293e-01 5.875966072082519531e+00 1.956593513488769531e+00 2.690333127975463867e+00
1.170000000000000000e+03 4.384895324707031250e+01 -1.937083625793457031e+01 2.361832141876220703e+00 1.318653106689453125e+00 1.104145526885986328e+00 -2.029086112976074219e+00
1.171000000000000000e+03 4.336265945434570312e+01 -1.977788543701171875e+01 1.270033478736877441e+00 6.699761748313903809e-01 5.820028781890869141e-01 -7.962242364883422852e-01
1.172000000000000000e+03 4.406805419921875000e+01 -1.952107620239257812e+01 2.565376520156860352e+00 1.212580084800720215e+00 1.133386969566345215e+00 -2.120157957077026367e+00
1.173000000000000000e+03 4.425793075561523438e+01 -1.941901969909667969e+01 3.000591039657592773e+00 1.701452016830444336e+00 1.410612940788269043e+00 -2.650088548660278320e+00
1.174000000000000000e+03 4.561214828491210938e+01 -1.850780868530273438e+01 1.344804763793945312e+00 9.189322471618652344e+00 3.160238027572631836e+00 -5.091136455535888672e+00
1.175000000000000000e+03 4.413611602783203125e+01 -2.582203483581542969e+01 -4.126500338315963745e-02 4.087926387786865234e+00 1.213998317718505859e+00 1.458370923995971680e+00
1.176000000000000000e+03 1.627490234375000000e+01 -9.916994094848632812e+00 2.014181809499859810e-04 3.154135265504010022e-05 6.988785753492265940e-05 6.598474283237010241e-05
1.177000000000000000e+03 1.691621780395507812e+01 -8.279808998107910156e+00 1.271457731490954757e-04 -5.685886571882292628e-05 2.108607259287964553e-05 -5.687966040568426251e-05
1.178000000000000000e+03 1.407703399658203125e+01 -6.559873104095458984e+00 1.303976605413481593e-04 7.615789945702999830e-05 6.196666799951344728e-05 -1.860350857896264642e-05
1.179000000000000000e+03 1.400876712799072266e+01 -4.840974330902099609e+00 1.117024658014997840e-04 3.665313488454557955e-05 4.450667984201572835e-05 1.187333327834494412e-05
1.180000000000000000e+03 1.713263702392578125e+01 -7.388627052307128906e+00 1.378191518597304821e-04 -3.095646752626635134e-05 3.205880420864559710e-05 -2.112931724695954472e-05
1.181000000000000000e+03 5.260310363769531250e+01 -2.799883842468261719e+01 1.035490512847900391e+00 6.095853328704833984e+00 2.139403104782104492e+00 -1.496501088142395020e+00
1.182000000000000000e+03 1.951544570922851562e+01 -1.000306797027587891e+01 -2.123130834661424160e-04 2.447133374516852200e-05 -5.635252455249428749e-05 -9.136583685176447034e-05
1.183000000000000000e+03 1.896699333190917969e+01 -9.559309005737304688e+00 1.946003030752763152e-04 -2.896879595937207341e-05 4.968945358996279538e-05 1.198579593619797379e-05
1.184000000000000000e+03 4.587957763671875000e+01 -1.806921577453613281e+01 2.192827612161636353e-01 9.580979347229003906e+00 2.940078735351562500e+00 -4.573353767395019531e+00
1.185000000000000000e+03 4.645533752441406250e+01 -1.849880409240722656e+01 3.831331133842468262e-01 1.327972888946533203e+01 4.098858356475830078e+00 -3.704196929931640625e+00
1.186000000000000000e+03 4.088043212890625000e+01 -1.861482810974121094e+01 -6.288027167320251465e-01 4.995962977409362793e-01 -3.876192867755889893e-02 -3.636967539787292480e-01
1.187000000000000000e+03 4.097861480712890625e+01 -1.790131759643554688e+01 -5.943027138710021973e-01 1.016634106636047363e+00 1.266994178295135498e-01 -8.916091322898864746e-01
1.188000000000000000e+03 1.513630771636962891e+01 -5.606810569763183594e+00 1.130812961491756141e-04 2.946872882603202015e-05 4.276500840205699205e-05 -9.345175385533366352e-06
1.189000000000000000e+03 1.512753868103027344e+01 -6.463327407836914062e+00 1.375492283841595054e-04 3.400833884370513260e-05 5.146727198734879494e-05 -3.670838486868888140e-05
1.190000000000000000e+03 1.459961509704589844e+01 -6.072480678558349609e+00 -1.240494311787188053e-04 -4.891291246167384088e-05 -5.188870272831991315e-05 1.781784158083610237e-05
1.191000000000000000e+03 1.667209625244140625e+01 -6.895563125610351562e+00 -1.359952148050069809e-04 1.655161213420797139e-05 -3.583307989174500108e-05 2.602232052595354617e-05
1.192000000000000000e+03 1.756065940856933594e+01 -7.918135643005371094e+00 -1.280340948142111301e-04 2.275738734169863164e-05 -3.158301115036010742e-05 1.222910123033216223e-05
1.193000000000000000e+03 1.163256645202636719e+01 -3.512678623199462891e+00 1.042603253154084086e-04 6.909250805620104074e-05 5.200584928388707340e-05 1.765066554071381688e-05
1.194000000000000000e+03 1.289787483215332031e+01 -5.017261028289794922e+00 1.421859633410349488e-04 3.447972267167642713e-05 5.299970507621765137e-05 1.696242361504118890e-05
1.195000000000000000e+03 1.773638916015625000e+01 -9.516570091247558594e+00 2.248432865599170327e-04 -2.535228850319981575e-05 5.984730159980244935e-05 -3.114260471193119884e-05
1.196000000000000000e+03 1.566586875915527344e+01 -1.166281890869140625e+01 2.760379866231232882e-04 2.980638964800164104e-05 9.175331069855019450e-05 5.865161074325442314e-05
1.197000000000000000e+03 8.149205207824707031e+00 -4.027184963226318359e+00 -2.292564458912238479e-04 8.032928599277511239e-05 -4.467814869713038206e-05 -9.456763655180111527e-05
1.198000000000000000e+03 1.052121925354003906e+01 -3.827827692031860352e+00 1.536051568109542131e-04 4.908899427391588688e-05 6.080824459786526859e-05 1.783602419891394675e-05
1.199000000000000000e+03 5.562614917755126953e+00 2.599580287933349609e+00 -3.677371740341186523e-01 -1.542273908853530884e-01 -1.565893739461898804e-01 3.604177832603454590e-01
1.200000000000000000e+03 3.396808862686157227e+00 2.805988788604736328e+00 -1.490699499845504761e-01 -1.350191384553909302e-01 -8.522672951221466064e-02 1.813980787992477417e-01
1.201000000000000000e+03 4.106128215789794922e+00 2.695304632186889648e+00 -2.168883681297302246e-01 -1.356843858957290649e-01 -1.057718247175216675e-01 2.401596456766128540e-01
1.202000000000000000e+03 5.609994411468505859e+00 3.327800512313842773e+00 -3.455811142921447754e-01 -2.506406009197235107e-01 -1.788665205240249634e-01 4.566728770732879639e-01
1.203000000000000000e+03 6.336805820465087891e+00 3.281961441040039062e+00 -4.222868978977203369e-01 -2.701866626739501953e-01 -2.077420651912689209e-01 5.317329764366149902e-01
1.204000000000000000e+03 9.056453704833984375e+00 3.305456161499023438e+00 -6.303691864013671875e-01 -5.928695201873779297e-01 -3.669716119766235352e-01 8.844714760780334473e-01
1.205000000000000000e+03 6.291971206665039062e+00 2.570816516876220703e+00 -4.629377424716949463e-01 -1.904673278331756592e-01 -1.960215270519256592e-01 4.506220817565917969e-01
1.206000000000000000e+03 7.037257671356201172e+00 3.237778663635253906e+00 -4.990757107734680176e-01 -3.211426436901092529e-01 -2.460654973983764648e-01 6.245180964469909668e-01
1.207000000000000000e+03 1.980469942092895508e+00 2.989397764205932617e+00 -8.048154413700103760e-02 -1.032070219516754150e-01 -5.510656908154487610e-02 1.056069135665893555e-01
1.208000000000000000e+03 9.943505287170410156e+00 2.808057546615600586e+00 -7.866404652595520020e-01 -7.064563035964965820e-01 -4.479290246963500977e-01 9.470779895782470703e-01
1.209000000000000000e+03 2.618955802917480469e+01 -1.002230834960937500e+01 -1.321616053581237793e+00 -7.372069954872131348e-01 -6.176469326019287109e-01 1.302728414535522461e+00
1.210000000000000000e+03 2.740783691406250000e+01 -1.380437374114990234e+01 -9.326959252357482910e-01 -4.717033803462982178e-01 -4.213197827339172363e-01 1.109434008598327637e+00
1.211000000000000000e+03 2.691118621826171875e+01 -1.135365581512451172e+01 -1.189948320388793945e+00 -5.458989739418029785e-01 -5.207542181015014648e-01 1.268365502357482910e+00
1.212000000000000000e+03 2.655589294433593750e+01 -1.069189643859863281e+01 -1.251509904861450195e+00 -6.324278712272644043e-01 -5.651813149452209473e-01 1.288305878639221191e+00
1.213000000000000000e+03 2.763682746887207031e+01 -1.266374683380126953e+01 -1.075335979461669922e+00 -3.917984664440155029e-01 -4.401403367519378662e-01 1.204137563705444336e+00
1.214000000000000000e+03 2.946540260314941406e+01 -1.532507610321044922e+01 -1.229636192321777344e+00 -1.827037185430526733e-01 -4.237019717693328857e-01 8.461800813674926758e-01
1.215000000000000000e+03 3.076937484741210938e+01 -1.507206916809082031e+01 -1.358162641525268555e+00 1.141529995948076248e-02 -4.040241837501525879e-01 8.393646478652954102e-01
1.216000000000000000e+03 5.104172134399414062e+01 -2.738636589050292969e+01 6.846361160278320312e-01 6.282410621643066406e+00 2.090114116668701172e+00 -1.572971820831298828e+00
1.217000000000000000e+03 2.498723411560058594e+01 -7.981574535369873047e+00 -1.492019057273864746e+00 -1.036727070808410645e+00 -7.586238384246826172e-01 1.331908941268920898e+00
1.218000000000000000e+03 2.409652328491210938e+01 -5.470930099487304688e+00 -1.485249876976013184e+00 -1.018996477127075195e+00 -7.512739300727844238e-01 1.190383434295654297e+00
1.219000000000000000e+03 2.306078720092773438e+01 -5.294415473937988281e+00 -1.618214130401611328e+00 -1.399637222290039062e+00 -9.053553938865661621e-01 1.354994654655456543e+00
1.220000000000000000e+03 1.643623352050781250e+01 -3.069455623626708984e-01 -1.640577316284179688e+00 -1.535224318504333496e+00 -9.527404904365539551e-01 1.431736946105957031e+00
1.221000000000000000e+03 1.396730613708496094e+01 1.975273251533508301e+00 -1.012581586837768555e+00 -1.227658271789550781e+00 -6.720719337463378906e-01 1.160846233367919922e+00
1.222000000000000000e+03 1.712125968933105469e+01 -7.649908065795898438e-01 -1.697176814079284668e+00 -1.619743943214416504e+00 -9.950762391090393066e-01 1.478272676467895508e+00
1.223000000000000000e+03 1.652144241333007812e+01 1.337259173393249512e+00 -9.596959352493286133e-01 -1.426402688026428223e+00 -7.158296108245849609e-01 1.157680988311767578e+00
1.224000000000000000e+03 1.282461261749267578e+01 1.732182502746582031e+00 -1.194075584411621094e+00 -1.073603749275207520e+00 -6.803038120269775391e-01 1.136233568191528320e+00
1.225000000000000000e+03 1.908152008056640625e+01 -2.258335590362548828e+00 -1.816575050354003906e+00 -1.795846343040466309e+00 -1.083726406097412109e+00 1.552470922470092773e+00
1.226000000000000000e+03 2.089750099182128906e+01 -3.933143615722656250e+00 -1.833237171173095703e+00 -1.826969265937805176e+00 -1.098061919212341309e+00 1.579848051071166992e+00
1.227000000000000000e+03 2.137212753295898438e+01 -3.417475461959838867e+00 -1.614952325820922852e+00 -1.586819648742675781e+00 -9.605315923690795898e-01 1.357956171035766602e+00
1.228000000000000000e+03 2.195514869689941406e+01 -4.024694442749023438e+00 -1.624810934066772461e+00 -1.534110903739929199e+00 -9.476765394210815430e-01 1.359141469001770020e+00
1.229000000000000000e+03 1.887077140808105469e+01 -1.182321548461914062e+00 -1.480313420295715332e+00 -1.633575558662414551e+00 -9.341667294502258301e-01 1.338113188743591309e+00
1.230000000000000000e+03 1.820695114135742188e+01 -6.736661195755004883e-01 -1.427961587905883789e+00 -1.605038166046142578e+00 -9.098998904228210449e-01 1.329624176025390625e+00
1.231000000000000000e+03 1.752657890319824219e+01 -1.845709234476089478e-01 -1.373598933219909668e+00 -1.565701246261596680e+00 -8.817900419235229492e-01 1.310269474983215332e+00
1.232000000000000000e+03 1.122193813323974609e+01 -4.945668697357177734e+00 -1.637087116250768304e-04 -5.586575571214780211e-05 -6.587233656318858266e-05 4.578454536385834217e-05
1.233000000000000000e+03 5.977957725524902344e+00 -2.556615591049194336e+00 -2.228027733508497477e-05 1.292910455958917737e-04 3.210322756785899401e-05 1.646809869271237403e-05
1.234000000000000000e+03 7.319672107696533203e+00 -3.383547544479370117e+00 -1.691869401838630438e-04 4.740622534882277250e-05 -3.653421299532055855e-05 -4.326339694671332836e-05
1.235000000000000000e+03 5.197576045989990234e+00 -2.760162591934204102e+00 1.682298898231238127e-05 -8.121726568788290024e-05 -1.931828228407539427e-05 -5.990437784930691123e-05
1.236000000000000000e+03 6.178442001342773438e+00 -3.115228176116943359e+00 8.288077515317127109e-05 5.334311208571307361e-05 4.086716580786742270e-05 -9.937323193298652768e-05
1.237000000000000000e+03 8.123546600341796875e+00 -3.314567327499389648e+00 1.558451185701414943e-04 -2.999870275743887760e-06 4.585357601172290742e-05 5.828795838169753551e-05
1.238000000000000000e+03 4.174876213073730469e+00 -8.371320724487304688e+00 -4.121111705899238586e-04 -7.084647222654893994e-05 -1.448872935725376010e-04 -4.035045640193857253e-05
1.239000000000000000e+03 2.331504344940185547e+00 -3.275829076766967773e+00 2.849223092198371887e-04 1.257133681065170094e-05 8.924808935262262821e-05 4.367368819657713175e-05
1.240000000000000000e+03 2.144474983215332031e+00 -4.753861427307128906e+00 -3.188346745446324348e-04 1.967329126273398288e-07 -9.559137834003195167e-05 -4.651541166822426021e-05
1.241000000000000000e+03 1.256154346466064453e+01 2.841617345809936523e+00 -7.826948165893554688e-01 -1.083736181259155273e+00 -5.599293112754821777e-01 1.076559185981750488e+00
1.242000000000000000e+03 1.191561126708984375e+01 3.334100961685180664e+00 -6.390839219093322754e-01 -1.029874920845031738e+00 -5.006876587867736816e-01 1.054933309555053711e+00
1.243000000000000000e+03 1.132246875762939453e+01 2.624364614486694336e+00 -8.799002170562744141e-01 -9.119365215301513672e-01 -5.375510454177856445e-01 1.025144457817077637e+00
1.244000000000000000e+03 1.033114337921142578e+01 -2.939087867736816406e+00 1.109284057747572660e-04 9.169751137960702181e-05 6.078777369111776352e-05 -1.211351536767324433e-05
1.245000000000000000e+03 2.454070663452148438e+01 -7.296229362487792969e+00 -1.541109800338745117e+00 -1.142900705337524414e+00 -8.052031397819519043e-01 1.338076472282409668e+00
1.246000000000000000e+03 2.406774139404296875e+01 -6.616048336029052734e+00 -1.573045730590820312e+00 -1.232793927192687988e+00 -8.417519330978393555e-01 1.345564842224121094e+00
1.247000000000000000e+03 2.252037048339843750e+01 -4.652338027954101562e+00 -1.629593491554260254e+00 -1.475745916366577148e+00 -9.316018223762512207e-01 1.355740189552307129e+00
1.248000000000000000e+03 2.015519523620605469e+01 -2.262356519699096680e+00 -1.565585374832153320e+00 -1.641396641731262207e+00 -9.620946049690246582e-01 1.351472616195678711e+00
1.249000000000000000e+03 1.952020835876464844e+01 -1.711280107498168945e+00 -1.525279402732849121e+00 -1.643002033233642578e+00 -9.504843950271606445e-01 1.347747564315795898e+00
1.250000000000000000e+03 1.469028663635253906e+01 1.564605236053466797e+00 -1.108616232872009277e+00 -1.300946474075317383e+00 -7.228688001632690430e-01 1.201801657676696777e+00
1.251000000000000000e+03 9.659632682800292969e+00 -2.718351364135742188e+00 -9.956594294635578990e-05 -1.195301010739058256e-04 -6.572881102329120040e-05 1.062208139046560973e-05
1.252000000000000000e+03 9.906599044799804688e+00 -3.591827392578125000e+00 -1.697502157185226679e-04 -6.823571311542764306e-05 -7.139577792258933187e-05 4.874403748544864357e-05
1.253000000000000000e+03 4.958425903320312500e+01 -1.925322341918945312e+01 2.833619832992553711e+00 7.327846527099609375e+00 3.048439979553222656e+00 -2.807047963142395020e-01
1.254000000000000000e+03 4.865991210937500000e+01 -2.183221244812011719e+01 4.208748817443847656e+00 9.319562911987304688e+00 4.058493614196777344e+00 -3.465933322906494141e+00
1.255000000000000000e+03 4.948120880126953125e+01 -2.093860435485839844e+01 5.328394412994384766e+00 7.278294086456298828e+00 3.782006502151489258e+00 -2.504939556121826172e+00
1.256000000000000000e+03 1.142256546020507812e+01 -1.302835845947265625e+01 -2.164108445867896080e-04 4.140326200285926461e-05 -5.250227695796638727e-05 2.476986555848270655e-04
1.257000000000000000e+03 8.699029922485351562e+00 -1.623221397399902344e+01 -7.927889237180352211e-04 -2.439409727230668068e-04 -3.110189863946288824e-04 1.738883838697802275e-05
1.258000000000000000e+03 7.229824829101562500e+01 1.327904701232910156e+01 -1.970420330762863159e-01 9.147344589233398438e+00 2.685090780258178711e+00 4.344753324985504150e-01
1.259000000000000000e+03 3.008561706542968750e+01 -1.591369724273681641e+01 -1.356208920478820801e+00 -9.368413686752319336e-02 -4.349679052829742432e-01 7.602477073669433594e-01
1.260000000000000000e+03 3.306981277465820312e+01 -1.683532142639160156e+01 -1.973054528236389160e+00 6.871815025806427002e-02 -5.713009238243103027e-01 5.556798577308654785e-01
1.261000000000000000e+03 3.226594543457031250e+01 -1.567639160156250000e+01 -1.596375703811645508e+00 9.543351829051971436e-02 -4.502826333045959473e-01 7.161349058151245117e-01
1.262000000000000000e+03 2.961427116394042969e+01 -1.397393894195556641e+01 -1.161274909973144531e+00 -8.955337107181549072e-02 -3.752484917640686035e-01 9.974244236946105957e-01
1.263000000000000000e+03 3.102081680297851562e+01 -3.670828628540039062e+01 5.180016160011291504e-02 -1.390901952981948853e-02 1.136734243482351303e-02 -1.001743972301483154e-01
1.264000000000000000e+03 3.291498947143554688e+01 -3.571306228637695312e+01 -2.830807119607925415e-02 6.056963279843330383e-02 9.678469039499759674e-03 -1.413131207227706909e-01
1.265000000000000000e+03 4.475394058227539062e+01 -2.983204603195190430e+00 2.315754592418670654e-01 5.481393337249755859e+00 1.713890671730041504e+00 -2.011373996734619141e+00
1.266000000000000000e+03 6.139721679687500000e+01 -2.232928085327148438e+01 8.758652210235595703e-01 1.243865966796875000e+00 6.359193921089172363e-01 1.625311374664306641e+00
1.267000000000000000e+03 4.481206130981445312e+01 -3.060662150382995605e-01 6.440241336822509766e-01 5.842635154724121094e+00 1.945997834205627441e+00 -2.373806715011596680e+00
1.268000000000000000e+03 4.474932098388671875e+01 2.465223550796508789e+00 1.143686413764953613e+00 6.384871482849121094e+00 2.258567333221435547e+00 -2.892909765243530273e+00
1.269000000000000000e+03 4.895885467529296875e+01 -8.859852790832519531e+00 -1.522247642278671265e-01 5.602530002593994141e+00 1.635091543197631836e+00 -1.191565752029418945e+00
1.270000000000000000e+03 4.912253570556640625e+01 -1.147351455688476562e+01 -1.302175402641296387e+00 5.651596546173095703e+00 1.304826259613037109e+00 -2.336812019348144531e-01
1.271000000000000000e+03 2.898195648193359375e+01 -3.349218750000000000e+01 -1.925660073757171631e-01 3.058068454265594482e-02 -4.859559983015060425e-02 -5.524207651615142822e-02
1.272000000000000000e+03 2.865146255493164062e+01 -3.649079513549804688e+01 2.636967226862907410e-03 -5.714998114854097366e-03 -9.234092431142926216e-04 -9.729861468076705933e-02
1.273000000000000000e+03 3.810686874389648438e+01 -1.755791854858398438e+01 -2.138405799865722656e+00 -2.777838408946990967e-01 -7.248568534851074219e-01 7.390248030424118042e-02
1.274000000000000000e+03 4.889568090438842773e-01 3.551338672637939453e+00 -1.333187799900770187e-02 -4.830010235309600830e-02 -1.848959363996982574e-02 3.224696218967437744e-02
1.275000000000000000e+03 2.890634155273437500e+01 -3.499462509155273438e+01 -9.413125365972518921e-02 -4.836658015847206116e-03 -2.969037182629108429e-02 -1.053855270147323608e-01
1.276000000000000000e+03 7.706249237060546875e+01 1.107867908477783203e+01 -8.505576848983764648e-02 7.473799705505371094e+00 2.216623067855834961e+00 7.024554014205932617e-01
1.277000000000000000e+03 4.874167251586914062e+01 -7.511353969573974609e+00 1.187868863344192505e-01 5.732770919799804688e+00 1.755467414855957031e+00 -1.515052437782287598e+00
1.278000000000000000e+03 4.760128784179687500e+01 -8.751451492309570312e+00 -5.188243985176086426e-01 5.663300037384033203e+00 1.543342709541320801e+00 -1.197144150733947754e+00
1.279000000000000000e+03 4.310395050048828125e+01 2.789921188354492188e+01 3.701043128967285156e-02 3.884231328964233398e+00 1.176372528076171875e+00 6.385836005210876465e-01
1.280000000000000000e+03 4.340656280517578125e+01 -2.549612426757812500e+01 7.022291421890258789e-02 2.921408891677856445e+00 8.974895477294921875e-01 1.169419407844543457e+00
1.281000000000000000e+03 4.297320938110351562e+01 3.288199901580810547e+00 9.428715705871582031e-01 6.832734584808349609e+00 2.332681894302368164e+00 -2.448034524917602539e+00
1.282000000000000000e+03 6.659795379638671875e+01 -2.039685821533203125e+01 -1.422292113304138184e+00 3.511485159397125244e-01 -3.213430643081665039e-01 8.474617004394531250e-01
1.283000000000000000e+03 6.387948989868164062e+01 -1.433498191833496094e+01 1.268760323524475098e+00 2.407280921936035156e+00 1.102812409400939941e+00 1.615230321884155273e+00
1.284000000000000000e+03 4.681903839111328125e+01 -5.105498790740966797e+00 2.463762760162353516e-01 5.549115180969238281e+00 1.738647460937500000e+00 -1.879164576530456543e+00
1.285000000000000000e+03 3.445698547363281250e+01 -1.588108921051025391e+01 -1.733618497848510742e+00 1.121613308787345886e-01 -4.864371418952941895e-01 5.276068449020385742e-01
1.286000000000000000e+03 3.330072402954101562e+01 -1.580357646942138672e+01 -1.672451019287109375e+00 1.365904808044433594e-01 -4.607581496238708496e-01 6.420731544494628906e-01
1.287000000000000000e+03 7.255827331542968750e+01 6.131274700164794922e+00 3.768445551395416260e-01 1.046483135223388672e+01 3.252502679824829102e+00 6.483285427093505859e-01
1.288000000000000000e+03 4.677869033813476562e+01 -2.313547325134277344e+01 -3.698551654815673828e-01 1.168141555786132812e+01 3.393468141555786133e+00 1.977422833442687988e-01
1.289000000000000000e+03 7.342923736572265625e+01 -2.713551712036132812e+01 1.435986518859863281e+00 9.283183097839355469e+00 3.215750932693481445e+00 1.253090053796768188e-01
1.290000000000000000e+03 6.594841480255126953e+00 -2.952848434448242188e+01 1.544517872389405966e-04 -7.641502306796610355e-04 -1.829095272114500403e-04 8.818315109238028526e-05
1.291000000000000000e+03 1.118841457366943359e+01 -3.293579864501953125e+01 -3.464475274085998535e-03 -1.988342963159084320e-03 -1.635845401324331760e-03 -3.834760515019297600e-03
1.292000000000000000e+03 4.718535995483398438e+01 -6.334876060485839844e+00 7.149753719568252563e-02 5.565603733062744141e+00 1.691130280494689941e+00 -1.685037612915039062e+00
1.293000000000000000e+03 7.583995819091796875e+01 2.565597915649414062e+01 4.467304423451423645e-02 8.733429908752441406e+00 2.633430957794189453e+00 8.583278656005859375e-01
1.294000000000000000e+03 7.133144378662109375e+01 3.368487119674682617e+00 4.958598017692565918e-01 1.261868381500244141e+01 3.934362888336181641e+00 8.956936001777648926e-01
1.295000000000000000e+03 7.342707061767578125e+01 1.610787773132324219e+01 3.420447558164596558e-02 8.647859573364257812e+00 2.604619264602661133e+00 6.137851476669311523e-01
1.296000000000000000e+03 7.779177093505859375e+01 -3.565456771850585938e+01 -1.994116008281707764e-01 7.563331604003906250e+00 2.209176063537597656e+00 -2.797493636608123779e-01
1.297000000000000000e+03 7.379549407958984375e+01 -3.817974472045898438e+01 -2.624935507774353027e-01 5.780029296875000000e+00 1.655260682106018066e+00 4.545950144529342651e-02
1.298000000000000000e+03 7.795630645751953125e+01 3.522185516357421875e+01 -1.676668077707290649e-01 1.091699409484863281e+01 3.224798440933227539e+00 1.162870824337005615e-01
1.299000000000000000e+03 7.653949737548828125e+01 3.297056198120117188e+01 -2.299707978963851929e-01 9.613669395446777344e+00 2.815109729766845703e+00 3.790362477302551270e-01
1.300000000000000000e+03 7.715381622314453125e+01 -2.413272094726562500e+01 2.240709215402603149e-01 7.036976814270019531e+00 2.178314208984375000e+00 6.619098186492919922e-01
1.301000000000000000e+03 7.814863586425781250e+01 -2.888723754882812500e+01 1.623522341251373291e-01 6.607684135437011719e+00 2.031010866165161133e+00 -4.155026376247406006e-01
1.302000000000000000e+03 7.496832275390625000e+01 -2.969480514526367188e+01 4.763600230216979980e-01 7.735788345336914062e+00 2.463644504547119141e+00 -5.798957943916320801e-01
1.303000000000000000e+03 7.848979187011718750e+01 -2.214115905761718750e+01 -4.835049435496330261e-02 7.023079872131347656e+00 2.092418909072875977e+00 4.863404035568237305e-01
1.304000000000000000e+03 7.457855987548828125e+01 -2.338096427917480469e+01 1.453081220388412476e-01 8.036301612854003906e+00 2.454483032226562500e+00 8.480982184410095215e-01
1.305000000000000000e+03 7.801127624511718750e+01 -2.741099357604980469e+01 2.863142788410186768e-01 6.558162212371826172e+00 2.053342819213867188e+00 -1.524348258972167969e-01
1.306000000000000000e+03 7.648263549804687500e+01 -3.512461853027343750e+01 -3.633579015731811523e-01 7.288182258605957031e+00 2.077447414398193359e+00 -4.009059667587280273e-01
1.307000000000000000e+03 7.667459869384765625e+01 -2.527854347229003906e+01 5.833629965782165527e-01 7.226743221282958984e+00 2.343031883239746094e+00 3.767721652984619141e-01
1.308000000000000000e+03 7.677483367919921875e+01 -3.408415603637695312e+01 -2.068962901830673218e-01 7.348021507263183594e+00 2.142337560653686523e+00 -5.343165397644042969e-01
1.309000000000000000e+03 7.681598663330078125e+01 -3.283780670166015625e+01 -1.462651044130325317e-01 7.287350177764892578e+00 2.142325639724731445e+00 -6.498712897300720215e-01
1.310000000000000000e+03 7.550027465820312500e+01 -3.270006561279296875e+01 -2.556380033493041992e-01 7.259212493896484375e+00 2.101072311401367188e+00 -6.179825067520141602e-01
1.311000000000000000e+03 7.804824829101562500e+01 2.244644355773925781e+01 1.875786110758781433e-02 8.918401718139648438e+00 2.681147813796997070e+00 5.126237273216247559e-01
1.312000000000000000e+03 7.672415924072265625e+01 1.951860237121582031e+01 6.256309896707534790e-02 8.400434494018554688e+00 2.538899421691894531e+00 6.290422677993774414e-01
1.313000000000000000e+03 7.687838745117187500e+01 2.405974960327148438e+01 4.563454911112785339e-02 8.917441368103027344e+00 2.688922643661499023e+00 7.336606383323669434e-01
1.314000000000000000e+03 7.665844726562500000e+01 2.106240844726562500e+01 5.034258961677551270e-02 8.565808296203613281e+00 2.584845304489135742e+00 6.705428361892700195e-01
1.315000000000000000e+03 7.707199859619140625e+01 1.243351078033447266e+01 -7.798418402671813965e-02 7.610587596893310547e+00 2.259780883789062500e+00 6.168522238731384277e-01
1.316000000000000000e+03 7.705862426757812500e+01 1.379255867004394531e+01 -4.357650503516197205e-02 7.772573947906494141e+00 2.318699121475219727e+00 5.967370271682739258e-01
1.317000000000000000e+03 7.213109588623046875e+01 2.397186088562011719e+01 2.490023821592330933e-01 7.769365310668945312e+00 2.405510187149047852e+00 4.721920490264892578e-01
1.318000000000000000e+03 7.816683197021484375e+01 2.671173667907714844e+01 6.558521185070276260e-03 9.821273803710937500e+00 2.948349714279174805e+00 5.538359284400939941e-01
1.319000000000000000e+03 7.588635253906250000e+01 1.368923377990722656e+01 -9.760971367359161377e-02 8.125397682189941406e+00 2.408336400985717773e+00 6.601701378822326660e-01
1.320000000000000000e+03 7.692792510986328125e+01 2.819410514831542969e+01 -5.657796934247016907e-02 9.458113670349121094e+00 2.820460796356201172e+00 7.297530770301818848e-01
1.321000000000000000e+03 7.681766510009765625e+01 -2.256733703613281250e+01 -3.967483341693878174e-02 7.281020164489746094e+00 2.172403573989868164e+00 7.376204133033752441e-01
1.322000000000000000e+03 7.810031890869140625e+01 5.494076251983642578e+00 7.722859084606170654e-02 5.807473182678222656e+00 1.765410542488098145e+00 4.672756791114807129e-01
1.323000000000000000e+03 7.683496093750000000e+01 5.432237148284912109e+00 1.696596890687942505e-01 6.836344242095947266e+00 2.101801156997680664e+00 6.368969678878784180e-01
1.324000000000000000e+03 7.721882629394531250e+01 -2.104327583312988281e+01 -2.288190424442291260e-01 7.328677177429199219e+00 2.129957437515258789e+00 5.366904139518737793e-01
1.325000000000000000e+03 7.554148864746093750e+01 -8.235565185546875000e+00 1.349888835102319717e-02 6.700358867645263672e+00 2.014157295227050781e+00 -5.848079919815063477e-01
1.326000000000000000e+03 7.688853454589843750e+01 -1.382015609741210938e+01 -1.255709081888198853e-01 6.895970821380615234e+00 2.031120061874389648e+00 -4.746606349945068359e-01
1.327000000000000000e+03 7.493813323974609375e+01 -4.208775520324707031e+00 1.886274367570877075e-01 7.364735126495361328e+00 2.266008853912353516e+00 -3.991126120090484619e-01
1.328000000000000000e+03 7.694811248779296875e+01 -6.902368545532226562e+00 1.427599042654037476e-02 6.392617225646972656e+00 1.922067999839782715e+00 -5.720839500427246094e-01
1.329000000000000000e+03 7.762509918212890625e+01 3.666631317138671875e+01 -1.860892027616500854e-01 1.083410644531250000e+01 3.194405078887939453e+00 3.025887347757816315e-02
1.330000000000000000e+03 7.551400756835937500e+01 2.946670913696289062e+01 -1.884179860353469849e-01 8.804730415344238281e+00 2.584893703460693359e+00 7.785831689834594727e-01
1.331000000000000000e+03 7.811080169677734375e+01 6.923228263854980469e+00 3.344390913844108582e-02 6.071553230285644531e+00 1.831499099731445312e+00 5.230847001075744629e-01
1.332000000000000000e+03 7.552541351318359375e+01 6.926348686218261719e+00 1.813679486513137817e-01 8.008907318115234375e+00 2.457082509994506836e+00 8.856222629547119141e-01
1.333000000000000000e+03 7.719321441650390625e+01 -2.855648994445800781e+00 9.210340678691864014e-02 6.116495609283447266e+00 1.862579822540283203e+00 -3.947331607341766357e-01
1.334000000000000000e+03 7.683538055419921875e+01 -9.681569099426269531e+00 -1.496289856731891632e-02 6.571944236755371094e+00 1.967094421386718750e+00 -5.834565162658691406e-01
1.335000000000000000e+03 7.680556488037109375e+01 -1.669082069396972656e+01 -2.810253798961639404e-01 7.141621112823486328e+00 2.058178663253784180e+00 -2.056835442781448364e-01
1.336000000000000000e+03 7.658900451660156250e+01 3.480440521240234375e+01 -2.427752763032913208e-01 9.640702247619628906e+00 2.819377899169921875e+00 2.468948960304260254e-01
1.337000000000000000e+03 7.653559875488281250e+01 3.116100692749023438e+01 -1.928159445524215698e-01 9.506107330322265625e+00 2.793987274169921875e+00 5.519613027572631836e-01
1.338000000000000000e+03 7.685643005371093750e+01 1.801616859436035156e+01 2.309282124042510986e-02 8.253863334655761719e+00 2.483087062835693359e+00 5.763422250747680664e-01
1.339000000000000000e+03 7.425547027587890625e+01 1.900936508178710938e+01 9.847888350486755371e-02 8.443909645080566406e+00 2.562716484069824219e+00 7.224847674369812012e-01
1.340000000000000000e+03 7.701882934570312500e+01 9.712639808654785156e+00 -4.389032721519470215e-02 7.306077480316162109e+00 2.178656101226806641e+00 7.612585425376892090e-01
1.341000000000000000e+03 7.717016601562500000e+01 -1.567391157150268555e+00 1.971916407346725464e-01 6.150051593780517578e+00 1.904172897338867188e+00 -3.039639592170715332e-01
1.342000000000000000e+03 7.817799377441406250e+01 -6.941717624664306641e+00 6.378250662237405777e-03 6.019423961639404297e+00 1.807740688323974609e+00 -4.415386021137237549e-01
1.343000000000000000e+03 7.686587524414062500e+01 -8.290355682373046875e+00 -8.026798255741596222e-03 6.480940341949462891e+00 1.941874027252197266e+00 -5.844237208366394043e-01
1.344000000000000000e+03 7.812431335449218750e+01 -1.385703945159912109e+01 -5.975146964192390442e-02 7.118989467620849609e+00 2.117771387100219727e+00 -3.320784568786621094e-01
1.345000000000000000e+03 7.686936950683593750e+01 -1.521957015991210938e+01 -1.979572474956512451e-01 7.024103164672851562e+00 2.047843694686889648e+00 -3.653650879859924316e-01
1.346000000000000000e+03 7.692925262451171875e+01 1.062140464782714844e+00 2.693685889244079590e-01 6.312733650207519531e+00 1.974630713462829590e+00 5.784843116998672485e-02
1.347000000000000000e+03 7.687939453125000000e+01 3.946773529052734375e+00 2.641986310482025146e-01 6.658434391021728516e+00 2.076789855957031250e+00 4.882467091083526611e-01
1.348000000000000000e+03 7.712859344482421875e+01 -4.170434474945068359e+00 7.250321656465530396e-02 6.177817821502685547e+00 1.875096321105957031e+00 -4.719402492046356201e-01
1.349000000000000000e+03 7.704994964599609375e+01 -5.528027057647705078e+00 5.212652310729026794e-02 6.288362026214599609e+00 1.902146577835083008e+00 -5.404579639434814453e-01
1.350000000000000000e+03 7.684829711914062500e+01 -1.105846691131591797e+01 -3.748236224055290222e-02 6.660332679748535156e+00 1.986855149269104004e+00 -5.759183764457702637e-01
1.351000000000000000e+03 7.687589263916015625e+01 -1.243693542480468750e+01 -7.446124404668807983e-02 6.778153896331787109e+00 2.011107683181762695e+00 -5.374251008033752441e-01
1.352000000000000000e+03 7.687462615966796875e+01 -1.820808601379394531e+01 -3.590696156024932861e-01 7.282109737396240234e+00 2.076912164688110352e+00 2.560411579906940460e-02
1.353000000000000000e+03 7.699793243408203125e+01 -1.969561386108398438e+01 -3.480284810066223145e-01 7.346188068389892578e+00 2.099447965621948242e+00 3.422853946685791016e-01
1.354000000000000000e+03 7.107510375976562500e+01 1.589250850677490234e+01 1.228346601128578186e-01 9.268227577209472656e+00 2.817318677902221680e+00 5.601375699043273926e-01
1.355000000000000000e+03 7.139335632324218750e+01 1.880696654319763184e+00 9.966233372688293457e-01 1.215764522552490234e+01 3.946280717849731445e+00 1.045373082160949707e+00
1.356000000000000000e+03 7.125453186035156250e+01 2.976569533348083496e-01 1.023519992828369141e+00 1.179248237609863281e+01 3.844800710678100586e+00 1.038645148277282715e+00
1.357000000000000000e+03 7.106941223144531250e+01 1.998841094970703125e+01 3.109351545572280884e-02 8.528083801269531250e+00 2.567753076553344727e+00 3.797096014022827148e-01
1.358000000000000000e+03 7.106635284423828125e+01 1.726671409606933594e+01 3.328565880656242371e-02 9.004685401916503906e+00 2.711391448974609375e+00 4.428896605968475342e-01
1.359000000000000000e+03 7.231194305419921875e+01 2.127944183349609375e+01 1.245441734790802002e-01 8.294465065002441406e+00 2.525702714920043945e+00 5.058084130287170410e-01
1.360000000000000000e+03 7.327228546142578125e+01 1.868442535400390625e+01 6.374050676822662354e-02 8.560307502746582031e+00 2.587214469909667969e+00 6.677990555763244629e-01
1.361000000000000000e+03 7.225617218017578125e+01 1.996533775329589844e+01 6.592838466167449951e-02 8.500152587890625000e+00 2.569824218750000000e+00 5.556188225746154785e-01
1.362000000000000000e+03 6.748159027099609375e+01 -9.346750259399414062e+00 9.425044059753417969e-01 5.448948860168457031e+00 1.917435884475708008e+00 1.854019403457641602e+00
1.363000000000000000e+03 4.421525573730468750e+01 8.862903118133544922e-01 7.258833646774291992e-01 6.077373981475830078e+00 2.040977239608764648e+00 -2.434866189956665039e+00
1.364000000000000000e+03 4.310369491577148438e+01 5.015290975570678711e-01 5.312297940254211426e-01 5.922126770019531250e+00 1.936007022857666016e+00 -2.146003961563110352e+00
1.365000000000000000e+03 6.913404846191406250e+01 3.380702972412109375e+01 -9.768916964530944824e-01 3.343664884567260742e+00 7.100319266319274902e-01 -1.224343548528850079e-03
1.366000000000000000e+03 2.219567108154296875e+01 -3.514067840576171875e+01 -1.924856938421726227e-02 -2.007575705647468567e-02 -1.179729867726564407e-02 -4.348615184426307678e-02
1.367000000000000000e+03 5.139777183532714844e+00 -1.666945648193359375e+01 -9.202981891576200724e-05 -1.777707657311111689e-04 -8.094017539406195283e-05 1.283220626646652818e-04
1.368000000000000000e+03 1.855658912658691406e+01 -3.373164367675781250e+01 -2.423659525811672211e-02 -6.014215759932994843e-03 -9.075243957340717316e-03 -2.019761689007282257e-02
1.369000000000000000e+03 2.074483489990234375e+01 -3.564421844482421875e+01 -1.260963641107082367e-02 -1.726688817143440247e-02 -8.962957188487052917e-03 -3.482657298445701599e-02
1.370000000000000000e+03 2.073774814605712891e+00 2.757885360717773438e+01 8.659514598548412323e-03 -1.831462979316711426e+00 -5.468410253524780273e-01 2.453165361657738686e-03
1.371000000000000000e+03 3.547949790954589844e+00 3.030394363403320312e+01 1.437213923782110214e-02 -1.592206478118896484e+00 -4.733503162860870361e-01 -2.039520069956779480e-02
1.372000000000000000e+03 6.151101589202880859e+00 2.871457862854003906e+01 3.917212039232254028e-02 -1.199668049812316895e+00 -3.481487631797790527e-01 -1.174831204116344452e-02
1.373000000000000000e+03 3.570122718811035156e+00 3.169630432128906250e+01 1.067121047526597977e-02 -1.585799813270568848e+00 -4.725385606288909912e-01 -2.509506046772003174e-02
1.374000000000000000e+03 2.051010847091674805e+00 2.618520355224609375e+01 1.159413903951644897e-02 -1.827374219894409180e+00 -5.447340011596679688e-01 1.446981728076934814e-02
1.375000000000000000e+03 3.456204175949096680e+00 2.751996803283691406e+01 2.330762147903442383e-02 -1.607090830802917480e+00 -4.751349687576293945e-01 6.689364556223154068e-03
1.376000000000000000e+03 3.498089551925659180e+00 2.890556335449218750e+01 2.007067762315273285e-02 -1.603429794311523438e+00 -4.750077426433563232e-01 -8.536151610314846039e-03
1.377000000000000000e+03 3.434272766113281250e+00 3.432203292846679688e+01 1.314191240817308426e-02 -1.609530448913574219e+00 -4.789165556430816650e-01 -4.740276187658309937e-02
1.378000000000000000e+03 3.534892320632934570e+00 3.305994033813476562e+01 1.411190070211887360e-02 -1.606317639350891113e+00 -4.776617288589477539e-01 -2.907282672822475433e-02
1.379000000000000000e+03 4.537751674652099609e+00 -3.410156631469726562e+01 -1.935708452947437763e-03 -1.425899448804557323e-03 -1.008482417091727257e-03 1.305874320678412914e-04
1.380000000000000000e+03 3.559735298156738281e+00 -2.965266036987304688e+01 1.687287352979183197e-03 -3.144688671454787254e-04 4.118455690331757069e-04 1.448753057047724724e-03
1.381000000000000000e+03 1.993540763854980469e+00 -2.878638267517089844e+01 1.864242134615778923e-03 1.769755472196266055e-04 6.123653147369623184e-04 7.457141764461994171e-04
1.382000000000000000e+03 6.867700099945068359e+00 -2.633701133728027344e+01 -7.270220085047185421e-04 -5.739394109696149826e-04 -3.902884200215339661e-04 -9.889426291920244694e-05
1.383000000000000000e+03 1.971586108207702637e+00 2.195787811279296875e+01 1.574062183499336243e-02 -1.763485193252563477e+00 -5.243233442306518555e-01 6.425993144512176514e-02
1.384000000000000000e+03 3.328630208969116211e+00 2.333090591430664062e+01 3.846627473831176758e-02 -1.594417214393615723e+00 -4.667852818965911865e-01 7.139011472463607788e-02
1.385000000000000000e+03 2.820689201354980469e+00 -1.218032455444335938e+01 -6.034845719113945961e-04 -2.552230034780222923e-05 -1.887020771391689777e-04 -1.184923821710981429e-04
1.386000000000000000e+03 1.855605840682983398e+00 -7.918144226074218750e+00 -4.834971914533525705e-04 1.909384809550829232e-05 -1.393209968227893114e-04 -5.339201015885919333e-05
1.387000000000000000e+03 1.913489222526550293e+00 -1.906979179382324219e+01 -9.051422821357846260e-04 -1.853630601544864476e-05 -2.771035942714661360e-04 -1.224760635523125529e-04
1.388000000000000000e+03 1.938219428062438965e+00 2.053783798217773438e+01 1.918893679976463318e-02 -1.717297911643981934e+00 -5.094326734542846680e-01 8.575815707445144653e-02
1.389000000000000000e+03 3.272073268890380859e+00 2.190862655639648438e+01 4.212635383009910583e-02 -1.571629166603088379e+00 -4.588508307933807373e-01 1.023824140429496765e-01
1.390000000000000000e+03 2.929692983627319336e+00 1.209118080139160156e+01 3.360806033015251160e-02 -1.045597672462463379e+00 -3.035968840122222900e-01 3.432784676551818848e-01
1.391000000000000000e+03 3.091307163238525391e+00 1.765100097656250000e+01 4.845007881522178650e-02 -1.435405850410461426e+00 -4.160867333412170410e-01 2.047243416309356689e-01
1.392000000000000000e+03 1.945564508438110352e+00 -2.189213943481445312e+01 -1.043262542225420475e-03 -7.895987073425203562e-05 -3.366667078807950020e-04 -1.043778247549198568e-04
1.393000000000000000e+03 3.277411937713623047e+00 -1.759909439086914062e+01 -7.704878807999193668e-04 -1.726072950987145305e-04 -2.829285513143986464e-04 -7.311110675800591707e-05
1.394000000000000000e+03 1.770614624023437500e+00 -1.487176132202148438e+01 7.646324229426681995e-04 -2.454943751217797399e-05 2.220248861704021692e-04 3.185763853252865374e-05
1.395000000000000000e+03 6.158548831939697266e+00 -4.736157417297363281e+00 -2.300594496773555875e-04 1.537454045319464058e-05 -6.440547440433874726e-05 6.368411413859575987e-05
1.396000000000000000e+03 2.996936798095703125e+00 5.230383396148681641e+00 -9.479162096977233887e-02 -3.483816683292388916e-01 -1.329519897699356079e-01 3.116360008716583252e-01
1.397000000000000000e+03 2.863963127136230469e+00 8.054831504821777344e+00 -1.007654704153537750e-02 -6.453188061714172363e-01 -1.966186016798019409e-01 3.730913400650024414e-01
1.398000000000000000e+03 1.813281655311584473e+00 1.489285469055175781e+01 2.154289931058883667e-02 -1.369893789291381836e+00 -4.045052826404571533e-01 1.826268136501312256e-01
1.399000000000000000e+03 3.038218975067138672e+00 1.625267219543457031e+01 5.098062008619308472e-02 -1.360423803329467773e+00 -3.928329348564147949e-01 2.422528862953186035e-01
1.400000000000000000e+03 2.848263978958129883e+00 9.403471946716308594e+00 6.306028459221124649e-03 -7.824751734733581543e-01 -2.328507453203201294e-01 3.716668784618377686e-01
1.401000000000000000e+03 3.017596244812011719e+00 -8.104270935058593750e+00 4.840275214519351721e-04 1.976196290343068540e-05 1.511368463980033994e-04 -4.782314135809428990e-06
1.402000000000000000e+03 1.991866946220397949e+00 -2.330862617492675781e+01 1.082082628272473812e-03 2.071469061775133014e-04 3.867688647005707026e-04 2.411834720987826586e-04
1.403000000000000000e+03 3.286924362182617188e+00 -2.846706390380859375e+01 -1.164110261015594006e-03 -2.942948485724627972e-04 -4.375215212348848581e-04 -4.207309975754469633e-04
1.404000000000000000e+03 1.775526046752929688e+00 -3.664927673339843750e+01 2.514317166060209274e-04 1.605628756806254387e-03 5.571181536652147770e-04 6.113934068707749248e-05
1.405000000000000000e+03 2.836093425750732422e+00 -1.084042453765869141e+01 5.448327283374965191e-04 1.345926921203499660e-05 1.674876111792400479e-04 7.410888792946934700e-05
1.406000000000000000e+03 2.889574289321899414e+00 -9.476628303527832031e+00 -5.149393691681325436e-04 -1.592537773831281811e-05 -1.592594198882579803e-04 -5.082244388177059591e-05
1.407000000000000000e+03 3.184551239013671875e+00 -1.614476776123046875e+01 7.911723223514854908e-04 2.384295657975599170e-05 2.445045975036919117e-04 2.497834066161885858e-05
1.408000000000000000e+03 4.457491397857666016e+00 -3.247690200805664062e+01 2.184764947742223740e-03 -1.942353555932641029e-04 5.971588543616235256e-04 -5.251841866993345320e-05
1.409000000000000000e+03 5.302678585052490234e+00 -2.409244155883789062e+01 2.115454299200791866e-05 -2.675568975973874331e-04 -7.392070256173610687e-05 -1.198280660901218653e-04
1.410000000000000000e+03 3.314167737960815430e+00 -2.475070571899414062e+01 1.134383957833051682e-03 2.013952762354165316e-04 4.007337847724556923e-04 4.317809070926159620e-04
1.411000000000000000e+03 5.855552673339843750e+00 -1.811843872070312500e+01 -6.508583901450037956e-04 -2.642238687258213758e-04 -2.745246747508645058e-04 -6.233272870304062963e-05
1.412000000000000000e+03 2.925969600677490234e+00 -1.477160453796386719e+01 -7.951273582875728607e-04 8.602514571975916624e-05 -2.127306652255356312e-04 -1.288640050916001201e-04
1.413000000000000000e+03 2.883374214172363281e+00 1.074190998077392578e+01 2.590290084481239319e-02 -9.197189807891845703e-01 -2.681448161602020264e-01 3.629277646541595459e-01
1.414000000000000000e+03 2.963992595672607422e+00 1.346489906311035156e+01 4.461270198225975037e-02 -1.163015127182006836e+00 -3.355207145214080811e-01 3.152762353420257568e-01
1.415000000000000000e+03 4.206240653991699219e+00 1.618991088867187500e+01 8.648392558097839355e-02 -1.259557008743286133e+00 -3.519219160079956055e-01 3.078228831291198730e-01
1.416000000000000000e+03 6.916083526611328125e+01 -8.518740653991699219e+00 5.462216138839721680e-01 6.492454051971435547e+00 2.111602783203125000e+00 1.304461240768432617e+00
1.417000000000000000e+03 7.613895416259765625e+01 -1.757024645805358887e+00 2.437846660614013672e-01 6.809916019439697266e+00 2.116110324859619141e+00 -2.912867367267608643e-01
1.418000000000000000e+03 7.083742523193359375e+01 -1.254126548767089844e+00 6.957130432128906250e-01 1.127694225311279297e+01 3.591796398162841797e+00 1.418516159057617188e+00
1.419000000000000000e+03 2.744137382507324219e+01 -3.327614212036132812e+01 -1.422897279262542725e-01 1.627552206628024578e-03 -4.219865426421165466e-02 -5.189909040927886963e-02
1.420000000000000000e+03 4.181793594360351562e+01 2.477477836608886719e+01 2.976206839084625244e-01 4.788950443267822266e+00 1.525971412658691406e+00 6.539220213890075684e-01
1.421000000000000000e+03 4.142639541625976562e+01 1.818962097167968750e+01 5.717080831527709961e-01 7.448209762573242188e+00 2.405975341796875000e+00 6.835682988166809082e-01
1.422000000000000000e+03 4.266970062255859375e+01 2.254346847534179688e+01 6.324270367622375488e-01 5.587339401245117188e+00 1.865929961204528809e+00 1.212463736534118652e+00
1.423000000000000000e+03 4.043512344360351562e+01 2.022009277343750000e+01 5.664459466934204102e-01 6.183878898620605469e+00 2.025097608566284180e+00 3.988040685653686523e-01
1.424000000000000000e+03 5.283992767333984375e+00 -2.062154197692871094e+01 -2.971596550196409225e-04 -2.961957652587443590e-04 -1.780066231731325388e-04 7.706988981226459146e-05
1.425000000000000000e+03 4.398168563842773438e+01 2.928198242187500000e+01 -4.967924207448959351e-02 3.515408039093017578e+00 1.039718627929687500e+00 6.550538539886474609e-01
1.426000000000000000e+03 1.971734809875488281e+01 -1.178588390350341797e+01 -1.123424735851585865e-04 -7.838460987841244787e-06 -3.605427991715259850e-05 -8.243133197538554668e-05
1.427000000000000000e+03 4.431768035888671875e+01 3.396199798583984375e+01 -6.862995028495788574e-01 2.968769311904907227e+00 6.847409605979919434e-01 3.085983991622924805e-01
1.428000000000000000e+03 7.036812591552734375e+01 -5.913318634033203125e+00 4.105181694030761719e-01 8.068978309631347656e+00 2.543848991394042969e+00 1.167389154434204102e+00
1.429000000000000000e+03 4.083976364135742188e+01 2.171881866455078125e+01 5.005437731742858887e-01 5.692140579223632812e+00 1.857805371284484863e+00 5.621529221534729004e-01
1.430000000000000000e+03 2.894677925109863281e+01 -1.466254615783691406e+01 -1.112358212471008301e+00 -2.441841512918472290e-01 -4.069627225399017334e-01 9.573618173599243164e-01
1.431000000000000000e+03 2.818948936462402344e+01 -1.525319957733154297e+01 -9.810190200805664062e-01 -3.411615490913391113e-01 -3.966541588306427002e-01 8.925043344497680664e-01
1.432000000000000000e+03 7.426723480224609375e+00 -2.823306465148925781e+01 -7.187427836470305920e-04 -4.814527928829193115e-04 -3.600586787797510624e-04 2.009556628763675690e-04
1.433000000000000000e+03 5.577825546264648438e+00 -2.904901885986328125e+01 -1.879155170172452927e-03 3.749630923266522586e-05 -5.524976295419037342e-04 2.783316303975880146e-04
1.434000000000000000e+03 5.205399322509765625e+01 -1.481669044494628906e+01 -2.907916784286499023e+00 2.440377712249755859e+00 -1.402617245912551880e-01 1.321269035339355469e+00
1.435000000000000000e+03 5.098992538452148438e+01 -1.317083454132080078e+01 -2.094187259674072266e+00 4.174286842346191406e+00 6.240298748016357422e-01 6.646618247032165527e-01
1.436000000000000000e+03 6.961492919921875000e+01 3.034996032714843750e+01 -7.655252218246459961e-01 4.081941127777099609e+00 9.949247241020202637e-01 1.050584018230438232e-01
1.437000000000000000e+03 7.140834808349609375e+01 7.589498996734619141e+00 3.928914666175842285e-01 1.096090888977050781e+01 3.406140089035034180e+00 3.524315059185028076e-01
1.438000000000000000e+03 7.572994995117187500e+01 8.382007598876953125e+00 4.284883663058280945e-02 7.970269680023193359e+00 2.403935670852661133e+00 9.319648146629333496e-01
1.439000000000000000e+03 6.920874023437500000e+01 -3.409990310668945312e+01 -4.574129879474639893e-01 2.839565515518188477e+00 7.146457433700561523e-01 1.013410449028015137e+00
1.440000000000000000e+03 7.426742553710937500e+01 -3.223232269287109375e+01 -3.170102834701538086e-01 7.373847484588623047e+00 2.117051124572753906e+00 -4.927071332931518555e-01
1.441000000000000000e+03 7.222771453857421875e+01 2.261510086059570312e+01 1.701704412698745728e-01 8.099464416503906250e+00 2.480890512466430664e+00 4.876059591770172119e-01
1.442000000000000000e+03 7.344364166259765625e+01 2.265833663940429688e+01 1.867216378450393677e-01 8.177032470703125000e+00 2.509126424789428711e+00 6.809820532798767090e-01
1.443000000000000000e+03 4.239617919921875000e+01 2.634772682189941406e+01 1.902865171432495117e-01 4.339385032653808594e+00 1.358901500701904297e+00 6.366352438926696777e-01
1.444000000000000000e+03 4.084061431884765625e+01 2.721541404724121094e+01 -5.837053060531616211e-02 4.207901954650878906e+00 1.244859337806701660e+00 2.381139695644378662e-01
1.445000000000000000e+03 4.121918106079101562e+01 7.065083026885986328e+00 1.516214847564697266e+00 8.213236808776855469e+00 2.918835401535034180e+00 -1.857389569282531738e+00
1.446000000000000000e+03 4.235184097290039062e+01 4.513118743896484375e+00 1.138818502426147461e+00 7.215556144714355469e+00 2.506312370300292969e+00 -2.364187479019165039e+00
1.447000000000000000e+03 7.078978729248046875e+01 -7.672210693359375000e+00 2.849057316780090332e-01 7.185379505157470703e+00 2.241085529327392578e+00 6.896865963935852051e-01
1.448000000000000000e+03 6.125492858886718750e+01 -1.857410621643066406e+01 -5.141901969909667969e-01 1.615666389465332031e+00 3.304428458213806152e-01 2.134558200836181641e+00
1.449000000000000000e+03 1.643780326843261719e+01 -3.556918716430664062e+01 -4.921515937894582748e-03 -1.026192214339971542e-02 -4.555031657218933105e-03 -1.873138360679149628e-02
1.450000000000000000e+03 5.128833007812500000e+01 3.442994689941406250e+01 -3.896290361881256104e-01 8.398361802101135254e-01 1.350621432065963745e-01 3.210857510566711426e-01
1.451000000000000000e+03 4.886439132690429688e+01 3.412629699707031250e+01 -4.656915962696075439e-01 1.826012492179870605e+00 4.080962836742401123e-01 4.847213923931121826e-01
1.452000000000000000e+03 5.489747619628906250e+01 -2.673597717285156250e+01 1.098221898078918457e+00 5.065201282501220703e+00 1.849026918411254883e+00 -3.243846297264099121e-01
1.453000000000000000e+03 5.540593338012695312e+01 -2.490720748901367188e+01 1.704247713088989258e+00 3.448162794113159180e+00 1.545723199844360352e+00 1.032994017004966736e-01
1.454000000000000000e+03 4.130372238159179688e+01 2.323116111755371094e+01 4.430427551269531250e-01 5.247640132904052734e+00 1.707204818725585938e+00 6.120811700820922852e-01
1.455000000000000000e+03 6.600428771972656250e+01 -1.194330501556396484e+01 1.417643189430236816e+00 3.760776519775390625e+00 1.553525924682617188e+00 1.733846545219421387e+00
1.456000000000000000e+03 6.854280090332031250e+01 -9.824692726135253906e+00 7.616754174232482910e-01 5.664546489715576172e+00 1.927866458892822266e+00 1.307410955429077148e+00
1.457000000000000000e+03 7.337111473083496094e+00 -1.605863189697265625e+01 8.520313422195613384e-04 2.154152170987799764e-04 3.202339576091617346e-04 -2.420872333459556103e-04
1.458000000000000000e+03 6.434067535400390625e+01 -1.847652053833007812e+01 -3.447187840938568115e-01 1.556616544723510742e+00 3.635693192481994629e-01 1.634158015251159668e+00
1.459000000000000000e+03 5.696810531616210938e+01 -3.790266799926757812e+01 -3.701205253601074219e-01 3.644220829010009766e+00 9.822301268577575684e-01 -1.132198095321655273e+00
1.460000000000000000e+03 7.575294494628906250e+01 -3.125797843933105469e+01 -3.884908556938171387e-02 7.414098739624023438e+00 2.212574958801269531e+00 -7.205173969268798828e-01
1.461000000000000000e+03 5.644265747070312500e+01 -2.429056358337402344e+01 1.884708046913146973e+00 2.512996196746826172e+00 1.319311261177062988e+00 5.998938679695129395e-01
1.462000000000000000e+03 3.889899063110351562e+01 1.395309448242187500e+01 1.292284727096557617e+00 7.118233680725097656e+00 2.523155450820922852e+00 -7.909350991249084473e-01
1.463000000000000000e+03 3.811425399780273438e+01 1.251717472076416016e+01 1.649383664131164551e+00 6.574496746063232422e+00 2.467164039611816406e+00 -1.004562258720397949e+00
1.464000000000000000e+03 6.804326629638671875e+01 -2.011836433410644531e+01 -9.935169219970703125e-01 6.389039754867553711e-01 -1.063838750123977661e-01 -3.683479428291320801e-01
1.465000000000000000e+03 1.269784927368164062e+01 -3.374815368652343750e+01 -6.150325760245323181e-03 -9.294132469221949577e-04 -2.123921643942594528e-03 -5.185571964830160141e-03
1.466000000000000000e+03 7.214171600341796875e+01 2.540495681762695312e+01 2.008130550384521484e-01 7.385623931884765625e+00 2.275931119918823242e+00 5.392735600471496582e-01
1.467000000000000000e+03 7.227971649169921875e+01 2.696008110046386719e+01 5.393602186813950539e-04 7.068186759948730469e+00 2.120617866516113281e+00 6.448644995689392090e-01
1.468000000000000000e+03 3.929444885253906250e+01 1.126625156402587891e+01 1.776432275772094727e+00 7.463376045227050781e+00 2.771942615509033203e+00 -1.155025720596313477e+00
1.469000000000000000e+03 7.273081970214843750e+01 7.581851482391357422e+00 2.497534602880477905e-01 1.002681732177734375e+01 3.082971096038818359e+00 7.687276005744934082e-01
1.470000000000000000e+03 1.438952159881591797e+01 -3.459842300415039062e+01 -7.143182214349508286e-03 -6.451808847486972809e-03 -4.078497178852558136e-03 -1.121622137725353241e-02
1.471000000000000000e+03 7.204179382324218750e+01 -3.392585754394531250e+01 -7.018327713012695312e-01 5.914649486541748047e+00 1.563844919204711914e+00 4.607942998409271240e-01
1.472000000000000000e+03 5.308438873291015625e+01 -2.910062408447265625e+01 1.459856510162353516e+00 6.248777866363525391e+00 2.312590360641479492e+00 -1.415293216705322266e+00
1.473000000000000000e+03 5.777243041992187500e+01 -2.057145118713378906e+01 6.429554820060729980e-01 6.280940175056457520e-01 3.813148438930511475e-01 1.844820499420166016e+00
1.474000000000000000e+03 4.403403091430664062e+01 -2.715220832824707031e+01 2.303633242845535278e-01 3.892895936965942383e+00 1.236977696418762207e+00 1.359741091728210449e+00
1.475000000000000000e+03 6.626790618896484375e+01 -1.909354209899902344e+01 -3.995181024074554443e-01 1.115757465362548828e+00 2.148717939853668213e-01 8.590941429138183594e-01
1.476000000000000000e+03 6.152743148803710938e+01 4.048132324218750000e+01 3.369652107357978821e-02 -4.956646263599395752e-01 -1.385904401540756226e-01 1.229887902736663818e-01
1.477000000000000000e+03 7.696204376220703125e+01 -3.005733489990234375e+01 1.649010330438613892e-01 7.120095252990722656e+00 2.185498952865600586e+00 -6.508660912513732910e-01
1.478000000000000000e+03 7.227352905273437500e+01 1.462498283386230469e+01 -1.750162802636623383e-03 8.955895423889160156e+00 2.686243534088134766e+00 4.201862812042236328e-01
1.479000000000000000e+03 7.107942962646484375e+01 1.450950622558593750e+01 2.551450431346893311e-01 9.059503555297851562e+00 2.794394493103027344e+00 4.586290419101715088e-01
1.480000000000000000e+03 6.176074981689453125e+01 -1.962825775146484375e+01 -4.721987247467041016e-01 1.587306499481201172e+00 3.345323204994201660e-01 2.098624229431152344e+00
1.481000000000000000e+03 4.255450820922851562e+01 3.089920043945312500e+01 -4.689751565456390381e-01 3.480602264404296875e+00 9.034880995750427246e-01 2.817866504192352295e-01
1.482000000000000000e+03 3.705330657958984375e+01 -3.660406494140625000e+01 1.261771023273468018e-01 5.567979812622070312e-01 2.048925161361694336e-01 2.492800503969192505e-01
1.483000000000000000e+03 4.079519271850585938e+01 -3.540832519531250000e+01 -1.481446176767349243e-01 2.059144973754882812e+00 5.733001232147216797e-01 8.178570866584777832e-01
1.484000000000000000e+03 7.596842956542968750e+01 -2.629390335083007812e+01 7.232997417449951172e-01 7.368983268737792969e+00 2.427684783935546875e+00 1.620757281780242920e-01
1.485000000000000000e+03 1.933877563476562500e+01 -1.051546192169189453e+01 -1.207148761750431731e-05 8.483996498398482800e-05 2.183054311899468303e-05 5.850412344443611801e-05
1.486000000000000000e+03 1.914503097534179688e+01 -1.263942050933837891e+01 -6.266641867114230990e-05 -8.176267874659970403e-05 -4.332872777013108134e-05 -4.620928666554391384e-05
1.487000000000000000e+03 4.288195800781250000e+01 -3.560351943969726562e+01 -2.861684560775756836e-01 2.912999868392944336e+00 7.880494594573974609e-01 6.324493288993835449e-01
1.488000000000000000e+03 4.205032730102539062e+01 -3.363764572143554688e+01 -1.472049206495285034e-01 2.743120431900024414e+00 7.787746191024780273e-01 7.583442330360412598e-01
1.489000000000000000e+03 7.310317993164062500e+01 -1.626366996765136719e+01 -5.680325031280517578e-01 6.101788520812988281e+00 1.660126805305480957e+00 -7.344515323638916016e-01
1.490000000000000000e+03 7.292276763916015625e+01 2.839549255371093750e+01 -2.293040305376052856e-01 7.186459541320800781e+00 2.087146759033203125e+00 7.525707483291625977e-01
1.491000000000000000e+03 7.438703155517578125e+01 3.190815734863281250e+01 -4.534872770309448242e-01 7.992280483245849609e+00 2.261637926101684570e+00 5.222438573837280273e-01
1.492000000000000000e+03 5.283981323242187500e+01 3.530280303955078125e+01 -4.849863946437835693e-01 4.992661774158477783e-01 4.283933900296688080e-03 1.429608613252639771e-01
1.493000000000000000e+03 5.230821228027343750e+01 4.131081390380859375e+01 -6.742442846298217773e-01 8.353190422058105469e-01 4.832243174314498901e-02 5.074400454759597778e-02
1.494000000000000000e+03 1.801876640319824219e+01 -1.269628143310546875e+01 1.287368831981439143e-05 -7.793952136125881225e-06 1.523921014268125873e-06 1.939289722940884531e-05
1.495000000000000000e+03 4.068122482299804688e+01 8.406436920166015625e+00 1.798050403594970703e+00 8.366933822631835938e+00 3.049495220184326172e+00 -1.601553559303283691e+00
1.496000000000000000e+03 3.807538604736328125e+01 -1.652367973327636719e+01 -1.495978236198425293e+00 1.530562937259674072e-01 -4.028765857219696045e-01 -2.994832396507263184e-01
1.497000000000000000e+03 4.844061660766601562e+01 -1.613183975219726562e+01 -2.142149209976196289e+00 8.636272430419921875e+00 1.948236942291259766e+00 -4.764078259468078613e-01
1.498000000000000000e+03 5.115676879882812500e+01 -1.433974647521972656e+01 -2.809290409088134766e+00 4.086425304412841797e+00 3.831404447555541992e-01 8.215000033378601074e-01
1.499000000000000000e+03 1.674055480957031250e+01 -1.270333576202392578e+01 2.527587821532506496e-05 8.415421325480565429e-05 3.282902980572544038e-05 3.951429971493780613e-05
1.500000000000000000e+03 5.680313110351562500e+01 -1.928970527648925781e+01 -5.545021221041679382e-02 -1.693805009126663208e-01 -6.744921207427978516e-02 1.749543309211730957e+00
1.501000000000000000e+03 5.812476348876953125e+01 -1.948389244079589844e+01 2.217611484229564667e-02 3.271014094352722168e-01 1.047832593321800232e-01 2.125090599060058594e+00
1.502000000000000000e+03 5.449423980712890625e+01 -1.778281974792480469e+01 -1.458760976791381836e+00 -9.360195398330688477e-01 -7.184341549873352051e-01 7.414535880088806152e-01
1.503000000000000000e+03 5.367446899414062500e+01 -1.686172866821289062e+01 -2.421149492263793945e+00 1.624924540519714355e-01 -6.775971055030822754e-01 5.189065933227539062e-01
1.504000000000000000e+03 5.361407852172851562e+01 -2.999755096435546875e+01 1.619651675224304199e+00 6.098237514495849609e+00 2.315366744995117188e+00 -9.109710454940795898e-01
1.505000000000000000e+03 9.774680137634277344e+00 -3.212634277343750000e+01 -2.006435533985495567e-03 -3.703577676787972450e-04 -7.130380254238843918e-04 1.882288961496669799e-05
1.506000000000000000e+03 8.656780242919921875e+00 -1.525522708892822266e+01 7.616589427925646305e-04 6.864546776341740042e-06 2.305570524185895920e-04 1.901957439258694649e-04
1.507000000000000000e+03 1.536437511444091797e+01 -1.266541004180908203e+01 -2.491707855369895697e-04 -1.160100509878247976e-04 -1.095542538678273559e-04 -9.666008554631844163e-05
1.508000000000000000e+03 1.410839748382568359e+01 -1.229109573364257812e+01 3.727362491190433502e-04 2.653695701155811548e-04 1.914317399496212602e-04 -1.002587960101664066e-04
1.509000000000000000e+03 3.107081890106201172e+00 -2.726402282714843750e+01 1.454093027859926224e-03 2.275984152220189571e-04 5.045074503868818283e-04 6.945268833078444004e-04
1.510000000000000000e+03 7.264344692230224609e+00 -2.506419563293457031e+01 1.575922360643744469e-03 5.982128204777836800e-04 6.522405892610549927e-04 -6.580249755643308163e-04
1.511000000000000000e+03 6.267521667480468750e+01 -2.179728126525878906e+01 9.330333769321441650e-02 1.061936497688293457e+00 3.465719223022460938e-01 1.483217120170593262e+00
1.512000000000000000e+03 6.483376312255859375e+01 -1.964560890197753906e+01 -6.781713962554931641e-01 1.206980347633361816e+00 1.586426645517349243e-01 1.570907831192016602e+00
1.513000000000000000e+03 7.327163696289062500e+01 -2.142811393737792969e+01 -9.509830474853515625e-01 7.578875541687011719e+00 1.988367795944213867e+00 6.863357871770858765e-02
1.514000000000000000e+03 7.368542480468750000e+01 -2.422753906250000000e+01 1.087566375732421875e+00 8.365937232971191406e+00 2.836051225662231445e+00 3.182635605335235596e-01
1.515000000000000000e+03 6.710366058349609375e+01 3.729427719116210938e+01 -1.206102147698402405e-01 1.595166921615600586e+00 4.423669874668121338e-01 -3.589278832077980042e-02
1.516000000000000000e+03 6.504940032958984375e+01 3.925520324707031250e+01 9.307494014501571655e-02 3.022835850715637207e-01 1.186075583100318909e-01 1.095091328024864197e-01
1.517000000000000000e+03 6.832566833496093750e+01 3.546128463745117188e+01 -7.210702300071716309e-01 2.502824306488037109e+00 5.345262289047241211e-01 -1.713795214891433716e-01
1.518000000000000000e+03 4.901307106018066406e+00 -4.038897323608398438e+01 -8.867731667123734951e-04 -2.214262960478663445e-03 -9.303108672611415386e-04 -3.744241548702120781e-04
1.519000000000000000e+03 4.342274093627929688e+01 -2.826717758178710938e+01 5.433301925659179688e-01 3.510647058486938477e+00 1.216193199157714844e+00 1.214792251586914062e+00
1.520000000000000000e+03 5.549183273315429688e+01 -1.935489654541015625e+01 4.712095856666564941e-01 -4.493965804576873779e-01 6.543901283293962479e-03 1.034113526344299316e+00
1.521000000000000000e+03 5.452207565307617188e+01 -3.303592300415039062e+01 1.065961003303527832e+00 6.063821315765380859e+00 2.138934850692749023e+00 -3.214420080184936523e-01
1.522000000000000000e+03 6.538031768798828125e+01 -3.671466827392578125e+01 1.634672731161117554e-01 3.577699065208435059e-01 1.563711613416671753e-01 1.962135881185531616e-01
1.523000000000000000e+03 4.564299392700195312e+01 -2.260636329650878906e+01 1.034058094024658203e+00 7.823986530303955078e+00 2.657413482666015625e+00 3.370129585266113281e+00
1.524000000000000000e+03 4.470439147949218750e+01 -1.894168281555175781e+01 3.085145950317382812e+00 4.042441844940185547e+00 2.138276338577270508e+00 -4.527843952178955078e+00
1.525000000000000000e+03 4.411302947998046875e+01 -2.436731910705566406e+01 3.858107030391693115e-01 3.341739892959594727e+00 1.118265151977539062e+00 1.539342641830444336e+00
1.526000000000000000e+03 4.451118087768554688e+01 -2.315323257446289062e+01 1.183249831199645996e+00 3.289547681808471680e+00 1.341839313507080078e+00 2.099510669708251953e+00
1.527000000000000000e+03 4.375728988647460938e+01 -2.488912391662597656e+01 1.141238138079643250e-01 2.993752956390380859e+00 9.323630332946777344e-01 1.313250541687011719e+00
1.528000000000000000e+03 4.443856430053710938e+01 -2.525288963317871094e+01 4.873435944318771362e-02 4.400709629058837891e+00 1.334833145141601562e+00 1.605145692825317383e+00
1.529000000000000000e+03 4.558580780029296875e+01 -2.313848686218261719e+01 3.882496654987335205e-01 7.205860137939453125e+00 2.278233051300048828e+00 2.708434581756591797e+00
1.530000000000000000e+03 4.512788009643554688e+01 -1.819574165344238281e+01 1.139362454414367676e+00 7.060863494873046875e+00 2.460067749023437500e+00 -4.921681880950927734e+00
1.531000000000000000e+03 4.667501449584960938e+01 -1.778754615783691406e+01 -7.658002376556396484e-01 1.166264915466308594e+01 3.269054651260375977e+00 -2.588929653167724609e+00
1.532000000000000000e+03 5.516901779174804688e+01 -2.185309028625488281e+01 1.976837038993835449e+00 1.488011240959167480e+00 1.039454460144042969e+00 4.768367856740951538e-02
1.533000000000000000e+03 4.864585494995117188e+01 -1.804716110229492188e+01 5.436982512474060059e-01 9.814865112304687500e+00 3.107569217681884766e+00 3.140767216682434082e-01
1.534000000000000000e+03 1.563424015045166016e+01 -6.865007400512695312e+00 -1.531511807115748525e-04 -1.057024928741157055e-05 -4.911643191007897258e-05 4.924746826873160899e-05
1.535000000000000000e+03 1.348189353942871094e+01 -5.348021030426025391e+00 -1.320163137279450893e-04 -4.306375194573774934e-05 -5.252402115729637444e-05 -1.401647296006558463e-05
1.536000000000000000e+03 1.511001491546630859e+01 -7.324851036071777344e+00 1.658076216699555516e-04 3.133494465146213770e-05 5.914277426199987531e-05 -6.386363384081050754e-05
1.537000000000000000e+03 1.230823421478271484e+01 -4.698680400848388672e+00 -1.467901020077988505e-04 -3.931402898160740733e-05 -5.583123856922611594e-05 -3.914518856618087739e-06
1.538000000000000000e+03 1.354276466369628906e+01 -6.197227954864501953e+00 -1.336161949438974261e-04 -6.967157969484105706e-05 -6.098633093643002212e-05 -1.174821318272734061e-05
1.539000000000000000e+03 1.239401054382324219e+01 -5.555803775787353516e+00 -1.811241818359121680e-04 -2.424544072709977627e-05 -6.161088822409510612e-05 -1.750663432176224887e-05
1.540000000000000000e+03 1.113911437988281250e+01 -4.086480617523193359e+00 -1.139628657256253064e-04 -7.897913747001439333e-05 -5.788260386907495558e-05 -9.506366041023284197e-06
1.541000000000000000e+03 4.161761093139648438e+01 -1.811856079101562500e+01 -1.335381418466567993e-01 1.213479876518249512e+00 3.239825069904327393e-01 -1.140255808830261230e+00
1.542000000000000000e+03 1.252112960815429688e+01 -6.388938426971435547e+00 -1.949164434336125851e-04 -3.688305514515377581e-05 -6.953984848223626614e-05 -6.434904935304075480e-05
1.543000000000000000e+03 1.638851928710937500e+01 -9.140007019042968750e+00 -9.989555837819352746e-05 -1.188149963127216324e-05 -3.353311694809235632e-05 -8.905827417038381100e-05
1.544000000000000000e+03 1.459657096862792969e+01 -6.942093849182128906e+00 -1.431398268323391676e-04 -6.344019493553787470e-05 -6.197400944074615836e-05 4.755766713060438633e-05
1.545000000000000000e+03 1.655285453796386719e+01 -7.746676445007324219e+00 -1.553515467094257474e-04 4.047376933158375323e-05 -3.446333357715047896e-05 5.714013968827202916e-05
1.546000000000000000e+03 1.868235778808593750e+01 -1.055646038055419922e+01 7.636527880094945431e-05 -1.217655517393723130e-04 -1.362008242722367868e-05 -7.539675425505265594e-05
1.547000000000000000e+03 1.799746704101562500e+01 -1.051154422760009766e+01 1.307213678956031799e-04 7.025564991636201739e-05 6.029310316080227494e-05 5.190413503441959620e-05
1.548000000000000000e+03 1.721450996398925781e+01 -1.019439315795898438e+01 -2.083156869048252702e-04 -4.004581205663271248e-05 -7.450844714185222983e-05 -3.407177064218558371e-05
1.549000000000000000e+03 9.105903625488281250e+00 3.939824342727661133e+00 -4.932520389556884766e-01 -6.634169816970825195e-01 -3.470007181167602539e-01 8.970658779144287109e-01
1.550000000000000000e+03 8.391082763671875000e+00 4.004014968872070312e+00 -4.624377191066741943e-01 -5.780658125877380371e-01 -3.121510446071624756e-01 8.432884216308593750e-01
1.551000000000000000e+03 7.703107833862304688e+00 3.871139287948608398e+00 -4.739590585231781006e-01 -4.665855169296264648e-01 -2.821633815765380859e-01 7.563715577125549316e-01
1.552000000000000000e+03 5.665928840637207031e+00 4.032446384429931641e+00 -3.039798438549041748e-01 -3.265803754329681396e-01 -1.891680657863616943e-01 5.183601379394531250e-01
1.553000000000000000e+03 4.918294429779052734e+00 4.130424022674560547e+00 -2.381450831890106201e-01 -3.198736906051635742e-01 -1.674056351184844971e-01 4.471138119697570801e-01
1.554000000000000000e+03 4.681365489959716797e+00 6.100417137145996094e+00 -1.239162757992744446e-01 -5.018085837364196777e-01 -1.877174526453018188e-01 5.112407207489013672e-01
1.555000000000000000e+03 4.883626937866210938e+00 3.387865304946899414e+00 -2.710375189781188965e-01 -2.145659923553466797e-01 -1.456810534000396729e-01 3.641124963760375977e-01
1.556000000000000000e+03 5.037374973297119141e+00 4.886186122894287109e+00 -2.266093492507934570e-01 -3.893696367740631104e-01 -1.847936958074569702e-01 5.141062736511230469e-01
1.557000000000000000e+03 5.426544666290283203e+00 5.592575550079345703e+00 -1.921572387218475342e-01 -4.737478494644165039e-01 -1.997715234756469727e-01 5.803974270820617676e-01
1.558000000000000000e+03 4.125989913940429688e+00 5.127994537353515625e+00 -1.554929316043853760e-01 -3.801840245723724365e-01 -1.607030928134918213e-01 4.202975928783416748e-01
1.559000000000000000e+03 3.584621906280517578e+00 3.689100503921508789e+00 -1.647045463323593140e-01 -2.157710790634155273e-01 -1.141426935791969299e-01 2.708332836627960205e-01
1.560000000000000000e+03 1.774777173995971680e+00 5.093506813049316406e+00 -3.938565403223037720e-02 -2.731530070304870605e-01 -9.376159310340881348e-02 1.734909266233444214e-01
1.561000000000000000e+03 2.842338562011718750e+00 3.958316564559936523e+00 -1.093471199274063110e-01 -2.178566455841064453e-01 -9.816113114356994629e-02 2.229373604059219360e-01
1.562000000000000000e+03 2.877505111694335938e+01 -1.164922428131103516e+01 -1.158245086669921875e+00 -5.524016916751861572e-02 -3.640455901622772217e-01 1.143170833587646484e+00
1.563000000000000000e+03 2.821534156799316406e+01 -1.216736221313476562e+01 -1.130796670913696289e+00 -2.226903736591339111e-01 -4.060461223125457764e-01 1.189244270324707031e+00
1.564000000000000000e+03 2.803308868408203125e+01 -1.332131671905517578e+01 -1.048315286636352539e+00 -3.203054964542388916e-01 -4.105862379074096680e-01 1.146546721458435059e+00
1.565000000000000000e+03 2.963113594055175781e+01 -1.277389240264892578e+01 -1.147828459739685059e+00 7.999841123819351196e-03 -3.419485986232757568e-01 1.063213944435119629e+00
1.566000000000000000e+03 2.846916770935058594e+01 -1.398649215698242188e+01 -1.041576981544494629e+00 -2.782972753047943115e-01 -3.959622681140899658e-01 1.074482798576354980e+00
1.567000000000000000e+03 3.246075057983398438e+01 -1.473177337646484375e+01 -1.391165018081665039e+00 1.961630880832672119e-01 -3.585005700588226318e-01 7.498717308044433594e-01
1.568000000000000000e+03 1.612722015380859375e+01 7.273062467575073242e-01 -1.250115871429443359e+00 -1.448930025100708008e+00 -8.097137808799743652e-01 1.267606377601623535e+00
1.569000000000000000e+03 1.620806503295898438e+01 2.395855188369750977e+00 -6.448440551757812500e-01 -1.351099729537963867e+00 -5.987831354141235352e-01 1.051761150360107422e+00
1.570000000000000000e+03 2.540581321716308594e+01 -8.664029121398925781e+00 -1.443810582160949707e+00 -9.435064792633056641e-01 -7.161951065063476562e-01 1.323054194450378418e+00
1.571000000000000000e+03 2.553225135803222656e+01 -7.524763107299804688e+00 -1.448064804077148438e+00 -7.370187044143676758e-01 -6.555250287055969238e-01 1.216147303581237793e+00
1.572000000000000000e+03 9.368208885192871094e+00 -3.343666791915893555e+00 8.859510853653773665e-05 1.600738323759287596e-04 7.460068445652723312e-05 -5.141863584867678583e-05
1.573000000000000000e+03 1.070165729522705078e+01 -4.633981704711914062e+00 9.379584662383422256e-05 1.212734496220946312e-04 6.452079105656594038e-05 -2.644480082381051034e-05
1.574000000000000000e+03 2.462104988098144531e+01 -4.983424186706542969e+00 -1.361462593078613281e+00 -7.468789219856262207e-01 -6.325024366378784180e-01 1.045611739158630371e+00
1.575000000000000000e+03 1.723512840270996094e+01 8.863456249237060547e-01 -1.022336125373840332e+00 -1.464789032936096191e+00 -7.461375594139099121e-01 1.160788774490356445e+00
1.576000000000000000e+03 2.235506057739257812e+01 -2.341133117675781250e+00 -1.195281863212585449e+00 -1.122234463691711426e+00 -6.952549219131469727e-01 1.000965356826782227e+00
1.577000000000000000e+03 2.124542236328125000e+01 -2.286832571029663086e+00 -1.360887408256530762e+00 -1.410676121711730957e+00 -8.314690589904785156e-01 1.165429234504699707e+00
1.578000000000000000e+03 2.185503959655761719e+01 -2.887070655822753906e+00 -1.401958107948303223e+00 -1.347201704978942871e+00 -8.247479200363159180e-01 1.169779896736145020e+00
1.579000000000000000e+03 1.931129646301269531e+01 -6.038082242012023926e-01 -1.199562788009643555e+00 -1.501013278961181641e+00 -8.101727962493896484e-01 1.167805433273315430e+00
1.580000000000000000e+03 2.580551910400390625e+01 -9.344620704650878906e+00 -1.382803678512573242e+00 -8.314760327339172363e-01 -6.642838716506958008e-01 1.313857316970825195e+00
1.581000000000000000e+03 8.810327529907226562e+00 -5.073732852935791016e+00 -3.184089728165417910e-04 4.813859959540423006e-06 -9.407853212906047702e-05 1.215853535541100428e-05
1.582000000000000000e+03 5.372956752777099609e+00 -3.514545202255249023e+00 -2.111632420565001667e-05 -2.317882717761676759e-05 -1.328854523308109492e-05 8.296204759972169995e-05
1.583000000000000000e+03 7.385128498077392578e+00 -4.017268657684326172e+00 2.212824620073661208e-04 -8.708889072295278311e-05 4.025806993013247848e-05 7.233010546769946814e-05
1.584000000000000000e+03 4.895710945129394531e+00 -4.761809349060058594e+00 -1.596747024450451136e-04 -3.394725354155525565e-05 -5.808658534078858793e-05 1.498901256127282977e-04
1.585000000000000000e+03 4.416880130767822266e+00 -7.198020935058593750e+00 4.059181665070354939e-04 4.436543167685158551e-05 1.350850798189640045e-04 3.058031870750710368e-05
1.586000000000000000e+03 3.302648544311523438e+00 -6.696700572967529297e+00 -4.007883544545620680e-04 -5.845931809744797647e-05 -1.377743028569966555e-04 4.703543527284637094e-05
1.587000000000000000e+03 2.747725296020507812e+01 -1.088737201690673828e+01 -1.220655560493469238e+00 -3.302675187587738037e-01 -4.652769565582275391e-01 1.232083082199096680e+00
1.588000000000000000e+03 2.711636734008789062e+01 -1.023195838928222656e+01 -1.275248765945434570e+00 -4.015988409519195557e-01 -5.030543208122253418e-01 1.236459970474243164e+00
1.589000000000000000e+03 3.950112915039062500e+01 -1.720154190063476562e+01 -1.310788989067077637e+00 4.477833807468414307e-01 -2.589016854763031006e-01 -6.260862350463867188e-01
1.590000000000000000e+03 1.306094741821289062e+01 3.501164197921752930e+00 -5.535760521888732910e-01 -1.142987489700317383e+00 -5.089690685272216797e-01 1.061693668365478516e+00
1.591000000000000000e+03 1.325201606750488281e+01 2.396073341369628906e+00 -9.117694497108459473e-01 -1.149811387062072754e+00 -6.184742450714111328e-01 1.120480179786682129e+00
1.592000000000000000e+03 2.674569320678710938e+01 -9.565916061401367188e+00 -1.325902581214904785e+00 -4.701754152774810791e-01 -5.388234257698059082e-01 1.235734224319458008e+00
1.593000000000000000e+03 1.068582534790039062e+01 3.273435115814208984e+00 -6.739575862884521484e-01 -8.548868298530578613e-01 -4.586533308029174805e-01 9.968039989471435547e-01
1.594000000000000000e+03 2.507716178894042969e+01 -6.834869861602783203e+00 -1.467884182929992676e+00 -8.277145028114318848e-01 -6.886796355247497559e-01 1.207283854484558105e+00
1.595000000000000000e+03 2.459693908691406250e+01 -6.148159503936767578e+00 -1.484446287155151367e+00 -9.302849769592285156e-01 -7.244193553924560547e-01 1.197880864143371582e+00
1.596000000000000000e+03 4.991073989868164062e+01 -2.129088020324707031e+01 4.296562194824218750e+00 6.796770095825195312e+00 3.327999591827392578e+00 -2.661152839660644531e+00
1.597000000000000000e+03 4.902093505859375000e+01 -2.136686706542968750e+01 4.870069503784179688e+00 8.606711387634277344e+00 4.043034076690673828e+00 -3.197270870208740234e+00
1.598000000000000000e+03 4.867650222778320312e+01 -1.878653335571289062e+01 2.446507453918457031e+00 9.546677589416503906e+00 3.597955465316772461e+00 3.092504739761352539e-01
1.599000000000000000e+03 5.035019683837890625e+01 -1.848682212829589844e+01 9.668998718261718750e-01 5.915664196014404297e+00 2.064769268035888672e+00 -2.814349234104156494e-01
1.600000000000000000e+03 2.357238769531250000e+01 -4.805058479309082031e+00 -1.481757283210754395e+00 -1.113377571105957031e+00 -7.785404324531555176e-01 1.181674003601074219e+00
1.601000000000000000e+03 2.302176666259765625e+01 -4.150318145751953125e+00 -1.462389469146728516e+00 -1.196604251861572266e+00 -7.976981401443481445e-01 1.177564024925231934e+00
1.602000000000000000e+03 1.764924621582031250e+01 1.507945656776428223e+00 -7.580430507659912109e-01 -1.396380066871643066e+00 -6.463269591331481934e-01 1.042919516563415527e+00
1.603000000000000000e+03 1.863377761840820312e+01 -8.495783060789108276e-02 -1.142529249191284180e+00 -1.504719138145446777e+00 -7.941744923591613770e-01 1.165949463844299316e+00
1.604000000000000000e+03 1.794087791442871094e+01 4.125749170780181885e-01 -1.080092549324035645e+00 -1.491372704505920410e+00 -7.714395523071289062e-01 1.167678356170654297e+00
1.605000000000000000e+03 1.580333423614501953e+01 1.769006371498107910e+00 -9.002153277397155762e-01 -1.376368880271911621e+00 -6.829752326011657715e-01 1.144352912902832031e+00
1.606000000000000000e+03 1.508856773376464844e+01 2.188606977462768555e+00 -8.263593912124633789e-01 -1.325921893119812012e+00 -6.456843614578247070e-01 1.128063201904296875e+00
1.607000000000000000e+03 2.061883544921875000e+01 -1.705740571022033691e+00 -1.311909914016723633e+00 -1.451842308044433594e+00 -8.291257023811340332e-01 1.166024684906005859e+00
1.608000000000000000e+03 1.997368621826171875e+01 -1.143755912780761719e+00 -1.258504152297973633e+00 -1.487034797668457031e+00 -8.236616849899291992e-01 1.164511203765869141e+00
1.609000000000000000e+03 4.969619369506835938e+01 -2.027299118041992188e+01 4.332845687866210938e+00 6.812641143798828125e+00 3.343646049499511719e+00 -1.266610741615295410e+00
1.610000000000000000e+03 4.891468429565429688e+01 -2.002639389038085938e+01 5.056791305541992188e+00 8.470847129821777344e+00 4.058291435241699219e+00 -6.977350711822509766e-01
1.611000000000000000e+03 4.608460998535156250e+01 -2.375353050231933594e+01 -3.283185064792633057e-01 8.742150306701660156e+00 2.524149417877197266e+00 1.672677516937255859e+00
1.612000000000000000e+03 1.438563823699951172e+01 2.607950687408447266e+00 -7.514184117317199707e-01 -1.261931300163269043e+00 -6.040049195289611816e-01 1.103696942329406738e+00
1.613000000000000000e+03 1.016215801239013672e+01 4.004923820495605469e+00 -5.030887722969055176e-01 -8.058736324310302734e-01 -3.926887214183807373e-01 9.712793231010437012e-01
1.614000000000000000e+03 9.617689132690429688e+00 3.508057594299316406e+00 -5.817437171936035156e-01 -7.161270976066589355e-01 -3.893612325191497803e-01 9.341350197792053223e-01
1.615000000000000000e+03 3.138439941406250000e+01 -1.548961162567138672e+01 -1.465955972671508789e+00 5.634650960564613342e-02 -4.228828549385070801e-01 7.703361511230468750e-01
1.616000000000000000e+03 2.917430877685546875e+01 -1.223334217071533203e+01 -1.133872985839843750e+00 -2.680944837629795074e-02 -3.482047319412231445e-01 1.110347867012023926e+00
1.617000000000000000e+03 1.133024501800537109e+01 3.931479215621948242e+00 -5.182539224624633789e-01 -9.817522764205932617e-01 -4.500018656253814697e-01 1.030227184295654297e+00
1.618000000000000000e+03 6.775358581542968750e+01 -1.876887702941894531e+01 -3.002508878707885742e-01 1.767111778259277344e+00 4.400582611560821533e-01 -9.072717279195785522e-03
1.619000000000000000e+03 3.022147178649902344e+01 -1.450841522216796875e+01 -1.251995801925659180e+00 -1.775198057293891907e-02 -3.809243142604827881e-01 9.151771664619445801e-01
1.620000000000000000e+03 1.313477230072021484e+01 -1.162329769134521484e+01 -2.058518439298495650e-04 -3.267517604399472475e-04 -1.597810769453644753e-04 3.216418917872942984e-05
1.621000000000000000e+03 7.677626609802246094e+00 -1.347238159179687500e+01 3.996480954810976982e-04 -2.767262922134250402e-04 3.687653588713146746e-05 2.652995171956717968e-04
1.622000000000000000e+03 4.314550399780273438e+01 -2.171683311462402344e+00 1.667670905590057373e-01 5.399581432342529297e+00 1.669904589653015137e+00 -1.864530920982360840e+00
1.623000000000000000e+03 4.564755249023437500e+01 -5.305990695953369141e+00 1.439235731959342957e-02 5.394149780273437500e+00 1.622562646865844727e+00 -1.803513169288635254e+00
1.624000000000000000e+03 3.447961425781250000e+01 -1.478323078155517578e+01 -1.366357803344726562e+00 2.757157981395721436e-01 -3.271926045417785645e-01 4.847368299961090088e-01
1.625000000000000000e+03 4.499297714233398438e+01 3.035068511962890625e+01 -1.173586621880531311e-01 3.169937133789062500e+00 9.157735109329223633e-01 6.871518492698669434e-01
1.626000000000000000e+03 4.522810745239257812e+01 -4.141869068145751953e+00 1.462007313966751099e-01 5.432802677154541016e+00 1.673701047897338867e+00 -1.927616596221923828e+00
1.627000000000000000e+03 4.638664627075195312e+01 -3.887937307357788086e+00 3.217738866806030273e-01 5.562117099761962891e+00 1.765167236328125000e+00 -2.056855678558349609e+00
1.628000000000000000e+03 4.430769729614257812e+01 -2.797612953186035156e+01 2.441686540842056274e-01 4.186927318572998047e+00 1.329328775405883789e+00 1.155908703804016113e+00
1.629000000000000000e+03 3.568218612670898438e+01 -1.607787322998046875e+01 -1.737530350685119629e+00 2.620760537683963776e-02 -5.133968591690063477e-01 3.837741613388061523e-01
1.630000000000000000e+03 3.343315124511718750e+01 -1.478199195861816406e+01 -1.427846431732177734e+00 2.191939353942871094e-01 -3.625957369804382324e-01 6.479670405387878418e-01
1.631000000000000000e+03 4.410424423217773438e+01 -4.411468029022216797e+00 -3.199671953916549683e-02 5.234915733337402344e+00 1.560875773429870605e+00 -1.784489393234252930e+00
1.632000000000000000e+03 4.368924713134765625e+01 -6.670928597450256348e-01 4.159613251686096191e-01 5.741357803344726562e+00 1.847195744514465332e+00 -2.114159584045410156e+00
1.633000000000000000e+03 8.315597534179687500e+00 -1.439638328552246094e+01 -3.342968120705336332e-04 2.611645031720399857e-04 -2.193968612118624151e-05 -5.251115653663873672e-04
1.634000000000000000e+03 1.039904403686523438e+01 -1.356629371643066406e+01 -4.151996472501195967e-05 1.731701922835782170e-05 -7.260883194248890504e-06 -4.048519476782530546e-04
1.635000000000000000e+03 7.234239959716796875e+01 1.194703197479248047e+01 -4.262526035308837891e-01 9.339202880859375000e+00 2.673885107040405273e+00 4.144814312458038330e-01
1.636000000000000000e+03 7.443084716796875000e+01 5.028351306915283203e+00 4.878143966197967529e-01 8.755352020263671875e+00 2.772950172424316406e+00 7.752173542976379395e-01
1.637000000000000000e+03 7.241509246826171875e+01 3.471482038497924805e+00 6.986432075500488281e-01 1.109984970092773438e+01 3.539547681808471680e+00 8.423236608505249023e-01
1.638000000000000000e+03 4.958856201171875000e+01 -1.233096313476562500e+01 -1.864600419998168945e+00 5.643886566162109375e+00 1.133785843849182129e+00 1.280033141374588013e-01
1.639000000000000000e+03 4.994865036010742188e+01 -1.333807754516601562e+01 -2.292538881301879883e+00 5.697924613952636719e+00 1.021615743637084961e+00 3.508828282356262207e-01
1.640000000000000000e+03 6.786450958251953125e+01 -1.738294029235839844e+01 5.142914131283760071e-02 2.446291685104370117e+00 7.493162155151367188e-01 8.963497728109359741e-02
1.641000000000000000e+03 7.189224243164062500e+01 -1.628711128234863281e+01 -4.542001485824584961e-01 5.410020828247070312e+00 1.486746311187744141e+00 -7.736274600028991699e-01
1.642000000000000000e+03 7.473406219482421875e+01 1.224845314025878906e+01 -2.058099359273910522e-01 8.524334907531738281e+00 2.495557308197021484e+00 7.342747449874877930e-01
1.643000000000000000e+03 7.576570892333984375e+01 -5.902720093727111816e-01 4.133872389793395996e-01 7.229689598083496094e+00 2.292922973632812500e+00 -1.180650591850280762e-01
1.644000000000000000e+03 7.567841339111328125e+01 2.344283342361450195e+00 4.957473278045654297e-01 7.537017345428466797e+00 2.409829378128051758e+00 3.751257359981536865e-01
1.645000000000000000e+03 7.346409606933593750e+01 4.778719425201416016e+00 5.757985711097717285e-01 9.817679405212402344e+00 3.118043422698974609e+00 8.119617700576782227e-01
1.646000000000000000e+03 7.690174865722656250e+01 2.482688188552856445e+00 3.014834225177764893e-01 6.476369857788085938e+00 2.033355951309204102e+00 2.731779813766479492e-01
1.647000000000000000e+03 7.349425506591796875e+01 2.354870557785034180e+00 6.592794656753540039e-01 9.540759086608886719e+00 3.060011625289916992e+00 5.794672369956970215e-01
1.648000000000000000e+03 7.555217742919921875e+01 5.349767684936523438e+00 3.045915067195892334e-01 7.880155086517333984e+00 2.455423831939697266e+00 7.693231105804443359e-01
1.649000000000000000e+03 7.693190002441406250e+01 8.328763961791992188e+00 4.143050312995910645e-02 7.171838283538818359e+00 2.163980484008789062e+00 7.900619506835937500e-01
1.650000000000000000e+03 7.413284301757812500e+01 7.254595756530761719e+00 1.897863745689392090e-01 9.004407882690429688e+00 2.758258104324340820e+00 9.392952322959899902e-01
1.651000000000000000e+03 7.588063049316406250e+01 9.716204643249511719e+00 -1.006530597805976868e-01 7.986805438995361328e+00 2.365845680236816406e+00 8.737916946411132812e-01
1.652000000000000000e+03 7.570182037353515625e+01 -6.807117938995361328e+00 2.886386029422283173e-02 6.740042686462402344e+00 2.030672073364257812e+00 -5.620011687278747559e-01
1.653000000000000000e+03 7.258354949951171875e+01 -3.538637638092041016e+00 4.111069440841674805e-01 8.708110809326171875e+00 2.735765457153320312e+00 2.415113598108291626e-01
1.654000000000000000e+03 7.591739654541015625e+01 1.103711891174316406e+01 -1.464042663574218750e-01 7.980015277862548828e+00 2.350083351135253906e+00 7.795993089675903320e-01
1.655000000000000000e+03 7.390042877197265625e+01 -2.467441320419311523e+00 4.882457256317138672e-01 8.317317962646484375e+00 2.641669273376464844e+00 -4.920101165771484375e-02
1.656000000000000000e+03 7.590926361083984375e+01 -5.454535961151123047e+00 9.978047758340835571e-02 6.766915321350097656e+00 2.060008764266967773e+00 -5.343778729438781738e-01
1.657000000000000000e+03 7.599654388427734375e+01 -4.109667778015136719e+00 1.369183063507080078e-01 6.792536735534667969e+00 2.078836441040039062e+00 -4.683316946029663086e-01
1.658000000000000000e+03 7.346686553955078125e+01 1.981817626953125000e+01 9.382097423076629639e-02 8.452078819274902344e+00 2.563770055770874023e+00 6.601789593696594238e-01
1.659000000000000000e+03 7.702250671386718750e+01 1.516374683380126953e+01 -2.750515937805175781e-02 7.930581569671630859e+00 2.370923042297363281e+00 5.479140281677246094e-01
1.660000000000000000e+03 7.695954895019531250e+01 1.656625366210937500e+01 1.859418675303459167e-02 8.084952354431152344e+00 2.431064128875732422e+00 5.682829022407531738e-01
1.661000000000000000e+03 7.564145660400390625e+01 -1.514633369445800781e+01 -2.948679625988006592e-01 6.789814472198486328e+00 1.948483943939208984e+00 -4.949339032173156738e-01
1.662000000000000000e+03 7.023426055908203125e+01 -8.951054573059082031e+00 4.259614050388336182e-01 6.536247730255126953e+00 2.088662862777709961e+00 7.522249817848205566e-01
1.663000000000000000e+03 7.549275207519531250e+01 -9.683330535888671875e+00 -1.402426604181528091e-02 6.649304866790771484e+00 1.990584135055541992e+00 -6.084547042846679688e-01
1.664000000000000000e+03 7.562940216064453125e+01 -1.244894599914550781e+01 -1.039239168167114258e-01 6.616349220275878906e+00 1.953727602958679199e+00 -6.018300056457519531e-01
1.665000000000000000e+03 7.554286193847656250e+01 -1.107903289794921875e+01 -4.680358618497848511e-02 6.625500202178955078e+00 1.973609089851379395e+00 -6.073575615882873535e-01
1.666000000000000000e+03 7.755941772460937500e+01 -2.215753173828125000e+01 -1.306111365556716919e-01 7.176174640655517578e+00 2.113668918609619141e+00 6.742991805076599121e-01
1.667000000000000000e+03 7.489129638671875000e+01 -1.911607170104980469e+01 -8.282017707824707031e-01 7.271642208099365234e+00 1.933032035827636719e+00 -3.665928542613983154e-02
1.668000000000000000e+03 7.611326599121093750e+01 -2.815744590759277344e+01 6.868449449539184570e-01 7.269535064697265625e+00 2.386914014816284180e+00 -3.581551611423492432e-01
1.669000000000000000e+03 7.384635162353515625e+01 -2.242697715759277344e+01 -3.991886675357818604e-01 8.147087097167968750e+00 2.324369430541992188e+00 4.656147956848144531e-01
1.670000000000000000e+03 7.753302001953125000e+01 -2.312226676940917969e+01 5.033527687191963196e-02 7.084849834442138672e+00 2.140555620193481445e+00 6.561066508293151855e-01
1.671000000000000000e+03 7.552987670898437500e+01 -1.651020812988281250e+01 -4.443848729133605957e-01 6.919817924499511719e+00 1.942629933357238770e+00 -3.322072327136993408e-01
1.672000000000000000e+03 7.537131500244140625e+01 -2.085817718505859375e+01 -5.819449424743652344e-01 7.480645179748535156e+00 2.069610118865966797e+00 4.290809333324432373e-01
1.673000000000000000e+03 7.575920867919921875e+01 -1.848811912536621094e+01 -5.282179713249206543e-01 7.132625102996826172e+00 1.981322169303894043e+00 -1.789274252951145172e-02
1.674000000000000000e+03 7.517369842529296875e+01 -2.714476966857910156e+01 1.091490626335144043e+00 7.934700489044189453e+00 2.707857370376586914e+00 -7.291081547737121582e-02
1.675000000000000000e+03 7.476406860351562500e+01 -2.524594879150390625e+01 1.099088191986083984e+00 8.343560218811035156e+00 2.832794427871704102e+00 3.528358936309814453e-01
1.676000000000000000e+03 7.550521087646484375e+01 -2.432624244689941406e+01 6.472439169883728027e-01 7.587721347808837891e+00 2.470489501953125000e+00 6.953685283660888672e-01
1.677000000000000000e+03 7.498085021972656250e+01 3.646483230590820312e+01 -3.027356863021850586e-01 8.263127326965332031e+00 2.388117551803588867e+00 2.517252415418624878e-02
1.678000000000000000e+03 7.049691772460937500e+01 3.430035400390625000e+01 -8.916593790054321289e-01 4.732184886932373047e+00 1.152157664299011230e+00 -1.009223461151123047e-01
1.679000000000000000e+03 7.424453735351562500e+01 2.338147926330566406e+01 1.554554998874664307e-01 8.239899635314941406e+00 2.518606662750244141e+00 7.869768142700195312e-01
1.680000000000000000e+03 7.322624969482421875e+01 2.383851432800292969e+01 1.956966668367385864e-01 7.964630603790283203e+00 2.448098182678222656e+00 6.921004652976989746e-01
1.681000000000000000e+03 7.470155334472656250e+01 2.593111610412597656e+01 7.475307583808898926e-02 8.320055961608886719e+00 2.518442630767822266e+00 8.722058534622192383e-01
1.682000000000000000e+03 7.700187683105468750e+01 2.683625411987304688e+01 -1.922985725104808807e-02 9.299979209899902344e+00 2.784224987030029297e+00 7.830615043640136719e-01
1.683000000000000000e+03 7.452359771728515625e+01 2.468279075622558594e+01 1.004685312509536743e-01 8.291773796081542969e+00 2.517672538757324219e+00 8.607628941535949707e-01
1.684000000000000000e+03 7.561707305908203125e+01 -3.414683532714843750e+01 -3.626532852649688721e-01 7.171377182006835938e+00 2.042617082595825195e+00 -5.107803940773010254e-01
1.685000000000000000e+03 7.356954193115234375e+01 -3.026559066772460938e+01 3.471150696277618408e-01 8.042366027832031250e+00 2.516844272613525391e+00 -3.127941489219665527e-01
1.686000000000000000e+03 7.676769256591796875e+01 2.959180068969726562e+01 -1.346106231212615967e-01 9.504540443420410156e+00 2.810978889465332031e+00 6.768157482147216797e-01
1.687000000000000000e+03 7.589350891113281250e+01 2.693038558959960938e+01 3.197337314486503601e-02 8.794648170471191406e+00 2.647986412048339844e+00 8.596144914627075195e-01
1.688000000000000000e+03 4.743880462646484375e+01 -1.086621952056884766e+01 -1.315705657005310059e+00 5.961900234222412109e+00 1.393858313560485840e+00 -8.242616057395935059e-01
1.689000000000000000e+03 7.691430664062500000e+01 -3.147789001464843750e+01 -4.780066385865211487e-02 7.190714359283447266e+00 2.142874002456665039e+00 -7.261838316917419434e-01
1.690000000000000000e+03 7.589215087890625000e+01 -2.995841026306152344e+01 2.508863508701324463e-01 7.301671028137207031e+00 2.265767097473144531e+00 -7.694060802459716797e-01
1.691000000000000000e+03 7.393258666992187500e+01 3.058481407165527344e+01 -4.792341887950897217e-01 7.640729904174804688e+00 2.148448705673217773e+00 6.452851891517639160e-01
1.692000000000000000e+03 6.579077148437500000e+01 -1.502878475189208984e+01 8.425059318542480469e-01 2.654933929443359375e+00 1.049232006072998047e+00 1.115925312042236328e+00
1.693000000000000000e+03 7.559680175781250000e+01 8.241916894912719727e-01 4.999178946018218994e-01 7.462330818176269531e+00 2.388674736022949219e+00 9.721510857343673706e-02
1.694000000000000000e+03 7.313619232177734375e+01 1.240057468414306641e+00 9.625424146652221680e-01 9.891273498535156250e+00 3.256144762039184570e+00 5.474973320960998535e-01
1.695000000000000000e+03 7.221241760253906250e+01 1.733175468444824219e+01 6.723128259181976318e-02 8.810561180114746094e+00 2.663337707519531250e+00 6.208598017692565918e-01
1.696000000000000000e+03 7.219614410400390625e+01 1.866431617736816406e+01 5.432341620326042175e-02 8.642654418945312500e+00 2.609093427658081055e+00 5.738865137100219727e-01
1.697000000000000000e+03 4.746195983886718750e+01 -7.563074588775634766e+00 -1.327733695507049561e-01 5.565032958984375000e+00 1.629677772521972656e+00 -1.442569732666015625e+00
1.698000000000000000e+03 4.524839019775390625e+01 -8.748806953430175781e+00 -7.812700867652893066e-01 5.371757507324218750e+00 1.377146244049072266e+00 -1.424558401107788086e+00
1.699000000000000000e+03 3.998633384704589844e+00 -1.455960655212402344e+01 6.083265179768204689e-04 -1.331074454355984926e-04 1.425657246727496386e-04 1.872730354079976678e-04
1.700000000000000000e+03 4.564340114593505859e+00 2.183443069458007812e+01 7.305166870355606079e-02 -1.400857448577880859e+00 -3.983417451381683350e-01 1.286887973546981812e-01
1.701000000000000000e+03 6.432307243347167969e+00 -2.095048904418945312e+01 7.093930034898221493e-04 2.373101160628721118e-04 2.840109227690845728e-04 -1.279830321436747909e-04
1.702000000000000000e+03 3.172353982925415039e+00 -1.903697776794433594e+01 8.886536234058439732e-04 6.322808621916919947e-05 2.855645143426954746e-04 1.690785720711573958e-04
1.703000000000000000e+03 4.404467105865478516e+00 -1.911561965942382812e+01 -6.506948848254978657e-04 -2.200911258114501834e-04 -2.612358075566589832e-04 -7.333520625252276659e-05
1.704000000000000000e+03 5.661381244659423828e+00 -2.585365295410156250e+01 1.191180781461298466e-03 4.219111724523827434e-05 3.700115776155143976e-04 6.366631714627146721e-05
1.705000000000000000e+03 4.840930938720703125e+00 -2.281762695312500000e+01 6.206776015460491180e-04 4.733304958790540695e-04 3.282024117652326822e-04 1.106500858440995216e-04
1.706000000000000000e+03 7.278537273406982422e+00 -1.717360877990722656e+01 -9.584465879015624523e-04 -1.376148575218394399e-04 -3.288184234406799078e-04 1.122797129937680438e-05
1.707000000000000000e+03 5.604996681213378906e+00 -1.932686996459960938e+01 5.170969525352120399e-04 3.447477647569030523e-04 2.585534239187836647e-04 -6.079857485019601882e-05
1.708000000000000000e+03 3.027604818344116211e+00 -2.611417198181152344e+01 -1.278498326428234577e-03 4.384960993775166571e-05 -3.703946131281554699e-04 -3.460636362433433533e-04
1.709000000000000000e+03 3.997801303863525391e+00 -2.651631736755371094e+01 5.320095806382596493e-04 -1.306025515077635646e-04 1.204221043735742569e-04 2.475732180755585432e-04
1.710000000000000000e+03 5.030068874359130859e+00 -2.717121696472167969e+01 -6.633566226810216904e-04 -2.388613793300464749e-04 -2.706653904169797897e-04 3.277814830653369427e-04
1.711000000000000000e+03 3.211161375045776367e+00 2.048224639892578125e+01 4.289410635828971863e-02 -1.539843678474426270e+00 -4.490848779678344727e-01 1.328306794166564941e-01
1.712000000000000000e+03 4.743343830108642578e+00 2.468991470336914062e+01 6.311119347810745239e-02 -1.407993078231811523e+00 -4.034645557403564453e-01 5.590013042092323303e-02
1.713000000000000000e+03 4.864923954010009766e+00 2.882412719726562500e+01 3.333049267530441284e-02 -1.382818818092346191e+00 -4.048464894294738770e-01 -1.097593735903501511e-02
1.714000000000000000e+03 4.282655715942382812e+00 1.756791114807128906e+01 8.826699107885360718e-02 -1.312823534011840820e+00 -3.673669695854187012e-01 2.632285654544830322e-01
1.715000000000000000e+03 3.148746967315673828e+00 1.906016731262207031e+01 4.869956150650978088e-02 -1.494875431060791016e+00 -4.338527619838714600e-01 1.682652831077575684e-01
1.716000000000000000e+03 4.371521949768066406e+00 1.896950721740722656e+01 8.576195687055587769e-02 -1.355290293693542480e+00 -3.808585107326507568e-01 2.164277434349060059e-01
1.717000000000000000e+03 2.994385480880737305e+00 1.485741043090820312e+01 4.669925197958946228e-02 -1.270311951637268066e+00 -3.670837879180908203e-01 2.789264023303985596e-01
1.718000000000000000e+03 4.110369682312011719e+00 1.207647895812988281e+01 6.367010623216629028e-02 -1.009981036186218262e+00 -2.838932573795318604e-01 4.425348937511444092e-01
1.719000000000000000e+03 4.123770713806152344e+00 1.344073390960693359e+01 7.696958631277084351e-02 -1.106834530830383301e+00 -3.089594841003417969e-01 4.028473496437072754e-01
1.720000000000000000e+03 5.863056659698486328e+00 2.173708343505859375e+01 1.131621748208999634e-01 -1.246398448944091797e+00 -3.399708867073059082e-01 1.500036716461181641e-01
1.721000000000000000e+03 4.825441360473632812e+00 2.610214233398437500e+01 4.606746137142181396e-02 -1.402575850486755371e+00 -4.069525301456451416e-01 2.814435400068759918e-02
1.722000000000000000e+03 4.647266864776611328e+00 2.326263999938964844e+01 7.080335915088653564e-02 -1.407415628433227539e+00 -4.009836912155151367e-01 9.376680850982666016e-02
1.723000000000000000e+03 3.969551563262939453e+00 -1.093966579437255859e+01 -4.965371917933225632e-04 -4.486262696445919573e-05 -1.624199503567069769e-04 -9.918637806549668312e-05
1.724000000000000000e+03 4.029935836791992188e+00 -9.633049011230468750e+00 4.588038136716932058e-04 4.983859253115952015e-05 1.525927218608558178e-04 6.416865653591230512e-05
1.725000000000000000e+03 3.927930355072021484e+00 -1.349059009552001953e+01 -7.461701170541346073e-04 4.287240517442114651e-05 -2.109893102897331119e-04 -1.508362765889614820e-04
1.726000000000000000e+03 5.032496452331542969e+00 3.165988349914550781e+01 1.787528023123741150e-02 -1.362611055374145508e+00 -4.034207463264465332e-01 -2.786138281226158142e-02
1.727000000000000000e+03 6.023449897766113281e+00 3.507833862304687500e+01 4.296419676393270493e-03 -1.180583238601684570e+00 -3.528860509395599365e-01 -3.426035493612289429e-02
1.728000000000000000e+03 3.620869874954223633e+00 3.542557144165039062e+01 2.342431060969829559e-02 -1.585357785224914551e+00 -4.685800671577453613e-01 -3.707604110240936279e-02
1.729000000000000000e+03 5.259433746337890625e+00 1.070706558227539062e+01 7.241586595773696899e-02 -9.068406224250793457e-01 -2.503274381160736084e-01 5.590047836303710938e-01
1.730000000000000000e+03 4.045042037963867188e+00 -3.093523025512695312e+01 -2.424256177619099617e-03 2.447567385388538241e-05 -7.199341198429465294e-04 -2.606596972327679396e-04
1.731000000000000000e+03 4.446075439453125000e+00 -2.861680030822753906e+01 9.472572710365056992e-04 5.988392149447463453e-05 3.021423472091555595e-04 -1.382085902150720358e-04
1.732000000000000000e+03 4.005743503570556641e+00 -1.227663326263427734e+01 5.366006516851484776e-04 5.886771759833209217e-05 1.786405046004801989e-04 1.208661342388950288e-04
1.733000000000000000e+03 4.049798011779785156e+00 1.074953651428222656e+01 4.235237091779708862e-02 -9.117366671562194824e-01 -2.608152925968170166e-01 4.656923711299896240e-01
1.734000000000000000e+03 4.874936580657958984e+00 -6.198462009429931641e+00 -4.493184678722172976e-04 8.550881466362625360e-05 -1.091428930521942675e-04 3.595535599743016064e-05
1.735000000000000000e+03 4.962405204772949219e+00 3.313273620605468750e+01 1.354904193431138992e-02 -1.353814482688903809e+00 -4.020796418190002441e-01 -3.043698146939277649e-02
1.736000000000000000e+03 4.615892410278320312e+00 3.458530807495117188e+01 1.500098686665296555e-02 -1.423811793327331543e+00 -4.226432442665100098e-01 -1.750573143362998962e-02
1.737000000000000000e+03 4.969613075256347656e+00 3.022139167785644531e+01 2.187805064022541046e-02 -1.370001196861267090e+00 -4.044369161128997803e-01 -1.890704035758972168e-02
1.738000000000000000e+03 5.515473365783691406e+00 -3.036077117919921875e+01 2.195367589592933655e-03 -3.805859596468508244e-04 5.444345297291874886e-04 8.566424949094653130e-04
1.739000000000000000e+03 3.975645542144775391e+00 8.216443061828613281e+00 -2.149146050214767456e-02 -6.812744736671447754e-01 -2.108297795057296753e-01 4.812594950199127197e-01
1.740000000000000000e+03 3.988866567611694336e+00 -5.535481452941894531e+00 2.834546612575650215e-04 1.335171532446111087e-06 8.543695003027096391e-05 -1.592077169334515929e-04
1.741000000000000000e+03 3.644125461578369141e+00 -3.677925872802734375e+01 5.180348525755107403e-04 -5.642092437483370304e-04 -1.385233099426841363e-05 5.942331627011299133e-04
1.742000000000000000e+03 5.568039894104003906e+00 -3.604163360595703125e+01 9.161786292679607868e-04 -3.612671745941042900e-03 -8.089479524642229080e-04 2.654337731655687094e-04
1.743000000000000000e+03 3.690039443969726562e+01 -1.635159873962402344e+01 -1.698520302772521973e+00 -6.741790473461151123e-02 -5.297814607620239258e-01 8.426416665315628052e-02
1.744000000000000000e+03 3.712128448486328125e+01 -1.443565464019775391e+01 -9.844402074813842773e-01 7.266382575035095215e-01 -7.734059542417526245e-02 -3.103676438331604004e-01
1.745000000000000000e+03 7.274756622314453125e+01 -2.033822250366210938e+01 -1.413892745971679688e+00 7.201087474822998047e+00 1.736158370971679688e+00 -3.958649635314941406e-01
1.746000000000000000e+03 7.250324249267578125e+01 -6.805414706468582153e-02 8.745284080505371094e-01 1.010184288024902344e+01 3.292911529541015625e+00 5.717437863349914551e-01
1.747000000000000000e+03 6.982609558105468750e+01 3.233491134643554688e+01 -1.090171694755554199e+00 4.109662055969238281e+00 9.058471918106079102e-01 4.186407849192619324e-02
1.748000000000000000e+03 1.629722976684570312e+01 -8.516386985778808594e+00 -7.521580300817731768e-06 2.956450407509692013e-05 6.612877314182696864e-06 1.066348195308819413e-04
1.749000000000000000e+03 4.058658981323242188e+01 5.379989624023437500e+00 1.199923515319824219e+00 7.023015022277832031e+00 2.466881513595581055e+00 -1.566975116729736328e+00
1.750000000000000000e+03 4.249232101440429688e+01 1.681723356246948242e+00 6.134867668151855469e-01 6.216322898864746094e+00 2.048942804336547852e+00 -2.087857961654663086e+00
1.751000000000000000e+03 7.096056365966796875e+01 -4.559968948364257812e+00 4.685924053192138672e-01 8.811219215393066406e+00 2.783943653106689453e+00 1.003026723861694336e+00
1.752000000000000000e+03 5.471526336669921875e+01 -2.091358184814453125e+01 1.772693514823913574e+00 1.068279147148132324e+00 8.522918224334716797e-01 6.054801121354103088e-02
1.753000000000000000e+03 7.371222686767578125e+01 2.121534156799316406e+01 1.166334152221679688e-01 8.358246803283691406e+00 2.542464017868041992e+00 6.914222240447998047e-01
1.754000000000000000e+03 7.210000610351562500e+01 -1.102223205566406250e+01 1.107302978634834290e-01 6.229037284851074219e+00 1.901930332183837891e+00 -1.808797121047973633e-01
1.755000000000000000e+03 7.147567749023437500e+01 -3.121728181838989258e+00 4.869797229766845703e-01 9.504506111145019531e+00 2.997445821762084961e+00 8.865827918052673340e-01
1.756000000000000000e+03 7.196044158935546875e+01 -1.616809248924255371e+00 6.981323361396789551e-01 1.000527572631835938e+01 3.211022615432739258e+00 6.324799656867980957e-01
1.757000000000000000e+03 6.788170623779296875e+01 -1.117499542236328125e+01 8.802354335784912109e-01 4.867564678192138672e+00 1.724340081214904785e+00 1.234990239143371582e+00
1.758000000000000000e+03 7.086040496826171875e+01 -1.062743377685546875e+01 3.037056326866149902e-01 6.076173782348632812e+00 1.913963794708251953e+00 2.511086463928222656e-01
1.759000000000000000e+03 6.247928619384765625e+00 -2.768168258666992188e+01 1.775641343556344509e-03 -4.557268985081464052e-04 3.959743189625442028e-04 2.397249772911891341e-04
1.760000000000000000e+03 6.162008285522460938e+00 -2.474784851074218750e+01 -9.278815705329179764e-04 -2.042587293544784188e-04 -3.396420797798782587e-04 1.468030241085216403e-04
1.761000000000000000e+03 4.837403869628906250e+01 -1.178241062164306641e+01 -1.783231973648071289e+00 6.119707584381103516e+00 1.300942778587341309e+00 -3.484083414077758789e-01
1.762000000000000000e+03 3.602679443359375000e+01 2.127822685241699219e+01 5.981040000915527344e-01 4.455145359039306641e+00 1.515974760055541992e+00 -5.735681653022766113e-01
1.763000000000000000e+03 3.971942901611328125e+01 1.713945007324218750e+01 7.733392119407653809e-01 6.961366176605224609e+00 2.320411682128906250e+00 -4.463556408882141113e-02
1.764000000000000000e+03 7.141204833984375000e+01 -6.413119316101074219e+00 2.821407914161682129e-01 7.778581142425537109e+00 2.418216466903686523e+00 5.389284491539001465e-01
1.765000000000000000e+03 6.686164093017578125e+01 -3.658346939086914062e+01 -8.113673329353332520e-02 1.070584893226623535e+00 2.968344390392303467e-01 6.444666385650634766e-01
1.766000000000000000e+03 6.966462707519531250e+01 -1.024877166748046875e+01 4.791070222854614258e-01 5.890515327453613281e+00 1.910886645317077637e+00 7.594964504241943359e-01
1.767000000000000000e+03 5.271307373046875000e+01 -1.766622734069824219e+01 -9.990190267562866211e-01 1.919217824935913086e+00 2.760596573352813721e-01 1.345767229795455933e-01
1.768000000000000000e+03 5.363470077514648438e+01 -1.869849777221679688e+01 1.718593686819076538e-01 7.843804359436035156e-01 2.868719398975372314e-01 -1.362163126468658447e-01
1.769000000000000000e+03 3.901145935058593750e+01 2.079071807861328125e+01 5.500094890594482422e-01 5.509681701660156250e+00 1.817907333374023438e+00 -8.009617216885089874e-03
1.770000000000000000e+03 3.836206817626953125e+01 1.763305091857910156e+01 8.773491978645324707e-01 6.050946712493896484e+00 2.078488826751708984e+00 -4.110418558120727539e-01
1.771000000000000000e+03 5.602091598510742188e+01 -2.319612503051757812e+01 1.943457365036010742e+00 2.014066934585571289e+00 1.187257289886474609e+00 4.589879214763641357e-01
1.772000000000000000e+03 7.087975978851318359e+00 -1.829895973205566406e+01 8.663572371006011963e-04 1.380963949486613274e-04 3.013360837940126657e-04 5.381201481213793159e-05
1.773000000000000000e+03 7.486141967773437500e+01 2.702753448486328125e+01 -1.083099283277988434e-02 8.356778144836425781e+00 2.503784179687500000e+00 8.828595876693725586e-01
1.774000000000000000e+03 7.506085205078125000e+01 3.837245178222656250e+01 -1.934904456138610840e-01 8.537247657775878906e+00 2.503127336502075195e+00 1.074989438056945801e-01
1.775000000000000000e+03 4.035484695434570312e+01 2.549270248413085938e+01 1.404810249805450439e-01 4.533655166625976562e+00 1.402240872383117676e+00 2.170347422361373901e-01
1.776000000000000000e+03 5.961794281005859375e+01 -2.200000190734863281e+01 1.024782061576843262e+00 1.166476368904113770e+00 6.573775410652160645e-01 1.814482331275939941e+00
1.777000000000000000e+03 5.735259628295898438e+01 -2.143030548095703125e+01 1.420518159866333008e+00 7.321023941040039062e-01 6.457861661911010742e-01 1.338231325149536133e+00
1.778000000000000000e+03 5.454710006713867188e+01 -2.950486373901367188e+01 1.562718868255615234e+00 7.523045063018798828e+00 2.725729227066040039e+00 -1.622044324874877930e+00
1.779000000000000000e+03 6.190970611572265625e+01 -1.692837715148925781e+01 -2.087541222572326660e-01 1.844262123107910156e+00 4.906524121761322021e-01 1.687807917594909668e+00
1.780000000000000000e+03 7.353855895996093750e+01 2.637130165100097656e+01 3.978275135159492493e-02 7.802690029144287109e+00 2.352741956710815430e+00 8.560088872909545898e-01
1.781000000000000000e+03 3.711397933959960938e+01 1.133893489837646484e+01 1.831609487533569336e+00 5.664319515228271484e+00 2.248778820037841797e+00 -9.944030046463012695e-01
1.782000000000000000e+03 3.705577087402343750e+01 1.811478996276855469e+01 9.535113573074340820e-01 5.348170757293701172e+00 1.890504717826843262e+00 -6.029387712478637695e-01
1.783000000000000000e+03 6.848106384277343750e+01 -1.305860519409179688e+01 6.363014578819274902e-01 4.388562202453613281e+00 1.507459044456481934e+00 5.495013594627380371e-01
1.784000000000000000e+03 7.085007476806640625e+01 3.284574127197265625e+01 -9.208675622940063477e-01 5.066815376281738281e+00 1.243784308433532715e+00 6.896071135997772217e-02
1.785000000000000000e+03 7.453859710693359375e+01 -2.802399635314941406e+01 1.123303651809692383e+00 8.049489974975585938e+00 2.751837968826293945e+00 -1.508459299802780151e-01
1.786000000000000000e+03 7.401684570312500000e+01 -2.903314971923828125e+01 9.091906547546386719e-01 8.092111587524414062e+00 2.700390815734863281e+00 -4.036255478858947754e-01
1.787000000000000000e+03 6.318172073364257812e+01 -1.621669197082519531e+01 3.248160481452941895e-01 2.031456708908081055e+00 7.068818211555480957e-01 1.594862818717956543e+00
1.788000000000000000e+03 6.451582336425781250e+01 -1.544872188568115234e+01 7.343451380729675293e-01 2.410797119140625000e+00 9.435426592826843262e-01 1.347421646118164062e+00
1.789000000000000000e+03 5.041556549072265625e+01 -2.147547721862792969e+01 3.733011484146118164e+00 6.026998043060302734e+00 2.928002834320068359e+00 -2.479736328125000000e+00
1.790000000000000000e+03 1.874463844299316406e+01 -3.601323699951171875e+01 -5.269167013466358185e-03 -1.777110248804092407e-02 -6.912080571055412292e-03 -2.851111814379692078e-02
1.791000000000000000e+03 5.951698303222656250e+01 -1.818691444396972656e+01 -7.791899442672729492e-01 1.165817260742187500e+00 1.159882023930549622e-01 2.187523126602172852e+00
1.792000000000000000e+03 6.086865615844726562e+01 -2.125854873657226562e+01 2.824173569679260254e-01 1.356085062026977539e+00 4.915507435798645020e-01 1.897568941116333008e+00
1.793000000000000000e+03 7.289569091796875000e+01 -3.592157363891601562e+01 -5.210124254226684570e-01 5.836607933044433594e+00 1.594678759574890137e+00 1.908694356679916382e-01
1.794000000000000000e+03 1.035513687133789062e+01 -3.455672454833984375e+01 -4.271936137229204178e-03 -1.253025489859282970e-03 -1.657488523051142693e-03 -1.926331664435565472e-03
1.795000000000000000e+03 1.344126701354980469e+01 -3.625353240966796875e+01 -2.655242802575230598e-03 -6.441292818635702133e-03 -2.728960709646344185e-03 -8.780444040894508362e-03
1.796000000000000000e+03 7.173372650146484375e+01 2.967443084716796875e+01 -5.566001534461975098e-01 6.322896480560302734e+00 1.729888796806335449e+00 5.378727912902832031e-01
1.797000000000000000e+03 6.239256858825683594e+00 -2.243501472473144531e+01 -8.480282849632203579e-04 -2.740343916229903698e-04 -3.366188029758632183e-04 2.862419933080673218e-04
1.798000000000000000e+03 6.820611572265625000e+01 4.104964447021484375e+01 2.381140291690826416e-01 2.281028032302856445e+00 7.557426095008850098e-01 -3.424688056111335754e-02
1.799000000000000000e+03 7.472989082336425781e+00 -3.036174011230468750e+01 6.572288693860173225e-04 -8.233766420744359493e-04 -4.984434417565353215e-05 4.573592450469732285e-04
1.800000000000000000e+03 8.785941123962402344e+00 -3.380392837524414062e+01 -2.655268646776676178e-03 -1.567952567711472511e-03 -1.266966341063380241e-03 -3.393011633306741714e-03
1.801000000000000000e+03 7.576858520507812500e+00 -1.503772926330566406e+01 -4.804185009561479092e-04 -2.851909084711223841e-04 -2.296828170074149966e-04 3.790854243561625481e-04
1.802000000000000000e+03 4.610990047454833984e+00 -1.778812980651855469e+01 5.366893019527196884e-04 3.295258793514221907e-04 2.598645514808595181e-04 -5.436194260255433619e-05
1.803000000000000000e+03 5.188117218017578125e+01 -1.652426147460937500e+01 -2.014134168624877930e+00 3.515395164489746094e+00 4.503782689571380615e-01 2.461266219615936279e-01
1.804000000000000000e+03 3.820476913452148438e+01 1.034350299835205078e+01 1.894742131233215332e+00 6.355543613433837891e+00 2.475085735321044922e+00 -1.032881259918212891e+00
1.805000000000000000e+03 6.350495147705078125e+01 -2.017863845825195312e+01 -6.522800326347351074e-01 1.385359287261962891e+00 2.199237942695617676e-01 1.708788633346557617e+00
1.806000000000000000e+03 6.376672744750976562e+01 -1.732680892944335938e+01 -9.354958310723304749e-03 1.974349975585937500e+00 5.894985198974609375e-01 1.591843366622924805e+00
1.807000000000000000e+03 4.773436355590820312e+01 -2.376845550537109375e+01 -1.542469263076782227e-01 1.031237983703613281e+01 3.047439813613891602e+00 -1.338581204414367676e+00
1.808000000000000000e+03 5.376707458496093750e+01 -2.734622383117675781e+01 1.178150057792663574e+00 5.976631641387939453e+00 2.146434545516967773e+00 -1.110456109046936035e+00
1.809000000000000000e+03 7.515933990478515625e+01 3.493346786499023438e+01 -2.773409485816955566e-01 8.569762229919433594e+00 2.487726449966430664e+00 1.717626452445983887e-01
1.810000000000000000e+03 6.181058883666992188e+01 -4.076900482177734375e+01 6.668354868888854980e-01 1.149107575416564941e+00 5.447828769683837891e-01 -2.538641989231109619e-01
1.811000000000000000e+03 6.051040649414062500e+01 -2.013440895080566406e+01 -3.700784966349601746e-02 1.354795217514038086e+00 3.953362107276916504e-01 2.161476612091064453e+00
1.812000000000000000e+03 4.476516723632812500e+01 -3.216479492187500000e+01 1.351154502481222153e-02 4.056494235992431641e+00 1.221001625061035156e+00 6.435761451721191406e-01
1.813000000000000000e+03 3.870418167114257812e+01 1.919669342041015625e+01 7.150080800056457520e-01 5.835317611694335938e+00 1.965097784996032715e+00 -1.793251633644104004e-01
1.814000000000000000e+03 4.410821151733398438e+01 3.188137817382812500e+01 -5.088532567024230957e-01 3.142861604690551758e+00 7.902024388313293457e-01 3.692808747291564941e-01
1.815000000000000000e+03 7.313097381591796875e+01 -3.168816947937011719e+01 -2.823567986488342285e-01 7.211974143981933594e+00 2.078885316848754883e+00 -5.914340913295745850e-02
1.816000000000000000e+03 7.340144348144531250e+01 -3.323093795776367188e+01 -5.690588951110839844e-01 6.837954998016357422e+00 1.880668878555297852e+00 -9.704502671957015991e-02
1.817000000000000000e+03 4.293113708496093750e+01 -1.914482307434082031e+01 1.026783943176269531e+00 1.090424656867980957e+00 6.351625919342041016e-01 -1.180085659027099609e+00
1.818000000000000000e+03 4.534396362304687500e+01 -1.775472259521484375e+01 2.908976674079895020e-01 8.021237373352050781e+00 2.493640661239624023e+00 -4.381770610809326172e+00
1.819000000000000000e+03 4.486495590209960938e+01 -1.856883049011230469e+01 2.264695644378662109e+00 5.473652362823486328e+00 2.321504354476928711e+00 -4.859079360961914062e+00
1.820000000000000000e+03 4.559886169433593750e+01 -2.280984115600585938e+01 5.780745744705200195e-01 7.392844676971435547e+00 2.391275644302368164e+00 2.980772256851196289e+00
1.821000000000000000e+03 4.259464263916015625e+01 -1.892926788330078125e+01 7.020990252494812012e-01 1.154423475265502930e+00 5.569567680358886719e-01 -1.145863413810729980e+00
1.822000000000000000e+03 4.459412765502929688e+01 -2.361383247375488281e+01 6.821257472038269043e-01 3.905382871627807617e+00 1.376252532005310059e+00 1.961576104164123535e+00
1.823000000000000000e+03 4.465377426147460938e+01 -2.465818786621093750e+01 7.218895852565765381e-02 4.650686264038085938e+00 1.416862487792968750e+00 1.758535027503967285e+00
1.824000000000000000e+03 4.440582275390625000e+01 -2.394618225097656250e+01 5.167542695999145508e-01 3.668802261352539062e+00 1.255666971206665039e+00 1.802685141563415527e+00
1.825000000000000000e+03 4.175949859619140625e+01 -1.753997039794921875e+01 -1.568888574838638306e-01 1.712598323822021484e+00 4.667128622531890869e-01 -1.588997840881347656e+00
1.826000000000000000e+03 4.407675552368164062e+01 -2.359372520446777344e+01 7.549484968185424805e-01 2.604247331619262695e+00 1.007758736610412598e+00 1.563728332519531250e+00
1.827000000000000000e+03 4.155327224731445312e+01 -1.874896430969238281e+01 -1.587627530097961426e-01 8.490127325057983398e-01 2.070749998092651367e-01 -6.332522630691528320e-01
1.828000000000000000e+03 4.645020675659179688e+01 -2.401333427429199219e+01 -4.573482871055603027e-01 9.287530899047851562e+00 2.649054765701293945e+00 9.137641191482543945e-01
1.829000000000000000e+03 4.626477813720703125e+01 -2.318143653869628906e+01 -2.680420577526092529e-01 1.020985412597656250e+01 2.982543706893920898e+00 1.875234246253967285e+00
1.830000000000000000e+03 1.355836963653564453e+01 -7.067343711853027344e+00 -1.272827066713944077e-04 -1.206099186674691737e-04 -7.436778832925483584e-05 1.790627902664709836e-05
1.831000000000000000e+03 1.298227310180664062e+01 -5.865350723266601562e+00 1.589646999491378665e-04 4.203621210763230920e-05 6.030027361703105271e-05 3.102068876614794135e-05
1.832000000000000000e+03 1.192352485656738281e+01 -6.112462997436523438e+00 2.425218553980812430e-04 -1.031252622851752676e-06 7.244718290166929364e-05 3.465209010755643249e-05
1.833000000000000000e+03 1.305867576599121094e+01 -6.703382015228271484e+00 1.375996362185105681e-04 9.017308912007138133e-05 6.833181396359577775e-05 4.082716986886225641e-05
1.834000000000000000e+03 4.798977661132812500e+01 -1.739247894287109375e+01 -9.604259729385375977e-01 1.029003429412841797e+01 2.798882484436035156e+00 -7.577262520790100098e-01
1.835000000000000000e+03 4.740615844726562500e+01 -1.726455688476562500e+01 -1.316031336784362793e+00 1.063327598571777344e+01 2.795173406600952148e+00 -1.419851422309875488e+00
1.836000000000000000e+03 1.407423973083496094e+01 -7.453238964080810547e+00 1.493667659815400839e-04 9.342610428575426340e-05 7.283785816980525851e-05 -5.706261799787171185e-05
1.837000000000000000e+03 1.450793552398681641e+01 -9.390600204467773438e+00 2.386669511906802654e-04 1.197469391627237201e-04 1.075241671060211957e-04 -4.606135917128995061e-05
1.838000000000000000e+03 1.679940223693847656e+01 -1.185357284545898438e+01 -1.308770733885467052e-04 -7.455539162037894130e-05 -6.162974023027345538e-05 -9.518504521111026406e-05
1.839000000000000000e+03 1.611559104919433594e+01 -7.287830352783203125e+00 1.594035420566797256e-04 -1.936463377205654979e-05 4.201167394057847559e-05 -5.201702515478245914e-05
1.840000000000000000e+03 1.010628795623779297e+01 -4.471672534942626953e+00 -1.545112900203093886e-04 -7.123451359802857041e-05 -6.772374035790562630e-05 -8.717051241546869278e-05
1.841000000000000000e+03 1.069967460632324219e+01 -5.476050376892089844e+00 2.186533820349723101e-04 3.387946344446390867e-05 7.575985364383086562e-05 -6.529426900669932365e-05
1.842000000000000000e+03 5.742400646209716797e+00 4.672553539276123047e+00 -2.781313359737396240e-01 -3.943757414817810059e-01 -2.017521262168884277e-01 5.717068910598754883e-01
1.843000000000000000e+03 4.130063056945800781e+00 4.159341335296630859e+00 -1.763348728418350220e-01 -2.773575782775878906e-01 -1.361077278852462769e-01 3.469800353050231934e-01
1.844000000000000000e+03 5.496121406555175781e+00 6.678945541381835938e+00 -9.558751434087753296e-02 -6.114197373390197754e-01 -2.121021747589111328e-01 6.086143851280212402e-01
1.845000000000000000e+03 7.719089031219482422e+00 5.387990474700927734e+00 -2.487370967864990234e-01 -6.333168148994445801e-01 -2.646161615848541260e-01 7.993456125259399414e-01
1.846000000000000000e+03 6.380401611328125000e+00 4.680344581604003906e+00 -3.018852770328521729e-01 -4.443815648555755615e-01 -2.238800525665283203e-01 6.479818224906921387e-01
1.847000000000000000e+03 8.168036460876464844e+00 4.723824977874755859e+00 -3.499890267848968506e-01 -6.192180514335632324e-01 -2.907621264457702637e-01 8.281144499778747559e-01
1.848000000000000000e+03 2.895925521850585938e+01 -1.053067111968994141e+01 -1.173391461372375488e+00 1.011635214090347290e-01 -3.216683864593505859e-01 1.080185174942016602e+00
1.849000000000000000e+03 7.095961093902587891e+00 3.911352157592773438e+00 -4.163052737712860107e-01 -4.131282269954681396e-01 -2.488300502300262451e-01 6.795805692672729492e-01
1.850000000000000000e+03 2.862292861938476562e+01 -1.279153633117675781e+01 -1.111030936241149902e+00 -1.808688342571258545e-01 -3.875699341297149658e-01 1.148857831954956055e+00
1.851000000000000000e+03 2.908502960205078125e+01 -1.339802551269531250e+01 -1.117179393768310547e+00 -1.405083835124969482e-01 -3.773063123226165771e-01 1.077105998992919922e+00
1.852000000000000000e+03 3.115946006774902344e+01 -1.283918380737304688e+01 -1.159548401832580566e+00 2.415457814931869507e-01 -2.754007577896118164e-01 8.975279331207275391e-01
1.853000000000000000e+03 9.390834808349609375e+00 -4.288745403289794922e+00 2.650888054631650448e-04 2.244298775622155517e-05 8.625954069430008531e-05 -4.827739030588418245e-05
1.854000000000000000e+03 9.527853012084960938e+00 -5.542136192321777344e+00 2.277767052873969078e-04 3.824495797744020820e-05 7.980650116223841906e-05 -2.750506246229633689e-05
1.855000000000000000e+03 4.394701385498046875e+01 -2.641002082824707031e+01 1.020162105560302734e-01 3.877211093902587891e+00 1.193768143653869629e+00 1.411619424819946289e+00
1.856000000000000000e+03 4.672800445556640625e+01 -2.429175376892089844e+01 -5.035952329635620117e-01 8.840841293334960938e+00 2.501173973083496094e+00 3.079547286033630371e-01
1.857000000000000000e+03 4.012187576293945312e+01 -1.839572525024414062e+01 -1.187552213668823242e+00 2.907838225364685059e-01 -2.690305113792419434e-01 -9.630008041858673096e-02
1.858000000000000000e+03 4.342641830444335938e+01 -1.850442314147949219e+01 1.500514626502990723e+00 2.238477945327758789e+00 1.121697783470153809e+00 -2.520430326461791992e+00
1.859000000000000000e+03 4.958169555664062500e+01 -2.174060249328613281e+01 3.988204240798950195e+00 7.501519203186035156e+00 3.446917057037353516e+00 -3.020039796829223633e+00
1.860000000000000000e+03 4.963288879394531250e+01 -1.981282043457031250e+01 3.888936519622802734e+00 6.979250431060791016e+00 3.260456085205078125e+00 -7.899314761161804199e-01
1.861000000000000000e+03 1.662741470336914062e+01 3.039590120315551758e+00 -4.163667559623718262e-01 -1.305165648460388184e+00 -5.164597630500793457e-01 9.588358402252197266e-01
1.862000000000000000e+03 2.595829391479492188e+01 -8.210891723632812500e+00 -1.412530660629272461e+00 -6.386799216270446777e-01 -6.153631806373596191e-01 1.224914312362670898e+00
1.863000000000000000e+03 5.701771736145019531e+00 -4.163199901580810547e+00 8.828978752717375755e-05 5.068146128905937076e-05 4.169137537246569991e-05 -1.071979422704316676e-04
1.864000000000000000e+03 2.244798469543457031e+01 -3.509078741073608398e+00 -1.437828183174133301e+00 -1.280624866485595703e+00 -8.155359029769897461e-01 1.170882344245910645e+00
1.865000000000000000e+03 2.174019622802734375e+01 -1.723353266716003418e+00 -1.135350584983825684e+00 -1.195536255836486816e+00 -6.992660760879516602e-01 9.999945163726806641e-01
1.866000000000000000e+03 2.607842826843261719e+01 -7.053225040435791016e+00 -1.373639583587646484e+00 -4.542031288146972656e-01 -5.483528375625610352e-01 1.101979374885559082e+00
1.867000000000000000e+03 6.757418632507324219e+00 -4.227257251739501953e+00 1.171904223156161606e-04 2.363979547226335853e-05 4.224906660965643823e-05 -7.500188803533092141e-05
1.868000000000000000e+03 7.227694988250732422e+00 -4.590511322021484375e+00 -3.211274452041834593e-04 4.486433317651972175e-05 -8.287893433589488268e-05 -1.629482721909880638e-05
1.869000000000000000e+03 6.250901222229003906e+00 -5.920505046844482422e+00 -3.676660126075148582e-04 7.369121885858476162e-05 -8.819243521429598331e-05 -5.477973900269716978e-05
1.870000000000000000e+03 5.512686729431152344e+00 -5.395705223083496094e+00 3.455082187429070473e-04 -7.757103594485670328e-05 8.038115629460662603e-05 -8.275863365270197392e-05
1.871000000000000000e+03 8.893811225891113281e+00 -3.836572408676147461e+00 -4.809521124116145074e-05 -5.797449921374209225e-05 -3.182091313647106290e-05 1.127985524362884462e-04
1.872000000000000000e+03 4.497460174560546875e+01 -2.765135192871093750e+01 1.197283342480659485e-01 4.711709976196289062e+00 1.449431538581848145e+00 1.164293289184570312e+00
1.873000000000000000e+03 4.826045227050781250e+01 -2.354332923889160156e+01 7.189889550209045410e-01 1.010723972320556641e+01 3.247868537902832031e+00 -2.282485246658325195e+00
1.874000000000000000e+03 4.846146392822265625e+01 -2.229490470886230469e+01 3.363225460052490234e+00 1.027601432800292969e+01 4.091772079467773438e+00 -3.801894664764404297e+00
1.875000000000000000e+03 3.163331031799316406e+01 -1.380527782440185547e+01 -1.242556571960449219e+00 2.086985409259796143e-01 -3.101574182510375977e-01 8.458295464515686035e-01
1.876000000000000000e+03 1.370218372344970703e+01 3.041476011276245117e+00 -6.573212146759033203e-01 -1.200796008110046387e+00 -5.574351549148559570e-01 1.078513145446777344e+00
1.877000000000000000e+03 2.512808227539062500e+01 -5.668119430541992188e+00 -1.374772071838378906e+00 -6.448100209236145020e-01 -6.058745980262756348e-01 1.064228057861328125e+00
1.878000000000000000e+03 1.016786766052246094e+01 -5.046874523162841797e+00 -1.198737809318117797e-04 -4.564913251670077443e-05 -4.965687185176648200e-05 1.196577359223738313e-04
1.879000000000000000e+03 2.692018890380859375e+01 -8.422079086303710938e+00 -1.334716916084289551e+00 -2.932035624980926514e-01 -4.883761405944824219e-01 1.139283299446105957e+00
1.880000000000000000e+03 1.907540130615234375e+01 5.237980484962463379e-01 -8.764364123344421387e-01 -1.387385487556457520e+00 -6.791465878486633301e-01 1.023926496505737305e+00
1.881000000000000000e+03 2.295386886596679688e+01 -2.981230735778808594e+00 -1.249053478240966797e+00 -1.031520247459411621e+00 -6.841720938682556152e-01 1.010370612144470215e+00
1.882000000000000000e+03 1.976706695556640625e+01 -5.034710746258497238e-03 -9.438174366950988770e-01 -1.362065315246582031e+00 -6.917648315429687500e-01 1.012833118438720703e+00
1.883000000000000000e+03 1.836807823181152344e+01 1.028940916061401367e+00 -8.177502751350402832e-01 -1.400102138519287109e+00 -6.653557419776916504e-01 1.030244112014770508e+00
1.884000000000000000e+03 3.799671936035156250e+01 -1.550742816925048828e+01 -1.120290517807006836e+00 5.415781140327453613e-01 -1.736137121915817261e-01 -5.067251920700073242e-01
1.885000000000000000e+03 2.803851127624511719e+01 -1.040152072906494141e+01 -1.224978923797607422e+00 -1.298107206821441650e-01 -4.064368903636932373e-01 1.165833711624145508e+00
1.886000000000000000e+03 2.730682182312011719e+01 -9.093322753906250000e+00 -1.305802583694458008e+00 -2.336191982030868530e-01 -4.618265628814697266e-01 1.154706120491027832e+00
1.887000000000000000e+03 1.356352138519287109e+01 4.150851249694824219e+00 -3.548548221588134766e-01 -1.167562127113342285e+00 -4.567250907421112061e-01 1.015020847320556641e+00
1.888000000000000000e+03 4.924177169799804688e+01 -2.218714714050292969e+01 3.363546133041381836e+00 8.450930595397949219e+00 3.544342994689941406e+00 -3.346370697021484375e+00
1.889000000000000000e+03 5.391351699829101562e+01 -2.438362121582031250e+01 1.826953649520874023e+00 3.901319026947021484e+00 1.718481779098510742e+00 -1.053095340728759766e+00
1.890000000000000000e+03 2.561396980285644531e+01 -6.359238624572753906e+00 -1.382250189781188965e+00 -5.522021651268005371e-01 -5.803356766700744629e-01 1.082678318023681641e+00
1.891000000000000000e+03 4.930889511108398438e+01 -1.712817955017089844e+01 -9.545763134956359863e-01 8.069661140441894531e+00 2.134525299072265625e+00 2.228828370571136475e-01
1.892000000000000000e+03 1.415745353698730469e+01 3.667957305908203125e+00 -4.411381185054779053e-01 -1.224554181098937988e+00 -4.997076988220214844e-01 1.030108809471130371e+00
1.893000000000000000e+03 2.408872413635253906e+01 -4.306737899780273438e+00 -1.332749366760253906e+00 -8.420425653457641602e-01 -6.524375677108764648e-01 1.031248331069946289e+00
1.894000000000000000e+03 2.353252601623535156e+01 -3.638489007949829102e+00 -1.297951340675354004e+00 -9.411181807518005371e-01 -6.717208623886108398e-01 1.017820954322814941e+00
1.895000000000000000e+03 1.011073207855224609e+01 5.310641765594482422e+00 -2.491156905889511108e-01 -8.705980181694030762e-01 -3.359141051769256592e-01 9.553096294403076172e-01
1.896000000000000000e+03 2.044546890258789062e+01 -5.557394027709960938e-01 -1.006876707077026367e+00 -1.316863775253295898e+00 -6.971221566200256348e-01 1.004986882209777832e+00
1.897000000000000000e+03 1.550093746185302734e+01 2.817658185958862305e+00 -5.872337818145751953e-01 -1.314731121063232422e+00 -5.705894827842712402e-01 1.051279187202453613e+00
1.898000000000000000e+03 1.481459331512451172e+01 3.235494613647460938e+00 -5.181699395179748535e-01 -1.279384851455688477e+00 -5.392664670944213867e-01 1.043100595474243164e+00
1.899000000000000000e+03 4.899035644531250000e+01 -1.350252628326416016e+01 -2.527588844299316406e+00 6.596318244934082031e+00 1.220618844032287598e+00 1.238481490872800350e-03
1.900000000000000000e+03 3.154468345642089844e+01 -1.469095039367675781e+01 -1.373357057571411133e+00 1.134081482887268066e-01 -3.779846727848052979e-01 8.319114446640014648e-01
1.901000000000000000e+03 4.590816879272460938e+01 -2.593966293334960938e+01 -3.254504203796386719e-01 6.334428310394287109e+00 1.802693367004394531e+00 1.100787758827209473e+00
1.902000000000000000e+03 3.349302291870117188e+01 -1.376657295227050781e+01 -1.188673377037048340e+00 3.865031003952026367e-01 -2.406510710716247559e-01 6.001586318016052246e-01
1.903000000000000000e+03 4.474082946777343750e+01 -3.037761878967285156e+01 3.844250440597534180e-01 4.185860157012939453e+00 1.371085643768310547e+00 7.233945131301879883e-01
1.904000000000000000e+03 4.487179183959960938e+01 -2.879753875732421875e+01 2.744567692279815674e-01 4.479485034942626953e+00 1.426182508468627930e+00 9.715988039970397949e-01
1.905000000000000000e+03 1.191555404663085938e+01 4.486500263214111328e+00 -3.732070326805114746e-01 -1.042726993560791016e+00 -4.247801899909973145e-01 1.014036178588867188e+00
1.906000000000000000e+03 4.457272720336914062e+01 -2.629987716674804688e+01 3.763199597597122192e-02 4.576972484588623047e+00 1.384381413459777832e+00 1.464826345443725586e+00
1.907000000000000000e+03 4.532567596435546875e+01 -2.367115402221679688e+01 3.306783735752105713e-01 6.364274501800537109e+00 2.008486032485961914e+00 2.284144639968872070e+00
1.908000000000000000e+03 7.618250274658203125e+01 -2.339385986328125000e+01 1.244568005204200745e-01 7.488829612731933594e+00 2.283985853195190430e+00 7.925422787666320801e-01
1.909000000000000000e+03 7.372324371337890625e+01 5.892990589141845703e+00 4.097868800163269043e-01 9.438953399658203125e+00 2.954622268676757812e+00 8.289191722869873047e-01
1.910000000000000000e+03 1.181381320953369141e+01 -8.698444366455078125e+00 2.417087380308657885e-04 2.142676239600405097e-04 1.367929071420803666e-04 7.520917279180139303e-05
1.911000000000000000e+03 1.165614032745361328e+01 -1.159720897674560547e+01 -1.835952571127563715e-04 -6.305937131401151419e-05 -7.399638707283884287e-05 1.079637440852820873e-04
1.912000000000000000e+03 4.407383728027343750e+01 -3.309893417358398438e+01 -3.334656357765197754e-02 3.667205572128295898e+00 1.090157747268676758e+00 6.990672945976257324e-01
1.913000000000000000e+03 4.566249084472656250e+01 -2.968142509460449219e+01 2.580990493297576904e-01 4.608385086059570312e+00 1.459945321083068848e+00 6.526379585266113281e-01
1.914000000000000000e+03 1.789307022094726562e+01 -1.118539142608642578e+01 -7.696200918871909380e-05 -8.703752973815426230e-05 -4.919986167806200683e-05 -6.463552563218399882e-05
1.915000000000000000e+03 8.856741905212402344e+00 5.141757488250732422e+00 -2.920246720314025879e-01 -7.257018685340881348e-01 -3.053179383277893066e-01 8.912622332572937012e-01
1.916000000000000000e+03 4.424042892456054688e+01 -1.826797723770141602e+00 3.394209742546081543e-01 5.589974880218505859e+00 1.778818726539611816e+00 -2.094834566116333008e+00
1.917000000000000000e+03 4.301521301269531250e+01 -4.697346210479736328e+00 -1.524663120508193970e-01 5.001315116882324219e+00 1.454654574394226074e+00 -1.646645665168762207e+00
1.918000000000000000e+03 5.553784942626953125e+01 -1.815542602539062500e+01 -1.039210438728332520e+00 -1.246868968009948730e+00 -6.858238577842712402e-01 1.131938576698303223e+00
1.919000000000000000e+03 5.588759613037109375e+01 -2.219561386108398438e+01 1.925101399421691895e+00 1.585135698318481445e+00 1.053071141242980957e+00 3.908639550209045410e-01
1.920000000000000000e+03 1.235290718078613281e+01 -1.098988437652587891e+01 1.476817269576713443e-04 2.594250836409628391e-04 1.221320417243987322e-04 3.560198456398211420e-05
1.921000000000000000e+03 3.877665328979492188e+01 -1.463062572479248047e+01 -8.486464619636535645e-01 1.223562598228454590e+00 1.124748438596725464e-01 -9.451414942741394043e-01
1.922000000000000000e+03 3.540709304809570312e+01 -1.456477260589599609e+01 -1.234859943389892578e+00 3.335611820220947266e-01 -2.703896462917327881e-01 2.772921025753021240e-01
1.923000000000000000e+03 2.974802970886230469e+00 6.666004180908203125e+00 -5.620574206113815308e-02 -4.922495186328887939e-01 -1.645365804433822632e-01 3.625170886516571045e-01
1.924000000000000000e+03 1.597211933135986328e+01 -1.076733970642089844e+01 -2.468651218805462122e-04 -3.776483208639547229e-05 -8.538898691767826676e-05 -4.770038140122778714e-05
1.925000000000000000e+03 3.665214538574218750e+01 1.343850421905517578e+01 1.571541547775268555e+00 5.413336277008056641e+00 2.095463275909423828e+00 -9.168658852577209473e-01
1.926000000000000000e+03 4.150859451293945312e+01 -3.952879905700683594e+00 -1.504878550767898560e-01 4.759807586669921875e+00 1.382795929908752441e+00 -1.475579142570495605e+00
1.927000000000000000e+03 4.185525894165039062e+01 2.878717899322509766e+00 7.747786641120910645e-01 6.442539215087890625e+00 2.165195226669311523e+00 -1.987942814826965332e+00
1.928000000000000000e+03 4.144803237915039062e+01 1.253536701202392578e+00 4.944219291210174561e-01 5.852693557739257812e+00 1.904134631156921387e+00 -1.759127259254455566e+00
1.929000000000000000e+03 4.484952926635742188e+01 -6.628538608551025391e+00 -3.294135630130767822e-01 5.228095531463623047e+00 1.469604611396789551e+00 -1.608632206916809082e+00
1.930000000000000000e+03 4.599508666992187500e+01 -6.471429347991943359e+00 -1.275392323732376099e-01 5.398931026458740234e+00 1.581417560577392578e+00 -1.639197826385498047e+00
1.931000000000000000e+03 6.621971130371093750e+01 -1.387895488739013672e+01 9.936362504959106445e-01 3.209048748016357422e+00 1.260805487632751465e+00 1.105049848556518555e+00
1.932000000000000000e+03 7.336183929443359375e+01 1.743879890441894531e+01 1.005711257457733154e-01 8.562489509582519531e+00 2.598917961120605469e+00 6.777272820472717285e-01
1.933000000000000000e+03 3.890046691894531250e+01 -1.549092006683349609e+01 -9.820652604103088379e-01 8.862542510032653809e-01 -2.874330244958400726e-02 -8.962351083755493164e-01
1.934000000000000000e+03 6.906548309326171875e+01 -1.160630702972412109e+01 6.365731954574584961e-01 5.152064800262451172e+00 1.736591458320617676e+00 7.000034451484680176e-01
1.935000000000000000e+03 4.531309509277343750e+01 -9.746571540832519531e+00 -1.034535288810729980e+00 5.499086856842041016e+00 1.339365482330322266e+00 -1.402494311332702637e+00
1.936000000000000000e+03 9.337428092956542969e+00 -1.165414237976074219e+01 -9.704536205390468240e-05 -1.952276215888559818e-05 -3.497043871902860701e-05 -2.339137281524017453e-04
1.937000000000000000e+03 3.904808807373046875e+01 -1.645260620117187500e+01 -1.168889284133911133e+00 5.242017507553100586e-01 -1.934062391519546509e-01 -7.318461537361145020e-01
1.938000000000000000e+03 6.006450653076171875e+01 -1.913662528991699219e+01 -6.563773751258850098e-01 1.313771009445190430e+00 1.972180902957916260e-01 2.267554521560668945e+00
1.939000000000000000e+03 7.393511199951171875e+01 2.745002937316894531e+01 -3.025720454752445221e-02 7.935394287109375000e+00 2.371541261672973633e+00 8.654033541679382324e-01
1.940000000000000000e+03 7.521324157714843750e+01 3.087527656555175781e+01 -3.323698043823242188e-01 8.652406692504882812e+00 2.496011257171630859e+00 6.800911426544189453e-01
1.941000000000000000e+03 5.855349731445312500e+01 -2.287080383300781250e+01 1.809641242027282715e+00 1.101429224014282227e+00 8.733211159706115723e-01 1.410493612289428711e+00
1.942000000000000000e+03 5.934045410156250000e+01 -2.000874710083007812e+01 -8.874362707138061523e-02 9.922974109649658203e-01 2.710661292076110840e-01 2.289884328842163086e+00
1.943000000000000000e+03 5.014278030395507812e+01 -1.711490058898925781e+01 -6.592702865600585938e-01 6.692444324493408203e+00 1.809952139854431152e+00 3.054841756820678711e-01
1.944000000000000000e+03 4.261053848266601562e+01 -1.041040658950805664e+00 2.778185009956359863e-01 5.519690036773681641e+00 1.739252567291259766e+00 -1.882168531417846680e+00
1.945000000000000000e+03 7.540599060058593750e+01 2.283517646789550781e+01 9.879755228757858276e-02 8.497139930725097656e+00 2.578781366348266602e+00 7.994240522384643555e-01
1.946000000000000000e+03 4.204648971557617188e+01 9.990069270133972168e-02 3.533143699169158936e-01 5.709578514099121094e+00 1.818867802619934082e+00 -1.829372167587280273e+00
1.947000000000000000e+03 4.120412445068359375e+01 4.105911731719970703e+00 9.185432195663452148e-01 6.792021274566650391e+00 2.313169240951538086e+00 -1.827290534973144531e+00
1.948000000000000000e+03 7.577671813964843750e+01 2.817828750610351562e+01 -1.645727157592773438e-01 8.802709579467773438e+00 2.591440916061401367e+00 8.740928769111633301e-01
1.949000000000000000e+03 7.381549835205078125e+01 9.474225997924804688e+00 -1.589189320802688599e-01 9.144967079162597656e+00 2.695814371109008789e+00 9.027350544929504395e-01
1.950000000000000000e+03 7.568891143798828125e+01 3.822338104248046875e+00 4.079482555389404297e-01 7.641259670257568359e+00 2.414762496948242188e+00 5.712931156158447266e-01
1.951000000000000000e+03 7.568744659423828125e+01 2.431237602233886719e+01 1.018031239509582520e-01 8.606131553649902344e+00 2.612380504608154297e+00 8.260505199432373047e-01
1.952000000000000000e+03 7.521694183349609375e+01 2.113762855529785156e+01 1.163314878940582275e-01 8.429914474487304688e+00 2.563873767852783203e+00 7.446262240409851074e-01
1.953000000000000000e+03 7.577468109130859375e+01 -1.969407653808593750e+01 -5.893260240554809570e-01 7.367242813110351562e+00 2.033375024795532227e+00 2.793338000774383545e-01
1.954000000000000000e+03 7.472644042968750000e+01 -2.173131370544433594e+01 -5.447835326194763184e-01 7.724334716796875000e+00 2.153865337371826172e+00 6.512288451194763184e-01
1.955000000000000000e+03 7.441200256347656250e+01 -1.506941795349121094e+01 -3.621909916400909424e-01 6.484868049621582031e+00 1.836803078651428223e+00 -5.994094610214233398e-01
1.956000000000000000e+03 7.566663360595703125e+01 -1.380447769165039062e+01 -1.836545020341873169e-01 6.682084083557128906e+00 1.949528813362121582e+00 -5.648303627967834473e-01
1.957000000000000000e+03 7.590964508056640625e+01 1.235590934753417969e+01 -1.201095283031463623e-01 8.067634582519531250e+00 2.384257316589355469e+00 7.453617453575134277e-01
1.958000000000000000e+03 7.577693176269531250e+01 1.642750740051269531e+01 1.238333497894927859e-04 8.265048980712890625e+00 2.479552030563354492e+00 6.344918608665466309e-01
1.959000000000000000e+03 7.442549896240234375e+01 -6.573103904724121094e+00 7.309776544570922852e-02 7.117541790008544922e+00 2.157191753387451172e+00 -4.112729132175445557e-01
1.960000000000000000e+03 7.243934631347656250e+01 1.058942127227783203e+01 -4.585716128349304199e-01 9.708102226257324219e+00 2.774859189987182617e+00 6.237805485725402832e-01
1.961000000000000000e+03 7.481381988525390625e+01 9.742325782775878906e+00 -1.694479882717132568e-01 8.477549552917480469e+00 2.492430448532104492e+00 8.890648484230041504e-01
1.962000000000000000e+03 7.457629394531250000e+01 3.680867433547973633e+00 5.023338794708251953e-01 8.565045356750488281e+00 2.720213651657104492e+00 5.931561589241027832e-01
1.963000000000000000e+03 7.614095306396484375e+01 -2.855550765991210938e+00 1.750251501798629761e-01 6.759835243225097656e+00 2.080458164215087891e+00 -3.894889950752258301e-01
1.964000000000000000e+03 7.363601684570312500e+01 -3.625401020050048828e+00 2.971316277980804443e-01 8.167994499206542969e+00 2.539537668228149414e+00 -8.920498192310333252e-02
1.965000000000000000e+03 7.565235137939453125e+01 1.786463928222656250e+01 6.090210750699043274e-02 8.333127975463867188e+00 2.518208980560302734e+00 6.791331768035888672e-01
1.966000000000000000e+03 7.539270782470703125e+01 1.941016197204589844e+01 6.272692978382110596e-02 8.421425819396972656e+00 2.545245885848999023e+00 6.989558935165405273e-01
1.967000000000000000e+03 7.419064331054687500e+01 -1.119828891754150391e+01 -2.967930957674980164e-02 6.479063987731933594e+00 1.934815406799316406e+00 -5.305562615394592285e-01
1.968000000000000000e+03 7.442221069335937500e+01 -1.252792263031005859e+01 -9.075789153575897217e-02 6.420809268951416016e+00 1.899015426635742188e+00 -5.940501093864440918e-01
1.969000000000000000e+03 7.016155242919921875e+01 -1.894351577758789062e+01 -9.909818768501281738e-01 4.056760787963867188e+00 9.197336435317993164e-01 -1.245552182197570801e+00
1.970000000000000000e+03 7.389923095703125000e+01 -1.977507972717285156e+01 -1.065246701240539551e+00 7.180842876434326172e+00 1.834678888320922852e+00 -1.572128832340240479e-01
1.971000000000000000e+03 7.370029449462890625e+01 -6.106900572776794434e-01 6.679964661598205566e-01 8.799901962280273438e+00 2.840369462966918945e+00 1.614399254322052002e-01
1.972000000000000000e+03 7.354515838623046875e+01 1.210657691955566406e+01 -3.136297762393951416e-01 9.036293029785156250e+00 2.616798877716064453e+00 6.707729697227478027e-01
1.973000000000000000e+03 7.466345977783203125e+01 1.490417289733886719e+01 -5.996301770210266113e-02 8.457011222839355469e+00 2.519114494323730469e+00 6.329767107963562012e-01
1.974000000000000000e+03 7.470158386230468750e+01 1.356520080566406250e+01 -1.325961053371429443e-01 8.499059677124023438e+00 2.509939193725585938e+00 6.946692466735839844e-01
1.975000000000000000e+03 7.407165527343750000e+01 -9.740889549255371094e+00 2.695850469172000885e-02 6.657285690307617188e+00 2.005273342132568359e+00 -4.611923396587371826e-01
1.976000000000000000e+03 7.319713592529296875e+01 -1.503044986724853516e+01 -3.425719738006591797e-01 6.053129673004150391e+00 1.713167428970336914e+00 -6.696971058845520020e-01
1.977000000000000000e+03 7.512892150878906250e+01 -1.761146545410156250e+01 -5.960888862609863281e-01 7.040033340454101562e+00 1.933183312416076660e+00 -2.463937252759933472e-01
1.978000000000000000e+03 7.197441864013671875e+01 3.435960769653320312e+01 -6.949692964553833008e-01 5.975909709930419922e+00 1.584282159805297852e+00 -2.748323790729045868e-02
1.979000000000000000e+03 7.103568267822265625e+01 -1.983366584777832031e+01 -1.269338965415954590e+00 4.991075515747070312e+00 1.116521000862121582e+00 -1.364751577377319336e+00
1.980000000000000000e+03 7.430774688720703125e+01 -2.084507560729980469e+01 -8.838510513305664062e-01 7.644850730895996094e+00 2.028300046920776367e+00 2.739472985267639160e-01
1.981000000000000000e+03 3.660293960571289062e+01 1.672924804687500000e+01 1.139464020729064941e+00 5.204337596893310547e+00 1.903140544891357422e+00 -7.502540946006774902e-01
1.982000000000000000e+03 4.637496185302734375e+01 -1.078616046905517578e+01 -1.366053581237792969e+00 5.923720359802246094e+00 1.367300033569335938e+00 -1.163234949111938477e+00
1.983000000000000000e+03 7.224552154541015625e+01 1.598353481292724609e+01 1.502601951360702515e-01 8.790809631347656250e+00 2.682320833206176758e+00 5.898000597953796387e-01
1.984000000000000000e+03 6.393814563751220703e+00 3.005991744995117188e+01 3.662021458148956299e-02 -1.162199020385742188e+00 -3.376736342906951904e-01 -2.419304288923740387e-02
1.985000000000000000e+03 7.442247772216796875e+01 -3.495084762573242188e+01 -5.274978876113891602e-01 6.743755817413330078e+00 1.864877462387084961e+00 -1.876735985279083252e-01
1.986000000000000000e+03 4.833404064178466797e+00 2.746631813049316406e+01 4.231112450361251831e-02 -1.399996995925903320e+00 -4.073057770729064941e-01 6.259885150939226151e-03
1.987000000000000000e+03 5.179766178131103516e+00 -9.814688682556152344e+00 -4.503506934270262718e-04 -4.800092210643924773e-05 -1.495054893894121051e-04 -8.510368206771090627e-05
1.988000000000000000e+03 5.947880744934082031e+00 2.316743659973144531e+01 1.084171012043952942e-01 -1.245250701904296875e+00 -3.410500884056091309e-01 1.033440828323364258e-01
1.989000000000000000e+03 6.112656593322753906e+00 -1.607325553894042969e+01 -7.857836899347603321e-04 9.444390889257192612e-05 -2.074019284918904305e-04 -1.665302261244505644e-05
1.990000000000000000e+03 4.862688064575195312e+00 -1.399889564514160156e+01 6.393199873855337501e-05 9.030108049046248198e-05 4.626992449630051851e-05 -1.455507008358836174e-04
1.991000000000000000e+03 4.443727970123291016e+00 -1.570702648162841797e+01 -4.366002976894378662e-04 5.141324072610586882e-05 -1.155561185441911221e-04 -6.374227814376354218e-05
1.992000000000000000e+03 6.120259761810302734e+00 -1.706366729736328125e+01 8.920300751924514771e-04 6.839846173534169793e-05 2.881285618059337139e-04 1.723559107631444931e-04
1.993000000000000000e+03 4.147689342498779297e+00 1.481793308258056641e+01 8.701165020465850830e-02 -1.191286683082580566e+00 -3.312825262546539307e-01 3.559057712554931641e-01
1.994000000000000000e+03 5.453841686248779297e+00 1.744703292846679688e+01 1.307295411825180054e-01 -1.208677411079406738e+00 -3.233843445777893066e-01 3.069820404052734375e-01
1.995000000000000000e+03 5.348027706146240234e+00 1.610636138916015625e+01 1.330267935991287231e-01 -1.173905730247497559e+00 -3.122636675834655762e-01 3.595658242702484131e-01
1.996000000000000000e+03 4.471193790435791016e+00 2.039804840087890625e+01 8.151207864284515381e-02 -1.384206056594848633e+00 -3.908081948757171631e-01 1.714657098054885864e-01
1.997000000000000000e+03 6.084988117218017578e+00 2.459444808959960938e+01 1.006142795085906982e-01 -1.217182993888854980e+00 -3.349706232547760010e-01 5.955565720796585083e-02
1.998000000000000000e+03 5.259366989135742188e+00 1.344412899017333984e+01 1.223248019814491272e-01 -1.066093564033508301e+00 -2.831306159496307373e-01 4.697439670562744141e-01
1.999000000000000000e+03 7.265814781188964844e+00 -1.235261440277099609e+01 -4.173669149167835712e-04 2.612089883768931031e-05 -1.173738055513240397e-04 -1.042940675688441843e-05
2.000000000000000000e+03 5.722610950469970703e+00 2.027780914306640625e+01 1.281703859567642212e-01 -1.242462635040283203e+00 -3.342876434326171875e-01 1.984954178333282471e-01
2.001000000000000000e+03 6.257245540618896484e+00 -3.440948867797851562e+01 -1.383543480187654495e-03 -2.263495116494596004e-04 -4.829678800888359547e-04 -2.303779590874910355e-03
2.002000000000000000e+03 6.222742557525634766e+00 2.749182319641113281e+01 6.586843729019165039e-02 -1.188771963119506836e+00 -3.368710577487945557e-01 2.155716065317392349e-03
2.003000000000000000e+03 3.971511840820312500e+00 9.464800834655761719e+00 2.043230459094047546e-02 -8.030864000320434570e-01 -2.347962409257888794e-01 4.819978773593902588e-01
2.004000000000000000e+03 5.070363998413085938e+00 9.469245910644531250e+00 2.735611796379089355e-02 -8.144184350967407227e-01 -2.361187040805816650e-01 5.708246827125549316e-01
2.005000000000000000e+03 6.150203227996826172e+00 -1.230615711212158203e+01 3.763734712265431881e-04 1.810259273042902350e-04 1.672198268352076411e-04 -2.406492276350036263e-04
2.006000000000000000e+03 5.030260562896728516e+00 8.372217178344726562e+00 -1.341340597718954086e-02 -7.289785146713256836e-01 -2.227175682783126831e-01 5.829495787620544434e-01
2.007000000000000000e+03 4.312908935546875000e+01 -8.919322013854980469e+00 -8.197497129440307617e-01 4.747138977050781250e+00 1.178216695785522461e+00 -1.521859884262084961e+00
2.008000000000000000e+03 5.730047702789306641e+00 -6.667006015777587891e+00 4.556794883683323860e-04 -1.396339066559448838e-04 9.481367305852472782e-05 8.830865408526733518e-05
2.009000000000000000e+03 4.641393661499023438e+01 -9.771134376525878906e+00 -1.000932812690734863e+00 5.698832988739013672e+00 1.409370064735412598e+00 -1.192074537277221680e+00
2.010000000000000000e+03 5.396610260009765625e+00 -8.612450599670410156e+00 4.153928603045642376e-04 6.678312638541683555e-05 1.446528040105476975e-04 1.110119337681680918e-04
2.011000000000000000e+03 6.429037094116210938e+00 -7.242663860321044922e+00 -3.384709416422992945e-04 1.042228250298649073e-04 -7.027443643892183900e-05 4.246434764354489744e-05
2.012000000000000000e+03 7.265418243408203125e+01 9.129233360290527344e+00 -1.633398383855819702e-01 9.754109382629394531e+00 2.877230882644653320e+00 8.346174955368041992e-01
2.013000000000000000e+03 7.323069763183593750e+01 -5.870521545410156250e+00 1.661594361066818237e-01 7.695158004760742188e+00 2.358395338058471680e+00 -1.096966639161109924e-01
2.014000000000000000e+03 7.347052001953125000e+01 1.476063632965087891e+01 -2.253774553537368774e-02 8.701150894165039062e+00 2.603583812713623047e+00 6.115111112594604492e-01
2.015000000000000000e+03 4.740957641601562500e+01 -1.186748695373535156e+01 -1.851040005683898926e+00 6.369492053985595703e+00 1.355535745620727539e+00 -8.246496915817260742e-01
2.016000000000000000e+03 1.462219047546386719e+01 -7.839705467224121094e+00 -1.789093366824090481e-04 -6.269339792197570205e-05 -7.248081965371966362e-05 7.138030196074396372e-05
2.017000000000000000e+03 1.461672592163085938e+01 -1.131505966186523438e+01 -3.277366049587726593e-04 -1.367713412037119269e-04 -1.393523853039368987e-04 8.165484177879989147e-05
2.018000000000000000e+03 6.249393081665039062e+01 -1.796970176696777344e+01 -4.548072218894958496e-01 1.801156878471374512e+00 4.039049148559570312e-01 1.979740142822265625e+00
2.019000000000000000e+03 5.829365921020507812e+01 -1.826534843444824219e+01 -1.387504935264587402e+00 3.429307043552398682e-01 -3.133722543716430664e-01 2.443093299865722656e+00
2.020000000000000000e+03 5.566431427001953125e+01 -2.047168922424316406e+01 1.390048503875732422e+00 4.765560626983642578e-01 5.599813461303710938e-01 7.035181522369384766e-01
2.021000000000000000e+03 7.242731475830078125e+01 -7.065874576568603516e+00 1.355737298727035522e-01 7.416068077087402344e+00 2.265492439270019531e+00 1.036030575633049011e-01
2.022000000000000000e+03 6.303083038330078125e+01 -1.906292533874511719e+01 -4.695591926574707031e-01 1.654099225997924805e+00 3.553619980812072754e-01 1.955586194992065430e+00
2.023000000000000000e+03 7.303456878662109375e+01 -1.168767547607421875e+01 2.726830355823040009e-02 6.298497676849365234e+00 1.897729754447937012e+00 -4.146109223365783691e-01
2.024000000000000000e+03 3.931178283691406250e+01 4.946350097656250000e+00 1.112284302711486816e+00 6.156278610229492188e+00 2.180568933486938477e+00 -1.173315525054931641e+00
2.025000000000000000e+03 3.964753723144531250e+01 7.985356807708740234e+00 1.740901112556457520e+00 7.207742214202880859e+00 2.684592962265014648e+00 -1.221433281898498535e+00
2.026000000000000000e+03 6.568755340576171875e+01 -1.784555435180664062e+01 7.002097554504871368e-04 1.830492734909057617e+00 5.493578910827636719e-01 1.050424337387084961e+00
2.027000000000000000e+03 7.209674835205078125e+01 -5.063982009887695312e+00 2.702497541904449463e-01 8.284433364868164062e+00 2.566405057907104492e+00 3.942788839340209961e-01
2.028000000000000000e+03 7.250730895996093750e+01 2.144368171691894531e+00 8.646335005760192871e-01 1.072185230255126953e+01 3.475945711135864258e+00 7.616071105003356934e-01
2.029000000000000000e+03 7.214318084716796875e+01 3.625467681884765625e+01 -4.510868489742279053e-01 6.011512279510498047e+00 1.668127655982971191e+00 -5.996871367096900940e-02
2.030000000000000000e+03 7.350422668457031250e+01 1.342579269409179688e+01 -1.892833709716796875e-01 8.831181526184082031e+00 2.592569351196289062e+00 5.472822785377502441e-01
2.031000000000000000e+03 8.803015708923339844e+00 -1.302519416809082031e+01 -2.937200479209423065e-04 1.621521805645897985e-04 -3.947035656892694533e-05 -3.127110248897224665e-04
2.032000000000000000e+03 3.736622619628906250e+01 2.561608505249023438e+01 6.195348128676414490e-02 4.188667774200439453e+00 1.275186419486999512e+00 -3.078591227531433105e-01
2.033000000000000000e+03 7.226343536376953125e+01 3.861245727539062500e+01 -8.759552240371704102e-02 5.984155178070068359e+00 1.768967866897583008e+00 -4.811523854732513428e-02
2.034000000000000000e+03 7.285730743408203125e+01 -2.319018745422363281e+01 1.743384599685668945e-01 8.200632095336914062e+00 2.512491226196289062e+00 6.362916827201843262e-01
2.035000000000000000e+03 6.864962768554687500e+01 -3.883128356933593750e+01 3.139175176620483398e-01 2.548508882522583008e+00 8.587279319763183594e-01 5.896636843681335449e-01
2.036000000000000000e+03 5.707426071166992188e+01 -2.272704887390136719e+01 1.861106991767883301e+00 1.400361299514770508e+00 9.784405231475830078e-01 9.225957393646240234e-01
2.037000000000000000e+03 7.334098815917968750e+01 2.508657646179199219e+01 1.567814201116561890e-01 7.808823108673095703e+00 2.389681339263916016e+00 7.778681516647338867e-01
2.038000000000000000e+03 6.983009338378906250e+01 -1.331902122497558594e+01 3.339357078075408936e-01 4.886385440826416016e+00 1.566096305847167969e+00 5.782310664653778076e-02
2.039000000000000000e+03 5.437817382812500000e+01 -2.553739738464355469e+01 1.454705476760864258e+00 4.562465667724609375e+00 1.805151343345642090e+00 -7.280443310737609863e-01
2.040000000000000000e+03 4.975673294067382812e+01 -2.260703468322753906e+01 2.808716058731079102e+00 7.458775997161865234e+00 3.080247640609741211e+00 -3.184498548507690430e+00
2.041000000000000000e+03 5.214860534667968750e+01 -2.281212425231933594e+01 2.440509796142578125e+00 4.403496265411376953e+00 2.053201913833618164e+00 -2.138066530227661133e+00
2.042000000000000000e+03 6.197855949401855469e+00 -3.838018035888671875e+01 1.327325473539531231e-03 -4.572875797748565674e-03 -9.736651554703712463e-04 -3.789938928093761206e-04
2.043000000000000000e+03 6.633745670318603516e+00 -1.420340442657470703e+01 -9.191099525196477771e-05 3.063286421820521355e-04 6.432530062738806009e-05 -2.308260591235011816e-04
2.044000000000000000e+03 5.494193649291992188e+01 -2.371766471862792969e+01 1.951223015785217285e+00 2.881656646728515625e+00 1.449863910675048828e+00 -3.335391283035278320e-01
2.045000000000000000e+03 3.787382507324218750e+01 3.063596534729003906e+01 -4.771908521652221680e-01 3.676593542098999023e+00 9.598208069801330566e-01 -2.077222913503646851e-01
2.046000000000000000e+03 3.976300811767578125e+01 3.003049087524414062e+01 -4.476549029350280762e-01 3.771602392196655273e+00 9.971842169761657715e-01 -1.458816602826118469e-02
2.047000000000000000e+03 4.574931335449218750e+01 3.582661437988281250e+01 -8.325288295745849609e-01 2.574965476989746094e+00 5.227309465408325195e-01 2.701513767242431641e-01
2.048000000000000000e+03 7.300538635253906250e+01 -2.033149719238281250e+00 5.515088438987731934e-01 9.027764320373535156e+00 2.873782157897949219e+00 2.120770066976547241e-01
2.049000000000000000e+03 4.449577713012695312e+01 -3.580910873413085938e+01 -3.432191014289855957e-01 3.566861629486083984e+00 9.670927524566650391e-01 5.997967123985290527e-01
2.050000000000000000e+03 4.571242141723632812e+01 -3.144429969787597656e+01 1.427478194236755371e-01 4.310031414031982422e+00 1.335833787918090820e+00 4.523932635784149170e-01
2.051000000000000000e+03 3.625387573242187500e+01 1.019208717346191406e+01 1.818532466888427734e+00 5.027169704437255859e+00 2.053710699081420898e+00 -8.806619644165039062e-01
2.052000000000000000e+03 4.761025619506835938e+01 4.123588562011718750e+01 -9.263585805892944336e-01 2.030897378921508789e+00 3.313616216182708740e-01 6.762000173330307007e-02
2.053000000000000000e+03 4.804163742065429688e+01 3.652927780151367188e+01 -7.443517446517944336e-01 1.958540439605712891e+00 3.642566204071044922e-01 3.172896206378936768e-01
2.054000000000000000e+03 7.190158081054687500e+01 3.288647842407226562e+01 -8.162919282913208008e-01 6.069079399108886719e+00 1.575836300849914551e+00 1.798205971717834473e-01
2.055000000000000000e+03 7.384250640869140625e+01 3.559309387207031250e+01 -3.961048722267150879e-01 7.444556713104248047e+00 2.114535570144653320e+00 1.116905733942985535e-01
2.056000000000000000e+03 7.149408721923828125e+01 3.181054878234863281e+01 -8.602879047393798828e-01 5.787201404571533203e+00 1.478074073791503906e+00 2.436688691377639771e-01
2.057000000000000000e+03 4.409247970581054688e+01 -1.897134017944335938e+01 2.476529359817504883e+00 2.310851812362670898e+00 1.436214327812194824e+00 -3.017662763595581055e+00
2.058000000000000000e+03 4.375296020507812500e+01 -1.823669433593750000e+01 1.453750729560852051e+00 3.108163118362426758e+00 1.368574142456054688e+00 -3.076214313507080078e+00
2.059000000000000000e+03 4.581650924682617188e+01 -2.428043937683105469e+01 -1.953355669975280762e-01 7.304491043090820312e+00 2.132746696472167969e+00 1.691678762435913086e+00
2.060000000000000000e+03 4.477254486083984375e+01 -2.336273765563964844e+01 8.660295009613037109e-01 4.356313705444335938e+00 1.566703081130981445e+00 2.247970342636108398e+00
2.061000000000000000e+03 4.608000946044921875e+01 -1.751092147827148438e+01 -6.950795054435729980e-01 1.012804889678955078e+01 2.829890727996826172e+00 -3.856098651885986328e+00
2.062000000000000000e+03 1.111936283111572266e+01 -1.086662292480468750e+01 -1.922014416777528822e-05 8.413714567723218352e-06 -3.241928652641945519e-06 -1.098686843761242926e-04
2.063000000000000000e+03 1.289428329467773438e+01 -1.031556987762451172e+01 -1.301575393881648779e-04 -3.424384631216526031e-04 -1.417788007529452443e-04 -1.854451511462684721e-05
2.064000000000000000e+03 4.443283843994140625e+01 -1.827237129211425781e+01 1.610313773155212402e+00 4.621709823608398438e+00 1.869607090950012207e+00 -4.119215011596679688e+00
2.065000000000000000e+03 2.275689506530761719e+01 7.798792123794555664e-01 -3.968688249588012695e-01 -6.379527449607849121e-01 -3.104464709758758545e-01 5.853785872459411621e-01
2.066000000000000000e+03 1.259551620483398438e+01 -7.186056137084960938e+00 -1.051870640367269516e-04 -1.213606083183549345e-04 -6.796430534450337291e-05 -8.925815927796065807e-05
2.067000000000000000e+03 4.733509063720703125e+01 -2.413072967529296875e+01 -3.945945203304290771e-01 9.672929763793945312e+00 2.783500432968139648e+00 -4.876850545406341553e-01
2.068000000000000000e+03 4.858315277099609375e+01 -1.729907417297363281e+01 -1.151397824287414551e+00 9.423823356628417969e+00 2.481727600097656250e+00 -3.182455897331237793e-01
2.069000000000000000e+03 4.681404113769531250e+01 -1.708942794799804688e+01 -1.461826682090759277e+00 1.021983432769775391e+01 2.627402305603027344e+00 -2.301180601119995117e+00
2.070000000000000000e+03 4.115221023559570312e+01 -1.725901603698730469e+01 -5.143822431564331055e-01 1.466034173965454102e+00 2.854955792427062988e-01 -1.390641331672668457e+00
2.071000000000000000e+03 4.213158035278320312e+01 -1.883959007263183594e+01 3.374111950397491455e-01 1.016982197761535645e+00 4.063180088996887207e-01 -8.765953183174133301e-01
2.072000000000000000e+03 8.906188011169433594e+00 -1.069409751892089844e+01 9.779770334716886282e-05 9.439166751690208912e-05 5.765680907643400133e-05 2.246890362584963441e-04
2.073000000000000000e+03 5.187476158142089844e+00 7.422615528106689453e+00 -7.125847041606903076e-02 -6.494756937026977539e-01 -2.162202447652816772e-01 5.960156321525573730e-01
2.074000000000000000e+03 6.605647563934326172e+00 5.675347328186035156e+00 -2.047059088945388794e-01 -5.644585490226745605e-01 -2.307493388652801514e-01 6.987373828887939453e-01
2.075000000000000000e+03 9.514945983886718750e+00 4.582383155822753906e+00 -3.842243254184722900e-01 -7.622070908546447754e-01 -3.439294099807739258e-01 9.317485690116882324e-01
2.076000000000000000e+03 3.012603569030761719e+01 -1.214652729034423828e+01 -1.128291249275207520e+00 1.719260811805725098e-01 -2.869095504283905029e-01 1.009110212326049805e+00
2.077000000000000000e+03 1.604528617858886719e+01 -8.073486328125000000e+00 1.820244651753455400e-04 -4.337269274401478469e-05 4.159552918281406164e-05 -7.840858597774058580e-05
2.078000000000000000e+03 2.970298957824707031e+01 -1.166400527954101562e+01 -1.141508817672729492e+00 1.385611593723297119e-01 -3.008842766284942627e-01 1.050554513931274414e+00
2.079000000000000000e+03 2.840149688720703125e+01 -1.103755760192871094e+01 -1.185547351837158203e+00 -8.771004527807235718e-02 -3.819772005081176758e-01 1.163244366645812988e+00
2.080000000000000000e+03 7.460822582244873047e+00 4.413544654846191406e+00 -3.757148385047912598e-01 -5.030795335769653320e-01 -2.636383175849914551e-01 7.541362643241882324e-01
2.081000000000000000e+03 6.014868259429931641e+00 6.188061237335205078e+00 -1.463358849287033081e-01 -5.866084098815917969e-01 -2.198832780122756958e-01 6.514194011688232422e-01
2.082000000000000000e+03 5.030180358886718750e+01 -2.096588134765625000e+01 4.265598297119140625e+00 5.923453330993652344e+00 3.056715488433837891e+00 -2.133845806121826172e+00
2.083000000000000000e+03 2.932748985290527344e+01 -1.111778259277343750e+01 -1.147536993026733398e+00 1.172954738140106201e-01 -3.090724647045135498e-01 1.074518084526062012e+00
2.084000000000000000e+03 7.043537139892578125e+00 4.995965480804443359e+00 -3.026361465454101562e-01 -5.262932181358337402e-01 -2.486788183450698853e-01 7.265945672988891602e-01
2.085000000000000000e+03 5.019015121459960938e+01 -1.783484458923339844e+01 -4.364129621535539627e-03 6.661816596984863281e+00 1.997235655784606934e+00 3.451464474201202393e-01
2.086000000000000000e+03 4.532887649536132812e+01 -2.421341705322265625e+01 -4.029884561896324158e-02 6.236729621887207031e+00 1.858929276466369629e+00 1.902602910995483398e+00
2.087000000000000000e+03 4.686561203002929688e+01 -2.384332275390625000e+01 -4.045987427234649658e-01 9.884151458740234375e+00 2.843865871429443359e+00 1.749597489833831787e-01
2.088000000000000000e+03 4.475891113281250000e+01 -2.697860527038574219e+01 4.085580632090568542e-02 4.743986129760742188e+00 1.435452699661254883e+00 1.252107620239257812e+00
2.089000000000000000e+03 4.050699996948242188e+01 -1.692770957946777344e+01 -7.695027589797973633e-01 1.214077830314636230e+00 1.333725303411483765e-01 -1.245905160903930664e+00
2.090000000000000000e+03 4.027669525146484375e+01 -1.761363601684570312e+01 -1.056035995483398438e+00 7.479367256164550781e-01 -9.242979437112808228e-02 -7.458653450012207031e-01
2.091000000000000000e+03 2.748263359069824219e+01 -7.934266090393066406e+00 -1.276788234710693359e+00 -5.635385215282440186e-02 -3.999426364898681641e-01 1.038884162902832031e+00
2.092000000000000000e+03 4.522615814208984375e+01 -2.609670448303222656e+01 -1.267377883195877075e-01 5.440637588500976562e+00 1.594169974327087402e+00 1.336727619171142578e+00
2.093000000000000000e+03 3.080247116088867188e+01 -1.364959144592285156e+01 -1.218096494674682617e+00 9.871898591518402100e-02 -3.358132541179656982e-01 9.300295114517211914e-01
2.094000000000000000e+03 3.357954025268554688e+01 -1.275844001770019531e+01 -1.056120872497558594e+00 6.011471152305603027e-01 -1.364921331405639648e-01 5.120965838432312012e-01
2.095000000000000000e+03 8.262045860290527344e+00 -5.864573478698730469e+00 3.776345984078943729e-04 -2.877297265513334423e-05 1.046584875439293683e-04 4.654151052818633616e-05
2.096000000000000000e+03 7.823563575744628906e+00 -6.644789218902587891e+00 -3.090570971835404634e-04 -6.091479735914617777e-05 -1.109915683628059924e-04 -1.824563805712386966e-04
2.097000000000000000e+03 1.081845092773437500e+01 -6.424972057342529297e+00 2.512955106794834137e-04 4.583090048981830478e-05 8.913791680242866278e-05 -3.169046976836398244e-05
2.098000000000000000e+03 1.016203880310058594e+01 -6.029884338378906250e+00 -2.347645349800586700e-04 -4.271414218237623572e-05 -8.324360533151775599e-05 1.312875701842131093e-05
2.099000000000000000e+03 6.780575752258300781e+00 -5.209167480468750000e+00 3.194729215465486050e-04 -4.639738835976459086e-05 8.192266250262036920e-05 -2.689965867830323987e-06
2.100000000000000000e+03 7.035960674285888672e+00 -6.395511150360107422e+00 3.798049874603748322e-04 -2.644136202434310690e-06 1.131482567870989442e-04 5.522070932784117758e-05
2.101000000000000000e+03 1.692731666564941406e+01 1.961887598037719727e+00 -7.027986645698547363e-01 -1.380097270011901855e+00 -6.248688101768493652e-01 1.047096371650695801e+00
2.102000000000000000e+03 1.705673789978027344e+01 3.703856706619262695e+00 -2.099162787199020386e-01 -1.236117124557495117e+00 -4.338100254535675049e-01 8.670142889022827148e-01
2.103000000000000000e+03 4.809678268432617188e+01 -2.438054847717285156e+01 1.870987378060817719e-02 9.162903785705566406e+00 2.754484176635742188e+00 -1.406912446022033691e+00
2.104000000000000000e+03 5.287231063842773438e+01 -2.502291870117187500e+01 1.579097390174865723e+00 5.044627666473388672e+00 1.987117528915405273e+00 -1.680741310119628906e+00
2.105000000000000000e+03 1.734895896911621094e+01 2.607116460800170898e+00 -4.670169353485107422e-01 -1.313531637191772461e+00 -5.341646075248718262e-01 9.453630447387695312e-01
2.106000000000000000e+03 2.662555694580078125e+01 -6.565272331237792969e+00 -1.287672877311706543e+00 -2.010406702756881714e-01 -4.466140568256378174e-01 9.883329868316650391e-01
2.107000000000000000e+03 2.515074539184570312e+01 -4.486497879028320312e+00 -1.224204659461975098e+00 -4.867472648620605469e-01 -5.132855772972106934e-01 9.161140322685241699e-01
2.108000000000000000e+03 2.162044143676757812e+01 -5.283808112144470215e-01 -8.429268598556518555e-01 -1.065132260322570801e+00 -5.724177360534667969e-01 8.505567908287048340e-01
2.109000000000000000e+03 2.288162612915039062e+01 -1.780454635620117188e+00 -9.915720820426940918e-01 -8.913736343383789062e-01 -5.648837089538574219e-01 8.571833372116088867e-01
2.110000000000000000e+03 2.110528182983398438e+01 -1.128439784049987793e+00 -1.072495222091674805e+00 -1.266374707221984863e+00 -7.016609907150268555e-01 9.983663558959960938e-01
2.111000000000000000e+03 8.341852188110351562e+00 5.786594390869140625e+00 -1.907606869935989380e-01 -7.229642868041992188e-01 -2.741174995899200439e-01 8.369751572608947754e-01
2.112000000000000000e+03 2.823980522155761719e+01 -9.262464523315429688e+00 -1.236319422721862793e+00 3.990530595183372498e-02 -3.589242398738861084e-01 1.075147628784179688e+00
2.113000000000000000e+03 2.767688941955566406e+01 -9.752896308898925781e+00 -1.266213297843933105e+00 -1.710236817598342896e-01 -4.311711192131042480e-01 1.163386583328247070e+00
2.114000000000000000e+03 1.483382892608642578e+01 -8.761167526245117188e+00 -2.330911956960335374e-04 -7.473487494280561805e-05 -9.234782191924750805e-05 5.979072739137336612e-05
2.115000000000000000e+03 2.881196784973144531e+01 -8.763036727905273438e+00 -1.180160999298095703e+00 2.584301829338073730e-01 -2.765192389488220215e-01 9.747123718261718750e-01
2.116000000000000000e+03 2.615398597717285156e+01 -5.869726181030273438e+00 -1.276258349418640137e+00 -2.879777550697326660e-01 -4.692708551883697510e-01 9.637722969055175781e-01
2.117000000000000000e+03 1.301413822174072266e+01 -7.584187030792236328e+00 1.125935959862545133e-04 1.510864240117371082e-04 7.910400745458900928e-05 -3.397045293240807950e-05
2.118000000000000000e+03 1.501881504058837891e+01 -1.046538448333740234e+01 2.806884294841438532e-04 8.357172919204458594e-05 1.092780512408353388e-04 -2.083771869365591556e-05
2.119000000000000000e+03 1.807955741882324219e+01 2.152431249618530273e+00 -5.181089639663696289e-01 -1.312452673912048340e+00 -5.491684675216674805e-01 9.258999228477478027e-01
2.120000000000000000e+03 2.347967529296875000e+01 -2.444016456604003906e+00 -1.065737724304199219e+00 -7.931813597679138184e-01 -5.576757192611694336e-01 8.635244965553283691e-01
2.121000000000000000e+03 1.881137466430664062e+01 1.667562603950500488e+00 -5.741475820541381836e-01 -1.291714549064636230e+00 -5.597586631774902344e-01 9.110702276229858398e-01
2.122000000000000000e+03 2.461479949951171875e+01 -3.800792932510375977e+00 -1.183603525161743164e+00 -5.933382511138916016e-01 -5.330825448036193848e-01 8.943372368812561035e-01
2.123000000000000000e+03 2.226602935791015625e+01 -1.139384865760803223e+00 -9.154941439628601074e-01 -9.866636991500854492e-01 -5.706473588943481445e-01 8.470319509506225586e-01
2.124000000000000000e+03 1.459553050994873047e+01 4.250674724578857422e+00 -2.754461467266082764e-01 -1.234320878982543945e+00 -4.529300928115844727e-01 9.799996614456176758e-01
2.125000000000000000e+03 3.062171363830566406e+01 -1.253561687469482422e+01 -1.146116733551025391e+00 1.835661530494689941e-01 -2.887651622295379639e-01 9.599390625953674316e-01
2.126000000000000000e+03 1.592029762268066406e+01 3.461215257644653320e+00 -3.660172224044799805e-01 -1.282362461090087891e+00 -4.945139288902282715e-01 9.678394794464111328e-01
2.127000000000000000e+03 1.523453044891357422e+01 3.871085166931152344e+00 -3.197847008705139160e-01 -1.256722211837768555e+00 -4.729520678520202637e-01 9.781079292297363281e-01
2.128000000000000000e+03 2.651330947875976562e+01 -7.742433071136474609e+00 -1.361160516738891602e+00 -3.742752075195312500e-01 -5.206307172775268555e-01 1.122313857078552246e+00
2.129000000000000000e+03 4.558935165405273438e+01 -2.749946975708007812e+01 -3.070464171469211578e-02 5.408823490142822266e+00 1.613435626029968262e+00 9.171411395072937012e-01
2.130000000000000000e+03 3.800347137451171875e+01 -1.457791423797607422e+01 -9.134802222251892090e-01 9.396957755088806152e-01 7.864654064178466797e-03 -6.456202864646911621e-01
2.131000000000000000e+03 3.729756546020507812e+01 3.209624528884887695e+00 7.742139101028442383e-01 4.755724430084228516e+00 1.658981561660766602e+00 -7.801532745361328125e-01
2.132000000000000000e+03 8.505871772766113281e+00 -6.851906299591064453e+00 2.028256567427888513e-04 1.103049289667978883e-04 9.393917571287602186e-05 -4.959364014212042093e-05
2.133000000000000000e+03 4.138384628295898438e+01 -1.666797447204589844e+01 -4.685019254684448242e-01 1.931376218795776367e+00 4.388622939586639404e-01 -1.770008206367492676e+00
2.134000000000000000e+03 3.981119537353515625e+01 -1.653029251098632812e+01 -9.063925147056579590e-01 1.021106004714965820e+00 3.441407158970832825e-02 -1.045066595077514648e+00
2.135000000000000000e+03 1.079321193695068359e+01 4.682820320129394531e+00 -3.440037369728088379e-01 -9.266306161880493164e-01 -3.811902999877929688e-01 9.905884265899658203e-01
2.136000000000000000e+03 1.246716690063476562e+01 3.983525991439819336e+00 -4.670971632003784180e-01 -1.088342666625976562e+00 -4.666319489479064941e-01 1.039410114288330078e+00
2.137000000000000000e+03 5.084452629089355469e+00 -1.103018283843994141e+01 4.252912476658821106e-04 9.856131509877741337e-05 1.571557659190148115e-04 8.715171134099364281e-05
2.138000000000000000e+03 4.866017532348632812e+01 -1.260834407806396484e+01 -2.097573995590209961e+00 6.346184730529785156e+00 1.274583220481872559e+00 -2.599353790283203125e-01
2.139000000000000000e+03 4.451308441162109375e+01 -5.524444580078125000e+00 -1.431531310081481934e-01 5.213100433349609375e+00 1.520984172821044922e+00 -1.708344578742980957e+00
2.140000000000000000e+03 7.336693572998046875e+01 -1.865683174133300781e+01 -1.017230868339538574e+00 6.751790523529052734e+00 1.720367908477783203e+00 -4.767181873321533203e-01
2.141000000000000000e+03 6.938977050781250000e+01 -1.611081886291503906e+01 7.423638552427291870e-02 3.815863847732543945e+00 1.167030096054077148e+00 -3.401334881782531738e-01
2.142000000000000000e+03 4.364400482177734375e+01 -3.294486999511718750e+00 8.633602410554885864e-02 5.300942420959472656e+00 1.616183519363403320e+00 -1.852016925811767578e+00
2.143000000000000000e+03 4.341698074340820312e+01 -5.763413906097412109e+00 -2.927834391593933105e-01 4.978888511657714844e+00 1.405831575393676758e+00 -1.603595614433288574e+00
2.144000000000000000e+03 5.137602996826171875e+01 -2.283428764343261719e+01 2.530079603195190430e+00 5.353572368621826172e+00 2.365095615386962891e+00 -2.510675907135009766e+00
2.145000000000000000e+03 4.103467178344726562e+01 -3.113217651844024658e-01 2.644429206848144531e-01 5.363888740539550781e+00 1.688499569892883301e+00 -1.569999575614929199e+00
2.146000000000000000e+03 4.256456375122070312e+01 -3.617606639862060547e+00 -6.151162460446357727e-02 5.060197830200195312e+00 1.499605894088745117e+00 -1.653437256813049316e+00
2.147000000000000000e+03 1.370064258575439453e+01 -1.083467483520507812e+01 2.009865129366517067e-04 2.893212949857115746e-04 1.470923452870920300e-04 -8.527710451744496822e-05
2.148000000000000000e+03 1.414420318603515625e+01 -1.008470821380615234e+01 -2.369977446505799890e-04 -1.924910029629245400e-04 -1.288466155529022217e-04 6.555204163305461407e-05
2.149000000000000000e+03 4.374287796020507812e+01 -3.104916572570800781e+01 2.869016528129577637e-01 3.620498418807983398e+00 1.172219991683959961e+00 6.110200285911560059e-01
2.150000000000000000e+03 3.446520614624023438e+01 -1.277570152282714844e+01 -9.803979992866516113e-01 7.098255753517150879e-01 -8.117174357175827026e-02 3.300657868385314941e-01
2.151000000000000000e+03 4.149107456207275391e+00 7.003317832946777344e+00 -6.487441807985305786e-02 -5.711978077888488770e-01 -1.908216625452041626e-01 4.850355386734008789e-01
2.152000000000000000e+03 1.533265209197998047e+01 -9.700767517089843750e+00 -2.372268354520201683e-04 -7.344611367443576455e-05 -9.320188109995797276e-05 2.709485897867125459e-06
2.153000000000000000e+03 1.232551860809326172e+01 5.100477695465087891e+00 -2.197474688291549683e-01 -1.076210618019104004e+00 -3.887874186038970947e-01 9.892641305923461914e-01
2.154000000000000000e+03 1.155436229705810547e+01 5.170750617980957031e+00 -2.372417151927947998e-01 -1.013895392417907715e+00 -3.753411471843719482e-01 9.923508763313293457e-01
2.155000000000000000e+03 4.195698547363281250e+01 -5.000588893890380859e+00 -2.695970535278320312e-01 4.718190193176269531e+00 1.334577918052673340e+00 -1.482255578041076660e+00
2.156000000000000000e+03 5.128874969482421875e+01 -1.949088859558105469e+01 2.182167530059814453e+00 4.359179496765136719e+00 1.962404131889343262e+00 -6.839235424995422363e-01
2.157000000000000000e+03 5.044779586791992188e+01 -1.917346000671386719e+01 2.338537216186523438e+00 5.579194545745849609e+00 2.375319480895996094e+00 -4.522791802883148193e-01
2.158000000000000000e+03 5.270713043212890625e+01 -1.952624320983886719e+01 1.470030188560485840e+00 2.205965995788574219e+00 1.102798819541931152e+00 -6.693103313446044922e-01
2.159000000000000000e+03 4.079711914062500000e+01 2.422751188278198242e+00 6.217194795608520508e-01 6.064847469329833984e+00 2.005970001220703125e+00 -1.621247291564941406e+00
2.160000000000000000e+03 4.949774932861328125e+01 -1.862594604492187500e+01 1.798565626144409180e+00 7.769687175750732422e+00 2.870475769042968750e+00 1.170497834682464600e-01
2.161000000000000000e+03 4.207999420166015625e+01 -2.524836778640747070e+00 5.645783618092536926e-02 5.138470172882080078e+00 1.558478355407714844e+00 -1.665049552917480469e+00
2.162000000000000000e+03 3.158892631530761719e+01 -8.793838500976562500e+00 -9.430451989173889160e-01 9.600075483322143555e-01 5.088706500828266144e-03 5.970368385314941406e-01
2.163000000000000000e+03 3.440771484375000000e+01 -1.374230957031250000e+01 -1.137610912322998047e+00 4.923778772354125977e-01 -1.935699135065078735e-01 4.143428802490234375e-01
2.164000000000000000e+03 5.673562622070312500e+01 -2.195626449584960938e+01 1.670843958854675293e+00 1.223083257675170898e+00 8.681781291961669922e-01 9.718167781829833984e-01
2.165000000000000000e+03 5.663751220703125000e+01 -2.122470474243164062e+01 1.433266401290893555e+00 8.542270064353942871e-01 6.862480044364929199e-01 1.014180541038513184e+00
2.166000000000000000e+03 5.032566070556640625e+01 -1.545849418640136719e+01 -2.756966590881347656e+00 5.931702136993408203e+00 9.524206519126892090e-01 3.431349992752075195e-01
2.167000000000000000e+03 5.016902542114257812e+01 -1.438731479644775391e+01 -2.882712364196777344e+00 5.825500488281250000e+00 8.828364610671997070e-01 5.482159852981567383e-01
2.168000000000000000e+03 5.142679214477539062e+01 -2.869551277160644531e+01 9.831495285034179688e-01 6.086127758026123047e+00 2.120783090591430664e+00 -1.308494448661804199e+00
2.169000000000000000e+03 5.330233383178710938e+01 -2.617922782897949219e+01 1.181273341178894043e+00 5.334217548370361328e+00 1.954647302627563477e+00 -1.364893078804016113e+00
2.170000000000000000e+03 5.119935226440429688e+01 -2.071322059631347656e+01 3.304015398025512695e+00 4.571977615356445312e+00 2.362797975540161133e+00 -1.614995360374450684e+00
2.171000000000000000e+03 5.186961364746093750e+01 -1.857921218872070312e+01 6.349860429763793945e-01 3.508481502532958984e+00 1.243040323257446289e+00 -4.214451313018798828e-01
2.172000000000000000e+03 7.697375774383544922e+00 -3.525821304321289062e+01 1.466197543777525425e-03 -3.459098748862743378e-03 -5.978703266009688377e-04 -5.725572118535637856e-04
2.173000000000000000e+03 7.300316810607910156e+00 -3.279327392578125000e+01 -7.811087562004104257e-05 -1.229873043484985828e-03 -3.923951881006360054e-04 7.118351059034466743e-04
2.174000000000000000e+03 4.509659957885742188e+01 -7.708410263061523438e+00 -5.101383924484252930e-01 5.272459030151367188e+00 1.428696155548095703e+00 -1.517711997032165527e+00
2.175000000000000000e+03 4.530754089355468750e+01 -1.070725536346435547e+01 -1.331410288810729980e+00 5.682273864746093750e+00 1.305259108543395996e+00 -1.410689592361450195e+00
2.176000000000000000e+03 4.662762069702148438e+01 -3.061156272888183594e+01 1.734570264816284180e-01 4.842301368713378906e+00 1.504727482795715332e+00 3.422316312789916992e-01
2.177000000000000000e+03 5.343217849731445312e+01 -3.291876983642578125e+01 1.105970978736877441e+00 6.233425140380859375e+00 2.201818943023681641e+00 -2.246292829513549805e-01
2.178000000000000000e+03 6.172367095947265625e+00 -3.165441322326660156e+01 -2.582273678854107857e-03 -8.020421373657882214e-04 -1.015294808894395828e-03 -6.514231208711862564e-04
2.179000000000000000e+03 6.821195220947265625e+01 -1.455772781372070312e+01 5.371030569076538086e-01 3.760150909423828125e+00 1.289176106452941895e+00 3.286959826946258545e-01
2.180000000000000000e+03 9.295721054077148438e+00 2.908438682556152344e+01 7.803253084421157837e-02 -7.474856972694396973e-01 -2.008359432220458984e-01 -5.729941651225090027e-02
2.181000000000000000e+03 8.139862060546875000e+00 3.138008308410644531e+01 3.618995100259780884e-02 -8.744314312934875488e-01 -2.514724433422088623e-01 -5.422511324286460876e-02
2.182000000000000000e+03 7.436808013916015625e+01 -1.823594665527343750e+01 -8.306888937950134277e-01 6.930763244628906250e+00 1.830022335052490234e+00 -2.977795898914337158e-01
2.183000000000000000e+03 7.460554504394531250e+01 1.626415824890136719e+01 3.793294355273246765e-02 8.429023742675781250e+00 2.540086984634399414e+00 6.838951110839843750e-01
2.184000000000000000e+03 7.450270843505859375e+01 1.763798713684082031e+01 4.693995416164398193e-02 8.456114768981933594e+00 2.550916433334350586e+00 6.808861494064331055e-01
2.185000000000000000e+03 7.477033233642578125e+01 1.096057891845703125e+01 -1.936061233282089233e-01 8.549342155456542969e+00 2.506720781326293945e+00 8.469082713127136230e-01
2.186000000000000000e+03 7.485678100585937500e+01 -5.304929256439208984e+00 1.375312656164169312e-01 7.194499492645263672e+00 2.199609279632568359e+00 -4.361220896244049072e-01
2.187000000000000000e+03 7.349547576904296875e+01 3.572839021682739258e+00 7.021405696868896484e-01 9.665073394775390625e+00 3.110164165496826172e+00 6.790863275527954102e-01
2.188000000000000000e+03 7.361826324462890625e+01 1.079273128509521484e+01 -2.989933788776397705e-01 9.120078086853027344e+00 2.646325588226318359e+00 7.971870899200439453e-01
2.189000000000000000e+03 7.532667541503906250e+01 -2.358657836914062500e+00 2.720933258533477783e-01 7.291838169097900391e+00 2.269179582595825195e+00 -3.004189729690551758e-01
2.190000000000000000e+03 7.465460205078125000e+01 -1.372727394104003906e+00 4.732232093811035156e-01 7.919966220855712891e+00 2.517956733703613281e+00 -7.532813400030136108e-02
2.191000000000000000e+03 7.456246948242187500e+01 -3.171251535415649414e+00 2.824468016624450684e-01 7.598177433013916016e+00 2.364187240600585938e+00 -3.246345221996307373e-01
2.192000000000000000e+03 7.430538177490234375e+01 -1.628745841979980469e+01 -5.796383023262023926e-01 6.598969459533691406e+00 1.805799365043640137e+00 -5.663381218910217285e-01
2.193000000000000000e+03 7.310638427734375000e+01 -1.748577880859375000e+01 -8.546971678733825684e-01 6.362866878509521484e+00 1.652450919151306152e+00 -6.972481012344360352e-01
2.194000000000000000e+03 7.416054534912109375e+01 -8.130344390869140625e+00 4.713720083236694336e-02 6.932075977325439453e+00 2.093764066696166992e+00 -4.173592627048492432e-01
2.195000000000000000e+03 7.179869079589843750e+01 -8.099005699157714844e+00 2.323146462440490723e-01 7.060224056243896484e+00 2.187761545181274414e+00 2.439076900482177734e-01
2.196000000000000000e+03 7.080290222167968750e+01 -1.486517524719238281e+01 -9.481235407292842865e-03 4.952291965484619141e+00 1.482843279838562012e+00 -4.333168566226959229e-01
2.197000000000000000e+03 7.418627166748046875e+01 -1.735211372375488281e+01 -6.792730093002319336e-01 6.689134597778320312e+00 1.802958488464355469e+00 -4.685910344123840332e-01
2.198000000000000000e+03 8.099935531616210938e+00 1.982772254943847656e+01 2.241447269916534424e-01 -1.016601562500000000e+00 -2.377370446920394897e-01 2.368987798690795898e-01
2.199000000000000000e+03 7.240888595581054688e+00 2.310055160522460938e+01 1.569190621376037598e-01 -1.084849357604980469e+00 -2.783791124820709229e-01 1.050290018320083618e-01
2.200000000000000000e+03 6.906988525390625000e+01 -1.868886566162109375e+01 -4.537895917892456055e-01 2.483833312988281250e+00 6.090131402015686035e-01 -8.051782250404357910e-01
2.201000000000000000e+03 6.475590229034423828e+00 3.326787567138671875e+01 1.114324852824211121e-02 -1.126278758049011230e+00 -3.345406651496887207e-01 -4.708853736519813538e-02
2.202000000000000000e+03 6.312723159790039062e+00 2.610229110717773438e+01 7.305254787206649780e-02 -1.187434554100036621e+00 -3.343146145343780518e-01 2.458508126437664032e-02
2.203000000000000000e+03 4.266124248504638672e+00 -2.036283302307128906e+01 7.431629346683621407e-04 1.121540481108240783e-04 2.565950853750109673e-04 3.163293295074254274e-04
2.204000000000000000e+03 6.487576007843017578e+00 1.598566436767578125e+01 1.791966855525970459e-01 -1.100017666816711426e+00 -2.762462794780731201e-01 3.965264260768890381e-01
2.205000000000000000e+03 5.266127586364746094e+00 1.478284740447998047e+01 1.283556073904037476e-01 -1.128353714942932129e+00 -2.999994456768035889e-01 4.112117290496826172e-01
2.206000000000000000e+03 6.345342159271240234e+00 1.474756145477294922e+01 1.807407438755035400e-01 -1.074020862579345703e+00 -2.679840326309204102e-01 4.532438516616821289e-01
2.207000000000000000e+03 6.599438667297363281e+00 -8.971931457519531250e+00 -4.285741597414016724e-04 -7.844657375244423747e-05 -1.521062222309410572e-04 -5.311409768182784319e-05
2.208000000000000000e+03 6.351801395416259766e+00 1.352619934082031250e+01 1.642187237739562988e-01 -1.033399224281311035e+00 -2.607541382312774658e-01 5.110828280448913574e-01
2.209000000000000000e+03 5.333919048309326172e+00 1.206789207458496094e+01 9.877258539199829102e-02 -9.867202639579772949e-01 -2.663843035697937012e-01 5.243543386459350586e-01
2.210000000000000000e+03 5.671643829345703125e+01 -2.034773826599121094e+01 9.927974939346313477e-01 1.495389789342880249e-01 3.427009284496307373e-01 1.443823933601379395e+00
2.211000000000000000e+03 6.746567726135253906e+00 1.865781021118164062e+01 1.817273497581481934e-01 -1.124275684356689453e+00 -2.827645242214202881e-01 2.798161804676055908e-01
2.212000000000000000e+03 5.574754714965820312e+00 1.883657836914062500e+01 1.327216476202011108e-01 -1.231554865837097168e+00 -3.296499550342559814e-01 2.558288574218750000e-01
2.213000000000000000e+03 3.579292678833007812e+01 1.857268142700195312e+01 9.646735787391662598e-01 4.677940368652343750e+00 1.692784190177917480e+00 -7.195524573326110840e-01
2.214000000000000000e+03 3.598041152954101562e+01 1.548594856262207031e+01 1.331693530082702637e+00 4.955882072448730469e+00 1.886272668838500977e+00 -8.364273309707641602e-01
2.215000000000000000e+03 5.605654716491699219e+00 -1.502117824554443359e+01 4.082058148924261332e-04 -2.245989890070632100e-04 5.508205140358768404e-05 1.041302020894363523e-04
2.216000000000000000e+03 7.267272472381591797e+00 2.822068977355957031e+01 6.487734615802764893e-02 -1.045918583869934082e+00 -2.943123579025268555e-01 -1.758771203458309174e-02
2.217000000000000000e+03 7.869299888610839844e+00 6.408122539520263672e+00 -1.364221572875976562e-01 -7.286660075187683105e-01 -2.595264613628387451e-01 8.077443838119506836e-01
2.218000000000000000e+03 3.907211303710937500e+01 3.026261091232299805e+00 7.219910621643066406e-01 5.598087310791015625e+00 1.896023511886596680e+00 -1.147057771682739258e+00
2.219000000000000000e+03 4.631141662597656250e+01 -1.179604911804199219e+01 -1.749170541763305664e+00 6.257049083709716797e+00 1.352363586425781250e+00 -1.191157937049865723e+00
2.220000000000000000e+03 5.053041839599609375e+01 -2.509136009216308594e+01 9.054081439971923828e-01 6.841893196105957031e+00 2.324190378189086914e+00 -2.277988910675048828e+00
2.221000000000000000e+03 6.128272533416748047e+00 7.653372287750244141e+00 -4.648042470216751099e-02 -7.200216054916381836e-01 -2.299506068229675293e-01 6.789218187332153320e-01
2.222000000000000000e+03 1.079730701446533203e+01 -1.212549972534179688e+01 1.030525236274115741e-04 -2.164857505704276264e-05 2.442118420731276274e-05 -2.152278902940452099e-04
2.223000000000000000e+03 5.879922866821289062e+01 -2.112363815307617188e+01 8.238849639892578125e-01 8.527908921241760254e-01 5.030027627944946289e-01 1.857421994209289551e+00
2.224000000000000000e+03 6.542849540710449219e+00 1.229688739776611328e+01 1.468940824270248413e-01 -9.802569746971130371e-01 -2.500088512897491455e-01 5.748234391212463379e-01
2.225000000000000000e+03 7.331313133239746094e+00 -1.037872695922851562e+01 -5.173997487872838974e-04 2.449299245199654251e-05 -1.478720223531126976e-04 -1.197223991766804829e-05
2.226000000000000000e+03 3.583097076416015625e+01 1.222288227081298828e+01 1.747021794319152832e+00 4.933869838714599609e+00 2.004267454147338867e+00 -9.271745085716247559e-01
2.227000000000000000e+03 5.976698398590087891e+00 8.411554336547851562e+00 -3.610710613429546356e-03 -7.680667042732238770e-01 -2.315032184123992920e-01 6.519270539283752441e-01
2.228000000000000000e+03 7.106389045715332031e+00 8.958490371704101562e+00 4.314001649618148804e-02 -8.373715281486511230e-01 -2.382694482803344727e-01 7.194095849990844727e-01
2.229000000000000000e+03 7.401654815673828125e+01 -4.734225273132324219e+00 2.080038040876388550e-01 7.736092567443847656e+00 2.383229017257690430e+00 -2.410721778869628906e-01
2.230000000000000000e+03 3.732818984985351562e+01 9.379324913024902344e+00 1.852167844772338867e+00 5.626448631286621094e+00 2.243584871292114258e+00 -9.292177557945251465e-01
2.231000000000000000e+03 3.904998779296875000e+01 9.214286804199218750e+00 1.907948851585388184e+00 6.922866821289062500e+00 2.649244785308837891e+00 -1.102959394454956055e+00
2.232000000000000000e+03 6.500637054443359375e+01 -1.668780899047851562e+01 2.509725987911224365e-01 2.152445316314697266e+00 7.210253477096557617e-01 1.265570878982543945e+00
2.233000000000000000e+03 4.046825790405273438e+01 8.007603287696838379e-01 3.613072037696838379e-01 5.516169071197509766e+00 1.763242840766906738e+00 -1.473371386528015137e+00
2.234000000000000000e+03 7.429380035400390625e+01 8.475245237350463867e-01 7.182372212409973145e-01 8.556286811828613281e+00 2.782357215881347656e+00 2.765276134014129639e-01
2.235000000000000000e+03 7.453151702880859375e+01 2.298104286193847656e+00 6.588315367698669434e-01 8.555549621582031250e+00 2.764314413070678711e+00 4.760865867137908936e-01
2.236000000000000000e+03 3.257191085815429688e+01 -1.377710533142089844e+01 -1.251874446868896484e+00 2.939579188823699951e-01 -2.873749732971191406e-01 7.397438883781433105e-01
2.237000000000000000e+03 1.555327224731445312e+01 -9.030182838439941406e+00 2.231486869277432561e-04 2.945561755041126162e-05 7.578128861496224999e-05 -5.222021172812674195e-06
2.238000000000000000e+03 7.029177856445312500e+01 -1.195047569274902344e+01 3.387107849121093750e-01 5.464786052703857422e+00 1.741049170494079590e+00 1.911142766475677490e-01
2.239000000000000000e+03 7.138876342773437500e+01 -9.339026451110839844e+00 2.184231430292129517e-01 6.624001026153564453e+00 2.052727222442626953e+00 2.691051959991455078e-01
2.240000000000000000e+03 3.613587188720703125e+01 1.988367462158203125e+01 7.918294072151184082e-01 4.725112915039062500e+00 1.655082821846008301e+00 -6.111541986465454102e-01
2.241000000000000000e+03 7.334530639648437500e+01 -1.268782043457031250e+01 -8.515289425849914551e-02 6.217512607574462891e+00 1.839707851409912109e+00 -5.621085762977600098e-01
2.242000000000000000e+03 3.781732177734375000e+01 2.303363037109375000e+01 3.549218475818634033e-01 4.690659999847412109e+00 1.513674616813659668e+00 -2.579271495342254639e-01
2.243000000000000000e+03 3.940359878540039062e+01 2.234398269653320312e+01 4.415342509746551514e-01 5.252518653869628906e+00 1.708215951919555664e+00 7.527164369821548462e-02
2.244000000000000000e+03 9.833588600158691406e+00 -1.044199752807617188e+01 8.721157792024314404e-05 -7.654153159819543362e-05 3.201014806109014899e-06 -1.999896048801019788e-04
2.245000000000000000e+03 7.104042053222656250e+01 -1.355698680877685547e+01 1.041269078850746155e-01 5.350249767303466797e+00 1.636312961578369141e+00 -2.473781704902648926e-01
2.246000000000000000e+03 7.217166900634765625e+01 -1.375096321105957031e+01 -7.026592642068862915e-02 5.733547210693359375e+00 1.698984384536743164e+00 -4.878767132759094238e-01
2.247000000000000000e+03 6.647480010986328125e+01 -3.815780639648437500e+01 4.490340948104858398e-01 1.201860427856445312e+00 4.952683746814727783e-01 3.547306656837463379e-01
2.248000000000000000e+03 4.374876022338867188e+01 -6.811076641082763672e+00 -4.259504377841949463e-01 4.986623764038085938e+00 1.368201971054077148e+00 -1.567254543304443359e+00
2.249000000000000000e+03 4.399754714965820312e+01 -7.830048084259033203e+00 -6.235039830207824707e-01 5.028470993041992188e+00 1.321490049362182617e+00 -1.520602703094482422e+00
2.250000000000000000e+03 4.152612304687500000e+01 2.904993820190429688e+01 -2.510798275470733643e-01 3.867784500122070312e+00 1.085011482238769531e+00 2.355326414108276367e-01
2.251000000000000000e+03 5.440486907958984375e+01 -2.259170150756835938e+01 2.132748603820800781e+00 2.361442327499389648e+00 1.348257303237915039e+00 -5.438506007194519043e-01
2.252000000000000000e+03 3.622936248779296875e+01 2.416367912292480469e+01 2.631222605705261230e-01 4.154988288879394531e+00 1.325433254241943359e+00 -4.807483255863189697e-01
2.253000000000000000e+03 4.057854461669921875e+01 3.245207977294921875e+01 -6.653455495834350586e-01 3.511005163192749023e+00 8.536978960037231445e-01 3.840425610542297363e-02
2.254000000000000000e+03 4.165639877319335938e+01 -3.465209197998046875e+01 -2.126510292291641235e-01 2.383579254150390625e+00 6.512784361839294434e-01 8.202830553054809570e-01
2.255000000000000000e+03 6.327397823333740234e+00 -2.371421623229980469e+01 1.320879091508686543e-03 1.506255794083699584e-04 4.414514114614576101e-04 -6.261467933654785156e-04
2.256000000000000000e+03 7.446372222900390625e+01 -1.381253337860107422e+01 -2.087782621383666992e-01 6.428122043609619141e+00 1.865803122520446777e+00 -6.287840604782104492e-01
2.257000000000000000e+03 1.180022811889648438e+01 -3.537001419067382812e+01 -3.709386568516492844e-03 -5.827325396239757538e-03 -2.861013635993003845e-03 -7.389999926090240479e-03
2.258000000000000000e+03 1.027913570404052734e+01 -3.633601379394531250e+01 2.404177328571677208e-03 -5.213540047407150269e-03 -8.428088040091097355e-04 -5.686115007847547531e-03
2.259000000000000000e+03 6.798976898193359375e+01 -4.122680664062500000e+01 6.437555551528930664e-01 2.092733383178710938e+00 8.209466934204101562e-01 1.405904442071914673e-01
2.260000000000000000e+03 4.485129928588867188e+01 -1.750041770935058594e+01 3.340007364749908447e-01 6.349857807159423828e+00 2.005157470703125000e+00 -4.208292484283447266e+00
2.261000000000000000e+03 4.416683578491210938e+01 -1.859326744079589844e+01 2.141696453094482422e+00 3.223136186599731445e+00 1.609449863433837891e+00 -3.586142778396606445e+00
2.262000000000000000e+03 4.115561294555664062e+01 -1.572333240509033203e+01 -6.455358266830444336e-01 2.245188236236572266e+00 4.798957407474517822e-01 -1.839913368225097656e+00
2.263000000000000000e+03 4.483730316162109375e+01 -2.414877510070800781e+01 3.389610350131988525e-01 4.884995460510253906e+00 1.567186951637268066e+00 2.012216567993164062e+00
2.264000000000000000e+03 4.572928237915039062e+01 -2.482598114013671875e+01 -3.522560596466064453e-01 6.729886531829833984e+00 1.913289189338684082e+00 1.438332200050354004e+00
2.265000000000000000e+03 4.491847991943359375e+01 -2.370392417907714844e+01 5.191628336906433105e-01 4.919324398040771484e+00 1.631546139717102051e+00 2.203568458557128906e+00
2.266000000000000000e+03 4.551285171508789062e+01 -1.725084114074707031e+01 -4.457672536373138428e-01 8.091934204101562500e+00 2.293849945068359375e+00 -3.938855886459350586e+00
2.267000000000000000e+03 4.251155471801757812e+01 -1.730362319946289062e+01 1.441469490528106689e-01 2.461463689804077148e+00 7.816831469535827637e-01 -2.242606163024902344e+00
2.268000000000000000e+03 4.498059082031250000e+01 -1.703368568420410156e+01 -3.174282908439636230e-01 6.990221023559570312e+00 2.001837730407714844e+00 -3.895189046859741211e+00
2.269000000000000000e+03 4.513174438476562500e+01 -2.541456413269042969e+01 -1.844317913055419922e-01 5.452257633209228516e+00 1.580347657203674316e+00 1.512670993804931641e+00
2.270000000000000000e+03 4.628788757324218750e+01 -2.522145652770996094e+01 -4.879990518093109131e-01 7.376514434814453125e+00 2.066554546356201172e+00 9.389949440956115723e-01
2.271000000000000000e+03 1.201133346557617188e+01 -7.509804725646972656e+00 -1.600423820491414517e-05 -9.549401875119656324e-05 -3.344947617733851075e-05 -7.866876694606617093e-05
2.272000000000000000e+03 4.819701766967773438e+01 -1.680365753173828125e+01 -1.801354050636291504e+00 9.479383468627929688e+00 2.303408861160278320e+00 -5.848352313041687012e-01
2.273000000000000000e+03 4.755202484130859375e+01 -1.659337425231933594e+01 -1.942500114440917969e+00 9.564101219177246094e+00 2.286480426788330078e+00 -1.327011823654174805e+00
2.274000000000000000e+03 4.466553878784179688e+01 -1.790251159667968750e+01 1.122902750968933105e+00 5.601718425750732422e+00 2.017386436462402344e+00 -4.236843585968017578e+00
2.275000000000000000e+03 4.219966888427734375e+01 -1.830662727355957031e+01 3.216879963874816895e-01 1.485209822654724121e+00 5.420693159103393555e-01 -1.397901773452758789e+00
2.276000000000000000e+03 6.036476612091064453e+00 5.190414905548095703e+00 -2.446056455373764038e-01 -4.777521491050720215e-01 -2.167073339223861694e-01 6.283970475196838379e-01
2.277000000000000000e+03 6.325416088104248047e+00 6.882819175720214844e+00 -1.047189757227897644e-01 -6.642454862594604492e-01 -2.306893467903137207e-01 6.916728615760803223e-01
2.278000000000000000e+03 3.211980819702148438e+01 -1.142406654357910156e+01 -1.029165983200073242e+00 6.166063547134399414e-01 -1.237678751349449158e-01 7.048386931419372559e-01
2.279000000000000000e+03 9.119981765747070312e+00 -7.241791725158691406e+00 -2.981461584568023682e-04 -2.258431049995124340e-05 -9.621913341106846929e-05 1.054546592058613896e-04
2.280000000000000000e+03 2.991424560546875000e+01 -1.057187843322753906e+01 -1.124239683151245117e+00 3.224716782569885254e-01 -2.405303865671157837e-01 9.688358902931213379e-01
2.281000000000000000e+03 4.711156463623046875e+01 -2.675597000122070312e+01 -2.380304187536239624e-01 6.777814388275146484e+00 1.961935162544250488e+00 1.266757398843765259e-01
2.282000000000000000e+03 7.201240539550781250e+00 6.788933753967285156e+00 -1.065961346030235291e-01 -7.016032338142395020e-01 -2.424598038196563721e-01 7.511055469512939453e-01
2.283000000000000000e+03 2.950697135925292969e+01 -1.002508640289306641e+01 -1.147575616836547852e+00 2.992439568042755127e-01 -2.544994950294494629e-01 9.935451745986938477e-01
2.284000000000000000e+03 1.572855281829833984e+01 -8.477000236511230469e+00 -2.151151711586862803e-04 1.315865483775269240e-05 -6.058695726096630096e-05 1.860949851106852293e-05
2.285000000000000000e+03 1.417531681060791016e+01 -8.402735710144042969e+00 2.010160387726500630e-04 9.727000724524259567e-05 8.948581671575084329e-05 -6.371659401338547468e-05
2.286000000000000000e+03 9.377913475036621094e+00 5.706776142120361328e+00 -1.970359385013580322e-01 -8.159986734390258789e-01 -3.039103746414184570e-01 9.110296964645385742e-01
2.287000000000000000e+03 6.120801448822021484e+00 9.312202453613281250e+00 3.990808129310607910e-02 -8.270725011825561523e-01 -2.361493259668350220e-01 6.458817124366760254e-01
2.288000000000000000e+03 7.514700412750244141e+00 -5.565346717834472656e+00 -3.953923296649008989e-04 7.092143641784787178e-05 -9.734126797411590815e-05 -3.582400677260011435e-05
2.289000000000000000e+03 8.094234466552734375e+00 -8.569781303405761719e+00 -4.570436722133308649e-04 1.934862666530534625e-05 -1.313085231231525540e-04 -4.850215555052272975e-05
2.290000000000000000e+03 9.641386985778808594e+00 -6.638547897338867188e+00 2.590591320767998695e-04 4.876476305071264505e-05 9.234717435901984572e-05 -1.476779470976907760e-05
2.291000000000000000e+03 1.355656528472900391e+01 -7.999505996704101562e+00 -1.742987951729446650e-04 -1.110844896174967289e-04 -8.561498543713241816e-05 6.214908353285863996e-05
2.292000000000000000e+03 2.706871986389160156e+01 -7.254601955413818359e+00 -1.282685160636901855e+00 -1.172674074769020081e-01 -4.199857711791992188e-01 1.014033079147338867e+00
2.293000000000000000e+03 4.781486892700195312e+01 -2.510240745544433594e+01 -2.945258319377899170e-01 8.524183273315429688e+00 2.468897104263305664e+00 -7.828905582427978516e-01
2.294000000000000000e+03 4.543647384643554688e+01 -2.818017387390136719e+01 1.092000231146812439e-01 4.925423622131347656e+00 1.510387063026428223e+00 8.850619196891784668e-01
2.295000000000000000e+03 1.786201095581054688e+01 5.143695354461669922e+00 1.530748903751373291e-01 -1.057248353958129883e+00 -2.712520360946655273e-01 6.897062063217163086e-01
2.296000000000000000e+03 2.877013397216796875e+01 -5.669919967651367188e+00 -9.805107116699218750e-01 5.945387482643127441e-01 -1.157915964722633362e-01 6.690729856491088867e-01
2.297000000000000000e+03 5.014181137084960938e+01 -2.208017921447753906e+01 3.200027465820312500e+00 6.697440624237060547e+00 2.969240427017211914e+00 -2.954236030578613281e+00
2.298000000000000000e+03 4.930919265747070312e+01 -2.302580451965332031e+01 2.280084133148193359e+00 8.489367485046386719e+00 3.230835437774658203e+00 -3.296756505966186523e+00
2.299000000000000000e+03 5.016227340698242188e+01 -2.424894142150878906e+01 1.328622937202453613e+00 7.229971408843994141e+00 2.567578315734863281e+00 -2.612471103668212891e+00
2.300000000000000000e+03 4.880119323730468750e+01 -2.332606124877929688e+01 1.241486430168151855e+00 9.446731567382812500e+00 3.206465244293212891e+00 -2.889296531677246094e+00
2.301000000000000000e+03 2.403158569335937500e+01 -1.904243826866149902e+00 -8.825538754463195801e-01 -5.557082295417785645e-01 -4.314786195755004883e-01 7.337692975997924805e-01
2.302000000000000000e+03 1.237954139709472656e+01 -8.089528083801269531e+00 -1.958538341568782926e-04 -9.718260116642341018e-05 -8.791092841420322657e-05 3.794052099692635238e-05
2.303000000000000000e+03 3.965368652343750000e+01 -1.522930526733398438e+01 -8.389104008674621582e-01 1.391721129417419434e+00 1.658432334661483765e-01 -1.241669893264770508e+00
2.304000000000000000e+03 4.079485702514648438e+01 -1.629559135437011719e+01 -6.165063381195068359e-01 1.698270201683044434e+00 3.245291709899902344e-01 -1.549193501472473145e+00
2.305000000000000000e+03 4.893666839599609375e+01 -2.946593093872070312e+01 3.248522579669952393e-01 5.775102615356445312e+00 1.829986453056335449e+00 -4.603796601295471191e-01
2.306000000000000000e+03 2.669962120056152344e+01 -5.363945484161376953e+00 -1.163507461547851562e+00 -4.436822980642318726e-02 -3.623626828193664551e-01 8.479229807853698730e-01
2.307000000000000000e+03 2.620500755310058594e+01 -4.670574665069580078e+00 -1.128034472465515137e+00 -1.380885988473892212e-01 -3.798369169235229492e-01 8.219488859176635742e-01
2.308000000000000000e+03 2.024317359924316406e+01 6.149724721908569336e-01 -6.989962458610534668e-01 -1.207105517387390137e+00 -5.718305110931396484e-01 8.752057552337646484e-01
2.309000000000000000e+03 1.778848266601562500e+01 3.281975507736206055e+00 -2.481861561536788940e-01 -1.233356714248657227e+00 -4.444628655910491943e-01 8.420574665069580078e-01
2.310000000000000000e+03 2.844668006896972656e+01 -8.100693702697753906e+00 -1.191700696945190430e+00 2.228094041347503662e-01 -2.906673848628997803e-01 9.540335536003112793e-01
2.311000000000000000e+03 2.805193901062011719e+01 -7.427370548248291016e+00 -1.191596031188964844e+00 1.848514676094055176e-01 -3.020233511924743652e-01 9.275076985359191895e-01
2.312000000000000000e+03 2.787209129333496094e+01 -8.604883193969726562e+00 -1.256619334220886230e+00 4.292686469852924347e-03 -3.756979703903198242e-01 1.059196233749389648e+00
2.313000000000000000e+03 2.915647697448730469e+01 -9.410702705383300781e+00 -1.167514681816101074e+00 2.724553942680358887e-01 -2.685177922248840332e-01 9.883933663368225098e-01
2.314000000000000000e+03 1.560718822479248047e+01 -7.705592155456542969e+00 -1.830994879128411412e-04 4.110956069780513644e-06 -5.369655991671606898e-05 7.212525815702974796e-05
2.315000000000000000e+03 2.405811500549316406e+01 -3.119458436965942383e+00 -1.128001689910888672e+00 -6.920508742332458496e-01 -5.460157990455627441e-01 8.776767253875732422e-01
2.316000000000000000e+03 2.344274139404296875e+01 -1.210705041885375977e+00 -7.929692864418029785e-01 -6.557004451751708984e-01 -4.346009194850921631e-01 7.207516431808471680e-01
2.317000000000000000e+03 4.447423934936523438e+01 -1.687447166442871094e+01 -1.471135616302490234e-01 5.728243827819824219e+00 1.674339175224304199e+00 -3.690547227859497070e+00
2.318000000000000000e+03 2.216845321655273438e+01 1.012323275208473206e-01 -6.220771670341491699e-01 -8.690483570098876953e-01 -4.473376870155334473e-01 7.145397067070007324e-01
2.319000000000000000e+03 2.569019508361816406e+01 -3.978724718093872070e+00 -1.085148453712463379e+00 -2.453382611274719238e-01 -3.991460204124450684e-01 7.958312034606933594e-01
2.320000000000000000e+03 2.515503120422363281e+01 -3.287755250930786133e+00 -1.026802062988281250e+00 -3.501698672771453857e-01 -4.130915999412536621e-01 7.720827460289001465e-01
2.321000000000000000e+03 2.717586708068847656e+01 -6.057814598083496094e+00 -1.182611942291259766e+00 4.814942926168441772e-02 -3.403387665748596191e-01 8.754532337188720703e-01
2.322000000000000000e+03 2.283130645751953125e+01 -5.321885347366333008e-01 -7.034406065940856934e-01 -7.626521587371826172e-01 -4.398278295993804932e-01 7.162826061248779297e-01
2.323000000000000000e+03 2.346106719970703125e+01 1.031666249036788940e-01 -4.812397062778472900e-01 -5.191269516944885254e-01 -3.001099824905395508e-01 5.822687745094299316e-01
2.324000000000000000e+03 1.927968597412109375e+01 2.330864667892456055e+00 -3.498860299587249756e-01 -1.169748425483703613e+00 -4.558903574943542480e-01 7.939643263816833496e-01
2.325000000000000000e+03 3.940467453002929688e+01 -1.457004547119140625e+01 -8.111560940742492676e-01 1.511098265647888184e+00 2.099826484918594360e-01 -1.203946948051452637e+00
2.326000000000000000e+03 1.633406639099121094e+01 4.121811389923095703e+00 -1.672612428665161133e-01 -1.235720753669738770e+00 -4.208945930004119873e-01 8.868352174758911133e-01
2.327000000000000000e+03 8.129364967346191406e+00 1.421603870391845703e+01 2.557888329029083252e-01 -9.953992962837219238e-01 -2.218831479549407959e-01 5.193906426429748535e-01
2.328000000000000000e+03 5.072608184814453125e+01 -2.242061233520507812e+01 2.822563886642456055e+00 6.018020153045654297e+00 2.652175188064575195e+00 -2.773804187774658203e+00
2.329000000000000000e+03 5.191983795166015625e+01 -2.029752349853515625e+01 2.469041824340820312e+00 3.548683643341064453e+00 1.805317640304565430e+00 -1.281877994537353516e+00
2.330000000000000000e+03 7.841073513031005859e+00 1.708383560180664062e+01 2.466725111007690430e-01 -1.028647780418395996e+00 -2.345925867557525635e-01 3.676539659500122070e-01
2.331000000000000000e+03 1.484118747711181641e+01 4.890304088592529297e+00 -1.096617057919502258e-01 -1.199330091476440430e+00 -3.926975131034851074e-01 9.187240004539489746e-01
2.332000000000000000e+03 4.812722778320312500e+01 -1.367702293395996094e+01 -2.539704799652099609e+00 7.181575298309326172e+00 1.392561078071594238e+00 -5.676093101501464844e-01
2.333000000000000000e+03 4.840204238891601562e+01 -1.449299621582031250e+01 -2.680672168731689453e+00 7.586906909942626953e+00 1.471870303153991699e+00 -4.125184416770935059e-01
2.334000000000000000e+03 4.657570648193359375e+01 -2.707086753845214844e+01 -2.108558565378189087e-01 6.182262897491455078e+00 1.791422009468078613e+00 6.072866320610046387e-01
2.335000000000000000e+03 4.547080612182617188e+01 -2.680192947387695312e+01 -1.187874153256416321e-01 5.445614814758300781e+00 1.598048210144042969e+00 1.119107842445373535e+00
2.336000000000000000e+03 5.030319595336914062e+01 -1.982095527648925781e+01 3.101749658584594727e+00 5.774112224578857422e+00 2.662758588790893555e+00 -8.386968970298767090e-01
2.337000000000000000e+03 1.953495407104492188e+01 1.153553843498229980e+00 -6.377074122428894043e-01 -1.258408665657043457e+00 -5.688348412513732910e-01 8.886891007423400879e-01
2.338000000000000000e+03 1.853294944763183594e+01 2.827253103256225586e+00 -2.951075732707977295e-01 -1.209829807281494141e+00 -4.514812231063842773e-01 8.203819394111633301e-01
2.339000000000000000e+03 5.430237579345703125e+01 -1.980085754394531250e+01 1.228329777717590332e+00 5.124759078025817871e-01 5.222417116165161133e-01 -7.066870480775833130e-02
2.340000000000000000e+03 8.774724006652832031e+00 -9.736103057861328125e+00 -3.030116204172372818e-04 -1.550101151224225760e-04 -1.374065323034301400e-04 -2.916172670666128397e-04
2.341000000000000000e+03 8.452693939208984375e+00 6.951986312866210938e+00 -7.910488545894622803e-02 -7.957549095153808594e-01 -2.624579370021820068e-01 8.356637358665466309e-01
2.342000000000000000e+03 1.267126369476318359e+01 5.987475395202636719e+00 -3.332180157303810120e-02 -1.086371541023254395e+00 -3.359080255031585693e-01 9.413496255874633789e-01
2.343000000000000000e+03 4.132465362548828125e+01 -6.309432983398437500e+00 -4.473247826099395752e-01 4.362709999084472656e+00 1.174615502357482910e+00 -1.357248306274414062e+00
2.344000000000000000e+03 5.385113906860351562e+01 -2.155650329589843750e+01 2.253130912780761719e+00 1.968895792961120605e+00 1.266607999801635742e+00 -8.337414860725402832e-01
2.345000000000000000e+03 6.704213714599609375e+01 -1.593325138092041016e+01 4.834921658039093018e-01 2.832719802856445312e+00 9.948635697364807129e-01 4.767043888568878174e-01
2.346000000000000000e+03 3.486668014526367188e+01 -1.093187713623046875e+01 -8.146054744720458984e-01 1.249847173690795898e+00 1.305725276470184326e-01 9.828419983386993408e-02
2.347000000000000000e+03 4.687155151367187500e+01 -1.327248382568359375e+01 -2.232295274734497070e+00 7.010839462280273438e+00 1.433563351631164551e+00 -1.200863599777221680e+00
2.348000000000000000e+03 4.768957138061523438e+01 -1.282404804229736328e+01 -2.265646219253540039e+00 6.756261348724365234e+00 1.347184538841247559e+00 -6.651528477668762207e-01
2.349000000000000000e+03 4.930040740966796875e+01 -1.626810646057128906e+01 -2.210582017898559570e+00 7.903587818145751953e+00 1.707901835441589355e+00 -1.061340868473052979e-01
2.350000000000000000e+03 1.334400558471679688e+01 -9.646889686584472656e+00 1.889053673949092627e-04 2.500353439245373011e-04 1.316822163062170148e-04 -1.499815516581293195e-05
2.351000000000000000e+03 4.940748977661132812e+01 -1.792551231384277344e+01 3.798104822635650635e-01 8.000723838806152344e+00 2.514160394668579102e+00 3.168201446533203125e-01
2.352000000000000000e+03 3.102862930297851562e+01 -1.006827449798583984e+01 -1.045746684074401855e+00 6.155230998992919922e-01 -1.290670633316040039e-01 7.918108701705932617e-01
2.353000000000000000e+03 5.333133316040039062e+01 -2.052634239196777344e+01 1.942921161651611328e+00 1.924486875534057617e+00 1.160222411155700684e+00 -8.007854223251342773e-01
2.354000000000000000e+03 4.156805419921875000e+01 -1.421680450439453125e+00 1.371061503887176514e-01 5.262467384338378906e+00 1.619872093200683594e+00 -1.619419574737548828e+00
2.355000000000000000e+03 4.053813171386718750e+01 -1.800768733024597168e+00 6.467947363853454590e-02 4.920399665832519531e+00 1.495523810386657715e+00 -1.397754311561584473e+00
2.356000000000000000e+03 3.883389663696289062e+01 6.356380462646484375e+00 1.422409653663635254e+00 6.188518524169921875e+00 2.283278465270996094e+00 -1.023478627204895020e+00
2.357000000000000000e+03 3.813163757324218750e+01 -1.371341800689697266e+01 -8.144426345825195312e-01 1.318703651428222656e+00 1.512783020734786987e-01 -7.636951804161071777e-01
2.358000000000000000e+03 1.150067615509033203e+01 -6.728084087371826172e+00 -2.918516984209418297e-04 2.050051443802658468e-05 -8.140535646816715598e-05 -2.917312849604059011e-05
2.359000000000000000e+03 5.218863677978515625e+01 -2.681280517578125000e+01 1.094250559806823730e+00 6.022843360900878906e+00 2.135128259658813477e+00 -1.711036562919616699e+00
2.360000000000000000e+03 3.955377960205078125e+01 3.379380106925964355e-01 2.979373633861541748e-01 5.087104797363281250e+00 1.615512728691101074e+00 -1.235635876655578613e+00
2.361000000000000000e+03 7.053946685791015625e+01 -1.767079925537109375e+01 -5.891790986061096191e-01 4.392395019531250000e+00 1.140964865684509277e+00 -9.868999719619750977e-01
2.362000000000000000e+03 4.798873519897460938e+01 -2.745755767822265625e+01 -5.159845203161239624e-02 6.636746406555175781e+00 1.975544333457946777e+00 -3.546270728111267090e-01
2.363000000000000000e+03 5.272806549072265625e+01 -3.099177360534667969e+01 1.422763586044311523e+00 6.122801303863525391e+00 2.263669490814208984e+00 -8.308023810386657715e-01
2.364000000000000000e+03 5.150176239013671875e+01 -3.205061721801757812e+01 8.663982152938842773e-01 5.514120101928710938e+00 1.914155483245849609e+00 -2.690233588218688965e-01
2.365000000000000000e+03 8.966790199279785156e+00 -6.216117858886718750e+00 -2.590331714600324631e-04 -6.000422217766754329e-05 -9.571121336193755269e-05 8.044597961998078972e-06
2.366000000000000000e+03 9.550043106079101562e+00 6.385330200195312500e+00 -1.243164017796516418e-01 -8.525937199592590332e-01 -2.930730283260345459e-01 9.030686020851135254e-01
2.367000000000000000e+03 5.177189254760742188e+01 -2.198403739929199219e+01 2.838885307312011719e+00 4.338584899902343750e+00 2.153241157531738281e+00 -2.138875961303710938e+00
2.368000000000000000e+03 4.416485214233398438e+01 -8.813672065734863281e+00 -8.030012249946594238e-01 5.090136051177978516e+00 1.286140441894531250e+00 -1.511787533760070801e+00
2.369000000000000000e+03 4.425563430786132812e+01 -1.153254508972167969e+01 -1.373253703117370605e+00 5.370351791381835938e+00 1.199129462242126465e+00 -1.704606294631958008e+00
2.370000000000000000e+03 4.523964309692382812e+01 -1.161471366882324219e+01 -1.561692714691162109e+00 5.851318836212158203e+00 1.286887764930725098e+00 -1.561253428459167480e+00
2.371000000000000000e+03 7.223163604736328125e+00 2.164720153808593750e+01 1.651144325733184814e-01 -1.092601656913757324e+00 -2.782461643218994141e-01 1.560696661472320557e-01
2.372000000000000000e+03 8.321371078491210938e+00 2.371472358703613281e+01 1.711136996746063232e-01 -9.635202288627624512e-01 -2.377219498157501221e-01 8.387052267789840698e-02
2.373000000000000000e+03 6.294499397277832031e+00 -1.005627346038818359e+01 4.780110903084278107e-04 3.856009789160452783e-05 1.549713488202542067e-04 5.461691034724935889e-05
2.374000000000000000e+03 9.833409309387207031e+00 -1.259731101989746094e+01 5.412824248196557164e-05 1.350546972389565781e-05 2.029011375270783901e-05 3.115959698334336281e-04
2.375000000000000000e+03 3.016597175598144531e+01 -1.324954032897949219e+01 -1.177188992500305176e+00 5.989271402359008789e-02 -3.351888954639434814e-01 9.959282875061035156e-01
2.376000000000000000e+03 7.186606597900390625e+01 -1.770440292358398438e+01 -8.155748248100280762e-01 5.544455051422119141e+00 1.418664097785949707e+00 -9.866467118263244629e-01
2.377000000000000000e+03 3.982755279541015625e+01 1.906207323074340820e+00 5.388848781585693359e-01 5.559832096099853516e+00 1.829615116119384766e+00 -1.325581192970275879e+00
2.378000000000000000e+03 3.878881454467773438e+01 2.604496002197265625e+01 6.679573561996221542e-04 4.299836158752441406e+00 1.290151357650756836e+00 -9.617675095796585083e-02
2.379000000000000000e+03 3.501788711547851562e+01 2.270657730102539062e+01 4.589306116104125977e-01 4.022737026214599609e+00 1.344500303268432617e+00 -6.393623352050781250e-01
2.380000000000000000e+03 7.683260917663574219e+00 1.576883792877197266e+01 2.426990419626235962e-01 -1.026654005050659180e+00 -2.351864874362945557e-01 4.304854869842529297e-01
2.381000000000000000e+03 7.867364883422851562e+00 1.845794486999511719e+01 2.362045496702194214e-01 -1.030731797218322754e+00 -2.383581697940826416e-01 2.959396243095397949e-01
2.382000000000000000e+03 6.670677947998046875e+01 -1.700435066223144531e+01 1.427897512912750244e-01 2.244505643844604492e+00 7.161886096000671387e-01 6.293852329254150391e-01
2.383000000000000000e+03 6.694496154785156250e+01 -1.474850273132324219e+01 6.970073580741882324e-01 3.300616264343261719e+00 1.199287056922912598e+00 7.231865525245666504e-01
2.384000000000000000e+03 5.345125961303710938e+01 -2.327461433410644531e+01 2.159703731536865234e+00 3.486611366271972656e+00 1.693894505500793457e+00 -1.340691447257995605e+00
2.385000000000000000e+03 8.354334831237792969e+00 -1.203351020812988281e+01 1.775312266545370221e-04 2.079520345432683825e-05 5.949792830506339669e-05 1.401305926265195012e-04
2.386000000000000000e+03 1.027897357940673828e+01 -1.123346138000488281e+01 -4.508121855906210840e-05 6.159190525067970157e-05 4.953205916535807773e-06 1.835962029872462153e-04
2.387000000000000000e+03 6.955426788330078125e+01 -1.470643043518066406e+01 2.329790741205215454e-01 4.450165748596191406e+00 1.404943346977233887e+00 -1.023158952593803406e-01
2.388000000000000000e+03 6.814601898193359375e+01 -1.599956417083740234e+01 2.957646548748016357e-01 3.276059865951538086e+00 1.071547389030456543e+00 1.045521870255470276e-01
2.389000000000000000e+03 7.176231384277343750e+00 -7.986400604248046875e+00 3.760773106478154659e-04 -2.141184086212888360e-05 1.063996387529186904e-04 -5.833411341882310808e-05
2.390000000000000000e+03 7.660635948181152344e+00 7.605365753173828125e+00 -3.602287918329238892e-02 -7.867125868797302246e-01 -2.468206286430358887e-01 7.801744341850280762e-01
2.391000000000000000e+03 4.004925918579101562e+01 -7.177932858467102051e-01 1.571587920188903809e-01 5.035420417785644531e+00 1.557773709297180176e+00 -1.322047829627990723e+00
2.392000000000000000e+03 7.241946411132812500e+01 -1.261933898925781250e+01 5.815857090055942535e-03 5.985175132751464844e+00 1.797297239303588867e+00 -3.649378120899200439e-01
2.393000000000000000e+03 9.332204818725585938e+00 7.265309333801269531e+00 -2.617173083126544952e-02 -8.717687129974365234e-01 -2.693821489810943604e-01 8.712133765220642090e-01
2.394000000000000000e+03 7.342330932617187500e+01 3.395668029785156250e+01 -5.840625762939453125e-01 7.050980567932128906e+00 1.940075516700744629e+00 2.655365765094757080e-01
2.395000000000000000e+03 7.492117309570312500e+01 3.333997344970703125e+01 -4.373323023319244385e-01 8.418047904968261719e+00 2.394214868545532227e+00 3.626576662063598633e-01
2.396000000000000000e+03 1.088393592834472656e+01 2.825376701354980469e+01 1.143627539277076721e-01 -5.535754561424255371e-01 -1.317638158798217773e-01 -7.990079373121261597e-02
2.397000000000000000e+03 1.064738559722900391e+01 -9.145751953125000000e+00 2.876300422940403223e-04 1.827430241974070668e-04 1.411119155818596482e-04 1.719575229799374938e-04
2.398000000000000000e+03 8.776293754577636719e+00 1.334291076660156250e+01 2.831707894802093506e-01 -9.680796265602111816e-01 -2.054726630449295044e-01 5.708945393562316895e-01
2.399000000000000000e+03 3.452682113647460938e+01 1.904640579223632812e+01 9.460893869400024414e-01 4.077603340148925781e+00 1.507107734680175781e+00 -7.944035530090332031e-01
2.400000000000000000e+03 3.540608596801757812e+01 1.732621002197265625e+01 1.142472982406616211e+00 4.633990764617919922e+00 1.732939124107360840e+00 -7.880241870880126953e-01
2.401000000000000000e+03 3.819624710083007812e+01 8.575814247131347656e+00 1.810322642326354980e+00 6.149301052093505859e+00 2.387887001037597656e+00 -9.602959156036376953e-01
2.402000000000000000e+03 3.817161560058593750e+01 4.215717792510986328e+00 9.822764992713928223e-01 5.400925159454345703e+00 1.914960503578186035e+00 -9.079609513282775879e-01
2.403000000000000000e+03 3.502970504760742188e+01 1.099511146545410156e+01 1.764946579933166504e+00 4.355890750885009766e+00 1.836251139640808105e+00 -8.274049758911132812e-01
2.404000000000000000e+03 4.549956512451171875e+01 -3.335871505737304688e+01 -9.546358883380889893e-02 3.980066299438476562e+00 1.165380835533142090e+00 4.585472047328948975e-01
2.405000000000000000e+03 7.217765808105468750e+01 -1.910616111755371094e+01 -1.293202996253967285e+00 6.216572284698486328e+00 1.477010726928710938e+00 -9.537042975425720215e-01
2.406000000000000000e+03 3.554122543334960938e+01 9.008344650268554688e+00 1.719934105873107910e+00 4.473845005035400391e+00 1.858133673667907715e+00 -7.482731342315673828e-01
2.407000000000000000e+03 6.155701637268066406e+00 -1.115952110290527344e+01 -4.428362299222499132e-04 -5.034457717556506395e-05 -1.479542406741529703e-04 2.988815685966983438e-05
2.408000000000000000e+03 7.998003482818603516e+00 -1.104297065734863281e+01 5.911174230277538300e-05 -1.011796193779446185e-04 -1.262036403204547241e-05 -9.796393715078011155e-05
2.409000000000000000e+03 8.526356697082519531e+00 2.742104339599609375e+01 1.002018749713897705e-01 -8.809884190559387207e-01 -2.342359721660614014e-01 -2.521003782749176025e-02
2.410000000000000000e+03 7.329831695556640625e+01 -1.382611179351806641e+01 -1.717981547117233276e-01 6.132728099822998047e+00 1.788278937339782715e+00 -5.845239162445068359e-01
2.411000000000000000e+03 4.425628280639648438e+01 -9.760605812072753906e+00 -1.032145380973815918e+00 5.185520172119140625e+00 1.246012449264526367e+00 -1.518547058105468750e+00
2.412000000000000000e+03 3.610173034667968750e+01 2.722689056396484375e+01 -9.495204687118530273e-02 3.837316513061523438e+00 1.122709274291992188e+00 -4.312751591205596924e-01
2.413000000000000000e+03 1.027576446533203125e+01 3.294551849365234375e+01 2.140486054122447968e-02 -5.258148312568664551e-01 -1.513229906558990479e-01 -9.234212338924407959e-02
2.414000000000000000e+03 3.700510787963867188e+01 5.215843677520751953e+00 1.191275954246520996e+00 4.955216884613037109e+00 1.843947887420654297e+00 -7.495514750480651855e-01
2.415000000000000000e+03 4.900258636474609375e+01 -3.255154800415039062e+01 1.648107320070266724e-01 5.103693485260009766e+00 1.580551385879516602e+00 6.417923420667648315e-02
2.416000000000000000e+03 5.032306671142578125e+01 -2.949571990966796875e+01 5.869327783584594727e-01 5.918918132781982422e+00 1.951755166053771973e+00 -8.360027670860290527e-01
2.417000000000000000e+03 4.529040145874023438e+01 -3.813508224487304688e+01 -5.434826612472534180e-01 3.816003561019897461e+00 9.817562699317932129e-01 4.158407747745513916e-01
2.418000000000000000e+03 7.812207221984863281e+00 2.581509780883789062e+01 1.174180880188941956e-01 -1.005568027496337891e+00 -2.664450109004974365e-01 2.308097295463085175e-02
2.419000000000000000e+03 9.158959388732910156e+00 2.507325553894042969e+01 1.745970696210861206e-01 -8.241378068923950195e-01 -1.948622167110443115e-01 2.028026618063449860e-02
2.420000000000000000e+03 6.880148887634277344e+00 -3.663138961791992188e+01 -1.319631817750632763e-03 -6.436975090764462948e-04 -5.889987805858254433e-04 -2.686378080397844315e-03
2.421000000000000000e+03 1.353189945220947266e+01 -3.981025314331054688e+01 6.278619635850191116e-03 -1.779742911458015442e-02 -3.455642610788345337e-03 -2.893869997933506966e-03
2.422000000000000000e+03 1.309367847442626953e+01 -3.800460815429687500e+01 6.931166164577007294e-03 -1.282314304262399673e-02 -1.767593086697161198e-03 -1.009190641343593597e-02
2.423000000000000000e+03 5.382464981079101562e+01 -3.159664726257324219e+01 1.647262334823608398e+00 6.190368175506591797e+00 2.351289272308349609e+00 -5.638429522514343262e-01
2.424000000000000000e+03 7.206823730468750000e+01 -4.125387954711914062e+01 1.023087874054908752e-01 4.721323966979980469e+00 1.447089791297912598e+00 1.091711223125457764e-01
2.425000000000000000e+03 2.146601676940917969e+01 -4.114097595214843750e+01 6.347294896841049194e-02 -4.974181577563285828e-02 4.119340330362319946e-03 -1.453153882175683975e-02
2.426000000000000000e+03 3.471451950073242188e+01 1.636886978149414062e+01 1.260708689689636230e+00 4.273299217224121094e+00 1.660202383995056152e+00 -8.504009246826171875e-01
2.427000000000000000e+03 7.089880943298339844e+00 3.765606689453125000e+01 -2.032705955207347870e-02 -9.738943576812744141e-01 -2.982664406299591064e-01 -2.054774574935436249e-02
2.428000000000000000e+03 5.538852691650390625e+01 -3.353271102905273438e+01 2.269447445869445801e-01 6.642207145690917969e+00 2.060745477676391602e+00 -6.911686062812805176e-01
2.429000000000000000e+03 4.798080062866210938e+01 3.873408508300781250e+01 -8.711348772048950195e-01 1.948561191558837891e+00 3.232278823852539062e-01 2.036318182945251465e-01
2.430000000000000000e+03 3.123521995544433594e+01 -3.885102844238281250e+01 1.563844382762908936e-01 2.717060968279838562e-02 5.506651476025581360e-02 -5.016723647713661194e-02
2.431000000000000000e+03 4.401705932617187500e+01 -1.793594360351562500e+01 1.240089893341064453e+00 4.031068801879882812e+00 1.581347584724426270e+00 -3.579518079757690430e+00
2.432000000000000000e+03 4.357828140258789062e+01 -1.775767135620117188e+01 8.437963724136352539e-01 3.359784364700317383e+00 1.261074185371398926e+00 -3.124853372573852539e+00
2.433000000000000000e+03 4.621722030639648438e+01 -1.688783645629882812e+01 -1.438659310340881348e+00 9.533884048461914062e+00 2.428567409515380859e+00 -2.972320556640625000e+00
2.434000000000000000e+03 4.361804199218750000e+01 -1.728106498718261719e+01 4.166300296783447266e-01 3.941226720809936523e+00 1.307356953620910645e+00 -3.155168533325195312e+00
2.435000000000000000e+03 4.563292694091796875e+01 -1.668616294860839844e+01 -1.090661644935607910e+00 8.303740501403808594e+00 2.163923740386962891e+00 -3.532450675964355469e+00
2.436000000000000000e+03 4.291619110107421875e+01 -1.809713172912597656e+01 8.053401708602905273e-01 2.244264364242553711e+00 9.148813486099243164e-01 -2.229270696640014648e+00
2.437000000000000000e+03 1.375852108001708984e+01 -9.007509231567382812e+00 -2.082973514916375279e-04 -1.601770491106435657e-04 -1.105423216358758509e-04 4.652005736716091633e-05
2.438000000000000000e+03 4.692807388305664062e+01 -1.642520523071289062e+01 -1.982115149497985840e+00 9.502659797668457031e+00 2.256163358688354492e+00 -1.962012887001037598e+00
2.439000000000000000e+03 3.058351707458496094e+01 -1.155544185638427734e+01 -1.105630993843078613e+00 3.112197220325469971e-01 -2.383233606815338135e-01 9.291144609451293945e-01
2.440000000000000000e+03 3.038754081726074219e+01 -9.960229873657226562e+00 -1.088144063949584961e+00 4.907848238945007324e-01 -1.792077571153640747e-01 8.718991875648498535e-01
2.441000000000000000e+03 1.037758064270019531e+01 -9.907328605651855469e+00 -2.822878013830631971e-04 -2.172273671021685004e-04 -1.498545461799949408e-04 -1.066274926415644586e-04
2.442000000000000000e+03 4.859101104736328125e+01 -2.416436386108398438e+01 2.471461892127990723e-01 9.073235511779785156e+00 2.796114444732666016e+00 -2.020696640014648438e+00
2.443000000000000000e+03 4.738671112060546875e+01 -2.496452140808105469e+01 -4.309539794921875000e-01 8.568640708923339844e+00 2.441306114196777344e+00 -3.120442628860473633e-01
2.444000000000000000e+03 4.509611511230468750e+01 -1.244395732879638672e+01 -1.678786277770996094e+00 5.984988689422607422e+00 1.291860699653625488e+00 -1.704956412315368652e+00
2.445000000000000000e+03 4.015754699707031250e+01 -1.584375572204589844e+01 -7.923696637153625488e-01 1.465943932533264160e+00 2.020722925662994385e-01 -1.353024721145629883e+00
2.446000000000000000e+03 8.895805358886718750e+00 6.214527606964111328e+00 -1.512559801340103149e-01 -7.926426529884338379e-01 -2.831695973873138428e-01 8.792582154273986816e-01
2.447000000000000000e+03 3.734149932861328125e+01 -1.350582218170166016e+01 -8.390625715255737305e-01 1.140771389007568359e+00 9.051262587308883667e-02 -4.708673059940338135e-01
2.448000000000000000e+03 3.622515487670898438e+01 -1.435229206085205078e+01 -1.050440907478332520e+00 5.671368241310119629e-01 -1.449912190437316895e-01 -3.525524586439132690e-02
2.449000000000000000e+03 4.704618072509765625e+01 -2.458128929138183594e+01 -4.825791120529174805e-01 8.755226135253906250e+00 2.481794118881225586e+00 1.172888800501823425e-01
2.450000000000000000e+03 3.182730674743652344e+01 -1.285952949523925781e+01 -1.146340012550354004e+00 3.475470244884490967e-01 -2.396379113197326660e-01 8.173738121986389160e-01
2.451000000000000000e+03 4.679162216186523438e+01 -2.794160270690917969e+01 -6.965599209070205688e-02 5.941721439361572266e+00 1.761619687080383301e+00 3.125517666339874268e-01
2.452000000000000000e+03 3.000356292724609375e+01 -9.555074691772460938e+00 -1.101858377456665039e+00 4.628468453884124756e-01 -1.917034536600112915e-01 8.997322320938110352e-01
2.453000000000000000e+03 2.762775421142578125e+01 -6.745954990386962891e+00 -1.195322513580322266e+00 1.202133670449256897e-01 -3.225327134132385254e-01 9.007007479667663574e-01
2.454000000000000000e+03 2.725447273254394531e+01 -4.839280128479003906e+00 -1.036970019340515137e+00 1.993667334318161011e-01 -2.512809932231903076e-01 7.359493970870971680e-01
2.455000000000000000e+03 4.234170150756835938e+01 -1.780562973022460938e+01 2.612187564373016357e-01 1.938645362854003906e+00 6.599592566490173340e-01 -1.843809366226196289e+00
2.456000000000000000e+03 4.167239761352539062e+01 -1.611255836486816406e+01 -4.672966003417968750e-01 2.465609312057495117e+00 5.994938611984252930e-01 -2.030552387237548828e+00
2.457000000000000000e+03 4.195216751098632812e+01 -1.699483489990234375e+01 -1.959475427865982056e-01 2.224768400192260742e+00 6.086462736129760742e-01 -1.963046669960021973e+00
2.458000000000000000e+03 4.973023605346679688e+01 -2.358001327514648438e+01 1.597396373748779297e+00 7.761320590972900391e+00 2.807615280151367188e+00 -2.942285776138305664e+00
2.459000000000000000e+03 5.024837875366210938e+01 -1.637237739562988281e+01 -1.969762444496154785e+00 6.175456047058105469e+00 1.261708021163940430e+00 3.192479908466339111e-01
2.460000000000000000e+03 4.065560913085937500e+01 -1.527189636230468750e+01 -7.070208191871643066e-01 2.110114336013793945e+00 4.209280610084533691e-01 -1.661875486373901367e+00
2.461000000000000000e+03 4.022492218017578125e+01 -1.476150226593017578e+01 -7.496941089630126953e-01 2.013130664825439453e+00 3.790309429168701172e-01 -1.556430578231811523e+00
2.462000000000000000e+03 5.108639907836914062e+01 -2.158193778991699219e+01 3.171574354171752930e+00 4.978661060333251953e+00 2.445070743560791016e+00 -2.237841844558715820e+00
2.463000000000000000e+03 1.598781871795654297e+01 5.225756645202636719e+00 2.580780722200870514e-02 -1.174006700515747070e+00 -3.444596827030181885e-01 8.289097547531127930e-01
2.464000000000000000e+03 3.009556007385253906e+01 -7.754958152770996094e+00 -1.010212659835815430e+00 7.367555499076843262e-01 -8.203714340925216675e-02 7.143001556396484375e-01
2.465000000000000000e+03 2.863416290283203125e+01 -6.901164054870605469e+00 -1.102808713912963867e+00 4.187948405742645264e-01 -2.052041590213775635e-01 8.087249994277954102e-01
2.466000000000000000e+03 1.141565704345703125e+01 -9.421472549438476562e+00 -2.653149713296443224e-04 -2.166035701520740986e-04 -1.445755624445155263e-04 -1.117332722060382366e-04
2.467000000000000000e+03 1.258305072784423828e+01 -9.180961608886718750e+00 -1.946174452314153314e-04 -2.430088643450289965e-04 -1.312878885073587298e-04 -4.910902862320654094e-05
2.468000000000000000e+03 1.901494026184082031e+01 3.540136575698852539e+00 -8.342392742633819580e-02 -1.088412523269653320e+00 -3.515509665012359619e-01 7.132774591445922852e-01
2.469000000000000000e+03 2.624341392517089844e+01 -3.457595825195312500e+00 -9.369834661483764648e-01 -4.070090129971504211e-03 -2.823160588741302490e-01 6.840541362762451172e-01
2.470000000000000000e+03 2.422911643981933594e+01 6.212155222892761230e-01 -2.927330732345581055e-01 -2.607131302356719971e-01 -1.660338640213012695e-01 4.736336767673492432e-01
2.471000000000000000e+03 2.460237693786621094e+01 -2.597029685974121094e+00 -9.624065160751342773e-01 -4.571075141429901123e-01 -4.258542060852050781e-01 7.490884065628051758e-01
2.472000000000000000e+03 2.461019134521484375e+01 -1.375301361083984375e+00 -7.110238671302795410e-01 -3.273534774780273438e-01 -3.115132153034210205e-01 6.137518286705017090e-01
2.473000000000000000e+03 2.973036575317382812e+01 -8.937543869018554688e+00 -1.102552413940429688e+00 4.721280634403228760e-01 -1.891272962093353271e-01 8.838418722152709961e-01
2.474000000000000000e+03 4.623804092407226562e+01 -2.761896705627441406e+01 -1.105005964636802673e-01 5.711862087249755859e+00 1.680408477783203125e+00 6.949449777603149414e-01
2.475000000000000000e+03 4.768577575683593750e+01 -2.890369796752929688e+01 1.444148123264312744e-01 5.804060935974121094e+00 1.784542679786682129e+00 -9.088450670242309570e-02
2.476000000000000000e+03 2.001881217956542969e+01 1.803316712379455566e+00 -4.136552214622497559e-01 -1.112264871597290039e+00 -4.577760398387908936e-01 7.708866596221923828e-01
2.477000000000000000e+03 1.824355316162109375e+01 4.005795955657958984e+00 -5.013740435242652893e-02 -1.135008454322814941e+00 -3.555437624454498291e-01 7.441797852516174316e-01
2.478000000000000000e+03 1.674104309082031250e+01 4.784891605377197266e+00 1.010722201317548752e-02 -1.169772386550903320e+00 -3.478995263576507568e-01 8.064237236976623535e-01
2.479000000000000000e+03 1.560750389099121094e+01 4.536154270172119141e+00 -1.247904598712921143e-01 -1.214819192886352539e+00 -4.018829166889190674e-01 8.992478847503662109e-01
2.480000000000000000e+03 1.044365692138671875e+01 6.253110408782958984e+00 -1.024137586355209351e-01 -9.264442920684814453e-01 -3.086574375629425049e-01 9.330077767372131348e-01
2.481000000000000000e+03 5.244445800781250000e+01 -2.388618087768554688e+01 1.952712774276733398e+00 4.691881656646728516e+00 1.993378400802612305e+00 -1.990305304527282715e+00
2.482000000000000000e+03 5.299777603149414062e+01 -2.223014068603515625e+01 2.369697809219360352e+00 3.196435928344726562e+00 1.669840097427368164e+00 -1.477761387825012207e+00
2.483000000000000000e+03 2.404387283325195312e+01 -6.536457538604736328e-01 -6.027091741561889648e-01 -4.192082583904266357e-01 -3.065752387046813965e-01 6.025459766387939453e-01
2.484000000000000000e+03 2.571202278137207031e+01 -2.767199516296386719e+00 -8.730982542037963867e-01 -1.169206053018569946e-01 -2.970056533813476562e-01 6.594664454460144043e-01
2.485000000000000000e+03 2.516688537597656250e+01 -2.075350999832153320e+00 -7.949883937835693359e-01 -2.259625643491744995e-01 -3.062852919101715088e-01 6.361285448074340820e-01
2.486000000000000000e+03 1.117737579345703125e+01 -7.476623058319091797e+00 2.811687299981713295e-04 7.549904694315046072e-05 1.070003345375880599e-04 7.850516703911125660e-05
2.487000000000000000e+03 1.033974933624267578e+01 -7.101982593536376953e+00 -2.903432468883693218e-04 -5.563805098063312471e-05 -1.037943875417113304e-04 7.014405582594918087e-06
2.488000000000000000e+03 2.053579139709472656e+01 2.471388339996337891e+00 -2.025609165430068970e-01 -9.618749022483825684e-01 -3.493307530879974365e-01 6.558901667594909668e-01
2.489000000000000000e+03 2.320889282226562500e+01 1.522259712219238281e+00 -1.989710777997970581e-01 -4.731332659721374512e-01 -2.016312927007675171e-01 4.872857034206390381e-01
2.490000000000000000e+03 2.145876884460449219e+01 6.897776126861572266e-01 -5.410146117210388184e-01 -9.589957594871520996e-01 -4.500030875205993652e-01 7.290064096450805664e-01
2.491000000000000000e+03 1.514016342163085938e+01 5.665725708007812500e+00 4.410045593976974487e-02 -1.157056450843811035e+00 -3.338868021965026855e-01 8.631787896156311035e-01
2.492000000000000000e+03 4.923162841796875000e+01 -1.443461799621582031e+01 -2.771645545959472656e+00 6.941234111785888672e+00 1.250876545906066895e+00 3.468993306159973145e-02
2.493000000000000000e+03 4.743575286865234375e+01 -1.395363330841064453e+01 -2.541355133056640625e+00 7.468194961547851562e+00 1.478051900863647461e+00 -9.579370021820068359e-01
2.494000000000000000e+03 4.235517120361328125e+01 -6.024290084838867188e+00 -3.710983693599700928e-01 4.692123889923095703e+00 1.296307682991027832e+00 -1.497680187225341797e+00
2.495000000000000000e+03 1.213486289978027344e+01 -6.923619747161865234e+00 2.372534509049728513e-04 1.283996971324086189e-05 7.502802327508106828e-05 1.506930566392838955e-04
2.496000000000000000e+03 4.103090667724609375e+01 -2.883964061737060547e+00 -6.809712946414947510e-02 4.843202114105224609e+00 1.432531595230102539e+00 -1.434611558914184570e+00
2.497000000000000000e+03 4.092719268798828125e+01 -5.323663234710693359e+00 -3.303441703319549561e-01 4.383516311645507812e+00 1.215951681137084961e+00 -1.329560637474060059e+00
2.498000000000000000e+03 3.604856491088867188e+01 -1.286934185028076172e+01 -8.823926448822021484e-01 9.854357242584228516e-01 3.091293387115001678e-02 -8.965893834829330444e-02
2.499000000000000000e+03 3.548296356201171875e+01 -1.194242095947265625e+01 -8.394541144371032715e-01 1.132227301597595215e+00 8.783196657896041870e-02 2.640151418745517731e-03
2.500000000000000000e+03 1.423980140686035156e+01 6.217537879943847656e+00 7.654024660587310791e-02 -1.129289388656616211e+00 -3.158247470855712891e-01 8.756387233734130859e-01
2.501000000000000000e+03 1.412814426422119141e+01 4.758596897125244141e+00 -1.766990572214126587e-01 -1.184373736381530762e+00 -4.083218574523925781e-01 9.613364338874816895e-01
2.502000000000000000e+03 2.819512367248535156e+01 -6.217686176300048828e+00 -1.090690612792968750e+00 3.620538115501403809e-01 -2.185910344123840332e-01 7.863873839378356934e-01
2.503000000000000000e+03 3.999447631835937500e+01 -3.251165390014648438e+00 -1.333632916212081909e-01 4.476190567016601562e+00 1.302848219871520996e+00 -1.228616833686828613e+00
2.504000000000000000e+03 1.215194129943847656e+01 -9.820337295532226562e+00 1.558603689773008227e-04 2.866409195121377707e-04 1.327503850916400552e-04 1.035525419865734875e-04
2.505000000000000000e+03 4.605694961547851562e+01 -1.269686317443847656e+01 -2.019892215728759766e+00 6.532781124114990234e+00 1.353866696357727051e+00 -1.444164752960205078e+00
2.506000000000000000e+03 7.200302886962890625e+01 -1.497912979125976562e+01 -2.131880819797515869e-01 5.567372322082519531e+00 1.606255173683166504e+00 -6.020679473876953125e-01
2.507000000000000000e+03 3.870040512084960938e+01 -8.171134442090988159e-02 2.020550817251205444e-01 4.738384246826171875e+00 1.482131838798522949e+00 -1.054193854331970215e+00
2.508000000000000000e+03 3.846967697143554688e+01 -2.527975559234619141e+00 -9.857270121574401855e-02 4.139293670654296875e+00 1.212216258049011230e+00 -9.465917348861694336e-01
2.509000000000000000e+03 2.074235916137695312e+01 1.255333542823791504e+00 -4.808824956417083740e-01 -1.049069523811340332e+00 -4.589856266975402832e-01 7.445385456085205078e-01
2.510000000000000000e+03 6.921688842773437500e+01 -1.747323417663574219e+01 -2.043482661247253418e-01 3.197601318359375000e+00 8.979759216308593750e-01 -6.112554073333740234e-01
2.511000000000000000e+03 5.182690811157226562e+01 -2.562988471984863281e+01 1.125141739845275879e+00 5.859761238098144531e+00 2.095470905303955078e+00 -1.972018837928771973e+00
2.512000000000000000e+03 4.898579788208007812e+01 -2.548630523681640625e+01 1.425399482250213623e-01 7.720448970794677734e+00 2.358896732330322266e+00 -1.542608141899108887e+00
2.513000000000000000e+03 3.898460006713867188e+01 -3.631456851959228516e+00 -2.127434015274047852e-01 4.107340335845947266e+00 1.168379187583923340e+00 -1.016557335853576660e+00
2.514000000000000000e+03 1.356737232208251953e+01 5.401938438415527344e+00 -8.856647461652755737e-02 -1.144212484359741211e+00 -3.698337078094482422e-01 9.473199248313903809e-01
2.515000000000000000e+03 1.156175136566162109e+01 6.205946922302246094e+00 -6.169439852237701416e-02 -1.014233946800231934e+00 -3.227785229682922363e-01 9.447426199913024902e-01
2.516000000000000000e+03 6.778748512268066406e+00 8.119087219238281250e+00 -1.038579829037189484e-02 -7.771742939949035645e-01 -2.362680286169052124e-01 7.129651308059692383e-01
2.517000000000000000e+03 3.267481231689453125e+01 -1.275091838836669922e+01 -1.091044425964355469e+00 4.623536765575408936e-01 -1.886072307825088501e-01 6.866136193275451660e-01
2.518000000000000000e+03 3.401879119873046875e+01 -1.080007362365722656e+01 -8.663130998611450195e-01 1.090765953063964844e+00 6.733584403991699219e-02 2.841059267520904541e-01
2.519000000000000000e+03 8.595273017883300781e+00 1.043505764007568359e+01 1.816581785678863525e-01 -9.341341257095336914e-01 -2.257427722215652466e-01 7.188097834587097168e-01
2.520000000000000000e+03 4.630404281616210938e+01 -3.501650238037109375e+01 -3.076609969139099121e-01 4.246336936950683594e+00 1.181602835655212402e+00 4.579663276672363281e-01
2.521000000000000000e+03 5.088317489624023438e+01 -2.009696197509765625e+01 2.985914945602416992e+00 4.940769195556640625e+00 2.378005266189575195e+00 -1.164108276367187500e+00
2.522000000000000000e+03 4.991583251953125000e+01 -2.062140274047851562e+01 4.496849060058593750e+00 6.356114864349365234e+00 3.255889177322387695e+00 -1.569207429885864258e+00
2.523000000000000000e+03 4.648889160156250000e+01 -2.903125953674316406e+01 1.094571650028228760e-01 5.221879482269287109e+00 1.599400997161865234e+00 4.844912290573120117e-01
2.524000000000000000e+03 3.084411621093750000e+01 -1.091281604766845703e+01 -1.073868513107299805e+00 4.621021449565887451e-01 -1.835298985242843628e-01 8.667350411415100098e-01
2.525000000000000000e+03 7.935839176177978516e+00 -7.351689815521240234e+00 -1.858199393609538674e-04 -3.425441946092178114e-06 -5.677361332345753908e-05 2.300170162925496697e-04
2.526000000000000000e+03 7.713731288909912109e+00 -9.471108436584472656e+00 4.173541674390435219e-04 8.463529229629784822e-05 1.505968393757939339e-04 1.091328740585595369e-04
2.527000000000000000e+03 4.294271850585937500e+01 -7.986626625061035156e+00 -6.471363902091979980e-01 4.709565639495849609e+00 1.218728780746459961e+00 -1.505632877349853516e+00
2.528000000000000000e+03 4.214309692382812500e+01 -9.072319984436035156e+00 -7.775208950042724609e-01 4.348448753356933594e+00 1.071278333663940430e+00 -1.494530439376831055e+00
2.529000000000000000e+03 1.106672477722167969e+01 -1.014470672607421875e+01 2.862737164832651615e-04 2.195569832110777497e-04 1.517492200946435332e-04 2.053460193565115333e-04
2.530000000000000000e+03 4.154717254638671875e+01 -1.517906475067138672e+01 -6.594467163085937500e-01 2.840589046478271484e+00 6.543427109718322754e-01 -2.065155029296875000e+00
2.531000000000000000e+03 4.268618011474609375e+01 -7.020910263061523438e+00 -5.172276496887207031e-01 4.693871974945068359e+00 1.252993226051330566e+00 -1.489954590797424316e+00
2.532000000000000000e+03 1.038369750976562500e+01 2.413528251647949219e+01 2.321288585662841797e-01 -7.073130011558532715e-01 -1.425552517175674438e-01 3.284817561507225037e-02
2.533000000000000000e+03 1.039078044891357422e+01 7.291906356811523438e+00 2.174920774996280670e-02 -9.481543302536010742e-01 -2.779215276241302490e-01 8.954045176506042480e-01
2.534000000000000000e+03 3.819366836547851562e+01 2.271833419799804688e+00 6.046991944313049316e-01 5.030732154846191406e+00 1.690629482269287109e+00 -9.147877097129821777e-01
2.535000000000000000e+03 7.948645591735839844e+00 1.166546821594238281e+01 2.040262073278427124e-01 -9.610465168952941895e-01 -2.271060794591903687e-01 6.397570967674255371e-01
2.536000000000000000e+03 1.001461887359619141e+01 -8.268919944763183594e+00 1.266050239792093635e-04 2.248452801723033190e-04 1.054350941558368504e-04 2.320567291462793946e-04
2.537000000000000000e+03 1.070192623138427734e+01 1.695983123779296875e+01 3.972365260124206543e-01 -8.311291933059692383e-01 -1.301677972078323364e-01 3.451435267925262451e-01
2.538000000000000000e+03 8.544920921325683594e+00 2.129882049560546875e+01 2.266379892826080322e-01 -9.645082354545593262e-01 -2.213610708713531494e-01 1.687350571155548096e-01
2.539000000000000000e+03 6.944420337677001953e+00 2.010477638244628906e+01 1.801047921180725098e-01 -1.116328358650207520e+00 -2.808670699596405029e-01 2.209961861371994019e-01
2.540000000000000000e+03 3.895502471923828125e+01 1.326651692390441895e+00 4.223779141902923584e-01 5.131783008575439453e+00 1.666248321533203125e+00 -1.115472435951232910e+00
2.541000000000000000e+03 3.904400253295898438e+01 -1.082992315292358398e+00 1.158542782068252563e-01 4.646550655364990234e+00 1.428721547126770020e+00 -1.097614526748657227e+00
2.542000000000000000e+03 7.758777618408203125e+00 1.073803710937500000e+01 1.575149744749069214e-01 -9.227351546287536621e-01 -2.295660525560379028e-01 6.880064010620117188e-01
2.543000000000000000e+03 1.258916187286376953e+01 7.799765110015869141e+00 1.892006248235702515e-01 -1.032803177833557129e+00 -2.530807852745056152e-01 8.456872105598449707e-01
2.544000000000000000e+03 7.003929615020751953e+00 1.128078460693359375e+01 1.438844501972198486e-01 -9.453595280647277832e-01 -2.404425293207168579e-01 6.262117028236389160e-01
2.545000000000000000e+03 3.748154830932617188e+01 6.501111984252929688e+00 1.433198571205139160e+00 5.385460376739501953e+00 2.045597791671752930e+00 -8.147909045219421387e-01
2.546000000000000000e+03 3.518358612060546875e+01 4.780093193054199219e+00 1.078136444091796875e+00 3.983720541000366211e+00 1.518557071685791016e+00 -5.274938941001892090e-01
2.547000000000000000e+03 3.619223785400390625e+01 7.121988296508789062e+00 1.506284356117248535e+00 4.649397850036621094e+00 1.846704602241516113e+00 -7.004559636116027832e-01
2.548000000000000000e+03 3.469410324096679688e+01 2.572308349609375000e+01 9.878344833850860596e-02 3.680050134658813477e+00 1.133650064468383789e+00 -5.939148664474487305e-01
2.549000000000000000e+03 4.817637252807617188e+01 -2.987469100952148438e+01 2.928488254547119141e-01 5.449711322784423828e+00 1.722768068313598633e+00 -1.328275203704833984e-01
2.550000000000000000e+03 8.790176391601562500e+00 1.516166687011718750e+01 2.975402176380157471e-01 -9.680996537208557129e-01 -2.011678367853164673e-01 4.686985611915588379e-01
2.551000000000000000e+03 4.325199127197265625e+01 -9.819881439208984375e+00 -9.589421153068542480e-01 4.783402919769287109e+00 1.147338271141052246e+00 -1.584642529487609863e+00
2.552000000000000000e+03 9.861306190490722656e+00 3.090330505371093750e+01 5.124497786164283752e-02 -6.304693222045898438e-01 -1.737672984600067139e-01 -8.818175643682479858e-02
2.553000000000000000e+03 3.523366928100585938e+01 1.431461524963378906e+01 1.502983093261718750e+00 4.617244720458984375e+00 1.836068272590637207e+00 -8.997494578361511230e-01
2.554000000000000000e+03 3.445912170410156250e+01 1.308122062683105469e+01 1.627026915550231934e+00 4.153200626373291016e+00 1.734068274497985840e+00 -8.784109354019165039e-01
2.555000000000000000e+03 8.914531707763671875e+00 1.148129081726074219e+01 2.405021339654922485e-01 -9.507296681404113770e-01 -2.130682617425918579e-01 6.666839122772216797e-01
2.556000000000000000e+03 7.717549324035644531e+00 1.271075630187988281e+01 2.190444469451904297e-01 -9.846465587615966797e-01 -2.296806275844573975e-01 5.923989415168762207e-01
2.557000000000000000e+03 3.506888198852539062e+01 2.037240982055664062e+01 7.594843506813049316e-01 4.161432266235351562e+00 1.476274967193603516e+00 -7.321683168411254883e-01
2.558000000000000000e+03 3.747111511230468750e+01 2.131981086730957031e+01 5.536086559295654297e-01 4.898703098297119141e+00 1.635693550109863281e+00 -3.687649965286254883e-01
2.559000000000000000e+03 1.001588630676269531e+01 2.659490013122558594e+01 1.548875272274017334e-01 -6.974402666091918945e-01 -1.627658307552337646e-01 -3.242825344204902649e-02
2.560000000000000000e+03 2.194449996948242188e+01 -3.766754150390625000e+01 1.560325082391500473e-02 -3.219793736934661865e-02 -4.978405777364969254e-03 -4.674645140767097473e-02
2.561000000000000000e+03 3.421192550659179688e+01 1.760063552856445312e+01 1.139617800712585449e+00 4.003190994262695312e+00 1.542842626571655273e+00 -8.640336394309997559e-01
2.562000000000000000e+03 1.654582786560058594e+01 -3.926709747314453125e+01 1.819174736738204956e-02 -2.466255240142345428e-02 -1.941241556778550148e-03 -1.528125535696744919e-02
2.563000000000000000e+03 3.667523193359375000e+01 8.302579879760742188e+00 1.695807576179504395e+00 5.097647666931152344e+00 2.038036584854125977e+00 -8.101633787155151367e-01
2.564000000000000000e+03 3.627853012084960938e+01 4.059723854064941406e+00 9.321264624595642090e-01 4.413138389587402344e+00 1.603579521179199219e+00 -6.403045058250427246e-01
2.565000000000000000e+03 3.430998611450195312e+01 9.737215995788574219e+00 1.691413283348083496e+00 3.915611982345581055e+00 1.682107567787170410e+00 -7.137393951416015625e-01
2.566000000000000000e+03 3.496253585815429688e+01 7.791759490966796875e+00 1.531327605247497559e+00 4.109306335449218750e+00 1.692190170288085938e+00 -6.289943456649780273e-01
2.567000000000000000e+03 5.385641860961914062e+01 -3.395862197875976562e+01 4.195074364542961121e-02 6.104156970977783203e+00 1.843832254409790039e+00 -3.227466344833374023e-01
2.568000000000000000e+03 4.786268997192382812e+01 -3.394944381713867188e+01 -9.749001264572143555e-02 4.759228229522705078e+00 1.398521423339843750e+00 3.164142668247222900e-01
2.569000000000000000e+03 2.324517440795898438e+01 -3.650990676879882812e+01 -4.094294272363185883e-03 -2.508397959172725677e-02 -8.753482252359390259e-03 -5.227497220039367676e-02
2.570000000000000000e+03 1.964974212646484375e+01 -3.850430297851562500e+01 1.831907592713832855e-02 -3.132024779915809631e-02 -3.900351701304316521e-03 -3.045993298292160034e-02
2.571000000000000000e+03 3.180447578430175781e+01 -4.124505615234375000e+01 2.615763843059539795e-01 1.617520600557327271e-01 1.269985288381576538e-01 -1.161191798746585846e-02
2.572000000000000000e+03 7.509072113037109375e+01 -4.043608093261718750e+01 -4.468075186014175415e-02 6.506200313568115234e+00 1.938455820083618164e+00 -1.644690781831741333e-01
2.573000000000000000e+03 8.229482650756835938e+00 3.326330184936523438e+01 2.068861201405525208e-02 -8.527333140373229980e-01 -2.496134191751480103e-01 -6.237121671438217163e-02
2.574000000000000000e+03 1.067604637145996094e+01 -3.839923858642578125e+01 -9.006241452880203724e-04 -7.687324658036231995e-03 -2.576384693384170532e-03 -3.020962001755833626e-03
2.575000000000000000e+03 4.667491149902343750e+01 -4.097122192382812500e+01 -8.008612394332885742e-01 4.182532787322998047e+00 1.014501452445983887e+00 1.214273795485496521e-01
2.576000000000000000e+03 3.797702789306640625e+01 -4.091291427612304688e+01 1.462460607290267944e-01 1.085849761962890625e+00 3.696287274360656738e-01 1.243845671415328979e-01
2.577000000000000000e+03 3.905007934570312500e+01 -3.821134185791015625e+01 2.830873243510723114e-02 1.386869788169860840e+00 4.245535433292388916e-01 3.755440115928649902e-01
2.578000000000000000e+03 7.786796092987060547e+00 -4.117569732666015625e+01 1.210080226883292198e-03 -5.712366197258234024e-03 -1.350685721263289452e-03 3.488930524326860905e-04
2.579000000000000000e+03 2.812874221801757812e+01 -3.849121093750000000e+01 9.377607703208923340e-02 -8.338467217981815338e-03 2.563128247857093811e-02 -1.041879951953887939e-01
2.580000000000000000e+03 4.281404495239257812e+01 4.078676605224609375e+01 -1.107879400253295898e+00 2.925199270248413086e+00 5.451959371566772461e-01 3.435598313808441162e-02
2.581000000000000000e+03 8.462768554687500000e+00 4.092346954345703125e+01 -5.587460473179817200e-02 -8.064306378364562988e-01 -2.586915791034698486e-01 -1.260724104940891266e-02
2.582000000000000000e+03 1.042386436462402344e+01 3.524008941650390625e+01 -2.159420214593410492e-02 -4.977495968341827393e-01 -1.558031439781188965e-01 -8.457459509372711182e-02
2.583000000000000000e+03 4.719208908081054688e+01 -2.846315193176269531e+01 3.996847569942474365e-02 5.887498378753662109e+00 1.778240084648132324e+00 1.070918664336204529e-01
2.584000000000000000e+03 4.567867660522460938e+01 -1.342190456390380859e+01 -1.996192455291748047e+00 6.678211212158203125e+00 1.404605627059936523e+00 -1.800392389297485352e+00
2.585000000000000000e+03 4.513465118408203125e+01 -1.594024085998535156e+01 -1.259608268737792969e+00 7.089910030364990234e+00 1.749090552330017090e+00 -3.202548265457153320e+00
2.586000000000000000e+03 4.849514389038085938e+01 -1.531900405883789062e+01 -2.635837316513061523e+00 8.060937881469726562e+00 1.627530097961425781e+00 -4.614556431770324707e-01
2.587000000000000000e+03 4.769139862060546875e+01 -1.593500328063964844e+01 -2.337512493133544922e+00 8.987052917480468750e+00 1.994862079620361328e+00 -1.136231780052185059e+00
2.588000000000000000e+03 4.306608200073242188e+01 -1.760565757751464844e+01 5.293436050415039062e-01 2.858255147933959961e+00 1.016279697418212891e+00 -2.548940896987915039e+00
2.589000000000000000e+03 4.441319656372070312e+01 -1.730275344848632812e+01 3.108516335487365723e-01 5.548962593078613281e+00 1.757944345474243164e+00 -3.805619478225708008e+00
2.590000000000000000e+03 4.288735198974609375e+01 -1.572385215759277344e+01 -5.871447920799255371e-01 3.940960645675659180e+00 1.006144762039184570e+00 -2.676238536834716797e+00
2.591000000000000000e+03 4.352373123168945312e+01 -1.682565116882324219e+01 1.117211766541004181e-02 4.082093715667724609e+00 1.227979779243469238e+00 -3.086829423904418945e+00
2.592000000000000000e+03 4.202886199951171875e+01 -1.556420040130615234e+01 -5.985034704208374023e-01 3.047328948974609375e+00 7.346476912498474121e-01 -2.274638891220092773e+00
2.593000000000000000e+03 4.069454193115234375e+01 -1.424221324920654297e+01 -7.843790650367736816e-01 2.521650075912475586e+00 5.211812853813171387e-01 -1.700353384017944336e+00
2.594000000000000000e+03 4.521284484863281250e+01 -2.479341697692871094e+01 -7.329993695020675659e-02 5.791372776031494141e+00 1.715421795845031738e+00 1.721839308738708496e+00
2.595000000000000000e+03 4.576065826416015625e+01 -2.536864662170410156e+01 -2.868687510490417480e-01 6.497419357299804688e+00 1.863165140151977539e+00 1.281406044960021973e+00
2.596000000000000000e+03 4.424217605590820312e+01 -1.762335205078125000e+01 7.657640576362609863e-01 4.783275127410888672e+00 1.664711713790893555e+00 -3.787193775177001953e+00
2.597000000000000000e+03 3.049139785766601562e+01 -9.303549766540527344e+00 -1.040283918380737305e+00 6.087377071380615234e-01 -1.294638514518737793e-01 7.986704707145690918e-01
2.598000000000000000e+03 4.571905899047851562e+01 -1.609145355224609375e+01 -1.602331876754760742e+00 8.061528205871582031e+00 1.937758803367614746e+00 -2.948697090148925781e+00
2.599000000000000000e+03 1.091956520080566406e+01 -8.329900741577148438e+00 -2.724789083003997803e-04 -1.493721647420898080e-04 -1.265553291887044907e-04 -1.382042537443339825e-04
2.600000000000000000e+03 2.126441574096679688e+01 1.915609836578369141e+00 -2.747394442558288574e-01 -8.751358389854431152e-01 -3.449625968933105469e-01 6.338972449302673340e-01
2.601000000000000000e+03 4.702598571777343750e+01 -1.578355598449707031e+01 -2.227043628692626953e+00 8.793427467346191406e+00 1.969915151596069336e+00 -1.703313469886779785e+00
2.602000000000000000e+03 4.615620803833007812e+01 -2.479721450805664062e+01 -4.163003265857696533e-01 7.559082508087158203e+00 2.142834663391113281e+00 1.187642574310302734e+00
2.603000000000000000e+03 4.620373916625976562e+01 -2.440872192382812500e+01 -5.511492490768432617e-01 8.161573410034179688e+00 2.283127069473266602e+00 1.273874044418334961e+00
2.604000000000000000e+03 2.773456573486328125e+01 -5.530689716339111328e+00 -1.071291089057922363e+00 2.834781110286712646e-01 -2.363439053297042847e-01 7.611926198005676270e-01
2.605000000000000000e+03 2.732533264160156250e+01 -3.607460021972656250e+00 -8.496094942092895508e-01 3.388745784759521484e-01 -1.532204747200012207e-01 6.010792255401611328e-01
2.606000000000000000e+03 4.650354766845703125e+01 -2.570019721984863281e+01 -3.957989215850830078e-01 7.142914772033691406e+00 2.024134874343872070e+00 6.377619504928588867e-01
2.607000000000000000e+03 4.869891738891601562e+01 -2.599384498596191406e+01 -4.773436859250068665e-02 7.613656044006347656e+00 2.269776582717895508e+00 -1.239106774330139160e+00
2.608000000000000000e+03 3.037089538574218750e+01 -8.551650047302246094e+00 -1.018538594245910645e+00 7.027773261070251465e-01 -9.472837299108505249e-02 7.446194291114807129e-01
2.609000000000000000e+03 1.305060958862304688e+01 -8.577856063842773438e+00 2.090175694320350885e-04 1.427770184818655252e-04 1.055383763741701841e-04 -1.262504792975960299e-05
2.610000000000000000e+03 4.914759445190429688e+01 -2.392111778259277344e+01 1.060007095336914062e+00 8.593237876892089844e+00 2.895973443984985352e+00 -2.651525020599365234e+00
2.611000000000000000e+03 4.832070922851562500e+01 -2.495784950256347656e+01 -1.178533509373664856e-01 8.450943946838378906e+00 2.499927282333374023e+00 -1.297095775604248047e+00
2.612000000000000000e+03 9.179728507995605469e+00 8.265732765197753906e+00 6.058924272656440735e-02 -8.942102193832397461e-01 -2.500862777233123779e-01 8.289963603019714355e-01
2.613000000000000000e+03 2.904560852050781250e+01 -7.580284118652343750e+00 -1.099406361579895020e+00 4.625428915023803711e-01 -1.910590529441833496e-01 8.307430744171142578e-01
2.614000000000000000e+03 5.089384841918945312e+01 -2.366389656066894531e+01 1.910967826843261719e+00 6.217477798461914062e+00 2.438533782958984375e+00 -2.697636127471923828e+00
2.615000000000000000e+03 4.165774917602539062e+01 -7.261170864105224609e+00 -5.446662902832031250e-01 4.347008228302001953e+00 1.140702605247497559e+00 -1.400994658470153809e+00
2.616000000000000000e+03 5.028086853027343750e+01 -2.308683013916015625e+01 2.402441024780273438e+00 6.872910499572753906e+00 2.782605409622192383e+00 -3.000118017196655273e+00
2.617000000000000000e+03 2.941749954223632812e+01 -8.256532669067382812e+00 -1.104362249374389648e+00 4.696568250656127930e-01 -1.904116123914718628e-01 8.559278845787048340e-01
2.618000000000000000e+03 1.869677352905273438e+01 4.831017494201660156e+00 1.527832001447677612e-01 -1.012542247772216797e+00 -2.579276859760284424e-01 6.403937935829162598e-01
2.619000000000000000e+03 3.146250534057617188e+01 -1.109912776947021484e+01 -1.065807938575744629e+00 5.453478097915649414e-01 -1.561380326747894287e-01 8.016673922538757324e-01
2.620000000000000000e+03 3.375588989257812500e+01 -1.176483249664306641e+01 -9.359409213066101074e-01 8.238328099250793457e-01 -3.363243862986564636e-02 4.130317270755767822e-01
2.621000000000000000e+03 3.883829879760742188e+01 -1.386223888397216797e+01 -7.897468209266662598e-01 1.563213467597961426e+00 2.320400029420852661e-01 -1.014521241188049316e+00
2.622000000000000000e+03 3.837022018432617188e+01 -1.291466236114501953e+01 -7.500065565109252930e-01 1.704076170921325684e+00 2.862209081649780273e-01 -8.750448226928710938e-01
2.623000000000000000e+03 2.681394386291503906e+01 -2.920798301696777344e+00 -7.885091304779052734e-01 2.305860966444015503e-01 -1.673769056797027588e-01 5.764360427856445312e-01
2.624000000000000000e+03 2.532934761047363281e+01 2.645506560802459717e-01 -3.080214560031890869e-01 2.124722860753536224e-02 -8.603226393461227417e-02 4.030877053737640381e-01
2.625000000000000000e+03 1.715223503112792969e+01 5.422015190124511719e+00 1.335584968328475952e-01 -1.107711791992187500e+00 -2.922459840774536133e-01 7.335520982742309570e-01
2.626000000000000000e+03 2.782178688049316406e+01 -4.295716285705566406e+00 -9.058306217193603516e-01 4.339806735515594482e-01 -1.415549963712692261e-01 6.257292628288269043e-01
2.627000000000000000e+03 2.840442848205566406e+01 -3.736490488052368164e+00 -7.647839784622192383e-01 6.769121289253234863e-01 -2.636156417429447174e-02 5.167810320854187012e-01
2.628000000000000000e+03 1.978310775756835938e+01 3.017636299133300781e+00 -1.394506841897964478e-01 -1.026823282241821289e+00 -3.498821854591369629e-01 6.841325759887695312e-01
2.629000000000000000e+03 1.952858543395996094e+01 4.283542156219482422e+00 1.129461675882339478e-01 -9.448472261428833008e-01 -2.495703101158142090e-01 6.053128242492675781e-01
2.630000000000000000e+03 4.772584915161132812e+01 -3.160107040405273438e+01 1.356224566698074341e-01 5.003841876983642578e+00 1.541839241981506348e+00 1.404636204242706299e-01
2.631000000000000000e+03 2.521228599548339844e+01 -8.668136596679687500e-01 -5.452038645744323730e-01 -1.080662831664085388e-01 -1.959810554981231689e-01 5.124148726463317871e-01
2.632000000000000000e+03 2.575142860412597656e+01 -1.552813410758972168e+00 -6.364060640335083008e-01 3.531052963808178902e-03 -1.898624897003173828e-01 5.347304940223693848e-01
2.633000000000000000e+03 2.198585891723632812e+01 1.351971149444580078e+00 -3.423305451869964600e-01 -7.812289595603942871e-01 -3.370678424835205078e-01 6.086620092391967773e-01
2.634000000000000000e+03 2.935282135009765625e+01 -5.104126453399658203e+00 -8.619409799575805664e-01 8.343935012817382812e-01 -8.264246396720409393e-03 5.532143115997314453e-01
2.635000000000000000e+03 4.032590484619140625e+01 -6.622828483581542969e+00 -4.767392873764038086e-01 3.993048429489135742e+00 1.054892778396606445e+00 -1.215491414070129395e+00
2.636000000000000000e+03 4.047692871093750000e+01 -4.303778648376464844e+00 -2.464009970426559448e-01 4.430632591247558594e+00 1.255269408226013184e+00 -1.276086568832397461e+00
2.637000000000000000e+03 3.947481155395507812e+01 -4.674786567687988281e+00 -2.945950329303741455e-01 4.053610801696777344e+00 1.127704739570617676e+00 -1.096554636955261230e+00
2.638000000000000000e+03 2.468976402282714844e+01 -1.549473106861114502e-01 -4.457464516162872314e-01 -1.892587542533874512e-01 -1.905015558004379272e-01 4.941279888153076172e-01
2.639000000000000000e+03 8.335708618164062500e+00 9.480167388916015625e+00 1.195623278617858887e-01 -9.017871022224426270e-01 -2.346674352884292603e-01 7.570265531539916992e-01
2.640000000000000000e+03 7.398302555084228516e+00 9.868022918701171875e+00 1.072387248277664185e-01 -8.895825147628784180e-01 -2.347031384706497192e-01 7.098737359046936035e-01
2.641000000000000000e+03 1.712024497985839844e+01 6.555218219757080078e+00 3.294085264205932617e-01 -1.011572599411010742e+00 -2.046492248773574829e-01 6.547321081161499023e-01
2.642000000000000000e+03 1.648625564575195312e+01 5.915213108062744141e+00 1.696733087301254272e-01 -1.105957984924316406e+00 -2.808853983879089355e-01 7.539469599723815918e-01
2.643000000000000000e+03 3.573962402343750000e+01 -1.106923580169677734e+01 -7.712230682373046875e-01 1.416455626487731934e+00 1.935697644948959351e-01 -1.222864985466003418e-01
2.644000000000000000e+03 3.666039657592773438e+01 -1.314546012878417969e+01 -8.695674538612365723e-01 1.023865818977355957e+00 4.628950357437133789e-02 -2.829882502555847168e-01
2.645000000000000000e+03 1.332693386077880859e+01 6.919519901275634766e+00 1.236556395888328552e-01 -1.076768755912780762e+00 -2.859339118003845215e-01 8.736395835876464844e-01
2.646000000000000000e+03 4.631588363647460938e+01 -1.380636692047119141e+01 -2.262327194213867188e+00 7.170827865600585938e+00 1.472550272941589355e+00 -1.614438652992248535e+00
2.647000000000000000e+03 4.333969879150390625e+01 -1.153153514862060547e+01 -1.214545726776123047e+00 4.861480712890625000e+00 1.094080567359924316e+00 -1.799468040466308594e+00
2.648000000000000000e+03 4.333998107910156250e+01 -1.233866310119628906e+01 -1.269808769226074219e+00 4.876211166381835938e+00 1.081920742988586426e+00 -1.939725518226623535e+00
2.649000000000000000e+03 4.419486236572265625e+01 -1.234300041198730469e+01 -1.483006238937377930e+00 5.448235511779785156e+00 1.189568758010864258e+00 -1.899758100509643555e+00
2.650000000000000000e+03 4.428172302246093750e+01 -1.067001724243164062e+01 -1.215785980224609375e+00 5.277075767517089844e+00 1.218386888504028320e+00 -1.605868577957153320e+00
2.651000000000000000e+03 2.966362953186035156e+01 -7.041562080383300781e+00 -1.011803507804870605e+00 7.053312659263610840e-01 -9.194167703390121460e-02 7.037699818611145020e-01
2.652000000000000000e+03 2.922304344177246094e+01 -6.353384017944335938e+00 -9.990666508674621582e-01 6.584864258766174316e-01 -1.021740734577178955e-01 6.891461014747619629e-01
2.653000000000000000e+03 3.216254425048828125e+01 -9.196269035339355469e+00 -9.183572530746459961e-01 1.008087754249572754e+00 2.691916562616825104e-02 5.363407135009765625e-01
2.654000000000000000e+03 3.462886810302734375e+01 -1.184263038635253906e+01 -8.880697488784790039e-01 9.720814824104309082e-01 2.520351856946945190e-02 2.073633521795272827e-01
2.655000000000000000e+03 3.248780441284179688e+01 -1.042405033111572266e+01 -9.454657435417175293e-01 8.659994602203369141e-01 -2.383987978100776672e-02 5.656666159629821777e-01
2.656000000000000000e+03 4.241935729980468750e+01 -1.076612377166748047e+01 -9.938993453979492188e-01 4.356769561767578125e+00 1.008860945701599121e+00 -1.662621855735778809e+00
2.657000000000000000e+03 3.628013229370117188e+01 -1.210694599151611328e+01 -7.986688017845153809e-01 1.226948261260986328e+00 1.284838467836380005e-01 -2.152716368436813354e-01
2.658000000000000000e+03 3.698408889770507812e+01 -1.238301086425781250e+01 -7.740190029144287109e-01 1.392766356468200684e+00 1.856242269277572632e-01 -4.274667203426361084e-01
2.659000000000000000e+03 5.144208908081054688e+01 -2.451705741882324219e+01 1.604388117790222168e+00 5.921000480651855469e+00 2.257616519927978516e+00 -2.360074281692504883e+00
2.660000000000000000e+03 2.109113502502441406e+01 3.158454895019531250e+00 -5.662824027240276337e-03 -7.882421612739562988e-01 -2.381715029478073120e-01 5.505834817886352539e-01
2.661000000000000000e+03 9.277639389038085938e+00 -8.192857742309570312e+00 -3.373505023773759604e-04 -7.908712723292410374e-05 -1.249312917934730649e-04 -3.691257370519451797e-05
2.662000000000000000e+03 5.081180191040039062e+01 -2.613825035095214844e+01 8.428533077239990234e-01 6.596071720123291016e+00 2.231677532196044922e+00 -1.977565288543701172e+00
2.663000000000000000e+03 4.991823959350585938e+01 -2.759313583374023438e+01 4.652676880359649658e-01 6.527785301208496094e+00 2.097915887832641602e+00 -1.282657980918884277e+00
2.664000000000000000e+03 9.388211250305175781e+00 1.014785957336425781e+01 2.050960063934326172e-01 -9.383753538131713867e-01 -2.199838012456893921e-01 7.443997859954833984e-01
2.665000000000000000e+03 4.192809295654296875e+01 -8.182503700256347656e+00 -6.736801862716674805e-01 4.348176002502441406e+00 1.102348685264587402e+00 -1.431388139724731445e+00
2.666000000000000000e+03 5.080047607421875000e+01 -3.079855346679687500e+01 8.215639591217041016e-01 5.749700546264648438e+00 1.971379399299621582e+00 -6.033829450607299805e-01
2.667000000000000000e+03 5.048135375976562500e+01 -3.347220993041992188e+01 2.056093961000442505e-01 5.436223506927490234e+00 1.692549943923950195e+00 5.502758920192718506e-02
2.668000000000000000e+03 3.656810379028320312e+01 -3.362914323806762695e+00 -2.272178530693054199e-01 3.372287511825561523e+00 9.435209035873413086e-01 -5.766912102699279785e-01
2.669000000000000000e+03 7.065528106689453125e+01 -1.623312950134277344e+01 -2.320849746465682983e-01 4.716694831848144531e+00 1.345383048057556152e+00 -6.776580214500427246e-01
2.670000000000000000e+03 9.764455795288085938e+00 -7.670092582702636719e+00 2.660154423210769892e-04 -3.268755608587525785e-05 6.999836477916687727e-05 -1.339419541181996465e-04
2.671000000000000000e+03 3.780194854736328125e+01 -1.801913976669311523e-01 2.075240612030029297e-01 4.336848735809326172e+00 1.363311886787414551e+00 -8.480790853500366211e-01
2.672000000000000000e+03 1.150855827331542969e+01 7.374502658843994141e+00 9.058412164449691772e-02 -1.006294131278991699e+00 -2.747130095958709717e-01 8.904923200607299805e-01
2.673000000000000000e+03 1.009263038635253906e+01 9.955074310302734375e+00 2.354527413845062256e-01 -9.470835328102111816e-01 -2.134892493486404419e-01 7.574099898338317871e-01
2.674000000000000000e+03 3.382834625244140625e+01 1.530963039398193359e+01 1.399433612823486328e+00 3.888624429702758789e+00 1.586417436599731445e+00 -8.813302516937255859e-01
2.675000000000000000e+03 3.821241378784179688e+01 6.840882897377014160e-01 3.490205407142639160e-01 4.693856239318847656e+00 1.512863039970397949e+00 -9.210513234138488770e-01
2.676000000000000000e+03 3.691511917114257812e+01 -1.717995166778564453e+00 -1.167720183730125427e-02 3.776474475860595703e+00 1.129439234733581543e+00 -6.734665632247924805e-01
2.677000000000000000e+03 9.669425964355468750e+00 1.423260211944580078e+01 3.521094322204589844e-01 -9.377350211143493652e-01 -1.756876856088638306e-01 5.187902450561523438e-01
2.678000000000000000e+03 9.673981666564941406e+00 1.609449195861816406e+01 3.422350585460662842e-01 -9.256198406219482422e-01 -1.750154346227645874e-01 4.149325191974639893e-01
2.679000000000000000e+03 1.023558712005615234e+01 1.891710472106933594e+01 3.448157608509063721e-01 -8.289713263511657715e-01 -1.452466696500778198e-01 2.577437460422515869e-01
2.680000000000000000e+03 9.700620651245117188e+00 2.063941192626953125e+01 2.914195656776428223e-01 -8.430458903312683105e-01 -1.654878854751586914e-01 1.792791783809661865e-01
2.681000000000000000e+03 3.743556594848632812e+01 1.379235148429870605e+00 4.448050260543823242e-01 4.536007881164550781e+00 1.494243860244750977e+00 -7.959946990013122559e-01
2.682000000000000000e+03 1.152138328552246094e+01 1.590026378631591797e+01 4.544849395751953125e-01 -8.076813220977783203e-01 -1.059589162468910217e-01 3.873595595359802246e-01
2.683000000000000000e+03 1.179231548309326172e+01 1.779420471191406250e+01 4.412215054035186768e-01 -7.311788201332092285e-01 -8.698719739913940430e-02 2.747020423412322998e-01
2.684000000000000000e+03 1.051742458343505859e+01 2.184874534606933594e+01 2.991801798343658447e-01 -7.462624311447143555e-01 -1.341246664524078369e-01 1.138463318347930908e-01
2.685000000000000000e+03 3.654867553710937500e+01 2.176950216293334961e+00 5.816072821617126465e-01 4.259631633758544922e+00 1.452371716499328613e+00 -6.682553887367248535e-01
2.686000000000000000e+03 9.539916992187500000e+00 1.249347114562988281e+01 3.077791631221771240e-01 -9.507003426551818848e-01 -1.928763538599014282e-01 6.173993945121765137e-01
2.687000000000000000e+03 3.305674743652343750e+01 1.394009304046630859e+01 1.519752383232116699e+00 3.515019178390502930e+00 1.510431408882141113e+00 -8.425725698471069336e-01
2.688000000000000000e+03 4.727012634277343750e+01 -2.969679069519042969e+01 2.008528560400009155e-01 5.301470756530761719e+00 1.650696992874145508e+00 1.626892834901809692e-01
2.689000000000000000e+03 1.155161094665527344e+01 2.306197166442871094e+01 2.965854406356811523e-01 -5.924510955810546875e-01 -8.875969052314758301e-02 3.946597874164581299e-02
2.690000000000000000e+03 1.143482875823974609e+01 2.558550262451171875e+01 2.258942574262619019e-01 -5.377804040908813477e-01 -9.356583654880523682e-02 -4.174063727259635925e-02
2.691000000000000000e+03 3.277783966064453125e+01 1.788356781005859375e+01 1.130562305450439453e+00 3.483752965927124023e+00 1.384294629096984863e+00 -8.575758337974548340e-01
2.692000000000000000e+03 3.368437194824218750e+01 8.449205398559570312e+00 1.543268561363220215e+00 3.515220403671264648e+00 1.517546653747558594e+00 -5.939095616340637207e-01
2.693000000000000000e+03 3.571706771850585938e+01 5.935303211212158203e+00 1.303546071052551270e+00 4.343117237091064453e+00 1.693998932838439941e+00 -6.031852364540100098e-01
2.694000000000000000e+03 3.559956359863281250e+01 2.943190336227416992e+00 7.173433303833007812e-01 3.938427925109863281e+00 1.396731376647949219e+00 -5.468404889106750488e-01
2.695000000000000000e+03 1.257776737213134766e+01 2.720373535156250000e+01 1.794837266206741333e-01 -3.473438918590545654e-01 -5.035805702209472656e-02 -9.841606765985488892e-02
2.696000000000000000e+03 3.388209533691406250e+01 2.126077651977539062e+01 6.847615242004394531e-01 3.767763614654541016e+00 1.335757613182067871e+00 -7.716999053955078125e-01
2.697000000000000000e+03 3.452169799804687500e+01 2.906871795654296875e+01 -2.849745452404022217e-01 3.423800706863403320e+00 9.416478276252746582e-01 -5.071988105773925781e-01
2.698000000000000000e+03 1.245069217681884766e+01 3.214552688598632812e+01 3.421850129961967468e-02 -2.285109758377075195e-01 -5.828773975372314453e-02 -1.549234688282012939e-01
2.699000000000000000e+03 5.202450180053710938e+01 -3.350169754028320312e+01 4.614667594432830811e-01 5.544680118560791016e+00 1.801844120025634766e+00 6.481739133596420288e-02
2.700000000000000000e+03 5.277455139160156250e+01 -3.505670928955078125e+01 -1.648469269275665283e-01 5.507553577423095703e+00 1.602812051773071289e+00 -6.060169264674186707e-02
2.701000000000000000e+03 3.448087310791015625e+01 6.580691337585449219e+00 1.354280829429626465e+00 3.785695314407348633e+00 1.541992902755737305e+00 -5.476076006889343262e-01
2.702000000000000000e+03 4.974392700195312500e+01 -3.944054794311523438e+01 -9.211767315864562988e-01 4.867133140563964844e+00 1.183786869049072266e+00 1.207283139228820801e-01
2.703000000000000000e+03 7.561279296875000000e+01 -3.776256942749023438e+01 -3.095336258411407471e-01 6.997510910034179688e+00 2.006393194198608398e+00 -3.055842816829681396e-01
2.704000000000000000e+03 2.419725418090820312e+01 -3.982536315917968750e+01 7.689093798398971558e-02 -5.433917418122291565e-02 6.765529047697782516e-03 -3.591176867485046387e-02
2.705000000000000000e+03 4.239619827270507812e+01 -4.118455505371093750e+01 -3.350422680377960205e-01 2.764289379119873047e+00 7.287741303443908691e-01 1.272024512290954590e-01
2.706000000000000000e+03 1.726389884948730469e+01 -4.147273635864257812e+01 2.194476500153541565e-02 -3.115876019001007080e-02 -2.764198230579495430e-03 -2.090646885335445404e-03
2.707000000000000000e+03 1.311808204650878906e+01 -4.159255218505859375e+01 6.366659421473741531e-03 -1.487920898944139481e-02 -2.553764963522553444e-03 -3.368140663951635361e-03
2.708000000000000000e+03 1.374349784851074219e+01 3.753001022338867188e+01 -1.070702597498893738e-01 4.036351665854454041e-02 -2.001202292740345001e-02 -9.683968871831893921e-02
2.709000000000000000e+03 4.272003936767578125e+01 -1.678119277954101562e+01 -5.646254122257232666e-02 3.157957315444946289e+00 9.304484724998474121e-01 -2.557857751846313477e+00
2.710000000000000000e+03 4.507024002075195312e+01 -1.650902938842773438e+01 -8.436953425407409668e-01 7.025368213653564453e+00 1.854501962661743164e+00 -3.508383512496948242e+00
2.711000000000000000e+03 4.631721115112304688e+01 -1.625804710388183594e+01 -1.785444378852844238e+00 8.864222526550292969e+00 2.123633384704589844e+00 -2.579567670822143555e+00
2.712000000000000000e+03 4.579549407958984375e+01 -1.548765182495117188e+01 -1.827988862991333008e+00 7.742690563201904297e+00 1.774410486221313477e+00 -2.599981069564819336e+00
2.713000000000000000e+03 4.319935607910156250e+01 -1.709320068359375000e+01 2.050101161003112793e-01 3.463586091995239258e+00 1.100578904151916504e+00 -2.880439996719360352e+00
2.714000000000000000e+03 4.871406173706054688e+01 -2.836899375915527344e+01 1.896326988935470581e-01 6.272757053375244141e+00 1.938716888427734375e+00 -6.093490719795227051e-01
2.715000000000000000e+03 4.246152496337890625e+01 -1.596591377258300781e+01 -4.374943077564239502e-01 3.303362846374511719e+00 8.597605824470520020e-01 -2.451941013336181641e+00
2.716000000000000000e+03 4.110654067993164062e+01 -1.474144649505615234e+01 -7.377242445945739746e-01 2.660628795623779297e+00 5.768713355064392090e-01 -1.882600784301757812e+00
2.717000000000000000e+03 4.647854614257812500e+01 -1.501842117309570312e+01 -2.228501558303833008e+00 7.978353023529052734e+00 1.724955320358276367e+00 -1.906403541564941406e+00
2.718000000000000000e+03 4.218376922607421875e+01 -1.646612548828125000e+01 -3.194450736045837402e-01 2.714397668838500977e+00 7.184858322143554688e-01 -2.252787351608276367e+00
2.719000000000000000e+03 3.103531646728515625e+01 -8.464332580566406250e+00 -9.800963401794433594e-01 8.821481466293334961e-01 -2.938444726169109344e-02 6.577207446098327637e-01
2.720000000000000000e+03 3.177486991882324219e+01 -1.017248249053955078e+01 -9.818156957626342773e-01 7.580311298370361328e-01 -6.713537126779556274e-02 6.779382824897766113e-01
2.721000000000000000e+03 3.284757995605468750e+01 -9.460599899291992188e+00 -8.682268261909484863e-01 1.121555924415588379e+00 7.599875330924987793e-02 4.297685623168945312e-01
2.722000000000000000e+03 4.885821914672851562e+01 -2.480044746398925781e+01 3.650991618633270264e-01 8.316637039184570312e+00 2.604520797729492188e+00 -1.902164220809936523e+00
2.723000000000000000e+03 4.893358612060546875e+01 -2.663884353637695312e+01 1.306511908769607544e-01 7.119610309600830078e+00 2.175078392028808594e+00 -1.129548668861389160e+00
2.724000000000000000e+03 4.671571350097656250e+01 -2.495818710327148438e+01 -5.050525069236755371e-01 8.139453887939453125e+00 2.290320396423339844e+00 4.227243363857269287e-01
2.725000000000000000e+03 4.647381210327148438e+01 -2.462021255493164062e+01 -5.792360305786132812e-01 8.447017669677734375e+00 2.360334634780883789e+00 7.692180275917053223e-01
2.726000000000000000e+03 3.905326843261718750e+01 -1.314132118225097656e+01 -7.594807744026184082e-01 1.903864502906799316e+00 3.433151245117187500e-01 -1.096182703971862793e+00
2.727000000000000000e+03 4.733963394165039062e+01 -2.590125465393066406e+01 -3.573464453220367432e-01 7.588438510894775391e+00 2.169327735900878906e+00 -1.013638675212860107e-01
2.728000000000000000e+03 4.762963104248046875e+01 -2.646408843994140625e+01 -2.807988524436950684e-01 7.195913791656494141e+00 2.074534416198730469e+00 -2.544375956058502197e-01
2.729000000000000000e+03 4.402467346191406250e+01 -1.725975418090820312e+01 4.347753822803497314e-01 4.470220088958740234e+00 1.471498608589172363e+00 -3.528243780136108398e+00
2.730000000000000000e+03 4.399275970458984375e+01 -1.680343246459960938e+01 -1.048920899629592896e-01 4.901561737060546875e+00 1.439000964164733887e+00 -3.366839408874511719e+00
2.731000000000000000e+03 4.933872985839843750e+01 -1.537151622772216797e+01 -2.630179643630981445e+00 7.395039081573486328e+00 1.429457783699035645e+00 9.265353530645370483e-02
2.732000000000000000e+03 3.134638977050781250e+01 -7.631091117858886719e+00 -8.920759558677673340e-01 1.054234266281127930e+00 4.864747449755668640e-02 5.445845723152160645e-01
2.733000000000000000e+03 2.830355834960937500e+01 -4.984208106994628906e+00 -9.483355283737182617e-01 5.238535404205322266e-01 -1.273445934057235718e-01 6.486717462539672852e-01
2.734000000000000000e+03 2.900259971618652344e+01 -3.171149253845214844e+00 -6.244927644729614258e-01 9.189507365226745605e-01 8.833738416433334351e-02 4.132236540317535400e-01
2.735000000000000000e+03 2.981041145324707031e+01 -5.778719425201416016e+00 -8.910400271415710449e-01 8.901381492614746094e-01 -2.705675433389842510e-04 5.661870837211608887e-01
2.736000000000000000e+03 3.289225006103515625e+01 -1.167439460754394531e+01 -1.004448056221008301e+00 6.949867010116577148e-01 -9.283839911222457886e-02 5.860235691070556641e-01
2.737000000000000000e+03 2.182094383239746094e+01 2.604084014892578125e+00 -7.210913300514221191e-02 -6.970952153205871582e-01 -2.307613044977188110e-01 5.229972600936889648e-01
2.738000000000000000e+03 5.247359848022460938e+01 -2.125061607360839844e+01 2.609012365341186523e+00 3.194463729858398438e+00 1.741042852401733398e+00 -1.514059185981750488e+00
2.739000000000000000e+03 1.928365516662597656e+01 5.657602787017822266e+00 3.234383761882781982e-01 -8.641512393951416016e-01 -1.622138470411300659e-01 5.371994376182556152e-01
2.740000000000000000e+03 1.774798011779785156e+01 5.891870021820068359e+00 2.621430754661560059e-01 -1.017414450645446777e+00 -2.265813946723937988e-01 6.490260958671569824e-01
2.741000000000000000e+03 2.791023635864257812e+01 -3.051594018936157227e+00 -7.049117088317871094e-01 5.764732360839843750e-01 -3.853153809905052185e-02 4.958773553371429443e-01
2.742000000000000000e+03 2.032222366333007812e+01 3.718883037567138672e+00 6.055500358343124390e-02 -8.798853754997253418e-01 -2.457991093397140503e-01 5.757356882095336914e-01
2.743000000000000000e+03 2.088773918151855469e+01 4.420002460479736328e+00 2.337748557329177856e-01 -7.126193046569824219e-01 -1.436533331871032715e-01 4.723977744579315186e-01
2.744000000000000000e+03 2.506852722167968750e+01 9.473112821578979492e-01 -1.493100523948669434e-01 2.806824259459972382e-02 -3.637254238128662109e-02 3.736587166786193848e-01
2.745000000000000000e+03 2.251224899291992188e+01 2.049666881561279297e+00 -1.433831453323364258e-01 -6.019707322120666504e-01 -2.236061543226242065e-01 5.042724609375000000e-01
2.746000000000000000e+03 2.628794860839843750e+01 -2.236165523529052734e+00 -7.153997421264648438e-01 1.216811314225196838e-01 -1.781155914068222046e-01 5.547893643379211426e-01
2.747000000000000000e+03 4.029181289672851562e+01 -9.579506874084472656e+00 -7.098805904388427734e-01 3.486183404922485352e+00 8.328908681869506836e-01 -1.279221773147583008e+00
2.748000000000000000e+03 8.987518310546875000e+00 -8.884987831115722656e+00 3.791398485191166401e-04 8.717022865312173963e-05 1.398930180585011840e-04 2.149708889191970229e-04
2.749000000000000000e+03 8.587460517883300781e+00 -7.852925777435302734e+00 3.936792199965566397e-04 -2.423726255074143410e-05 1.108325886889360845e-04 -9.150426194537431002e-05
2.750000000000000000e+03 1.784519386291503906e+01 7.178655624389648438e+00 4.461177587509155273e-01 -8.966686129570007324e-01 -1.351652592420578003e-01 5.595722794532775879e-01
2.751000000000000000e+03 2.398340988159179688e+01 1.440273046493530273e+00 -1.702789515256881714e-01 -2.621406614780426025e-01 -1.297258883714675903e-01 4.223877787590026855e-01
2.752000000000000000e+03 3.896282577514648438e+01 -6.043679714202880859e+00 -4.297138154506683350e-01 3.626408338546752930e+00 9.590083360671997070e-01 -9.784917235374450684e-01
2.753000000000000000e+03 3.075555992126464844e+01 -7.122598171234130859e+00 -9.240921735763549805e-01 9.836423397064208984e-01 1.786504685878753662e-02 5.820278525352478027e-01
2.754000000000000000e+03 3.027012443542480469e+01 -6.452378273010253906e+00 -9.088519215583801270e-01 9.380906224250793457e-01 8.771608583629131317e-03 5.807408690452575684e-01
2.755000000000000000e+03 3.321773529052734375e+01 -8.542361259460449219e+00 -8.009902834892272949e-01 1.375676035881042480e+00 1.724057346582412720e-01 2.899014353752136230e-01
2.756000000000000000e+03 2.582488822937011719e+01 -3.584074974060058594e-01 -3.913690447807312012e-01 1.215316429734230042e-01 -8.095122128725051880e-02 4.242434501647949219e-01
2.757000000000000000e+03 2.740367126464843750e+01 -2.369283676147460938e+00 -6.322255730628967285e-01 4.711574614048004150e-01 -4.832043871283531189e-02 4.739441871643066406e-01
2.758000000000000000e+03 4.968031692504882812e+01 -2.543303489685058594e+01 5.637379884719848633e-01 7.442260265350341797e+00 2.401799440383911133e+00 -1.994186043739318848e+00
2.759000000000000000e+03 4.400143432617187500e+01 -1.515436840057373047e+01 -1.117646694183349609e+00 5.415760993957519531e+00 1.289434194564819336e+00 -2.829275369644165039e+00
2.760000000000000000e+03 3.766273498535156250e+01 -1.267964744567871094e+01 -7.814896702766418457e-01 1.567249059677124023e+00 2.357278317213058472e-01 -6.540266871452331543e-01
2.761000000000000000e+03 3.849465560913085938e+01 -9.353214263916015625e+00 -6.393581032752990723e-01 2.769354104995727539e+00 6.389988064765930176e-01 -9.022875428199768066e-01
2.762000000000000000e+03 3.734373092651367188e+01 -1.161826038360595703e+01 -7.364065647125244141e-01 1.774855971336364746e+00 3.115348219871520996e-01 -5.587065219879150391e-01
2.763000000000000000e+03 1.023112583160400391e+01 8.267015457153320312e+00 1.159249842166900635e-01 -9.506762623786926270e-01 -2.504253685474395752e-01 8.521427512168884277e-01
2.764000000000000000e+03 3.796473312377929688e+01 -1.333316922187805176e+00 4.215583205223083496e-02 4.209926128387451172e+00 1.275624513626098633e+00 -8.619477152824401855e-01
2.765000000000000000e+03 3.749116897583007812e+01 -2.921279191970825195e+00 -1.641249954700469971e-01 3.754011869430541992e+00 1.076966047286987305e+00 -7.601366639137268066e-01
2.766000000000000000e+03 4.958666229248046875e+01 -2.868594551086425781e+01 4.504923224449157715e-01 6.151772022247314453e+00 1.980679392814636230e+00 -8.732249140739440918e-01
2.767000000000000000e+03 1.093993949890136719e+01 9.294625282287597656e+00 2.373697608709335327e-01 -9.627279639244079590e-01 -2.176074683666229248e-01 7.904552221298217773e-01
2.768000000000000000e+03 4.095588684082031250e+01 -8.423690795898437500e+00 -6.562885642051696777e-01 3.944599390029907227e+00 9.864932298660278320e-01 -1.337311863899230957e+00
2.769000000000000000e+03 3.040263366699218750e+01 -5.179971218109130859e+00 -7.725082635879516602e-01 1.129184126853942871e+00 1.070027723908424377e-01 4.412775039672851562e-01
2.770000000000000000e+03 4.331800460815429688e+01 -1.069093990325927734e+01 -1.111671924591064453e+00 4.828269958496093750e+00 1.114979386329650879e+00 -1.662244319915771484e+00
2.771000000000000000e+03 1.493865680694580078e+01 7.048686504364013672e+00 2.454368472099304199e-01 -1.072186470031738281e+00 -2.480248808860778809e-01 7.798390388488769531e-01
2.772000000000000000e+03 4.836491012573242188e+01 -2.911271667480468750e+01 2.320091575384140015e-01 5.796019077301025391e+00 1.808408498764038086e+00 -2.550007700920104980e-01
2.773000000000000000e+03 1.030675792694091797e+01 1.179815483093261719e+01 3.271038532257080078e-01 -9.378286600112915039e-01 -1.832174360752105713e-01 6.554107069969177246e-01
2.774000000000000000e+03 3.234693527221679688e+01 -5.287124156951904297e+00 -6.075994372367858887e-01 1.729891657829284668e+00 3.366876542568206787e-01 1.912469565868377686e-01
2.775000000000000000e+03 4.066664123535156250e+01 -7.536199092864990234e+00 -5.768666267395019531e-01 3.968416213989257812e+00 1.017464876174926758e+00 -1.264478325843811035e+00
2.776000000000000000e+03 4.003600311279296875e+01 -8.703636169433593750e+00 -6.634377241134643555e-01 3.538914680480957031e+00 8.626431226730346680e-01 -1.186756849288940430e+00
2.777000000000000000e+03 3.840836715698242188e+01 -7.364251136779785156e+00 -5.317816138267517090e-01 3.179439544677734375e+00 7.942973971366882324e-01 -8.558498024940490723e-01
2.778000000000000000e+03 1.211210823059082031e+01 8.771111488342285156e+00 2.595236897468566895e-01 -9.932900071144104004e-01 -2.201298922300338745e-01 8.023601770401000977e-01
2.779000000000000000e+03 1.417413997650146484e+01 7.727503299713134766e+00 2.880566716194152832e-01 -1.046783328056335449e+00 -2.276179939508438110e-01 7.792016863822937012e-01
2.780000000000000000e+03 3.590545272827148438e+01 1.157762289047241211e+00 3.854821324348449707e-01 3.819038629531860352e+00 1.261356234550476074e+00 -5.597668290138244629e-01
2.781000000000000000e+03 1.120674514770507812e+01 8.408708572387695312e+00 1.831668615341186523e-01 -9.805691242218017578e-01 -2.392206788063049316e-01 8.329376578330993652e-01
2.782000000000000000e+03 9.243687629699707031e+00 9.237454414367675781e+00 1.472765505313873291e-01 -9.247937202453613281e-01 -2.332551479339599609e-01 7.871070504188537598e-01
2.783000000000000000e+03 3.935826492309570312e+01 -6.971023559570312500e+00 -5.158961415290832520e-01 3.604808568954467773e+00 9.266737103462219238e-01 -1.048596262931823730e+00
2.784000000000000000e+03 1.056237602233886719e+01 1.508020591735839844e+01 3.984144330024719238e-01 -8.805239796638488770e-01 -1.446328759193420410e-01 4.628088772296905518e-01
2.785000000000000000e+03 9.841460227966308594e+00 1.786001396179199219e+01 3.404926359653472900e-01 -8.788182735443115234e-01 -1.614976972341537476e-01 3.201808035373687744e-01
2.786000000000000000e+03 1.067582511901855469e+01 1.992256736755371094e+01 3.508968055248260498e-01 -7.710603475570678711e-01 -1.260490715503692627e-01 1.946637183427810669e-01
2.787000000000000000e+03 4.943629837036132812e+01 -3.537940979003906250e+01 -3.526541292667388916e-01 5.005975246429443359e+00 1.395996332168579102e+00 2.407040745019912720e-01
2.788000000000000000e+03 3.683715438842773438e+01 3.357972502708435059e-01 2.798991799354553223e-01 4.093766212463378906e+00 1.312099575996398926e+00 -6.830311417579650879e-01
2.789000000000000000e+03 3.406971740722656250e+01 5.400966644287109375e+00 1.143942475318908691e+00 3.526360750198364258e+00 1.401090979576110840e+00 -4.545787870883941650e-01
2.790000000000000000e+03 9.711901664733886719e+00 1.101986026763916016e+01 2.728421092033386230e-01 -9.468675255775451660e-01 -2.022076249122619629e-01 6.957169175148010254e-01
2.791000000000000000e+03 3.231523132324218750e+01 1.257662773132324219e+01 1.595521211624145508e+00 3.132443428039550781e+00 1.418389439582824707e+00 -7.802442312240600586e-01
2.792000000000000000e+03 3.300209426879882812e+01 1.046873283386230469e+01 1.639230728149414062e+00 3.332416772842407227e+00 1.491494178771972656e+00 -6.873741745948791504e-01
2.793000000000000000e+03 3.235844039916992188e+01 1.620337295532226562e+01 1.292523860931396484e+00 3.308269500732421875e+00 1.380238056182861328e+00 -8.625506758689880371e-01
2.794000000000000000e+03 3.177638626098632812e+01 7.717844486236572266e+00 1.342410087585449219e+00 2.672568798065185547e+00 1.204493641853332520e+00 -4.467514455318450928e-01
2.795000000000000000e+03 3.498348999023437500e+01 1.855902075767517090e+00 5.031525492668151855e-01 3.542512893676757812e+00 1.213699698448181152e+00 -4.511030614376068115e-01
2.796000000000000000e+03 1.383545303344726562e+01 2.294800186157226562e+01 3.775219619274139404e-01 -3.123339414596557617e-01 1.955641061067581177e-02 -2.180839888751506805e-02
2.797000000000000000e+03 3.156097602844238281e+01 2.032417297363281250e+01 8.585687875747680664e-01 3.080190181732177734e+00 1.181627750396728516e+00 -8.482553362846374512e-01
2.798000000000000000e+03 2.963008117675781250e+01 1.679770660400390625e+01 1.217603564262390137e+00 2.340554237365722656e+00 1.067447304725646973e+00 -7.938650250434875488e-01
2.799000000000000000e+03 2.974075508117675781e+01 2.687543678283691406e+01 1.304477155208587646e-01 2.600682258605957031e+00 8.193389773368835449e-01 -6.879492402076721191e-01
2.800000000000000000e+03 9.193646430969238281e+00 1.942418670654296875e+01 2.818876802921295166e-01 -9.250703454017639160e-01 -1.929547935724258423e-01 2.537647783756256104e-01
2.801000000000000000e+03 1.153872108459472656e+01 2.083403778076171875e+01 3.659173846244812012e-01 -6.615665555000305176e-01 -8.869475871324539185e-02 1.337670385837554932e-01
2.802000000000000000e+03 1.347175693511962891e+01 3.448809814453125000e+01 -3.412077203392982483e-02 -1.328252721577882767e-02 -1.422099024057388306e-02 -1.433485150337219238e-01
2.803000000000000000e+03 1.298349571228027344e+01 1.853109741210937500e+01 4.930674731731414795e-01 -5.978374481201171875e-01 -3.143100067973136902e-02 2.024061232805252075e-01
2.804000000000000000e+03 3.302305603027343750e+01 2.740370941162109375e+01 -4.268625006079673767e-02 3.272733449935913086e+00 9.690141677856445312e-01 -6.215543746948242188e-01
2.805000000000000000e+03 4.192894744873046875e+01 -1.464485836029052734e+01 -7.909886240959167480e-01 3.351282358169555664e+00 7.680881023406982422e-01 -2.201016664505004883e+00
2.806000000000000000e+03 4.397608184814453125e+01 -1.630261421203613281e+01 -4.433388710021972656e-01 5.081020832061767578e+00 1.391304612159729004e+00 -3.255250215530395508e+00
2.807000000000000000e+03 4.237183380126953125e+01 -1.497819232940673828e+01 -7.391150593757629395e-01 3.656988382339477539e+00 8.753619790077209473e-01 -2.391306161880493164e+00
2.808000000000000000e+03 4.466620635986328125e+01 -1.459262847900390625e+01 -1.580779194831848145e+00 6.204037666320800781e+00 1.386977434158325195e+00 -2.569485425949096680e+00
2.809000000000000000e+03 4.451892852783203125e+01 -1.637502861022949219e+01 -6.316498517990112305e-01 6.056139469146728516e+00 1.627346873283386230e+00 -3.464662075042724609e+00
2.810000000000000000e+03 4.285477066040039062e+01 -1.516709709167480469e+01 -7.658399343490600586e-01 4.052742958068847656e+00 9.860709309577941895e-01 -2.590131998062133789e+00
2.811000000000000000e+03 3.198482513427734375e+01 -7.983734607696533203e+00 -8.513890504837036133e-01 1.168600916862487793e+00 9.516354650259017944e-02 4.622762799263000488e-01
2.812000000000000000e+03 3.107066154479980469e+01 -9.234328269958496094e+00 -9.947680830955505371e-01 7.418506145477294922e-01 -7.587525248527526855e-02 7.229694724082946777e-01
2.813000000000000000e+03 4.702848052978515625e+01 -2.538153457641601562e+01 -4.809756875038146973e-01 7.948096275329589844e+00 2.240136146545410156e+00 1.604700088500976562e-01
2.814000000000000000e+03 4.248404312133789062e+01 -1.158963775634765625e+01 -1.074496626853942871e+00 4.334557533264160156e+00 9.780182242393493652e-01 -1.782272577285766602e+00
2.815000000000000000e+03 4.892031097412109375e+01 -2.751494026184082031e+01 1.181178539991378784e-01 6.624415397644042969e+00 2.022759914398193359e+00 -8.624517321586608887e-01
2.816000000000000000e+03 4.230758285522460938e+01 -9.930203437805175781e+00 -9.069784879684448242e-01 4.362316608428955078e+00 1.036601424217224121e+00 -1.560139060020446777e+00
2.817000000000000000e+03 4.059747695922851562e+01 -1.034815406799316406e+01 -7.889474630355834961e-01 3.471930265426635742e+00 8.048948645591735840e-01 -1.376852393150329590e+00
2.818000000000000000e+03 4.772396087646484375e+01 -1.456532478332519531e+01 -2.610848903656005859e+00 7.879280090332031250e+00 1.580529332160949707e+00 -8.775224089622497559e-01
2.819000000000000000e+03 4.775502777099609375e+01 -1.524796962738037109e+01 -2.498482465744018555e+00 8.352936744689941406e+00 1.756336331367492676e+00 -9.543416500091552734e-01
2.820000000000000000e+03 4.983153152465820312e+01 -2.643750762939453125e+01 3.475399911403656006e-01 6.952339649200439453e+00 2.189964056015014648e+00 -1.595340132713317871e+00
2.821000000000000000e+03 4.815209960937500000e+01 -2.674490165710449219e+01 -1.866930723190307617e-01 7.047642230987548828e+00 2.058284759521484375e+00 -5.275631546974182129e-01
2.822000000000000000e+03 4.789745712280273438e+01 -2.822333335876464844e+01 1.084197033196687698e-02 6.167959690093994141e+00 1.853640437126159668e+00 -1.844841688871383667e-01
2.823000000000000000e+03 9.838996887207031250e+00 -9.006689071655273438e+00 -2.393197646597400308e-04 -2.155533002223819494e-04 -1.364619238302111626e-04 -2.882359258364886045e-04
2.824000000000000000e+03 4.768412399291992188e+01 -2.460900688171386719e+01 -3.588157296180725098e-01 9.188537597656250000e+00 2.648916721343994141e+00 -8.487464785575866699e-01
2.825000000000000000e+03 4.709132003784179688e+01 -1.513992881774902344e+01 -2.417612075805664062e+00 8.301010131835937500e+00 1.765019416809082031e+00 -1.516717433929443359e+00
2.826000000000000000e+03 3.986236190795898438e+01 -1.428095245361328125e+01 -7.860083580017089844e-01 1.918549537658691406e+00 3.397623598575592041e-01 -1.415214896202087402e+00
2.827000000000000000e+03 3.181690025329589844e+01 -6.858905792236328125e+00 -8.119777441024780273e-01 1.313486576080322266e+00 1.504526436328887939e-01 3.953564763069152832e-01
2.828000000000000000e+03 2.749740791320800781e+01 -1.128701567649841309e+00 -4.001378417015075684e-01 6.031221747398376465e-01 6.089529395103454590e-02 3.587112724781036377e-01
2.829000000000000000e+03 2.888576507568359375e+01 -4.422692775726318359e+00 -8.200452923774719238e-01 7.596159577369689941e-01 -1.812878623604774475e-02 5.361953377723693848e-01
2.830000000000000000e+03 4.290249633789062500e+01 -1.625220680236816406e+01 -3.062449991703033447e-01 3.640455961227416992e+00 1.000263333320617676e+00 -2.744400024414062500e+00
2.831000000000000000e+03 4.398328399658203125e+01 -1.575006294250488281e+01 -8.036718368530273438e-01 5.291078567504882812e+00 1.346222043037414551e+00 -3.069416761398315430e+00
2.832000000000000000e+03 2.368951988220214844e+01 2.159934997558593750e+00 -6.122547201812267303e-03 -2.644937634468078613e-01 -8.118489384651184082e-02 3.977390229701995850e-01
2.833000000000000000e+03 4.947111892700195312e+01 -2.460235023498535156e+01 6.002132892608642578e-01 7.932227611541748047e+00 2.559732198715209961e+00 -2.299109697341918945e+00
2.834000000000000000e+03 4.091983413696289062e+01 -1.176571655273437500e+01 -8.561822175979614258e-01 3.397803544998168945e+00 7.624863982200622559e-01 -1.600632309913635254e+00
2.835000000000000000e+03 3.850436019897460938e+01 -5.072849750518798828e+00 -3.652790784835815430e-01 3.686256885528564453e+00 9.962933659553527832e-01 -8.938962221145629883e-01
2.836000000000000000e+03 3.690978622436523438e+01 -1.034486484527587891e+01 -6.902363896369934082e-01 1.940660238265991211e+00 3.751271665096282959e-01 -4.857586622238159180e-01
2.837000000000000000e+03 4.258826065063476562e+01 -1.318527984619140625e+01 -1.098038792610168457e+00 4.276355266571044922e+00 9.534949064254760742e-01 -2.084391355514526367e+00
2.838000000000000000e+03 4.600696563720703125e+01 -1.429636192321777344e+01 -2.104385614395141602e+00 7.243993759155273438e+00 1.541882395744323730e+00 -1.997646212577819824e+00
2.839000000000000000e+03 4.491481781005859375e+01 -1.320375633239746094e+01 -1.782468795776367188e+00 6.114812374114990234e+00 1.299703001976013184e+00 -1.981915950775146484e+00
2.840000000000000000e+03 2.009729576110839844e+01 5.016163825988769531e+00 2.749166786670684814e-01 -8.008407354354858398e-01 -1.577772200107574463e-01 5.029565095901489258e-01
2.841000000000000000e+03 1.853215599060058594e+01 6.408023834228515625e+00 3.852571547031402588e-01 -8.925969004631042480e-01 -1.522019207477569580e-01 5.527126193046569824e-01
2.842000000000000000e+03 3.322516250610351562e+01 -1.064060497283935547e+01 -8.965765833854675293e-01 9.716061353683471680e-01 2.250886335968971252e-02 4.411975145339965820e-01
2.843000000000000000e+03 3.432042694091796875e+01 -9.865887641906738281e+00 -7.848722338676452637e-01 1.371649861335754395e+00 1.760332733392715454e-01 1.589973121881484985e-01
2.844000000000000000e+03 2.243934822082519531e+01 3.341859102249145508e+00 1.286585032939910889e-01 -4.901598989963531494e-01 -1.084504202008247375e-01 4.126133620738983154e-01
2.845000000000000000e+03 4.066728591918945312e+01 -1.317255973815917969e+01 -8.245354294776916504e-01 2.900718212127685547e+00 6.228548884391784668e-01 -1.667533159255981445e+00
2.846000000000000000e+03 2.851310348510742188e+01 -2.488549470901489258e+00 -5.497971177101135254e-01 8.200834989547729492e-01 8.108590543270111084e-02 3.922722637653350830e-01
2.847000000000000000e+03 1.933343124389648438e+01 7.118852615356445312e+00 5.371008515357971191e-01 -7.309513092041015625e-01 -5.815514177083969116e-02 4.389858543872833252e-01
2.848000000000000000e+03 3.084935569763183594e+01 -5.818521499633789062e+00 -7.931064963340759277e-01 1.178360462188720703e+00 1.155762001872062683e-01 4.423396587371826172e-01
2.849000000000000000e+03 2.579848670959472656e+01 7.960122227668762207e-01 -1.393766403198242188e-01 2.154654413461685181e-01 2.282664179801940918e-02 3.257870376110076904e-01
2.850000000000000000e+03 2.640495491027832031e+01 1.911356449127197266e-01 -2.200826406478881836e-01 3.712827861309051514e-01 4.536004737019538879e-02 3.324851989746093750e-01
2.851000000000000000e+03 2.696169281005859375e+01 -4.602057039737701416e-01 -3.167218267917633057e-01 4.836258590221405029e-01 5.007120594382286072e-02 3.396343588829040527e-01
2.852000000000000000e+03 2.635379791259765625e+01 -1.017055273056030273e+00 -4.759172499179840088e-01 2.475268244743347168e-01 -6.851712614297866821e-02 4.384130537509918213e-01
2.853000000000000000e+03 3.864590072631835938e+01 -1.213983917236328125e+01 -7.382779717445373535e-01 2.056954622268676758e+00 3.956029713153839111e-01 -9.579051733016967773e-01
2.854000000000000000e+03 3.663109207153320312e+01 -1.125726318359375000e+01 -7.296499609947204590e-01 1.618079304695129395e+00 2.665287852287292480e-01 -3.747805356979370117e-01
2.855000000000000000e+03 1.294695854187011719e+01 9.330279350280761719e+00 3.530846238136291504e-01 -9.848973751068115234e-01 -1.895438283681869507e-01 7.421949505805969238e-01
2.856000000000000000e+03 3.705913925170898438e+01 -4.473880290985107422e+00 -3.413358926773071289e-01 3.317853212356567383e+00 8.929551839828491211e-01 -6.369206309318542480e-01
2.857000000000000000e+03 3.801187515258789062e+01 -4.035817623138427734e+00 -2.643038034439086914e-01 3.717708349227905273e+00 1.036021351814270020e+00 -8.371824026107788086e-01
2.858000000000000000e+03 1.432483291625976562e+01 9.212741851806640625e+00 4.356418550014495850e-01 -9.619132876396179199e-01 -1.578814387321472168e-01 6.788002848625183105e-01
2.859000000000000000e+03 1.640672302246093750e+01 7.173356056213378906e+00 3.579995334148406982e-01 -1.012519717216491699e+00 -1.963560432195663452e-01 6.698610186576843262e-01
2.860000000000000000e+03 3.131252861022949219e+01 -6.396864891052246094e+00 -7.957022190093994141e-01 1.243070363998413086e+00 1.342104524374008179e-01 4.320649802684783936e-01
2.861000000000000000e+03 2.312069129943847656e+01 2.772308111190795898e+00 6.371630728244781494e-02 -3.780295252799987793e-01 -9.429396688938140869e-02 3.913818895816802979e-01
2.862000000000000000e+03 3.971420669555664062e+01 -7.849120140075683594e+00 -5.776484012603759766e-01 3.576781988143920898e+00 8.997400999069213867e-01 -1.124636411666870117e+00
2.863000000000000000e+03 3.607556915283203125e+01 -6.445900917053222656e+00 -5.214040875434875488e-01 2.588104963302612305e+00 6.200103163719177246e-01 -4.088399708271026611e-01
2.864000000000000000e+03 1.350656032562255859e+01 8.501011848449707031e+00 3.203712701797485352e-01 -1.016691923141479492e+00 -2.088961899280548096e-01 7.701280117034912109e-01
2.865000000000000000e+03 3.615815353393554688e+01 -6.035963296890258789e-01 1.237630769610404968e-01 3.693401813507080078e+00 1.145149469375610352e+00 -5.818552970886230469e-01
2.866000000000000000e+03 1.137236213684082031e+01 1.412059402465820312e+01 4.446710348129272461e-01 -8.666277527809143066e-01 -1.265870034694671631e-01 4.961763918399810791e-01
2.867000000000000000e+03 4.120332717895507812e+01 -9.283858299255371094e+00 -7.562089562416076660e-01 3.936975955963134766e+00 9.542300701141357422e-01 -1.401297569274902344e+00
2.868000000000000000e+03 1.260935878753662109e+01 2.184584045410156250e+01 3.853855133056640625e-01 -5.151339173316955566e-01 -3.892451152205467224e-02 5.229064449667930603e-02
2.869000000000000000e+03 1.567248535156250000e+01 7.801558494567871094e+00 3.891773223876953125e-01 -9.991952180862426758e-01 -1.830053776502609253e-01 6.815221309661865234e-01
2.870000000000000000e+03 3.805562973022460938e+01 -6.440079689025878906e+00 -4.892101883888244629e-01 3.272771358489990234e+00 8.350683450698852539e-01 -7.891673445701599121e-01
2.871000000000000000e+03 1.070315837860107422e+01 1.004380512237548828e+01 2.752273082733154297e-01 -9.531012773513793945e-01 -2.033621817827224731e-01 7.492922544479370117e-01
2.872000000000000000e+03 4.036306381225585938e+01 -1.213108062744140625e+01 -7.988842725753784180e-01 2.951059341430664062e+00 6.456525325775146484e-01 -1.470892429351806641e+00
2.873000000000000000e+03 3.794503402709960938e+01 -1.193973064422607422e+01 -7.171024680137634277e-01 1.872293710708618164e+00 3.465573787689208984e-01 -7.705280780792236328e-01
2.874000000000000000e+03 3.801519393920898438e+01 -1.120667839050292969e+01 -7.040359377861022949e-01 2.122718095779418945e+00 4.256046414375305176e-01 -7.827076911926269531e-01
2.875000000000000000e+03 1.234309768676757812e+01 1.969784736633300781e+01 4.429920315742492676e-01 -6.202141642570495605e-01 -5.316664278507232666e-02 1.604326665401458740e-01
2.876000000000000000e+03 1.126787662506103516e+01 1.896321487426757812e+01 3.934410214424133301e-01 -7.376781105995178223e-01 -1.032711267471313477e-01 2.395813912153244019e-01
2.877000000000000000e+03 3.267606735229492188e+01 4.804686069488525391e+00 9.788488745689392090e-01 2.876856327056884766e+00 1.156711578369140625e+00 -3.501822352409362793e-01
2.878000000000000000e+03 3.361727905273437500e+01 4.252884864807128906e+00 9.208217263221740723e-01 3.208737373352050781e+00 1.238867759704589844e+00 -3.717631101608276367e-01
2.879000000000000000e+03 3.532962417602539062e+01 2.760177552700042725e-01 2.665509283542633057e-01 3.529222965240478516e+00 1.138732194900512695e+00 -4.586348235607147217e-01
2.880000000000000000e+03 3.045144462585449219e+01 8.397640228271484375e+00 1.328487634658813477e+00 2.195905923843383789e+00 1.057317972183227539e+00 -4.118233323097229004e-01
2.881000000000000000e+03 3.314854049682617188e+01 7.116722583770751953e+00 1.356742739677429199e+00 3.211935520172119141e+00 1.370603442192077637e+00 -4.797017872333526611e-01
2.882000000000000000e+03 1.044947910308837891e+01 1.333644104003906250e+01 3.798910975456237793e-01 -9.150760769844055176e-01 -1.605554968118667603e-01 5.600481629371643066e-01
2.883000000000000000e+03 1.231916046142578125e+01 1.492030429840087891e+01 5.020535588264465332e-01 -7.863402366638183594e-01 -8.528601378202438354e-02 4.224057197570800781e-01
2.884000000000000000e+03 3.461103439331054688e+01 3.627941608428955078e+00 8.218223452568054199e-01 3.607147932052612305e+00 1.328691005706787109e+00 -4.364058673381805420e-01
2.885000000000000000e+03 3.402822875976562500e+01 2.478963851928710938e+00 6.099543571472167969e-01 3.239090681076049805e+00 1.154713511466979980e+00 -3.595395684242248535e-01
2.886000000000000000e+03 3.165704154968261719e+01 1.474673271179199219e+01 1.432147741317749023e+00 2.951008081436157227e+00 1.314946651458740234e+00 -8.180637359619140625e-01
2.887000000000000000e+03 3.163469123840332031e+01 1.119082546234130859e+01 1.568873524665832520e+00 2.816770315170288086e+00 1.315693140029907227e+00 -6.727890968322753906e-01
2.888000000000000000e+03 1.161242389678955078e+01 1.157421302795410156e+01 4.055770933628082275e-01 -9.199284315109252930e-01 -1.543053984642028809e-01 6.456738114356994629e-01
2.889000000000000000e+03 1.118442440032958984e+01 1.245159149169921875e+01 3.996415436267852783e-01 -9.113231897354125977e-01 -1.535044908523559570e-01 6.002177000045776367e-01
2.890000000000000000e+03 3.092935562133789062e+01 1.678576660156250000e+01 1.236729741096496582e+00 2.778127670288085938e+00 1.204457283020019531e+00 -8.190967440605163574e-01
2.891000000000000000e+03 3.034931945800781250e+01 1.553441238403320312e+01 1.338990211486816406e+00 2.542221784591674805e+00 1.164363622665405273e+00 -7.779178619384765625e-01
2.892000000000000000e+03 1.566444110870361328e+01 2.687196159362792969e+01 2.315837740898132324e-01 8.663231879472732544e-02 9.546482563018798828e-02 -1.769311726093292236e-01
2.893000000000000000e+03 3.344301223754882812e+01 2.407135391235351562e+01 3.316728174686431885e-01 3.499140739440917969e+00 1.149244070053100586e+00 -7.054615616798400879e-01
2.894000000000000000e+03 3.512010574340820312e+01 3.278006362915039062e+01 -6.352663040161132812e-01 3.310637235641479492e+00 8.026112914085388184e-01 -3.722388744354248047e-01
2.895000000000000000e+03 1.272371292114257812e+01 2.434972000122070312e+01 3.017561435699462891e-01 -4.262770712375640869e-01 -3.735627979040145874e-02 -3.368885442614555359e-02
2.896000000000000000e+03 4.343391418457031250e+01 -1.630530548095703125e+01 -3.330448269844055176e-01 4.287397384643554688e+00 1.186305761337280273e+00 -2.976012945175170898e+00
2.897000000000000000e+03 4.640192794799804688e+01 -1.563744735717773438e+01 -2.114554643630981445e+00 8.421636581420898438e+00 1.892124533653259277e+00 -2.202435493469238281e+00
2.898000000000000000e+03 4.654967117309570312e+01 -1.437649440765380859e+01 -2.313541412353515625e+00 7.569699287414550781e+00 1.576847434043884277e+00 -1.651781678199768066e+00
2.899000000000000000e+03 4.712912368774414062e+01 -1.447218799591064453e+01 -2.435646533966064453e+00 7.790271759033203125e+00 1.606387495994567871e+00 -1.307807683944702148e+00
2.900000000000000000e+03 4.519708251953125000e+01 -1.534255504608154297e+01 -1.615007996559143066e+00 6.990058422088623047e+00 1.612515091896057129e+00 -2.790346384048461914e+00
2.901000000000000000e+03 3.258895111083984375e+01 -8.295374870300292969e+00 -8.222396969795227051e-01 1.286167979240417480e+00 1.391784995794296265e-01 3.810538351535797119e-01
2.902000000000000000e+03 3.294660186767578125e+01 -7.452569007873535156e+00 -7.517386674880981445e-01 1.507657051086425781e+00 2.267755270004272461e-01 2.611278593540191650e-01
2.903000000000000000e+03 4.811470413208007812e+01 -2.620049285888671875e+01 -1.125939413905143738e-01 7.449794769287109375e+00 2.201160192489624023e+00 -7.114548683166503906e-01
2.904000000000000000e+03 4.153985214233398438e+01 -1.427265548706054688e+01 -8.107725381851196289e-01 3.156701087951660156e+00 7.037785649299621582e-01 -2.001827478408813477e+00
2.905000000000000000e+03 4.280440139770507812e+01 -1.460141944885253906e+01 -9.407346248626708984e-01 4.180941581726074219e+00 9.720621705055236816e-01 -2.427574396133422852e+00
2.906000000000000000e+03 4.343152236938476562e+01 -1.572434234619140625e+01 -6.826960444450378418e-01 4.544566154479980469e+00 1.158560991287231445e+00 -2.873866558074951172e+00
2.907000000000000000e+03 3.674196243286132812e+01 -7.499821186065673828e+00 -5.695647001266479492e-01 2.595080375671386719e+00 6.076546907424926758e-01 -4.865925312042236328e-01
2.908000000000000000e+03 4.339907455444335938e+01 -1.451624679565429688e+01 -1.127114772796630859e+00 4.804597854614257812e+00 1.103244900703430176e+00 -2.531311035156250000e+00
2.909000000000000000e+03 4.341990280151367188e+01 -1.513674926757812500e+01 -8.998402357101440430e-01 4.716215133666992188e+00 1.144912481307983398e+00 -2.730170726776123047e+00
2.910000000000000000e+03 3.236662292480468750e+01 -7.205795764923095703e+00 -7.856019735336303711e-01 1.409488320350646973e+00 1.871659159660339355e-01 3.360105156898498535e-01
2.911000000000000000e+03 4.588428878784179688e+01 -1.488364028930664062e+01 -2.051434993743896484e+00 7.470082283020019531e+00 1.625594258308410645e+00 -2.242792367935180664e+00
2.912000000000000000e+03 4.528480148315429688e+01 -1.472439002990722656e+01 -1.779669642448425293e+00 6.863941669464111328e+00 1.525281548500061035e+00 -2.487849950790405273e+00
2.913000000000000000e+03 3.355979919433593750e+01 -9.680245399475097656e+00 -8.359593152999877930e-01 1.233379364013671875e+00 1.192260235548019409e-01 3.059478700160980225e-01
2.914000000000000000e+03 2.144619560241699219e+01 5.101690292358398438e+00 3.745473027229309082e-01 -5.510811209678649902e-01 -5.296014994382858276e-02 3.722742497920989990e-01
2.915000000000000000e+03 3.541550064086914062e+01 -9.119133949279785156e+00 -6.890110373497009277e-01 1.827131271362304688e+00 3.414360880851745605e-01 -1.364378184080123901e-01
2.916000000000000000e+03 3.756116104125976562e+01 -5.517916202545166016e+00 -4.008871912956237793e-01 3.283944368362426758e+00 8.649171590805053711e-01 -7.185242772102355957e-01
2.917000000000000000e+03 4.412577819824218750e+01 -1.311033344268798828e+01 -1.487868666648864746e+00 5.498187541961669922e+00 1.203095674514770508e+00 -2.088328361511230469e+00
2.918000000000000000e+03 2.948412895202636719e+01 -3.853364467620849609e+00 -6.872788667678833008e-01 1.010301232337951660e+00 9.690672904253005981e-02 4.243682622909545898e-01
2.919000000000000000e+03 3.009994888305664062e+01 -3.282720088958740234e+00 -5.515802502632141113e-01 1.261362791061401367e+00 2.129347622394561768e-01 3.191885054111480713e-01
2.920000000000000000e+03 3.182745170593261719e+01 -5.767281532287597656e+00 -6.983661651611328125e-01 1.480861067771911621e+00 2.347484976053237915e-01 3.135230541229248047e-01
2.921000000000000000e+03 4.142316436767578125e+01 -1.009816932678222656e+01 -8.286786675453186035e-01 3.915724515914916992e+00 9.261137247085571289e-01 -1.497093677520751953e+00
2.922000000000000000e+03 4.097454452514648438e+01 -1.247925186157226562e+01 -8.632226586341857910e-01 3.234410047531127930e+00 7.113562226295471191e-01 -1.708440661430358887e+00
2.923000000000000000e+03 2.757516098022460938e+01 1.116261556744575500e-01 -1.537508815526962280e-01 7.203041315078735352e-01 1.699659824371337891e-01 2.580908238887786865e-01
2.924000000000000000e+03 2.697607421875000000e+01 7.677657604217529297e-01 -6.384628266096115112e-02 5.735704302787780762e-01 1.529172360897064209e-01 2.504909932613372803e-01
2.925000000000000000e+03 4.172531127929687500e+01 -1.250808048248291016e+01 -9.639879465103149414e-01 3.718681812286376953e+00 8.264081478118896484e-01 -1.841252565383911133e+00
2.926000000000000000e+03 4.252512359619140625e+01 -1.240125560760498047e+01 -1.104086756706237793e+00 4.314713001251220703e+00 9.631879329681396484e-01 -1.942553281784057617e+00
2.927000000000000000e+03 4.119553756713867188e+01 -1.369429779052734375e+01 -8.298981785774230957e-01 3.061967372894287109e+00 6.696207523345947266e-01 -1.878752708435058594e+00
2.928000000000000000e+03 3.934901809692382812e+01 -1.242463397979736328e+01 -7.513404488563537598e-01 2.306486368179321289e+00 4.665437638759613037e-01 -1.183302879333496094e+00
2.929000000000000000e+03 3.723801422119140625e+01 -6.856444358825683594e+00 -5.035020112991333008e-01 2.928992748260498047e+00 7.276472449302673340e-01 -6.320263743400573730e-01
2.930000000000000000e+03 3.058097267150878906e+01 -3.927929878234863281e+00 -6.156662702560424805e-01 1.340899705886840820e+00 2.175700217485427856e-01 3.116412758827209473e-01
2.931000000000000000e+03 2.443115425109863281e+01 2.667429685592651367e+00 1.452224403619766235e-01 -3.427438810467720032e-02 3.328441455960273743e-02 2.949114143848419189e-01
2.932000000000000000e+03 2.072550582885742188e+01 5.702995300292968750e+00 4.164638817310333252e-01 -6.276752948760986328e-01 -6.336341798305511475e-02 4.058209657669067383e-01
2.933000000000000000e+03 2.167708396911621094e+01 3.870454072952270508e+00 1.909845471382141113e-01 -6.029185652732849121e-01 -1.235802024602890015e-01 4.416487216949462891e-01
2.934000000000000000e+03 2.913635063171386719e+01 -1.929196000099182129e+00 -4.132165312767028809e-01 1.073269128799438477e+00 1.980157643556594849e-01 2.918703556060791016e-01
2.935000000000000000e+03 2.801364326477050781e+01 -1.807015657424926758e+00 -4.841167628765106201e-01 7.155190706253051758e-01 6.942068785429000854e-02 3.714030086994171143e-01
2.936000000000000000e+03 2.311935615539550781e+01 4.188653469085693359e+00 3.381674289703369141e-01 -2.417098730802536011e-01 2.893726155161857605e-02 2.919963002204895020e-01
2.937000000000000000e+03 2.223213958740234375e+01 4.613447666168212891e+00 3.609676659107208252e-01 -4.188041985034942627e-01 -1.735096052289009094e-02 3.432700037956237793e-01
2.938000000000000000e+03 3.389457321166992188e+01 -8.755587577819824219e+00 -7.570575475692749023e-01 1.508035302162170410e+00 2.252933382987976074e-01 1.758149862289428711e-01
2.939000000000000000e+03 3.513673782348632812e+01 -1.002908706665039062e+01 -7.524781227111816406e-01 1.527743577957153320e+00 2.325796335935592651e-01 -2.288017049431800842e-02
2.940000000000000000e+03 3.599876022338867188e+01 -1.018424320220947266e+01 -7.160063982009887695e-01 1.716119527816772461e+00 3.000339269638061523e-01 -2.300788015127182007e-01
2.941000000000000000e+03 1.242743873596191406e+01 1.146439743041992188e+01 4.378313720226287842e-01 -9.061740636825561523e-01 -1.405028104782104492e-01 6.285268068313598633e-01
2.942000000000000000e+03 4.158332061767578125e+01 -1.088625621795654297e+01 -9.141291379928588867e-01 3.901535511016845703e+00 8.962218761444091797e-01 -1.595099806785583496e+00
2.943000000000000000e+03 1.713015174865722656e+01 7.859575271606445312e+00 4.854201078414916992e-01 -9.076348543167114258e-01 -1.266644299030303955e-01 5.719149708747863770e-01
2.944000000000000000e+03 1.571586990356445312e+01 9.172269821166992188e+00 5.226356387138366699e-01 -8.978779911994934082e-01 -1.125727146863937378e-01 5.894929766654968262e-01
2.945000000000000000e+03 1.862670326232910156e+01 7.867341995239257812e+00 5.747454762458801270e-01 -7.629052996635437012e-01 -5.644794553518295288e-02 4.495041668415069580e-01
2.946000000000000000e+03 3.269739532470703125e+01 -6.526225566864013672e+00 -7.170757055282592773e-01 1.575309991836547852e+00 2.574702799320220947e-01 2.312877029180526733e-01
2.947000000000000000e+03 3.143551254272460938e+01 -5.204445362091064453e+00 -6.761245131492614746e-01 1.425927758216857910e+00 2.249409705400466919e-01 3.096399605274200439e-01
2.948000000000000000e+03 3.788583755493164062e+01 -1.036419486999511719e+01 -6.861109137535095215e-01 2.311603546142578125e+00 4.876478016376495361e-01 -7.296980023384094238e-01
2.949000000000000000e+03 2.864988517761230469e+01 -1.240727663040161133e+00 -3.299945294857025146e-01 9.652045369148254395e-01 1.905630081892013550e-01 2.793709933757781982e-01
2.950000000000000000e+03 1.032681941986083984e+01 1.058815670013427734e+01 2.840530276298522949e-01 -9.457017779350280762e-01 -1.984946280717849731e-01 7.206990122795104980e-01
2.951000000000000000e+03 1.170296669006347656e+01 9.630051612854003906e+00 3.021254241466522217e-01 -9.708952307701110840e-01 -2.006309479475021362e-01 7.577825784683227539e-01
2.952000000000000000e+03 3.597947692871093750e+01 -2.295058250427246094e+00 -1.118196845054626465e-01 3.333780288696289062e+00 9.665881991386413574e-01 -5.030046105384826660e-01
2.953000000000000000e+03 3.610627365112304688e+01 -4.779135704040527344e+00 -3.818250298500061035e-01 2.959235906600952148e+00 7.732232213020324707e-01 -4.636145234107971191e-01
2.954000000000000000e+03 2.813221168518066406e+01 -5.577257871627807617e-01 -2.471219748258590698e-01 8.523512482643127441e-01 1.815687865018844604e-01 2.637725472450256348e-01
2.955000000000000000e+03 2.995123291015625000e+01 -4.523845195770263672e+00 -7.372727990150451660e-01 1.074825406074523926e+00 1.012657806277275085e-01 4.322070181369781494e-01
2.956000000000000000e+03 1.640695762634277344e+01 8.507218360900878906e+00 5.046295523643493652e-01 -9.128521680831909180e-01 -1.224667727947235107e-01 5.853121280670166016e-01
2.957000000000000000e+03 2.485766792297363281e+01 1.781138181686401367e+00 -2.278826758265495300e-02 1.306196488440036774e-02 -2.917890902608633041e-03 3.215874135494232178e-01
2.958000000000000000e+03 1.386680984497070312e+01 1.150265407562255859e+01 5.371130108833312988e-01 -8.577213883399963379e-01 -9.618250280618667603e-02 5.640379786491394043e-01
2.959000000000000000e+03 3.210165405273437500e+01 -4.665966510772705078e+00 -5.698497891426086426e-01 1.707437396049499512e+00 3.412762880325317383e-01 1.899117827415466309e-01
2.960000000000000000e+03 4.845258331298828125e+01 -2.551003074645996094e+01 -7.451245188713073730e-02 8.121526718139648438e+00 2.414104223251342773e+00 -1.229150414466857910e+00
2.961000000000000000e+03 1.243431663513183594e+01 1.012930774688720703e+01 3.733947277069091797e-01 -9.568105340003967285e-01 -1.750247329473495483e-01 7.143341302871704102e-01
2.962000000000000000e+03 3.944790649414062500e+01 -9.792346954345703125e+00 -6.793628334999084473e-01 3.102060079574584961e+00 7.268092036247253418e-01 -1.152740001678466797e+00
2.963000000000000000e+03 3.872375869750976562e+01 -1.006602859497070312e+01 -6.689900159835815430e-01 2.686213493347167969e+00 6.051670312881469727e-01 -9.611220955848693848e-01
2.964000000000000000e+03 1.468685436248779297e+01 1.788127326965332031e+01 5.986968278884887695e-01 -4.593204557895660400e-01 4.181290790438652039e-02 1.460403949022293091e-01
2.965000000000000000e+03 1.432057571411132812e+01 1.668179321289062500e+01 6.055747270584106445e-01 -5.412526130676269531e-01 1.929663866758346558e-02 2.261246591806411743e-01
2.966000000000000000e+03 3.194052505493164062e+01 5.553455352783203125e+00 1.079865574836730957e+00 2.630736827850341797e+00 1.113180756568908691e+00 -3.292881846427917480e-01
2.967000000000000000e+03 3.448030090332031250e+01 7.883392572402954102e-01 3.017167150974273682e-01 3.194131612777709961e+00 1.048754453659057617e+00 -3.838228285312652588e-01
2.968000000000000000e+03 3.459910964965820312e+01 -2.644804716110229492e-01 1.407565027475357056e-01 3.143154621124267578e+00 9.851733446121215820e-01 -3.518736064434051514e-01
2.969000000000000000e+03 1.086818218231201172e+01 1.111481475830078125e+01 3.385148644447326660e-01 -9.391127228736877441e-01 -1.801793575286865234e-01 6.837416887283325195e-01
2.970000000000000000e+03 3.879518508911132812e+01 -8.227146148681640625e+00 -5.952879786491394043e-01 3.130033731460571289e+00 7.604237198829650879e-01 -9.402832388877868652e-01
2.971000000000000000e+03 3.919738006591796875e+01 -9.005471229553222656e+00 -6.260507106781005859e-01 3.137754201889038086e+00 7.535110712051391602e-01 -1.069794774055480957e+00
2.972000000000000000e+03 3.124911880493164062e+01 -3.301575422286987305e+00 -4.708025157451629639e-01 1.612441420555114746e+00 3.424916863441467285e-01 1.842544376850128174e-01
2.973000000000000000e+03 1.454220962524414062e+01 1.069314193725585938e+01 5.387427806854248047e-01 -8.716790676116943359e-01 -9.988088160753250122e-02 5.745576620101928711e-01
2.974000000000000000e+03 3.102037811279296875e+01 9.783596992492675781e+00 1.474849939346313477e+00 2.488629817962646484e+00 1.189043879508972168e+00 -5.436457991600036621e-01
2.975000000000000000e+03 1.330951118469238281e+01 1.574918746948242188e+01 5.662152767181396484e-01 -6.868448257446289062e-01 -3.618884831666946411e-02 3.295494914054870605e-01
2.976000000000000000e+03 1.253487110137939453e+01 1.670005416870117188e+01 5.037219524383544922e-01 -7.016401886940002441e-01 -5.937546119093894958e-02 3.037264049053192139e-01
2.977000000000000000e+03 2.912201118469238281e+01 8.949438095092773438e+00 1.297150850296020508e+00 1.753573060035705566e+00 9.152171611785888672e-01 -3.820828497409820557e-01
2.978000000000000000e+03 3.114564514160156250e+01 1.843711090087890625e+01 1.057464241981506348e+00 2.911148309707641602e+00 1.190583705902099609e+00 -8.562438488006591797e-01
2.979000000000000000e+03 2.940533447265625000e+01 1.873774337768554688e+01 1.020943403244018555e+00 2.351687192916870117e+00 1.011789202690124512e+00 -7.944827079772949219e-01
2.980000000000000000e+03 3.021442413330078125e+01 1.188508796691894531e+01 1.491134643554687500e+00 2.320364475250244141e+00 1.143449783325195312e+00 -6.360089778900146484e-01
2.981000000000000000e+03 3.088801383972167969e+01 1.335079002380371094e+01 1.498726367950439453e+00 2.644943475723266602e+00 1.243101000785827637e+00 -7.487070560455322266e-01
2.982000000000000000e+03 1.350548171997070312e+01 2.054972839355468750e+01 4.669497311115264893e-01 -4.531462788581848145e-01 4.141029901802539825e-03 7.692621648311614990e-02
2.983000000000000000e+03 4.455475616455078125e+01 -1.582172107696533203e+01 -1.026943802833557129e+00 6.128628253936767578e+00 1.530505418777465820e+00 -3.155142784118652344e+00
2.984000000000000000e+03 4.402870559692382812e+01 -1.451837921142578125e+01 -1.306718945503234863e+00 5.498690605163574219e+00 1.257591485977172852e+00 -2.595467090606689453e+00
2.985000000000000000e+03 3.890055847167968750e+01 -1.133632183074951172e+01 -7.216157317161560059e-01 2.462024688720703125e+00 5.221227407455444336e-01 -1.017724633216857910e+00
2.986000000000000000e+03 4.005604171752929688e+01 -1.090446090698242188e+01 -7.487704753875732422e-01 3.096541881561279297e+00 7.043313980102539062e-01 -1.327788949012756348e+00
2.987000000000000000e+03 4.542907333374023438e+01 -1.408108997344970703e+01 -1.969102263450622559e+00 6.783823013305664062e+00 1.444416165351867676e+00 -2.141857385635375977e+00
2.988000000000000000e+03 3.677407836914062500e+01 -6.104769706726074219e+00 -4.850638210773468018e-01 2.920537710189819336e+00 7.306421399116516113e-01 -5.494002699851989746e-01
2.989000000000000000e+03 3.448570632934570312e+01 -6.970283031463623047e+00 -6.253432631492614746e-01 2.044433116912841797e+00 4.257269203662872314e-01 -4.192804917693138123e-02
2.990000000000000000e+03 3.224989700317382812e+01 -6.202142715454101562e+00 -7.052214145660400391e-01 1.539809465408325195e+00 2.503764331340789795e-01 2.763087153434753418e-01
2.991000000000000000e+03 3.377394485473632812e+01 -4.432315349578857422e+00 -4.351624250411987305e-01 2.256440401077270508e+00 5.463834404945373535e-01 -7.939033210277557373e-02
2.992000000000000000e+03 4.334550476074218750e+01 -1.311105537414550781e+01 -1.285000920295715332e+00 4.879053592681884766e+00 1.078215837478637695e+00 -2.145593166351318359e+00
2.993000000000000000e+03 4.184459304809570312e+01 -1.332643318176269531e+01 -9.409092664718627930e-01 3.656909942626953125e+00 8.148001432418823242e-01 -1.997949123382568359e+00
2.994000000000000000e+03 3.614453887939453125e+01 -5.674770355224609375e+00 -4.478360414505004883e-01 2.842539548873901367e+00 7.184110879898071289e-01 -4.397017657756805420e-01
2.995000000000000000e+03 3.022601509094238281e+01 -2.083312273025512695e+00 -3.564219772815704346e-01 1.424538373947143555e+00 3.204349279403686523e-01 2.112619429826736450e-01
2.996000000000000000e+03 2.388917160034179688e+01 3.539117097854614258e+00 2.763565182685852051e-01 -1.083898246288299561e-01 5.039000883698463440e-02 2.807188630104064941e-01
2.997000000000000000e+03 2.140644264221191406e+01 6.316773891448974609e+00 5.517865419387817383e-01 -4.571545124053955078e-01 2.838961407542228699e-02 3.057305216789245605e-01
2.998000000000000000e+03 4.168385696411132812e+01 -1.167675685882568359e+01 -9.480100870132446289e-01 3.845522880554199219e+00 8.692538142204284668e-01 -1.705331206321716309e+00
2.999000000000000000e+03 2.961369323730468750e+01 -2.613863468170166016e+00 -4.732925295829772949e-01 1.171422123908996582e+00 2.094388753175735474e-01 3.056488633155822754e-01
3.000000000000000000e+03 1.130451202392578125e+01 1.040290737152099609e+01 3.288043439388275146e-01 -9.478348493576049805e-01 -1.857091486454010010e-01 7.235453724861145020e-01
3.001000000000000000e+03 2.002462387084960938e+01 6.381890296936035156e+00 4.824569225311279297e-01 -6.892411708831787109e-01 -6.203527376055717468e-02 4.255719482898712158e-01
3.002000000000000000e+03 3.321081924438476562e+01 -6.639428615570068359e+00 -6.772844195365905762e-01 1.734240412712097168e+00 3.170867860317230225e-01 1.466858834028244019e-01
3.003000000000000000e+03 2.196027183532714844e+01 5.713471412658691406e+00 4.902150630950927734e-01 -4.002870917320251465e-01 2.697839029133319855e-02 2.990178167819976807e-01
3.004000000000000000e+03 2.570538139343261719e+01 2.207105159759521484e+00 1.208645999431610107e-01 2.847205698490142822e-01 1.216755509376525879e-01 2.378975898027420044e-01
3.005000000000000000e+03 2.525858688354492188e+01 3.128747224807739258e+00 2.716405987739562988e-01 2.058577984571456909e-01 1.432495266199111938e-01 2.061082869768142700e-01
3.006000000000000000e+03 3.420584869384765625e+01 -7.849971294403076172e+00 -6.985029578208923340e-01 1.765812516212463379e+00 3.201928734779357910e-01 5.565460398793220520e-02
3.007000000000000000e+03 3.971179962158203125e+01 -1.168602180480957031e+01 -7.642895579338073730e-01 2.722880125045776367e+00 5.875772237777709961e-01 -1.284934282302856445e+00
3.008000000000000000e+03 1.511622333526611328e+01 9.903891563415527344e+00 5.332766175270080566e-01 -8.827586770057678223e-01 -1.048446148633956909e-01 5.900080204010009766e-01
3.009000000000000000e+03 4.079138946533203125e+01 -1.104643821716308594e+01 -8.188053965568542480e-01 3.433483839035034180e+00 7.844035625457763672e-01 -1.502697706222534180e+00
3.010000000000000000e+03 2.352919960021972656e+01 5.229836940765380859e+00 5.282729268074035645e-01 -6.711406260728836060e-02 1.383476704359054565e-01 2.019219100475311279e-01
3.011000000000000000e+03 2.261191177368164062e+01 5.367946147918701172e+00 4.845575988292694092e-01 -3.008040189743041992e-01 5.512607470154762268e-02 2.633277177810668945e-01
3.012000000000000000e+03 3.569834136962890625e+01 -3.794464111328125000e+00 -3.027181923389434814e-01 2.992274045944213867e+00 8.068667054176330566e-01 -4.108301699161529541e-01
3.013000000000000000e+03 3.382939910888671875e+01 -6.727656841278076172e+00 -6.479666233062744141e-01 1.861170649528503418e+00 3.639611899852752686e-01 6.160416826605796814e-02
3.014000000000000000e+03 3.246792221069335938e+01 2.086476564407348633e+00 4.758517146110534668e-01 2.591442823410034180e+00 9.201883673667907715e-01 -2.145322710275650024e-01
3.015000000000000000e+03 3.751103973388671875e+01 -7.618582725524902344e+00 -5.567454099655151367e-01 2.847995758056640625e+00 6.873750686645507812e-01 -6.801180243492126465e-01
3.016000000000000000e+03 3.649840927124023438e+01 -8.372191429138183594e+00 -6.165152788162231445e-01 2.339545249938964844e+00 5.169090032577514648e-01 -4.214804172515869141e-01
3.017000000000000000e+03 3.290066909790039062e+01 -5.136165618896484375e+00 -5.743611454963684082e-01 1.894432425498962402e+00 3.960213661193847656e-01 9.546753019094467163e-02
3.018000000000000000e+03 3.266090774536132812e+01 -5.683683872222900391e+00 -6.300171613693237305e-01 1.736756920814514160e+00 3.320219218730926514e-01 1.585895121097564697e-01
3.019000000000000000e+03 1.946603965759277344e+01 8.617721557617187500e+00 6.973500847816467285e-01 -5.878235697746276855e-01 3.285795450210571289e-02 3.330032825469970703e-01
3.020000000000000000e+03 1.712551689147949219e+01 9.220754623413085938e+00 6.081005334854125977e-01 -8.031926155090332031e-01 -5.852762609720230103e-02 4.914591312408447266e-01
3.021000000000000000e+03 3.529672622680664062e+01 -1.276423096656799316e+00 -1.619910239242017269e-03 3.245023727416992188e+00 9.730211496353149414e-01 -4.267550706863403320e-01
3.022000000000000000e+03 1.515825939178466797e+01 1.584834384918212891e+01 6.630192995071411133e-01 -5.140286087989807129e-01 4.469720646739006042e-02 2.223345935344696045e-01
3.023000000000000000e+03 3.230328369140625000e+01 -7.294213771820068359e-01 -4.585323855280876160e-03 2.265720367431640625e+00 6.783405542373657227e-01 -8.061095327138900757e-02
3.024000000000000000e+03 3.347516250610351562e+01 1.291917681694030762e+00 3.713738024234771729e-01 2.908782005310058594e+00 9.840467572212219238e-01 -2.744166553020477295e-01
3.025000000000000000e+03 1.788166618347167969e+01 8.573138236999511719e+00 5.956534743309020996e-01 -7.765882015228271484e-01 -5.428042262792587280e-02 4.709832072257995605e-01
3.026000000000000000e+03 3.107662773132324219e+01 6.430741786956787109e+00 1.141990065574645996e+00 2.344572067260742188e+00 1.045968651771545410e+00 -3.331109285354614258e-01
3.027000000000000000e+03 2.697164535522460938e+01 1.982281565666198730e+00 1.666911542415618896e-01 6.547197699546813965e-01 2.464232742786407471e-01 1.679468154907226562e-01
3.028000000000000000e+03 2.644329452514648438e+01 2.668878078460693359e+00 2.624936401844024658e-01 5.415247678756713867e-01 2.412055283784866333e-01 1.584889143705368042e-01
3.029000000000000000e+03 2.630504608154296875e+01 1.426125884056091309e+00 1.673582568764686584e-02 4.037716984748840332e-01 1.261522471904754639e-01 2.528880834579467773e-01
3.030000000000000000e+03 3.306627655029296875e+01 3.143751382827758789e+00 6.944841742515563965e-01 2.919585466384887695e+00 1.084220886230468750e+00 -3.097198307514190674e-01
3.031000000000000000e+03 1.215922832489013672e+01 1.317020416259765625e+01 4.745568037033081055e-01 -8.574864864349365234e-01 -1.148788928985595703e-01 5.345588326454162598e-01
3.032000000000000000e+03 3.291896820068359375e+01 -4.304780006408691406e+00 -4.716676175594329834e-01 2.033880233764648438e+00 4.686637818813323975e-01 4.202199727296829224e-02
3.033000000000000000e+03 3.212878799438476562e+01 3.852258443832397461e+00 7.951582074165344238e-01 2.615019798278808594e+00 1.023053407669067383e+00 -2.595212161540985107e-01
3.034000000000000000e+03 2.989585113525390625e+01 7.101161003112792969e+00 1.168719053268432617e+00 1.933711409568786621e+00 9.307291507720947266e-01 -3.088399469852447510e-01
3.035000000000000000e+03 1.423089885711669922e+01 1.923477745056152344e+01 5.504049658775329590e-01 -4.386290013790130615e-01 3.353277966380119324e-02 9.699871391057968140e-02
3.036000000000000000e+03 2.964920425415039062e+01 1.039415073394775391e+01 1.407649755477905273e+00 2.019947528839111328e+00 1.028279185295104980e+00 -4.969605207443237305e-01
3.037000000000000000e+03 3.219205093383789062e+01 -1.675988316535949707e+00 -1.858114451169967651e-01 2.082605123519897461e+00 5.690380930900573730e-01 -2.647784166038036346e-02
3.038000000000000000e+03 2.979208183288574219e+01 -1.393083095550537109e+00 -2.706964015960693359e-01 1.330004572868347168e+00 3.177924454212188721e-01 1.991523206233978271e-01
3.039000000000000000e+03 3.735391235351562500e+01 -8.504760742187500000e+00 -6.113793849945068359e-01 2.617717266082763672e+00 6.019014120101928711e-01 -6.307362914085388184e-01
3.040000000000000000e+03 3.707595062255859375e+01 -9.417488098144531250e+00 -6.494112610816955566e-01 2.274972438812255859e+00 4.876683950424194336e-01 -5.506486296653747559e-01
3.041000000000000000e+03 1.373580551147460938e+01 9.991274833679199219e+00 4.489756226539611816e-01 -9.381759762763977051e-01 -1.467601060867309570e-01 6.631498336791992188e-01
3.042000000000000000e+03 1.310298919677734375e+01 1.400667762756347656e+01 5.507512688636779785e-01 -7.776939868927001953e-01 -6.808281689882278442e-02 4.409899413585662842e-01
3.043000000000000000e+03 2.867502021789550781e+01 2.443027877807617188e+01 4.158546626567840576e-01 2.358263254165649414e+00 8.322353959083557129e-01 -7.485226988792419434e-01
3.044000000000000000e+03 2.772926902770996094e+01 2.195792579650878906e+01 7.077281475067138672e-01 2.053446769714355469e+00 8.283525109291076660e-01 -7.439648509025573730e-01
3.045000000000000000e+03 2.940693664550781250e+01 1.419601917266845703e+01 1.406866908073425293e+00 2.156006097793579102e+00 1.068861961364746094e+00 -7.095649242401123047e-01
3.046000000000000000e+03 2.818108367919921875e+01 1.501814842224121094e+01 1.313350915908813477e+00 1.876334905624389648e+00 9.569057822227478027e-01 -6.662575602531433105e-01
3.047000000000000000e+03 4.459788513183593750e+01 -1.522545814514160156e+01 -1.317957639694213867e+00 6.191522121429443359e+00 1.462069272994995117e+00 -2.890629529953002930e+00
3.048000000000000000e+03 4.406928634643554688e+01 -1.383778095245361328e+01 -1.468300104141235352e+00 5.521236896514892578e+00 1.215880990028381348e+00 -2.344341278076171875e+00
3.049000000000000000e+03 4.336597824096679688e+01 -1.384321880340576172e+01 -1.216319203376770020e+00 4.875111103057861328e+00 1.097637534141540527e+00 -2.336559534072875977e+00
3.050000000000000000e+03 3.417383193969726562e+01 -5.782734394073486328e+00 -5.494903922080993652e-01 2.155869007110595703e+00 4.819136261940002441e-01 -6.169963628053665161e-02
3.051000000000000000e+03 3.927930831909179688e+01 -1.055394363403320312e+01 -7.144895792007446289e-01 2.822767972946166992e+00 6.324834823608398438e-01 -1.116461038589477539e+00
3.052000000000000000e+03 1.642061805725097656e+01 9.809115409851074219e+00 6.099466681480407715e-01 -8.203121423721313477e-01 -6.310962885618209839e-02 5.048962235450744629e-01
3.053000000000000000e+03 3.523458480834960938e+01 -4.978680610656738281e+00 -4.335466623306274414e-01 2.630881786346435547e+00 6.592005491256713867e-01 -2.932165563106536865e-01
3.054000000000000000e+03 3.123812484741210938e+01 -2.147504329681396484e+00 -3.174997270107269287e-01 1.737126946449279785e+00 4.258881807327270508e-01 9.648235887289047241e-02
3.055000000000000000e+03 3.462754440307617188e+01 -8.946994781494140625e+00 -7.312591075897216797e-01 1.649797081947326660e+00 2.755613923072814941e-01 3.036117367446422577e-02
3.056000000000000000e+03 3.624312973022460938e+01 -9.276389122009277344e+00 -6.593355536460876465e-01 2.029094934463500977e+00 4.109278321266174316e-01 -3.426931500434875488e-01
3.057000000000000000e+03 1.193716239929199219e+01 1.083189582824707031e+01 3.819378018379211426e-01 -9.432929754257202148e-01 -1.684065610170364380e-01 6.845448017120361328e-01
3.058000000000000000e+03 2.255634689331054688e+01 7.938888072967529297e+00 8.164101243019104004e-01 -9.381628781557083130e-02 2.167781591415405273e-01 1.200075447559356689e-01
3.059000000000000000e+03 3.174157142639160156e+01 -3.949834585189819336e+00 -5.345999598503112793e-01 1.659809589385986328e+00 3.375628888607025146e-01 1.756432503461837769e-01
3.060000000000000000e+03 3.283049392700195312e+01 2.014617919921875000e-01 1.621563881635665894e-01 2.545794248580932617e+00 8.123852014541625977e-01 -1.717440038919448853e-01
3.061000000000000000e+03 2.607719612121582031e+01 3.475748538970947266e+00 3.799900710582733154e-01 4.808212220668792725e-01 2.582433819770812988e-01 1.273529678583145142e-01
3.062000000000000000e+03 3.518363571166992188e+01 -7.176702499389648438e+00 -6.087110042572021484e-01 2.206455707550048828e+00 4.793233871459960938e-01 -1.964249461889266968e-01
3.063000000000000000e+03 3.081955146789550781e+01 -1.636606454849243164e+00 -2.453771829605102539e-01 1.683913707733154297e+00 4.315609633922576904e-01 1.324016451835632324e-01
3.064000000000000000e+03 2.466127777099609375e+01 5.289481639862060547e+00 5.981997251510620117e-01 1.984260678291320801e-01 2.389877289533615112e-01 1.214809119701385498e-01
3.065000000000000000e+03 3.783658599853515625e+01 -9.514592170715332031e+00 -6.682794094085693359e-01 2.496942996978759766e+00 5.485990643501281738e-01 -6.982418298721313477e-01
3.066000000000000000e+03 3.308930206298828125e+01 -6.028104782104492188e+00 -6.165373921394348145e-01 1.790935754776000977e+00 3.523195087909698486e-01 1.193330958485603333e-01
3.067000000000000000e+03 4.267095565795898438e+01 -1.394750881195068359e+01 -1.033169746398925781e+00 4.205797195434570312e+00 9.517881870269775391e-01 -2.268137454986572266e+00
3.068000000000000000e+03 3.510675811767578125e+01 -2.862262964248657227e+00 -2.086575031280517578e-01 2.950117826461791992e+00 8.224380612373352051e-01 -3.614115118980407715e-01
3.069000000000000000e+03 2.886263847351074219e+01 1.337894439697265625e+00 1.685066968202590942e-01 1.231946110725402832e+00 4.201358258724212646e-01 8.855304121971130371e-02
3.070000000000000000e+03 2.933162117004394531e+01 -6.790801882743835449e-01 -1.858804523944854736e-01 1.237743377685546875e+00 3.155588805675506592e-01 1.845946460962295532e-01
3.071000000000000000e+03 3.375003814697265625e+01 -8.016967177391052246e-01 4.101793467998504639e-02 2.767831563949584961e+00 8.426548838615417480e-01 -2.540581822395324707e-01
3.072000000000000000e+03 3.180102539062500000e+01 1.118398427963256836e+00 2.788482308387756348e-01 2.263671159744262695e+00 7.627558708190917969e-01 -1.091106534004211426e-01
3.073000000000000000e+03 3.191020965576171875e+01 -2.572200775146484375e+00 -3.062433302402496338e-01 1.924428701400756836e+00 4.854556322097778320e-01 5.853356793522834778e-02
3.074000000000000000e+03 3.036711120605468750e+01 5.328338146209716797e+00 9.347327947616577148e-01 1.985137343406677246e+00 8.759610652923583984e-01 -2.328372001647949219e-01
3.075000000000000000e+03 1.408647060394287109e+01 1.487311840057373047e+01 6.043635010719299316e-01 -6.699599623680114746e-01 -1.967893913388252258e-02 3.485151231288909912e-01
3.076000000000000000e+03 2.865711975097656250e+01 7.597386837005615234e+00 1.142948031425476074e+00 1.548478364944458008e+00 8.074278831481933594e-01 -2.755550146102905273e-01
3.077000000000000000e+03 3.092274665832519531e+01 2.027459144592285156e+00 4.024956524372100830e-01 2.001152515411376953e+00 7.210944890975952148e-01 -9.257575124502182007e-02
3.078000000000000000e+03 2.820291328430175781e+01 1.968726515769958496e+00 2.416500896215438843e-01 1.050336241722106934e+00 3.875959217548370361e-01 9.044776856899261475e-02
3.079000000000000000e+03 1.313211727142333984e+01 1.076962852478027344e+01 4.547140598297119141e-01 -9.168416261672973633e-01 -1.386382579803466797e-01 6.421461105346679688e-01
3.080000000000000000e+03 1.777992820739746094e+01 1.000483894348144531e+01 7.064192891120910645e-01 -6.615976691246032715e-01 1.344648655503988266e-02 3.848809003829956055e-01
3.081000000000000000e+03 3.597486877441406250e+01 -7.296083450317382812e+00 -5.698229074478149414e-01 2.406086683273315430e+00 5.508791208267211914e-01 -3.556995093822479248e-01
3.082000000000000000e+03 3.569560241699218750e+01 -8.210390090942382812e+00 -6.373596191406250000e-01 2.115483283996582031e+00 4.434370696544647217e-01 -2.581427693367004395e-01
3.083000000000000000e+03 2.777918624877929688e+01 9.388691902160644531e+00 1.245718121528625488e+00 1.355713605880737305e+00 7.804294824600219727e-01 -3.307793736457824707e-01
3.084000000000000000e+03 3.443648529052734375e+01 -1.893018841743469238e+00 -9.798850864171981812e-02 2.891729354858398438e+00 8.381222486495971680e-01 -2.988717555999755859e-01
3.085000000000000000e+03 1.864439201354980469e+01 9.352918624877929688e+00 7.148539423942565918e-01 -6.301451325416564941e-01 2.541264332830905914e-02 3.546504378318786621e-01
3.086000000000000000e+03 1.820529747009277344e+01 1.243950176239013672e+01 8.276136517524719238e-01 -4.431744515895843506e-01 1.153317615389823914e-01 2.096810042858123779e-01
3.087000000000000000e+03 2.655721282958984375e+01 1.984195899963378906e+01 9.020853638648986816e-01 1.692692875862121582e+00 7.784335017204284668e-01 -6.906775236129760742e-01
3.088000000000000000e+03 2.771601486206054688e+01 1.820098304748535156e+01 1.057467222213745117e+00 1.896033287048339844e+00 8.860501646995544434e-01 -7.258503437042236328e-01
3.089000000000000000e+03 2.039761543273925781e+01 9.426571846008300781e+00 8.188039660453796387e-01 -3.650570213794708252e-01 1.361240893602371216e-01 2.025546133518218994e-01
3.090000000000000000e+03 2.081052017211914062e+01 7.033540248870849609e+00 6.204152107238769531e-01 -4.942080080509185791e-01 3.786215931177139282e-02 3.214159607887268066e-01
3.091000000000000000e+03 1.644715309143066406e+01 1.663002586364746094e+01 7.188028693199157715e-01 -3.357895612716674805e-01 1.149039864540100098e-01 1.102217584848403931e-01
3.092000000000000000e+03 2.723394203186035156e+01 1.574596977233886719e+01 1.182203769683837891e+00 1.574004650115966797e+00 8.268625140190124512e-01 -6.023576855659484863e-01
3.093000000000000000e+03 2.872374916076660156e+01 1.252125930786132812e+01 1.383528351783752441e+00 1.854946136474609375e+00 9.715423583984375000e-01 -5.754271149635314941e-01
3.094000000000000000e+03 2.455314826965332031e+01 1.006477832794189453e+01 1.117823123931884766e+00 5.503314733505249023e-01 5.004463791847229004e-01 -1.614784449338912964e-01
3.095000000000000000e+03 1.615316390991210938e+01 2.254822731018066406e+01 4.661985039710998535e-01 -4.619309678673744202e-02 1.260016262531280518e-01 -1.208288967609405518e-01
3.096000000000000000e+03 1.478307056427001953e+01 2.148991012573242188e+01 4.759095609188079834e-01 -2.531661093235015869e-01 6.682302802801132202e-02 -2.515747770667076111e-02
3.097000000000000000e+03 3.170141601562500000e+01 2.545132446289062500e+01 2.139673382043838501e-01 3.044808149337768555e+00 9.776326417922973633e-01 -7.161643505096435547e-01
3.098000000000000000e+03 2.880188560485839844e+01 2.667420916259288788e-02 -9.159693121910095215e-02 1.112441658973693848e+00 3.062534034252166748e-01 1.805923581123352051e-01
3.099000000000000000e+03 3.009205627441406250e+01 -1.282578706741333008e-01 -3.936833515763282776e-02 1.525697350502014160e+00 4.458987116813659668e-01 9.134332835674285889e-02
3.100000000000000000e+03 3.537430191040039062e+01 -6.408026218414306641e+00 -5.296975970268249512e-01 2.415302515029907227e+00 5.656815171241760254e-01 -2.653184831142425537e-01
3.101000000000000000e+03 3.355385971069335938e+01 -7.647994518280029297e+00 -7.176069617271423340e-01 1.635039091110229492e+00 2.752296328544616699e-01 1.660759598016738892e-01
3.102000000000000000e+03 4.476749038696289062e+01 -1.391869831085205078e+01 -1.682414531707763672e+00 6.166929721832275391e+00 1.345354437828063965e+00 -2.276373863220214844e+00
3.103000000000000000e+03 2.681600952148437500e+01 3.680163383483886719e+00 4.701610505580902100e-01 7.198256254196166992e-01 3.569959998130798340e-01 6.695414334535598755e-02
3.104000000000000000e+03 2.758639526367187500e+01 1.349170684814453125e+00 8.277054131031036377e-02 8.019029498100280762e-01 2.654020488262176514e-01 1.725141704082489014e-01
3.105000000000000000e+03 3.067221641540527344e+01 3.657772779464721680e+00 6.942393779754638672e-01 2.011231184005737305e+00 8.116411566734313965e-01 -1.530274152755737305e-01
3.106000000000000000e+03 2.485118865966796875e+01 4.125888824462890625e+00 4.311925768852233887e-01 1.709757000207901001e-01 1.806504875421524048e-01 1.719258129596710205e-01
3.107000000000000000e+03 2.258158683776855469e+01 6.093427181243896484e+00 5.924786925315856934e-01 -2.468305379152297974e-01 1.036944463849067688e-01 2.194679081439971924e-01
3.108000000000000000e+03 3.259933090209960938e+01 -3.305033683776855469e+00 -3.751537799835205078e-01 2.046671628952026367e+00 5.014553070068359375e-01 1.837677136063575745e-02
3.109000000000000000e+03 3.144261741638183594e+01 -1.484650969505310059e+00 -1.968312114477157593e-01 1.878293633460998535e+00 5.044386982917785645e-01 4.128562286496162415e-02
3.110000000000000000e+03 3.535206222534179688e+01 -5.725939273834228516e+00 -4.727834761142730713e-01 2.554419994354248047e+00 6.244909763336181641e-01 -2.949289381504058838e-01
3.111000000000000000e+03 3.450785064697265625e+01 -4.889517784118652344e+00 -4.482520520687103271e-01 2.432265043258666992e+00 5.952038764953613281e-01 -1.833879351615905762e-01
3.112000000000000000e+03 3.354077148437500000e+01 -2.594262123107910156e+00 -2.353711128234863281e-01 2.460430145263671875e+00 6.675177216529846191e-01 -1.328875720500946045e-01
3.113000000000000000e+03 3.125225639343261719e+01 4.604614257812500000e+00 8.798525333404541016e-01 2.287451028823852539e+00 9.501910805702209473e-01 -2.266256511211395264e-01
3.114000000000000000e+03 2.462953948974609375e+01 6.572348594665527344e+00 7.876213788986206055e-01 2.911340892314910889e-01 3.236266374588012695e-01 4.270725697278976440e-02
3.115000000000000000e+03 2.347777748107910156e+01 6.354290485382080078e+00 6.965124607086181641e-01 -1.068162498995661736e-03 2.086332887411117554e-01 1.323240399360656738e-01
3.116000000000000000e+03 3.349738311767578125e+01 -5.398012638092041016e+00 -5.748631954193115234e-01 1.996114492416381836e+00 4.263753890991210938e-01 3.385035693645477295e-02
3.117000000000000000e+03 3.428569412231445312e+01 -3.529631137847900391e+00 -3.263646066188812256e-01 2.560912132263183594e+00 6.703642606735229492e-01 -2.070029824972152710e-01
3.118000000000000000e+03 2.682003974914550781e+01 4.483410358428955078e+00 5.984529852867126465e-01 7.731065154075622559e-01 4.114678502082824707e-01 2.008780464529991150e-02
3.119000000000000000e+03 3.137302207946777344e+01 -5.916045904159545898e-01 -1.970472373068332672e-02 1.974338293075561523e+00 5.863900780677795410e-01 6.126565276645123959e-04
3.120000000000000000e+03 3.051812362670898438e+01 -9.204289317131042480e-01 -1.416540145874023438e-01 1.611426353454589844e+00 4.409317076206207275e-01 1.132006794214248657e-01
3.121000000000000000e+03 3.494799041748046875e+01 -4.233182907104492188e+00 -3.562805056571960449e-01 2.672387123107910156e+00 6.948319673538208008e-01 -2.812277972698211670e-01
3.122000000000000000e+03 1.740256309509277344e+01 1.148608112335205078e+01 7.474522590637207031e-01 -6.017568707466125488e-01 4.370860755443572998e-02 3.339321911334991455e-01
3.123000000000000000e+03 3.154340362548828125e+01 2.894203662872314453e+00 5.863478183746337891e-01 2.300687313079833984e+00 8.661105036735534668e-01 -1.661326736211776733e-01
3.124000000000000000e+03 1.597080993652343750e+01 1.052221298217773438e+01 6.256918311119079590e-01 -7.868028283119201660e-01 -4.833328723907470703e-02 4.860576987266540527e-01
3.125000000000000000e+03 1.472037315368652344e+01 1.227134895324707031e+01 6.145008206367492676e-01 -7.621700763702392578e-01 -4.430077224969863892e-02 4.659400582313537598e-01
3.126000000000000000e+03 1.940220260620117188e+01 1.021769809722900391e+01 8.146260976791381836e-01 -4.496445059776306152e-01 1.094944775104522705e-01 2.420141696929931641e-01
3.127000000000000000e+03 1.784993553161621094e+01 1.561295223236083984e+01 8.126274943351745605e-01 -2.324920445680618286e-01 1.740406304597854614e-01 6.354837864637374878e-02
3.128000000000000000e+03 2.018063735961914062e+01 7.821221351623535156e+00 6.704391837120056152e-01 -5.443218946456909180e-01 3.783518075942993164e-02 3.237789273262023926e-01
3.129000000000000000e+03 2.216928863525390625e+01 6.797466278076171875e+00 6.763578057289123535e-01 -2.624450027942657471e-01 1.241738498210906982e-01 2.151572704315185547e-01
3.130000000000000000e+03 1.302413368225097656e+01 1.229796600341796875e+01 5.110942125320434570e-01 -8.581137657165527344e-01 -1.041058599948883057e-01 5.524239540100097656e-01
3.131000000000000000e+03 1.582225513458251953e+01 1.478925800323486328e+01 7.182404398918151855e-01 -5.087990164756774902e-01 6.283242255449295044e-02 2.438454180955886841e-01
3.132000000000000000e+03 1.616302299499511719e+01 1.824904632568359375e+01 6.632297039031982422e-01 -2.657532095909118652e-01 1.192429512739181519e-01 4.192011058330535889e-02
3.133000000000000000e+03 1.390910148620605469e+01 1.313481140136718750e+01 5.816045403480529785e-01 -7.678872346878051758e-01 -5.588481947779655457e-02 4.591755270957946777e-01
3.134000000000000000e+03 3.297922134399414062e+01 -1.507258772850036621e+00 -1.196352094411849976e-01 2.404920339584350586e+00 6.855854988098144531e-01 -1.104294583201408386e-01
3.135000000000000000e+03 2.582892227172851562e+01 5.461074829101562500e+00 6.949445605278015137e-01 5.460681319236755371e-01 3.723038136959075928e-01 2.478994987905025482e-02
3.136000000000000000e+03 2.735073852539062500e+01 7.938696384429931641e+00 1.097605228424072266e+00 1.134446740150451660e+00 6.696156263351440430e-01 -2.174858301877975464e-01
3.137000000000000000e+03 2.829552268981933594e+01 1.089885997772216797e+01 1.355698108673095703e+00 1.603592991828918457e+00 8.877873420715332031e-01 -4.527547955513000488e-01
3.138000000000000000e+03 2.692524719238281250e+01 5.465219020843505859e+00 7.707347869873046875e-01 8.615180850028991699e-01 4.896758496761322021e-01 -4.536101594567298889e-02
3.139000000000000000e+03 2.930682945251464844e+01 3.445000171661376953e+00 5.786914825439453125e-01 1.513202428817749023e+00 6.275681853294372559e-01 -6.525193899869918823e-02
3.140000000000000000e+03 2.396890640258789062e+01 1.370618534088134766e+01 1.133246660232543945e+00 6.493609547615051270e-01 5.347822904586791992e-01 -3.051109313964843750e-01
3.141000000000000000e+03 2.628594207763671875e+01 1.688243103027343750e+01 1.110641241073608398e+00 1.419747233390808105e+00 7.591165304183959961e-01 -5.911611914634704590e-01
3.142000000000000000e+03 1.564988327026367188e+01 1.996250152587890625e+01 5.763593316078186035e-01 -2.247008979320526123e-01 1.054975241422653198e-01 -5.981100723147392273e-03
3.143000000000000000e+03 2.699884223937988281e+01 1.123930931091308594e+01 1.299157619476318359e+00 1.265801310539245605e+00 7.694876790046691895e-01 -4.053196907043457031e-01
3.144000000000000000e+03 2.463397979736328125e+01 7.825725555419921875e+00 9.202403426170349121e-01 3.754687607288360596e-01 3.887127339839935303e-01 -2.693916484713554382e-02
3.145000000000000000e+03 1.563295364379882812e+01 1.307213687896728516e+01 6.853171586990356445e-01 -6.413527131080627441e-01 1.318931952118873596e-02 3.624580204486846924e-01
3.146000000000000000e+03 1.645692443847656250e+01 1.221146297454833984e+01 7.164089679718017578e-01 -6.385459899902343750e-01 2.335889637470245361e-02 3.552844822406768799e-01
3.147000000000000000e+03 2.834907722473144531e+01 1.644823265075683594e+01 1.217242360115051270e+00 1.989684820175170898e+00 9.620781540870666504e-01 -7.336383461952209473e-01
3.148000000000000000e+03 1.775729751586914062e+01 2.367335319519042969e+01 4.558813571929931641e-01 2.713239789009094238e-01 2.181616127490997314e-01 -2.494908422231674194e-01
3.149000000000000000e+03 2.432308387756347656e+01 2.643207740783691406e+01 2.941729724407196045e-01 1.494776964187622070e+00 5.366849899291992188e-01 -5.831453204154968262e-01
3.150000000000000000e+03 2.706710243225097656e+01 3.067338228225708008e+00 3.634124994277954102e-01 7.602967619895935059e-01 3.371127843856811523e-01 9.393548965454101562e-02
3.151000000000000000e+03 2.951407432556152344e+01 6.377847790718078613e-01 8.093116432428359985e-02 1.406858444213867188e+00 4.463368952274322510e-01 8.824446797370910645e-02
3.152000000000000000e+03 3.096993827819824219e+01 4.046719670295715332e-01 1.205531805753707886e-01 1.916055560111999512e+00 6.109826564788818359e-01 -2.162988856434822083e-02
3.153000000000000000e+03 2.587745666503906250e+01 4.401438236236572266e+00 5.415194630622863770e-01 4.851119518280029297e-01 3.079894185066223145e-01 8.532740175724029541e-02
3.154000000000000000e+03 2.588953590393066406e+01 6.660770416259765625e+00 8.730300664901733398e-01 6.420806050300598145e-01 4.545332193374633789e-01 -5.397444218397140503e-02
3.155000000000000000e+03 3.479660034179687500e+01 -6.162073612213134766e+00 -5.401669740676879883e-01 2.290613889694213867e+00 5.251340866088867188e-01 -1.536012291908264160e-01
3.156000000000000000e+03 2.769722366333007812e+01 4.334663867950439453e+00 6.282997727394104004e-01 1.040855050086975098e+00 5.007464289665222168e-01 -2.642051689326763153e-02
3.157000000000000000e+03 1.688721847534179688e+01 1.055784702301025391e+01 6.762629747390747070e-01 -7.148681879043579102e-01 -1.158155966550111771e-02 4.190510213375091553e-01
3.158000000000000000e+03 1.840048408508300781e+01 1.086336421966552734e+01 7.841919660568237305e-01 -5.415230989456176758e-01 7.280066609382629395e-02 2.855172753334045410e-01
3.159000000000000000e+03 2.302432632446289062e+01 7.213623523712158203e+00 7.768085002899169922e-01 -3.002414479851722717e-02 2.240353077650070190e-01 1.184398680925369263e-01
3.160000000000000000e+03 2.348372650146484375e+01 8.927155494689941406e+00 9.787238240242004395e-01 2.099397927522659302e-01 3.565990924835205078e-01 -1.322065107524394989e-02
3.161000000000000000e+03 1.484739875793457031e+01 1.397120380401611328e+01 6.534071564674377441e-01 -6.533419489860534668e-01 1.956694541149772704e-05 3.555697798728942871e-01
3.162000000000000000e+03 1.548338794708251953e+01 1.139653396606445312e+01 6.304271817207336426e-01 -7.646383643150329590e-01 -4.026334732770919800e-02 4.724445641040802002e-01
3.163000000000000000e+03 2.746116447448730469e+01 3.583497047424316406e+00 4.953405559062957764e-01 9.222386479377746582e-01 4.252737760543823242e-01 3.528955951333045959e-02
3.164000000000000000e+03 2.950009536743164062e+01 2.029233694076538086e+00 3.320143520832061768e-01 1.498167872428894043e+00 5.490546822547912598e-01 1.313266460783779621e-03
3.165000000000000000e+03 1.909118270874023438e+01 1.342837333679199219e+01 8.854946494102478027e-01 -2.524668872356414795e-01 1.899083256721496582e-01 9.346195310354232788e-02
3.166000000000000000e+03 2.138406181335449219e+01 1.544204807281494141e+01 9.868481159210205078e-01 2.765169143676757812e-01 3.790095150470733643e-01 -1.891976594924926758e-01
3.167000000000000000e+03 2.088729476928710938e+01 1.111783027648925781e+01 9.301240444183349609e-01 -1.734736561775207520e-01 2.269951254129409790e-01 6.757506728172302246e-02
3.168000000000000000e+03 1.941873168945312500e+01 1.679029083251953125e+01 8.696120381355285645e-01 7.568427175283432007e-02 2.835888862609863281e-01 -1.133123114705085754e-01
3.169000000000000000e+03 1.814793968200683594e+01 2.021212959289550781e+01 6.610926985740661621e-01 1.217448189854621887e-01 2.348512560129165649e-01 -1.712611317634582520e-01
3.170000000000000000e+03 1.696763038635253906e+01 2.100057792663574219e+01 5.895936489105224609e-01 -6.118202582001686096e-03 1.750426441431045532e-01 -1.179461181163787842e-01
3.171000000000000000e+03 3.010029220581054688e+01 2.795584678649902344e+00 5.035844445228576660e-01 1.764768123626708984e+00 6.805057525634765625e-01 -6.863007694482803345e-02
3.172000000000000000e+03 2.809711265563964844e+01 3.189549207687377930e+00 4.592529833316802979e-01 1.097963452339172363e+00 4.671649336814880371e-01 1.994304545223712921e-02
3.173000000000000000e+03 2.891944885253906250e+01 4.877565860748291016e+00 7.820134162902832031e-01 1.466804623603820801e+00 6.746454238891601562e-01 -1.234682500362396240e-01
3.174000000000000000e+03 2.489435768127441406e+01 1.572833251953125000e+01 1.133504867553710938e+00 1.028758883476257324e+00 6.486791372299194336e-01 -4.847093224525451660e-01
3.175000000000000000e+03 2.664516639709472656e+01 9.880379676818847656e+00 1.200378060340881348e+00 1.050949215888977051e+00 6.753981709480285645e-01 -2.929366827011108398e-01
3.176000000000000000e+03 2.165914535522460938e+01 7.570707798004150391e+00 7.439181208610534668e-01 -2.925803661346435547e-01 1.354013234376907349e-01 1.999261230230331421e-01
3.177000000000000000e+03 1.735336303710937500e+01 1.313565731048583984e+01 7.933297157287597656e-01 -4.756366610527038574e-01 9.530791640281677246e-02 2.332254797220230103e-01
3.178000000000000000e+03 2.711048126220703125e+01 6.614279747009277344e+00 9.299430847167968750e-01 9.875242710113525391e-01 5.752401947975158691e-01 -1.248872131109237671e-01
3.179000000000000000e+03 2.937076187133789062e+01 5.925569057464599609e+00 9.736152887344360352e-01 1.700816869735717773e+00 8.023296594619750977e-01 -2.078550904989242554e-01
3.180000000000000000e+03 3.109074783325195312e+01 2.923950195312500000e+01 -1.887157261371612549e-01 2.860921859741210938e+00 8.016617894172668457e-01 -5.938763022422790527e-01
3.181000000000000000e+03 2.545473670959472656e+01 1.421515178680419922e+01 1.210763096809387207e+00 1.038404464721679688e+00 6.747502684593200684e-01 -4.463990032672882080e-01
3.182000000000000000e+03 2.494235420227050781e+01 2.095815849304199219e+01 7.841258049011230469e-01 1.371238470077514648e+00 6.466093063354492188e-01 -6.121159791946411133e-01
3.183000000000000000e+03 2.406915283203125000e+01 1.924079132080078125e+01 9.108712077140808105e-01 1.090333580970764160e+00 6.003614068031311035e-01 -5.272349119186401367e-01
3.184000000000000000e+03 2.658145523071289062e+01 2.555052757263183594e+01 3.520517349243164062e-01 1.916982769966125488e+00 6.807103753089904785e-01 -6.729647517204284668e-01
3.185000000000000000e+03 2.196046638488769531e+01 2.692318344116210938e+01 2.840953171253204346e-01 1.105542659759521484e+00 4.168913960456848145e-01 -4.807214140892028809e-01
3.186000000000000000e+03 2.378142356872558594e+01 2.387165832519531250e+01 5.215606689453125000e-01 1.286263227462768555e+00 5.423471927642822266e-01 -5.678786635398864746e-01
3.187000000000000000e+03 2.851672363281250000e+01 3.968408107757568359e+00 6.249619722366333008e-01 1.286911129951477051e+00 5.735619068145751953e-01 -4.938919842243194580e-02
3.188000000000000000e+03 2.981510543823242188e+01 4.330441474914550781e+00 7.533740997314453125e-01 1.751613855361938477e+00 7.514963746070861816e-01 -1.426205784082412720e-01
3.189000000000000000e+03 2.130072593688964844e+01 1.021020698547363281e+01 9.308345317840576172e-01 -1.597406417131423950e-01 2.313281744718551636e-01 8.895494788885116577e-02
3.190000000000000000e+03 2.228520774841308594e+01 8.851081848144531250e+00 8.864365220069885254e-01 -8.697707206010818481e-02 2.398378252983093262e-01 8.890005946159362793e-02
3.191000000000000000e+03 2.597950363159179688e+01 7.967643737792968750e+00 1.020828962326049805e+00 7.552615404129028320e-01 5.328271389007568359e-01 -1.430292576551437378e-01
3.192000000000000000e+03 2.053643798828125000e+01 1.193686103820800781e+01 9.499818086624145508e-01 -1.363721340894699097e-01 2.440828979015350342e-01 5.304117873311042786e-02
3.193000000000000000e+03 2.795772171020507812e+01 5.267961025238037109e+00 7.948022484779357910e-01 1.181725025177001953e+00 5.929582118988037109e-01 -9.073169529438018799e-02
3.194000000000000000e+03 2.580896377563476562e+01 9.127581596374511719e+00 1.124671936035156250e+00 7.957937121391296387e-01 5.761396884918212891e-01 -1.887284368276596069e-01
3.195000000000000000e+03 2.350062942504882812e+01 7.932322025299072266e+00 8.638321161270141602e-01 1.262403130531311035e-01 2.970217168331146240e-01 4.207693785429000854e-02
3.196000000000000000e+03 2.572543144226074219e+01 1.133456993103027344e+01 1.218651771545410156e+00 9.021559953689575195e-01 6.362423300743103027e-01 -3.008202016353607178e-01
3.197000000000000000e+03 2.878004646301269531e+01 2.662148237228393555e+00 4.074646234512329102e-01 1.292884588241577148e+00 5.101047754287719727e-01 1.429055817425251007e-02
3.198000000000000000e+03 1.902492713928222656e+01 1.527747917175292969e+01 8.797708749771118164e-01 -8.879599720239639282e-02 2.372924536466598511e-01 -1.134892180562019348e-02
3.199000000000000000e+03 1.681573104858398438e+01 1.545027446746826172e+01 7.622516751289367676e-01 -3.768502771854400635e-01 1.156204193830490112e-01 1.370096057653427124e-01
3.200000000000000000e+03 1.994726181030273438e+01 1.114756011962890625e+01 8.853099942207336426e-01 -3.082177042961120605e-01 1.731276810169219971e-01 1.525498926639556885e-01
3.201000000000000000e+03 1.654224014282226562e+01 1.389521312713623047e+01 7.594097256660461426e-01 -5.095980167388916016e-01 7.494351267814636230e-02 2.459143847227096558e-01
3.202000000000000000e+03 1.791159820556640625e+01 1.689644241333007812e+01 7.818258404731750488e-01 -1.413792222738265991e-01 1.921339929103851318e-01 -6.877463776618242264e-03
3.203000000000000000e+03 2.208310890197753906e+01 1.427775764465332031e+01 1.039536237716674805e+00 3.078970909118652344e-01 4.042299985885620117e-01 -1.972425580024719238e-01
3.204000000000000000e+03 2.225103569030761719e+01 9.816862106323242188e+00 9.497286081314086914e-01 -1.880895532667636871e-02 2.792758941650390625e-01 3.841066733002662659e-02
3.205000000000000000e+03 2.749898147583007812e+01 2.824441909790039062e+01 4.941256344318389893e-02 2.177117824554443359e+00 6.679591536521911621e-01 -6.385045647621154785e-01
3.206000000000000000e+03 2.121573257446289062e+01 2.011395645141601562e+01 7.715528607368469238e-01 5.962316393852233887e-01 4.103353619575500488e-01 -3.659738600254058838e-01
3.207000000000000000e+03 1.826334381103515625e+01 2.182445907592773438e+01 5.811327695846557617e-01 2.685471773147583008e-01 2.549039721488952637e-01 -2.337967753410339355e-01
3.208000000000000000e+03 1.787475204467773438e+01 1.852081489562988281e+01 7.462947368621826172e-01 -2.696487307548522949e-02 2.157989591360092163e-01 -8.606371283531188965e-02
3.209000000000000000e+03 2.565163612365722656e+01 1.014766597747802734e+01 1.161689043045043945e+00 8.209821581840515137e-01 5.948013663291931152e-01 -2.324586361646652222e-01
3.210000000000000000e+03 1.822342681884765625e+01 1.409716415405273438e+01 8.508878946304321289e-01 -3.132234215736389160e-01 1.612993329763412476e-01 1.171599850058555603e-01
3.211000000000000000e+03 1.906712341308593750e+01 1.176639938354492188e+01 8.540074229240417480e-01 -3.975016772747039795e-01 1.369517147541046143e-01 1.906644850969314575e-01
3.212000000000000000e+03 2.329905891418457031e+01 1.098404502868652344e+01 1.083057403564453125e+00 3.021938502788543701e-01 4.155753850936889648e-01 -1.218908652663230896e-01
3.213000000000000000e+03 2.221712493896484375e+01 1.070928001403808594e+01 1.013883471488952637e+00 7.777355611324310303e-02 3.274971246719360352e-01 -1.693235337734222412e-02
3.214000000000000000e+03 2.430268287658691406e+01 1.243671321868896484e+01 1.163772821426391602e+00 6.345206499099731445e-01 5.394880771636962891e-01 -2.662937641143798828e-01
3.215000000000000000e+03 2.567840385437011719e+01 1.270115470886230469e+01 1.239370822906494141e+00 9.892456531524658203e-01 6.685849428176879883e-01 -3.791002631187438965e-01
3.216000000000000000e+03 2.344258689880371094e+01 1.496166992187500000e+01 1.087582945823669434e+00 6.280807852745056152e-01 5.146991014480590820e-01 -3.233983516693115234e-01
3.217000000000000000e+03 2.280586242675781250e+01 1.612778472900390625e+01 1.042598247528076172e+00 6.040188670158386230e-01 4.939851164817810059e-01 -3.461120724678039551e-01
3.218000000000000000e+03 2.462749671936035156e+01 8.972167968750000000e+00 1.043387174606323242e+00 4.685037732124328613e-01 4.535672962665557861e-01 -9.702978283166885376e-02
3.219000000000000000e+03 2.827445983886718750e+01 6.362339496612548828e+00 9.717825651168823242e-01 1.337738871574401855e+00 6.928564310073852539e-01 -1.717572361230850220e-01
3.220000000000000000e+03 2.408135414123535156e+01 1.699971771240234375e+01 1.039825201034545898e+00 9.396201372146606445e-01 5.938336253166198730e-01 -4.605068564414978027e-01
3.221000000000000000e+03 2.010014915466308594e+01 1.452797412872314453e+01 9.406084418296813965e-01 6.268863100558519363e-03 2.840631902217864990e-01 -5.878381058573722839e-02
3.222000000000000000e+03 1.950466918945312500e+01 1.845896911621093750e+01 8.176745176315307617e-01 2.251052111387252808e-01 3.128339350223541260e-01 -2.089708298444747925e-01
3.223000000000000000e+03 2.174176788330078125e+01 2.428761482238769531e+01 4.654674530029296875e-01 9.423654079437255859e-01 4.223498702049255371e-01 -4.722697436809539795e-01
3.224000000000000000e+03 2.093918418884277344e+01 1.685089302062988281e+01 9.389293789863586426e-01 3.161382377147674561e-01 3.765202760696411133e-01 -2.313827872276306152e-01
3.225000000000000000e+03 2.150734138488769531e+01 2.203327941894531250e+01 6.388819217681884766e-01 7.637320160865783691e-01 4.207841753959655762e-01 -4.173278212547302246e-01
3.226000000000000000e+03 2.324102973937988281e+01 2.167722892761230469e+01 6.885805130004882812e-01 1.068219900131225586e+00 5.270401239395141602e-01 -5.246750116348266602e-01
3.227000000000000000e+03 2.341575431823730469e+01 9.935366630554199219e+00 1.032567381858825684e+00 2.547391951084136963e-01 3.861919641494750977e-01 -7.267699390649795532e-02
3.228000000000000000e+03 2.304684829711914062e+01 1.206384086608886719e+01 1.082357883453369141e+00 3.395880460739135742e-01 4.265837669372558594e-01 -1.526074409484863281e-01
3.229000000000000000e+03 2.325608253479003906e+01 1.794190788269042969e+01 9.731557965278625488e-01 8.287302851676940918e-01 5.405658483505249023e-01 -4.384788274765014648e-01
3.230000000000000000e+03 1.969622421264648438e+01 2.016973304748535156e+01 7.266855835914611816e-01 3.539142608642578125e-01 3.241799473762512207e-01 -2.661752998828887939e-01
3.231000000000000000e+03 1.748693656921386719e+01 2.711345863342285156e+01 2.467056810855865479e-01 4.020797908306121826e-01 1.946356445550918579e-01 -2.712471485137939453e-01
3.232000000000000000e+03 1.968520927429199219e+01 2.432070732116699219e+01 4.444014132022857666e-01 5.992852449417114258e-01 3.131060004234313965e-01 -3.487754166126251221e-01
3.233000000000000000e+03 2.191321563720703125e+01 1.161408233642578125e+01 1.020614504814147949e+00 8.397949486970901489e-02 3.313782215118408203e-01 -5.137341842055320740e-02
3.234000000000000000e+03 2.149189376831054688e+01 1.256906604766845703e+01 1.005067825317382812e+00 6.675113737583160400e-02 3.215456902980804443e-01 -6.758116930723190308e-02
3.235000000000000000e+03 2.088300132751464844e+01 1.352924251556396484e+01 9.885782003402709961e-01 5.460728704929351807e-02 3.129556477069854736e-01 -6.172635406255722046e-02
3.236000000000000000e+03 2.096561050415039062e+01 1.844573974609375000e+01 8.672898411750793457e-01 4.412702023983001709e-01 3.925680220127105713e-01 -2.941276431083679199e-01
3.237000000000000000e+03 2.225406455993652344e+01 1.839396095275878906e+01 9.116527438163757324e-01 6.628006100654602051e-01 4.723359942436218262e-01 -3.833599686622619629e-01
3.238000000000000000e+03 1.982295417785644531e+01 2.206928253173828125e+01 6.013481020927429199e-01 4.844249486923217773e-01 3.257319033145904541e-01 -3.295956254005432129e-01
3.239000000000000000e+03 2.227894592285156250e+01 1.721701431274414062e+01 9.810373187065124512e-01 5.851988792419433594e-01 4.698708653450012207e-01 -3.436324298381805420e-01
3.240000000000000000e+03 1.959221076965332031e+01 2.700726890563964844e+01 2.692855894565582275e-01 7.159344553947448730e-01 2.955660223960876465e-01 -3.761870563030242920e-01
3.241000000000000000e+03 2.233167457580566406e+01 3.335381317138671875e+01 -1.792387366294860840e-01 1.405070900917053223e+00 3.677496314048767090e-01 -3.487795591354370117e-01
3.242000000000000000e+03 1.874481010437011719e+01 3.345503234863281250e+01 -8.388119190931320190e-02 7.694543600082397461e-01 2.056719511747360229e-01 -2.632761001586914062e-01
3.243000000000000000e+03 1.713445854187011719e+01 2.963221168518066406e+01 1.269870400428771973e-01 4.632056057453155518e-01 1.770578026771545410e-01 -2.680852115154266357e-01
3.244000000000000000e+03 5.220269775390625000e+01 3.692330169677734375e+01 -6.720966696739196777e-01 8.418335914611816406e-01 5.092106759548187256e-02 2.947773933410644531e-01
3.245000000000000000e+03 2.872596931457519531e+01 3.110125732421875000e+01 -2.357362508773803711e-01 2.413696050643920898e+00 6.533879041671752930e-01 -5.355211496353149414e-01
3.246000000000000000e+03 3.282987594604492188e+01 3.132990074157714844e+01 -4.381683170795440674e-01 3.115413665771484375e+00 8.031736016273498535e-01 -4.907456338405609131e-01
3.247000000000000000e+03 8.254587173461914062e+00 -3.875534439086914062e+01 2.142531797289848328e-03 -4.245134070515632629e-03 -6.307807052507996559e-04 -3.675528569146990776e-03
3.248000000000000000e+03 3.788361740112304688e+01 3.317665863037109375e+01 -7.451992034912109375e-01 3.447057247161865234e+00 8.105574250221252441e-01 -1.810492575168609619e-01
3.249000000000000000e+03 7.236853790283203125e+01 4.120199966430664062e+01 1.323966681957244873e-01 6.025569438934326172e+00 1.847389817237854004e+00 -1.818906888365745544e-02
3.250000000000000000e+03 1.808362197875976562e+01 3.718754959106445312e+01 -1.924402862787246704e-01 7.353414893150329590e-01 1.628703474998474121e-01 -1.569812148809432983e-01
3.251000000000000000e+03 2.577558326721191406e+01 3.256575012207031250e+01 -2.441871166229248047e-01 1.961812973022460938e+00 5.152877569198608398e-01 -4.733490049839019775e-01
3.252000000000000000e+03 5.309338760375976562e+01 -4.088801574707031250e+01 -1.013595104217529297e+00 4.800758361816406250e+00 1.136149048805236816e+00 -3.262559697031974792e-02
3.253000000000000000e+03 2.253469467163085938e+01 3.695464324951171875e+01 -3.421382009983062744e-01 1.492796301841735840e+00 3.451974093914031982e-01 -2.199180871248245239e-01
3.254000000000000000e+03 1.672573471069335938e+01 2.530521774291992188e+01 3.484575748443603516e-01 2.065252810716629028e-01 1.664948612451553345e-01 -2.238857001066207886e-01
3.255000000000000000e+03 1.517890357971191406e+01 2.893150520324707031e+01 1.501044481992721558e-01 6.294488161802291870e-02 6.391479820013046265e-02 -1.679069846868515015e-01
3.256000000000000000e+03 2.697874069213867188e+01 3.615028762817382812e+01 -5.053007602691650391e-01 2.222840309143066406e+00 5.152618885040283203e-01 -3.134893774986267090e-01
3.257000000000000000e+03 3.375164413452148438e+01 3.609739303588867188e+01 -8.027459979057312012e-01 3.046555042266845703e+00 6.731426715850830078e-01 -2.778824865818023682e-01
3.258000000000000000e+03 2.771508979797363281e+01 -4.112581634521484375e+01 1.677578687667846680e-01 -5.842569097876548767e-02 3.279965370893478394e-02 -3.624897450208663940e-02
3.259000000000000000e+03 8.964758872985839844e+00 -2.611099720001220703e+00 7.859494508011266589e-05 1.289869833271950483e-04 6.227457924978807569e-05 2.891047188313677907e-05
3.260000000000000000e+03 4.433152389526367188e+01 -2.336059570312500000e+01 9.544875621795654297e-01 3.121116161346435547e+00 1.222681164741516113e+00 1.858008265495300293e+00
3.261000000000000000e+03 4.472285842895507812e+01 -2.283149147033691406e+01 1.250344991683959961e+00 3.466415166854858398e+00 1.415028095245361328e+00 2.286972045898437500e+00
3.262000000000000000e+03 4.563158416748046875e+01 -2.245873069763183594e+01 1.131291866302490234e+00 7.884162425994873047e+00 2.704636335372924805e+00 3.635622262954711914e+00
3.263000000000000000e+03 4.579706573486328125e+01 -2.241725540161132812e+01 1.083459496498107910e+00 9.142879486083984375e+00 3.067901611328125000e+00 3.700737476348876953e+00
3.264000000000000000e+03 4.666072463989257812e+01 -2.231590652465820312e+01 9.223864227533340454e-02 1.425032997131347656e+01 4.302770614624023438e+00 8.864603042602539062e-01
3.265000000000000000e+03 4.320925521850585938e+01 -1.940362358093261719e+01 1.299513936042785645e+00 9.871396422386169434e-01 6.859961152076721191e-01 -1.143399119377136230e+00
3.266000000000000000e+03 4.353981018066406250e+01 -1.974485778808593750e+01 1.555041551589965820e+00 7.733972072601318359e-01 6.985316276550292969e-01 -1.001446962356567383e+00
3.267000000000000000e+03 4.342903137207031250e+01 -1.957073974609375000e+01 1.532904505729675293e+00 8.672869205474853516e-01 7.200574278831481934e-01 -1.105480074882507324e+00
3.268000000000000000e+03 4.440117263793945312e+01 -1.893774414062500000e+01 2.870870351791381836e+00 3.282877922058105469e+00 1.846124529838562012e+00 -3.798878431320190430e+00
3.269000000000000000e+03 4.510181808471679688e+01 -1.927981376647949219e+01 4.033829689025878906e+00 5.240957736968994141e+00 2.782436370849609375e+00 -5.434266567230224609e+00
3.270000000000000000e+03 4.277698135375976562e+01 -2.976258277893066406e+01 8.110671043395996094e-01 3.698273897171020508e+00 1.352802276611328125e+00 9.945913553237915039e-01
3.271000000000000000e+03 5.917762374877929688e+01 -3.635300064086914062e+01 4.009409248828887939e-02 1.683194875717163086e+00 5.169866681098937988e-01 -1.188455939292907715e+00
3.272000000000000000e+03 4.660324096679687500e+01 -2.257637214660644531e+01 -6.859504431486129761e-02 1.358310317993164062e+01 4.054352283477783203e+00 1.069051146507263184e+00
3.273000000000000000e+03 4.582638549804687500e+01 -2.256939888000488281e+01 5.622754096984863281e-01 9.242196083068847656e+00 2.941341400146484375e+00 3.144319057464599609e+00
3.274000000000000000e+03 4.588779449462890625e+01 -2.279057502746582031e+01 2.401297539472579956e-01 9.020266532897949219e+00 2.778118848800659180e+00 2.610855817794799805e+00
3.275000000000000000e+03 4.613652420043945312e+01 -2.263831710815429688e+01 1.694321036338806152e-01 1.067508792877197266e+01 3.253356218338012695e+00 2.431539297103881836e+00
3.276000000000000000e+03 2.052056503295898438e+01 -1.325828933715820312e+01 -1.369717065244913101e-04 -2.333379234187304974e-04 -1.110928933485411108e-04 6.880060391267761588e-05
3.277000000000000000e+03 5.484310150146484375e+01 -3.450598907470703125e+01 4.443126171827316284e-02 5.569075584411621094e+00 1.684052109718322754e+00 -5.632860660552978516e-01
3.278000000000000000e+03 2.004109191894531250e+01 -1.248147106170654297e+01 8.957085083238780499e-05 2.216739812865853310e-04 9.337344818050041795e-05 6.420962745323777199e-05
3.279000000000000000e+03 3.413348007202148438e+01 -3.430348205566406250e+01 -3.274392783641815186e-01 4.171738773584365845e-02 -8.571656793355941772e-02 -6.684666126966476440e-02
3.280000000000000000e+03 6.807878494262695312e+00 -1.953971672058105469e+01 -7.679606205783784389e-04 -1.473445881856605411e-04 -2.745915553532540798e-04 1.091387821361422539e-04
3.281000000000000000e+03 8.523468971252441406e+00 -3.125095176696777344e+01 -2.016802085563540459e-03 -3.392956277821213007e-04 -7.068293052725493908e-04 -1.270571025088429451e-03
3.282000000000000000e+03 7.953311920166015625e+00 3.533774566650390625e+01 -1.763351075351238251e-02 -8.859477043151855469e-01 -2.710743844509124756e-01 -5.335501581430435181e-02
3.283000000000000000e+03 4.892078781127929688e+01 -2.256925010681152344e+01 2.853362321853637695e+00 8.903650283813476562e+00 3.527103900909423828e+00 -3.352448940277099609e+00
3.284000000000000000e+03 4.590493774414062500e+01 -2.314849662780761719e+01 8.769053220748901367e-02 8.641150474548339844e+00 2.618652343750000000e+00 2.365378618240356445e+00
3.285000000000000000e+03 4.374821090698242188e+01 -1.899890899658203125e+01 2.118612527847290039e+00 1.906431436538696289e+00 1.207513213157653809e+00 -2.415086746215820312e+00
3.286000000000000000e+03 4.344338226318359375e+01 -1.915038299560546875e+01 1.626095056533813477e+00 1.407217502593994141e+00 9.099937677383422852e-01 -1.750893473625183105e+00
3.287000000000000000e+03 5.483559417724609375e+01 3.689420318603515625e+01 -7.999321818351745605e-01 2.101858109235763550e-01 -1.769239157438278198e-01 5.987810343503952026e-02
3.288000000000000000e+03 5.452256774902343750e+01 3.559392547607421875e+01 -6.721076369285583496e-01 2.262201309204101562e-01 -1.337662488222122192e-01 7.644309662282466888e-03
3.289000000000000000e+03 6.127637863159179688e+01 -3.779115676879882812e+01 2.415875792503356934e-01 1.021500110626220703e+00 3.789263069629669189e-01 -7.632389068603515625e-01
3.290000000000000000e+03 4.265369033813476562e+01 -1.933725166320800781e+01 6.774672269821166992e-01 8.408145308494567871e-01 4.554845392704010010e-01 -7.499707937240600586e-01
3.291000000000000000e+03 4.278409576416015625e+01 -3.180397987365722656e+01 -8.835385669954121113e-04 3.229025363922119141e+00 9.684425592422485352e-01 6.448544263839721680e-01
3.292000000000000000e+03 2.310757637023925781e+00 3.690008926391601562e+01 -1.916244509629905224e-03 -1.752071976661682129e+00 -5.261964797973632812e-01 -4.451156035065650940e-02
3.293000000000000000e+03 6.151910400390625000e+01 -3.595676422119140625e+01 -5.874432623386383057e-02 2.563808262348175049e-01 5.929094552993774414e-02 -7.636168003082275391e-01
3.294000000000000000e+03 2.636051559448242188e+01 -8.891165733337402344e+00 -1.375084042549133301e+00 -5.588774085044860840e-01 -5.801884531974792480e-01 1.232530117034912109e+00
3.295000000000000000e+03 4.572340774536132812e+01 -2.350435638427734375e+01 1.049262732267379761e-01 7.628450393676757812e+00 2.320013046264648438e+00 2.304659128189086914e+00
3.296000000000000000e+03 1.874394035339355469e+01 -1.121419429779052734e+01 -4.805907155969180167e-05 1.180289400508627295e-04 2.099096127494703978e-05 4.822258779313415289e-05
3.297000000000000000e+03 2.548030090332031250e+01 -3.525640487670898438e+01 -3.763951361179351807e-02 -1.493667718023061752e-02 -1.577285677194595337e-02 -8.266115188598632812e-02
3.298000000000000000e+03 9.342386245727539062e+00 -1.400449466705322266e+01 3.278682415839284658e-04 -1.013858418446034193e-04 6.794471846660599113e-05 4.469753475859761238e-04
3.299000000000000000e+03 5.017218399047851562e+01 -2.029348182678222656e+01 4.049926280975341797e+00 5.993523120880126953e+00 3.013034820556640625e+00 -1.414261221885681152e+00
3.300000000000000000e+03 4.346940231323242188e+01 -3.427585601806640625e+01 -2.369714230298995972e-01 3.332767724990844727e+00 9.287388920783996582e-01 6.833319067955017090e-01
3.301000000000000000e+03 4.315071487426757812e+01 -1.881674194335937500e+01 1.314161539077758789e+00 1.548045039176940918e+00 8.586620092391967773e-01 -1.771598577499389648e+00
3.302000000000000000e+03 7.622042083740234375e+01 -2.164235687255859375e+01 -3.299022018909454346e-01 7.440951347351074219e+00 2.133314609527587891e+00 6.928132772445678711e-01
3.303000000000000000e+03 7.308171844482421875e+01 3.245728683471679688e+01 -6.216390728950500488e-01 7.024957180023193359e+00 1.920995473861694336e+00 3.505834639072418213e-01
3.304000000000000000e+03 4.841512298583984375e+01 -1.099821472167968750e+01 -1.248111844062805176e+00 5.825901985168457031e+00 1.373337030410766602e+00 -5.884314775466918945e-01
3.305000000000000000e+03 4.729216003417968750e+01 3.480409240722656250e+01 -5.571768879890441895e-01 2.180869340896606445e+00 4.871077239513397217e-01 4.589413702487945557e-01
3.306000000000000000e+03 4.804838180541992188e+01 3.262702941894531250e+01 -2.050806581974029541e-01 2.048202753067016602e+00 5.529366135597229004e-01 6.442019343376159668e-01
3.307000000000000000e+03 5.095457458496093750e+01 -1.697952270507812500e+01 -1.193924427032470703e+00 5.117295265197753906e+00 1.177011251449584961e+00 3.779399394989013672e-01
3.308000000000000000e+03 4.954504394531250000e+01 -3.117956352233886719e+01 5.123713612556457520e-01 5.433759212493896484e+00 1.783839225769042969e+00 -2.721252739429473877e-01
3.309000000000000000e+03 4.938724517822265625e+01 -3.015359115600585938e+01 5.500802993774414062e-01 5.765259265899658203e+00 1.894601941108703613e+00 -5.292761325836181641e-01
3.310000000000000000e+03 4.856568527221679688e+01 -3.070737838745117188e+01 3.010140061378479004e-01 5.277862548828125000e+00 1.673662900924682617e+00 -5.235114321112632751e-02
3.311000000000000000e+03 5.798247909545898438e+01 -2.204058647155761719e+01 1.433023333549499512e+00 1.072872757911682129e+00 7.517688274383544922e-01 1.512211918830871582e+00
3.312000000000000000e+03 4.470229625701904297e+00 -2.149099922180175781e+01 -7.838610908947885036e-04 -2.462804877723101526e-05 -2.425467391731217504e-04 -3.725974238477647305e-04
3.313000000000000000e+03 7.548365020751953125e+01 -2.889615821838378906e+01 6.348498463630676270e-01 7.612287044525146484e+00 2.474141120910644531e+00 -5.448305010795593262e-01
3.314000000000000000e+03 5.098062133789062500e+01 -1.795927810668945312e+01 -1.085866391658782959e-01 4.918492794036865234e+00 1.442971944808959961e+00 -5.017483606934547424e-02
3.315000000000000000e+03 5.062282943725585938e+01 -2.058182716369628906e+01 3.702509403228759766e+00 5.387008666992187500e+00 2.726855278015136719e+00 -1.532568335533142090e+00
3.316000000000000000e+03 4.616353607177734375e+01 -2.655122947692871094e+01 -2.383642345666885376e-01 6.197678565979003906e+00 1.787794351577758789e+00 8.131214380264282227e-01
3.317000000000000000e+03 1.837543296813964844e+01 -1.000486373901367188e+01 -2.290488919243216515e-04 5.466231959871947765e-05 -5.231597242527641356e-05 1.566815808473620564e-05
3.318000000000000000e+03 4.614912033081054688e+01 -2.829508781433105469e+01 8.732591569423675537e-02 5.272894382476806641e+00 1.608066082000732422e+00 6.406127214431762695e-01
3.319000000000000000e+03 2.859776496887207031e+01 -9.905841827392578125e+00 -1.205615043640136719e+00 7.930081337690353394e-02 -3.378942608833312988e-01 1.084130167961120605e+00
3.320000000000000000e+03 7.260019683837890625e+01 3.100232696533203125e+01 -6.232014298439025879e-01 6.808473110198974609e+00 1.855581521987915039e+00 5.674140453338623047e-01
3.321000000000000000e+03 7.464421081542968750e+01 -3.085760879516601562e+01 6.838519871234893799e-02 7.508771419525146484e+00 2.273147106170654297e+00 -6.685042977333068848e-01
3.322000000000000000e+03 1.298187923431396484e+01 4.663270473480224609e+00 -2.704394757747650146e-01 -1.126399636268615723e+00 -4.190517365932464600e-01 9.963427782058715820e-01
3.323000000000000000e+03 1.171985912322998047e+01 -1.044161415100097656e+01 -1.233895454788580537e-04 -2.580121508799493313e-04 -1.144205089076422155e-04 -1.043487209244631231e-04
3.324000000000000000e+03 5.690499305725097656e+00 -1.323489761352539062e+01 -1.182744235848076642e-04 -8.279349276563152671e-05 -6.032037708791904151e-05 3.114785649813711643e-04
3.325000000000000000e+03 4.272373580932617188e+01 -1.852125930786132812e+01 8.673837780952453613e-01 1.545942902565002441e+00 7.239980101585388184e-01 -1.639644265174865723e+00
3.326000000000000000e+03 5.504602432250976562e+00 -7.526074409484863281e+00 -3.857622214127331972e-04 -1.000646443571895361e-05 -1.187306042993441224e-04 -1.356776483589783311e-04
3.327000000000000000e+03 1.164322948455810547e+01 3.010325241088867188e+01 8.295454084873199463e-02 -4.177165627479553223e-01 -1.004286110401153564e-01 -1.149860993027687073e-01
3.328000000000000000e+03 1.339216518402099609e+01 2.908057975769042969e+01 1.301384419202804565e-01 -1.979397535324096680e-01 -2.034039050340652466e-02 -1.467344611883163452e-01
3.329000000000000000e+03 4.677759933471679688e+01 -2.622006988525390625e+01 -3.876814544200897217e-01 7.011977672576904297e+00 1.987288832664489746e+00 4.330848157405853271e-01
3.330000000000000000e+03 6.607330322265625000e+01 -1.614661407470703125e+01 4.480435848236083984e-01 2.473864555358886719e+00 8.765724897384643555e-01 9.920502901077270508e-01
3.331000000000000000e+03 1.518128204345703125e+01 -8.196535110473632812e+00 2.068898902507498860e-04 2.668439628905616701e-05 7.007228850852698088e-05 -6.777219823561608791e-05
3.332000000000000000e+03 7.144286346435546875e+01 -1.228067016601562500e+01 1.506700217723846436e-01 5.739173412322998047e+00 1.766953110694885254e+00 -1.742945462465286255e-01
3.333000000000000000e+03 3.161384201049804688e+01 -1.220294857025146484e+01 -1.094784736633300781e+00 3.944543600082397461e-01 -2.100991308689117432e-01 8.295753598213195801e-01
3.334000000000000000e+03 3.107017326354980469e+01 -1.185294628143310547e+01 -1.084167718887329102e+00 3.680884242057800293e-01 -2.148237824440002441e-01 8.791500926017761230e-01
3.335000000000000000e+03 3.025146484375000000e+01 -1.111600017547607422e+01 -1.101963281631469727e+00 3.251208066940307617e-01 -2.330527305603027344e-01 9.567199349403381348e-01
3.336000000000000000e+03 4.717834472656250000e+01 -2.734969520568847656e+01 -1.675641536712646484e-01 6.361379623413085938e+00 1.858144640922546387e+00 1.024329066276550293e-01
3.337000000000000000e+03 5.120619297027587891e+00 -1.223722076416015625e+01 -2.724348742049187422e-04 -2.113080699928104877e-04 -1.451228890800848603e-04 -1.613181520951911807e-04
3.338000000000000000e+03 7.470489501953125000e+01 2.802167510986328125e+01 -9.642674773931503296e-02 8.231759071350097656e+00 2.440599679946899414e+00 9.021676778793334961e-01
3.339000000000000000e+03 7.417022705078125000e+01 2.918043518066406250e+01 -3.470565676689147949e-01 7.848598957061767578e+00 2.250462770462036133e+00 8.310540318489074707e-01
3.340000000000000000e+03 4.790421295166015625e+01 -2.566329193115234375e+01 -2.968610823154449463e-01 7.957745552062988281e+00 2.298265457153320312e+00 -7.069607377052307129e-01
3.341000000000000000e+03 3.527281188964843750e+01 -1.367376613616943359e+01 -1.046018838882446289e+00 5.564150214195251465e-01 -1.468811482191085815e-01 2.123865485191345215e-01
3.342000000000000000e+03 3.608706665039062500e+01 -1.357290363311767578e+01 -9.510776400566101074e-01 7.576346397399902344e-01 -5.803290009498596191e-02 -7.043366134166717529e-02
3.343000000000000000e+03 3.850007247924804688e+01 2.451791572570800781e+01 2.148492783308029175e-01 4.566084861755371094e+00 1.434280276298522949e+00 -1.383478194475173950e-01
3.344000000000000000e+03 7.141149044036865234e+00 -1.127068614959716797e+01 4.275449318811297417e-04 -1.941814844030886889e-05 1.224380393978208303e-04 -3.016031041624955833e-05
3.345000000000000000e+03 1.011975002288818359e+01 9.165519714355468750e+00 1.817344129085540771e-01 -9.450638294219970703e-01 -2.289988249540328979e-01 7.979925870895385742e-01
3.346000000000000000e+03 3.942796707153320312e+01 -1.399712276458740234e+01 -7.776626348495483398e-01 1.768777370452880859e+00 2.973344326019287109e-01 -1.221660256385803223e+00
3.347000000000000000e+03 4.024037933349609375e+01 -1.377566051483154297e+01 -7.755895256996154785e-01 2.350491523742675781e+00 4.724706113338470459e-01 -1.566178202629089355e+00
3.348000000000000000e+03 3.770211029052734375e+01 7.722271919250488281e+00 1.682555079460144043e+00 5.672009944915771484e+00 2.206369400024414062e+00 -8.767973184585571289e-01
3.349000000000000000e+03 3.866241073608398438e+01 7.626212596893310547e+00 1.686280369758605957e+00 6.347802162170410156e+00 2.410224676132202148e+00 -1.009047508239746094e+00
3.350000000000000000e+03 7.976412773132324219e+00 -4.791352272033691406e+00 3.290731983724981546e-04 -4.178598101134411991e-05 8.618616993771865964e-05 6.295686034718528390e-05
3.351000000000000000e+03 3.736101913452148438e+01 1.962325477600097656e+01 7.482698559761047363e-01 5.198631763458251953e+00 1.784070491790771484e+00 -4.701288342475891113e-01
3.352000000000000000e+03 7.287609100341796875e+01 -8.182117462158203125e+00 9.796939790248870850e-02 7.081595420837402344e+00 2.153869390487670898e+00 -1.417630165815353394e-01
3.353000000000000000e+03 7.282495498657226562e+00 6.045970916748046875e+00 -1.769524365663528442e-01 -6.462229490280151367e-01 -2.469526231288909912e-01 7.509626150131225586e-01
3.354000000000000000e+03 3.968679046630859375e+01 -1.341253757476806641e+01 -7.617042660713195801e-01 2.154651165008544922e+00 4.178840816020965576e-01 -1.329910159111022949e+00
3.355000000000000000e+03 3.530379104614257812e+01 -1.280857086181640625e+01 -9.196924567222595215e-01 8.440122008323669434e-01 -2.270407974720001221e-02 9.824789315462112427e-02
3.356000000000000000e+03 2.699650764465332031e+01 1.440982341766357422e+01 1.294028282165527344e+00 1.486832141876220703e+00 8.342581391334533691e-01 -5.609833598136901855e-01
3.357000000000000000e+03 7.266622161865234375e+01 -9.654233932495117188e+00 9.066388756036758423e-02 6.638024330139160156e+00 2.018606424331665039e+00 -2.027437835931777954e-01
3.358000000000000000e+03 9.673759460449218750e+00 -9.740135192871093750e+00 1.033091612043790519e-04 2.940884733106940985e-04 1.192192939925007522e-04 2.923564170487225056e-04
3.359000000000000000e+03 1.130103206634521484e+01 -5.818399906158447266e+00 -2.438398223603144288e-04 -9.782754204934462905e-06 -7.608676969539374113e-05 2.874105666705872864e-05
3.360000000000000000e+03 4.001280212402343750e+01 -1.277982711791992188e+01 -7.880359292030334473e-01 2.549692153930664062e+00 5.284968614578247070e-01 -1.413237810134887695e+00
3.361000000000000000e+03 2.688375282287597656e+01 -1.689983129501342773e+00 -5.602995753288269043e-01 3.583845496177673340e-01 -6.057451292872428894e-02 4.516146779060363770e-01
3.362000000000000000e+03 4.204015731811523438e+01 -1.404367256164550781e+01 -8.800897598266601562e-01 3.636234283447265625e+00 8.268433809280395508e-01 -2.184309005737304688e+00
3.363000000000000000e+03 1.748408126831054688e+01 4.394734382629394531e+00 -1.980113796889781952e-02 -1.157108664512634277e+00 -3.530729115009307861e-01 7.784695625305175781e-01
3.364000000000000000e+03 3.492309570312500000e+01 -8.042356491088867188e+00 -6.615252494812011719e-01 1.944917440414428711e+00 3.850176632404327393e-01 -8.286879211664199829e-02
3.365000000000000000e+03 2.447750663757324219e+01 1.121573162078857422e+01 1.136017322540283203e+00 6.050750613212585449e-01 5.223277211189270020e-01 -2.161874771118164062e-01
3.366000000000000000e+03 3.809626388549804688e+01 -8.781977653503417969e+00 -5.977358818054199219e-01 2.784138679504394531e+00 6.559208631515502930e-01 -7.906147241592407227e-01
3.367000000000000000e+03 2.264606666564941406e+01 1.316383838653564453e+01 1.075410723686218262e+00 3.351685404777526855e-01 4.231737852096557617e-01 -1.834046393632888794e-01
3.368000000000000000e+03 3.102873802185058594e+01 -4.569330215454101562e+00 -6.514037847518920898e-01 1.389679670333862305e+00 2.214827835559844971e-01 3.026688396930694580e-01
3.369000000000000000e+03 7.349672794342041016e+00 1.370411586761474609e+01 2.135029882192611694e-01 -1.007522225379943848e+00 -2.382057756185531616e-01 5.315563678741455078e-01
3.370000000000000000e+03 3.071145248413085938e+01 -2.713111877441406250e+00 -4.038138091564178467e-01 1.535465240478515625e+00 3.394954502582550049e-01 2.006110996007919312e-01
3.371000000000000000e+03 8.994383811950683594e+00 1.718062973022460938e+01 3.068349361419677734e-01 -9.518232345581054688e-01 -1.934964954853057861e-01 3.642136156558990479e-01
3.372000000000000000e+03 8.903664588928222656e+00 1.828421211242675781e+01 2.725931107997894287e-01 -9.543638229370117188e-01 -2.045312076807022095e-01 3.011769056320190430e-01
3.373000000000000000e+03 1.737775611877441406e+01 1.468314266204833984e+01 8.145216107368469238e-01 -3.548750877380371094e-01 1.378939598798751831e-01 1.432999074459075928e-01
3.374000000000000000e+03 3.024102401733398438e+01 1.289067745208740234e+00 2.471075803041458130e-01 1.717659354209899902e+00 5.894300937652587891e-01 -2.713572001084685326e-03
3.375000000000000000e+03 1.987393188476562500e+01 1.267405796051025391e+01 9.230986237525939941e-01 -1.801502257585525513e-01 2.228845208883285522e-01 6.141914054751396179e-02
3.376000000000000000e+03 2.758483886718750000e+01 2.539461612701416016e+00 3.094265758991241455e-01 8.811568021774291992e-01 3.571750223636627197e-01 9.634471684694290161e-02
3.377000000000000000e+03 4.165822982788085938e+01 -2.100139427185058594e+01 -7.698751091957092285e-01 9.123021364212036133e-02 -2.035934776067733765e-01 3.786404728889465332e-01
3.378000000000000000e+03 4.200251388549804688e+01 -2.166270065307617188e+01 -5.021575689315795898e-01 7.638327777385711670e-02 -1.277322769165039062e-01 4.911353811621665955e-02
3.379000000000000000e+03 4.268124389648437500e+01 -2.022812461853027344e+01 -5.733366310596466064e-02 4.348941147327423096e-01 1.132681369781494141e-01 5.955135449767112732e-02
3.380000000000000000e+03 4.269143295288085938e+01 -2.098493576049804688e+01 -8.908259272575378418e-01 2.081121951341629028e-01 -2.048141211271286011e-01 9.750176966190338135e-02
3.381000000000000000e+03 4.286889648437500000e+01 -2.057964706420898438e+01 -3.485127389430999756e-01 3.519371449947357178e-01 1.027320162393152714e-03 1.028738990426063538e-01
3.382000000000000000e+03 4.116608428955078125e+01 -2.131432533264160156e+01 -3.473286330699920654e-01 -2.338021397590637207e-01 -1.743392348289489746e-01 3.096823096275329590e-01
3.383000000000000000e+03 4.294268417358398438e+01 -2.115484619140625000e+01 -1.087204575538635254e+00 2.096116691827774048e-01 -2.632778882980346680e-01 1.183984149247407913e-02
3.384000000000000000e+03 4.287247085571289062e+01 -2.143914413452148438e+01 -1.289998412132263184e+00 2.142205089330673218e-02 -3.805729150772094727e-01 -2.651586234569549561e-01
3.385000000000000000e+03 4.222905349731445312e+01 -2.069898605346679688e+01 -6.156296730041503906e-01 3.620714545249938965e-01 -7.606745511293411255e-02 2.340682744979858398e-01
3.386000000000000000e+03 4.301008224487304688e+01 -2.095965957641601562e+01 -1.011281847953796387e+00 2.674058973789215088e-01 -2.231628000736236572e-01 8.377450704574584961e-02
3.387000000000000000e+03 4.256911087036132812e+01 -2.046539688110351562e+01 -2.632174193859100342e-01 4.447576999664306641e-01 5.446208268404006958e-02 1.407460421323776245e-01
3.388000000000000000e+03 4.292752075195312500e+01 -2.077573585510253906e+01 -6.750784516334533691e-01 2.538581192493438721e-01 -1.263661086559295654e-01 8.756157755851745605e-02
3.389000000000000000e+03 4.284089279174804688e+01 -2.038515472412109375e+01 -4.619028046727180481e-02 3.853492736816406250e-01 1.017476916313171387e-01 1.096217632293701172e-01
3.390000000000000000e+03 1.605741500854492188e+01 -3.611289262771606445e+00 3.060175731661729515e-05 3.564835787983611226e-05 1.987503492273390293e-05 2.302725260960869491e-05
3.391000000000000000e+03 1.562254238128662109e+01 -4.210125446319580078e+00 -5.130710633238777518e-05 -3.898282011505216360e-05 -2.708697684283833951e-05 -1.900641291285865009e-05
3.392000000000000000e+03 1.505074691772460938e+01 -3.785051584243774414e+00 5.019663512939587235e-05 4.607320806826464832e-05 2.888095332309603691e-05 1.964345574378967285e-05
3.393000000000000000e+03 1.676181221008300781e+01 -5.065579891204833984e+00 -6.507979560410603881e-05 -2.398143624304793775e-05 -2.671836773515678942e-05 -1.973206235561519861e-05
3.394000000000000000e+03 1.619318008422851562e+01 -4.636556148529052734e+00 5.842996688443236053e-05 3.120159453828819096e-05 2.688946915441192687e-05 1.719897773000411689e-05
3.395000000000000000e+03 1.723610115051269531e+01 -4.496263980865478516e+00 3.924813790945336223e-05 3.171361458953469992e-05 2.128852611349429935e-05 2.642802428454160690e-05
3.396000000000000000e+03 1.546591091156005859e+01 -3.171455383300781250e+00 -2.755175046331714839e-05 -4.050463030580431223e-05 -2.041691368503961712e-05 -2.378098906774539500e-05
3.397000000000000000e+03 1.664776039123535156e+01 -4.052479743957519531e+00 -3.319435199955478311e-05 -3.230017682653851807e-05 -1.964835792023222893e-05 -2.464606586727313697e-05
3.398000000000000000e+03 1.831977081298828125e+01 -5.492505550384521484e+00 5.211094685364514589e-05 3.341400952194817364e-05 2.565748764027375728e-05 3.344092328916303813e-05
3.399000000000000000e+03 1.780974006652832031e+01 -6.028855800628662109e+00 -7.543878746218979359e-05 -1.797248660295736045e-05 -2.802338349283672869e-05 -2.565980503277387470e-05
3.400000000000000000e+03 1.730055999755859375e+01 -5.529824733734130859e+00 7.272367656696587801e-05 2.166898775612935424e-05 2.831779966072645038e-05 1.900019742606673390e-05
3.401000000000000000e+03 1.831691551208496094e+01 -6.530111789703369141e+00 8.097715181065723300e-05 2.102064536302350461e-05 3.059933806071057916e-05 2.744505218288395554e-05
3.402000000000000000e+03 1.882190132141113281e+01 -7.033396244049072266e+00 -9.043617319548502564e-05 -2.360386861255392432e-05 -3.421201108722016215e-05 -3.085437856498174369e-05
3.403000000000000000e+03 1.936644935607910156e+01 -6.531159877777099609e+00 6.463918543886393309e-05 3.867116174660623074e-05 3.099310561083257198e-05 4.120112862437963486e-05
3.404000000000000000e+03 1.779333305358886719e+01 -4.976417064666748047e+00 -4.348012589616701007e-05 -3.164692316204309464e-05 -2.253811544505879283e-05 -3.003009987878613174e-05
3.405000000000000000e+03 1.884420585632324219e+01 -6.010818481445312500e+00 -5.654116830555722117e-05 -3.479509905446320772e-05 -2.740087984420824796e-05 -3.969022145611234009e-05
3.406000000000000000e+03 2.031454658508300781e+01 -7.659852027893066406e+00 8.612236706539988518e-05 3.819837729679420590e-05 3.729622403625398874e-05 4.798447480425238609e-05
3.407000000000000000e+03 2.077073287963867188e+01 -8.240385055541992188e+00 -9.521334868622943759e-05 -3.799781552515923977e-05 -3.996334999101236463e-05 -5.687434895662590861e-05
3.408000000000000000e+03 1.929654693603515625e+01 -7.565644741058349609e+00 1.005333760986104608e-04 2.816979758790694177e-05 3.861094955937005579e-05 2.897559897974133492e-05
3.409000000000000000e+03 2.062350273132324219e+01 -9.254287719726562500e+00 -1.118213622248731554e-04 -2.592846249171998352e-05 -4.132494723307900131e-05 -5.556531687034294009e-05
3.410000000000000000e+03 2.018299865722656250e+01 -8.690117835998535156e+00 1.206021770485676825e-04 1.934423562488518655e-05 4.198392343823798001e-05 4.099332363693974912e-05
3.411000000000000000e+03 1.974063491821289062e+01 -8.127175331115722656e+00 -1.127966097556054592e-04 -2.233566738141234964e-05 -4.053968223161064088e-05 -3.265676787123084068e-05
3.412000000000000000e+03 2.122505760192871094e+01 -8.822144508361816406e+00 9.823645814321935177e-05 4.365573113318532705e-05 4.256765532772988081e-05 6.005246177664957941e-05
3.413000000000000000e+03 1.985663604736328125e+01 -7.080731868743896484e+00 -7.217223173938691616e-05 -3.743608613149262965e-05 -3.288249354227446020e-05 -4.457717659533955157e-05
3.414000000000000000e+03 2.203341293334960938e+01 -1.005728912353515625e+01 6.617484905291348696e-05 4.379329038783907890e-05 3.299043964943848550e-05 4.761087257065810263e-05
3.415000000000000000e+03 2.140859222412109375e+01 -1.045394611358642578e+01 -5.510085611604154110e-05 -6.468401988968253136e-05 -3.593546352931298316e-05 -5.782049993285909295e-05
3.416000000000000000e+03 2.103163337707519531e+01 -9.842617988586425781e+00 8.518432878190651536e-05 4.416183946887031198e-05 3.880384974763728678e-05 6.449452484957873821e-05
3.417000000000000000e+03 2.178438568115234375e+01 -1.106581783294677734e+01 4.574285412672907114e-05 6.723625119775533676e-05 3.389373159734532237e-05 3.427034243941307068e-05
3.418000000000000000e+03 2.215780448913574219e+01 -1.167914867401123047e+01 -4.543334580375812948e-05 -5.266514926915988326e-05 -2.942954779427964240e-05 -1.039668677549343556e-05
3.419000000000000000e+03 2.280443191528320312e+01 -1.131808185577392578e+01 3.872343586408533156e-05 2.439958188915625215e-05 1.893690568977035582e-05 1.240337041963357478e-05
3.420000000000000000e+03 2.164555168151855469e+01 -9.428166389465332031e+00 -8.528633770765736699e-05 -4.320803782320581377e-05 -3.854831084026955068e-05 -6.031031443853862584e-05
3.421000000000000000e+03 2.242011070251464844e+01 -1.068695640563964844e+01 -4.298188650864176452e-05 -3.195806493749842048e-05 -2.248198507004417479e-05 -3.335425935802049935e-05
3.422000000000000000e+03 2.317674064636230469e+01 -1.199929141998291016e+01 -3.921165261999703944e-05 -5.548929493670584634e-06 -1.342817540717078373e-05 -7.519845894421450794e-06
3.423000000000000000e+03 2.284523010253906250e+01 -1.300796508789062500e+01 -5.135828905622474849e-05 1.142827750300057232e-05 -1.197900382976513356e-05 9.490293450653553009e-06
3.424000000000000000e+03 2.406083297729492188e+01 -1.497063064575195312e+01 2.729140396695584059e-05 -2.380250634814728983e-06 7.473345704056555405e-06 -3.426769694669928867e-07
3.425000000000000000e+03 2.462505912780761719e+01 -1.485978507995605469e+01 -3.513272531563416123e-05 2.024641844400321133e-06 -9.932425200531724840e-06 9.401044735568575561e-06
3.426000000000000000e+03 2.389264106750488281e+01 -1.346117115020751953e+01 -2.232537917734589428e-05 -8.640304258733522147e-06 -9.289704394177533686e-06 -7.767967872496228665e-06
3.427000000000000000e+03 2.353559875488281250e+01 -1.273112678527832031e+01 3.455312253208830953e-05 3.938075224141357467e-06 1.154735946329310536e-05 1.114973565563559532e-05
3.428000000000000000e+03 2.488323020935058594e+01 -1.545215702056884766e+01 1.321889521932462230e-05 8.256575370069185738e-07 4.213365627947496250e-06 -2.587706603662809357e-06
3.429000000000000000e+03 2.424729537963867188e+01 -1.417472362518310547e+01 2.802717244776431471e-05 1.251043613592628390e-05 1.216128202941035852e-05 -9.176676030620001256e-06
3.430000000000000000e+03 2.350594520568847656e+01 -1.435108280181884766e+01 -5.581331424764357507e-05 -3.932730396627448499e-05 -2.854218473657965660e-05 4.752801487484248355e-06
3.431000000000000000e+03 2.317678260803222656e+01 -1.368776988983154297e+01 5.828715075040236115e-05 6.287347105171647854e-07 1.767476533132139593e-05 1.244747272721724585e-05
3.432000000000000000e+03 2.251189041137695312e+01 -1.232635593414306641e+01 3.748811650439165533e-05 2.679541103134397417e-05 1.928505844261962920e-05 -1.113327289203880355e-05
3.433000000000000000e+03 2.456154632568359375e+01 -1.316923522949218750e+01 -5.251598954200744629e-01 -1.575758457183837891e+00 -6.302754878997802734e-01 9.138320684432983398e-01
3.434000000000000000e+03 2.482023620605468750e+01 -1.197365283966064453e+01 -9.264925122261047363e-01 -1.563323259353637695e+00 -7.469447255134582520e-01 1.274158954620361328e+00
3.435000000000000000e+03 2.650333786010742188e+01 -1.565426826477050781e+01 -7.119798064231872559e-01 -4.414716958999633789e-01 -3.460354506969451904e-01 6.943146586418151855e-01
3.436000000000000000e+03 2.385268974304199219e+01 -1.163848972320556641e+01 -8.397421240806579590e-01 -2.374131679534912109e+00 -9.641621112823486328e-01 1.342308282852172852e+00
3.437000000000000000e+03 2.484836769104003906e+01 -1.395820903778076172e+01 -4.308310151100158691e-01 -1.303393483161926270e+00 -5.202673673629760742e-01 7.247349619865417480e-01
3.438000000000000000e+03 2.532261657714843750e+01 -1.399315357208251953e+01 -6.072806715965270996e-01 -9.936960339546203613e-01 -4.802930057048797607e-01 8.734596371650695801e-01
3.439000000000000000e+03 2.568108749389648438e+01 -1.559443092346191406e+01 -2.683376669883728027e-01 -3.363825678825378418e-01 -1.814160794019699097e-01 3.669861257076263428e-01
3.440000000000000000e+03 2.449533462524414062e+01 -1.126426315307617188e+01 -1.081961512565612793e+00 -1.713421940803527832e+00 -8.386150002479553223e-01 1.369281888008117676e+00
3.441000000000000000e+03 2.516623687744140625e+01 -1.270689773559570312e+01 -7.746009230613708496e-01 -1.303190588951110840e+00 -6.233374476432800293e-01 1.124206662178039551e+00
3.442000000000000000e+03 2.556309509277343750e+01 -1.336782169342041016e+01 -7.309633493423461914e-01 -1.013193964958190918e+00 -5.232471823692321777e-01 1.014852404594421387e+00
3.443000000000000000e+03 2.595065307617187500e+01 -1.390986061096191406e+01 -7.429624199867248535e-01 -7.774782776832580566e-01 -4.561322033405303955e-01 9.914783835411071777e-01
3.444000000000000000e+03 2.620536613464355469e+01 -1.446394062042236328e+01 -6.505798697471618652e-01 -6.305977702140808105e-01 -3.843533098697662354e-01 9.120299220085144043e-01
3.445000000000000000e+03 2.637091255187988281e+01 -1.507584285736083984e+01 -6.248116493225097656e-01 -4.774677753448486328e-01 -3.306838274002075195e-01 7.965933084487915039e-01
3.446000000000000000e+03 2.638264656066894531e+01 -1.612632179260253906e+01 -5.962998867034912109e-01 -2.494752407073974609e-01 -2.537325322628021240e-01 3.787238299846649170e-01
3.447000000000000000e+03 2.419656753540039062e+01 -1.239193534851074219e+01 -5.979681015014648438e-01 -1.952402710914611816e+00 -7.651112675666809082e-01 1.108702778816223145e+00
3.448000000000000000e+03 2.512793922424316406e+01 -1.461182594299316406e+01 -2.853268682956695557e-01 -8.941633701324462891e-01 -3.538470566272735596e-01 5.340219140052795410e-01
3.449000000000000000e+03 2.566095924377441406e+01 -1.495156669616699219e+01 -3.922080993652343750e-01 -6.189644336700439453e-01 -3.033517599105834961e-01 6.268199086189270020e-01
3.450000000000000000e+03 2.577541732788085938e+01 -1.432993030548095703e+01 -6.147277355194091797e-01 -7.983728051185607910e-01 -4.239301681518554688e-01 9.014788269996643066e-01
3.451000000000000000e+03 2.269077491760253906e+01 -9.641036033630371094e+00 -1.238043785095214844e+00 -2.809532403945922852e+00 -1.214272856712341309e+00 1.856241822242736816e+00
3.452000000000000000e+03 2.348543930053710938e+01 -1.093805503845214844e+01 -1.044713139533996582e+00 -2.562278747558593750e+00 -1.082097530364990234e+00 1.577708959579467773e+00
3.453000000000000000e+03 2.229273414611816406e+01 -8.991255760192871094e+00 -1.539338350296020508e+00 -3.049552917480468750e+00 -1.376667380332946777e+00 2.067033767700195312e+00
3.454000000000000000e+03 2.308835411071777344e+01 -1.029005146026611328e+01 -1.132728099822998047e+00 -2.626535415649414062e+00 -1.127779126167297363e+00 1.709620952606201172e+00
3.455000000000000000e+03 2.413209533691406250e+01 -1.057697391510009766e+01 -1.175833344459533691e+00 -1.948171019554138184e+00 -9.372013211250305176e-01 1.446595072746276855e+00
3.456000000000000000e+03 2.290665245056152344e+01 -8.576805114746093750e+00 -1.621736645698547363e+00 -2.303193092346191406e+00 -1.177478909492492676e+00 1.801093459129333496e+00
3.457000000000000000e+03 2.331559562683105469e+01 -9.244379997253417969e+00 -1.456968784332275391e+00 -2.249714374542236328e+00 -1.112004876136779785e+00 1.759402394294738770e+00
3.458000000000000000e+03 2.372407913208007812e+01 -9.911190032958984375e+00 -1.255540490150451660e+00 -2.155547380447387695e+00 -1.023326396942138672e+00 1.617148160934448242e+00
3.459000000000000000e+03 2.091797065734863281e+01 -7.169854164123535156e+00 -1.957013607025146484e+00 -2.951776266098022461e+00 -1.472636938095092773e+00 2.384602546691894531e+00
3.460000000000000000e+03 2.044657707214355469e+01 -6.570147991180419922e+00 -2.299122095108032227e+00 -3.061769008636474609e+00 -1.608267307281494141e+00 2.532655715942382812e+00
3.461000000000000000e+03 2.138868331909179688e+01 -7.768980979919433594e+00 -1.857080817222595215e+00 -2.900347471237182617e+00 -1.427228450775146484e+00 2.297042131423950195e+00
3.462000000000000000e+03 2.185866355895996094e+01 -8.367236137390136719e+00 -1.789350152015686035e+00 -3.035006999969482422e+00 -1.447307109832763672e+00 2.237504720687866211e+00
3.463000000000000000e+03 2.246022033691406250e+01 -7.935092449188232422e+00 -1.695469737052917480e+00 -2.444950580596923828e+00 -1.242126107215881348e+00 1.864703893661499023e+00
3.464000000000000000e+03 2.100666618347167969e+01 -6.085235118865966797e+00 -2.146455764770507812e+00 -2.430094480514526367e+00 -1.372965097427368164e+00 2.075855731964111328e+00
3.465000000000000000e+03 2.149188232421875000e+01 -6.702531337738037109e+00 -2.012933969497680664e+00 -2.473658561706542969e+00 -1.345977783203125000e+00 2.118536233901977539e+00
3.466000000000000000e+03 2.197641754150390625e+01 -7.319247722625732422e+00 -1.793467998504638672e+00 -2.527034759521484375e+00 -1.296150803565979004e+00 2.030312776565551758e+00
3.467000000000000000e+03 1.885587120056152344e+01 -4.930348396301269531e+00 -2.606560945510864258e+00 -2.528348445892333984e+00 -1.540472865104675293e+00 2.542965173721313477e+00
3.468000000000000000e+03 1.831238174438476562e+01 -4.393686294555664062e+00 -2.918824434280395508e+00 -2.526411771774291992e+00 -1.633570790290832520e+00 2.585370302200317383e+00
3.469000000000000000e+03 1.939846801757812500e+01 -5.466702461242675781e+00 -2.557886838912963867e+00 -2.584509372711181641e+00 -1.542718887329101562e+00 2.543833494186401367e+00
3.470000000000000000e+03 1.994004440307617188e+01 -6.002428531646728516e+00 -2.557796239852905273e+00 -2.876673460006713867e+00 -1.630340933799743652e+00 2.596709966659545898e+00
3.471000000000000000e+03 2.048459243774414062e+01 -5.500192165374755859e+00 -2.174116134643554688e+00 -2.480432033538818359e+00 -1.396364450454711914e+00 2.096272706985473633e+00
3.472000000000000000e+03 1.880515289306640625e+01 -3.840278863906860352e+00 -2.500072240829467773e+00 -2.152788162231445312e+00 -1.395858049392700195e+00 2.078859806060791016e+00
3.473000000000000000e+03 1.936590194702148438e+01 -4.393997669219970703e+00 -2.453773021697998047e+00 -2.254938125610351562e+00 -1.412613272666931152e+00 2.211388826370239258e+00
3.474000000000000000e+03 1.992575645446777344e+01 -4.947409152984619141e+00 -2.268055915832519531e+00 -2.430281877517700195e+00 -1.409501314163208008e+00 2.218169212341308594e+00
3.475000000000000000e+03 1.695117187500000000e+01 -2.380243301391601562e+00 -2.583362579345703125e+00 -1.730179905891418457e+00 -1.294062733650207520e+00 1.988467454910278320e+00
3.476000000000000000e+03 1.651630020141601562e+01 -2.979079723358154297e+00 -2.923361301422119141e+00 -1.751750111579895020e+00 -1.402533411979675293e+00 2.236682891845703125e+00
3.477000000000000000e+03 1.590384101867675781e+01 -2.523920059204101562e+00 -3.083928346633911133e+00 -1.681925058364868164e+00 -1.429756045341491699e+00 2.166831731796264648e+00
3.478000000000000000e+03 1.712716102600097656e+01 -3.436568260192871094e+00 -2.979494571685791016e+00 -1.866015195846557617e+00 -1.453652977943420410e+00 2.331653118133544922e+00
3.479000000000000000e+03 1.758174324035644531e+01 -2.852491855621337891e+00 -2.506340026855468750e+00 -1.967537045478820801e+00 -1.342163205146789551e+00 2.094863653182983398e+00
3.480000000000000000e+03 1.773609352111816406e+01 -3.896142244338989258e+00 -3.105001926422119141e+00 -2.234632253646850586e+00 -1.601890206336975098e+00 2.506041526794433594e+00
3.481000000000000000e+03 1.821038436889648438e+01 -3.326825857162475586e+00 -2.452172994613647461e+00 -2.125290870666503906e+00 -1.373239159584045410e+00 2.049491405487060547e+00
3.482000000000000000e+03 1.631900405883789062e+01 -1.910323858261108398e+00 -2.513814449310302734e+00 -1.618793487548828125e+00 -1.239782452583312988e+00 1.816449403762817383e+00
3.483000000000000000e+03 1.460399055480957031e+01 -1.730789542198181152e+00 -2.874877929687500000e+00 -1.111481428146362305e+00 -1.195907831192016602e+00 1.765552759170532227e+00
3.484000000000000000e+03 1.394003677368164062e+01 -1.356149435043334961e+00 -2.718981981277465820e+00 -1.005656957626342773e+00 -1.117391705513000488e+00 1.633380770683288574e+00
3.485000000000000000e+03 1.327490711212158203e+01 -9.841976165771484375e-01 -2.723184347152709961e+00 -9.366491436958312988e-01 -1.097949981689453125e+00 1.509628891944885254e+00
3.486000000000000000e+03 1.429506587982177734e+01 -7.068015336990356445e-01 -2.343548059463500977e+00 -1.138548970222473145e+00 -1.044629096984863281e+00 1.546947717666625977e+00
3.487000000000000000e+03 1.497913169860839844e+01 -1.092790365219116211e+00 -2.382487535476684570e+00 -1.346889257431030273e+00 -1.118813037872314453e+00 1.707387685775756836e+00
3.488000000000000000e+03 1.526644039154052734e+01 -2.107936620712280273e+00 -3.109952211380004883e+00 -1.414525270462036133e+00 -1.357343196868896484e+00 1.987968444824218750e+00
3.489000000000000000e+03 1.566169452667236328e+01 -1.481285929679870605e+00 -2.400892496109008789e+00 -1.537243366241455078e+00 -1.181440711021423340e+00 1.745143771171569824e+00
3.490000000000000000e+03 1.360982322692871094e+01 -3.235010504722595215e-01 -2.187255620956420898e+00 -1.046320199966430664e+00 -9.700727462768554688e-01 1.383120894432067871e+00
3.491000000000000000e+03 1.136861705780029297e+01 6.672526597976684570e-01 -1.852998018264770508e+00 -6.472514271736145020e-01 -7.500748634338378906e-01 9.781236648559570312e-01
3.492000000000000000e+03 1.043688488006591797e+01 2.462611943483352661e-01 -2.192746877670288086e+00 -4.729376435279846191e-01 -7.997053861618041992e-01 8.176074624061584473e-01
3.493000000000000000e+03 1.187135696411132812e+01 -3.428127467632293701e-01 -2.334544897079467773e+00 -5.557115077972412109e-01 -8.670769333839416504e-01 1.107614398002624512e+00
3.494000000000000000e+03 1.258574008941650391e+01 -6.459255814552307129e-01 -2.609184265136718750e+00 -7.460170388221740723e-01 -1.006560325622558594e+00 1.317079305648803711e+00
3.495000000000000000e+03 1.288842964172363281e+01 2.964896708726882935e-02 -2.034608125686645508e+00 -9.577483534812927246e-01 -8.977069258689880371e-01 1.280286073684692383e+00
3.496000000000000000e+03 1.060655117034912109e+01 9.770575761795043945e-01 -1.539500474929809570e+00 -6.279317140579223633e-01 -6.502296328544616699e-01 8.043528795242309570e-01
3.497000000000000000e+03 1.212970542907714844e+01 3.511690795421600342e-01 -1.932440876960754395e+00 -7.845138907432556152e-01 -8.150864243507385254e-01 1.190073251724243164e+00
3.498000000000000000e+03 1.115460968017578125e+01 -4.513646289706230164e-02 -2.149475336074829102e+00 -4.689906239509582520e-01 -7.855398058891296387e-01 9.939334392547607422e-01
3.499000000000000000e+03 9.852642059326171875e+00 1.127630591392517090e+00 -1.337715864181518555e+00 -5.187844038009643555e-01 -5.569500923156738281e-01 8.049139976501464844e-01
3.500000000000000000e+03 8.934872627258300781e+00 3.838182985782623291e-01 -1.233327388763427734e+00 -2.160936780273914337e-02 -3.764810264110565186e-01 2.105437666177749634e-01
3.501000000000000000e+03 8.173450469970703125e+00 3.805501461029052734e-01 -8.699306249618530273e-01 -3.462557494640350342e-02 -2.713668644428253174e-01 1.476936042308807373e-01
3.502000000000000000e+03 7.412311553955078125e+00 3.753647208213806152e-01 -6.124693155288696289e-01 -1.157011464238166809e-02 -1.872118264436721802e-01 1.047910600900650024e-01
3.503000000000000000e+03 6.650998592376708984e+00 3.733136355876922607e-01 -4.188324809074401855e-01 -1.127404440194368362e-02 -1.290319561958312988e-01 7.997505366802215576e-02
3.504000000000000000e+03 5.128288269042968750e+00 3.666210770606994629e-01 -1.597456187009811401e-01 -6.794673390686511993e-03 -4.996208846569061279e-02 4.596880823373794556e-02
3.505000000000000000e+03 4.367394924163818359e+00 3.671234846115112305e-01 -7.760255783796310425e-02 -5.774544551968574524e-03 -2.501313202083110809e-02 3.246974200010299683e-02
3.506000000000000000e+03 2.846046209335327148e+00 3.605891168117523193e-01 1.377118192613124847e-02 -7.162207737565040588e-03 1.982692163437604904e-03 1.067701168358325958e-02
3.507000000000000000e+03 2.087270975112915039e+00 3.584179878234863281e-01 2.416813932359218597e-02 -2.393476199358701706e-03 6.532398518174886703e-03 1.953045837581157684e-03
3.508000000000000000e+03 2.412721395492553711e+00 1.098417997360229492e+00 -3.456576168537139893e-02 -2.550653927028179169e-02 -1.802168972790241241e-02 2.490667439997196198e-02
3.509000000000000000e+03 1.340976357460021973e+00 3.674286305904388428e-01 1.517533883452415466e-02 -4.155179951339960098e-03 3.306047758087515831e-03 -6.307774223387241364e-03
3.510000000000000000e+03 1.683374881744384766e+00 1.107428669929504395e+00 -1.148596871644258499e-02 -1.648915745317935944e-02 -8.392537944018840790e-03 2.947199624031782150e-03
3.511000000000000000e+03 6.602545380592346191e-01 3.962357640266418457e-01 6.105630658566951752e-03 2.988232765346765518e-03 2.728158840909600258e-03 -3.552751382812857628e-03
3.512000000000000000e+03 3.572900295257568359e-01 9.584811329841613770e-01 -9.899238357320427895e-04 9.273213334381580353e-03 2.484987024217844009e-03 -5.645821802318096161e-03
3.513000000000000000e+03 3.154548645019531250e+00 1.100589156150817871e+00 -7.326239347457885742e-02 -2.385709993541240692e-02 -2.913584932684898376e-02 5.373480543494224548e-02
3.514000000000000000e+03 3.606354475021362305e+00 3.667278885841369629e-01 -1.918117888271808624e-02 -3.078336594626307487e-03 -6.677854340523481369e-03 2.380982786417007446e-02
3.515000000000000000e+03 5.385946273803710938e+00 1.106621026992797852e+00 -2.911517322063446045e-01 -3.300017118453979492e-02 -9.724556654691696167e-02 1.536862999200820923e-01
3.516000000000000000e+03 5.889441967010498047e+00 3.716917037963867188e-01 -2.723879218101501465e-01 -7.310529705137014389e-03 -8.390953391790390015e-02 6.131616234779357910e-02
3.517000000000000000e+03 7.619125843048095703e+00 1.115364670753479004e+00 -7.441521883010864258e-01 -8.708593994379043579e-02 -2.493714392185211182e-01 3.317541480064392090e-01
3.518000000000000000e+03 8.363317489624023438e+00 1.120550155639648438e+00 -9.707947969436645508e-01 -1.025808453559875488e-01 -3.220126926898956299e-01 4.295701682567596436e-01
3.519000000000000000e+03 9.107789993286132812e+00 1.123818278312683105e+00 -1.271735191345214844e+00 -2.659927904605865479e-01 -4.613183736801147461e-01 6.487725377082824707e-01
3.520000000000000000e+03 9.696672439575195312e+00 3.876306116580963135e-01 -1.879169940948486328e+00 -2.663749456405639648e-01 -6.436634659767150879e-01 4.583007693290710449e-01
3.521000000000000000e+03 6.874760627746582031e+00 1.113313674926757812e+00 -5.597558617591857910e-01 -4.887422919273376465e-02 -1.825890243053436279e-01 2.532507181167602539e-01
3.522000000000000000e+03 6.130152225494384766e+00 1.111691713333129883e+00 -4.107324779033660889e-01 -4.399876669049263000e-02 -1.364193707704544067e-01 1.996232718229293823e-01
3.523000000000000000e+03 4.642001152038574219e+00 1.107123494148254395e+00 -1.969172805547714233e-01 -3.127760067582130432e-02 -6.845846027135848999e-02 1.172049939632415771e-01
3.524000000000000000e+03 3.897908926010131836e+00 1.106727957725524902e+00 -1.277630329132080078e-01 -2.574145421385765076e-02 -4.605134576559066772e-02 8.203878998756408691e-02
3.525000000000000000e+03 1.019601225852966309e+00 1.136235833168029785e+00 -2.710466971620917320e-03 -5.774769932031631470e-03 -2.545570954680442810e-03 -8.417133241891860962e-03
3.526000000000000000e+03 1.356510353088378906e+01 -2.044676303863525391e+00 2.593593853816855699e-05 4.875410013482905924e-05 2.240701178379822522e-05 2.555109858803916723e-05
3.527000000000000000e+03 1.321007442474365234e+01 -2.694024085998535156e+00 -4.852137135458178818e-05 -5.912618871661834419e-05 -3.229426874895580113e-05 -2.657458571775350720e-05
3.528000000000000000e+03 1.258673477172851562e+01 -2.342205762863159180e+00 5.002870966563932598e-05 6.943449261598289013e-05 3.583895886549726129e-05 2.831351412169169635e-05
3.529000000000000000e+03 1.420777034759521484e+01 -2.407426834106445312e+00 -2.680067154869902879e-05 -4.709176209871657193e-05 -2.216773100371938199e-05 -2.603081884444691241e-05
3.530000000000000000e+03 1.383262920379638672e+01 -3.045426130294799805e+00 4.938954225508496165e-05 5.283370046527124941e-05 3.066697172471322119e-05 2.436513204884249717e-05
3.531000000000000000e+03 1.445424365997314453e+01 -3.396085023880004883e+00 -4.912208532914519310e-05 -4.806276774615980685e-05 -2.915545519499573857e-05 -2.330749703105539083e-05
3.532000000000000000e+03 1.484949779510498047e+01 -2.769434452056884766e+00 2.764590499282348901e-05 4.429286855156533420e-05 2.158163079002406448e-05 2.536272404540795833e-05
3.533000000000000000e+03 1.292164993286132812e+01 -1.681509137153625488e+00 -2.491678424121346325e-05 -4.951603114022873342e-05 -2.232984479633159935e-05 -2.506920100131537765e-05
3.534000000000000000e+03 1.114702796936035156e+01 -1.674520134925842285e+00 6.123885395936667919e-05 7.657399692106992006e-05 4.134385380893945694e-05 2.726381171669345349e-05
3.535000000000000000e+03 1.155607700347900391e+01 -1.043098807334899902e+00 -2.654466879903338850e-05 -6.648306589340791106e-05 -2.790831968013662845e-05 -2.220864735136274248e-05
3.536000000000000000e+03 1.007052421569824219e+01 -1.379528045654296875e+00 -9.397149551659822464e-05 -6.974014104343950748e-05 -4.911349242320284247e-05 1.010447795124491677e-05
3.537000000000000000e+03 1.091052532196044922e+01 -7.195191383361816406e-01 1.824367973313201219e-05 8.033053018152713776e-05 2.957226388389244676e-05 3.449918222031556070e-05
3.538000000000000000e+03 1.189208316802978516e+01 -2.005299091339111328e+00 -4.806807919521816075e-05 -6.658537313342094421e-05 -3.439603460719808936e-05 -2.938280522357672453e-05
3.539000000000000000e+03 1.224500656127929688e+01 -1.350578069686889648e+00 2.483404023223556578e-05 4.857148087467066944e-05 2.202165705966763198e-05 2.400556149950716645e-05
3.540000000000000000e+03 1.012131404876708984e+01 -8.739756941795349121e-01 1.189579779747873545e-04 4.775441993842832744e-05 5.001372119295410812e-05 4.754893961944617331e-05
3.541000000000000000e+03 1.027311420440673828e+01 -4.096257984638214111e-01 -3.474622644716873765e-05 -7.791132520651444793e-05 -3.379726331331767142e-05 -2.931450399046298116e-05
3.542000000000000000e+03 1.058933448791503906e+01 -1.247088074684143066e+00 -4.648376852856017649e-05 -5.577194315264932811e-05 -3.067671423195861280e-05 -6.202026270329952240e-05
3.543000000000000000e+03 8.909210205078125000e+00 -3.212539851665496826e-01 8.463778067380189896e-05 -7.133906183298677206e-05 3.989613560406723991e-06 -7.563935923826647922e-06
3.544000000000000000e+03 9.317807197570800781e+00 -1.205478549003601074e+00 6.285835843300446868e-05 1.163973138318397105e-04 5.377670095185749233e-05 6.062105239834636450e-05
3.545000000000000000e+03 9.460213661193847656e+00 -6.912539601325988770e-01 -1.760027953423559666e-04 2.534215309424325824e-05 -4.519819049164652824e-05 -5.628370490740053356e-05
3.546000000000000000e+03 8.266005516052246094e+00 -6.800254583358764648e-01 -1.425574009772390127e-04 -6.156566087156534195e-05 -6.123691855464130640e-05 -1.166759375337278470e-05
3.547000000000000000e+03 7.622209548950195312e+00 -4.054784178733825684e-01 1.025861129164695740e-04 1.119353255489841104e-04 6.435642717406153679e-05 8.388107380596920848e-05
3.548000000000000000e+03 6.825774669647216797e+00 -3.814763724803924561e-01 -4.979105870006605983e-05 -1.223302242578938603e-04 -5.163638343219645321e-05 -7.310896762646734715e-05
3.549000000000000000e+03 6.001619815826416016e+00 -3.739211261272430420e-01 7.387621735688298941e-05 1.395545550622045994e-04 6.402923463610932231e-05 9.305596904596313834e-05
3.550000000000000000e+03 5.174842834472656250e+00 -3.715220093727111816e-01 -8.106694440357387066e-05 -1.368365337839350104e-04 -6.537104491144418716e-05 -1.041651776176877320e-04
3.551000000000000000e+03 4.347759723663330078e+00 -3.725122809410095215e-01 9.559198224451392889e-05 1.079631038010120392e-04 6.106652290327474475e-05 9.874373063212260604e-05
3.552000000000000000e+03 3.520621299743652344e+00 -3.760701715946197510e-01 -8.347278344444930553e-05 -6.422877777367830276e-05 -4.431046909303404391e-05 -6.861344445496797562e-05
3.553000000000000000e+03 2.694509983062744141e+00 -3.805325925350189209e-01 5.643625627271831036e-05 2.979258897539693862e-05 2.586865412013139576e-05 3.372107676113955677e-05
3.554000000000000000e+03 1.143715500831604004e+00 -3.599454164505004883e-01 1.320056344411568716e-05 3.598330658860504627e-05 1.475516091886674985e-05 2.330795950911124237e-06
3.555000000000000000e+03 4.021799862384796143e-01 -5.506002306938171387e-01 -1.400549535901518539e-05 -2.847931864380370826e-05 -1.274544410989619792e-05 -1.638617140997666866e-05
3.556000000000000000e+03 7.210693359375000000e-01 -1.099945425987243652e+00 -1.302705204579979181e-04 3.725292572198668495e-06 -3.796356759266927838e-05 -2.352091178181581199e-05
3.557000000000000000e+03 8.506304740905761719e+00 -1.218084216117858887e+00 1.514026916993316263e-05 -2.063181600533425808e-04 -5.735336526413448155e-05 -3.368483521626330912e-05
3.558000000000000000e+03 7.803927898406982422e+00 -1.221213579177856445e+00 9.364787547383457422e-05 1.813076960388571024e-04 8.248667290899902582e-05 -3.273031552453176118e-06
3.559000000000000000e+03 7.101232528686523438e+00 -1.145478367805480957e+00 -1.141463799285702407e-04 -1.233189250342547894e-04 -7.123959221644327044e-05 -5.643309123115614057e-05
3.560000000000000000e+03 6.317089557647705078e+00 -1.121476411819458008e+00 6.555055006174370646e-05 1.350793463643640280e-04 6.018896965542808175e-05 6.948364898562431335e-05
3.561000000000000000e+03 5.505225658416748047e+00 -1.113921165466308594e+00 -6.304648559307679534e-05 -1.276866969419643283e-04 -5.721995694329962134e-05 -8.206178608816117048e-05
3.562000000000000000e+03 4.690740108489990234e+00 -1.111521959304809570e+00 9.452621452510356903e-05 9.836223034653812647e-05 5.786653491668403149e-05 1.091431186068803072e-04
3.563000000000000000e+03 3.875948190689086914e+00 -1.112512230873107910e+00 -1.452933938708156347e-04 -4.520914080785587430e-05 -5.715075894840992987e-05 -1.089649595087394118e-04
3.564000000000000000e+03 3.061101198196411133e+00 -1.116070151329040527e+00 1.693077210802584887e-04 1.495015476393746212e-05 5.527736357180401683e-05 6.294675404205918312e-05
3.565000000000000000e+03 2.247281074523925781e+00 -1.120532631874084473e+00 -9.956859139492735267e-05 -4.461993012228049338e-05 -4.325655754655599594e-05 -2.376223892497364432e-05
3.566000000000000000e+03 1.882497906684875488e+00 -3.807797729969024658e-01 -3.113590355496853590e-05 -2.011466131079941988e-05 -1.537516982352826744e-05 -1.003644501906819642e-05
3.567000000000000000e+03 9.580569267272949219e+00 -2.457754313945770264e-01 8.447883737972006202e-05 8.622070163255557418e-05 5.120986315887421370e-05 -1.511482423666166142e-05
3.568000000000000000e+03 1.447560310363769531e+00 -1.120779752731323242e+00 6.925754132680594921e-05 5.787450936622917652e-05 3.813961666310206056e-05 5.599618452833965421e-05
3.569000000000000000e+03 4.614409255981445312e+01 -2.068768882751464844e+01 2.534660148620605469e+01 1.235082721710205078e+01 1.130922889709472656e+01 1.587462806701660156e+01
3.570000000000000000e+03 4.615304946899414062e+01 -2.070497322082519531e+01 1.894174766540527344e+01 2.644218063354492188e+01 1.361517906188964844e+01 2.071523475646972656e+01
3.571000000000000000e+03 4.616520309448242188e+01 -2.072018241882324219e+01 1.564950466156005859e+01 3.724509429931640625e+01 1.586837959289550781e+01 2.053004074096679688e+01
3.572000000000000000e+03 4.618008804321289062e+01 -2.073273277282714844e+01 1.232570934295654297e+01 4.687630462646484375e+01 1.776060485839843750e+01 1.792986869812011719e+01
3.573000000000000000e+03 4.619712829589843750e+01 -2.074214935302734375e+01 1.072162342071533203e+01 5.464696502685546875e+01 1.961057662963867188e+01 1.332283687591552734e+01
3.574000000000000000e+03 4.621567535400390625e+01 -2.074806594848632812e+01 9.837706565856933594e+00 5.957888793945312500e+01 2.082497787475585938e+01 7.583517551422119141e+00
3.575000000000000000e+03 4.623501968383789062e+01 -2.075025939941406250e+01 1.160316562652587891e+01 6.223840332031250000e+01 2.215246963500976562e+01 1.167867064476013184e+00
3.576000000000000000e+03 4.625442123413085938e+01 -2.074864387512207031e+01 1.397737407684326172e+01 6.172542572021484375e+01 2.271084022521972656e+01 -4.686401844024658203e+00
3.577000000000000000e+03 4.627313613891601562e+01 -2.074328231811523438e+01 1.871379089355468750e+01 5.927577209472656250e+01 2.339686965942382812e+01 -9.468395233154296875e+00
3.578000000000000000e+03 4.629045104980468750e+01 -2.073437881469726562e+01 2.334642601013183594e+01 5.509205627441406250e+01 2.353154563903808594e+01 -1.247016239166259766e+01
3.579000000000000000e+03 4.630569839477539062e+01 -2.072227668762207031e+01 2.874558830261230469e+01 5.024678039550781250e+01 2.369771003723144531e+01 -1.353316211700439453e+01
3.580000000000000000e+03 4.631830215454101562e+01 -2.070743751525878906e+01 3.316636276245117188e+01 4.558937072753906250e+01 2.362672042846679688e+01 -1.283128833770751953e+01
3.581000000000000000e+03 4.632777023315429688e+01 -2.069042778015136719e+01 3.656676864624023438e+01 4.159715270996093750e+01 2.344917678833007812e+01 -1.068424415588378906e+01
3.582000000000000000e+03 4.633375167846679688e+01 -2.067189979553222656e+01 3.893400955200195312e+01 3.931912231445312500e+01 2.347593879699707031e+01 -7.441514492034912109e+00
3.583000000000000000e+03 4.633600616455078125e+01 -2.065256309509277344e+01 3.949866485595703125e+01 3.776844787597656250e+01 2.318013381958007812e+01 -3.865219116210937500e+00
3.584000000000000000e+03 4.633445739746093750e+01 -2.063315582275390625e+01 3.897398757934570312e+01 3.831812286376953125e+01 2.318763351440429688e+01 -5.050807595252990723e-01
3.585000000000000000e+03 4.632915496826171875e+01 -2.061442375183105469e+01 3.718014907836914062e+01 4.069871902465820312e+01 2.336366081237792969e+01 2.682780981063842773e+00
3.586000000000000000e+03 4.632031250000000000e+01 -2.059708023071289062e+01 3.392726516723632812e+01 4.280726623535156250e+01 2.302036094665527344e+01 4.921058654785156250e+00
3.587000000000000000e+03 4.630825805664062500e+01 -2.058179092407226562e+01 3.081926155090332031e+01 4.749426651000976562e+01 2.349405860900878906e+01 5.544377803802490234e+00
3.588000000000000000e+03 4.629346084594726562e+01 -2.056913948059082031e+01 2.630655288696289062e+01 5.138813018798828125e+01 2.330840492248535156e+01 5.024449825286865234e+00
3.589000000000000000e+03 4.627648544311523438e+01 -2.055961227416992188e+01 2.247598648071289062e+01 5.541205596923828125e+01 2.336641311645507812e+01 2.611092329025268555e+00
3.590000000000000000e+03 4.625797653198242188e+01 -2.055357170104980469e+01 1.923331069946289062e+01 5.811571121215820312e+01 2.320470619201660156e+01 -1.213845729827880859e+00
3.591000000000000000e+03 4.623864746093750000e+01 -2.055125045776367188e+01 1.728263282775878906e+01 5.919942092895507812e+01 2.294461631774902344e+01 -6.465947151184082031e+00
3.592000000000000000e+03 4.621923828125000000e+01 -2.055273818969726562e+01 1.657439994812011719e+01 5.778654479980468750e+01 2.230828285217285156e+01 -1.204993152618408203e+01
3.593000000000000000e+03 4.620048522949218750e+01 -2.055797386169433594e+01 1.779770469665527344e+01 5.396345520019531250e+01 2.152834701538085938e+01 -1.742229461669921875e+01
3.594000000000000000e+03 4.618311309814453125e+01 -2.056676101684570312e+01 2.011562919616699219e+01 4.774984359741210938e+01 2.035964202880859375e+01 -2.169162559509277344e+01
3.595000000000000000e+03 4.616778564453125000e+01 -2.057876396179199219e+01 2.327740287780761719e+01 3.976794433593750000e+01 1.891360473632812500e+01 -2.422617721557617188e+01
3.596000000000000000e+03 4.615508651733398438e+01 -2.059351921081542969e+01 2.637755584716796875e+01 3.073285865783691406e+01 1.713312530517578125e+01 -2.469652557373046875e+01
3.597000000000000000e+03 4.614550018310546875e+01 -2.061046409606933594e+01 2.874664878845214844e+01 2.164986419677734375e+01 1.511895370483398438e+01 -2.305223083496093750e+01
3.598000000000000000e+03 4.613940048217773438e+01 -2.062895202636718750e+01 3.000811004638671875e+01 1.295490360260009766e+01 1.288890361785888672e+01 -1.921430397033691406e+01
3.599000000000000000e+03 4.613701248168945312e+01 -2.064827346801757812e+01 2.924468994140625000e+01 5.721740722656250000e+00 1.048992919921875000e+01 -1.388512992858886719e+01
3.600000000000000000e+03 4.613843536376953125e+01 -2.066769027709960938e+01 2.586513900756835938e+01 1.437798857688903809e+00 8.190881729125976562e+00 -3.414241313934326172e+00
