# el_label, x, y, sXX, sYY, sZZ, sXY
1.000000000000000000e+00 1.248458862304687500e+01 -1.065035104751586914e+00 9.074602276086807251e-02 -2.843024134635925293e-01 -5.806691944599151611e-02 -2.747779607772827148e+00
2.000000000000000000e+00 1.229382038116455078e+01 -1.008247494697570801e+00 4.319465637207031250e+00 6.955528259277343750e-01 1.504505634307861328e+00 -4.497389197349548340e-01
3.000000000000000000e+00 1.210305309295654297e+01 -9.514600038528442383e-01 2.148810863494873047e+00 -1.147045791149139404e-01 6.102318763732910156e-01 -8.173627257347106934e-01
4.000000000000000000e+00 1.191228485107421875e+01 -8.946723937988281250e-01 1.791741013526916504e+00 2.637149989604949951e-01 6.166368126869201660e-01 -3.367688655853271484e-01
5.000000000000000000e+00 1.247347927093505859e+01 -1.122382521629333496e+00 1.343157482147216797e+01 -1.348328828811645508e+00 3.624973773956298828e+00 -3.849492788314819336e+00
6.000000000000000000e+00 1.227530574798583984e+01 -1.103826761245727539e+00 7.266974925994873047e+00 1.853591501712799072e-01 2.235700368881225586e+00 -1.000549674034118652e+00
7.000000000000000000e+00 1.207713222503662109e+01 -1.085270762443542480e+00 7.015422344207763672e+00 5.500919371843338013e-02 2.121129512786865234e+00 -3.018608093261718750e-01
8.000000000000000000e+00 1.187895774841308594e+01 -1.066714882850646973e+00 5.064980030059814453e+00 -2.178202569484710693e-01 1.454148054122924805e+00 -3.932749330997467041e-01
9.000000000000000000e+00 1.247374916076660156e+01 -1.180795550346374512e+00 2.141756439208984375e+01 -1.347161531448364258e+00 6.021120548248291016e+00 8.131339550018310547e-01
1.000000000000000000e+01 1.227575492858886719e+01 -1.201181650161743164e+00 1.354906654357910156e+01 -5.432325601577758789e-01 3.901750326156616211e+00 2.053397595882415771e-01
1.100000000000000000e+01 1.207776165008544922e+01 -1.221567749977111816e+00 1.013252735137939453e+01 2.555999346077442169e-02 3.047426223754882812e+00 8.053313493728637695e-01
1.200000000000000000e+01 1.187976741790771484e+01 -1.241953730583190918e+00 9.001928329467773438e+00 -2.161158770322799683e-01 2.635743856430053711e+00 9.916099309921264648e-01
1.300000000000000000e+01 1.248538780212402344e+01 -1.238037943840026855e+00 2.603549957275390625e+01 6.849383115768432617e-01 8.016131401062011719e+00 5.895572662353515625e+00
1.400000000000000000e+01 1.229515266418457031e+01 -1.296585679054260254e+00 1.731232833862304688e+01 3.920101523399353027e-01 5.311301231384277344e+00 3.684189319610595703e+00
1.500000000000000000e+01 1.210491752624511719e+01 -1.355133295059204102e+00 1.379167842864990234e+01 3.165830671787261963e-01 4.232478618621826172e+00 3.046454906463623047e+00
1.600000000000000000e+01 1.191468238830566406e+01 -1.413681030273437500e+00 1.143187808990478516e+01 4.085543155670166016e-01 3.552129745483398438e+00 2.799807071685791016e+00
1.700000000000000000e+01 1.250794887542724609e+01 -1.291918635368347168e+00 2.713465881347656250e+01 4.905216217041015625e+00 9.611962318420410156e+00 1.103703117370605469e+01
1.800000000000000000e+01 1.233275508880615234e+01 -1.386386871337890625e+00 1.942491149902343750e+01 2.756052255630493164e+00 6.654289245605468750e+00 7.347400665283203125e+00
1.900000000000000000e+01 1.215756130218505859e+01 -1.480854868888854980e+00 1.541748046875000000e+01 2.165004014968872070e+00 5.274745464324951172e+00 5.924435615539550781e+00
2.000000000000000000e+01 1.198236656188964844e+01 -1.575322985649108887e+00 1.314005279541015625e+01 1.713031530380249023e+00 4.455925464630126953e+00 5.281596660614013672e+00
2.100000000000000000e+01 1.254057025909423828e+01 -1.340375065803527832e+00 2.605880355834960938e+01 1.057750511169433594e+01 1.099089241027832031e+01 1.481386375427246094e+01
2.200000000000000000e+01 1.238712310791015625e+01 -1.467147588729858398e+00 1.932689857482910156e+01 6.650365352630615234e+00 7.793179035186767578e+00 1.050166606903076172e+01
2.300000000000000000e+01 1.223367595672607422e+01 -1.593919992446899414e+00 1.582506752014160156e+01 5.115846157073974609e+00 6.282274246215820312e+00 8.672815322875976562e+00
2.400000000000000000e+01 1.208022880554199219e+01 -1.720692396163940430e+00 1.332783508300781250e+01 4.274465560913085938e+00 5.280690193176269531e+00 7.580880165100097656e+00
2.500000000000000000e+01 1.258200168609619141e+01 -1.381552457809448242e+00 2.331024360656738281e+01 1.707370376586914062e+01 1.211518383026123047e+01 1.674189758300781250e+01
2.600000000000000000e+01 1.245617580413818359e+01 -1.535776495933532715e+00 1.808329391479492188e+01 1.138347816467285156e+01 8.840031623840332031e+00 1.250117778778076172e+01
2.700000000000000000e+01 1.233034992218017578e+01 -1.690000534057617188e+00 1.479911231994628906e+01 8.950057029724121094e+00 7.124750614166259766e+00 1.053888893127441406e+01
2.800000000000000000e+01 1.220452308654785156e+01 -1.844224572181701660e+00 1.278666687011718750e+01 7.658293247222900391e+00 6.133488178253173828e+00 9.397354125976562500e+00
2.900000000000000000e+01 1.263065814971923828e+01 -1.413874506950378418e+00 2.030342102050781250e+01 2.341676712036132812e+01 1.311605644226074219e+01 1.659587860107421875e+01
3.000000000000000000e+01 1.253726959228515625e+01 -1.589646577835083008e+00 1.597404766082763672e+01 1.633944702148437500e+01 9.694048881530761719e+00 1.306521892547607422e+01
3.100000000000000000e+01 1.244388103485107422e+01 -1.765418648719787598e+00 1.327762603759765625e+01 1.316777706146240234e+01 7.933620929718017578e+00 1.124912166595458984e+01
3.200000000000000000e+01 1.235049247741699219e+01 -1.941190719604492188e+00 1.142041969299316406e+01 1.121364021301269531e+01 6.790217876434326172e+00 1.004406356811523438e+01
3.300000000000000000e+01 1.268467617034912109e+01 -1.436103940010070801e+00 1.764963531494140625e+01 2.877919387817382812e+01 1.392864894866943359e+01 1.464194869995117188e+01
3.400000000000000000e+01 1.262730026245117188e+01 -1.626695632934570312e+00 1.398890399932861328e+01 2.085544967651367188e+01 1.045330619812011719e+01 1.223121738433837891e+01
3.500000000000000000e+01 1.256992435455322266e+01 -1.817287445068359375e+00 1.155310249328613281e+01 1.711724281311035156e+01 8.601103782653808594e+00 1.068109321594238281e+01
3.600000000000000000e+01 1.251254844665527344e+01 -2.007879018783569336e+00 9.877201080322265625e+00 1.478812313079833984e+01 7.399597167968750000e+00 9.609763145446777344e+00
3.700000000000000000e+01 1.274198913574218750e+01 -1.447389960289001465e+00 1.612497329711914062e+01 3.251491928100585938e+01 1.459196758270263672e+01 1.157100200653076172e+01
3.800000000000000000e+01 1.272282218933105469e+01 -1.645505666732788086e+00 1.257400894165039062e+01 2.442378807067871094e+01 1.109933853149414062e+01 1.019203472137451172e+01
3.900000000000000000e+01 1.270365428924560547e+01 -1.843621373176574707e+00 1.024633789062500000e+01 2.028221130371093750e+01 9.158564567565917969e+00 9.118717193603515625e+00
4.000000000000000000e+01 1.268448638916015625e+01 -2.041737079620361328e+00 8.702086448669433594e+00 1.776649284362792969e+01 7.940574169158935547e+00 8.301629066467285156e+00
4.100000000000000000e+01 1.280040264129638672e+01 -1.447300434112548828e+00 1.603777503967285156e+01 3.446496963500976562e+01 1.515082359313964844e+01 8.021958351135253906e+00
4.200000000000000000e+01 1.282017803192138672e+01 -1.645356416702270508e+00 1.204181957244873047e+01 2.665003585815429688e+01 1.160755634307861328e+01 7.538159847259521484e+00
4.300000000000000000e+01 1.283995246887207031e+01 -1.843412399291992188e+00 9.813463211059570312e+00 2.237782859802246094e+01 9.657387733459472656e+00 6.850303649902343750e+00
4.400000000000000000e+01 1.285972690582275391e+01 -2.041468381881713867e+00 8.206547737121582031e+00 1.955634117126464844e+01 8.328866958618164062e+00 6.396556377410888672e+00
4.500000000000000000e+01 1.285768127441406250e+01 -1.435838818550109863e+00 1.719539642333984375e+01 3.472753143310546875e+01 1.557687759399414062e+01 4.772210597991943359e+00
4.600000000000000000e+01 1.291564083099365234e+01 -1.626253604888916016e+00 1.264055824279785156e+01 2.743631362915039062e+01 1.202306175231933594e+01 4.747487068176269531e+00
4.700000000000000000e+01 1.297360134124755859e+01 -1.816668510437011719e+00 1.027122688293457031e+01 2.320425796508789062e+01 1.004264545440673828e+01 4.465515613555908203e+00
4.800000000000000000e+01 1.303156089782714844e+01 -2.007083415985107422e+00 8.634147644042968750e+00 2.037209129333496094e+01 8.701871871948242188e+00 4.172198295593261719e+00
4.900000000000000000e+01 1.291163063049316406e+01 -1.413443803787231445e+00 1.925078201293945312e+01 3.363974761962890625e+01 1.586715793609619141e+01 2.277530908584594727e+00
5.000000000000000000e+01 1.300555801391601562e+01 -1.588928699493408203e+00 1.424260616302490234e+01 2.695568275451660156e+01 1.235948657989501953e+01 2.445023298263549805e+00
5.100000000000000000e+01 1.309948444366455078e+01 -1.764413475990295410e+00 1.155947399139404297e+01 2.283171081542968750e+01 1.031735515594482422e+01 2.345858573913574219e+00
5.200000000000000000e+01 1.319341182708740234e+01 -1.939898371696472168e+00 9.863161087036132812e+00 2.022980117797851562e+01 9.027888298034667969e+00 2.355165243148803711e+00
5.300000000000000000e+01 1.296018791198730469e+01 -1.380972623825073242e+00 2.186013984680175781e+01 3.183801460266113281e+01 1.610944557189941406e+01 9.229207634925842285e-01
5.400000000000000000e+01 1.308648586273193359e+01 -1.534810185432434082e+00 1.640948104858398438e+01 2.540925407409667969e+01 1.254562091827392578e+01 9.207094311714172363e-01
5.500000000000000000e+01 1.321278381347656250e+01 -1.688647627830505371e+00 1.351073455810546875e+01 2.169353294372558594e+01 1.056128025054931641e+01 1.063847541809082031e+00
5.600000000000000000e+01 1.333908271789550781e+01 -1.842485070228576660e+00 1.157735157012939453e+01 1.902188682556152344e+01 9.179771423339843750e+00 1.096583962440490723e+00
5.700000000000000000e+01 1.300149250030517578e+01 -1.339668512344360352e+00 2.439288139343261719e+01 2.955353927612304688e+01 1.618392562866210938e+01 6.623052954673767090e-01
5.800000000000000000e+01 1.315532779693603516e+01 -1.465969800949096680e+00 1.880404663085937500e+01 2.353479957580566406e+01 1.270165443420410156e+01 5.535609722137451172e-01
5.900000000000000000e+01 1.330916309356689453e+01 -1.592271089553833008e+00 1.562389945983886719e+01 1.989821815490722656e+01 1.065663528442382812e+01 6.711105704307556152e-01
6.000000000000000000e+01 1.346299743652343750e+01 -1.718572378158569336e+00 1.349202442169189453e+01 1.755707740783691406e+01 9.314730644226074219e+00 7.488517761230468750e-01
6.100000000000000000e+01 1.303396511077880859e+01 -1.291112184524536133e+00 2.656078720092773438e+01 2.756470108032226562e+01 1.623764610290527344e+01 1.516564846038818359e+00
6.200000000000000000e+01 1.320944786071777344e+01 -1.385042667388916016e+00 2.081270790100097656e+01 2.150652313232421875e+01 1.269576930999755859e+01 1.251180171966552734e+00
6.300000000000000000e+01 1.338493061065673828e+01 -1.478973150253295898e+00 1.747289848327636719e+01 1.826269149780273438e+01 1.072067737579345703e+01 1.287921547889709473e+00
6.400000000000000000e+01 1.356041431427001953e+01 -1.572903633117675781e+00 1.518265342712402344e+01 1.599511814117431641e+01 9.353331565856933594e+00 1.268712520599365234e+00
6.500000000000000000e+01 1.305636119842529297e+01 -1.237162351608276367e+00 2.790673255920410156e+01 2.585284614562988281e+01 1.612787246704101562e+01 3.249410629272460938e+00
6.600000000000000000e+01 1.324677467346191406e+01 -1.295126199722290039e+00 2.204436302185058594e+01 2.016397285461425781e+01 1.266250038146972656e+01 2.878358364105224609e+00
6.700000000000000000e+01 1.343718814849853516e+01 -1.353090047836303711e+00 1.855349540710449219e+01 1.688265037536621094e+01 1.063084411621093750e+01 2.673303604125976562e+00
6.800000000000000000e+01 1.362760257720947266e+01 -1.411053895950317383e+00 1.622721481323242188e+01 1.498981285095214844e+01 9.365108489990234375e+00 2.569903135299682617e+00
6.900000000000000000e+01 1.306782341003417969e+01 -1.179883837699890137e+00 2.819026184082031250e+01 2.507463836669921875e+01 1.597947025299072266e+01 5.566154956817626953e+00
7.000000000000000000e+01 1.326587963104248047e+01 -1.199662208557128906e+00 2.212182235717773438e+01 1.948753547668457031e+01 1.248280715942382812e+01 5.071748733520507812e+00
7.100000000000000000e+01 1.346393489837646484e+01 -1.219440340995788574e+00 1.857031440734863281e+01 1.645474624633789062e+01 1.050751781463623047e+01 4.503369331359863281e+00
7.200000000000000000e+01 1.366199111938476562e+01 -1.239218592643737793e+00 1.625687980651855469e+01 1.433278560638427734e+01 9.176899909973144531e+00 4.303233146667480469e+00
7.300000000000000000e+01 1.306791400909423828e+01 -1.121469736099243164e+00 2.713762283325195312e+01 2.519964218139648438e+01 1.570117855072021484e+01 8.179427146911621094e+00
7.400000000000000000e+01 1.326603031158447266e+01 -1.102305293083190918e+00 2.092321395874023438e+01 1.987338256835937500e+01 1.223897933959960938e+01 7.251194953918457031e+00
7.500000000000000000e+01 1.346414661407470703e+01 -1.083140850067138672e+00 1.740421676635742188e+01 1.683887863159179688e+01 1.027292919158935547e+01 6.460954189300537109e+00
7.600000000000000000e+01 1.366226196289062500e+01 -1.063976407051086426e+00 1.518519020080566406e+01 1.453590774536132812e+01 8.916329383850097656e+00 5.898892402648925781e+00
7.700000000000000000e+01 1.305662918090820312e+01 -1.064156055450439453e+00 2.469786643981933594e+01 2.641414260864257812e+01 1.533360290527343750e+01 1.050447654724121094e+01
7.800000000000000000e+01 1.324722194671630859e+01 -1.006782531738281250e+00 1.844206809997558594e+01 2.117588233947753906e+01 1.188538551330566406e+01 9.006669044494628906e+00
7.900000000000000000e+01 1.343781375885009766e+01 -9.494089484214782715e-01 1.523338222503662109e+01 1.796061515808105469e+01 9.958199501037597656e+00 7.939732074737548828e+00
8.000000000000000000e+01 1.362840652465820312e+01 -8.920354247093200684e-01 1.315542221069335938e+01 1.568041419982910156e+01 8.650751113891601562e+00 7.155115127563476562e+00
8.100000000000000000e+01 1.303439998626708984e+01 -1.010136842727661133e+00 2.090853500366210938e+01 2.856814575195312500e+01 1.484300422668457031e+01 1.206292438507080078e+01
8.200000000000000000e+01 1.321017265319824219e+01 -9.167503714561462402e-01 1.504248809814453125e+01 2.311308670043945312e+01 1.144667243957519531e+01 9.827285766601562500e+00
8.300000000000000000e+01 1.338594627380371094e+01 -8.233639597892761230e-01 1.223710441589355469e+01 1.957678794860839844e+01 9.544167518615722656e+00 8.567683219909667969e+00
8.400000000000000000e+01 1.356171894073486328e+01 -7.299775481224060059e-01 1.054585170745849609e+01 1.727390861511230469e+01 8.345928192138671875e+00 7.694749355316162109e+00
8.500000000000000000e+01 1.300207805633544922e+01 -9.614797234535217285e-01 1.620174598693847656e+01 3.129368591308593750e+01 1.424862957000732422e+01 1.228870582580566406e+01
8.600000000000000000e+01 1.315630340576171875e+01 -8.356552720069885254e-01 1.111629390716552734e+01 2.519267845153808594e+01 1.089269161224365234e+01 9.470611572265625000e+00
8.700000000000000000e+01 1.331052780151367188e+01 -7.098308205604553223e-01 8.889997482299804688e+00 2.131861495971679688e+01 9.062583923339843750e+00 8.082119941711425781e+00
8.800000000000000000e+01 1.346475315093994141e+01 -5.840063095092773438e-01 7.536252021789550781e+00 1.874606513977050781e+01 7.884695053100585938e+00 7.230844974517822266e+00
8.900000000000000000e+01 1.296090030670166016e+01 -9.200475215911865234e-01 1.111429309844970703e+01 3.397485733032226562e+01 1.352674484252929688e+01 1.089295673370361328e+01
9.000000000000000000e+01 1.308767414093017578e+01 -7.666015028953552246e-01 7.283113002777099609e+00 2.682911300659179688e+01 1.023366737365722656e+01 7.818010807037353516e+00
9.100000000000000000e+01 1.321444797515869141e+01 -6.131555438041687012e-01 5.618741512298583984e+00 2.267294502258300781e+01 8.487505912780761719e+00 6.533160209655761719e+00
9.200000000000000000e+01 1.334122085571289062e+01 -4.597095549106597900e-01 4.593645095825195312e+00 1.982165718078613281e+01 7.324590682983398438e+00 5.749040126800537109e+00
9.300000000000000000e+01 1.291244411468505859e+01 -8.874260783195495605e-01 6.482814788818359375e+00 3.568670654296875000e+01 1.265085601806640625e+01 7.872462272644042969e+00
9.400000000000000000e+01 1.300691318511962891e+01 -7.122324705123901367e-01 4.033977508544921875e+00 2.758775711059570312e+01 9.486519813537597656e+00 5.083605766296386719e+00
9.500000000000000000e+01 1.310138225555419922e+01 -5.370388627052307129e-01 2.912040472030639648e+00 2.305333900451660156e+01 7.789613723754882812e+00 4.091655254364013672e+00
9.600000000000000000e+01 1.319585132598876953e+01 -3.618452548980712891e-01 2.276947975158691406e+00 2.018395233154296875e+01 6.738270282745361328e+00 3.577351093292236328e+00
9.700000000000000000e+01 1.285856246948242188e+01 -8.648641705513000488e-01 3.046812772750854492e+00 3.588394927978515625e+01 1.167922878265380859e+01 3.531000137329101562e+00
9.800000000000000000e+01 1.291711139678955078e+01 -6.746293306350708008e-01 1.788971424102783203e+00 2.679346084594726562e+01 8.574729919433593750e+00 1.752733826637268066e+00
9.900000000000000000e+01 1.297565937042236328e+01 -4.843944907188415527e-01 1.131186962127685547e+00 2.233981132507324219e+01 7.041299343109130859e+00 1.174035072326660156e+00
1.000000000000000000e+02 1.303420829772949219e+01 -2.941596508026123047e-01 8.541877269744873047e-01 1.929002189636230469e+01 6.043262958526611328e+00 9.817815423011779785e-01
1.010000000000000000e+02 1.280132007598876953e+01 -8.532255887985229492e-01 1.208018779754638672e+00 3.376921081542968750e+01 1.049316978454589844e+01 -1.205339789390563965e+00
1.020000000000000000e+02 1.282170677185058594e+01 -6.552316546440124512e-01 8.214482069015502930e-01 2.451228713989257812e+01 7.600121021270751953e+00 -1.745746731758117676e+00
1.030000000000000000e+02 1.284209251403808594e+01 -4.572376906871795654e-01 4.065273404121398926e-01 2.000736808776855469e+01 6.124168872833251953e+00 -1.575946807861328125e+00
1.040000000000000000e+02 1.286247920989990234e+01 -2.592437565326690674e-01 3.061459958553314209e-01 1.744338989257812500e+01 5.324861049652099609e+00 -1.515073299407958984e+00
1.050000000000000000e+02 1.274290657043457031e+01 -8.529556989669799805e-01 1.222859978675842285e+00 2.942088127136230469e+01 9.193121910095214844e+00 -5.611558914184570312e+00
1.060000000000000000e+02 1.272434997558593750e+01 -6.547818183898925781e-01 9.027307033538818359e-01 2.054657363891601562e+01 6.434791088104248047e+00 -4.509371280670166016e+00
1.070000000000000000e+02 1.270579433441162109e+01 -4.566079676151275635e-01 7.109984159469604492e-01 1.652975654602050781e+01 5.172226428985595703e+00 -3.867424488067626953e+00
1.080000000000000000e+02 1.268723773956298828e+01 -2.584341168403625488e-01 5.253509283065795898e-01 1.411054515838623047e+01 4.390769004821777344e+00 -3.195052623748779297e+00
1.090000000000000000e+02 1.268555831909179688e+01 -8.640648722648620605e-01 2.476336956024169922e+00 2.304995346069335938e+01 7.657887458801269531e+00 -8.467457771301269531e+00
1.100000000000000000e+02 1.262876987457275391e+01 -6.732971668243408203e-01 1.834064364433288574e+00 1.539178848266601562e+01 5.167756080627441406e+00 -6.231535434722900391e+00
1.110000000000000000e+02 1.257198238372802734e+01 -4.825294613838195801e-01 1.495443701744079590e+00 1.211614704132080078e+01 4.083477020263671875e+00 -4.877907276153564453e+00
1.120000000000000000e+02 1.251519393920898438e+01 -2.917617559432983398e-01 1.226610302925109863e+00 1.018782234191894531e+01 3.424329757690429688e+00 -4.207973957061767578e+00
1.130000000000000000e+02 1.263147068023681641e+01 -8.861279487609863281e-01 4.378505706787109375e+00 1.531677627563476562e+01 5.908584594726562500e+00 -9.400405883789062500e+00
1.140000000000000000e+02 1.253862476348876953e+01 -7.100688815116882324e-01 2.747951507568359375e+00 9.630328178405761719e+00 3.713483810424804688e+00 -6.080020427703857422e+00
1.150000000000000000e+02 1.244577789306640625e+01 -5.340098738670349121e-01 2.241842746734619141e+00 7.569224834442138672e+00 2.943320274353027344e+00 -4.710255622863769531e+00
1.160000000000000000e+02 1.235293197631835938e+01 -3.579508960247039795e-01 1.699494719505310059e+00 6.489435195922851562e+00 2.456679105758666992e+00 -3.916628122329711914e+00
1.170000000000000000e+02 1.258271503448486328e+01 -9.183002114295959473e-01 5.158744812011718750e+00 7.357180118560791016e+00 3.754777431488037109e+00 -7.626574039459228516e+00
1.180000000000000000e+02 1.245736503601074219e+01 -7.636893987655639648e-01 3.201647281646728516e+00 4.133008003234863281e+00 2.200396776199340820e+00 -4.393981933593750000e+00
1.190000000000000000e+02 1.233201408386230469e+01 -6.090786457061767578e-01 1.919016242027282715e+00 3.672353506088256836e+00 1.677410840988159180e+00 -2.940612316131591797e+00
1.200000000000000000e+02 1.220666408538818359e+01 -4.544678032398223877e-01 1.435212135314941406e+00 3.583208322525024414e+00 1.505526065826416016e+00 -2.717986106872558594e+00
1.210000000000000000e+02 1.254115676879882812e+01 -9.593502283096313477e-01 4.506202220916748047e+00 -4.534282684326171875e-01 1.215832114219665527e+00 -3.428127527236938477e+00
1.220000000000000000e+02 1.238810062408447266e+01 -8.321061134338378906e-01 8.606250882148742676e-01 5.291721820831298828e-01 4.169391691684722900e-01 -8.365557789802551270e-01
1.230000000000000000e+02 1.223504447937011719e+01 -7.048619985580444336e-01 6.817959547042846680e-01 1.668295025825500488e+00 7.050272822380065918e-01 -1.261255264282226562e+00
1.240000000000000000e+02 1.208198833465576172e+01 -5.776178240776062012e-01 3.371715545654296875e-01 6.184947490692138672e-01 2.866998910903930664e-01 -8.716509342193603516e-01
1.250000000000000000e+02 1.250838661193847656e+01 -1.007706522941589355e+00 -4.351537704467773438e+00 -4.804133415222167969e+00 -2.746701240539550781e+00 3.553226232528686523e+00
1.260000000000000000e+02 1.233348369598388672e+01 -9.126999974250793457e-01 -1.833450436592102051e+00 6.752463579177856445e-01 -3.474612236022949219e-01 7.402335405349731445e-01
1.270000000000000000e+02 1.215858078002929688e+01 -8.176934123039245605e-01 -1.920041441917419434e+00 -8.348900079727172852e-01 -8.264794349670410156e-01 8.267192840576171875e-01
1.280000000000000000e+02 1.198367786407470703e+01 -7.226868271827697754e-01 -1.878975033760070801e+00 -1.607629358768463135e-01 -6.119213700294494629e-01 8.494949936866760254e-01
1.290000000000000000e+02 9.657032012939453125e+00 -1.019075989723205566e+00 1.641671895980834961e+00 -5.440420284867286682e-02 4.761803150177001953e-01 2.641581594944000244e-01
1.300000000000000000e+02 9.567596435546875000e+00 -6.445807814598083496e-01 6.061854362487792969e-01 -4.620556533336639404e-02 1.679939627647399902e-01 1.105898991227149963e-01
1.310000000000000000e+02 9.714260101318359375e+00 -2.867701649665832520e-01 -1.470475941896438599e-01 9.680488705635070801e-02 -1.507281325757503510e-02 4.251085966825485229e-02
1.320000000000000000e+02 9.770507812500000000e+00 -4.433562755584716797e-01 2.276522368192672729e-01 1.447168141603469849e-01 1.117107123136520386e-01 -5.300777778029441833e-02
1.330000000000000000e+02 7.809899806976318359e+00 -8.251193165779113770e-01 3.178734481334686279e-01 1.357353292405605316e-02 9.943409264087677002e-02 1.257961392402648926e-01
1.340000000000000000e+02 7.281951427459716797e+00 -3.227519989013671875e-01 -4.743305444717407227e-01 -2.241411246359348297e-02 -1.490233987569808960e-01 4.067931324243545532e-03
1.350000000000000000e+02 6.454551696777343750e+00 -3.934608697891235352e-01 -4.908564090728759766e-01 5.916296970099210739e-03 -1.454820334911346436e-01 4.389322362840175629e-03
1.360000000000000000e+02 5.585729122161865234e+00 -3.906906545162200928e-01 -5.154457688331604004e-01 -5.459311418235301971e-03 -1.562715321779251099e-01 9.233101271092891693e-03
1.370000000000000000e+02 4.748826503753662109e+00 -3.859302103519439697e-01 -5.005601644515991211e-01 1.923914067447185516e-02 -1.443963050842285156e-01 -1.778312958776950836e-02
1.380000000000000000e+02 3.919848918914794922e+00 -3.836773633956909180e-01 -4.455939233303070068e-01 -5.857158103026449680e-04 -1.338538825511932373e-01 -3.030175715684890747e-02
1.390000000000000000e+02 3.093657255172729492e+00 -3.826191127300262451e-01 -3.422100245952606201e-01 1.460860576480627060e-02 -9.828042984008789062e-02 -5.427899211645126343e-02
1.400000000000000000e+02 2.268830060958862305e+00 -3.820184767246246338e-01 -2.173173278570175171e-01 -5.128563847392797470e-03 -6.673377007246017456e-02 -5.605692788958549500e-02
1.410000000000000000e+02 1.457189440727233887e+00 -3.861761987209320068e-01 -9.553857147693634033e-02 -2.362017112318426371e-04 -2.873243205249309540e-02 -5.302805826067924500e-02
1.420000000000000000e+02 3.908885717391967773e-01 -9.642979502677917480e-01 -4.457052797079086304e-03 -5.279996246099472046e-02 -1.717710494995117188e-02 -3.396557271480560303e-02
1.430000000000000000e+02 1.115613579750061035e+00 -1.149570226669311523e+00 -4.453433305025100708e-02 -4.898728057742118835e-02 -2.805648371577262878e-02 -1.031217128038406372e-01
1.440000000000000000e+02 8.312399864196777344e+00 -1.262367367744445801e+00 1.308423519134521484e+00 4.021778330206871033e-02 4.045923948287963867e-01 4.313903748989105225e-01
1.450000000000000000e+02 7.608411788940429688e+00 -1.219340205192565918e+00 7.233067750930786133e-01 3.764925524592399597e-02 2.282868176698684692e-01 3.222104310989379883e-01
1.460000000000000000e+02 6.766576290130615234e+00 -1.133460879325866699e+00 3.448702991008758545e-01 2.609191089868545532e-02 1.112886667251586914e-01 1.772578358650207520e-01
1.470000000000000000e+02 5.910044670104980469e+00 -1.130690693855285645e+00 7.797762751579284668e-02 4.018795117735862732e-02 3.544967249035835266e-02 9.375464916229248047e-02
1.480000000000000000e+02 5.085433483123779297e+00 -1.125930190086364746e+00 -4.651707783341407776e-02 4.408112913370132446e-02 -7.307846099138259888e-04 2.615139074623584747e-02
1.490000000000000000e+02 4.268747329711914062e+00 -1.123677372932434082e+00 -1.042450964450836182e-01 5.001203343272209167e-02 -1.626991853117942810e-02 -3.831405937671661377e-02
1.500000000000000000e+02 3.454846858978271484e+00 -1.122619152069091797e+00 -1.271770894527435303e-01 2.915314026176929474e-02 -2.940718643367290497e-02 -8.368836343288421631e-02
1.510000000000000000e+02 2.642311096191406250e+00 -1.122018456459045410e+00 -1.177012622356414795e-01 2.923209592700004578e-02 -2.654075063765048981e-02 -1.255184859037399292e-01
1.520000000000000000e+02 9.712275505065917969e+00 -8.812246322631835938e-01 1.260712146759033203e+00 -4.779100883752107620e-03 3.767799139022827148e-01 1.218166351318359375e-01
1.530000000000000000e+02 9.749974250793457031e+00 -7.343709468841552734e-01 1.041572093963623047e+00 4.236623644828796387e-02 3.251815140247344971e-01 9.772978723049163818e-02
1.540000000000000000e+02 9.616230010986328125e+00 -1.142404228448867798e-01 -6.234359741210937500e-01 5.016577988862991333e-02 -1.719810515642166138e-01 2.837466634809970856e-02
1.550000000000000000e+02 9.539382934570312500e+00 -1.166433215141296387e+00 1.904098510742187500e+00 -2.780134417116641998e-02 5.628891587257385254e-01 4.094978868961334229e-01
1.560000000000000000e+02 9.502393722534179688e+00 -8.230959177017211914e-01 1.022768855094909668e+00 -6.749413907527923584e-02 2.865824103355407715e-01 1.400196999311447144e-01
1.570000000000000000e+02 8.840784072875976562e+00 -1.568405777215957642e-01 -6.280112266540527344e-01 -2.099443972110748291e-02 -1.947016865015029907e-01 -2.524658106267452240e-02
1.580000000000000000e+02 9.000829696655273438e+00 -4.925909340381622314e-01 1.399526894092559814e-01 4.124090448021888733e-02 5.435807630419731140e-02 6.628573685884475708e-02
1.590000000000000000e+02 8.373060226440429688e+00 -6.325241923332214355e-01 9.815572947263717651e-02 -8.473242633044719696e-03 2.690474689006805420e-02 7.138909399509429932e-02
1.600000000000000000e+02 8.045266151428222656e+00 -2.199356704950332642e-01 -4.907964766025543213e-01 1.578815653920173645e-02 -1.425025016069412231e-01 -3.538563475012779236e-02
1.610000000000000000e+02 7.175500392913818359e-01 -4.095702767372131348e-01 -2.922177501022815704e-02 -1.779997535049915314e-02 -1.410652510821819305e-02 -2.258706651628017426e-02
1.620000000000000000e+02 1.842961788177490234e+00 -1.126176238059997559e+00 -8.108459413051605225e-02 -1.847386546432971954e-02 -2.986753918230533600e-02 -1.282718479633331299e-01
1.630000000000000000e+02 9.381736755371093750e+00 -1.377278447151184082e+00 2.324928045272827148e+00 3.435030952095985413e-02 7.077834606170654297e-01 6.139320731163024902e-01
1.640000000000000000e+02 9.771400451660156250e+00 -5.938941240310668945e-01 4.246064126491546631e-01 9.665440768003463745e-02 1.563782542943954468e-01 4.807863757014274597e-02
1.650000000000000000e+02 8.807579994201660156e+00 -1.090978026390075684e+00 1.333702802658081055e+00 2.809518948197364807e-02 4.085393846035003662e-01 3.625436127185821533e-01
1.660000000000000000e+02 9.197590827941894531e+00 -8.855168819427490234e-01 1.094490528106689453e+00 3.084142878651618958e-02 3.375996053218841553e-01 1.891771852970123291e-01
1.670000000000000000e+02 9.482716560363769531e+00 -4.436466395854949951e-01 1.445799469947814941e-01 -5.261261388659477234e-02 2.759019844233989716e-02 8.050905168056488037e-02
1.680000000000000000e+02 1.304620933532714844e+01 -5.426951125264167786e-02 4.523574113845825195e-01 1.675296211242675781e+01 5.161596298217773438e+00 4.378054141998291016e-01
1.690000000000000000e+02 1.362445449829101562e+01 -4.362498223781585693e-01 6.412415027618408203e+00 1.685362434387207031e+01 6.979811668395996094e+00 6.461363315582275391e+00
1.700000000000000000e+02 1.402724647521972656e+01 -1.759697675704956055e+00 1.199385452270507812e+01 1.234317588806152344e+01 7.301109313964843750e+00 1.355765104293823242e+00
1.710000000000000000e+02 1.348542118072509766e+01 -2.002287626266479492e+00 1.027856540679931641e+01 1.707784080505371094e+01 8.206921577453613281e+00 1.120915532112121582e+00
1.720000000000000000e+02 1.295840930938720703e+01 -2.343543529510498047e+00 6.718174934387207031e+00 1.695154380798339844e+01 7.100915908813476562e+00 5.380664825439453125e+00
1.730000000000000000e+02 1.098206233978271484e+01 -1.529529690742492676e+00 5.876548767089843750e+00 2.466843090951442719e-02 1.770365238189697266e+00 1.533528327941894531e+00
1.740000000000000000e+02 1.170340251922607422e+01 -8.465300798416137695e-01 1.248275041580200195e+00 -1.826592832803726196e-01 3.196847438812255859e-01 -2.969098389148712158e-01
1.750000000000000000e+02 1.229345607757568359e+01 -2.142913341522216797e+00 9.717150688171386719e+00 1.059155845642089844e+01 6.092612743377685547e+00 9.158760070800781250e+00
1.760000000000000000e+02 1.334130764007568359e+01 -1.848500221967697144e-01 2.088876008987426758e+00 1.799365043640136719e+01 6.024757862091064453e+00 3.499695539474487305e+00
1.770000000000000000e+02 1.012182426452636719e+01 6.663207709789276123e-02 -3.567533016204833984e+00 -5.643117427825927734e-01 -1.239553451538085938e+00 8.371008634567260742e-01
1.780000000000000000e+02 1.023425197601318359e+01 4.302005171775817871e-01 -1.401326060295104980e+00 -2.723599672317504883e-01 -5.021057724952697754e-01 1.575287431478500366e-01
1.790000000000000000e+02 1.017395114898681641e+01 2.425163686275482178e-01 -2.138760805130004883e+00 -4.766775667667388916e-01 -7.846314907073974609e-01 2.864611148834228516e-01
1.800000000000000000e+02 1.186216163635253906e+01 7.143059968948364258e-01 6.213017106056213379e-01 4.330117702484130859e+00 1.485425829887390137e+00 -2.335462570190429688e+00
1.810000000000000000e+02 1.077529811859130859e+01 6.050308048725128174e-02 -1.582135677337646484e+00 -9.714768826961517334e-02 -5.037850141525268555e-01 4.377879202365875244e-01
1.820000000000000000e+02 1.148016738891601562e+01 8.688203096389770508e-01 6.571237444877624512e-01 2.780911922454833984e+00 1.031410694122314453e+00 -1.898296117782592773e+00
1.830000000000000000e+02 1.180156040191650391e+01 -6.254736781120300293e-01 -1.942661166191101074e+00 -4.547786414623260498e-01 -7.192319631576538086e-01 7.825896143913269043e-01
1.840000000000000000e+02 1.413125705718994141e+01 -8.910411000251770020e-01 1.112285900115966797e+01 1.176404953002929688e+01 6.866072654724121094e+00 5.519217014312744141e+00
1.850000000000000000e+02 1.348917198181152344e+01 -2.995952665805816650e-01 4.084879398345947266e+00 1.779426002502441406e+01 6.563741683959960938e+00 5.298023223876953125e+00
1.860000000000000000e+02 1.284405040740966797e+01 -1.869669742882251740e-02 1.410115063190460205e-01 1.454655456542968750e+01 4.406270027160644531e+00 -1.667237997055053711e+00
1.870000000000000000e+02 1.208458137512207031e+01 -3.113566339015960693e-01 1.233756542205810547e+00 2.673671722412109375e+00 1.172228574752807617e+00 -2.270345449447631836e+00
1.880000000000000000e+02 1.192390251159667969e+01 -4.533139765262603760e-01 4.235665500164031982e-02 8.810346722602844238e-01 2.770173847675323486e-01 -6.888149380683898926e-01
1.890000000000000000e+02 1.268379211425781250e+01 -2.250732421875000000e+00 7.480935573577880859e+00 1.614691734313964844e+01 7.088356018066406250e+00 7.621384143829345703e+00
1.900000000000000000e+02 1.039533901214599609e+01 -1.632438659667968750e+00 4.539021015167236328e+00 3.172343969345092773e-02 1.371223330497741699e+00 1.290136694908142090e+00
1.910000000000000000e+02 1.006768703460693359e+01 -1.335894763469696045e-01 -4.824775159358978271e-01 -1.411889940500259399e-01 -1.870999485254287720e-01 1.453933119773864746e-01
1.920000000000000000e+02 9.814300537109375000e+00 -1.446133375167846680e+00 3.005100250244140625e+00 1.200105920433998108e-01 9.375332593917846680e-01 7.952166795730590820e-01
1.930000000000000000e+02 9.854957580566406250e+00 -1.267575025558471680e+00 2.625576972961425781e+00 1.499076336622238159e-01 8.326453566551208496e-01 6.649033427238464355e-01
1.940000000000000000e+02 9.884105682373046875e+00 -1.095178842544555664e+00 1.998796224594116211e+00 1.149707213044166565e-01 6.341300606727600098e-01 3.647374212741851807e-01
1.950000000000000000e+02 9.996110916137695312e+00 -4.449802041053771973e-01 2.195444703102111816e-01 -4.162678495049476624e-03 6.461453437805175781e-02 -2.037212625145912170e-02
1.960000000000000000e+02 1.228581047058105469e+01 -2.411972045898437500e+00 7.901519775390625000e+00 1.054391765594482422e+01 5.533631324768066406e+00 8.413684844970703125e+00
1.970000000000000000e+02 1.210250473022460938e+01 -2.363675832748413086e+00 8.503817558288574219e+00 8.554223060607910156e+00 5.117412090301513672e+00 8.388711929321289062e+00
1.980000000000000000e+02 1.127916049957275391e+01 -2.004806756973266602e+00 8.458896636962890625e+00 1.255414605140686035e+00 2.914293289184570312e+00 4.152792453765869141e+00
1.990000000000000000e+02 1.084178161621093750e+01 -1.689551234245300293e+00 6.070322513580322266e+00 1.999771147966384888e-01 1.881089925765991211e+00 1.969947695732116699e+00
2.000000000000000000e+02 1.056185531616210938e+01 -1.735661506652832031e+00 5.330083370208740234e+00 1.865644901990890503e-01 1.654994368553161621e+00 1.805482268333435059e+00
2.010000000000000000e+02 1.000728034973144531e+01 -1.501352190971374512e+00 3.348488807678222656e+00 7.393179088830947876e-02 1.026726126670837402e+00 9.699716567993164062e-01
2.020000000000000000e+02 1.373762416839599609e+01 -5.858770608901977539e-01 8.946131706237792969e+00 1.563466739654541016e+01 7.374239921569824219e+00 7.058893680572509766e+00
2.030000000000000000e+02 1.389111328125000000e+01 -1.611809611320495605e+00 1.329017448425292969e+01 1.309810733795166016e+01 7.916484832763671875e+00 1.832645297050476074e+00
2.040000000000000000e+02 1.386580085754394531e+01 -1.228973627090454102e+00 1.443845748901367188e+01 1.291554164886474609e+01 8.206199645996093750e+00 4.103083133697509766e+00
2.050000000000000000e+02 1.366268539428710938e+01 -2.180752038955688477e+00 9.147051811218261719e+00 1.520158576965332031e+01 7.304591655731201172e+00 1.128114104270935059e+00
2.060000000000000000e+02 1.336189937591552734e+01 -2.407906055450439453e+00 6.921843051910400391e+00 1.612113952636718750e+01 6.912894725799560547e+00 2.553040981292724609e+00
2.070000000000000000e+02 1.037176895141601562e+01 1.379511833190917969e+00 3.015746474266052246e-01 1.015467047691345215e+00 3.951124846935272217e-01 -7.985119819641113281e-01
2.080000000000000000e+02 1.032370471954345703e+01 1.219888091087341309e+00 5.870623514056205750e-02 5.128375291824340820e-01 1.714631319046020508e-01 -5.003289580345153809e-01
2.090000000000000000e+02 1.046572971343994141e+01 1.137506008148193359e+00 8.936326950788497925e-02 7.115741372108459473e-01 2.402812242507934570e-01 -7.440519928932189941e-01
2.100000000000000000e+02 1.098632240295410156e+01 6.058474183082580566e-01 2.241380047053098679e-03 8.592332005500793457e-01 2.584423720836639404e-01 -8.387750983238220215e-01
2.110000000000000000e+02 1.245780849456787109e+01 -9.882788360118865967e-02 8.616400361061096191e-01 8.923529624938964844e+00 2.935550928115844727e+00 -3.665099143981933594e+00
2.120000000000000000e+02 1.262529563903808594e+01 3.575430214405059814e-01 1.817147135734558105e-01 1.030408382415771484e+01 3.145739555358886719e+00 -2.432018280029296875e+00
2.130000000000000000e+02 1.057516956329345703e+01 -3.984444141387939453e-01 -3.095340728759765625e-01 -8.791124820709228516e-02 -1.192335933446884155e-01 2.065607160329818726e-01
2.140000000000000000e+02 1.024264335632324219e+01 -2.017866522073745728e-01 -5.115080475807189941e-01 7.869705557823181152e-03 -1.510915011167526245e-01 2.066783457994461060e-01
2.150000000000000000e+02 1.002736949920654297e+01 -2.879502177238464355e-01 -3.722885847091674805e-01 -6.802549958229064941e-02 -1.320942193269729614e-01 9.309677779674530029e-02
2.160000000000000000e+02 1.020780181884765625e+01 -1.551632404327392578e+00 4.068067550659179688e+00 -1.102112326771020889e-02 1.217113971710205078e+00 1.135345697402954102e+00
2.170000000000000000e+02 1.054838085174560547e+01 1.298215031623840332e+00 3.483673930168151855e-01 8.159735202789306641e-01 3.493022620677947998e-01 -9.313499927520751953e-01
2.180000000000000000e+02 1.050637817382812500e+01 -7.800821214914321899e-02 -2.501598596572875977e+00 -4.151717424392700195e-01 -8.750310540199279785e-01 9.524258375167846680e-01
2.190000000000000000e+02 1.083299541473388672e+01 2.716856896877288818e-01 -8.546523451805114746e-01 1.571571081876754761e-01 -2.092485725879669189e-01 -3.634521365165710449e-02
2.200000000000000000e+02 1.248047161102294922e+01 -2.472686767578125000e+00 7.090536117553710938e+00 1.286459255218505859e+01 5.986538410186767578e+00 7.945437431335449219e+00
2.210000000000000000e+02 1.165082740783691406e+01 -1.069089055061340332e+00 4.724005699157714844e+00 -1.954200863838195801e-01 1.358575701713562012e+00 -4.227302968502044678e-02
2.220000000000000000e+02 1.069501304626464844e+01 -1.569147109985351562e+00 5.307591915130615234e+00 1.114689111709594727e-01 1.625718235969543457e+00 1.429052710533142090e+00
2.230000000000000000e+02 1.193128108978271484e+01 -2.333249092102050781e+00 8.717591285705566406e+00 6.514232158660888672e+00 4.569547176361083984e+00 7.752930164337158203e+00
2.240000000000000000e+02 1.177933120727539062e+01 -1.685375452041625977e+00 1.125016593933105469e+01 1.618380665779113770e+00 3.860563993453979492e+00 4.731887340545654297e+00
2.250000000000000000e+02 1.006159973144531250e+01 -1.291229486465454102e+00 2.998458862304687500e+00 -2.473209053277969360e-02 8.921180367469787598e-01 6.003485918045043945e-01
2.260000000000000000e+02 1.268217945098876953e+01 -2.502196550369262695e+00 6.496309757232666016e+00 1.462773704528808594e+01 6.337213993072509766e+00 6.975950717926025391e+00
2.270000000000000000e+02 1.248360919952392578e+01 -2.215266466140747070e+00 8.420160293579101562e+00 1.357508087158203125e+01 6.598572254180908203e+00 8.735613822937011719e+00
2.280000000000000000e+02 1.362263202667236328e+01 -1.866934299468994141e+00 1.183622932434082031e+01 1.578463172912597656e+01 8.286258697509765625e+00 7.883807420730590820e-01
2.290000000000000000e+02 1.203936862945556641e+01 -2.133048057556152344e+00 1.009405994415283203e+01 7.066199779510498047e+00 5.148077964782714844e+00 8.314711570739746094e+00
2.300000000000000000e+02 1.165658092498779297e+01 -1.287505388259887695e+00 7.650598049163818359e+00 -1.721752434968948364e-01 2.243526935577392578e+00 8.832187056541442871e-01
2.310000000000000000e+02 1.133115959167480469e+01 -6.753618717193603516e-01 3.991604447364807129e-01 -5.953488126397132874e-02 1.018876731395721436e-01 6.197851151227951050e-02
2.320000000000000000e+02 1.108836174011230469e+01 -1.908259868621826172e+00 7.486597061157226562e+00 7.570831179618835449e-01 2.473104000091552734e+00 3.237493753433227539e+00
2.330000000000000000e+02 1.169007301330566406e+01 -1.501932859420776367e+00 1.000547313690185547e+01 4.165941774845123291e-01 3.126620054244995117e+00 2.869597673416137695e+00
2.340000000000000000e+02 1.142157077789306641e+01 -1.604133129119873047e+00 8.463072776794433594e+00 4.070599675178527832e-01 2.661039829254150391e+00 2.667387723922729492e+00
2.350000000000000000e+02 1.212170410156250000e+01 -2.013474702835083008e+00 1.103870773315429688e+01 7.416178226470947266e+00 5.536465644836425781e+00 8.764282226562500000e+00
2.360000000000000000e+02 1.198868274688720703e+01 -1.864813446998596191e+00 1.201620292663574219e+01 4.211373805999755859e+00 4.868273258209228516e+00 7.363741397857666016e+00
2.370000000000000000e+02 1.304089832305908203e+01 -2.190068721771240234e+00 7.588400363922119141e+00 1.881779670715332031e+01 7.921859264373779297e+00 4.306616783142089844e+00
2.380000000000000000e+02 1.403366088867187500e+01 -1.146412491798400879e+00 1.306241893768310547e+01 1.186861419677734375e+01 7.479310035705566406e+00 4.528485298156738281e+00
2.390000000000000000e+02 1.264614105224609375e+01 -4.730786383152008057e-02 3.495700061321258545e-01 1.240655231475830078e+01 3.826836585998535156e+00 -3.040695667266845703e+00
2.400000000000000000e+02 1.161088752746582031e+01 -5.592160224914550781e-01 -2.056107997894287109e+00 -2.859954833984375000e-01 -7.026309967041015625e-01 8.044703602790832520e-01
2.410000000000000000e+02 1.214036941528320312e+01 -2.916579879820346832e-02 1.230223774909973145e+00 5.020682334899902344e+00 1.875271797180175781e+00 -2.948712110519409180e+00
2.420000000000000000e+02 1.250003147125244141e+01 1.009846776723861694e-01 6.665865182876586914e-01 9.678615570068359375e+00 3.103560447692871094e+00 -3.114430665969848633e+00
2.430000000000000000e+02 1.388720226287841797e+01 -7.023776769638061523e-01 1.022554206848144531e+01 1.406291007995605469e+01 7.286535739898681641e+00 6.617179870605468750e+00
2.440000000000000000e+02 1.396485328674316406e+01 -9.796671867370605469e-01 1.242480850219726562e+01 1.274804687500000000e+01 7.551856517791748047e+00 5.524813175201416016e+00
2.450000000000000000e+02 1.366612911224365234e+01 -1.209235712885856628e-01 3.623016595840454102e+00 1.571405410766601562e+01 5.801121234893798828e+00 4.922825336456298828e+00
2.460000000000000000e+02 1.323271942138671875e+01 -2.661342732608318329e-02 1.139314532279968262e+00 1.674199295043945312e+01 5.364392280578613281e+00 1.934471964836120605e+00
2.470000000000000000e+02 1.287563133239746094e+01 -2.227287054061889648e+00 7.280334949493408203e+00 1.776741790771484375e+01 7.514326095581054688e+00 6.085542678833007812e+00
2.480000000000000000e+02 1.321370029449462891e+01 -2.500342369079589844e+00 6.154688358306884766e+00 1.621088981628417969e+01 6.709673881530761719e+00 3.628243446350097656e+00
2.490000000000000000e+02 1.352140712738037109e+01 -8.922079578042030334e-04 2.282976150512695312e+00 1.582743072509765625e+01 5.433122158050537109e+00 3.727572441101074219e+00
2.500000000000000000e+02 1.380033111572265625e+01 -2.045071363449096680e+00 1.028918647766113281e+01 1.424497509002685547e+01 7.360248565673828125e+00 9.193973541259765625e-01
2.510000000000000000e+02 1.409103202819824219e+01 -1.606162905693054199e+00 1.267127895355224609e+01 1.161072063446044922e+01 7.284599781036376953e+00 2.095475673675537109e+00
2.520000000000000000e+02 1.408747100830078125e+01 -7.062870860099792480e-01 1.027889060974121094e+01 1.259844875335693359e+01 6.863201618194580078e+00 6.175371170043945312e+00
2.530000000000000000e+02 1.392078399658203125e+01 -4.040441215038299561e-01 6.984509944915771484e+00 1.417860698699951172e+01 6.348935127258300781e+00 6.242690086364746094e+00
2.540000000000000000e+02 1.380194950103759766e+01 -2.578003704547882080e-01 5.335730075836181641e+00 1.515642452239990234e+01 6.147646427154541016e+00 5.874809741973876953e+00
2.550000000000000000e+02 1.386054229736328125e+01 -1.421993851661682129e+00 1.441733646392822266e+01 1.297715091705322266e+01 8.218346595764160156e+00 2.723649740219116211e+00
2.560000000000000000e+02 1.418056964874267578e+01 -1.068737268447875977e+00 1.192393589019775391e+01 1.119938659667968750e+01 6.936996936798095703e+00 4.798807621002197266e+00
2.570000000000000000e+02 1.333351135253906250e+01 -2.116283416748046875e+00 8.805077552795410156e+00 1.797001266479492188e+01 8.032526969909667969e+00 2.107718706130981445e+00
2.580000000000000000e+02 1.134566593170166016e+01 -9.404948353767395020e-01 2.622509479522705078e+00 -1.128724869340658188e-02 7.833666801452636719e-01 -1.055142804980278015e-01
2.590000000000000000e+02 1.076596832275390625e+01 -4.893820583820343018e-01 -2.601563930511474609e-01 -1.190602555871009827e-01 -1.137649938464164734e-01 1.449108719825744629e-01
2.600000000000000000e+02 9.972056388854980469e+00 -6.041468977928161621e-01 6.367889046669006348e-01 8.395866304636001587e-02 2.162242680788040161e-01 -5.206572823226451874e-03
2.610000000000000000e+02 1.041039943695068359e+01 -2.870409488677978516e-01 -4.354111552238464355e-01 -1.168536320328712463e-01 -1.656794399023056030e-01 2.217060476541519165e-01
2.620000000000000000e+02 1.128466320037841797e+01 -3.818439543247222900e-01 -2.035387992858886719e+00 -3.979261815547943115e-01 -7.299942374229431152e-01 9.224560260772705078e-01
2.630000000000000000e+02 1.058400917053222656e+01 1.167044267058372498e-01 -1.791494965553283691e+00 -1.812392026185989380e-01 -5.918202400207519531e-01 5.319300889968872070e-01
2.640000000000000000e+02 1.159551429748535156e+01 -3.957613706588745117e-01 -1.121190667152404785e+00 -7.238900661468505859e-02 -3.580738902091979980e-01 4.390318393707275391e-01
2.650000000000000000e+02 1.039240169525146484e+01 1.849474906921386719e-01 -2.216221332550048828e+00 -2.382075637578964233e-01 -7.363286614418029785e-01 4.262584447860717773e-01
2.660000000000000000e+02 1.130603027343750000e+01 4.303399324417114258e-01 1.855921298265457153e-01 1.340690135955810547e+00 4.578846991062164307e-01 -1.120387196540832520e+00
2.670000000000000000e+02 1.089381122589111328e+01 1.113091707229614258e+00 3.267792165279388428e-01 1.276721000671386719e+00 4.810500741004943848e-01 -1.192365765571594238e+00
2.680000000000000000e+02 1.240962314605712891e+01 4.541664719581604004e-01 4.344225227832794189e-01 8.111704826354980469e+00 2.563838243484497070e+00 -2.718770742416381836e+00
2.690000000000000000e+02 1.059881210327148438e+01 1.029742717742919922e+00 9.274888038635253906e-02 6.425732970237731934e-01 2.205966562032699585e-01 -8.137473464012145996e-01
2.700000000000000000e+02 1.109176349639892578e+01 -2.853865623474121094e-01 -2.117725610733032227e+00 -4.396788477897644043e-01 -7.672213315963745117e-01 8.342423439025878906e-01
2.710000000000000000e+02 1.222936344146728516e+01 5.612151622772216797e-01 5.555763244628906250e-01 6.615859508514404297e+00 2.151430845260620117e+00 -2.746595859527587891e+00
2.720000000000000000e+02 1.204142570495605469e+01 4.459715783596038818e-01 7.926856875419616699e-01 5.106256961822509766e+00 1.769682765007019043e+00 -2.679801940917968750e+00
2.730000000000000000e+02 1.205658435821533203e+01 6.450173258781433105e-01 6.147730946540832520e-01 5.240036487579345703e+00 1.756442904472351074e+00 -2.505392789840698242e+00
2.740000000000000000e+02 1.322510528564453125e+01 1.775435507297515869e-01 4.282166957855224609e-01 1.526096153259277344e+01 4.706753253936767578e+00 9.906713962554931641e-01
2.750000000000000000e+02 1.304456996917724609e+01 2.221181243658065796e-01 1.245943531394004822e-01 1.415050315856933594e+01 4.282529354095458984e+00 -2.982279062271118164e-01
2.760000000000000000e+02 1.027105331420898438e+01 -1.300951480865478516e+00 3.328915834426879883e+00 -3.727365657687187195e-02 9.874926209449768066e-01 5.992665886878967285e-01
2.770000000000000000e+02 1.025402164459228516e+01 7.862643599510192871e-01 -4.411411881446838379e-01 -3.226778656244277954e-02 -1.420226842164993286e-01 -2.276003062725067139e-01
2.780000000000000000e+02 1.024849700927734375e+01 9.334698915481567383e-01 -2.215827405452728271e-01 2.328959107398986816e-01 3.393948776647448540e-03 -3.837389647960662842e-01
2.790000000000000000e+02 9.941192626953125000e+00 -7.644956111907958984e-01 1.018786787986755371e+00 3.548124805092811584e-02 3.162804245948791504e-01 3.902880847454071045e-02
2.800000000000000000e+02 1.159977722167968750e+01 -2.203718900680541992e+00 9.181118011474609375e+00 3.635680437088012695e+00 3.845039367675781250e+00 6.214812755584716797e+00
2.810000000000000000e+02 1.191575813293457031e+01 -2.168674945831298828e+00 9.690979003906250000e+00 5.993959903717041016e+00 4.705481529235839844e+00 7.711283206939697266e+00
2.820000000000000000e+02 1.176361846923828125e+01 -2.277922868728637695e+00 8.996370315551757812e+00 4.979434967041015625e+00 4.192741394042968750e+00 7.099977970123291016e+00
2.830000000000000000e+02 1.150419044494628906e+01 -7.713567614555358887e-01 9.834002256393432617e-01 -3.303694725036621094e-02 2.851089835166931152e-01 1.413440052419900894e-02
2.840000000000000000e+02 1.096755504608154297e+01 -5.423462390899658203e-01 -1.576737761497497559e-01 -3.378643840551376343e-02 -5.743806436657905579e-02 1.521975547075271606e-01
2.850000000000000000e+02 1.118757152557373047e+01 -3.465889021754264832e-02 -8.528819084167480469e-01 6.540439277887344360e-02 -2.362432479858398438e-01 4.892608895897865295e-02
2.860000000000000000e+02 1.072975349426269531e+01 9.082089662551879883e-01 1.135680899024009705e-01 7.986802458763122559e-01 2.736745178699493408e-01 -8.726137876510620117e-01
2.870000000000000000e+02 1.027231121063232422e+01 1.071522712707519531e+00 -3.753964230418205261e-02 2.563418745994567871e-01 6.564066559076309204e-02 -4.759887456893920898e-01
2.880000000000000000e+02 1.123841667175292969e+01 2.074068039655685425e-01 -1.365453302860260010e-01 7.132776975631713867e-01 1.730197072029113770e-01 -6.367324590682983398e-01
2.890000000000000000e+02 1.079110527038574219e+01 4.515117108821868896e-01 -5.618835687637329102e-01 2.466520220041275024e-01 -9.456946700811386108e-02 -3.807142078876495361e-01
2.900000000000000000e+02 1.178851890563964844e+01 -3.099607229232788086e-01 3.123549930751323700e-02 8.348604440689086914e-01 2.598287761211395264e-01 -7.189546823501586914e-01
2.910000000000000000e+02 1.140695953369140625e+01 -1.354316711425781250e+00 6.858522891998291016e+00 -1.564987152814865112e-01 2.010607242584228516e+00 1.098487734794616699e+00
2.920000000000000000e+02 9.909661293029785156e+00 -9.277386069297790527e-01 1.566322445869445801e+00 5.211093276739120483e-02 4.855300188064575195e-01 1.634180843830108643e-01
2.930000000000000000e+02 1.026294517517089844e+01 6.182866096496582031e-01 -9.376001954078674316e-01 -1.959611922502517700e-01 -3.400683999061584473e-01 -1.154564321041107178e-01
2.940000000000000000e+02 1.098485183715820312e+01 -9.290279150009155273e-01 2.378655910491943359e+00 -1.239619553089141846e-01 6.764081716537475586e-01 2.933606691658496857e-02
2.950000000000000000e+02 1.122652339935302734e+01 -8.387327790260314941e-01 1.349146723747253418e+00 -1.409608172252774239e-03 4.043211340904235840e-01 -7.249661535024642944e-02
2.960000000000000000e+02 1.164537811279296875e+01 1.789775490760803223e-02 4.270443916320800781e-01 1.541340947151184082e+00 5.905156135559082031e-01 -1.244872689247131348e+00
2.970000000000000000e+02 1.097301959991455078e+01 1.291368901729583740e-02 -1.307802200317382812e+00 -1.391925662755966187e-01 -4.340984523296356201e-01 3.800629079341888428e-01
2.980000000000000000e+02 1.227780914306640625e+01 1.892089843750000000e-01 8.422631621360778809e-01 6.908713817596435547e+00 2.325293064117431641e+00 -3.125718116760253906e+00
2.990000000000000000e+02 1.113689041137695312e+01 -1.179555892944335938e+00 4.612545013427734375e+00 -1.140827387571334839e-01 1.349538683891296387e+00 4.718961715698242188e-01
3.000000000000000000e+02 1.012979507446289062e+01 -7.811400294303894043e-01 1.205571532249450684e+00 6.588120758533477783e-02 3.814358115196228027e-01 9.081535041332244873e-02
3.010000000000000000e+02 1.087969970703125000e+01 -1.142193317413330078e+00 3.789588451385498047e+00 -1.315453499555587769e-01 1.097412943840026855e+00 3.114873468875885010e-01
3.020000000000000000e+02 1.091061496734619141e+01 -7.667738199234008789e-01 1.336043596267700195e+00 -6.178956851363182068e-02 3.822762072086334229e-01 -1.629613712430000305e-02
3.030000000000000000e+02 1.205264091491699219e+01 2.419835627079010010e-01 8.974790573120117188e-01 4.771593570709228516e+00 1.700721740722656250e+00 -2.692947626113891602e+00
3.040000000000000000e+02 1.052237033843994141e+01 7.277580499649047852e-01 -4.105159938335418701e-01 2.227830439805984497e-01 -5.631988868117332458e-02 -4.565554857254028320e-01
3.050000000000000000e+02 1.118859004974365234e+01 6.852927207946777344e-01 2.911203801631927490e-01 1.534378409385681152e+00 5.476496219635009766e-01 -1.275885581970214844e+00
3.060000000000000000e+02 1.036608695983886719e+01 1.001550912857055664e+00 -7.516776025295257568e-02 2.833427786827087402e-01 6.245250627398490906e-02 -4.382496178150177002e-01
3.070000000000000000e+02 1.072171688079833984e+01 1.208558201789855957e+00 3.263226449489593506e-01 1.127735257148742676e+00 4.362173676490783691e-01 -1.036832571029663086e+00
3.080000000000000000e+02 1.064509868621826172e+01 5.851911902427673340e-01 -4.654760360717773438e-01 2.255723029375076294e-01 -7.197111845016479492e-02 -3.661700785160064697e-01
3.090000000000000000e+02 1.018113231658935547e+01 -3.332982361316680908e-01 -2.689848244190216064e-01 1.636760123074054718e-02 -7.578516751527786255e-02 1.551639735698699951e-01
3.100000000000000000e+02 1.087081623077392578e+01 7.762126922607421875e-01 7.788186520338058472e-02 8.497669696807861328e-01 2.782946527004241943e-01 -9.417287707328796387e-01
3.110000000000000000e+02 1.107040214538574219e+01 1.009773612022399902e+00 3.954681158065795898e-01 1.616970539093017578e+00 6.037315726280212402e-01 -1.330591917037963867e+00
3.120000000000000000e+02 1.127178668975830078e+01 9.287339448928833008e-01 5.306003689765930176e-01 2.114384412765502930e+00 7.934954166412353516e-01 -1.573825478553771973e+00
3.130000000000000000e+02 1.138465309143066406e+01 6.442384123802185059e-01 4.332634508609771729e-01 2.073975086212158203e+00 7.521715760231018066e-01 -1.572464108467102051e+00
3.140000000000000000e+02 1.015745639801025391e+01 -4.632573127746582031e-01 8.750909566879272461e-02 6.514706462621688843e-02 4.579684883356094360e-02 1.598630286753177643e-02
3.150000000000000000e+02 1.016866207122802734e+01 -6.192363500595092773e-01 7.764899730682373047e-01 1.248522009700536728e-02 2.366925626993179321e-01 -7.835582830011844635e-03
3.160000000000000000e+02 1.008282661437988281e+01 -1.099239110946655273e+00 2.285413026809692383e+00 6.114918366074562073e-02 7.039686441421508789e-01 3.672354221343994141e-01
3.170000000000000000e+02 1.008766460418701172e+01 -9.317343235015869141e-01 1.675531625747680664e+00 1.012506186962127686e-01 5.330346822738647461e-01 1.833592951297760010e-01
3.180000000000000000e+02 1.072059535980224609e+01 -1.823926210403442383e+00 5.778698921203613281e+00 4.944007694721221924e-01 1.881929874420166016e+00 2.258018493652343750e+00
3.190000000000000000e+02 1.088630294799804688e+01 -1.870657563209533691e+00 6.608927726745605469e+00 4.541845321655273438e-01 2.118933677673339844e+00 2.684006929397583008e+00
3.200000000000000000e+02 1.116771411895751953e+01 -1.636150002479553223e+00 7.327188014984130859e+00 2.895510196685791016e-01 2.285021781921386719e+00 2.346994876861572266e+00
3.210000000000000000e+02 1.156895256042480469e+01 5.927613973617553711e-01 6.191156506538391113e-01 2.705862283706665039e+00 9.974933862686157227e-01 -1.896056056022644043e+00
3.220000000000000000e+02 1.167220687866210938e+01 7.986673712730407715e-01 6.446947455406188965e-01 3.300811529159545898e+00 1.183651804924011230e+00 -2.079723119735717773e+00
3.230000000000000000e+02 1.166079044342041016e+01 3.694371283054351807e-01 5.756087899208068848e-01 2.456773996353149414e+00 9.097148776054382324e-01 -1.821519732475280762e+00
3.240000000000000000e+02 1.284260177612304688e+01 2.778196632862091064e-01 6.363888084888458252e-02 1.255685043334960938e+01 3.786146640777587891e+00 -1.596941828727722168e+00
3.250000000000000000e+02 1.338006401062011719e+01 1.074509024620056152e-01 1.423469424247741699e+00 1.594206619262695312e+01 5.209660530090332031e+00 2.672167301177978516e+00
3.260000000000000000e+02 1.402620887756347656e+01 -5.467902421951293945e-01 8.448129653930664062e+00 1.351772499084472656e+01 6.589756488800048828e+00 6.416990756988525391e+00
3.270000000000000000e+02 1.382613945007324219e+01 -8.799840807914733887e-01 1.225787639617919922e+01 1.407236576080322266e+01 7.899072647094726562e+00 6.611665248870849609e+00
3.280000000000000000e+02 1.383375549316406250e+01 -1.045500755310058594e+00 1.397099494934082031e+01 1.351538848876953125e+01 8.245915412902832031e+00 5.674203395843505859e+00
3.290000000000000000e+02 1.416521930694580078e+01 -1.239694356918334961e+00 1.260471820831298828e+01 1.110380268096923828e+01 7.112555980682373047e+00 3.865243196487426758e+00
3.300000000000000000e+02 1.411840724945068359e+01 -1.423662424087524414e+00 1.270829582214355469e+01 1.127246379852294922e+01 7.194228172302246094e+00 2.986489295959472656e+00
3.310000000000000000e+02 1.392028236389160156e+01 -1.900585889816284180e+00 1.112605953216552734e+01 1.298529624938964844e+01 7.233406543731689453e+00 1.039914131164550781e+00
3.320000000000000000e+02 1.351399230957031250e+01 -2.300163030624389648e+00 7.902423381805419922e+00 1.575218296051025391e+01 7.096382141113281250e+00 1.758035540580749512e+00
3.330000000000000000e+02 1.310590553283691406e+01 -2.402873992919921875e+00 6.450850486755371094e+00 1.651661682128906250e+01 6.890240192413330078e+00 4.242983341217041016e+00
3.340000000000000000e+02 1.305923461914062500e+01 -2.541657924652099609e+00 5.910769462585449219e+00 1.555018901824951172e+01 6.438287258148193359e+00 4.593186855316162109e+00
3.350000000000000000e+02 1.288151645660400391e+01 -2.526558160781860352e+00 6.071811199188232422e+00 1.544189071655273438e+01 6.454110622406005859e+00 5.817930221557617188e+00
3.360000000000000000e+02 1.166527557373046875e+01 -2.064930200576782227e+00 9.736260414123535156e+00 3.212512731552124023e+00 3.884631872177124023e+00 6.238400936126708984e+00
3.370000000000000000e+02 1.154035949707031250e+01 -1.970733165740966797e+00 9.450024604797363281e+00 2.293527841567993164e+00 3.523065805435180664e+00 5.165052890777587891e+00
3.380000000000000000e+02 1.143849849700927734e+01 -2.115869045257568359e+00 8.933097839355468750e+00 2.556626319885253906e+00 3.446917295455932617e+00 5.337471008300781250e+00
3.390000000000000000e+02 1.065827083587646484e+01 3.031442761421203613e-01 -1.270572543144226074e+00 4.811857268214225769e-02 -3.667362034320831299e-01 6.401971727609634399e-02
3.400000000000000000e+02 1.048137664794921875e+01 3.867575526237487793e-01 -1.260972857475280762e+00 -1.632195115089416504e-01 -4.272576868534088135e-01 1.500348187983036041e-02
3.410000000000000000e+02 1.031803131103515625e+01 -4.434923641383647919e-03 -2.686975002288818359e+00 -3.669576346874237061e-01 -9.161798357963562012e-01 1.040025353431701660e+00
3.420000000000000000e+02 1.069481468200683594e+01 -1.490732729434967041e-01 -2.338493585586547852e+00 -3.481085598468780518e-01 -8.059806823730468750e-01 9.373371601104736328e-01
3.430000000000000000e+02 1.088662338256835938e+01 -2.173314839601516724e-01 -2.234884977340698242e+00 -3.248150646686553955e-01 -7.679100632667541504e-01 8.643435239791870117e-01
3.440000000000000000e+02 1.144227981567382812e+01 -4.933687150478363037e-01 -2.104982614517211914e+00 -3.535013198852539062e-01 -7.375451326370239258e-01 9.169620871543884277e-01
3.450000000000000000e+02 1.187008380889892578e+01 -6.657776236534118652e-02 8.935908675193786621e-01 2.426994800567626953e+00 9.961757063865661621e-01 -1.857617735862731934e+00
3.460000000000000000e+02 1.226268577575683594e+01 -1.765974760055541992e-01 1.323789119720458984e+00 6.102370738983154297e+00 2.227848052978515625e+00 -3.491448402404785156e+00
3.470000000000000000e+02 1.139446640014648438e+01 -1.123381853103637695e+00 4.718413829803466797e+00 -2.333305627107620239e-01 1.345525026321411133e+00 1.087880060076713562e-01
3.480000000000000000e+02 1.115304660797119141e+01 -6.010717749595642090e-01 5.134497955441474915e-02 -8.278301358222961426e-02 -9.431409649550914764e-03 1.213923469185829163e-01
3.490000000000000000e+02 1.107714271545410156e+01 -7.771105766296386719e-01 1.223705530166625977e+00 -5.872261151671409607e-02 3.494948744773864746e-01 -1.101414337754249573e-01
3.500000000000000000e+02 1.070195007324218750e+01 -7.687977552413940430e-01 1.373150706291198730e+00 -5.552260577678680420e-02 3.952884376049041748e-01 -3.550212457776069641e-02
3.510000000000000000e+02 1.174849033355712891e+01 -1.939863204956054688e+00 1.075265502929687500e+01 2.889212369918823242e+00 4.092560291290283203e+00 6.187407016754150391e+00
3.520000000000000000e+02 1.186384677886962891e+01 -1.840017437934875488e+00 1.167611885070800781e+01 3.273400783538818359e+00 4.484856128692626953e+00 6.459408760070800781e+00
3.530000000000000000e+02 1.373704814910888672e+01 -1.719140172004699707e+00 1.322504043579101562e+01 1.448728656768798828e+01 8.313697814941406250e+00 1.188541650772094727e+00
3.540000000000000000e+02 1.193175792694091797e+01 -1.977710604667663574e+00 1.117534160614013672e+01 4.827162742614746094e+00 4.800751209259033203e+00 7.557659149169921875e+00
3.550000000000000000e+02 1.184814262390136719e+01 -2.045616626739501953e+00 1.057871055603027344e+01 4.734549522399902344e+00 4.593977928161621094e+00 7.378730297088623047e+00
3.560000000000000000e+02 1.179184913635253906e+01 -2.143272876739501953e+00 9.766836166381835938e+00 4.588076114654541016e+00 4.306473731994628906e+00 7.178070545196533203e+00
3.570000000000000000e+02 1.163070392608642578e+01 -1.830320954322814941e+00 9.927894592285156250e+00 1.668560147285461426e+00 3.478936433792114258e+00 4.779058933258056641e+00
3.580000000000000000e+02 1.320508575439453125e+01 -2.254114389419555664e+00 7.586615085601806641e+00 1.771019363403320312e+01 7.589042663574218750e+00 3.304601669311523438e+00
3.590000000000000000e+02 1.145306015014648438e+01 -1.828765153884887695e+00 9.177961349487304688e+00 1.285127162933349609e+00 3.138926506042480469e+00 4.077366828918457031e+00
3.600000000000000000e+02 1.174020576477050781e+01 5.262234210968017578e-01 7.689907550811767578e-01 3.282302618026733398e+00 1.215388059616088867e+00 -2.174411296844482422e+00
3.610000000000000000e+02 1.183743095397949219e+01 2.242459952831268311e-01 7.761784791946411133e-01 3.139298677444458008e+00 1.174643158912658691e+00 -2.114873647689819336e+00
3.620000000000000000e+02 1.111999702453613281e+01 4.777218103408813477e-01 -2.195359393954277039e-02 8.929889202117919922e-01 2.613106071949005127e-01 -8.810351490974426270e-01
3.630000000000000000e+02 1.196897602081298828e+01 -1.840983331203460693e-01 1.034422039985656738e+00 2.611562967300415039e+00 1.093795537948608398e+00 -2.049509525299072266e+00
3.640000000000000000e+02 1.198779392242431641e+01 5.445687845349311829e-02 1.032432675361633301e+00 3.918677091598510742e+00 1.485332846641540527e+00 -2.538047075271606445e+00
3.650000000000000000e+02 1.183224201202392578e+01 3.992806375026702881e-01 7.787581682205200195e-01 3.476089239120483398e+00 1.276454210281372070e+00 -2.232166051864624023e+00
3.660000000000000000e+02 1.148923969268798828e+01 3.947594165802001953e-01 4.157871305942535400e-01 1.890745162963867188e+00 6.919596791267395020e-01 -1.439677834510803223e+00
3.670000000000000000e+02 1.116054344177246094e+01 -9.868421554565429688e-01 3.206773281097412109e+00 -9.762026369571685791e-02 9.327458739280700684e-01 -2.523376233875751495e-02
3.680000000000000000e+02 1.103357601165771484e+01 2.526187896728515625e-01 -4.762802124023437500e-01 3.674407899379730225e-01 -3.265183046460151672e-02 -3.546256422996520996e-01
3.690000000000000000e+02 1.080244922637939453e+01 -1.393428683280944824e+00 4.753686904907226562e+00 -5.861535295844078064e-02 1.408521533012390137e+00 1.022986054420471191e+00
3.700000000000000000e+02 1.182948875427246094e+01 6.311114877462387085e-02 7.985456585884094238e-01 2.688141345977783203e+00 1.046006083488464355e+00 -1.869704842567443848e+00
3.710000000000000000e+02 1.169514179229736328e+01 -1.485001444816589355e-01 2.908797264099121094e-01 1.219701290130615234e+00 4.531742930412292480e-01 -9.357467293739318848e-01
3.720000000000000000e+02 1.044297885894775391e+01 8.790209889411926270e-01 -1.985119432210922241e-01 3.016372919082641602e-01 3.093760646879673004e-02 -5.427851676940917969e-01
3.730000000000000000e+02 1.029956340789794922e+01 -4.173733294010162354e-01 -1.539137512445449829e-01 2.904392965137958527e-02 -3.746094554662704468e-02 1.015431806445121765e-01
3.740000000000000000e+02 1.039077949523925781e+01 -5.701100230216979980e-01 4.292887151241302490e-01 2.371917292475700378e-02 1.359023600816726685e-01 -3.385435417294502258e-02
3.750000000000000000e+02 1.049992847442626953e+01 -1.242923140525817871e+00 3.530693769454956055e+00 -8.041851222515106201e-02 1.035082578659057617e+00 5.607525706291198730e-01
3.760000000000000000e+02 1.045551490783691406e+01 -7.936486601829528809e-01 1.420986771583557129e+00 -2.291185595095157623e-02 4.194224774837493896e-01 5.307275801897048950e-02
3.770000000000000000e+02 1.027306365966796875e+01 -1.079183340072631836e+00 2.398982524871826172e+00 -5.900840088725090027e-02 7.019922733306884766e-01 2.666383683681488037e-01
3.780000000000000000e+02 1.066065979003906250e+01 -1.050611376762390137e+00 2.925585985183715820e+00 -6.692713499069213867e-02 8.575976490974426270e-01 2.710678279399871826e-01
3.790000000000000000e+02 1.116111660003662109e+01 -1.403370499610900879e+00 6.072819709777832031e+00 -8.842833340167999268e-02 1.795317411422729492e+00 1.090951204299926758e+00
3.800000000000000000e+02 1.057982158660888672e+01 -1.429361701011657715e+00 4.413109302520751953e+00 -8.046334236860275269e-02 1.299793839454650879e+00 9.117422103881835938e-01
3.810000000000000000e+02 1.142348480224609375e+01 -3.188402950763702393e-02 -2.466540187597274780e-01 5.756801366806030273e-01 9.870782494544982910e-02 -4.405122995376586914e-01
3.820000000000000000e+02 1.144132995605468750e+01 1.882766038179397583e-01 1.268014758825302124e-01 1.210816264152526855e+00 4.012853503227233887e-01 -1.032720088958740234e+00
3.830000000000000000e+02 1.148200321197509766e+01 -2.316957861185073853e-01 -7.011888027191162109e-01 2.454448342323303223e-01 -1.367231905460357666e-01 -6.081555783748626709e-02
3.840000000000000000e+02 1.164151668548583984e+01 1.962478011846542358e-01 4.803713560104370117e-01 1.976150035858154297e+00 7.369564175605773926e-01 -1.515657424926757812e+00
3.850000000000000000e+02 1.046713638305664062e+01 -1.035641431808471680e+00 2.376162767410278320e+00 -7.166960090398788452e-02 6.913479566574096680e-01 2.051110863685607910e-01
3.860000000000000000e+02 1.024942970275878906e+01 -8.840454816818237305e-01 1.536565065383911133e+00 -5.300998222082853317e-03 4.593792259693145752e-01 1.383444964885711670e-01
3.870000000000000000e+02 1.941923904418945312e+01 -1.313661003112792969e+01 -1.072682762145996094e+01 -5.569819211959838867e-01 -3.385142803192138672e+00 9.111682176589965820e-01
3.880000000000000000e+02 2.268652343750000000e+01 -1.393488121032714844e+01 -8.004182815551757812e+00 -9.775573015213012695e-01 -2.694521903991699219e+00 2.505057096481323242e+00
3.890000000000000000e+02 2.455424690246582031e+01 -1.359087753295898438e+01 -5.492292881011962891e+00 -2.890718579292297363e-01 -1.734409451484680176e+00 1.089930415153503418e+00
3.900000000000000000e+02 2.831006622314453125e+01 -7.144947528839111328e+00 9.053850173950195312e-02 1.414994835853576660e+00 4.516600072383880615e-01 -1.327898263931274414e+00
3.910000000000000000e+02 3.221638107299804688e+01 6.719511985778808594e+00 2.304004192352294922e+00 4.574279308319091797e+00 2.063485145568847656e+00 -6.033638492226600647e-02
3.920000000000000000e+02 3.155025672912597656e+01 1.267105579376220703e+01 1.939506888389587402e+00 5.106909275054931641e+00 2.113924741744995117e+00 -3.146784380078315735e-02
3.930000000000000000e+02 3.191452789306640625e+01 1.670600509643554688e+01 1.384136319160461426e+00 5.434961318969726562e+00 2.045729398727416992e+00 -1.703087985515594482e-01
3.940000000000000000e+02 3.225585937500000000e+01 2.205450057983398438e+01 5.768917798995971680e-01 5.490376949310302734e+00 1.820180654525756836e+00 -2.843631207942962646e-01
3.950000000000000000e+02 2.706610870361328125e+01 3.145210266113281250e+01 -5.232672095298767090e-01 4.709958553314208984e+00 1.256007432937622070e+00 -3.660514652729034424e-01
3.960000000000000000e+02 2.736122322082519531e+01 3.770173645019531250e+01 -8.805471658706665039e-01 4.699567794799804688e+00 1.145706295967102051e+00 -1.836490929126739502e-01
3.970000000000000000e+02 2.749597358703613281e+01 4.090911483764648438e+01 -9.487782120704650879e-01 4.725435733795166016e+00 1.132997155189514160e+00 -6.516755372285842896e-02
3.980000000000000000e+02 1.784916687011718750e+01 4.089939117431640625e+01 -5.358607172966003418e-01 3.571179389953613281e+00 9.105955958366394043e-01 -7.129393517971038818e-02
3.990000000000000000e+02 2.264407920837402344e+01 4.094929504394531250e+01 -7.463889122009277344e-01 4.209670066833496094e+00 1.038984298706054688e+00 -5.968323349952697754e-02
4.000000000000000000e+02 2.105792045593261719e+01 2.442076492309570312e+01 2.556403353810310364e-02 4.073925971984863281e+00 1.229847073554992676e+00 -3.938786983489990234e-01
4.010000000000000000e+02 2.348337173461914062e+01 1.536087608337402344e+01 9.503810405731201172e-01 4.355010032653808594e+00 1.591617226600646973e+00 2.026859372854232788e-01
4.020000000000000000e+02 2.625841903686523438e+01 1.128636741638183594e+01 1.758380293846130371e+00 4.313754558563232422e+00 1.821640372276306152e+00 5.225434899330139160e-01
4.030000000000000000e+02 2.411932182312011719e+01 -8.571432232856750488e-01 3.298003673553466797e+00 1.894545197486877441e+00 1.557764649391174316e+00 6.317884325981140137e-01
4.040000000000000000e+02 1.463568210601806641e+01 -1.532140612602233887e+00 1.069366168975830078e+01 9.294083595275878906e+00 5.996323585510253906e+00 2.690582513809204102e+00
4.050000000000000000e+02 1.441135883331298828e+01 -2.411106586456298828e+00 8.161503791809082031e+00 1.079111957550048828e+01 5.685787200927734375e+00 1.020159363746643066e+00
4.060000000000000000e+02 1.371730136871337891e+01 -2.557185173034667969e+00 6.825931072235107422e+00 1.393210792541503906e+01 6.227411746978759766e+00 1.671832680702209473e+00
4.070000000000000000e+02 1.146556282043457031e+01 -2.455038309097290039e+00 7.808239459991455078e+00 3.966783046722412109e+00 3.532506704330444336e+00 6.246790409088134766e+00
4.080000000000000000e+02 8.415410041809082031e+00 -1.810647249221801758e+00 1.930704474449157715e+00 1.043794006109237671e-01 6.105251908302307129e-01 8.341179490089416504e-01
4.090000000000000000e+02 5.224116325378417969e+00 -1.897514104843139648e+00 3.827959299087524414e-01 1.435573250055313110e-01 1.579059809446334839e-01 1.788973808288574219e-01
4.100000000000000000e+02 5.129981637001037598e-01 -1.063673210144042969e+01 -1.755783893167972565e-02 3.249539732933044434e-01 9.221883863210678101e-02 2.097160741686820984e-02
4.110000000000000000e+02 1.177435207366943359e+01 -1.604196357727050781e+01 4.884528160095214844e+00 7.600555419921875000e+00 3.745525121688842773e+00 5.602261066436767578e+00
4.120000000000000000e+02 1.284443473815917969e+01 -1.515507125854492188e+01 2.382445812225341797e+00 3.354042053222656250e+00 1.720946431159973145e+00 3.134036302566528320e+00
4.130000000000000000e+02 1.677790832519531250e+01 -1.341851806640625000e+01 -9.028838157653808594e+00 -1.959089636802673340e-01 -2.767424106597900391e+00 -6.443871855735778809e-01
4.140000000000000000e+02 1.535974216461181641e+01 -1.371602916717529297e+01 -5.090276718139648438e+00 6.701871752738952637e-01 -1.326026916503906250e+00 -2.346744015812873840e-02
4.150000000000000000e+02 1.784507179260253906e+01 -1.225436210632324219e+01 -7.095601081848144531e+00 -3.900762796401977539e-01 -2.245703220367431641e+00 9.798141717910766602e-01
4.160000000000000000e+02 2.351759529113769531e+01 -1.298362255096435547e+01 -6.276498317718505859e+00 -4.555842280387878418e-01 -2.019624710083007812e+00 7.546463012695312500e-01
4.170000000000000000e+02 3.028135490417480469e+01 -1.598097324371337891e+01 -2.988828897476196289e+00 3.211526572704315186e-01 -8.003028631210327148e-01 4.723156392574310303e-01
4.180000000000000000e+02 3.250397109985351562e+01 -1.777460479736328125e+01 -2.850850105285644531e+00 1.051073446869850159e-01 -8.237227797508239746e-01 2.553046941757202148e-01
4.190000000000000000e+02 3.264254760742187500e+01 -1.658118057250976562e+01 -2.410872697830200195e+00 3.884025812149047852e-01 -6.067410707473754883e-01 7.561266422271728516e-02
4.200000000000000000e+02 3.618480682373046875e+01 -1.550511550903320312e+01 -7.970399260520935059e-01 2.150644540786743164e+00 4.060814082622528076e-01 -2.309053659439086914e+00
4.210000000000000000e+02 3.695203399658203125e+01 -1.396443271636962891e+01 -8.760718703269958496e-01 3.449581623077392578e+00 7.720529437065124512e-01 -2.704418182373046875e+00
4.220000000000000000e+02 4.508941268920898438e+01 -8.985237479209899902e-01 7.112815380096435547e-01 6.097294330596923828e+00 2.042572736740112305e+00 -2.633513927459716797e+00
4.230000000000000000e+02 4.782159423828125000e+01 -1.006014347076416016e+00 9.466778635978698730e-01 5.620320320129394531e+00 1.970099449157714844e+00 -2.486417293548583984e+00
4.240000000000000000e+02 4.431416320800781250e+01 3.243999958038330078e+00 1.303180336952209473e+00 6.674890041351318359e+00 2.393421173095703125e+00 -3.109556198120117188e+00
4.250000000000000000e+02 4.532134246826171875e+01 3.912301778793334961e+00 1.770208954811096191e+00 6.308526515960693359e+00 2.423620700836181641e+00 -3.329176187515258789e+00
4.260000000000000000e+02 4.392018890380859375e+01 6.297055721282958984e+00 2.111285924911499023e+00 8.262326240539550781e+00 3.112083673477172852e+00 -3.775462150573730469e+00
4.270000000000000000e+02 3.857641601562500000e+01 1.235488128662109375e+01 1.696040391921997070e+00 8.079876899719238281e+00 2.932775259017944336e+00 -5.475813150405883789e-01
4.280000000000000000e+02 4.030187606811523438e+01 3.300447702407836914e+00 1.140229582786560059e+00 6.843195915222167969e+00 2.395027637481689453e+00 -1.882746100425720215e+00
4.290000000000000000e+02 3.637677383422851562e+01 4.393854618072509766e+00 1.771802544593811035e+00 5.648968696594238281e+00 2.226231336593627930e+00 -8.827084898948669434e-01
4.300000000000000000e+02 3.790456771850585938e+01 -2.178765058517456055e+00 5.709450840950012207e-01 5.142476558685302734e+00 1.714026451110839844e+00 -1.943709254264831543e+00
4.310000000000000000e+02 4.021739578247070312e+01 -3.394630432128906250e+00 1.946447342634201050e-01 5.632165908813476562e+00 1.748043179512023926e+00 -2.260539054870605469e+00
4.320000000000000000e+02 2.505888557434082031e+01 -1.512054347991943359e+01 -4.950652122497558594e+00 -8.965032696723937988e-01 -1.754146575927734375e+00 2.218130588531494141e+00
4.330000000000000000e+02 2.870557975769042969e+01 -1.672701072692871094e+01 -3.514665365219116211e+00 -3.421864509582519531e-01 -1.157055497169494629e+00 1.220320463180541992e+00
4.340000000000000000e+02 3.783531570434570312e+01 -1.801628684997558594e+01 1.350853443145751953e+00 2.046780347824096680e+00 1.019290089607238770e+00 -2.234449386596679688e+00
4.350000000000000000e+02 3.974978637695312500e+01 -1.904377937316894531e+01 3.525227546691894531e+00 5.870535373687744141e+00 2.818728923797607422e+00 -4.437935352325439453e+00
4.360000000000000000e+02 5.197930526733398438e+01 -1.287547969818115234e+01 2.344193756580352783e-01 3.781947374343872070e+00 1.204910039901733398e+00 -8.954107761383056641e-01
4.370000000000000000e+02 5.177800750732421875e+01 -1.480594635009765625e+01 -1.357372641563415527e+00 3.690012931823730469e+00 6.997920870780944824e-01 -1.119678318500518799e-01
4.380000000000000000e+02 5.055665588378906250e+01 -8.867521286010742188e+00 3.946129679679870605e-01 5.884260177612304688e+00 1.883661985397338867e+00 -1.636193871498107910e+00
4.390000000000000000e+02 4.559818649291992188e+01 -2.104477167129516602e+00 5.620486736297607422e-01 6.067672252655029297e+00 1.988916277885437012e+00 -2.485882282257080078e+00
4.400000000000000000e+02 4.546566772460937500e+01 -9.429623603820800781e+00 -6.822705864906311035e-01 6.540036201477050781e+00 1.757329583168029785e+00 -1.608868241310119629e+00
4.410000000000000000e+02 4.713108444213867188e+01 -1.031742286682128906e+01 -5.479355454444885254e-01 6.396026134490966797e+00 1.754427194595336914e+00 -1.219394087791442871e+00
4.420000000000000000e+02 4.056837844848632812e+01 -1.999785995483398438e+01 4.611395359039306641e+00 7.595106601715087891e+00 3.661950588226318359e+00 -6.200121879577636719e+00
4.430000000000000000e+02 4.112117767333984375e+01 -1.839020919799804688e+01 1.010919690132141113e+00 8.784665107727050781e+00 2.938675403594970703e+00 -3.812927484512329102e+00
4.440000000000000000e+02 4.240181732177734375e+01 -2.402979087829589844e+01 5.069617629051208496e-01 1.707561492919921875e+01 5.274772644042968750e+00 -1.778506875038146973e+00
4.450000000000000000e+02 4.959605026245117188e+01 -3.084687232971191406e+01 1.110880374908447266e+00 6.709246158599853516e+00 2.346037864685058594e+00 -1.893055081367492676e+00
4.460000000000000000e+02 4.972925186157226562e+01 -3.640454483032226562e+01 -1.027565956115722656e+00 6.798263072967529297e+00 1.731209039688110352e+00 -5.951676964759826660e-01
4.470000000000000000e+02 5.745935821533203125e+01 -3.587279891967773438e+01 -1.128061637282371521e-01 4.201249599456787109e+00 1.226533055305480957e+00 -2.136075019836425781e+00
4.480000000000000000e+02 6.167075347900390625e+01 -4.109950637817382812e+01 8.089442253112792969e-01 1.416715145111083984e+00 6.676977872848510742e-01 -2.273405790328979492e-01
4.490000000000000000e+02 6.249158859252929688e+01 -3.754938125610351562e+01 4.737230241298675537e-01 4.995012879371643066e-01 2.919673025608062744e-01 -4.587086737155914307e-01
4.500000000000000000e+02 6.421051025390625000e+01 -3.482168197631835938e+01 -1.550424456596374512e+00 -4.736312106251716614e-02 -4.793362617492675781e-01 -2.224213629961013794e-01
4.510000000000000000e+02 6.561795806884765625e+01 -3.450453948974609375e+01 -1.406146883964538574e+00 -7.443387806415557861e-02 -4.441742300987243652e-01 -2.237597554922103882e-01
4.520000000000000000e+02 6.393606185913085938e+01 -3.637115859985351562e+01 -1.828486174345016479e-01 -4.063755273818969727e-02 -6.704585254192352295e-02 -1.420805007219314575e-01
4.530000000000000000e+02 6.147119140625000000e+01 -3.531225585937500000e+01 -9.375401735305786133e-01 3.470931053161621094e-01 -1.771341115236282349e-01 -5.572915673255920410e-01
4.540000000000000000e+02 5.834888076782226562e+01 -3.442536926269531250e+01 1.405104756355285645e+00 2.696664333343505859e+00 1.230530738830566406e+00 -2.087924003601074219e+00
4.550000000000000000e+02 5.638257980346679688e+01 -3.247153091430664062e+01 2.661087036132812500e+00 9.348381996154785156e+00 3.602840662002563477e+00 -3.736063241958618164e+00
4.560000000000000000e+02 5.539960479736328125e+01 -3.316259765625000000e+01 1.296995043754577637e+00 7.307598590850830078e+00 2.581377983093261719e+00 -1.511020541191101074e+00
4.570000000000000000e+02 5.371477127075195312e+01 -2.977360534667968750e+01 2.182916641235351562e+00 7.157713413238525391e+00 2.802189111709594727e+00 -2.286065340042114258e+00
4.580000000000000000e+02 5.553957366943359375e+01 -2.945689964294433594e+01 7.957953214645385742e-01 8.825545310974121094e+00 2.886402130126953125e+00 9.986953437328338623e-02
4.590000000000000000e+02 5.344097900390625000e+01 -2.857463836669921875e+01 1.440703034400939941e+00 6.946813106536865234e+00 2.516254901885986328e+00 -1.789018154144287109e+00
4.600000000000000000e+02 5.515678024291992188e+01 -2.815999412536621094e+01 1.270601511001586914e+00 6.686585426330566406e+00 2.387156248092651367e+00 7.924989797174930573e-03
4.610000000000000000e+02 5.738946533203125000e+01 -2.650582504272460938e+01 1.455316185951232910e+00 2.482010126113891602e+00 1.181197881698608398e+00 1.733755111694335938e+00
4.620000000000000000e+02 5.939679336547851562e+01 -2.473502540588378906e+01 1.950134158134460449e+00 1.281766057014465332e+00 9.695700407028198242e-01 1.553088307380676270e+00
4.630000000000000000e+02 5.836493682861328125e+01 -2.559722709655761719e+01 1.738101601600646973e+00 1.780356526374816895e+00 1.055537462234497070e+00 1.524900555610656738e+00
4.640000000000000000e+02 6.049279022216796875e+01 -2.393685150146484375e+01 2.004418134689331055e+00 1.080232024192810059e+00 9.253950715065002441e-01 1.355504393577575684e+00
4.650000000000000000e+02 6.305021286010742188e+01 -2.268810653686523438e+01 3.511270582675933838e-01 4.216783940792083740e-01 2.318416386842727661e-01 6.773542165756225586e-01
4.660000000000000000e+02 6.441348266601562500e+01 -2.243014907836914062e+01 -4.423750340938568115e-01 2.755078971385955811e-01 -5.006013438105583191e-02 2.499472051858901978e-01
4.670000000000000000e+02 4.237771987915039062e+01 -2.276980781555175781e+01 2.815600395202636719e+00 1.857525825500488281e+01 6.417257308959960938e+00 -4.406036853790283203e+00
4.680000000000000000e+02 4.232397460937500000e+01 -2.945627784729003906e+01 9.662362933158874512e-01 1.019287490844726562e+01 3.347733497619628906e+00 1.497271299362182617e+00
4.690000000000000000e+02 4.086447143554687500e+01 -3.149674224853515625e+01 -1.989372521638870239e-01 3.960868358612060547e+00 1.128579378128051758e+00 1.450349211692810059e+00
4.700000000000000000e+02 4.119794845581054688e+01 -3.361231231689453125e+01 -2.181870460510253906e+00 4.866693019866943359e+00 8.054468035697937012e-01 1.120898365974426270e+00
4.710000000000000000e+02 3.963705825805664062e+01 -3.207046890258789062e+01 -1.428568482398986816e+00 9.507441520690917969e-01 -1.433473080396652222e-01 2.292351126670837402e-01
4.720000000000000000e+02 3.415054702758789062e+01 -3.279028320312500000e+01 -3.686557531356811523e+00 -1.707850247621536255e-01 -1.157202720642089844e+00 3.003049492835998535e-01
4.730000000000000000e+02 3.282782363891601562e+01 -3.248833465576171875e+01 -2.860056877136230469e+00 -1.297017186880111694e-01 -8.969275951385498047e-01 4.446133077144622803e-01
4.740000000000000000e+02 3.153922080993652344e+01 -3.223841857910156250e+01 -2.277084112167358398e+00 -2.275769785046577454e-02 -6.899525523185729980e-01 3.825636506080627441e-01
4.750000000000000000e+02 2.884653854370117188e+01 -3.202481460571289062e+01 -2.035011291503906250e+00 -2.996495366096496582e-02 -6.194928288459777832e-01 2.124362736940383911e-01
4.760000000000000000e+02 2.351402664184570312e+01 -3.140871620178222656e+01 -2.165643453598022461e+00 -1.313222851604223251e-02 -6.536327004432678223e-01 1.601609140634536743e-01
4.770000000000000000e+02 2.004919433593750000e+01 -3.949887084960937500e+01 -7.028521299362182617e-01 -5.870385169982910156e-01 -3.869671821594238281e-01 3.084217011928558350e-01
4.780000000000000000e+02 2.207550430297851562e+01 -3.731996536254882812e+01 -1.291368842124938965e+00 -5.083320736885070801e-01 -5.399103164672851562e-01 5.199498534202575684e-01
4.790000000000000000e+02 3.466907501220703125e+01 -3.604404449462890625e+01 -1.660408496856689453e+00 1.172072254121303558e-02 -4.946063160896301270e-01 -1.116142123937606812e-01
4.800000000000000000e+02 4.032857131958007812e+01 -3.871005630493164062e+01 -1.686106562614440918e+00 3.122673988342285156e+00 4.309702515602111816e-01 6.720925569534301758e-01
4.810000000000000000e+02 4.605417633056640625e+01 -3.729241561889648438e+01 -1.820226073265075684e+00 6.529184818267822266e+00 1.412687540054321289e+00 -1.078333258628845215e-01
4.820000000000000000e+02 4.066820526123046875e+01 -3.666324234008789062e+01 -1.809817194938659668e+00 3.373980045318603516e+00 4.692488610744476318e-01 7.839450836181640625e-01
4.830000000000000000e+02 1.580309104919433594e+01 -3.302136611938476562e+01 -2.574239015579223633e+00 -6.641595959663391113e-01 -9.715195298194885254e-01 8.926703929901123047e-01
4.840000000000000000e+02 1.621725273132324219e+01 -3.724357223510742188e+01 -5.877931118011474609e-01 -1.756707280874252319e-01 -2.290391623973846436e-01 4.852685034275054932e-01
4.850000000000000000e+02 1.496714687347412109e+01 -3.894489669799804688e+01 -2.684206962585449219e-01 2.776531577110290527e-01 2.769739134237170219e-03 2.569958269596099854e-01
4.860000000000000000e+02 1.634999847412109375e+01 -3.135292434692382812e+01 -4.623697280883789062e+00 -4.677313864231109619e-01 -1.527428507804870605e+00 1.120618224143981934e+00
4.870000000000000000e+02 1.361105632781982422e+01 -3.036820030212402344e+01 -4.830777645111083984e+00 -9.335558414459228516e-01 -1.729300022125244141e+00 1.872525334358215332e+00
4.880000000000000000e+02 1.129044914245605469e+01 -2.876264381408691406e+01 -2.304808855056762695e+00 2.844000793993473053e-02 -6.829106211662292480e-01 1.161580085754394531e+00
4.890000000000000000e+02 6.872516870498657227e-01 -3.039494132995605469e+01 -1.235562786459922791e-01 8.753121376037597656e+00 2.588869333267211914e+00 5.515166521072387695e-01
4.900000000000000000e+02 7.272037863731384277e-01 -3.180288314819335938e+01 -1.557321380823850632e-02 9.645353317260742188e+00 2.888934135437011719e+00 4.219071865081787109e-01
4.910000000000000000e+02 8.171674013137817383e-01 -3.738563156127929688e+01 -1.563330441713333130e-01 1.057757091522216797e+01 3.126371383666992188e+00 -8.394817262887954712e-02
4.920000000000000000e+02 6.772157669067382812e+00 -3.837881088256835938e+01 -3.325002789497375488e-01 5.610015392303466797e+00 1.583254575729370117e+00 8.327419310808181763e-02
4.930000000000000000e+02 9.381516456604003906e+00 -3.908827590942382812e+01 -1.758089512586593628e-01 3.839801073074340820e+00 1.099197626113891602e+00 -5.762797966599464417e-02
4.940000000000000000e+02 1.238388538360595703e+01 -2.965099716186523438e+01 -3.907280206680297852e+00 -1.001515984535217285e+00 -1.472638845443725586e+00 1.814009428024291992e+00
4.950000000000000000e+02 1.047936439514160156e+01 -2.976935386657714844e+01 -2.681233167648315430e+00 2.463823795318603516e+00 -6.522285193204879761e-02 1.550744324922561646e-01
4.960000000000000000e+02 1.027111530303955078e+01 -2.777182388305664062e+01 -1.034744262695312500e+00 1.684241533279418945e+00 1.948491632938385010e-01 -1.432178914546966553e-01
4.970000000000000000e+02 6.472579240798950195e-01 -2.619569396972656250e+01 7.489611208438873291e-02 4.259352207183837891e+00 1.300274491310119629e+00 8.165350556373596191e-01
4.980000000000000000e+02 8.057054519653320312e+00 -2.141344261169433594e+01 2.605583190917968750e+00 1.740740776062011719e+01 6.003897666931152344e+00 3.292951107025146484e+00
4.990000000000000000e+02 9.471859931945800781e+00 -1.940798759460449219e+01 3.345423221588134766e+00 1.595966720581054688e+01 5.791527271270751953e+00 6.689933300018310547e+00
5.000000000000000000e+02 7.949400901794433594e+00 -1.965002441406250000e+01 2.587370157241821289e+00 1.318963241577148438e+01 4.733100891113281250e+00 2.670190095901489258e+00
5.010000000000000000e+02 1.088205146789550781e+01 -1.708765602111816406e+01 4.626749038696289062e+00 1.170970821380615234e+01 4.900937080383300781e+00 6.671114921569824219e+00
5.020000000000000000e+02 6.334588623046875000e+01 3.500089263916015625e+01 -1.727532148361206055e+00 -4.681945443153381348e-01 -6.587179899215698242e-01 7.056059241294860840e-01
5.030000000000000000e+02 6.463478088378906250e+01 3.430993270874023438e+01 -1.464594841003417969e+00 -3.788601458072662354e-01 -5.530364513397216797e-01 7.798514366149902344e-01
5.040000000000000000e+02 6.771031951904296875e+01 3.111780738830566406e+01 -1.455551087856292725e-01 1.859347581863403320e+00 5.141377449035644531e-01 -5.201178789138793945e-01
5.050000000000000000e+02 6.685655975341796875e+01 3.484864044189453125e+01 -7.331261038780212402e-01 1.722160935401916504e+00 2.967104613780975342e-01 -1.862395703792572021e-01
5.060000000000000000e+02 7.693997192382812500e+01 2.375920677185058594e+01 9.686011075973510742e-02 8.167423248291015625e+00 2.479285001754760742e+00 4.896127581596374512e-01
5.070000000000000000e+02 7.935973358154296875e+01 3.066255950927734375e+01 -2.063712105154991150e-02 9.896045684814453125e+00 2.962622642517089844e+00 1.817100793123245239e-01
5.080000000000000000e+02 7.934106445312500000e+01 3.205603408813476562e+01 -3.437954699620604515e-03 1.020492649078369141e+01 3.060446500778198242e+00 1.544971913099288940e-01
5.090000000000000000e+02 7.925132751464843750e+01 3.752007293701171875e+01 -2.138763293623924255e-02 1.057808399200439453e+01 3.167008876800537109e+00 -8.394005894660949707e-02
5.100000000000000000e+02 7.202368927001953125e+01 4.103690338134765625e+01 8.636942133307456970e-03 5.745215892791748047e+00 1.726155877113342285e+00 -1.417522039264440536e-02
5.110000000000000000e+02 7.074665069580078125e+01 3.573211288452148438e+01 -5.494827628135681152e-01 4.962210655212402344e+00 1.323818325996398926e+00 -1.747999340295791626e-01
5.120000000000000000e+02 6.188603591918945312e+01 3.553195953369140625e+01 -1.509316802024841309e+00 -2.252237200736999512e-01 -5.203621387481689453e-01 4.812401235103607178e-01
5.130000000000000000e+02 5.913926696777343750e+01 3.589234161376953125e+01 -1.371975541114807129e+00 -1.860028803348541260e-01 -4.673935472965240479e-01 1.792531609535217285e-01
5.140000000000000000e+02 6.264025497436523438e+01 3.716718292236328125e+01 -6.048176884651184082e-01 -2.138347923755645752e-01 -2.455957382917404175e-01 2.824074327945709229e-01
5.150000000000000000e+02 6.916058349609375000e+01 2.848206520080566406e+01 4.308671951293945312e-01 5.864123821258544922e+00 1.888497233390808105e+00 -1.206750869750976562e+00
5.160000000000000000e+02 6.974880218505859375e+01 2.559062004089355469e+01 2.717976570129394531e-01 8.564723014831542969e+00 2.650956153869628906e+00 -7.556819319725036621e-01
5.170000000000000000e+02 7.817549896240234375e+01 1.949442672729492188e+01 3.487408161163330078e-02 7.681974887847900391e+00 2.315054655075073242e+00 2.346019595861434937e-01
5.180000000000000000e+02 7.938574218750000000e+01 2.369216537475585938e+01 2.054777741432189941e-02 8.139673233032226562e+00 2.448066234588623047e+00 1.490995436906814575e-01
5.190000000000000000e+02 7.088560485839843750e+01 2.560549354553222656e+01 3.754090368747711182e-01 8.031796455383300781e+00 2.522161483764648438e+00 -1.531628370285034180e-01
5.200000000000000000e+02 6.993849945068359375e+01 1.993448448181152344e+01 2.490337751805782318e-02 9.232228279113769531e+00 2.777139425277709961e+00 8.786118775606155396e-02
5.210000000000000000e+02 7.816335296630859375e+01 1.252027702331542969e+01 -4.016345366835594177e-02 7.060846805572509766e+00 2.106204986572265625e+00 2.682026028633117676e-01
5.220000000000000000e+02 7.939904022216796875e+01 1.670915222167968750e+01 -1.168476417660713196e-02 7.132970333099365234e+00 2.136385679244995117e+00 8.193553984165191650e-02
5.230000000000000000e+02 6.991803741455078125e+01 1.575450515747070312e+01 2.957795979455113411e-03 9.909116744995117188e+00 2.973622322082519531e+00 1.703307032585144043e-01
5.240000000000000000e+02 6.977747344970703125e+01 1.027768611907958984e+01 -1.820113211870193481e-01 8.615522384643554688e+00 2.530053138732910156e+00 -6.310775279998779297e-01
5.250000000000000000e+02 7.817667388916015625e+01 5.406640529632568359e+00 7.287611067295074463e-02 6.143000125885009766e+00 1.864762902259826660e+00 2.501088678836822510e-01
5.260000000000000000e+02 7.935581207275390625e+01 9.727560043334960938e+00 -8.647932671010494232e-03 6.111551284790039062e+00 1.830870985984802246e+00 1.415404081344604492e-01
5.270000000000000000e+02 6.995446777343750000e+01 8.923250198364257812e+00 9.927079826593399048e-02 1.032651329040527344e+01 3.127735137939453125e+00 -1.031934261322021484e+00
5.280000000000000000e+02 7.012350463867187500e+01 7.555558681488037109e+00 3.471953272819519043e-01 1.226254367828369141e+01 3.782921791076660156e+00 -8.010370135307312012e-01
5.290000000000000000e+02 7.023814392089843750e+01 1.909792184829711914e+00 5.482696294784545898e-01 1.358099269866943359e+01 4.238778591156005859e+00 1.024823307991027832e+00
5.300000000000000000e+02 6.968708038330078125e+01 -9.655492305755615234e-01 7.042106389999389648e-01 1.092346477508544922e+01 3.488302707672119141e+00 2.323710441589355469e+00
5.310000000000000000e+02 6.709856414794921875e+01 -7.576975345611572266e+00 8.324344158172607422e-01 4.662916660308837891e+00 1.648605346679687500e+00 1.863579630851745605e+00
5.320000000000000000e+02 6.769368743896484375e+01 -6.291756629943847656e+00 8.258996009826660156e-01 5.555425643920898438e+00 1.914397478103637695e+00 2.065436840057373047e+00
5.330000000000000000e+02 6.671957397460937500e+01 -1.070523166656494141e+01 7.809967398643493652e-01 3.595450639724731445e+00 1.312934160232543945e+00 1.286214590072631836e+00
5.340000000000000000e+02 6.574529266357421875e+01 -1.008907127380371094e+01 9.216328859329223633e-01 3.156488418579101562e+00 1.223436474800109863e+00 1.602966666221618652e+00
5.350000000000000000e+02 6.495401763916015625e+01 -1.129965686798095703e+01 1.136762857437133789e+00 2.585278034210205078e+00 1.116612195968627930e+00 1.533742547035217285e+00
5.360000000000000000e+02 6.429064178466796875e+01 -2.096839904785156250e+01 -6.451963186264038086e-01 7.707942724227905273e-01 3.767938166856765747e-02 9.806329011917114258e-01
5.370000000000000000e+02 6.566719818115234375e+01 -2.197779655456542969e+01 -1.307491183280944824e+00 1.999767571687698364e-01 -3.322543501853942871e-01 -7.815793156623840332e-02
5.380000000000000000e+02 6.693974304199218750e+01 -2.155491638183593750e+01 -2.927889347076416016e+00 -1.438976675271987915e-01 -9.215360879898071289e-01 -2.537713646888732910e-01
5.390000000000000000e+02 7.001217651367187500e+01 -2.084911346435546875e+01 -1.709015727043151855e+00 3.401240110397338867e+00 5.076672434806823730e-01 -1.385732889175415039e+00
5.400000000000000000e+02 7.054116058349609375e+01 -2.178124237060546875e+01 -8.422907590866088867e-01 4.184907913208007812e+00 1.002785086631774902e+00 -1.316121935844421387e+00
5.410000000000000000e+02 7.106533813476562500e+01 -2.284166717529296875e+01 7.023935914039611816e-01 6.603918075561523438e+00 2.191893339157104492e+00 -2.190101146697998047e+00
5.420000000000000000e+02 7.288497161865234375e+01 -2.285511779785156250e+01 -1.935472488403320312e-01 8.282508850097656250e+00 2.426688432693481445e+00 7.835868597030639648e-01
5.430000000000000000e+02 7.189861297607421875e+01 -2.599317741394042969e+01 7.205469012260437012e-01 1.302962589263916016e+01 4.125051975250244141e+00 -1.912552416324615479e-01
5.440000000000000000e+02 7.157363128662109375e+01 -2.842075347900390625e+01 1.413083076477050781e+00 1.206426906585693359e+01 4.043205738067626953e+00 2.258727073669433594e+00
5.450000000000000000e+02 6.996826171875000000e+01 -3.128426170349121094e+01 1.182782292366027832e+00 3.856922149658203125e+00 1.511911273002624512e+00 2.058107376098632812e+00
5.460000000000000000e+02 6.949655914306640625e+01 -3.311519241333007812e+01 -2.437851727008819580e-01 3.301433801651000977e+00 9.172945618629455566e-01 1.181269407272338867e+00
5.470000000000000000e+02 6.987987518310546875e+01 -3.601165390014648438e+01 -3.658942878246307373e-01 3.793735742568969727e+00 1.028352379798889160e+00 9.038199782371520996e-01
5.480000000000000000e+02 7.775314331054687500e+01 -3.938701629638671875e+01 -1.041637584567070007e-01 8.315492630004882812e+00 2.463398694992065430e+00 1.941421180963516235e-01
5.490000000000000000e+02 7.762964630126953125e+01 -3.640448379516601562e+01 -2.234052568674087524e-01 7.787613868713378906e+00 2.269262552261352539e+00 -2.386662960052490234e-01
5.500000000000000000e+02 7.813149261474609375e+01 -2.932717323303222656e+01 1.041533797979354858e-01 7.037954330444335938e+00 2.142632246017456055e+00 -4.216107428073883057e-01
5.510000000000000000e+02 7.377597045898437500e+01 -2.559145927429199219e+01 1.206613779067993164e+00 9.186554908752441406e+00 3.117950677871704102e+00 3.595793545246124268e-01
5.520000000000000000e+02 7.830036926269531250e+01 -1.541808319091796875e+01 -6.884984672069549561e-02 8.079584121704101562e+00 2.403220176696777344e+00 -1.430595070123672485e-01
5.530000000000000000e+02 7.814380645751953125e+01 -8.489995002746582031e+00 -1.860488019883632660e-02 7.203916549682617188e+00 2.155593633651733398e+00 -4.014824330806732178e-01
5.540000000000000000e+02 7.814787292480468750e+01 -1.538299202919006348e+00 5.266723781824111938e-02 6.181931495666503906e+00 1.870379567146301270e+00 -3.275271654129028320e-01
5.550000000000000000e+02 7.941290283203125000e+01 2.731562614440917969e+00 2.336435578763484955e-02 5.018810272216796875e+00 1.512652397155761719e+00 9.388705715537071228e-03
5.560000000000000000e+02 7.129180145263671875e+01 6.315846920013427734e+00 4.342060089111328125e-01 1.114176845550537109e+01 3.472792387008666992e+00 -7.373154163360595703e-02
5.570000000000000000e+02 5.934932327270507812e+01 -1.582920742034912109e+01 -1.291642546653747559e+00 2.153700143098831177e-01 -3.228817582130432129e-01 2.857826054096221924e-01
5.580000000000000000e+02 5.576074981689453125e+01 -1.710894393920898438e+01 -3.488105297088623047e+00 -7.512226104736328125e-01 -1.271798372268676758e+00 6.695519685745239258e-01
5.590000000000000000e+02 5.796512985229492188e+01 -2.299656105041503906e+01 1.230074286460876465e+00 1.497660636901855469e+00 8.183204531669616699e-01 1.119607686996459961e+00
5.600000000000000000e+02 5.273892211914062500e+01 -1.409861850738525391e+01 -6.251154541969299316e-01 1.660506129264831543e+00 3.106172084808349609e-01 -2.343617379665374756e-01
5.610000000000000000e+02 5.168606185913085938e+01 -1.687698554992675781e+01 -1.495952367782592773e+00 4.009354114532470703e+00 7.540204524993896484e-01 -7.529770731925964355e-01
5.620000000000000000e+02 5.154581832885742188e+01 -2.772990036010742188e+01 1.718014955520629883e+00 6.270355224609375000e+00 2.396511077880859375e+00 -2.208562612533569336e+00
5.630000000000000000e+02 5.250824356079101562e+01 -2.616461372375488281e+01 1.486108779907226562e+00 5.512513160705566406e+00 2.099586486816406250e+00 -1.598212838172912598e+00
5.640000000000000000e+02 4.853545379638671875e+01 -6.693521022796630859e+00 3.444894552230834961e-01 6.107633113861083984e+00 1.935636758804321289e+00 -1.820150256156921387e+00
5.650000000000000000e+02 4.882277679443359375e+01 -3.574474811553955078e+00 6.705026030540466309e-01 6.023516178131103516e+00 2.008205652236938477e+00 -2.144471883773803711e+00
5.660000000000000000e+02 4.256673049926757812e+01 8.662754058837890625e+00 1.814736843109130859e+00 1.110098648071289062e+01 3.874716997146606445e+00 -3.182880878448486328e+00
5.670000000000000000e+02 4.192098999023437500e+01 1.090916633605957031e+01 1.129785180091857910e+00 1.239362907409667969e+01 4.057024002075195312e+00 -1.497685074806213379e+00
5.680000000000000000e+02 3.937578582763671875e+01 1.477508735656738281e+01 1.227078795433044434e+00 8.541566848754882812e+00 2.930593729019165039e+00 -1.079031154513359070e-01
5.690000000000000000e+02 3.756795120239257812e+01 1.420695686340332031e+01 1.571302652359008789e+00 7.453194141387939453e+00 2.707349061965942383e+00 -2.866214811801910400e-01
5.700000000000000000e+02 3.960056686401367188e+01 1.048336601257324219e+01 1.971261262893676758e+00 8.492008209228515625e+00 3.138980865478515625e+00 -8.377363085746765137e-01
5.710000000000000000e+02 4.234952545166015625e+01 1.496964740753173828e+01 2.442564517259597778e-01 1.044099998474121094e+01 3.205576896667480469e+00 9.178391695022583008e-01
5.720000000000000000e+02 4.199759292602539062e+01 1.964260482788085938e+01 6.831634640693664551e-01 8.101489067077636719e+00 2.635395765304565430e+00 1.544587850570678711e+00
5.730000000000000000e+02 4.458233642578125000e+01 2.304013633728027344e+01 1.184370040893554688e+00 6.610965728759765625e+00 2.338600873947143555e+00 2.562779903411865234e+00
5.740000000000000000e+02 4.650248718261718750e+01 2.682589340209960938e+01 1.163446068763732910e+00 4.085381507873535156e+00 1.574648261070251465e+00 2.064126014709472656e+00
5.750000000000000000e+02 4.811121749877929688e+01 2.922593307495117188e+01 8.328713178634643555e-01 2.498632431030273438e+00 9.994511008262634277e-01 1.444686889648437500e+00
5.760000000000000000e+02 5.315700531005859375e+01 3.437833023071289062e+01 -2.334163337945938110e-01 3.627902865409851074e-01 3.881218284368515015e-02 1.149800568819046021e-01
5.770000000000000000e+02 6.043611907958984375e+01 3.572994613647460938e+01 -1.356607198715209961e+00 -1.182877942919731140e-01 -4.424684941768646240e-01 3.904058337211608887e-01
5.780000000000000000e+02 5.773767089843750000e+01 3.612631225585937500e+01 -1.171569108963012695e+00 -4.499239102005958557e-02 -3.649684488773345947e-01 3.464994207024574280e-02
5.790000000000000000e+02 5.601638412475585938e+01 3.599509429931640625e+01 -8.251278400421142578e-01 -2.258741483092308044e-02 -2.543145716190338135e-01 -5.817359779030084610e-03
5.800000000000000000e+02 6.899636077880859375e+01 -3.213545989990234375e+01 6.603219509124755859e-01 1.958154916763305664e+00 7.855430841445922852e-01 1.154542803764343262e+00
5.810000000000000000e+02 1.208199262619018555e+00 2.155192136764526367e+00 -4.092657938599586487e-02 -1.468616276979446411e-01 -5.633646622300148010e-02 1.441501379013061523e-01
5.820000000000000000e+02 5.143023133277893066e-01 6.395914077758789062e+00 6.527655757963657379e-03 -7.448841929435729980e-01 -2.215069532394409180e-01 4.829566180706024170e-02
5.830000000000000000e+02 6.016897678375244141e+00 1.125643062591552734e+01 1.821690499782562256e-01 9.719325900077819824e-01 3.462305068969726562e-01 -3.399927914142608643e-01
5.840000000000000000e+02 1.394004249572753906e+01 1.164947509765625000e+01 1.896627843379974365e-01 3.667758464813232422e+00 1.157226324081420898e+00 -1.192577630281448364e-01
5.850000000000000000e+02 1.268485355377197266e+01 1.050771903991699219e+01 1.654329448938369751e-01 3.451891422271728516e+00 1.085197329521179199e+00 -2.814866006374359131e-01
5.860000000000000000e+02 1.289653015136718750e+01 1.487912464141845703e+01 1.015199571847915649e-01 3.097792148590087891e+00 9.597936272621154785e-01 -3.211278617382049561e-01
5.870000000000000000e+02 1.286247348785400391e+01 1.743377494812011719e+01 5.180477350950241089e-02 2.952603101730346680e+00 9.013223648071289062e-01 -3.878062665462493896e-01
5.880000000000000000e+02 1.569428920745849609e+01 2.244857788085937500e+01 -1.184665504842996597e-02 3.311208963394165039e+00 9.898087382316589355e-01 -4.135075211524963379e-01
5.890000000000000000e+02 8.575084686279296875e+00 3.080156707763671875e+01 -1.170062348246574402e-01 2.093713283538818359e+00 5.930121541023254395e-01 -3.396110832691192627e-01
5.900000000000000000e+02 6.426263451576232910e-01 3.318853378295898438e+01 3.045162186026573181e-03 1.057793974876403809e+00 3.182517588138580322e-01 -3.526661917567253113e-02
5.910000000000000000e+02 1.926618933677673340e+00 3.015158653259277344e+01 -9.922317229211330414e-03 1.057775378227233887e+00 3.143559396266937256e-01 -1.204161047935485840e-01
5.920000000000000000e+02 6.657590270042419434e-01 2.753881454467773438e+01 4.432925925357267261e-05 6.972290277481079102e-01 2.091820091009140015e-01 -5.089958384633064270e-02
5.930000000000000000e+02 1.974686861038208008e+00 2.586507987976074219e+01 -7.538569625467061996e-03 7.928103804588317871e-01 2.355815470218658447e-01 -1.566613167524337769e-01
5.940000000000000000e+02 6.473326206207275391e+00 1.927580451965332031e+01 -5.473201628774404526e-03 1.424661517143249512e+00 4.257565140724182129e-01 -4.300403296947479248e-01
5.950000000000000000e+02 8.001150131225585938e+00 2.388544845581054688e+01 -5.604499951004981995e-02 1.879382133483886719e+00 5.470011830329895020e-01 -4.415867626667022705e-01
5.960000000000000000e+02 7.281655311584472656e+00 2.580189704895019531e+01 -6.540117412805557251e-02 1.784491658210754395e+00 5.157271623611450195e-01 -4.037085175514221191e-01
5.970000000000000000e+02 5.972485542297363281e+00 1.828305721282958984e+00 -3.554942607879638672e-01 -6.069096736609935760e-03 -1.084690093994140625e-01 3.242700994014739990e-01
5.980000000000000000e+02 8.277470588684082031e+00 2.950001001358032227e+00 3.892727792263031006e-01 3.865730464458465576e-01 2.327537387609481812e-01 -1.399404555559158325e-01
5.990000000000000000e+02 1.056962776184082031e+01 1.619893193244934082e+00 5.018952488899230957e-01 1.276975512504577637e+00 5.336612462997436523e-01 -1.054854869842529297e+00
6.000000000000000000e+02 1.387350082397460938e+01 8.061897754669189453e-02 3.390451192855834961e+00 1.408972263336181641e+01 5.244052410125732422e+00 4.650644779205322266e+00
6.010000000000000000e+02 1.540376067161560059e+00 -1.053398036956787109e+01 -8.582918345928192139e-02 1.024535536766052246e+00 2.816119194030761719e-01 1.058163046836853027e-01
6.020000000000000000e+02 5.908004045486450195e-01 -1.763354492187500000e+01 2.142455615103244781e-02 -8.568605184555053711e-01 -2.506307959556579590e-01 -1.004838049411773682e-01
6.030000000000000000e+02 1.765924692153930664e+00 -1.736453819274902344e+01 1.125627830624580383e-01 1.262797951698303223e+00 4.126082062721252441e-01 -2.607525885105133057e-01
6.040000000000000000e+02 6.953125000000000000e-01 -2.334246826171875000e+01 1.216399222612380981e-01 1.211815714836120605e+00 4.000366926193237305e-01 6.306769847869873047e-01
6.050000000000000000e+02 8.604701042175292969e+00 -2.532703399658203125e+01 9.474282860755920410e-01 1.414960384368896484e+01 4.529109477996826172e+00 -6.711851358413696289e-01
6.060000000000000000e+02 2.651961088180541992e+00 -3.812728118896484375e+01 -2.636163234710693359e-01 9.254106521606445312e+00 2.697147130966186523e+00 -1.415856480598449707e-01
6.070000000000000000e+02 7.695907592773437500e+01 3.942787551879882812e+01 -6.751073151826858521e-02 9.894909858703613281e+00 2.948219776153564453e+00 -1.521199196577072144e-02
6.080000000000000000e+02 4.991625213623046875e+01 3.680765533447265625e+01 -4.691721200942993164e-01 1.906078577041625977e+00 4.310719370841979980e-01 4.244946837425231934e-01
6.090000000000000000e+02 4.991961669921875000e+01 3.158714675903320312e+01 5.013440847396850586e-01 1.447846293449401855e+00 5.847570896148681641e-01 8.662011027336120605e-01
6.100000000000000000e+02 4.244408416748046875e+01 3.743966674804687500e+01 -9.947901368141174316e-01 4.183569908142089844e+00 9.566339850425720215e-01 2.074292898178100586e-01
6.110000000000000000e+02 4.243241119384765625e+01 4.081784439086914062e+01 -1.096094489097595215e+00 4.113967418670654297e+00 9.053618907928466797e-01 6.507349759340286255e-02
6.120000000000000000e+02 4.513144302368164062e+01 3.101816749572753906e+01 -1.290215402841567993e-01 3.991429567337036133e+00 1.158722400665283203e+00 8.957984447479248047e-01
6.130000000000000000e+02 4.580332565307617188e+01 2.557850837707519531e+01 1.152987480163574219e+00 4.717011928558349609e+00 1.760999798774719238e+00 2.257169723510742188e+00
6.140000000000000000e+02 3.755126953125000000e+01 4.066260528564453125e+01 -1.192742347717285156e+00 4.811154365539550781e+00 1.085523486137390137e+00 1.981911947950720787e-03
6.150000000000000000e+02 3.179875946044921875e+01 3.720561981201171875e+01 -1.000940203666687012e+00 4.999133586883544922e+00 1.199458003044128418e+00 -1.551356464624404907e-01
6.160000000000000000e+02 3.497254180908203125e+01 2.905713081359863281e+01 -3.683064579963684082e-01 5.411676406860351562e+00 1.513011097908020020e+00 -1.622886508703231812e-01
6.170000000000000000e+02 4.047289657592773438e+01 2.323380279541015625e+01 5.284930467605590820e-01 6.466671466827392578e+00 2.098549365997314453e+00 8.045336008071899414e-01
6.180000000000000000e+02 3.798471450805664062e+01 1.540580463409423828e+01 1.371989488601684570e+00 7.493793487548828125e+00 2.659734964370727539e+00 -1.376625895500183105e-01
6.190000000000000000e+02 4.283777999877929688e+01 1.773104667663574219e+01 5.728543400764465332e-01 9.424411773681640625e+00 2.999179840087890625e+00 1.964921832084655762e+00
6.200000000000000000e+02 1.484799289703369141e+01 2.871381568908691406e+01 -2.163812220096588135e-01 3.124756336212158203e+00 8.725125789642333984e-01 -4.522258043289184570e-01
6.210000000000000000e+02 1.549431705474853516e+01 2.568823242187500000e+01 -1.064681187272071838e-01 3.244181632995605469e+00 9.413140416145324707e-01 -4.555408060550689697e-01
6.220000000000000000e+02 1.317160797119140625e+01 4.083592224121093750e+01 -3.418717682361602783e-01 2.923523664474487305e+00 7.744956016540527344e-01 -5.836126953363418579e-02
6.230000000000000000e+02 6.577463626861572266e+00 3.707352066040039062e+01 -9.098155051469802856e-02 1.941329598426818848e+00 5.551044344902038574e-01 -1.280484497547149658e-01
6.240000000000000000e+02 7.330812454223632812e+00 3.214868164062500000e+01 -1.008167266845703125e-01 1.944264650344848633e+00 5.530343651771545410e-01 -3.013704419136047363e-01
6.250000000000000000e+02 2.047410488128662109e+00 4.160798263549804688e+01 -5.614355951547622681e-02 1.442966461181640625e+00 4.160468876361846924e-01 -1.589436084032058716e-02
6.260000000000000000e+02 4.558608055114746094e+00 3.705050277709960938e+01 -2.479946054518222809e-02 1.593872785568237305e+00 4.707219898700714111e-01 -8.491137623786926270e-02
6.270000000000000000e+02 6.083692312240600586e-01 2.044985389709472656e+01 -7.717788685113191605e-04 6.315622478723526001e-02 1.871533319354057312e-02 -6.011753529310226440e-02
6.280000000000000000e+02 1.757675886154174805e+00 1.599504947662353516e+01 2.789857098832726479e-03 -3.565411642193794250e-02 -9.859277866780757904e-03 -1.635170578956604004e-01
6.290000000000000000e+02 7.317203998565673828e+00 1.512031841278076172e+01 5.509795621037483215e-02 1.527849555015563965e+00 4.748842716217041016e-01 -4.390511810779571533e-01
6.300000000000000000e+02 5.786297917366027832e-01 1.481732082366943359e+01 1.152855926193296909e-03 -5.023028254508972168e-01 -1.503449976444244385e-01 -5.625906214118003845e-02
6.310000000000000000e+02 1.559243083000183105e+00 9.076420783996582031e+00 3.716634213924407959e-02 -5.064135193824768066e-01 -1.407741457223892212e-01 -1.116336323320865631e-02
6.320000000000000000e+02 3.723765945434570312e+01 -4.132262039184570312e+01 -1.209895253181457520e+00 1.408813834190368652e+00 5.967559292912483215e-02 9.229126572608947754e-02
6.330000000000000000e+02 3.528119277954101562e+01 -3.440942764282226562e+01 -2.450061321258544922e+00 -1.112537980079650879e-01 -7.683945298194885254e-01 -6.741998344659805298e-02
6.340000000000000000e+02 2.951650810241699219e+01 -1.439146995544433594e+01 -2.925302267074584961e+00 5.845839977264404297e-01 -7.022154927253723145e-01 1.231627613306045532e-01
6.350000000000000000e+02 2.840514183044433594e+01 -1.394730472564697266e+01 -3.271499633789062500e+00 5.104499459266662598e-01 -8.283149003982543945e-01 2.538498938083648682e-01
6.360000000000000000e+02 3.326722335815429688e+01 -6.341737270355224609e+00 1.988268941640853882e-01 3.107375144958496094e+00 9.918605685234069824e-01 -1.860547304153442383e+00
6.370000000000000000e+02 2.394442939758300781e+01 -8.106296539306640625e+00 -4.429003894329071045e-01 3.390569686889648438e-01 -3.115303069353103638e-02 -8.198398947715759277e-01
6.380000000000000000e+02 2.319936370849609375e+01 -5.618101596832275391e+00 1.718776106834411621e+00 8.055762648582458496e-01 7.573057413101196289e-01 -3.806569874286651611e-01
6.390000000000000000e+02 1.210996150970458984e+01 -1.446743965148925781e+01 -2.509453892707824707e-01 6.537998199462890625e+00 1.886115789413452148e+00 3.569003105163574219e+00
6.400000000000000000e+02 1.213338279724121094e+01 -1.288759613037109375e+01 -2.517744779586791992e+00 6.755878448486328125e+00 1.271440148353576660e+00 3.778820514678955078e+00
6.410000000000000000e+02 3.583074951171875000e+01 -1.429218292236328125e+01 -9.296844005584716797e-01 2.412701845169067383e+00 4.449052214622497559e-01 -2.122112751007080078e+00
6.420000000000000000e+02 7.941396331787109375e+01 -2.092354011535644531e+01 -5.061526224017143250e-02 7.878338813781738281e+00 2.348317146301269531e+00 2.112683355808258057e-01
6.430000000000000000e+02 7.940423583984375000e+01 -1.257704353332519531e+01 -1.602861285209655762e-02 8.167422294616699219e+00 2.445418119430541992e+00 -1.138645410537719727e-01
6.440000000000000000e+02 6.301659393310546875e+01 -1.969692611694335938e+01 -4.738236963748931885e-01 1.156598687171936035e+00 2.048325091600418091e-01 1.505294919013977051e+00
6.450000000000000000e+02 6.829170989990234375e+01 -2.139998245239257812e+01 -3.323982000350952148e+00 -6.532828509807586670e-02 -1.016793131828308105e+00 -8.381369709968566895e-02
6.460000000000000000e+02 6.942211914062500000e+01 -2.000431060791015625e+01 -1.059732437133789062e+00 2.523557662963867188e+00 4.391475617885589600e-01 -1.327950358390808105e+00
6.470000000000000000e+02 7.939597320556640625e+01 -2.649204063415527344e+01 8.312807232141494751e-02 6.138328075408935547e+00 1.866436839103698730e+00 3.210905194282531738e-02
6.480000000000000000e+02 5.075583267211914062e+01 -3.031772422790527344e+01 1.659646511077880859e+00 6.644140720367431641e+00 2.491136312484741211e+00 -2.123240232467651367e+00
6.490000000000000000e+02 7.933424377441406250e+01 -3.346873474121093750e+01 -6.192907318472862244e-02 7.836825370788574219e+00 2.332468986511230469e+00 -2.089943885803222656e-01
6.500000000000000000e+02 6.677388000488281250e+01 3.228619384765625000e+01 -5.810949206352233887e-01 6.582866907119750977e-01 2.315752580761909485e-02 1.270168572664260864e-01
6.510000000000000000e+02 4.744773483276367188e+01 3.164242362976074219e+01 5.383509397506713867e-02 2.940228939056396484e+00 8.982192277908325195e-01 9.305543303489685059e-01
6.520000000000000000e+02 4.570181655883789062e+01 3.247152709960937500e+01 -3.632022142410278320e-01 3.634170055389404297e+00 9.812903404235839844e-01 7.594802975654602051e-01
6.530000000000000000e+02 3.905710983276367188e+01 3.055323219299316406e+01 -5.179247856140136719e-01 5.252049922943115234e+00 1.420237660408020020e+00 1.497461944818496704e-01
6.540000000000000000e+02 2.961768913269042969e+01 2.875760841369628906e+01 -3.076393604278564453e-01 4.976299762725830078e+00 1.400598168373107910e+00 -3.795172274112701416e-01
6.550000000000000000e+02 2.343485069274902344e+01 3.446710205078125000e+01 -6.180136799812316895e-01 4.301974296569824219e+00 1.105188131332397461e+00 -3.085007965564727783e-01
6.560000000000000000e+02 1.731448554992675781e+01 3.259573745727539062e+01 -3.662979602813720703e-01 3.504384517669677734e+00 9.414259791374206543e-01 -3.615169823169708252e-01
6.570000000000000000e+02 3.027935218811035156e+01 2.300861930847167969e+01 4.080874919891357422e-01 5.153666496276855469e+00 1.668526172637939453e+00 -3.369224369525909424e-01
6.580000000000000000e+02 2.302037239074707031e+01 2.510593223571777344e+01 2.394459769129753113e-02 4.295349597930908203e+00 1.295788288116455078e+00 -3.992849588394165039e-01
6.590000000000000000e+02 3.885303878784179688e+01 2.815490531921386719e+01 -2.261645644903182983e-01 5.540106296539306641e+00 1.594182491302490234e+00 2.264823615550994873e-01
6.600000000000000000e+02 6.925270843505859375e+01 -2.339309930801391602e+00 7.769221067428588867e-01 9.375234603881835938e+00 3.045646905899047852e+00 2.387504816055297852e+00
6.610000000000000000e+02 7.938511657714843750e+01 -5.629237174987792969e+00 -9.437954053282737732e-03 6.526912212371826172e+00 1.955242395401000977e+00 -1.772885173559188843e-01
6.620000000000000000e+02 2.286298751831054688e+01 -3.040997087955474854e-01 3.680868864059448242e+00 2.168175935745239258e+00 1.754713416099548340e+00 1.167440652847290039e+00
6.630000000000000000e+02 3.394443130493164062e+01 3.992926120758056641e+00 2.014559745788574219e+00 4.698268413543701172e+00 2.013848543167114258e+00 -5.418974161148071289e-01
6.640000000000000000e+02 2.651019287109375000e+01 1.264019107818603516e+01 1.612334609031677246e+00 4.422339439392089844e+00 1.810402274131774902e+00 3.754892051219940186e-01
6.650000000000000000e+02 3.300234603881835938e+01 1.206042003631591797e+01 2.039696455001831055e+00 5.441970825195312500e+00 2.244500160217285156e+00 -1.413104087114334106e-01
6.660000000000000000e+02 2.711608505249023438e+01 1.730672264099121094e+01 1.060247778892517090e+00 4.698767662048339844e+00 1.727704644203186035e+00 -6.149678304791450500e-02
6.670000000000000000e+02 3.305054473876953125e+01 1.955408287048339844e+01 9.535189270973205566e-01 5.698504447937011719e+00 1.995606899261474609e+00 -2.285848259925842285e-01
6.680000000000000000e+02 2.625050735473632812e+01 -1.570256233215332031e+01 -4.238165855407714844e+00 -6.124535799026489258e-01 -1.455185890197753906e+00 1.726275086402893066e+00
6.690000000000000000e+02 2.794555091857910156e+01 -1.510407447814941406e+01 -3.638341426849365234e+00 1.215055398643016815e-02 -1.087857246398925781e+00 8.809034228324890137e-01
6.700000000000000000e+02 2.994578742980957031e+01 -1.719102478027343750e+01 -3.080719470977783203e+00 -1.426692306995391846e-01 -9.670165777206420898e-01 8.958235383033752441e-01
6.710000000000000000e+02 3.121097373962402344e+01 -1.755159950256347656e+01 -2.877800703048706055e+00 4.747061803936958313e-02 -8.490989804267883301e-01 5.752990841865539551e-01
6.720000000000000000e+02 3.516765975952148438e+01 -1.789644622802734375e+01 -2.542049884796142578e+00 1.251265853643417358e-01 -7.250770330429077148e-01 -2.270419746637344360e-01
6.730000000000000000e+02 3.652151489257812500e+01 -1.791145133972167969e+01 -1.317534208297729492e+00 2.405555099248886108e-01 -3.230935931205749512e-01 -6.299445629119873047e-01
6.740000000000000000e+02 3.922997283935546875e+01 -1.781611442565917969e+01 1.682284951210021973e+00 5.286206722259521484e+00 2.090547561645507812e+00 -3.458537817001342773e+00
6.750000000000000000e+02 4.144876480102539062e+01 -2.092002487182617188e+01 5.683334827423095703e+00 1.394613170623779297e+01 5.888840198516845703e+00 -6.693761348724365234e+00
6.760000000000000000e+02 4.382809829711914062e+01 -2.317205619812011719e+01 3.313463687896728516e+00 1.148485755920410156e+01 4.439496517181396484e+00 -3.218765735626220703e+00
6.770000000000000000e+02 4.243348312377929688e+01 -2.670755386352539062e+01 1.717304438352584839e-01 1.350961208343505859e+01 4.104403018951416016e+00 -2.604030072689056396e-01
6.780000000000000000e+02 3.833642196655273438e+01 -3.256626510620117188e+01 -2.783587217330932617e+00 3.316406905651092529e-02 -8.251269459724426270e-01 -3.978810608386993408e-01
6.790000000000000000e+02 3.694219207763671875e+01 -3.290996551513671875e+01 -3.753861188888549805e+00 -2.978460788726806641e-01 -1.215512156486511230e+00 -3.405833542346954346e-01
6.800000000000000000e+02 3.265797424316406250e+01 -3.366487884521484375e+01 -2.610676288604736328e+00 -1.116163730621337891e-01 -8.166878223419189453e-01 -2.451184391975402832e-02
6.810000000000000000e+02 2.602011489868164062e+01 -3.153382873535156250e+01 -2.008051156997680664e+00 -4.473396390676498413e-02 -6.158355474472045898e-01 1.636523604393005371e-01
6.820000000000000000e+02 2.480616950988769531e+01 -3.133618927001953125e+01 -2.057992935180664062e+00 1.498098485171794891e-02 -6.129035949707031250e-01 1.739419847726821899e-01
6.830000000000000000e+02 2.214314651489257812e+01 -3.144912338256835938e+01 -2.402168989181518555e+00 4.362545534968376160e-02 -7.075630426406860352e-01 1.246930062770843506e-01
6.840000000000000000e+02 1.932136154174804688e+01 -3.165549278259277344e+01 -3.453939199447631836e+00 -9.957742691040039062e-02 -1.066054940223693848e+00 4.371649920940399170e-01
6.850000000000000000e+02 1.783694458007812500e+01 -3.162584304809570312e+01 -4.141448497772216797e+00 -3.488166630268096924e-01 -1.347079634666442871e+00 7.204431295394897461e-01
6.860000000000000000e+02 9.236529350280761719e+00 -2.668577384948730469e+01 1.090732663869857788e-01 7.523903369903564453e+00 2.289892911911010742e+00 -1.211110234260559082e+00
6.870000000000000000e+02 8.500558853149414062e+00 -2.386750030517578125e+01 3.479710817337036133e-01 1.770526313781738281e+01 5.415970325469970703e+00 5.244935154914855957e-01
6.880000000000000000e+02 8.881662368774414062e+00 -2.055174636840820312e+01 2.748148679733276367e+00 1.904167556762695312e+01 6.536946773529052734e+00 5.457667350769042969e+00
6.890000000000000000e+02 1.014609527587890625e+01 -1.824328231811523438e+01 3.546473026275634766e+00 1.351833438873291016e+01 5.119441986083984375e+00 6.660821437835693359e+00
6.900000000000000000e+02 1.018438148498535156e+01 -1.647864151000976562e+01 2.784970283508300781e+00 1.045050430297851562e+01 3.970642328262329102e+00 4.264335155487060547e+00
6.910000000000000000e+02 1.401440811157226562e+01 -1.431280422210693359e+01 -1.498982429504394531e+00 1.711651086807250977e+00 6.380061805248260498e-02 1.248229622840881348e+00
6.920000000000000000e+02 6.856311035156250000e+01 2.987072181701660156e+01 3.520332872867584229e-01 3.993037939071655273e+00 1.303521394729614258e+00 -1.048596978187561035e+00
6.930000000000000000e+02 6.952050018310546875e+01 2.703035163879394531e+01 3.431518673896789551e-01 7.362524509429931641e+00 2.311702966690063477e+00 -1.071904420852661133e+00
6.940000000000000000e+02 6.992493438720703125e+01 2.274541473388671875e+01 9.700682759284973145e-02 9.193477630615234375e+00 2.787145376205444336e+00 -4.234636947512626648e-02
6.950000000000000000e+02 6.987384796142578125e+01 2.416287040710449219e+01 1.659783720970153809e-01 9.121524810791015625e+00 2.786251068115234375e+00 -3.488325178623199463e-01
6.960000000000000000e+02 6.993621826171875000e+01 1.853718566894531250e+01 -1.023557595908641815e-02 9.403086662292480469e+00 2.817855358123779297e+00 1.083626076579093933e-01
6.970000000000000000e+02 6.989282226562500000e+01 1.436329650878906250e+01 2.449361383914947510e-01 1.029869270324707031e+01 3.163088560104370117e+00 4.442531168460845947e-01
6.980000000000000000e+02 6.978851318359375000e+01 1.298812866210937500e+01 1.206431351602077484e-02 9.116105079650878906e+00 2.738450765609741211e+00 6.215994358062744141e-01
6.990000000000000000e+02 7.133197784423828125e+01 4.938212394714355469e+00 2.120473533868789673e-01 1.161807250976562500e+01 3.549036026000976562e+00 1.374707669019699097e-01
7.000000000000000000e+02 7.005078125000000000e+01 4.538977146148681641e-01 7.275904417037963867e-01 1.271270751953125000e+01 4.032089233398437500e+00 1.885542869567871094e+00
7.010000000000000000e+02 6.877729034423828125e+01 -3.680508613586425781e+00 8.147274255752563477e-01 8.046757698059082031e+00 2.658445596694946289e+00 2.363191843032836914e+00
7.020000000000000000e+02 6.825954437255859375e+01 -4.997289180755615234e+00 8.906951546669006348e-01 6.818465232849121094e+00 2.312748193740844727e+00 2.261075973510742188e+00
7.030000000000000000e+02 6.980316162109375000e+01 -7.209749698638916016e+00 2.605932354927062988e-01 6.409145832061767578e+00 2.000921726226806641e+00 8.879071474075317383e-01
7.040000000000000000e+02 6.403507995605468750e+01 -1.243676376342773438e+01 1.281527400016784668e+00 1.931263804435729980e+00 9.638373255729675293e-01 1.459363460540771484e+00
7.050000000000000000e+02 6.181716918945312500e+01 -1.427772140502929688e+01 9.738204479217529297e-01 8.538527488708496094e-01 5.483019351959228516e-01 9.726982116699218750e-01
7.060000000000000000e+02 5.681411743164062500e+01 -1.650302124023437500e+01 -4.829172134399414062e+00 -4.853777587413787842e-01 -1.594365000724792480e+00 3.687823414802551270e-01
7.070000000000000000e+02 5.099020004272460938e+01 -1.020396232604980469e+01 3.597296774387359619e-01 5.439527034759521484e+00 1.739776968955993652e+00 -1.422963738441467285e+00
7.080000000000000000e+02 5.013519287109375000e+01 -7.535200595855712891e+00 4.830111563205718994e-01 6.053262710571289062e+00 1.960882186889648438e+00 -1.788782238960266113e+00
7.090000000000000000e+02 4.970346450805664062e+01 -6.208929061889648438e+00 5.522525906562805176e-01 6.219830036163330078e+00 2.031624794006347656e+00 -1.945716738700866699e+00
7.100000000000000000e+02 4.719531250000000000e+01 -2.819074153900146484e+00 6.201162338256835938e-01 5.953163623809814453e+00 1.971983909606933594e+00 -2.399294376373291016e+00
7.110000000000000000e+02 4.723545837402343750e+01 2.414984107017517090e-01 1.224732160568237305e+00 5.786176204681396484e+00 2.103272438049316406e+00 -2.754257202148437500e+00
7.120000000000000000e+02 4.662300872802734375e+01 1.480371952056884766e+00 1.393939375877380371e+00 5.952763080596923828e+00 2.204010725021362305e+00 -2.900627851486206055e+00
7.130000000000000000e+02 4.599158096313476562e+01 2.707571506500244141e+00 1.474732995033264160e+00 5.948584556579589844e+00 2.226995229721069336e+00 -3.099453687667846680e+00
7.140000000000000000e+02 4.462220001220703125e+01 5.103749752044677734e+00 1.950055480003356934e+00 6.989173412322998047e+00 2.681768655776977539e+00 -3.708904981613159180e+00
7.150000000000000000e+02 4.324174499511718750e+01 7.495286464691162109e+00 1.737462759017944336e+00 9.084458351135253906e+00 3.246576547622680664e+00 -3.834011316299438477e+00
7.160000000000000000e+02 4.131445693969726562e+01 9.672460556030273438e+00 1.976228237152099609e+00 1.073174762725830078e+01 3.812392711639404297e+00 -1.894074440002441406e+00
7.170000000000000000e+02 4.202223587036132812e+01 1.222130966186523438e+01 4.059433341026306152e-01 1.190724754333496094e+01 3.693957090377807617e+00 -1.586637347936630249e-01
7.180000000000000000e+02 4.218259429931640625e+01 1.358781242370605469e+01 2.699223756790161133e-01 1.088145828247070312e+01 3.345414400100708008e+00 4.877225458621978760e-01
7.190000000000000000e+02 4.254343414306640625e+01 1.635616683959960938e+01 6.045300960540771484e-01 1.041754245758056641e+01 3.306621789932250977e+00 1.419960498809814453e+00
7.200000000000000000e+02 4.361169052124023438e+01 2.041259384155273438e+01 7.884873151779174805e-01 7.972390651702880859e+00 2.628263473510742188e+00 2.293283224105834961e+00
7.210000000000000000e+02 4.406589889526367188e+01 2.173724174499511719e+01 1.022441864013671875e+00 7.429956912994384766e+00 2.535719633102416992e+00 2.447068691253662109e+00
7.220000000000000000e+02 4.516864395141601562e+01 2.431577491760253906e+01 1.221396088600158691e+00 5.581820487976074219e+00 2.040964841842651367e+00 2.454443931579589844e+00
7.230000000000000000e+02 4.727960205078125000e+01 2.803985023498535156e+01 1.073143124580383301e+00 3.314071178436279297e+00 1.316164255142211914e+00 1.811204552650451660e+00
7.240000000000000000e+02 5.196452331542968750e+01 3.354482269287109375e+01 -7.480241358280181885e-02 6.394777297973632812e-01 1.694025993347167969e-01 2.790952026844024658e-01
7.250000000000000000e+02 7.261940002441406250e+01 -2.838276290893554688e+01 1.259320497512817383e+00 9.840207099914550781e+00 3.329858303070068359e+00 5.933962464332580566e-01
7.260000000000000000e+02 7.084172821044921875e+01 -3.038449668884277344e+01 1.418896675109863281e+00 7.165445327758789062e+00 2.575302600860595703e+00 2.607427597045898438e+00
7.270000000000000000e+02 6.685731506347656250e+01 -3.373593521118164062e+01 -1.002177119255065918e+00 2.015843540430068970e-01 -2.401778399944305420e-01 -1.519625782966613770e-01
7.280000000000000000e+02 6.287035369873046875e+01 -3.496060943603515625e+01 -1.508210420608520508e+00 -2.349595166742801666e-02 -4.595119059085845947e-01 -2.148935049772262573e-01
7.290000000000000000e+02 9.812611579895019531e+00 1.736358165740966797e+00 2.598138451576232910e-01 5.347654223442077637e-01 2.383737862110137939e-01 -5.139754414558410645e-01
7.300000000000000000e+02 9.072440147399902344e+00 1.752249598503112793e+00 -2.818689495325088501e-02 1.703874468803405762e-01 4.266016557812690735e-02 -7.672592252492904663e-02
7.310000000000000000e+02 8.286504745483398438e+00 2.340296506881713867e+00 1.329015493392944336e-01 2.024312466382980347e-01 1.005998402833938599e-01 5.599560216069221497e-03
7.320000000000000000e+02 7.530175209045410156e+00 1.791499972343444824e+00 -3.347880542278289795e-01 2.917747385799884796e-02 -9.168317168951034546e-02 2.408661693334579468e-01
7.330000000000000000e+02 5.190487384796142578e+00 1.856086254119873047e+00 -3.181573152542114258e-01 -1.350038871169090271e-02 -9.949731081724166870e-02 3.289896547794342041e-01
7.340000000000000000e+02 4.403793811798095703e+00 1.896787643432617188e+00 -2.599567472934722900e-01 -3.254947066307067871e-02 -8.775187283754348755e-02 3.247309029102325439e-01
7.350000000000000000e+02 2.422137975692749023e+00 4.480412006378173828e+00 5.385817587375640869e-02 -2.351311743259429932e-01 -5.438189953565597534e-02 2.522351145744323730e-01
7.360000000000000000e+02 3.612693071365356445e+00 1.953580617904663086e+00 -2.021856606006622314e-01 -5.131886154413223267e-02 -7.605135440826416016e-02 3.048951327800750732e-01
7.370000000000000000e+02 2.012816905975341797e+00 2.096475839614868164e+00 -8.593963086605072021e-02 -1.186064630746841431e-01 -6.136382743716239929e-02 2.145456075668334961e-01
7.380000000000000000e+02 1.080141258239746094e+01 1.536020278930664062e+00 5.555704832077026367e-01 1.596409678459167480e+00 6.455940604209899902e-01 -1.260108113288879395e+00
7.390000000000000000e+02 1.274973106384277344e+01 6.526685357093811035e-01 1.925630867481231689e-02 1.030688190460205078e+01 3.097841501235961914e+00 -1.637639164924621582e+00
7.400000000000000000e+02 1.293874454498291016e+01 5.708426833152770996e-01 -1.086170598864555359e-01 1.148651504516601562e+01 3.413369178771972656e+00 -1.040584802627563477e+00
7.410000000000000000e+02 1.325809860229492188e+01 7.349697947502136230e-01 5.107508599758148193e-02 1.215654945373535156e+01 3.662287473678588867e+00 2.923787832260131836e-01
7.420000000000000000e+02 1.332168006896972656e+01 4.066839218139648438e-01 3.717587590217590332e-01 1.395619678497314453e+01 4.298386573791503906e+00 1.117255687713623047e+00
7.430000000000000000e+02 1.371504402160644531e+01 2.264382243156433105e-01 2.179537534713745117e+00 1.432151031494140625e+01 4.950314521789550781e+00 3.667882204055786133e+00
7.440000000000000000e+02 1.427844715118408203e+01 -4.156904816627502441e-01 7.632078647613525391e+00 1.191217994689941406e+01 5.863277435302734375e+00 5.893546581268310547e+00
7.450000000000000000e+02 1.439121627807617188e+01 -8.483116626739501953e-01 1.017780303955078125e+01 1.067761325836181641e+01 6.256624698638916016e+00 5.176944255828857422e+00
7.460000000000000000e+02 1.439388656616210938e+01 -1.269990444183349609e+00 1.157145595550537109e+01 1.012848854064941406e+01 6.509983539581298828e+00 3.646153926849365234e+00
7.470000000000000000e+02 1.436881065368652344e+01 -1.474838495254516602e+00 1.159088802337646484e+01 1.021924400329589844e+01 6.543039798736572266e+00 2.876317024230957031e+00
7.480000000000000000e+02 1.449797725677490234e+01 -2.195374011993408203e+00 9.082445144653320312e+00 1.035367965698242188e+01 5.830837249755859375e+00 1.101302146911621094e+00
7.490000000000000000e+02 1.331920337677001953e+01 -2.741224050521850586e+00 5.450707912445068359e+00 1.469730758666992188e+01 6.044404983520507812e+00 3.392075061798095703e+00
7.500000000000000000e+02 1.242843532562255859e+01 -2.807645320892333984e+00 5.621273517608642578e+00 1.134320735931396484e+01 5.089344024658203125e+00 7.172321319580078125e+00
7.510000000000000000e+02 1.186518669128417969e+01 -2.581263065338134766e+00 7.835001468658447266e+00 6.834635734558105469e+00 4.400891304016113281e+00 7.694422245025634766e+00
7.520000000000000000e+02 1.097433280944824219e+01 -2.151423454284667969e+00 7.278828620910644531e+00 1.196247935295104980e+00 2.542522907257080078e+00 3.902460575103759766e+00
7.530000000000000000e+02 1.048317337036132812e+01 -1.990929245948791504e+00 5.455640316009521484e+00 4.574610590934753418e-01 1.773930430412292480e+00 2.297811269760131836e+00
7.540000000000000000e+02 1.028271007537841797e+01 -1.956911206245422363e+00 4.992247581481933594e+00 3.248107135295867920e-01 1.595117449760437012e+00 2.011115074157714844e+00
7.550000000000000000e+02 9.884963989257812500e+00 -1.813466906547546387e+00 4.166356563568115234e+00 1.774701625108718872e-01 1.303148031234741211e+00 1.438745260238647461e+00
7.560000000000000000e+02 9.660517692565917969e+00 -2.157040596008300781e+00 3.855238199234008789e+00 3.439212143421173096e-01 1.259747862815856934e+00 1.886142730712890625e+00
7.570000000000000000e+02 9.162401199340820312e+00 -1.811503291130065918e+00 2.802489042282104492e+00 2.017349004745483398e-01 9.012671709060668945e-01 1.100268721580505371e+00
7.580000000000000000e+02 6.833095550537109375e+00 -1.845572829246520996e+00 9.605709314346313477e-01 1.661977916955947876e-01 3.380306065082550049e-01 5.051181912422180176e-01
7.590000000000000000e+02 7.631625175476074219e+00 -1.824408411979675293e+00 1.340922474861145020e+00 1.695964336395263672e-01 4.531556665897369385e-01 6.681724786758422852e-01
7.600000000000000000e+02 2.823448181152343750e+00 -1.977755188941955566e+00 6.498806178569793701e-02 6.219289079308509827e-02 3.815428540110588074e-02 -9.150622785091400146e-02
7.610000000000000000e+02 5.189890861511230469e+00 -3.562032461166381836e+00 8.281880021095275879e-01 5.758673548698425293e-01 4.212166070938110352e-01 6.915422081947326660e-01
7.620000000000000000e+02 4.421751022338867188e+00 -1.922035336494445801e+00 2.174793183803558350e-01 1.331370025873184204e-01 1.051848977804183960e-01 5.569934472441673279e-02
7.630000000000000000e+02 1.222534537315368652e+00 -2.080838918685913086e+00 -1.042534946464002132e-03 -8.919405192136764526e-02 -2.707097679376602173e-02 -1.313249170780181885e-01
7.640000000000000000e+02 4.105339646339416504e-01 -2.170772790908813477e+00 -2.057285048067569733e-03 -1.982432454824447632e-01 -6.009015813469886780e-02 -4.612703993916511536e-02
7.650000000000000000e+02 2.042161703109741211e+00 -4.165034103393554688e+01 3.617657423019409180e-01 9.882935523986816406e+00 3.073410511016845703e+00 -1.029791533946990967e-01
7.660000000000000000e+02 3.570993661880493164e+00 -3.917312622070312500e+01 -1.579191982746124268e-01 9.119132995605468750e+00 2.688364028930664062e+00 2.943449653685092926e-02
7.670000000000000000e+02 9.822508692741394043e-01 -3.873689270019531250e+01 3.455916047096252441e-02 1.035001659393310547e+01 3.115372896194458008e+00 -1.420896500349044800e-01
7.680000000000000000e+02 7.732537984848022461e-01 -3.461859512329101562e+01 -6.004549935460090637e-02 1.051851272583007812e+01 3.137540102005004883e+00 1.073476821184158325e-01
7.690000000000000000e+02 7.564402222633361816e-01 -3.321695709228515625e+01 -1.256386637687683105e-01 1.023472023010253906e+01 3.032724380493164062e+00 2.737148106098175049e-01
7.700000000000000000e+02 6.471074819564819336e-01 -2.900079154968261719e+01 2.761867828667163849e-02 7.523301601409912109e+00 2.265276193618774414e+00 6.750427484512329102e-01
7.710000000000000000e+02 6.317648291587829590e-01 -2.760379028320312500e+01 -1.078498438000679016e-01 5.974725246429443359e+00 1.760062694549560547e+00 7.611048221588134766e-01
7.720000000000000000e+02 6.754161715507507324e-01 -2.477608299255371094e+01 -1.995501574128866196e-03 2.613707780838012695e+00 7.835136651992797852e-01 7.396580576896667480e-01
7.730000000000000000e+02 6.883481144905090332e-01 -2.190270805358886719e+01 6.462211906909942627e-02 1.139849796891212463e-01 5.358212813735008240e-02 4.381521940231323242e-01
7.740000000000000000e+02 6.583179831504821777e-01 -2.046854782104492188e+01 1.360060572624206543e-01 -6.277016997337341309e-01 -1.475086957216262817e-01 2.407088130712509155e-01
7.750000000000000000e+02 1.964970588684082031e+00 -2.020735359191894531e+01 4.636341333389282227e-01 1.986792922019958496e+00 7.351281046867370605e-01 4.873161613941192627e-01
7.760000000000000000e+02 5.654358863830566406e-01 -1.622835159301757812e+01 1.384263858199119568e-02 -5.627132654190063477e-01 -1.646611839532852173e-01 -1.444193720817565918e-01
7.770000000000000000e+02 5.461907386779785156e-01 -1.482920169830322266e+01 -1.884872093796730042e-02 -1.923842877149581909e-01 -6.336989998817443848e-02 -1.436579823493957520e-01
7.780000000000000000e+02 5.320227146148681641e-01 -1.343200302124023438e+01 -1.973748579621315002e-02 1.259897351264953613e-01 3.187567368149757385e-02 -9.167173504829406738e-02
7.790000000000000000e+02 1.597852230072021484e+00 -1.325698089599609375e+01 -9.171171486377716064e-02 1.197621703147888184e+00 3.317729830741882324e-01 -1.959796100854873657e-01
7.800000000000000000e+02 5.087401270866394043e-01 -9.238154411315917969e+00 -1.377653889358043671e-02 2.088021785020828247e-01 5.850769206881523132e-02 6.391774117946624756e-02
7.810000000000000000e+02 5.093649029731750488e-01 -7.839721202850341797e+00 9.320098324678838253e-04 4.486745223402976990e-03 1.625626580789685249e-03 8.217693120241165161e-02
7.820000000000000000e+02 3.606932878494262695e+00 -2.870121955871582031e+00 2.976506948471069336e-01 2.336726933717727661e-01 1.593970209360122681e-01 9.115903079509735107e-02
7.830000000000000000e+02 3.666082382202148438e+00 -3.824334144592285156e+00 4.008859097957611084e-01 4.605731368064880371e-01 2.584377229213714600e-01 3.168095946311950684e-01
7.840000000000000000e+02 7.220404815673828125e+01 -4.106101989746093750e+01 1.069926247000694275e-01 4.990586280822753906e+00 1.529273629188537598e+00 1.008032187819480896e-01
7.850000000000000000e+02 5.253661346435546875e+01 -4.107880020141601562e+01 -1.681071162223815918e+00 6.479573249816894531e+00 1.439550638198852539e+00 -1.986855864524841309e-01
7.860000000000000000e+02 3.265604019165039062e+01 -3.888019180297851562e+01 -1.195220708847045898e+00 -1.633260846138000488e-01 -4.075640439987182617e-01 -1.034520044922828674e-01
7.870000000000000000e+02 1.242932605743408203e+01 -4.150619125366210938e+01 1.069503128528594971e-01 1.629763364791870117e+00 5.210140943527221680e-01 -3.776348009705543518e-02
7.880000000000000000e+02 7.879337310791015625e+01 4.018157196044921875e+01 -1.430054306983947754e-01 1.013478469848632812e+01 2.997533798217773438e+00 -2.236848473548889160e-01
7.890000000000000000e+02 7.911730194091796875e+01 3.885312271118164062e+01 4.002576693892478943e-03 1.039747333526611328e+01 3.120442628860473633e+00 -9.439841657876968384e-02
7.900000000000000000e+02 7.930545806884765625e+01 3.617140197753906250e+01 -7.801553606986999512e-02 1.068792533874511719e+01 3.182972908020019531e+00 8.734433911740779877e-03
7.910000000000000000e+02 7.796018218994140625e+01 3.476995468139648438e+01 -8.149425685405731201e-02 9.704442977905273438e+00 2.886884689331054688e+00 1.930110752582550049e-01
7.920000000000000000e+02 7.932907867431640625e+01 3.344057464599609375e+01 -2.860875427722930908e-02 1.044525146484375000e+01 3.124992847442626953e+00 1.208331435918807983e-01
7.930000000000000000e+02 7.693119049072265625e+01 2.929867362976074219e+01 -3.069057501852512360e-02 8.684317588806152344e+00 2.596087932586669922e+00 6.293544769287109375e-01
7.940000000000000000e+02 7.938667297363281250e+01 2.648106765747070312e+01 1.497617457062005997e-02 8.786170005798339844e+00 2.640343904495239258e+00 1.824331283569335938e-01
7.950000000000000000e+02 7.693954467773437500e+01 2.656009292602539062e+01 5.722979456186294556e-02 8.417490005493164062e+00 2.542415857315063477e+00 6.065384745597839355e-01
7.960000000000000000e+02 7.938555145263671875e+01 2.229461860656738281e+01 -4.657638259232044220e-03 7.874978542327880859e+00 2.361096143722534180e+00 1.319737136363983154e-01
7.970000000000000000e+02 7.938670349121093750e+01 2.089785957336425781e+01 2.192215248942375183e-02 7.648298263549804688e+00 2.301066160202026367e+00 1.130563393235206604e-01
7.980000000000000000e+02 7.816174316406250000e+01 2.230588912963867188e+01 4.783630743622779846e-02 7.987351894378662109e+00 2.410556554794311523e+00 3.104657530784606934e-01
7.990000000000000000e+02 7.938977050781250000e+01 1.950079917907714844e+01 -9.117797948420047760e-03 7.456156730651855469e+00 2.234111547470092773e+00 9.872576594352722168e-02
8.000000000000000000e+02 7.940105438232421875e+01 1.531576633453369141e+01 8.877691812813282013e-03 6.979246616363525391e+00 2.096437454223632812e+00 8.625928312540054321e-02
8.010000000000000000e+02 7.939756011962890625e+01 1.392309951782226562e+01 -1.410948578268289566e-02 6.810692310333251953e+00 2.038975000381469727e+00 9.215254336595535278e-02
8.020000000000000000e+02 7.938671112060546875e+01 1.252812862396240234e+01 -3.641371382400393486e-03 6.610206127166748047e+00 1.981969475746154785e+00 1.135826930403709412e-01
8.030000000000000000e+02 7.937010955810546875e+01 1.112936115264892578e+01 -6.079167593270540237e-03 6.373969078063964844e+00 1.910367012023925781e+00 1.247046366333961487e-01
8.040000000000000000e+02 7.935320281982421875e+01 8.325591087341308594e+00 7.700239308178424835e-03 5.827850341796875000e+00 1.750665068626403809e+00 1.435635834932327271e-01
8.050000000000000000e+02 7.936608886718750000e+01 6.924371242523193359e+00 3.373735118657350540e-03 5.548458099365234375e+00 1.665549635887145996e+00 1.319759786128997803e-01
8.060000000000000000e+02 7.809867095947265625e+01 6.821417331695556641e+00 3.992387652397155762e-02 6.347347259521484375e+00 1.916181325912475586e+00 3.361395001411437988e-01
8.070000000000000000e+02 7.938819122314453125e+01 5.524375438690185547e+00 1.894561387598514557e-02 5.292860507965087891e+00 1.593541860580444336e+00 1.082011461257934570e-01
8.080000000000000000e+02 7.940593719482421875e+01 1.339066028594970703e+00 2.440257743000984192e-02 5.060934543609619141e+00 1.525601148605346680e+00 -4.700862616300582886e-02
8.090000000000000000e+02 7.939310455322265625e+01 -5.151110887527465820e-02 1.665141992270946503e-02 5.220138549804687500e+00 1.571037054061889648e+00 -9.568542242050170898e-02
8.100000000000000000e+02 7.938370513916015625e+01 -1.443215131759643555e+00 1.826776750385761261e-02 5.473569393157958984e+00 1.647551059722900391e+00 -1.349141001701354980e-01
8.110000000000000000e+02 7.938187408447265625e+01 -2.838964700698852539e+00 3.015909460373222828e-04 5.791400909423828125e+00 1.737510800361633301e+00 -1.573530584573745728e-01
8.120000000000000000e+02 7.938491821289062500e+01 -7.018257617950439453e+00 1.840690965764224529e-03 6.900737762451171875e+00 2.070773601531982422e+00 -1.668054163455963135e-01
8.130000000000000000e+02 7.938484191894531250e+01 -8.405083656311035156e+00 -5.677973385900259018e-03 7.255253314971923828e+00 2.174872636795043945e+00 -1.629554927349090576e-01
8.140000000000000000e+02 7.938720703125000000e+01 -9.792982101440429688e+00 -7.150324527174234390e-03 7.589494228363037109e+00 2.274703264236450195e+00 -1.476724147796630859e-01
8.150000000000000000e+02 7.941733551025390625e+01 -1.396881580352783203e+01 -1.206465065479278564e-03 8.396098136901855469e+00 2.518467426300048828e+00 -9.262391179800033569e-02
8.160000000000000000e+02 7.942684936523437500e+01 -1.535913085937500000e+01 -3.243156522512435913e-02 8.562512397766113281e+00 2.559024095535278320e+00 -5.307609960436820984e-02
8.170000000000000000e+02 7.942353820800781250e+01 -1.675164794921875000e+01 -1.218150556087493896e-02 8.617586135864257812e+00 2.581621408462524414e+00 2.462652744725346565e-03
8.180000000000000000e+02 7.940590667724609375e+01 -2.232052803039550781e+01 1.840453594923019409e-02 7.330864429473876953e+00 2.204780578613281250e+00 2.526756227016448975e-01
8.190000000000000000e+02 7.707722473144531250e+01 -2.658059883117675781e+01 4.863873124122619629e-01 7.340290069580078125e+00 2.348003149032592773e+00 8.701080083847045898e-02
8.200000000000000000e+02 7.939118194580078125e+01 -2.371223449707031250e+01 1.601915992796421051e-02 6.793195247650146484e+00 2.042764425277709961e+00 2.126604020595550537e-01
8.210000000000000000e+02 7.939354705810546875e+01 -2.789248466491699219e+01 1.814262382686138153e-02 6.190607070922851562e+00 1.862624883651733398e+00 -8.794179558753967285e-02
8.220000000000000000e+02 7.938048553466796875e+01 -2.928780937194824219e+01 6.050235405564308167e-02 6.472171783447265625e+00 1.959802269935607910e+00 -1.753331422805786133e-01
8.230000000000000000e+02 7.937341308593750000e+01 -3.067713356018066406e+01 -2.315314859151840210e-02 6.893292903900146484e+00 2.061041831970214844e+00 -2.200170755386352539e-01
8.240000000000000000e+02 7.927188110351562500e+01 -3.487605667114257812e+01 3.105856664478778839e-02 8.201831817626953125e+00 2.469867229461669922e+00 -1.729820221662521362e-01
8.250000000000000000e+02 7.920793914794921875e+01 -3.630121994018554688e+01 -1.368664205074310303e-01 8.430701255798339844e+00 2.488150358200073242e+00 -8.839002251625061035e-02
8.260000000000000000e+02 7.918057250976562500e+01 -3.770744705200195312e+01 -3.206535428762435913e-02 8.452995300292968750e+00 2.526278972625732422e+00 6.808575242757797241e-02
8.270000000000000000e+02 7.923635864257812500e+01 -3.901263046264648438e+01 1.396742016077041626e-01 8.380788803100585938e+00 2.556138992309570312e+00 -8.004091680049896240e-03
8.280000000000000000e+02 4.029078483581542969e-01 2.192951440811157227e+00 -9.320489130914211273e-03 -1.494357287883758545e-01 -4.762686416506767273e-02 5.010775476694107056e-02
8.290000000000000000e+02 2.962600708007812500e+00 3.045013666152954102e+00 -3.813759610056877136e-02 -1.272698640823364258e-01 -4.962224140763282776e-02 3.094140887260437012e-01
8.300000000000000000e+02 4.554501056671142578e+00 7.387253761291503906e+00 2.818007767200469971e-01 2.483182996511459351e-01 1.590357273817062378e-01 -2.622289955615997314e-02
8.310000000000000000e+02 1.476237297058105469e+00 4.851461410522460938e+00 2.928252890706062317e-02 -3.859858810901641846e-01 -1.070110052824020386e-01 1.857225596904754639e-01
8.320000000000000000e+02 5.204885005950927734e-01 9.207404136657714844e+00 5.047394894063472748e-03 -8.613602519035339355e-01 -2.568938732147216797e-01 -5.386279430240392685e-03
8.330000000000000000e+02 5.507546067237854004e-01 1.200689792633056641e+01 3.484931774437427521e-03 -7.430971264839172363e-01 -2.218836694955825806e-01 -3.862008824944496155e-02
8.340000000000000000e+02 1.655070781707763672e+00 1.181350040435791016e+01 2.423868887126445770e-02 -3.705406486988067627e-01 -1.038905829191207886e-01 -1.028598248958587646e-01
8.350000000000000000e+02 5.894362330436706543e-01 1.622573471069335938e+01 1.603627344593405724e-03 -3.627551496028900146e-01 -1.083454638719558716e-01 -5.987647175788879395e-02
8.360000000000000000e+02 1.780162692070007324e+00 1.739247894287109375e+01 1.223887782543897629e-03 8.450800925493240356e-02 2.571956999599933624e-02 -1.690476536750793457e-01
8.370000000000000000e+02 5.963720083236694336e-01 1.763486862182617188e+01 -9.055541013367474079e-04 -2.202550172805786133e-01 -6.634817272424697876e-02 -6.033173575997352600e-02
8.380000000000000000e+02 6.192684769630432129e-01 2.185874366760253906e+01 1.584448473295196891e-04 2.012990415096282959e-01 6.043724715709686279e-02 -5.974862724542617798e-02
8.390000000000000000e+02 6.338384151458740234e-01 2.327231597900390625e+01 -1.180451945401728153e-03 3.351172506809234619e-01 1.001810431480407715e-01 -5.836774408817291260e-02
8.400000000000000000e+02 1.881369829177856445e+00 2.298319244384765625e+01 -3.852166468277573586e-03 5.648171901702880859e-01 1.682895123958587646e-01 -1.649885624647140503e-01
8.410000000000000000e+02 6.505171060562133789e-01 2.469196701049804688e+01 9.452804224565625191e-04 4.643563032150268555e-01 1.395904719829559326e-01 -5.866876989603042603e-02
8.420000000000000000e+02 6.581527590751647949e-01 2.895423507690429688e+01 -4.311221651732921600e-03 7.997650504112243652e-01 2.386361360549926758e-01 -4.566784575581550598e-02
8.430000000000000000e+02 6.462588906288146973e-01 3.036636734008789062e+01 -1.783102488843724132e-04 8.942674994468688965e-01 2.682267427444458008e-01 -4.153747111558914185e-02
8.440000000000000000e+02 3.264726877212524414e+00 2.857817268371582031e+01 -1.865627057850360870e-02 1.175557136535644531e+00 3.470702767372131348e-01 -2.117438465356826782e-01
8.450000000000000000e+02 6.396151781082153320e-01 3.177667999267578125e+01 -4.582851193845272064e-03 9.788670539855957031e-01 2.922852635383605957e-01 -3.553688526153564453e-02
8.460000000000000000e+02 6.738250851631164551e-01 3.599048995971679688e+01 -1.339291338808834553e-03 1.206410884857177734e+00 3.615214824676513672e-01 -3.156121447682380676e-02
8.470000000000000000e+02 2.469237327575683594e+00 3.794421005249023438e+01 7.372051477432250977e-04 1.427196979522705078e+00 4.283802509307861328e-01 -1.011826097965240479e-01
8.480000000000000000e+02 9.284653663635253906e-01 3.868775939941406250e+01 5.185030749998986721e-04 1.355690002441406250e+00 4.068625569343566895e-01 -4.272238165140151978e-02
8.490000000000000000e+02 1.336592555046081543e+00 4.002669906616210938e+01 9.220474399626255035e-03 1.420580148696899414e+00 4.289401769638061523e-01 -5.189260840415954590e-02
8.500000000000000000e+02 1.114117622375488281e+01 -2.237471342086791992e+00 7.462319850921630859e+00 1.805835485458374023e+00 2.780446767807006836e+00 4.565454483032226562e+00
8.510000000000000000e+02 1.007728767395019531e+01 -1.896422863006591797e+00 4.497940063476562500e+00 2.123038470745086670e-01 1.413073182106018066e+00 1.645906329154968262e+00
8.520000000000000000e+02 1.081925392150878906e+01 -2.064460754394531250e+00 6.875251293182373047e+00 7.809756994247436523e-01 2.296868085861206055e+00 3.209096908569335938e+00
8.530000000000000000e+02 1.165848350524902344e+01 -2.538550138473510742e+00 7.903011322021484375e+00 5.235834598541259766e+00 3.941653728485107422e+00 6.998649597167968750e+00
8.540000000000000000e+02 1.130449199676513672e+01 -2.335273027420043945e+00 7.727883338928222656e+00 2.631790637969970703e+00 3.107902288436889648e+00 5.317203998565673828e+00
8.550000000000000000e+02 1.050018024444580078e+01 -2.316049814224243164e+00 5.859737396240234375e+00 1.039814472198486328e+00 2.069865465164184570e+00 3.317711353302001953e+00
8.560000000000000000e+02 1.066362380981445312e+01 -2.010291337966918945e+00 6.074663639068603516e+00 6.225009560585021973e-01 2.009149312973022461e+00 2.640836000442504883e+00
8.570000000000000000e+02 1.289303493499755859e+01 -2.867681741714477539e+00 4.917023658752441406e+00 1.357144546508789062e+01 5.546540737152099609e+00 5.480131626129150391e+00
8.580000000000000000e+02 1.401823139190673828e+01 -6.930468976497650146e-02 4.676904201507568359e+00 1.359243869781494141e+01 5.480803012847900391e+00 5.371674060821533203e+00
8.590000000000000000e+02 1.391234588623046875e+01 -2.429256439208984375e+00 7.777045249938964844e+00 1.310044288635253906e+01 6.263246536254882812e+00 1.160838723182678223e+00
8.600000000000000000e+02 1.456211948394775391e+01 -1.976443648338317871e+00 9.767527580261230469e+00 9.872505187988281250e+00 5.892010211944580078e+00 1.544132590293884277e+00
8.610000000000000000e+02 1.417162799835205078e+01 -2.061200141906738281e+00 9.960300445556640625e+00 1.180563163757324219e+01 6.529779434204101562e+00 1.033308982849121094e+00
8.620000000000000000e+02 1.414834785461425781e+01 -2.351447939872741699e-01 5.989711761474609375e+00 1.289216136932373047e+01 5.664562225341796875e+00 5.735424518585205078e+00
8.630000000000000000e+02 1.352162837982177734e+01 -2.660940885543823242e+00 6.077531814575195312e+00 1.446695137023925781e+01 6.163345336914062500e+00 2.408007860183715820e+00
8.640000000000000000e+02 1.436474323272705078e+01 -6.247438192367553711e-01 9.074770927429199219e+00 1.112804508209228516e+01 6.060844898223876953e+00 5.727076530456542969e+00
8.650000000000000000e+02 1.466576480865478516e+01 -1.086466908454895020e+00 1.026920604705810547e+01 9.350819587707519531e+00 5.886007785797119141e+00 4.112358093261718750e+00
8.660000000000000000e+02 1.223745632171630859e+01 -2.711744546890258789e+00 6.391525268554687500e+00 1.007960510253906250e+01 4.941339015960693359e+00 7.731446266174316406e+00
8.670000000000000000e+02 1.311262512207031250e+01 -2.805752754211425781e+00 5.048519611358642578e+00 1.453559970855712891e+01 5.875235557556152344e+00 4.468969345092773438e+00
8.680000000000000000e+02 1.299896240234375000e+01 -3.242059230804443359e+00 4.026154041290283203e+00 1.249363803863525391e+01 4.955937862396240234e+00 4.914792537689208984e+00
8.690000000000000000e+02 1.390616035461425781e+01 6.458821296691894531e-01 1.513301014900207520e+00 1.254842281341552734e+01 4.218517303466796875e+00 3.037058115005493164e+00
8.700000000000000000e+02 1.265297222137451172e+01 -2.880536794662475586e+00 5.081469058990478516e+00 1.248642921447753906e+01 5.270369529724121094e+00 6.385694026947021484e+00
8.710000000000000000e+02 1.139290332794189453e+01 1.218997955322265625e+00 6.061412096023559570e-01 2.919046163558959961e+00 1.057556152343750000e+00 -1.857267975807189941e+00
8.720000000000000000e+02 1.086081218719482422e+01 2.003427028656005859e+00 6.713818311691284180e-01 2.147109985351562500e+00 8.455474972724914551e-01 -1.417516827583312988e+00
8.730000000000000000e+02 1.308691406250000000e+01 8.468204140663146973e-01 -2.455838024616241455e-02 1.122491455078125000e+01 3.360106706619262695e+00 -4.830102324485778809e-01
8.740000000000000000e+02 1.236474704742431641e+01 8.087821602821350098e-01 3.235502243041992188e-01 7.450425624847412109e+00 2.332192659378051758e+00 -2.446552515029907227e+00
8.750000000000000000e+02 1.031041812896728516e+01 1.698107838630676270e+00 4.676713049411773682e-01 8.884686231613159180e-01 4.068419635295867920e-01 -9.206033349037170410e-01
8.760000000000000000e+02 1.102386665344238281e+01 1.446653604507446289e+00 5.949433445930480957e-01 2.001333236694335938e+00 7.788829803466796875e-01 -1.476768016815185547e+00
8.770000000000000000e+02 1.121739482879638672e+01 1.317213773727416992e+00 6.216998100280761719e-01 2.430265188217163086e+00 9.155895113945007324e-01 -1.684629321098327637e+00
8.780000000000000000e+02 1.249269771575927734e+01 1.080568432807922363e+00 9.605261683464050293e-02 7.839545249938964844e+00 2.380679368972778320e+00 -1.977640509605407715e+00
8.790000000000000000e+02 1.255702877044677734e+01 7.302051186561584473e-01 1.543381065130233765e-01 8.935405731201171875e+00 2.726923227310180664e+00 -2.156581640243530273e+00
8.800000000000000000e+02 9.665190696716308594e+00 2.250356912612915039e+00 4.506433904170989990e-01 7.822400927543640137e-01 3.698650300502777100e-01 -5.675738453865051270e-01
8.810000000000000000e+02 6.751791000366210938e+00 1.808416843414306641e+00 -3.636256456375122070e-01 1.501689665019512177e-02 -1.045826226472854614e-01 2.896246016025543213e-01
8.820000000000000000e+02 6.047333240509033203e+00 2.483927965164184570e+00 -1.007201671600341797e-01 2.695816196501255035e-02 -2.212860248982906342e-02 3.033440113067626953e-01
8.830000000000000000e+02 8.305628776550292969e+00 1.772772431373596191e+00 -2.380190044641494751e-01 6.782380491495132446e-02 -5.105856060981750488e-02 1.261621713638305664e-01
8.840000000000000000e+02 5.292913436889648438e+00 2.557184219360351562e+00 -1.052997335791587830e-01 -5.643622949719429016e-03 -3.328300639986991882e-02 3.388283848762512207e-01
8.850000000000000000e+02 7.545087337493896484e+00 2.388232946395874023e+00 1.181463617831468582e-02 1.100223958492279053e-01 3.655111044645309448e-02 1.545864790678024292e-01
8.860000000000000000e+02 1.530378460884094238e+00 7.715537071228027344e+00 4.675561189651489258e-02 -5.131500959396362305e-01 -1.399183422327041626e-01 5.061444267630577087e-02
8.870000000000000000e+02 3.992605924606323242e+00 3.634427785873413086e+00 5.652960017323493958e-02 -6.993592530488967896e-02 -4.021896980702877045e-03 3.163275122642517090e-01
8.880000000000000000e+02 1.291575908660888672e+00 3.475654125213623047e+00 -5.966830998659133911e-03 -2.804062068462371826e-01 -8.591190725564956665e-02 1.898978352546691895e-01
8.890000000000000000e+02 2.815594196319580078e+00 2.023758649826049805e+00 -1.408255249261856079e-01 -8.527338504791259766e-02 -6.782967597246170044e-02 2.710448801517486572e-01
8.900000000000000000e+02 1.069831466674804688e+01 -2.199002504348754883e+00 6.468304157257080078e+00 1.007027268409729004e+00 2.242599487304687500e+00 3.453913450241088867e+00
8.910000000000000000e+02 6.028348445892333984e+00 -1.871491909027099609e+00 6.345495581626892090e-01 1.369580477476119995e-01 2.314522862434387207e-01 3.180048167705535889e-01
8.920000000000000000e+02 7.544576644897460938e+00 -2.492528676986694336e+00 1.787025213241577148e+00 3.600462973117828369e-01 6.441214680671691895e-01 1.089771986007690430e+00
8.930000000000000000e+02 6.774303913116455078e+00 -2.543991088867187500e+00 1.303444027900695801e+00 3.728229105472564697e-01 5.028800964355468750e-01 8.450364470481872559e-01
8.940000000000000000e+02 5.980600357055664062e+00 -2.620712757110595703e+00 9.459319710731506348e-01 3.469414114952087402e-01 3.878620266914367676e-01 6.152368783950805664e-01
8.950000000000000000e+02 3.620206594467163086e+00 -1.950085163116455078e+00 1.240607574582099915e-01 9.691201150417327881e-02 6.629183143377304077e-02 -3.724666684865951538e-02
8.960000000000000000e+02 1.526954531669616699e+00 -7.812070369720458984e+00 -4.368806257843971252e-03 5.789452195167541504e-01 1.723729223012924194e-01 2.580073475837707520e-01
8.970000000000000000e+02 2.025495290756225586e+00 -2.008316993713378906e+00 1.013916078954935074e-02 1.848288625478744507e-02 8.586614392697811127e-03 -1.276616454124450684e-01
8.980000000000000000e+02 5.209061503410339355e-01 -6.432852745056152344e+00 1.071340497583150864e-02 -1.977605670690536499e-01 -5.611414834856987000e-02 6.516147404909133911e-02
8.990000000000000000e+02 5.487208366394042969e-01 -4.982818603515625000e+00 2.111873775720596313e-02 -3.132196068763732910e-01 -8.763026446104049683e-02 2.277443371713161469e-02
9.000000000000000000e+02 4.922942221164703369e-01 -3.540545463562011719e+00 1.461287494748830795e-02 -3.159400522708892822e-01 -9.039815515279769897e-02 -2.311412617564201355e-02
9.010000000000000000e+02 5.551380920410156250e+01 -3.072582244873046875e+01 1.653263092041015625e+00 1.107824420928955078e+01 3.819452285766601562e+00 -1.598704576492309570e+00
9.020000000000000000e+02 6.949991607666015625e+01 -2.178286170959472656e+01 -1.224758625030517578e+00 1.528548240661621094e+00 9.113688021898269653e-02 -7.326794266700744629e-01
9.030000000000000000e+02 6.559650421142578125e+01 -2.071677970886230469e+01 -1.294751763343811035e+00 6.455562710762023926e-01 -1.947586536407470703e-01 7.764821052551269531e-01
9.040000000000000000e+02 6.169184875488281250e+01 -2.314430618286132812e+01 1.242690443992614746e+00 6.630466580390930176e-01 5.717211365699768066e-01 1.107803225517272949e+00
9.050000000000000000e+02 5.975912094116210938e+01 -2.314830207824707031e+01 1.353926420211791992e+00 1.117552995681762695e+00 7.414438128471374512e-01 1.257178425788879395e+00
9.060000000000000000e+02 5.649679183959960938e+01 -2.745146751403808594e+01 1.251403808593750000e+00 5.245855331420898438e+00 1.949177742004394531e+00 1.500089526176452637e+00
9.070000000000000000e+02 7.170421600341796875e+01 -2.389112854003906250e+01 1.294212698936462402e+00 1.117147445678710938e+01 3.739706039428710938e+00 -1.803632855415344238e+00
9.080000000000000000e+02 7.219097137451171875e+01 -2.194766807556152344e+01 -1.362457513809204102e+00 8.530024528503417969e+00 2.150269985198974609e+00 -1.655472815036773682e-01
9.090000000000000000e+02 7.822944641113281250e+01 -2.236296844482421875e+01 -2.596426289528608322e-03 7.517785072326660156e+00 2.254556655883789062e+00 6.241439580917358398e-01
9.100000000000000000e+02 7.140366363525390625e+01 -3.486173629760742188e+01 -6.006882786750793457e-01 5.368690490722656250e+00 1.430400609970092773e+00 7.674298286437988281e-01
9.110000000000000000e+02 7.186745452880859375e+01 -2.980143928527832031e+01 1.032700657844543457e+00 9.435085296630859375e+00 3.140335798263549805e+00 1.572567224502563477e+00
9.120000000000000000e+02 5.869073104858398438e+01 -2.391880989074707031e+01 1.665693402290344238e+00 1.465824604034423828e+00 9.394554495811462402e-01 1.271684050559997559e+00
9.130000000000000000e+02 7.172415161132812500e+01 -2.720030784606933594e+01 2.852763831615447998e-01 1.346723461151123047e+01 4.125753402709960938e+00 1.101147174835205078e+00
9.140000000000000000e+02 7.266830444335937500e+01 -2.746195793151855469e+01 1.470860600471496582e+00 1.080169963836669922e+01 3.681767940521240234e+00 7.084287405014038086e-01
9.150000000000000000e+02 6.796168518066406250e+01 -3.294250869750976562e+01 -2.736468017101287842e-01 6.535182595252990723e-01 1.139614433050155640e-01 3.805747032165527344e-01
9.160000000000000000e+02 7.054589843750000000e+01 -3.253711700439453125e+01 -2.662773132324218750e-01 5.326331138610839844e+00 1.518016099929809570e+00 1.459728837013244629e+00
9.170000000000000000e+02 5.558377456665039062e+01 -2.624505424499511719e+01 1.007729887962341309e+00 4.744271755218505859e+00 1.725600481033325195e+00 1.652677208185195923e-01
9.180000000000000000e+02 7.154966735839843750e+01 -2.101140785217285156e+01 -1.489135146141052246e+00 6.818888187408447266e+00 1.598925948143005371e+00 -1.371266961097717285e+00
9.190000000000000000e+02 5.382710647583007812e+01 -3.099353981018066406e+01 2.516770124435424805e+00 6.615543842315673828e+00 2.739694118499755859e+00 -1.692839264869689941e+00
9.200000000000000000e+02 5.763924789428710938e+01 -2.470883178710937500e+01 1.635734677314758301e+00 1.893149495124816895e+00 1.058665275573730469e+00 1.342878460884094238e+00
9.210000000000000000e+02 6.859039306640625000e+01 -3.374889755249023438e+01 -3.808926045894622803e-01 1.896682381629943848e+00 4.547369480133056641e-01 9.668629169464111328e-01
9.220000000000000000e+02 6.775004577636718750e+01 -3.473646163940429688e+01 -6.347690224647521973e-01 1.552007317543029785e+00 2.751714885234832764e-01 8.162130117416381836e-01
9.230000000000000000e+02 5.660945510864257812e+01 -2.550337409973144531e+01 1.306868195533752441e+00 3.531974554061889648e+00 1.451652765274047852e+00 1.219485640525817871e+00
9.240000000000000000e+02 6.038448715209960938e+01 -3.858474349975585938e+01 3.543623685836791992e-01 1.763013601303100586e+00 6.352127790451049805e-01 -9.064980745315551758e-01
9.250000000000000000e+02 6.455106353759765625e+01 -3.979859924316406250e+01 9.182142019271850586e-01 9.212597012519836426e-01 5.518421530723571777e-01 -1.140449079684913158e-03
9.260000000000000000e+02 5.721559143066406250e+01 -3.350772476196289062e+01 2.453732013702392578e+00 4.999531269073486328e+00 2.235979080200195312e+00 -3.319810867309570312e+00
9.270000000000000000e+02 7.565718078613281250e+01 -2.890755081176757812e+01 6.063908934593200684e-01 7.853121757507324219e+00 2.537853717803955078e+00 -4.258758425712585449e-01
9.280000000000000000e+02 7.260690307617187500e+01 -2.482262611389160156e+01 1.282616496086120605e+00 1.112489128112792969e+01 3.722252368927001953e+00 -3.477851748466491699e-01
9.290000000000000000e+02 5.739478683471679688e+01 -2.006427574157714844e+01 2.363950945436954498e-02 8.579626083374023438e-01 2.644806206226348877e-01 1.095524907112121582e+00
9.300000000000000000e+02 6.116821289062500000e+01 -1.587015151977539062e+01 -3.873982429504394531e-01 1.001220226287841797e+00 1.841465979814529419e-01 9.293347001075744629e-01
9.310000000000000000e+02 7.156720733642578125e+01 -3.183423042297363281e+01 -4.711839556694030762e-01 7.048642635345458984e+00 1.973237514495849609e+00 7.077308297157287598e-01
9.320000000000000000e+02 4.568228149414062500e+01 -2.922488594055175781e+01 8.098984956741333008e-01 8.441157341003417969e+00 2.775316953659057617e+00 -1.839533090591430664e+00
9.330000000000000000e+02 4.390520095825195312e+01 -2.808956146240234375e+01 1.403213739395141602e+00 1.002619838714599609e+01 3.428823471069335938e+00 -5.952824354171752930e-01
9.340000000000000000e+02 8.268568038940429688e+00 -2.774503326416015625e+01 -2.015363216400146484e+00 8.660169601440429688e+00 1.993441939353942871e+00 1.066835880279541016e+00
9.350000000000000000e+02 8.502759933471679688e+00 -2.255916404724121094e+01 1.414102673530578613e+00 1.984398651123046875e+01 6.377426624298095703e+00 2.603975534439086914e+00
9.360000000000000000e+02 3.503485870361328125e+01 -1.564750671386718750e+01 -9.586533308029174805e-01 1.131064414978027344e+00 5.172333121299743652e-02 -1.437498092651367188e+00
9.370000000000000000e+02 1.161445426940917969e+01 -3.071581077575683594e+01 -2.960526943206787109e+00 1.014790415763854980e+00 -5.837209820747375488e-01 3.170302510261535645e-01
9.380000000000000000e+02 1.493593215942382812e+01 -3.092365646362304688e+01 -4.890541553497314453e+00 -7.060837745666503906e-01 -1.678987622261047363e+00 1.518408775329589844e+00
9.390000000000000000e+02 4.267253494262695312e+01 -1.910182952880859375e+01 1.251344680786132812e+00 9.971894264221191406e+00 3.366971731185913086e+00 -2.092737913131713867e+00
9.400000000000000000e+02 3.552718353271484375e+01 -3.296462631225585938e+01 -4.045775413513183594e+00 -1.322928965091705322e-01 -1.253420472145080566e+00 2.832478284835815430e-02
9.410000000000000000e+02 3.061369705200195312e+01 -1.480245971679687500e+01 -2.593205213546752930e+00 6.724013090133666992e-01 -5.762411952018737793e-01 -8.233798667788505554e-03
9.420000000000000000e+02 4.067399215698242188e+01 -1.726752281188964844e+01 9.955813735723495483e-02 7.867377758026123047e+00 2.390080690383911133e+00 -3.424719572067260742e+00
9.430000000000000000e+02 7.068250656127929688e+00 -2.197480583190917969e+01 2.370910644531250000e+00 1.255694770812988281e+01 4.478357315063476562e+00 2.499243736267089844e+00
9.440000000000000000e+02 4.240612030029296875e+01 -2.535821914672851562e+01 3.676079511642456055e-01 1.473291397094726562e+01 4.530156612396240234e+00 -8.593037724494934082e-01
9.450000000000000000e+02 4.245871353149414062e+01 -2.808629608154296875e+01 7.990863919258117676e-01 1.328947639465332031e+01 4.226568698883056641e+00 6.602739095687866211e-01
9.460000000000000000e+02 4.202615737915039062e+01 -3.506742477416992188e+01 -1.861037373542785645e+00 4.697582721710205078e+00 8.509635925292968750e-01 8.072786927223205566e-01
9.470000000000000000e+02 3.984042358398437500e+01 -3.389121627807617188e+01 -1.672131419181823730e+00 2.746924400329589844e+00 3.224379122257232666e-01 1.267648220062255859e+00
9.480000000000000000e+02 2.378995704650878906e+01 -3.299512100219726562e+01 -2.121473073959350586e+00 -5.123697686940431595e-03 -6.379790306091308594e-01 2.759542465209960938e-01
9.490000000000000000e+02 2.442867851257324219e+01 -3.452778625488281250e+01 -2.022840738296508789e+00 -1.094486042857170105e-01 -6.396867632865905762e-01 3.919737040996551514e-01
9.500000000000000000e+02 2.154689216613769531e+01 -1.341397094726562500e+01 -9.334335327148437500e+00 -9.241021871566772461e-01 -3.077531337738037109e+00 1.829182863235473633e+00
9.510000000000000000e+02 1.812437629699707031e+01 -1.323839664459228516e+01 -1.089634799957275391e+01 -2.972401678562164307e-01 -3.358076333999633789e+00 -7.397111505270004272e-02
9.520000000000000000e+02 4.274585342407226562e+01 -3.345656967163085938e+01 -1.997264504432678223e+00 6.101322650909423828e+00 1.231217384338378906e+00 1.657637804746627808e-01
9.530000000000000000e+02 4.251905059814453125e+01 -3.131351661682128906e+01 -3.627495467662811279e-01 7.264761924743652344e+00 2.070603847503662109e+00 6.320393681526184082e-01
9.540000000000000000e+02 1.658729553222656250e+01 -1.248327827453613281e+01 -6.227992057800292969e+00 3.178298473358154297e-01 -1.773048639297485352e+00 1.228808522224426270e+00
9.550000000000000000e+02 9.384934425354003906e+00 -1.758302116394042969e+01 2.686149597167968750e+00 1.211291790008544922e+01 4.439720153808593750e+00 4.722026348114013672e+00
9.560000000000000000e+02 2.387677192687988281e+01 -1.450663375854492188e+01 -6.665378093719482422e+00 -1.227585315704345703e+00 -2.367888927459716797e+00 2.493056297302246094e+00
9.570000000000000000e+02 3.687972640991210938e+01 -3.451147460937500000e+01 -2.060960054397583008e+00 -4.822190850973129272e-02 -6.327545642852783203e-01 3.917269408702850342e-01
9.580000000000000000e+02 3.847340393066406250e+01 -3.413882827758789062e+01 -1.797718167304992676e+00 5.376048684120178223e-01 -3.780339956283569336e-01 6.691107153892517090e-01
9.590000000000000000e+02 1.762563705444335938e+01 -3.363460540771484375e+01 -2.247705459594726562e+00 -5.569872260093688965e-01 -8.414077758789062500e-01 9.538654685020446777e-01
9.600000000000000000e+02 1.898478317260742188e+01 -1.194435691833496094e+01 -6.312768459320068359e+00 -8.522405028343200684e-01 -2.149502754211425781e+00 7.868929505348205566e-01
9.610000000000000000e+02 2.074916458129882812e+01 -3.154051399230957031e+01 -2.891518115997314453e+00 -1.508084684610366821e-01 -9.126979708671569824e-01 2.489499449729919434e-01
9.620000000000000000e+02 4.365504455566406250e+01 -2.426406478881835938e+01 2.037734746932983398e+00 1.346429347991943359e+01 4.650608539581298828e+00 -3.330102443695068359e+00
9.630000000000000000e+02 3.022629356384277344e+01 -3.212250518798828125e+01 -2.084126472473144531e+00 3.416395932435989380e-02 -6.149887442588806152e-01 2.602193951606750488e-01
9.640000000000000000e+02 3.157674026489257812e+01 -3.359285354614257812e+01 -2.414615392684936523e+00 9.017077833414077759e-02 -6.973333954811096191e-01 3.607366979122161865e-02
9.650000000000000000e+02 3.388368225097656250e+01 -3.405157089233398438e+01 -2.606582641601562500e+00 -2.203266620635986328e-01 -8.480727672576904297e-01 -1.984891742467880249e-01
9.660000000000000000e+02 2.264785385131835938e+01 -1.231823348999023438e+01 -5.669931888580322266e+00 -4.807780385017395020e-01 -1.845213055610656738e+00 1.246869787573814392e-01
9.670000000000000000e+02 1.423764705657958984e+01 -3.234465408325195312e+01 -2.826879501342773438e+00 -4.706343710422515869e-01 -9.892541766166687012e-01 8.293496966361999512e-01
9.680000000000000000e+02 2.586499023437500000e+01 -3.387805557250976562e+01 -1.940352439880371094e+00 -4.216643050312995911e-02 -5.947556495666503906e-01 2.378447502851486206e-01
9.690000000000000000e+02 1.285983180999755859e+01 -3.157969665527343750e+01 -2.912111520767211914e+00 -7.978200912475585938e-02 -8.975680470466613770e-01 5.839062929153442383e-01
9.700000000000000000e+02 2.747330284118652344e+01 -1.622353553771972656e+01 -3.944365501403808594e+00 -5.131928324699401855e-01 -1.337267518043518066e+00 1.467017889022827148e+00
9.710000000000000000e+02 2.565811157226562500e+01 -1.413234138488769531e+01 -5.001907825469970703e+00 -8.936080336570739746e-02 -1.527380704879760742e+00 1.134479165077209473e+00
9.720000000000000000e+02 2.197375488281250000e+01 -1.151234054565429688e+01 -4.616384506225585938e+00 -5.970057249069213867e-01 -1.564017057418823242e+00 5.477094277739524841e-02
9.730000000000000000e+02 2.071465301513671875e+01 -1.248902130126953125e+01 -8.081788063049316406e+00 -8.812742829322814941e-01 -2.688918828964233398e+00 8.420350551605224609e-01
9.740000000000000000e+02 3.512216567993164062e+01 -1.677039146423339844e+01 -1.419529438018798828e+00 4.659003913402557373e-01 -2.860887348651885986e-01 -7.813480496406555176e-01
9.750000000000000000e+02 2.233176803588867188e+01 -3.305979156494140625e+01 -2.251915693283081055e+00 -1.443375200033187866e-01 -7.188759446144104004e-01 4.609920084476470947e-01
9.760000000000000000e+02 3.382571029663085938e+01 -1.786643218994140625e+01 -2.897566556930541992e+00 7.839595526456832886e-02 -8.457511663436889648e-01 1.814296841621398926e-02
9.770000000000000000e+02 3.145488357543945312e+01 -1.632711410522460938e+01 -2.679138660430908203e+00 3.910923302173614502e-01 -6.864138841629028320e-01 2.724684774875640869e-01
9.780000000000000000e+02 2.737696075439453125e+01 -3.187628364562988281e+01 -2.047289133071899414e+00 2.461653575301170349e-02 -6.068017482757568359e-01 1.910870224237442017e-01
9.790000000000000000e+02 3.036651420593261719e+01 -3.386911773681640625e+01 -2.210170030593872070e+00 1.913784071803092957e-02 -6.573096513748168945e-01 9.474958479404449463e-02
9.800000000000000000e+02 2.014034748077392578e+00 -2.470527839660644531e+01 3.029744029045104980e-01 4.397487163543701172e+00 1.410138487815856934e+00 2.015362262725830078e+00
9.810000000000000000e+02 2.725967979431152344e+01 -3.368433761596679688e+01 -1.938680768013000488e+00 -6.403554975986480713e-02 -6.008149385452270508e-01 1.505634039640426636e-01
9.820000000000000000e+02 9.404431343078613281e+00 -2.877499389648437500e+01 -2.406988382339477539e+00 5.191837310791015625e+00 8.354547023773193359e-01 -1.907736808061599731e-01
9.830000000000000000e+02 4.376434707641601562e+01 -2.674215316772460938e+01 1.053693771362304688e+00 1.215685844421386719e+01 3.963165521621704102e+00 -1.035427927970886230e+00
9.840000000000000000e+02 2.522164535522460938e+01 -3.252663040161132812e+01 -2.064281225204467773e+00 -3.267515450716018677e-02 -6.290869116783142090e-01 2.192580103874206543e-01
9.850000000000000000e+02 8.642681121826171875e+00 -1.866166305541992188e+01 2.181998729705810547e+00 1.376138210296630859e+01 4.783014297485351562e+00 3.927949428558349609e+00
9.860000000000000000e+02 2.099013328552246094e+01 -3.317149734497070312e+01 -2.350922346115112305e+00 -1.502633541822433472e-01 -7.503556609153747559e-01 6.091899871826171875e-01
9.870000000000000000e+02 4.158769989013671875e+01 -1.934612846374511719e+01 1.602194070816040039e+00 1.165542507171630859e+01 3.977285861968994141e+00 -4.169799804687500000e+00
9.880000000000000000e+02 4.366340255737304688e+01 -2.546716499328613281e+01 9.180921912193298340e-01 1.297332096099853516e+01 4.167424201965332031e+00 -1.868185162544250488e+00
9.890000000000000000e+02 1.947849845886230469e+01 -3.367019653320312500e+01 -2.284337759017944336e+00 -4.111727476119995117e-01 -8.086531162261962891e-01 8.430861234664916992e-01
9.900000000000000000e+02 5.609178543090820312e+01 3.856875228881835938e+01 -2.763535082340240479e-01 4.650927707552909851e-02 -6.895326822996139526e-02 2.261335849761962891e-01
9.910000000000000000e+02 6.339883422851562500e+01 3.880824279785156250e+01 1.334311664104461670e-01 1.413653641939163208e-01 8.243896067142486572e-02 3.879703208804130554e-02
9.920000000000000000e+02 5.471379852294921875e+01 -1.612698173522949219e+01 -4.084019184112548828e+00 -6.878303885459899902e-01 -1.431554913520812988e+00 1.218032360076904297e+00
9.930000000000000000e+02 5.895861053466796875e+01 -1.774635124206542969e+01 -1.268884420394897461e+00 6.485165953636169434e-01 -1.861103475093841553e-01 1.310122251510620117e+00
9.940000000000000000e+02 5.326245117187500000e+01 3.881637191772460938e+01 -2.836935520172119141e-01 6.937271952629089355e-01 1.230100989341735840e-01 3.560474812984466553e-01
9.950000000000000000e+02 6.409818267822265625e+01 3.641736221313476562e+01 -6.032812595367431641e-01 -3.110557496547698975e-01 -2.743011116981506348e-01 1.186209246516227722e-01
9.960000000000000000e+02 5.098448181152343750e+01 -1.347157764434814453e+01 -7.440270781517028809e-01 4.547687530517578125e+00 1.141098141670227051e+00 -2.761581540107727051e-01
9.970000000000000000e+02 6.062659072875976562e+01 -1.505988883972167969e+01 3.242456316947937012e-01 5.710709691047668457e-01 2.685949802398681641e-01 5.370541810989379883e-01
9.980000000000000000e+02 5.801025772094726562e+01 -1.628364372253417969e+01 -2.738961696624755859e+00 3.101736605167388916e-01 -7.286363840103149414e-01 -2.302460372447967529e-01
9.990000000000000000e+02 4.012339782714843750e+01 1.164107704162597656e+01 1.796499013900756836e+00 8.889215469360351562e+00 3.205714464187622070e+00 -9.610437750816345215e-01
1.000000000000000000e+03 7.209722900390625000e+01 3.051718521118164062e+01 -3.752637803554534912e-01 6.633858203887939453e+00 1.877578258514404297e+00 3.954791426658630371e-01
1.001000000000000000e+03 4.029477691650390625e+01 1.894450759887695312e+01 8.070403933525085449e-01 7.797712326049804688e+00 2.581425666809082031e+00 8.067231178283691406e-01
1.002000000000000000e+03 4.102845382690429688e+01 1.551533889770507812e+01 7.869773507118225098e-01 9.530330657958984375e+00 3.095192193984985352e+00 6.614070534706115723e-01
1.003000000000000000e+03 7.019976806640625000e+01 6.172968864440917969e+00 2.128053158521652222e-01 1.276103973388671875e+01 3.892153501510620117e+00 -1.872729957103729248e-01
1.004000000000000000e+03 7.352132415771484375e+01 9.266350746154785156e+00 -1.593744307756423950e-01 9.041166305541992188e+00 2.664537429809570312e+00 5.432955622673034668e-01
1.005000000000000000e+03 7.784053039550781250e+01 -3.489035034179687500e+01 -1.325968652963638306e-01 7.775335788726806641e+00 2.292821645736694336e+00 -3.596802353858947754e-01
1.006000000000000000e+03 7.616194915771484375e+01 -2.121154975891113281e+01 -3.720596432685852051e-01 7.825708389282226562e+00 2.236094474792480469e+00 7.581918239593505859e-01
1.007000000000000000e+03 7.938869476318359375e+01 -2.509865379333496094e+01 2.989116497337818146e-02 6.367711544036865234e+00 1.919280886650085449e+00 1.610669344663619995e-01
1.008000000000000000e+03 7.815984344482421875e+01 -2.375222206115722656e+01 1.192137673497200012e-01 7.197674751281738281e+00 2.195066452026367188e+00 5.911685824394226074e-01
1.009000000000000000e+03 7.810955047607421875e+01 -3.071846199035644531e+01 7.355076819658279419e-02 7.236247539520263672e+00 2.192939519882202148e+00 -5.358015298843383789e-01
1.010000000000000000e+03 7.936772918701171875e+01 -3.207130813598632812e+01 3.692942485213279724e-02 7.375113010406494141e+00 2.223612785339355469e+00 -2.324236780405044556e-01
1.011000000000000000e+03 7.812926483154296875e+01 -3.210215759277343750e+01 -3.058746457099914551e-02 7.478687286376953125e+00 2.234430074691772461e+00 -5.620741248130798340e-01
1.012000000000000000e+03 7.610485076904296875e+01 -3.634088134765625000e+01 -2.971038520336151123e-01 7.371432304382324219e+00 2.122298479080200195e+00 -2.280300110578536987e-01
1.013000000000000000e+03 7.749642181396484375e+01 -3.795154190063476562e+01 -2.025351673364639282e-01 8.074467658996582031e+00 2.361579656600952148e+00 -1.729125827550888062e-01
1.014000000000000000e+03 7.570989227294921875e+01 -4.033863067626953125e+01 -2.607787027955055237e-02 7.204675674438476562e+00 2.153579235076904297e+00 -1.498637050390243530e-01
1.015000000000000000e+03 7.901698303222656250e+01 -4.023016357421875000e+01 -2.394707500934600830e-01 8.233648300170898438e+00 2.398253440856933594e+00 1.365706026554107666e-01
1.016000000000000000e+03 7.820005035400390625e+01 1.669297981262207031e+01 1.321872882544994354e-02 7.426475048065185547e+00 2.231908082962036133e+00 2.022629231214523315e-01
1.017000000000000000e+03 7.797442626953125000e+01 3.344453048706054688e+01 -7.553315907716751099e-02 9.629420280456542969e+00 2.866166114807128906e+00 2.884381413459777832e-01
1.018000000000000000e+03 7.813841247558593750e+01 2.927818489074707031e+01 -1.256697811186313629e-02 9.085891723632812500e+00 2.721997499465942383e+00 4.699937403202056885e-01
1.019000000000000000e+03 7.938398742675781250e+01 2.787375831604003906e+01 -4.197892732918262482e-03 9.153820037841796875e+00 2.744886636734008789e+00 1.939180791378021240e-01
1.020000000000000000e+03 7.816255950927734375e+01 2.650493431091308594e+01 2.065572142601013184e-02 8.610748291015625000e+00 2.589421272277832031e+00 4.473486244678497314e-01
1.021000000000000000e+03 7.816144561767578125e+01 2.511337089538574219e+01 4.196734353899955750e-02 8.382692337036132812e+00 2.527397871017456055e+00 4.046595692634582520e-01
1.022000000000000000e+03 7.938660430908203125e+01 2.508830261230468750e+01 -2.268729964271187782e-03 8.444604873657226562e+00 2.532700777053833008e+00 1.693219095468521118e-01
1.023000000000000000e+03 7.700744628906250000e+01 1.669783782958984375e+01 1.349296508124098182e-04 7.726290225982666016e+00 2.317927598953247070e+00 2.770599126815795898e-01
1.024000000000000000e+03 7.939441680908203125e+01 1.810464096069335938e+01 1.799587905406951904e-02 7.286884784698486328e+00 2.191464185714721680e+00 8.948112279176712036e-02
1.025000000000000000e+03 7.818811035156250000e+01 1.809134674072265625e+01 3.749402705579996109e-03 7.553897857666015625e+00 2.267294168472290039e+00 2.082630544900894165e-01
1.026000000000000000e+03 7.820471954345703125e+01 1.530300903320312500e+01 -1.727348938584327698e-02 7.307603359222412109e+00 2.187098979949951172e+00 1.990510523319244385e-01
1.027000000000000000e+03 7.382032012939453125e+01 7.906527042388916016e+00 1.168295294046401978e-01 8.945122718811035156e+00 2.718585729598999023e+00 6.230571269989013672e-01
1.028000000000000000e+03 7.811193084716796875e+01 1.111054706573486328e+01 -2.591544575989246368e-02 6.914657115936279297e+00 2.066622495651245117e+00 3.323903977870941162e-01
1.029000000000000000e+03 7.937552642822265625e+01 2.926735115051269531e+01 7.753807120025157928e-03 9.534902572631835938e+00 2.862796783447265625e+00 1.965349763631820679e-01
1.030000000000000000e+03 7.809189605712890625e+01 3.067301940917968750e+01 -4.570360481739044189e-02 9.305191040039062500e+00 2.777846336364746094e+00 4.457857012748718262e-01
1.031000000000000000e+03 7.671549224853515625e+01 8.158348083496093750e+00 1.948457956314086914e-02 7.284514904022216797e+00 2.191199779510498047e+00 5.118709802627563477e-01
1.032000000000000000e+03 7.822692871093750000e+01 1.237252116203308105e+00 1.053609699010848999e-01 5.928508281707763672e+00 1.810160756111145020e+00 -1.111624389886856079e-01
1.033000000000000000e+03 7.941068267822265625e+01 -1.953142547607421875e+01 -1.155514176934957504e-02 8.288107872009277344e+00 2.482965946197509766e+00 1.382392495870590210e-01
1.034000000000000000e+03 7.825549316406250000e+01 -2.097042655944824219e+01 -1.273166984319686890e-01 7.793136119842529297e+00 2.299745798110961914e+00 5.267345309257507324e-01
1.035000000000000000e+03 7.826546478271484375e+01 -1.404325866699218750e+01 -5.713618919253349304e-02 7.960309982299804688e+00 2.370952129364013672e+00 -2.182970941066741943e-01
1.036000000000000000e+03 7.814475250244140625e+01 -7.115140438079833984e+00 -1.762206852436065674e-02 6.990134716033935547e+00 2.091753959655761719e+00 -4.341450035572052002e-01
1.037000000000000000e+03 7.472090148925781250e+01 3.841963577270507812e+01 -3.286437690258026123e-01 7.419409751892089844e+00 2.127229928970336914e+00 2.050866037607192993e-01
1.038000000000000000e+03 7.932289886474609375e+01 3.481052017211914062e+01 1.287856372073292732e-03 1.062444972991943359e+01 3.187721490859985352e+00 9.217640012502670288e-02
1.039000000000000000e+03 7.562368774414062500e+01 3.635528945922851562e+01 -2.323519289493560791e-01 8.212973594665527344e+00 2.394186496734619141e+00 1.509103029966354370e-01
1.040000000000000000e+03 7.242735290527343750e+01 5.131606578826904297e+00 4.527719914913177490e-01 1.030142498016357422e+01 3.226258993148803711e+00 3.353419303894042969e-01
1.041000000000000000e+03 7.940684509277343750e+01 4.126580715179443359e+00 2.103517018258571625e-02 5.102583408355712891e+00 1.537085533142089844e+00 6.225924566388130188e-02
1.042000000000000000e+03 7.823825836181640625e+01 4.008116245269775391e+00 8.466251194477081299e-02 5.992399692535400391e+00 1.823118686676025391e+00 1.493607610464096069e-01
1.043000000000000000e+03 7.707500457763671875e+01 1.164126873016357422e+00 2.533118426799774170e-01 6.691009998321533203e+00 2.083296537399291992e+00 -1.327060014009475708e-01
1.044000000000000000e+03 7.814732360839843750e+01 -2.940751314163208008e+00 4.632508009672164917e-02 6.351511001586914062e+00 1.919350743293762207e+00 -3.981198668479919434e-01
1.045000000000000000e+03 7.938379669189453125e+01 -4.235741615295410156e+00 1.328407134860754013e-02 6.148561954498291016e+00 1.848553776741027832e+00 -1.709138154983520508e-01
1.046000000000000000e+03 7.815096282958984375e+01 -5.735886096954345703e+00 -1.186208100989460945e-03 6.772898197174072266e+00 2.031513690948486328e+00 -4.357439279556274414e-01
1.047000000000000000e+03 7.815520477294921875e+01 -9.869310379028320312e+00 -2.129027619957923889e-02 7.406119346618652344e+00 2.215448617935180664e+00 -3.850023150444030762e-01
1.048000000000000000e+03 7.939381408691406250e+01 -1.118377971649169922e+01 -2.978686941787600517e-03 7.894225597381591797e+00 2.367374181747436523e+00 -1.358265578746795654e-01
1.049000000000000000e+03 7.821923065185546875e+01 -1.265587139129638672e+01 -3.476467728614807129e-02 7.798121452331542969e+00 2.329006910324096680e+00 -2.933960258960723877e-01
1.050000000000000000e+03 7.828409576416015625e+01 -1.679920578002929688e+01 -1.349366605281829834e-01 8.141279220581054688e+00 2.401902675628662109e+00 2.320572733879089355e-03
1.051000000000000000e+03 7.941275787353515625e+01 -1.814329910278320312e+01 -4.517390206456184387e-02 8.530941009521484375e+00 2.545730113983154297e+00 6.987182050943374634e-02
1.052000000000000000e+03 7.822805786132812500e+01 -1.819352149963378906e+01 -1.181848272681236267e-01 8.097067832946777344e+00 2.393664836883544922e+00 1.710060685873031616e-01
1.053000000000000000e+03 5.452486419677734375e+01 3.518788528442382812e+01 -5.080382823944091797e-01 9.571966528892517090e-02 -1.236955821514129639e-01 -1.997533626854419708e-02
1.054000000000000000e+03 7.099636077880859375e+01 1.293350315093994141e+01 -2.250707000494003296e-01 9.163001060485839844e+00 2.681379079818725586e+00 -1.389876306056976318e-01
1.055000000000000000e+03 5.069493103027343750e+01 -1.559646320343017578e+01 -1.571113228797912598e+00 5.041298866271972656e+00 1.041055679321289062e+00 -3.034312725067138672e-01
1.056000000000000000e+03 5.367237472534179688e+01 -1.519555377960205078e+01 -1.709400415420532227e+00 1.069823578000068665e-01 -4.807254374027252197e-01 8.600415587425231934e-01
1.057000000000000000e+03 4.838368606567382812e+01 3.330051803588867188e+01 -2.523889243602752686e-01 2.388786792755126953e+00 6.409193277359008789e-01 6.871739029884338379e-01
1.058000000000000000e+03 5.100691986083984375e+01 3.251477432250976562e+01 2.318892031908035278e-01 1.011614441871643066e+00 3.730511069297790527e-01 6.308135390281677246e-01
1.059000000000000000e+03 6.577336120605468750e+01 3.339394760131835938e+01 -1.030007481575012207e+00 -3.265594691038131714e-02 -3.187990486621856689e-01 5.108311176300048828e-01
1.060000000000000000e+03 6.550009155273437500e+01 3.581646347045898438e+01 -5.794530510902404785e-01 8.056277036666870117e-01 6.785240769386291504e-02 3.042068146169185638e-02
1.061000000000000000e+03 7.100392913818359375e+01 2.412096214294433594e+01 3.555843830108642578e-01 8.497205734252929688e+00 2.655837059020996094e+00 -7.447819411754608154e-02
1.062000000000000000e+03 6.970195007324218750e+01 1.163132381439208984e+01 -4.074525833129882812e-01 7.937036514282226562e+00 2.258875131607055664e+00 8.668768405914306641e-02
1.063000000000000000e+03 4.556954193115234375e+01 8.730430006980895996e-01 1.123190879821777344e+00 6.038070678710937500e+00 2.148378372192382812e+00 -2.835869312286376953e+00
1.064000000000000000e+03 4.669512939453125000e+01 -1.574220299720764160e+00 7.225327491760253906e-01 5.984522819519042969e+00 2.012116670608520508e+00 -2.556469202041625977e+00
1.065000000000000000e+03 5.992490768432617188e+01 3.709678268432617188e+01 -7.386757135391235352e-01 -2.885543107986450195e-01 -3.081690073013305664e-01 2.741080224514007568e-01
1.066000000000000000e+03 6.645498657226562500e+01 -8.845707893371582031e+00 8.775359392166137695e-01 3.859312057495117188e+00 1.421054363250732422e+00 1.715283513069152832e+00
1.067000000000000000e+03 7.043330383300781250e+01 2.885593795776367188e+01 9.235926717519760132e-02 6.268186569213867188e+00 1.908163666725158691e+00 -1.737620830535888672e-01
1.068000000000000000e+03 6.297026062011718750e+01 -1.342861366271972656e+01 1.307720899581909180e+00 1.351519942283630371e+00 7.977722287178039551e-01 1.225458025932312012e+00
1.069000000000000000e+03 6.483905792236328125e+01 -1.326516246795654297e+01 9.399884939193725586e-01 2.156052827835083008e+00 9.288123846054077148e-01 1.108795762062072754e+00
1.070000000000000000e+03 6.992945098876953125e+01 1.714451217651367188e+01 3.061673231422901154e-02 9.622573852539062500e+00 2.895957231521606445e+00 1.279376596212387085e-01
1.071000000000000000e+03 4.077361297607421875e+01 1.415660381317138672e+01 6.661667227745056152e-01 9.852544784545898438e+00 3.155613660812377930e+00 7.719647139310836792e-02
1.072000000000000000e+03 4.513891220092773438e+01 2.759876632690429688e+01 5.613561272621154785e-01 4.490797996520996094e+00 1.515646219253540039e+00 1.477342247962951660e+00
1.073000000000000000e+03 4.339593505859375000e+01 2.356950950622558594e+01 8.745933771133422852e-01 6.361851215362548828e+00 2.170933485031127930e+00 1.749356150627136230e+00
1.074000000000000000e+03 4.593948745727539062e+01 2.889299201965332031e+01 4.047968685626983643e-01 3.865435361862182617e+00 1.281069636344909668e+00 1.293576478958129883e+00
1.075000000000000000e+03 6.875291442871093750e+01 3.194701194763183594e+01 -6.954635381698608398e-01 3.683966875076293945e+00 8.965510129928588867e-01 -3.937639296054840088e-01
1.076000000000000000e+03 6.785315704345703125e+01 3.331969833374023438e+01 -7.652698755264282227e-01 2.569188117980957031e+00 5.411754846572875977e-01 -3.162556886672973633e-01
1.077000000000000000e+03 4.827627182006835938e+01 -9.830633163452148438e+00 -2.757218182086944580e-01 6.179578304290771484e+00 1.771156907081604004e+00 -1.214549183845520020e+00
1.078000000000000000e+03 4.320282745361328125e+01 1.907972526550292969e+01 6.988658308982849121e-01 8.580122947692871094e+00 2.783696651458740234e+00 2.122144937515258789e+00
1.079000000000000000e+03 4.926942062377929688e+01 -4.886431694030761719e+00 6.221885085105895996e-01 6.192553997039794922e+00 2.044422864913940430e+00 -2.044478893280029297e+00
1.080000000000000000e+03 4.693958663940429688e+01 -5.851536750793457031e+00 2.214600294828414917e-01 6.107939720153808594e+00 1.898819923400878906e+00 -2.023793458938598633e+00
1.081000000000000000e+03 7.097161865234375000e+01 1.161923885345458984e+01 -6.338869333267211914e-01 9.507140159606933594e+00 2.661975860595703125e+00 2.451889449730515480e-03
1.082000000000000000e+03 5.272086715698242188e+01 -1.600469779968261719e+01 -2.259415626525878906e+00 2.609729766845703125e+00 1.050942093133926392e-01 -1.940828412771224976e-01
1.083000000000000000e+03 6.233111190795898438e+01 -1.508840847015380859e+01 5.044955611228942871e-01 1.170441269874572754e+00 5.024810433387756348e-01 9.593863487243652344e-01
1.084000000000000000e+03 4.048089218139648438e+01 1.285193920135498047e+01 1.131515145301818848e+00 9.793131828308105469e+00 3.277394294738769531e+00 -7.457969784736633301e-01
1.085000000000000000e+03 7.036552429199218750e+01 -2.726209878921508789e+00 4.804092049598693848e-01 9.108851432800292969e+00 2.876778364181518555e+00 1.352544188499450684e+00
1.086000000000000000e+03 7.024937438964843750e+01 3.360598564147949219e+00 1.357171684503555298e-01 1.298771667480468750e+01 3.937030315399169922e+00 2.807020545005798340e-01
1.087000000000000000e+03 4.122071456909179688e+01 5.718053340911865234e+00 1.434306621551513672e+00 7.767702579498291016e+00 2.760602712631225586e+00 -1.859420061111450195e+00
1.088000000000000000e+03 4.765934753417968750e+01 -4.086679458618164062e+00 5.451099276542663574e-01 6.011590480804443359e+00 1.967010021209716797e+00 -2.229875087738037109e+00
1.089000000000000000e+03 4.834654998779296875e+01 -2.278881788253784180e+00 7.714168429374694824e-01 5.787951469421386719e+00 1.967810511589050293e+00 -2.283705234527587891e+00
1.090000000000000000e+03 7.070317077636718750e+01 2.715333175659179688e+01 3.338300287723541260e-01 7.351620674133300781e+00 2.305635213851928711e+00 -2.195102423429489136e-01
1.091000000000000000e+03 6.984989166259765625e+01 -4.099763870239257812e+00 4.890735149383544922e-01 8.087594985961914062e+00 2.573000669479370117e+00 1.467211961746215820e+00
1.092000000000000000e+03 4.495679092407226562e+01 2.070087194442749023e+00 1.250904679298400879e+00 6.363013744354248047e+00 2.284175634384155273e+00 -2.974740266799926758e+00
1.093000000000000000e+03 5.999489974975585938e+01 -1.675780868530273438e+01 -1.054814457893371582e+00 8.592270016670227051e-01 -5.867622420191764832e-02 1.093250870704650879e+00
1.094000000000000000e+03 6.873603820800781250e+01 -6.755123138427734375e+00 4.643242359161376953e-01 6.151494979858398438e+00 1.984745860099792480e+00 1.452014446258544922e+00
1.095000000000000000e+03 4.897138214111328125e+01 -8.018448829650878906e+00 1.980773210525512695e-01 6.105303287506103516e+00 1.891014099121093750e+00 -1.615192890167236328e+00
1.096000000000000000e+03 6.813394165039062500e+01 -8.076856613159179688e+00 5.464790463447570801e-01 5.181344032287597656e+00 1.718346953392028809e+00 1.409979224205017090e+00
1.097000000000000000e+03 7.022034454345703125e+01 4.778655052185058594e+00 1.469619199633598328e-02 1.246554946899414062e+01 3.744073629379272461e+00 8.056823164224624634e-02
1.098000000000000000e+03 7.112219238281250000e+01 9.003506660461425781e+00 -6.562675535678863525e-02 1.011573696136474609e+01 3.015033006668090820e+00 1.555057168006896973e-01
1.099000000000000000e+03 7.219634246826171875e+01 1.033629989624023438e+01 -4.465867280960083008e-01 9.552016258239746094e+00 2.731628894805908203e+00 3.637181818485260010e-01
1.100000000000000000e+03 4.244093322753906250e+01 2.094849777221679688e+01 8.204029202461242676e-01 7.561217308044433594e+00 2.514486074447631836e+00 1.702404260635375977e+00
1.101000000000000000e+03 6.680615997314453125e+01 -1.265904045104980469e+01 7.114559412002563477e-01 3.148019790649414062e+00 1.157842636108398438e+00 8.599979281425476074e-01
1.102000000000000000e+03 4.987678527832031250e+01 -1.069428539276123047e+01 -7.389003038406372070e-02 5.709963321685791016e+00 1.690822005271911621e+00 -1.085694432258605957e+00
1.103000000000000000e+03 5.144193649291992188e+01 -1.154691600799560547e+01 2.578188180923461914e-01 4.865978717803955078e+00 1.537139177322387695e+00 -1.222592949867248535e+00
1.104000000000000000e+03 5.037892913818359375e+01 -1.207144832611083984e+01 -1.220024004578590393e-01 5.228827953338623047e+00 1.532047629356384277e+00 -7.216525077819824219e-01
1.105000000000000000e+03 4.897827529907226562e+01 3.042239379882812500e+01 6.693080067634582520e-01 1.922922372817993164e+00 7.776691317558288574e-01 1.108012676239013672e+00
1.106000000000000000e+03 6.930662536621093750e+01 -5.436387538909912109e+00 4.657868444919586182e-01 7.056879997253417969e+00 2.256799936294555664e+00 1.456508159637451172e+00
1.107000000000000000e+03 4.443272399902343750e+01 2.624201965332031250e+01 6.629824042320251465e-01 5.156093597412109375e+00 1.745722770690917969e+00 1.642794847488403320e+00
1.108000000000000000e+03 4.390891265869140625e+01 2.487466239929199219e+01 7.535322904586791992e-01 5.794894218444824219e+00 1.964527964591979980e+00 1.741288781166076660e+00
1.109000000000000000e+03 4.133192825317382812e+01 7.604559421539306641e+00 1.585177302360534668e+00 8.919264793395996094e+00 3.151332616806030273e+00 -1.715717077255249023e+00
1.110000000000000000e+03 4.292690658569335938e+01 5.532910346984863281e+00 1.540722727775573730e+00 7.792373180389404297e+00 2.799928665161132812e+00 -3.005770206451416016e+00
1.111000000000000000e+03 6.993570709228515625e+01 2.133614158630371094e+01 -9.010443463921546936e-03 9.102289199829101562e+00 2.727983474731445312e+00 7.268030941486358643e-02
1.112000000000000000e+03 7.107204437255859375e+01 2.266874694824218750e+01 1.829421818256378174e-01 8.759177207946777344e+00 2.682635784149169922e+00 8.179159834980964661e-03
1.113000000000000000e+03 4.331970596313476562e+01 2.584694862365722656e+00 1.080528736114501953e+00 6.877111434936523438e+00 2.387292146682739258e+00 -2.715702295303344727e+00
1.114000000000000000e+03 4.161334609985351562e+01 1.830327224731445312e+01 7.273458838462829590e-01 8.672637939453125000e+00 2.819995164871215820e+00 1.173911213874816895e+00
1.115000000000000000e+03 7.110569763183593750e+01 2.123691558837890625e+01 8.084835857152938843e-02 8.948502540588378906e+00 2.708805084228515625e+00 1.277368068695068359e-01
1.116000000000000000e+03 7.582574462890625000e+01 1.534921836853027344e+01 -3.605682402849197388e-02 7.991069793701171875e+00 2.386503934860229492e+00 3.143751323223114014e-01
1.117000000000000000e+03 7.111325836181640625e+01 1.842296600341796875e+01 4.842399805784225464e-02 9.159290313720703125e+00 2.762314081192016602e+00 2.458189725875854492e-01
1.118000000000000000e+03 1.349561452865600586e+00 -4.010126113891601562e+01 -1.754506677389144897e-01 1.003579425811767578e+01 2.958103179931640625e+00 -2.834337353706359863e-01
1.119000000000000000e+03 3.210162162780761719e+00 3.682600784301757812e+01 -7.280664984136819839e-03 1.432451367378234863e+00 4.275512099266052246e-01 -1.284267604351043701e-01
1.120000000000000000e+03 6.547405719757080078e-01 3.459757614135742188e+01 -2.226602984592318535e-03 1.135362386703491211e+00 3.399407267570495605e-01 -3.526123240590095520e-02
1.121000000000000000e+03 6.624367237091064453e-01 2.611661911010742188e+01 -4.066779278218746185e-03 5.856369733810424805e-01 1.744710505008697510e-01 -5.438124015927314758e-02
1.122000000000000000e+03 1.967584729194641113e+00 2.874149322509765625e+01 -7.690429687500000000e-03 9.792776107788085938e-01 2.914761602878570557e-01 -1.332766115665435791e-01
1.123000000000000000e+03 7.318781614303588867e-01 3.735999679565429688e+01 6.106955930590629578e-03 1.280409812927246094e+00 3.859550356864929199e-01 -3.834928572177886963e-02
1.124000000000000000e+03 7.814819812774658203e-01 -3.600698852539062500e+01 1.410269271582365036e-02 1.064179039001464844e+01 3.196768045425415039e+00 7.801403105258941650e-02
1.125000000000000000e+03 2.291502714157104492e+00 -3.301046371459960938e+01 -3.655170500278472900e-01 8.974046707153320312e+00 2.582558870315551758e+00 7.216279506683349609e-01
1.126000000000000000e+03 3.318642616271972656e+00 2.711068534851074219e+01 -2.416454255580902100e-02 1.101438879966735840e+00 3.231822848320007324e-01 -2.280564457178115845e-01
1.127000000000000000e+03 3.163023233413696289e+00 2.412270927429199219e+01 -1.279279217123985291e-02 9.048883318901062012e-01 2.676286697387695312e-01 -2.468014508485794067e-01
1.128000000000000000e+03 1.903068542480468750e+00 3.154758644104003906e+01 -8.815530687570571899e-03 1.135220527648925781e+00 3.379215002059936523e-01 -1.085759699344635010e-01
1.129000000000000000e+03 1.956812977790832520e+00 3.434270858764648438e+01 1.939235604368150234e-03 1.253357172012329102e+00 3.765889108180999756e-01 -8.980242162942886353e-02
1.130000000000000000e+03 1.913231015205383301e+00 3.294664001464843750e+01 -7.618077564984560013e-03 1.202831506729125977e+00 3.585640192031860352e-01 -9.421627223491668701e-02
1.131000000000000000e+03 3.494387626647949219e+00 3.882443618774414062e+01 -2.419941127300262451e-02 1.465990543365478516e+00 4.325373470783233643e-01 -8.627842366695404053e-02
1.132000000000000000e+03 1.930443525314331055e+00 -2.883276367187500000e+01 -3.182502388954162598e-01 7.387936115264892578e+00 2.120905876159667969e+00 1.760437846183776855e+00
1.133000000000000000e+03 7.320774078369140625e+00 -2.398573684692382812e+01 1.713775753974914551e+00 1.355565452575683594e+01 4.580829143524169922e+00 2.218020915985107422e+00
1.134000000000000000e+03 1.526023268699645996e+00 -9.171238899230957031e+00 -5.512513592839241028e-02 8.194423913955688477e-01 2.292951792478561401e-01 2.116523087024688721e-01
1.135000000000000000e+03 2.317244768142700195e+00 -3.705445861816406250e+01 -1.251532286405563354e-01 9.473650932312011719e+00 2.804549455642700195e+00 3.505514562129974365e-02
1.136000000000000000e+03 5.138462185859680176e-01 7.806357383728027344e+00 1.393061224371194839e-02 -8.401281833648681641e-01 -2.478592693805694580e-01 1.951533369719982147e-02
1.137000000000000000e+03 1.692642927169799805e+00 -1.598148059844970703e+01 3.227662295103073120e-02 1.201761245727539062e+00 3.702113628387451172e-01 -3.556378781795501709e-01
1.138000000000000000e+03 2.064271450042724609e+00 -2.169500350952148438e+01 4.915996491909027100e-01 2.669380426406860352e+00 9.482939839363098145e-01 1.142319083213806152e+00
1.139000000000000000e+03 6.011493802070617676e-01 1.904277992248535156e+01 6.260380032472312450e-04 -7.816313952207565308e-02 -2.326112985610961914e-02 -6.048761680722236633e-02
1.140000000000000000e+03 5.652422904968261719e-01 1.341079139709472656e+01 4.764567129313945770e-03 -6.323761940002441406e-01 -1.882834881544113159e-01 -4.949564486742019653e-02
1.141000000000000000e+03 4.032988548278808594e+00 -3.572845458984375000e+01 -5.566188097000122070e-01 8.179863929748535156e+00 2.286973476409912109e+00 4.743494391441345215e-01
1.142000000000000000e+03 2.368206501007080078e+00 -3.441057205200195312e+01 -3.245666921138763428e-01 9.312406539916992188e+00 2.696352005004882812e+00 4.760256707668304443e-01
1.143000000000000000e+03 2.186561822891235352e+00 -3.158053398132324219e+01 -3.970838189125061035e-01 8.626572608947753906e+00 2.468846559524536133e+00 1.130686163902282715e+00
1.144000000000000000e+03 1.868015170097351074e+00 -2.750694274902343750e+01 -6.716627627611160278e-02 6.382779598236083984e+00 1.894684076309204102e+00 1.987186670303344727e+00
1.145000000000000000e+03 1.922613978385925293e+00 -2.613275146484375000e+01 -7.130444515496492386e-03 5.380227088928222656e+00 1.611928939819335938e+00 2.070153474807739258e+00
1.146000000000000000e+03 3.496927738189697266e+00 -2.313241577148437500e+01 9.945040941238403320e-01 5.625129699707031250e+00 1.985890150070190430e+00 2.356584310531616211e+00
1.147000000000000000e+03 3.085125923156738281e+00 -1.844031143188476562e+01 5.094413757324218750e-01 3.564652681350708008e+00 1.222228169441223145e+00 8.525159209966659546e-02
1.148000000000000000e+03 6.226050853729248047e-01 -1.904634284973144531e+01 6.310637295246124268e-02 -9.457606077194213867e-01 -2.647962868213653564e-01 6.836707238107919693e-03
1.149000000000000000e+03 1.564913749694824219e+00 -1.189725112915039062e+01 -1.081262975931167603e-01 1.152164697647094727e+00 3.132115304470062256e-01 -4.605478420853614807e-02
1.150000000000000000e+03 5.205784440040588379e-01 -1.203527069091796875e+01 -2.243418619036674500e-02 3.028964102268218994e-01 8.413866907358169556e-02 -3.494882583618164062e-02
1.151000000000000000e+03 4.116157054901123047e+00 -4.471544265747070312e+00 5.216283798217773438e-01 7.000286579132080078e-01 3.664970993995666504e-01 6.042248010635375977e-01
1.152000000000000000e+03 2.821851968765258789e+00 -2.958593130111694336e+00 2.011279612779617310e-01 1.283152699470520020e-01 9.883296489715576172e-02 -3.603941993787884712e-03
1.153000000000000000e+03 2.823774099349975586e+00 -4.015725135803222656e+00 2.539158761501312256e-01 3.321358859539031982e-01 1.758155226707458496e-01 1.731457263231277466e-01
1.154000000000000000e+03 1.342841863632202148e+00 -3.221472263336181641e+00 6.240854039788246155e-02 -6.315646320581436157e-02 -2.243768831249326468e-04 -7.154867053031921387e-02
1.155000000000000000e+03 4.851443469524383545e-01 4.983661174774169922e+00 7.235210854560136795e-03 -5.849434733390808105e-01 -1.733124852180480957e-01 6.663870066404342651e-02
1.156000000000000000e+03 3.247528314590454102e+00 3.985606431961059570e+00 6.333819776773452759e-02 -1.303033977746963501e-01 -2.008955739438533783e-02 2.973020374774932861e-01
1.157000000000000000e+03 1.607433319091796875e+00 1.043873691558837891e+01 2.936108782887458801e-02 -4.540608823299407959e-01 -1.274099349975585938e-01 -6.273049116134643555e-02
1.158000000000000000e+03 5.347018241882324219e-01 1.060623741149902344e+01 8.340816944837570190e-03 -8.235440254211425781e-01 -2.445609718561172485e-01 -2.395069040358066559e-02
1.159000000000000000e+03 1.696034431457519531e+00 1.319882392883300781e+01 1.529193855822086334e-02 -2.684178352355957031e-01 -7.593777030706405640e-02 -1.334156841039657593e-01
1.160000000000000000e+03 2.865877628326416016e+00 1.439018726348876953e+01 2.244783379137516022e-02 1.824677437543869019e-01 6.147467344999313354e-02 -2.299475371837615967e-01
1.161000000000000000e+03 1.794022202491760254e+00 1.878744697570800781e+01 -2.552724909037351608e-03 2.039656043052673340e-01 6.042386591434478760e-02 -1.691714674234390259e-01
1.162000000000000000e+03 1.931035876274108887e+00 2.441416549682617188e+01 -5.112004466354846954e-03 6.821747422218322754e-01 2.031188309192657471e-01 -1.605467796325683594e-01
1.163000000000000000e+03 5.897212219238281250e+01 -3.696770095825195312e+01 -5.078477412462234497e-02 2.734923601150512695e+00 8.052416443824768066e-01 -1.884758234024047852e+00
1.164000000000000000e+03 1.315730381011962891e+01 -1.351879310607910156e+01 -2.194744825363159180e+00 4.525342941284179688e+00 6.991793513298034668e-01 3.143097400665283203e+00
1.165000000000000000e+03 1.109737491607666016e+01 -1.542672443389892578e+01 1.544752359390258789e+00 8.699758529663085938e+00 3.073353290557861328e+00 3.799759864807128906e+00
1.166000000000000000e+03 9.658788681030273438e+00 -1.792059063911437988e+00 3.550845384597778320e+00 1.298479288816452026e-01 1.104207992553710938e+00 1.284894347190856934e+00
1.167000000000000000e+03 1.023294639587402344e+01 -2.371676921844482422e+00 5.248589038848876953e+00 9.163597226142883301e-01 1.849484682083129883e+00 2.995388984680175781e+00
1.168000000000000000e+03 1.205367374420166016e+01 -2.637570858001708984e+00 7.209581851959228516e+00 8.547300338745117188e+00 4.727064609527587891e+00 7.920356273651123047e+00
1.169000000000000000e+03 1.164797115325927734e+01 1.545045375823974609e+00 5.694414973258972168e-01 4.005754947662353516e+00 1.372558951377868652e+00 -2.001279830932617188e+00
1.170000000000000000e+03 1.217545700073242188e+01 8.903539776802062988e-01 4.806128740310668945e-01 6.092574119567871094e+00 1.971956014633178711e+00 -2.471289873123168945e+00
1.171000000000000000e+03 1.208585262298583984e+01 1.593955874443054199e+00 3.502361178398132324e-01 5.614676475524902344e+00 1.789473772048950195e+00 -1.976296663284301758e+00
1.172000000000000000e+03 1.140268421173095703e+01 1.515906333923339844e+00 5.897033810615539551e-01 3.090286254882812500e+00 1.103996872901916504e+00 -1.800300359725952148e+00
1.173000000000000000e+03 1.213088226318359375e+01 1.254001617431640625e+00 3.554066419601440430e-01 5.798177719116210938e+00 1.846075296401977539e+00 -2.198337554931640625e+00
1.174000000000000000e+03 1.226793098449707031e+01 -3.109166383743286133e+00 5.075575351715087891e+00 9.961833000183105469e+00 4.511222362518310547e+00 6.964715957641601562e+00
1.175000000000000000e+03 1.418099880218505859e+01 1.463288187980651855e+00 8.144263625144958496e-01 1.026867961883544922e+01 3.324931859970092773e+00 2.151796579360961914e+00
1.176000000000000000e+03 1.432372570037841797e+01 -1.675612330436706543e+00 1.146470832824707031e+01 1.057379150390625000e+01 6.611549854278564453e+00 2.063821077346801758e+00
1.177000000000000000e+03 1.455676269531250000e+01 -2.272291332483291626e-01 6.668089389801025391e+00 1.080917549133300781e+01 5.243179321289062500e+00 5.501039028167724609e+00
1.178000000000000000e+03 1.425789260864257812e+01 -1.871465206146240234e+00 1.082774353027343750e+01 1.116877365112304688e+01 6.598955154418945312e+00 1.335717439651489258e+00
1.179000000000000000e+03 1.352754402160644531e+01 3.349413573741912842e-01 1.163363814353942871e+00 1.429099845886230469e+01 4.636308670043945312e+00 2.547211170196533203e+00
1.180000000000000000e+03 1.268693733215332031e+01 1.006344318389892578e+00 -2.848015166819095612e-02 8.950957298278808594e+00 2.676743030548095703e+00 -1.616040349006652832e+00
1.181000000000000000e+03 9.003130912780761719e+00 2.289767503738403320e+00 3.037543892860412598e-01 3.909329771995544434e-01 2.084062099456787109e-01 -2.579435408115386963e-01
1.182000000000000000e+03 8.270050048828125000e+00 -2.471400260925292969e+00 2.398640155792236328e+00 4.095979034900665283e-01 8.424714207649230957e-01 1.432013034820556641e+00
1.183000000000000000e+03 6.796550750732421875e+00 2.432437419891357422e+00 -6.704822182655334473e-02 6.079247221350669861e-02 -1.876724301837384701e-03 2.523438036441802979e-01
1.184000000000000000e+03 3.755907297134399414e+00 2.831840276718139648e+00 -6.139293685555458069e-02 -7.417897135019302368e-02 -4.067157208919525146e-02 3.354917764663696289e-01
1.185000000000000000e+03 4.529009342193603516e+00 2.669508218765258789e+00 -9.015373140573501587e-02 -3.555166348814964294e-02 -3.771162033081054688e-02 3.439237773418426514e-01
1.186000000000000000e+03 4.710590362548828125e+00 3.387047052383422852e+00 5.767452344298362732e-02 -1.771637611091136932e-02 1.198744401335716248e-02 3.227882683277130127e-01
1.187000000000000000e+03 6.139085769653320312e+00 3.133705615997314453e+00 1.072262674570083618e-01 8.479077368974685669e-02 5.760511383414268494e-02 2.485915124416351318e-01
1.188000000000000000e+03 5.426370143890380859e+00 3.226994514465332031e+00 6.868370622396469116e-02 3.465019911527633667e-02 3.100017085671424866e-02 2.958900928497314453e-01
1.189000000000000000e+03 6.851309299468994141e+00 3.071888685226440430e+00 1.751447170972824097e-01 1.445163637399673462e-01 9.589832276105880737e-02 1.639685928821563721e-01
1.190000000000000000e+03 2.138198852539062500e+00 3.285333633422851562e+00 -1.925720833241939545e-02 -2.070939540863037109e-01 -6.790535151958465576e-02 2.635264992713928223e-01
1.191000000000000000e+03 1.019455528259277344e+01 2.214939355850219727e+00 6.028124690055847168e-01 1.148017287254333496e+00 5.252488851547241211e-01 -9.351605772972106934e-01
1.192000000000000000e+03 8.925982475280761719e+00 3.502575874328613281e+00 6.164230704307556152e-01 8.783807158470153809e-01 4.484411478042602539e-01 -4.683173000812530518e-01
1.193000000000000000e+03 7.477647781372070312e+00 -3.192097663879394531e+00 1.980524778366088867e+00 7.241835594177246094e-01 8.114124536514282227e-01 1.593445539474487305e+00
1.194000000000000000e+03 5.183548927307128906e+00 -2.707933664321899414e+00 6.837899088859558105e-01 3.059976398944854736e-01 2.969362437725067139e-01 4.108628928661346436e-01
1.195000000000000000e+03 6.753603458404541016e+00 -3.246874332427978516e+00 1.509787321090698242e+00 6.438847780227661133e-01 6.461016535758972168e-01 1.234094142913818359e+00
1.196000000000000000e+03 4.394610881805419922e+00 -2.780001163482666016e+00 4.708714485168457031e-01 2.986906468868255615e-01 2.308686226606369019e-01 2.516162395477294922e-01
1.197000000000000000e+03 5.989561557769775391e+00 -3.364716529846191406e+00 1.127906799316406250e+00 6.342900991439819336e-01 5.286590456962585449e-01 9.520007371902465820e-01
1.198000000000000000e+03 1.561900019645690918e+00 -6.444193840026855469e+00 5.145527422428131104e-02 3.284648656845092773e-01 1.139760464429855347e-01 2.316861152648925781e-01
1.199000000000000000e+03 3.538364887237548828e+00 -9.090854644775390625e+00 -2.282973229885101318e-01 2.179818630218505859e+00 5.854563713073730469e-01 7.244608998298645020e-01
1.200000000000000000e+03 2.066415309906005859e+00 -2.984200954437255859e+00 1.448142677545547485e-01 7.205511629581451416e-02 6.506081670522689819e-02 -5.020697414875030518e-02
1.201000000000000000e+03 1.648677825927734375e+00 -5.049295902252197266e+00 9.998329728841781616e-02 1.467055678367614746e-01 7.400666177272796631e-02 1.094998568296432495e-01
1.202000000000000000e+03 1.089508914947509766e+01 -2.886392354965209961e+00 6.111754417419433594e+00 2.943120718002319336e+00 2.716462612152099609e+00 5.290427684783935547e+00
1.203000000000000000e+03 4.323308467864990234e-01 3.582785844802856445e+00 -3.696364583447575569e-03 -3.654042780399322510e-01 -1.107301935553550720e-01 7.285761833190917969e-02
1.204000000000000000e+03 1.124670219421386719e+01 -1.379308128356933594e+01 -1.594967126846313477e+00 7.819244861602783203e+00 1.867283225059509277e+00 3.333631753921508789e+00
1.205000000000000000e+03 7.101459503173828125e+01 1.031552600860595703e+01 -5.899006128311157227e-01 9.608065605163574219e+00 2.705449581146240234e+00 1.541814506053924561e-01
1.206000000000000000e+03 7.219844818115234375e+01 1.288680458068847656e+01 -2.880629897117614746e-01 9.136463165283203125e+00 2.654520034790039062e+00 1.584731787443161011e-01
1.207000000000000000e+03 3.171135902404785156e+01 -1.515590858459472656e+01 -2.332029819488525391e+00 7.350798845291137695e-01 -4.790849983692169189e-01 -1.665175557136535645e-01
1.208000000000000000e+03 2.181818962097167969e+01 -3.445125198364257812e+01 -2.031745195388793945e+00 -2.549088597297668457e-01 -6.859962344169616699e-01 6.151464581489562988e-01
1.209000000000000000e+03 2.323113250732421875e+01 -3.557078933715820312e+01 -1.664721846580505371e+00 -3.357538282871246338e-01 -6.001427173614501953e-01 4.613780975341796875e-01
1.210000000000000000e+03 3.199413490295410156e+01 -1.402860450744628906e+01 -1.880620002746582031e+00 1.138323426246643066e+00 -2.226890027523040771e-01 -6.973020434379577637e-01
1.211000000000000000e+03 2.911353111267089844e+01 -1.556320285797119141e+01 -3.267021179199218750e+00 1.683380454778671265e-01 -9.296049475669860840e-01 6.492356061935424805e-01
1.212000000000000000e+03 2.673304176330566406e+01 -3.533346939086914062e+01 -1.767786026000976562e+00 -1.406233459711074829e-01 -5.725228190422058105e-01 1.989922225475311279e-01
1.213000000000000000e+03 3.386303710937500000e+01 -1.672995948791503906e+01 -2.005416393280029297e+00 3.884238302707672119e-01 -4.850977957248687744e-01 -2.894743680953979492e-01
1.214000000000000000e+03 4.615093994140625000e+01 -3.448985517024993896e-01 9.034835696220397949e-01 6.002724170684814453e+00 2.071862459182739258e+00 -2.618588685989379883e+00
1.215000000000000000e+03 4.452730560302734375e+01 -2.589607954025268555e+00 4.053998887538909912e-01 6.085050582885742188e+00 1.947135090827941895e+00 -2.479611158370971680e+00
1.216000000000000000e+03 8.574568748474121094e+00 -2.985577583312988281e+01 -2.814945697784423828e+00 6.476371765136718750e+00 1.098427772521972656e+00 5.933373570442199707e-01
1.217000000000000000e+03 4.453519058227539062e+01 2.901854813098907471e-01 8.516282439231872559e-01 6.274458885192871094e+00 2.137826204299926758e+00 -2.671840429306030273e+00
1.218000000000000000e+03 6.080595779418945312e+01 -2.223367691040039062e+01 6.483781933784484863e-01 1.104594230651855469e+00 5.258917212486267090e-01 1.286167621612548828e+00
1.219000000000000000e+03 4.941480255126953125e+01 -9.347937583923339844e+00 1.303546428680419922e-01 5.902136325836181641e+00 1.809747338294982910e+00 -1.364632129669189453e+00
1.220000000000000000e+03 4.876768875122070312e+01 -1.117807865142822266e+01 -3.604280948638916016e-01 5.993437767028808594e+00 1.689902901649475098e+00 -9.157196283340454102e-01
1.221000000000000000e+03 2.884172248840332031e+01 -3.395669555664062500e+01 -2.066919088363647461e+00 3.534021228551864624e-02 -6.094736456871032715e-01 9.683844447135925293e-02
1.222000000000000000e+03 3.213232421875000000e+01 -3.467065048217773438e+01 -2.218071699142456055e+00 -5.900965631008148193e-02 -6.831244230270385742e-01 -1.572052538394927979e-01
1.223000000000000000e+03 7.695114135742187500e+01 1.255335044860839844e+01 -8.297843486070632935e-02 7.530758857727050781e+00 2.234333992004394531e+00 3.739576339721679688e-01
1.224000000000000000e+03 4.781263732910156250e+01 -8.499119758605957031e+00 -6.144354492425918579e-02 6.162296295166015625e+00 1.830255746841430664e+00 -1.518079519271850586e+00
1.225000000000000000e+03 4.279714202880859375e+01 2.782293319702148438e+01 1.109539046883583069e-01 5.053446292877197266e+00 1.549319982528686523e+00 9.379454255104064941e-01
1.226000000000000000e+03 5.589935302734375000e+01 -2.446132278442382812e+01 1.226395010948181152e+00 3.158954620361328125e+00 1.315604925155639648e+00 3.523786365985870361e-01
1.227000000000000000e+03 4.477052307128906250e+01 -2.442165946960449219e+01 2.399705648422241211e+00 1.043858337402343750e+01 3.851486682891845703e+00 -2.433046340942382812e+00
1.228000000000000000e+03 4.654663085937500000e+01 -2.630068778991699219e+01 2.026385784149169922e+00 8.562430381774902344e+00 3.176644802093505859e+00 -2.634630918502807617e+00
1.229000000000000000e+03 4.267694854736328125e+01 3.688419342041015625e+00 1.199217319488525391e+00 7.084631443023681641e+00 2.485154628753662109e+00 -2.641596317291259766e+00
1.230000000000000000e+03 4.363975906372070312e+01 4.399817943572998047e+00 1.449969172477722168e+00 7.395347595214843750e+00 2.653594970703125000e+00 -3.026157140731811523e+00
1.231000000000000000e+03 2.031983375549316406e+01 -3.564920043945312500e+01 -1.500921726226806641e+00 -4.817132651805877686e-01 -5.947905182838439941e-01 7.101115584373474121e-01
1.232000000000000000e+03 6.690354919433593750e+01 -2.045235824584960938e+01 -1.323495864868164062e+00 1.152345761656761169e-01 -3.624784052371978760e-01 6.409325599670410156e-01
1.233000000000000000e+03 6.361030578613281250e+01 -1.432041358947753906e+01 7.466040253639221191e-01 1.606406092643737793e+00 7.059030532836914062e-01 1.093232035636901855e+00
1.234000000000000000e+03 4.650946426391601562e+01 -4.571323871612548828e+00 3.345782756805419922e-01 6.072108268737792969e+00 1.922006011009216309e+00 -2.219387769699096680e+00
1.235000000000000000e+03 7.243733978271484375e+01 6.456816196441650391e+00 3.508318364620208740e-01 1.004930305480957031e+01 3.120040416717529297e+00 3.490126132965087891e-01
1.236000000000000000e+03 2.678831100463867188e+01 -1.462907123565673828e+01 -4.160367488861083984e+00 -6.811368465423583984e-02 -1.268544316291809082e+00 1.158142685890197754e+00
1.237000000000000000e+03 7.308718872070312500e+01 -2.655493736267089844e+01 1.341518998146057129e+00 1.023305034637451172e+01 3.472370862960815430e+00 1.592802405357360840e-01
1.238000000000000000e+03 7.707591247558593750e+01 -2.791186714172363281e+01 4.580337107181549072e-01 7.356525421142578125e+00 2.344367742538452148e+00 -2.130114585161209106e-01
1.239000000000000000e+03 4.810136795043945312e+01 -5.378855228424072266e+00 4.488212764263153076e-01 6.089719295501708984e+00 1.961562275886535645e+00 -2.028985261917114258e+00
1.240000000000000000e+03 7.570718383789062500e+01 2.525691604614257812e+01 1.420816034078598022e-01 8.161924362182617188e+00 2.491201877593994141e+00 6.229323148727416992e-01
1.241000000000000000e+03 7.140324401855468750e+01 3.499011993408203125e+00 4.023280143737792969e-01 1.157564735412597656e+01 3.593392610549926758e+00 6.048102974891662598e-01
1.242000000000000000e+03 7.825550079345703125e+01 2.620773077011108398e+00 1.030457615852355957e-01 5.913658142089843750e+00 1.805011153221130371e+00 2.799401618540287018e-02
1.243000000000000000e+03 7.816642761230468750e+01 2.090028762817382812e+01 2.120705507695674896e-02 7.829027175903320312e+00 2.355070352554321289e+00 2.708499729633331299e-01
1.244000000000000000e+03 7.695977783203125000e+01 2.092395782470703125e+01 7.840532064437866211e-02 7.974868774414062500e+00 2.415982246398925781e+00 3.684709370136260986e-01
1.245000000000000000e+03 7.551552581787109375e+01 -3.814978408813476562e+01 -3.070272505283355713e-01 6.834291458129882812e+00 1.958179354667663574e+00 -1.034084260463714600e-01
1.246000000000000000e+03 7.257549285888671875e+01 -3.124966239929199219e+01 -3.558800369501113892e-02 7.454407691955566406e+00 2.225646018981933594e+00 1.462714374065399170e-01
1.247000000000000000e+03 7.803685760498046875e+01 -3.347232818603515625e+01 -9.817221760749816895e-02 7.707879066467285156e+00 2.282912015914916992e+00 -4.996794164180755615e-01
1.248000000000000000e+03 7.652692413330078125e+01 3.707305526733398438e+01 -2.685990631580352783e-01 8.789861679077148438e+00 2.556378841400146484e+00 1.823986321687698364e-01
1.249000000000000000e+03 7.656880187988281250e+01 3.480405426025390625e+01 -2.132013589143753052e-01 8.932895660400390625e+00 2.615908145904541016e+00 2.771789431571960449e-01
1.250000000000000000e+03 7.710436248779296875e+01 -2.236350822448730469e+01 -7.660375535488128662e-02 7.687245368957519531e+00 2.283192396163940430e+00 8.449974060058593750e-01
1.251000000000000000e+03 7.819860076904296875e+01 -2.792687606811523438e+01 2.193114608526229858e-01 6.869819164276123047e+00 2.126739263534545898e+00 -2.169874906539916992e-01
1.252000000000000000e+03 7.474911499023437500e+01 -2.809991645812988281e+01 9.377720355987548828e-01 8.339806556701660156e+00 2.783273458480834961e+00 -3.053954839706420898e-01
1.253000000000000000e+03 7.463738250732421875e+01 -2.269117164611816406e+01 -1.967458426952362061e-01 8.303294181823730469e+00 2.431964635848999023e+00 9.299116730690002441e-01
1.254000000000000000e+03 7.820452880859375000e+01 -2.652492332458496094e+01 2.426954656839370728e-01 6.867844104766845703e+00 2.133161783218383789e+00 1.078084409236907959e-01
1.255000000000000000e+03 7.815420532226562500e+01 -2.513470077514648438e+01 1.973377168178558350e-01 6.978039264678955078e+00 2.152613162994384766e+00 3.577809631824493408e-01
1.256000000000000000e+03 7.645985412597656250e+01 -3.472689819335937500e+01 -3.158157765865325928e-01 7.536635875701904297e+00 2.166246175765991211e+00 -3.924416005611419678e-01
1.257000000000000000e+03 7.686554718017578125e+01 -2.375726318359375000e+01 3.078671693801879883e-01 7.626513004302978516e+00 2.380314111709594727e+00 7.508126497268676758e-01
1.258000000000000000e+03 7.681768035888671875e+01 -3.333841705322265625e+01 -2.098240703344345093e-01 7.615998744964599609e+00 2.221852302551269531e+00 -5.709595084190368652e-01
1.259000000000000000e+03 7.698117828369140625e+01 -3.214112472534179688e+01 -7.898126542568206787e-02 7.623440742492675781e+00 2.263337850570678711e+00 -7.159023880958557129e-01
1.260000000000000000e+03 7.429447174072265625e+01 -3.193882751464843750e+01 -2.581758797168731689e-01 7.635563373565673828e+00 2.213216304779052734e+00 -5.271785259246826172e-01
1.261000000000000000e+03 7.816027069091796875e+01 2.371221160888671875e+01 3.118880279362201691e-02 8.172835350036621094e+00 2.461207151412963867e+00 3.645814955234527588e-01
1.262000000000000000e+03 7.694804382324218750e+01 2.234076309204101562e+01 7.870061695575714111e-02 8.070429801940917969e+00 2.444739103317260742e+00 4.319946467876434326e-01
1.263000000000000000e+03 7.693699645996093750e+01 2.516799545288085938e+01 7.791560143232345581e-02 8.282087326049804688e+00 2.508000850677490234e+00 5.663343667984008789e-01
1.264000000000000000e+03 7.701300811767578125e+01 1.531328964233398438e+01 -1.608690246939659119e-02 7.645478248596191406e+00 2.288817405700683594e+00 2.947281897068023682e-01
1.265000000000000000e+03 7.819474029541015625e+01 1.391468238830566406e+01 -2.056765928864479065e-02 7.186231136322021484e+00 2.149698972702026367e+00 2.336926460266113281e-01
1.266000000000000000e+03 7.699838256835937500e+01 1.393658733367919922e+01 -5.851028859615325928e-02 7.581639766693115234e+00 2.256938934326171875e+00 3.056225180625915527e-01
1.267000000000000000e+03 7.214822387695312500e+01 2.406886672973632812e+01 3.388251066207885742e-01 8.232466697692871094e+00 2.571387767791748047e+00 1.827385425567626953e-01
1.268000000000000000e+03 7.815821075439453125e+01 2.789157295227050781e+01 1.623628474771976471e-02 8.855193138122558594e+00 2.661428689956665039e+00 4.663383960723876953e-01
1.269000000000000000e+03 7.580913543701171875e+01 1.398888874053955078e+01 -8.460702747106552124e-02 7.977570056915283203e+00 2.367888927459716797e+00 3.622483313083648682e-01
1.270000000000000000e+03 7.802621459960937500e+01 3.206942367553710938e+01 -7.984603941440582275e-02 9.488270759582519531e+00 2.822527408599853516e+00 3.756932914257049561e-01
1.271000000000000000e+03 7.694340515136718750e+01 2.793521499633789062e+01 2.278149500489234924e-02 8.546869277954101562e+00 2.570895195007324219e+00 6.388104557991027832e-01
1.272000000000000000e+03 7.822216796875000000e+01 -1.958338546752929688e+01 -1.509906947612762451e-01 7.992969989776611328e+00 2.352593660354614258e+00 3.440480828285217285e-01
1.273000000000000000e+03 7.715272521972656250e+01 -2.103881645202636719e+01 -2.597323060035705566e-01 7.816820621490478516e+00 2.267126560211181641e+00 6.416149139404296875e-01
1.274000000000000000e+03 7.675336456298828125e+01 9.667718887329101562e+00 -3.000264987349510193e-02 7.427220344543457031e+00 2.219165325164794922e+00 5.168564319610595703e-01
1.275000000000000000e+03 7.682592010498046875e+01 6.665108680725097656e+00 1.110500097274780273e-01 7.128344058990478516e+00 2.171818256378173828e+00 4.491778314113616943e-01
1.276000000000000000e+03 7.624307250976562500e+01 -1.557078075408935547e+01 -2.831389009952545166e-01 7.390298366546630859e+00 2.132147789001464844e+00 -2.713481485843658447e-01
1.277000000000000000e+03 7.700490570068359375e+01 -1.820926284790039062e+01 -3.358469307422637939e-01 7.810260772705078125e+00 2.242324113845825195e+00 1.869013756513595581e-01
1.278000000000000000e+03 7.553189086914062500e+01 -8.650850296020507812e+00 -6.657253205776214600e-02 7.079985141754150391e+00 2.104023694992065430e+00 -5.545370578765869141e-01
1.279000000000000000e+03 7.696842193603515625e+01 -1.134739971160888672e+01 -6.918757408857345581e-02 7.340322017669677734e+00 2.181340456008911133e+00 -4.687281250953674316e-01
1.280000000000000000e+03 7.462340545654296875e+01 -4.514447689056396484e+00 7.437915354967117310e-02 7.419919490814208984e+00 2.248289585113525391e+00 -4.638229310512542725e-01
1.281000000000000000e+03 7.693045043945312500e+01 -4.440552234649658203e+00 3.665794804692268372e-02 6.906148910522460938e+00 2.082842111587524414e+00 -5.572440028190612793e-01
1.282000000000000000e+03 7.630854034423828125e+01 3.824395751953125000e+01 -2.712141871452331543e-01 9.276410102844238281e+00 2.701558828353881836e+00 3.558205366134643555e-01
1.283000000000000000e+03 7.760195159912109375e+01 3.844329071044921875e+01 -1.182144507765769958e-01 9.732072830200195312e+00 2.884157657623291016e+00 -2.741755247116088867e-01
1.284000000000000000e+03 7.805058288574218750e+01 8.250003814697265625e+00 3.668337361887097359e-03 6.565336704254150391e+00 1.970701456069946289e+00 3.652348518371582031e-01
1.285000000000000000e+03 7.530149841308593750e+01 8.040721893310546875e+00 5.336790159344673157e-02 8.151258468627929688e+00 2.461388111114501953e+00 5.960091352462768555e-01
1.286000000000000000e+03 7.817810821533203125e+01 -1.465722769498825073e-01 8.549256622791290283e-02 6.037251949310302734e+00 1.836823344230651855e+00 -2.430427521467208862e-01
1.287000000000000000e+03 7.689481353759765625e+01 -1.625121474266052246e+00 1.384699344635009766e-01 6.807591438293457031e+00 2.083818435668945312e+00 -4.273109138011932373e-01
1.288000000000000000e+03 7.686762237548828125e+01 -8.568510055541992188e+00 -3.954354673624038696e-02 7.142123222351074219e+00 2.130773782730102539e+00 -5.512375235557556152e-01
1.289000000000000000e+03 7.723265075683593750e+01 -1.547284412384033203e+01 -1.765162050724029541e-01 7.708749771118164062e+00 2.259670019149780273e+00 -1.885823309421539307e-01
1.290000000000000000e+03 7.658086395263671875e+01 3.347137832641601562e+01 -1.822313666343688965e-01 8.841272354125976562e+00 2.597712278366088867e+00 3.932797908782958984e-01
1.291000000000000000e+03 7.699240875244140625e+01 1.809670448303222656e+01 4.095705226063728333e-02 7.800268173217773438e+00 2.352367639541625977e+00 3.009428083896636963e-01
1.292000000000000000e+03 7.806163024902343750e+01 9.683637619018554688e+00 -1.382788363844156265e-02 6.741672515869140625e+00 2.018353462219238281e+00 3.529813289642333984e-01
1.293000000000000000e+03 7.686454010009765625e+01 1.113608837127685547e+01 -8.378608524799346924e-02 7.490044116973876953e+00 2.221877336502075195e+00 4.388896822929382324e-01
1.294000000000000000e+03 7.713987731933593750e+01 -1.414294147491455078e+01 -1.121121346950531006e-01 7.593331813812255859e+00 2.244365930557250977e+00 -3.174400329589843750e-01
1.295000000000000000e+03 7.687231445312500000e+01 -7.197459697723388672e+00 -2.902998775243759155e-02 7.062897682189941406e+00 2.110160350799560547e+00 -5.527524948120117188e-01
1.296000000000000000e+03 7.794724273681640625e+01 3.605577850341796875e+01 -1.615458130836486816e-01 9.787886619567871094e+00 2.887902259826660156e+00 1.087668463587760925e-01
1.297000000000000000e+03 7.782789611816406250e+01 3.728917312622070312e+01 -1.762670427560806274e-01 9.938465118408203125e+00 2.928659439086914062e+00 -1.046781614422798157e-02
1.298000000000000000e+03 7.610926818847656250e+01 2.426516294479370117e+00 3.538155555725097656e-01 7.359392642974853516e+00 2.313962459564208984e+00 7.549291849136352539e-02
1.299000000000000000e+03 7.699432373046875000e+01 5.236092090606689453e+00 1.652606129646301270e-01 6.925868034362792969e+00 2.127338647842407227e+00 3.386305272579193115e-01
1.300000000000000000e+03 7.711346435546875000e+01 3.863138675689697266e+00 1.826039552688598633e-01 6.756593704223632812e+00 2.081759214401245117e+00 1.997745186090469360e-01
1.301000000000000000e+03 7.695230865478515625e+01 -2.147465050220489502e-01 1.859157085418701172e-01 6.745234966278076172e+00 2.079345226287841797e+00 -2.985860705375671387e-01
1.302000000000000000e+03 7.815313720703125000e+01 -4.343808650970458984e+00 1.090279407799243927e-02 6.560658454895019531e+00 1.971468448638916016e+00 -4.348137676715850830e-01
1.303000000000000000e+03 7.691835784912109375e+01 -3.039628982543945312e+00 9.016022831201553345e-02 6.861550331115722656e+00 2.085513114929199219e+00 -5.079951882362365723e-01
1.304000000000000000e+03 7.818125915527343750e+01 -1.125918579101562500e+01 -3.625614568591117859e-02 7.611607074737548828e+00 2.272605180740356445e+00 -3.377129137516021729e-01
1.305000000000000000e+03 7.690287780761718750e+01 -9.948576927185058594e+00 -5.622939020395278931e-02 7.242842197418212891e+00 2.155983924865722656e+00 -5.039716958999633789e-01
1.306000000000000000e+03 7.720485687255859375e+01 -1.679343414306640625e+01 -2.406816035509109497e-01 7.773736953735351562e+00 2.259916543960571289e+00 -5.820637568831443787e-02
1.307000000000000000e+03 3.398347854614257812e+01 -1.458454322814941406e+01 -1.300222516059875488e+00 1.279969811439514160e+00 -6.075799930840730667e-03 -1.238429188728332520e+00
1.308000000000000000e+03 7.107469177246093750e+01 1.565932941436767578e+01 1.583203375339508057e-01 9.422888755798339844e+00 2.874362707138061523e+00 3.794856071472167969e-01
1.309000000000000000e+03 7.151511383056640625e+01 1.929392933845520020e+00 8.703848719596862793e-01 1.100563240051269531e+01 3.562805175781250000e+00 7.195532917976379395e-01
1.310000000000000000e+03 7.133780670166015625e+01 2.725366353988647461e-01 8.286966681480407715e-01 1.064918327331542969e+01 3.443364143371582031e+00 6.922597289085388184e-01
1.311000000000000000e+03 7.111593627929687500e+01 1.982345771789550781e+01 1.437658537179231644e-02 9.023039817810058594e+00 2.711225032806396484e+00 2.106422036886215210e-01
1.312000000000000000e+03 7.109893798828125000e+01 1.703610229492187500e+01 1.582456566393375397e-02 9.280556678771972656e+00 2.788914203643798828e+00 2.734664380550384521e-01
1.313000000000000000e+03 7.226509094238281250e+01 2.115289497375488281e+01 1.238606274127960205e-01 8.663974761962890625e+00 2.636350631713867188e+00 2.338752448558807373e-01
1.314000000000000000e+03 7.461408996582031250e+01 1.959205055236816406e+01 9.225676208734512329e-02 8.319042205810546875e+00 2.523389577865600586e+00 3.905514180660247803e-01
1.315000000000000000e+03 7.228443908691406250e+01 1.972740745544433594e+01 7.770302891731262207e-02 8.802742958068847656e+00 2.664133787155151367e+00 2.923859953880310059e-01
1.316000000000000000e+03 6.747412109375000000e+01 -9.400632858276367188e+00 6.011499166488647461e-01 4.381148815155029297e+00 1.494689583778381348e+00 1.328497290611267090e+00
1.317000000000000000e+03 4.393963623046875000e+01 1.450772523880004883e+00 9.950210452079772949e-01 6.402534961700439453e+00 2.219266891479492188e+00 -2.765737056732177734e+00
1.318000000000000000e+03 4.294855499267578125e+01 8.525856733322143555e-01 8.031458854675292969e-01 6.505489826202392578e+00 2.192590713500976562e+00 -2.515240192413330078e+00
1.319000000000000000e+03 4.067319869995117188e+00 -1.669560813903808594e+01 2.717084288597106934e-01 4.705203056335449219e+00 1.493073463439941406e+00 -8.610458672046661377e-02
1.320000000000000000e+03 3.640435409545898438e+01 -1.671663665771484375e+01 -3.004586994647979736e-01 1.167274475097656250e+00 2.600447535514831543e-01 -1.955280065536499023e+00
1.321000000000000000e+03 6.904429626464843750e+01 3.402164459228515625e+01 -7.633191943168640137e-01 3.744980573654174805e+00 8.944984078407287598e-01 -3.405376374721527100e-01
1.322000000000000000e+03 4.300960540771484375e+00 3.245241928100585938e+01 -3.839501738548278809e-02 1.510846972465515137e+00 4.417355954647064209e-01 -1.906980872154235840e-01
1.323000000000000000e+03 2.001189470291137695e+00 3.569489288330078125e+01 -5.943777039647102356e-03 1.311931967735290527e+00 3.917964696884155273e-01 -9.541665017604827881e-02
1.324000000000000000e+03 3.180594921112060547e+00 2.998581504821777344e+01 -2.276337891817092896e-02 1.241550326347351074e+00 3.656360805034637451e-01 -1.900670826435089111e-01
1.325000000000000000e+03 1.992399096488952637e+00 2.731419944763183594e+01 -1.101705804467201233e-02 8.938692212104797363e-01 2.648556530475616455e-01 -1.457313448190689087e-01
1.326000000000000000e+03 4.762569427490234375e+00 3.530140304565429688e+01 -3.880709782242774963e-02 1.662158250808715820e+00 4.870053529739379883e-01 -1.406693458557128906e-01
1.327000000000000000e+03 3.129726409912109375e+00 3.134937477111816406e+01 -2.400194481015205383e-02 1.292414069175720215e+00 3.805236518383026123e-01 -1.673994511365890503e-01
1.328000000000000000e+03 3.143357753753662109e+00 3.270892715454101562e+01 -2.018536254763603210e-02 1.357739806175231934e+00 4.012663066387176514e-01 -1.519325971603393555e-01
1.329000000000000000e+03 4.344837188720703125e+00 3.122282600402832031e+01 -4.268290475010871887e-02 1.464501619338989258e+00 4.265456199645996094e-01 -2.226814627647399902e-01
1.330000000000000000e+03 3.833360910415649414e+00 -3.274516677856445312e+01 -8.245531916618347168e-01 8.103267669677734375e+00 2.183614492416381836e+00 1.049063324928283691e+00
1.331000000000000000e+03 2.068931102752685547e+00 -3.017114067077636719e+01 -2.864300608634948730e-01 8.087521553039550781e+00 2.340327501296997070e+00 1.459275603294372559e+00
1.332000000000000000e+03 3.178628683090209961e+00 -2.854846000671386719e+01 -5.681612491607666016e-01 7.517775058746337891e+00 2.084884166717529297e+00 2.483751296997070312e+00
1.333000000000000000e+03 5.587538242340087891e+00 -2.664700508117675781e+01 -3.364486098289489746e-01 8.776507377624511719e+00 2.532017707824707031e+00 3.223045110702514648e+00
1.334000000000000000e+03 1.840793609619140625e+00 2.157345008850097656e+01 -4.176484420895576477e-03 4.432762563228607178e-01 1.317299306392669678e-01 -1.666349619626998901e-01
1.335000000000000000e+03 3.083043575286865234e+00 2.268617439270019531e+01 -1.156231015920639038e-02 7.946890592575073242e-01 2.349380254745483398e-01 -2.516930401325225830e-01
1.336000000000000000e+03 3.585987091064453125e+00 -1.035443782806396484e+01 -3.721097707748413086e-01 2.638471603393554688e+00 6.799085736274719238e-01 5.440915822982788086e-01
1.337000000000000000e+03 1.637589931488037109e+00 -1.461709022521972656e+01 -7.920254021883010864e-02 1.199890017509460449e+00 3.362062573432922363e-01 -3.197694420814514160e-01
1.338000000000000000e+03 1.859143495559692383e+00 -1.877026748657226562e+01 2.764520645141601562e-01 1.548342347145080566e+00 5.474383234977722168e-01 3.404185548424720764e-02
1.339000000000000000e+03 2.941936254501342773e+00 1.716888618469238281e+01 8.265068754553794861e-04 3.909599781036376953e-01 1.175359413027763367e-01 -2.545312941074371338e-01
1.340000000000000000e+03 2.761849880218505859e+00 1.162638282775878906e+01 5.804928019642829895e-02 -2.194643951952457428e-02 1.083085313439369202e-02 -1.617303192615509033e-01
1.341000000000000000e+03 2.664868116378784180e+00 -1.307630157470703125e+01 -2.462018728256225586e-01 2.318804264068603516e+00 6.217807531356811523e-01 -1.320336759090423584e-01
1.342000000000000000e+03 4.411746501922607422e+00 -3.655835628509521484e+00 6.272504329681396484e-01 5.165140628814697266e-01 3.431293666362762451e-01 5.014409422874450684e-01
1.343000000000000000e+03 2.530349254608154297e+00 7.678709983825683594e+00 1.003720983862876892e-01 -2.507558763027191162e-01 -4.511513188481330872e-02 4.969421401619911194e-02
1.344000000000000000e+03 1.561434388160705566e+00 6.296246051788330078e+00 5.065804347395896912e-02 -4.596311450004577637e-01 -1.226919293403625488e-01 1.300392448902130127e-01
1.345000000000000000e+03 1.729218006134033203e+00 1.459555625915527344e+01 9.571306407451629639e-03 -1.546478867530822754e-01 -4.352297261357307434e-02 -1.526954621076583862e-01
1.346000000000000000e+03 2.906840562820434570e+00 1.578257942199707031e+01 1.144860964268445969e-02 2.870935201644897461e-01 8.956263959407806396e-02 -2.475599795579910278e-01
1.347000000000000000e+03 2.603745698928833008e+00 8.950179100036621094e+00 9.065867215394973755e-02 -1.944318264722824097e-01 -3.113194741308689117e-02 -2.748546190559864044e-02
1.348000000000000000e+03 2.539057016372680664e+00 -9.122145652770996094e+00 -1.203077360987663269e-01 1.492330074310302734e+00 4.116066992282867432e-01 4.257129132747650146e-01
1.349000000000000000e+03 2.537082910537719727e+00 -7.815343856811523438e+00 -1.593486033380031586e-02 1.144500374794006348e+00 3.385696709156036377e-01 4.835560321807861328e-01
1.350000000000000000e+03 3.457903385162353516e+00 -2.145422554016113281e+01 1.158611297607421875e+00 5.018726348876953125e+00 1.853201389312744141e+00 1.524154424667358398e+00
1.351000000000000000e+03 2.085823774337768555e+00 -2.321378135681152344e+01 3.597694635391235352e-01 3.483781814575195312e+00 1.153065323829650879e+00 1.637952685356140137e+00
1.352000000000000000e+03 2.361211061477661133e+00 -3.577599334716796875e+01 -2.564551532268524170e-01 9.439738273620605469e+00 2.754984855651855469e+00 8.435357362031936646e-02
1.353000000000000000e+03 4.918962001800537109e+00 -3.772338485717773438e+01 -3.378930091857910156e-01 7.627389907836914062e+00 2.186849117279052734e+00 4.313243925571441650e-01
1.354000000000000000e+03 2.809455871582031250e+00 -1.570864582061767578e+01 -4.036251455545425415e-02 2.784933805465698242e+00 8.233713507652282715e-01 -3.531790673732757568e-01
1.355000000000000000e+03 2.727232456207275391e+00 -1.439018821716308594e+01 -1.526872366666793823e-01 2.543690204620361328e+00 7.173008322715759277e-01 -2.662591934204101562e-01
1.356000000000000000e+03 1.811244726181030273e+00 2.017888450622558594e+01 -1.158451661467552185e-03 3.230827748775482178e-01 9.657729417085647583e-02 -1.682171225547790527e-01
1.357000000000000000e+03 3.025923252105712891e+00 2.128810882568359375e+01 -6.177342031151056290e-03 6.899373531341552734e-01 2.051280140876770020e-01 -2.550866603851318359e-01
1.358000000000000000e+03 4.089394092559814453e+00 -3.421419906616210938e+01 -7.032963633537292480e-01 7.924586296081542969e+00 2.166386842727661133e+00 6.237746477127075195e-01
1.359000000000000000e+03 6.068074703216552734e+00 -3.067374992370605469e+01 -1.822469711303710938e+00 7.434248447418212891e+00 1.683533668518066406e+00 1.496141314506530762e+00
1.360000000000000000e+03 3.158320665359497070e+00 -2.615734672546386719e+01 4.312381893396377563e-02 6.484316349029541016e+00 1.958232045173645020e+00 2.796860933303833008e+00
1.361000000000000000e+03 2.610136985778808594e+00 -1.176000785827636719e+01 -2.464583218097686768e-01 2.087746620178222656e+00 5.523864626884460449e-01 7.817421853542327881e-02
1.362000000000000000e+03 1.905540943145751953e+00 -3.896693468093872070e+00 1.111740097403526306e-01 8.716259896755218506e-02 5.950098112225532532e-02 2.688745781779289246e-02
1.363000000000000000e+03 2.689804792404174805e+00 1.026959991455078125e+01 7.545090466737747192e-02 -1.167095005512237549e-01 -1.237757876515388489e-02 -1.008649766445159912e-01
1.364000000000000000e+03 3.922298669815063477e+00 1.283694648742675781e+01 6.901050359010696411e-02 4.108977317810058594e-01 1.439724713563919067e-01 -2.627232372760772705e-01
1.365000000000000000e+03 2.819758176803588867e+00 1.300072479248046875e+01 3.864124417304992676e-02 8.151803910732269287e-02 3.604778647422790527e-02 -2.031131535768508911e-01
1.366000000000000000e+03 4.083453655242919922e+00 1.696987152099609375e+01 7.539819926023483276e-03 6.914705634117126465e-01 2.097031027078628540e-01 -3.241949975490570068e-01
1.367000000000000000e+03 6.919931793212890625e+01 -8.557963371276855469e+00 2.901576161384582520e-01 5.632691860198974609e+00 1.776854753494262695e+00 9.045955538749694824e-01
1.368000000000000000e+03 4.495011138916015625e+01 -2.357177925109863281e+01 2.589663028717041016e+00 1.052340793609619141e+01 3.933921337127685547e+00 -2.397215843200683594e+00
1.369000000000000000e+03 7.558314514160156250e+01 -1.710728049278259277e+00 2.338176369667053223e-01 7.422286510467529297e+00 2.296831130981445312e+00 -4.010210335254669189e-01
1.370000000000000000e+03 7.085540771484375000e+01 -1.290490388870239258e+00 5.314820408821105957e-01 1.011809825897216797e+01 3.194874048233032227e+00 1.061751484870910645e+00
1.371000000000000000e+03 1.839735984802246094e+01 -3.702662277221679688e+01 -8.790405392646789551e-01 -5.489637255668640137e-01 -4.284012615680694580e-01 6.779249906539916992e-01
1.372000000000000000e+03 4.211241149902343750e+01 2.407326698303222656e+01 6.069304943084716797e-01 6.204980373382568359e+00 2.043573141098022461e+00 1.220358610153198242e+00
1.373000000000000000e+03 4.406901931762695312e+01 -2.950201034545898438e+01 7.452068924903869629e-01 8.697237014770507812e+00 2.832733154296875000e+00 -1.347215771675109863e+00
1.374000000000000000e+03 4.216378021240234375e+01 6.615852832794189453e+00 1.537741422653198242e+00 9.012570381164550781e+00 3.165093660354614258e+00 -2.659825801849365234e+00
1.375000000000000000e+03 4.070367050170898438e+01 2.028582954406738281e+01 7.652919888496398926e-01 7.556082248687744141e+00 2.496412277221679688e+00 9.487346410751342773e-01
1.376000000000000000e+03 7.374011516571044922e+00 -2.283345794677734375e+01 2.135327100753784180e+00 1.344649791717529297e+01 4.674547195434570312e+00 2.705466747283935547e+00
1.377000000000000000e+03 4.854770183563232422e+00 -2.337847137451171875e+01 1.371824264526367188e+00 7.813298702239990234e+00 2.755536794662475586e+00 2.761213064193725586e+00
1.378000000000000000e+03 4.668120193481445312e+01 3.020739555358886719e+01 2.398735135793685913e-01 3.426680088043212891e+00 1.099966049194335938e+00 1.191523909568786621e+00
1.379000000000000000e+03 4.392143630981445312e+01 2.851708793640136719e+01 1.448833495378494263e-01 4.757756233215332031e+00 1.470791816711425781e+00 1.083458900451660156e+00
1.380000000000000000e+03 4.389534759521484375e+01 3.228965759277343750e+01 -4.865187406539916992e-01 4.233197689056396484e+00 1.124003648757934570e+00 6.434016823768615723e-01
1.381000000000000000e+03 7.038251495361328125e+01 -5.888586521148681641e+00 2.148274481296539307e-01 7.221443653106689453e+00 2.230881214141845703e+00 8.370221853256225586e-01
1.382000000000000000e+03 4.291114807128906250e+01 2.226005172729492188e+01 8.819506168365478516e-01 6.929985523223876953e+00 2.343580961227416992e+00 1.794282674789428711e+00
1.383000000000000000e+03 4.122256469726562500e+01 2.152738571166992188e+01 7.133880257606506348e-01 7.106835842132568359e+00 2.346067190170288086e+00 1.151143670082092285e+00
1.384000000000000000e+03 8.607579231262207031e+00 -1.689845466613769531e+01 1.518949747085571289e+00 1.071318054199218750e+01 3.669639110565185547e+00 2.698227405548095703e+00
1.385000000000000000e+03 4.197523880004882812e+01 -1.681199264526367188e+01 -6.128773093223571777e-01 8.674724578857421875e+00 2.418554067611694336e+00 -2.649302959442138672e+00
1.386000000000000000e+03 2.127340888977050781e+01 -9.812864303588867188e+00 -2.216244935989379883e+00 -1.684769243001937866e-01 -7.154165506362915039e-01 -1.584510207176208496e-01
1.387000000000000000e+03 2.004527664184570312e+01 -1.136942291259765625e+01 -5.133100509643554688e+00 -5.498774051666259766e-01 -1.704893350601196289e+00 2.432817220687866211e-01
1.388000000000000000e+03 5.059048461914062500e+01 -1.783369827270507812e+01 -7.543690800666809082e-01 4.986335277557373047e+00 1.269589900970458984e+00 -8.396067619323730469e-01
1.389000000000000000e+03 4.228922271728515625e+01 -2.004564285278320312e+01 1.925991535186767578e+00 1.217054939270019531e+01 4.228962421417236328e+00 -2.929354667663574219e+00
1.390000000000000000e+03 4.360890960693359375e+01 -1.751524543762207031e+01 -3.231047689914703369e-01 9.248027801513671875e+00 2.677476882934570312e+00 -1.512996196746826172e+00
1.391000000000000000e+03 6.975306701660156250e+01 3.052510070800781250e+01 -3.933328986167907715e-01 5.126477241516113281e+00 1.419943332672119141e+00 -2.063953429460525513e-01
1.392000000000000000e+03 7.123303222656250000e+01 7.669445037841796875e+00 3.934895992279052734e-01 1.055338287353515625e+01 3.284061670303344727e+00 8.526515960693359375e-02
1.393000000000000000e+03 7.488079071044921875e+01 -3.327824783325195312e+01 -4.088995456695556641e-01 7.517908573150634766e+00 2.132702589035034180e+00 -4.204406738281250000e-01
1.394000000000000000e+03 7.222134399414062500e+01 2.259956741333007812e+01 2.426898777484893799e-01 8.509124755859375000e+00 2.625544309616088867e+00 1.982634365558624268e-01
1.395000000000000000e+03 7.342209625244140625e+01 2.108341407775878906e+01 1.517793685197830200e-01 8.468077659606933594e+00 2.585957050323486328e+00 3.452059924602508545e-01
1.396000000000000000e+03 4.254488372802734375e+01 2.536468887329101562e+01 5.231190919876098633e-01 5.778645992279052734e+00 1.890529513359069824e+00 1.199728369712829590e+00
1.397000000000000000e+03 4.166206359863281250e+01 2.714957046508789062e+01 7.081991434097290039e-02 5.481705188751220703e+00 1.665757536888122559e+00 7.001673579216003418e-01
1.398000000000000000e+03 4.036170959472656250e+01 6.588403701782226562e+00 1.778461098670959473e+00 7.806495189666748047e+00 2.875486850738525391e+00 -1.649154305458068848e+00
1.399000000000000000e+03 7.090668487548828125e+01 -7.667611122131347656e+00 7.376879453659057617e-02 6.648709774017333984e+00 2.016743659973144531e+00 4.020954370498657227e-01
1.400000000000000000e+03 6.164486312866210938e+01 -1.955002975463867188e+01 -4.569450318813323975e-01 1.209020733833312988e+00 2.256227135658264160e-01 1.588885068893432617e+00
1.401000000000000000e+03 4.607390594482421875e+01 3.451197433471679688e+01 -5.745862722396850586e-01 3.329483985900878906e+00 8.264693021774291992e-01 6.095051169395446777e-01
1.402000000000000000e+03 5.439603424072265625e+01 -2.687508964538574219e+01 1.245154500007629395e+00 5.406579017639160156e+00 1.995519995689392090e+00 -7.023286223411560059e-01
1.403000000000000000e+03 5.487166595458984375e+01 -2.512491798400878906e+01 1.298716068267822266e+00 4.141720771789550781e+00 1.632131099700927734e+00 -1.789633482694625854e-01
1.404000000000000000e+03 1.755353164672851562e+01 -1.132096672058105469e+01 -4.503274440765380859e+00 1.517069935798645020e-01 -1.305470228195190430e+00 1.587362289428710938e+00
1.405000000000000000e+03 4.170228958129882812e+01 2.277974510192871094e+01 7.019537687301635742e-01 6.683957576751708984e+00 2.215773344039916992e+00 1.187059283256530762e+00
1.406000000000000000e+03 3.836353302001953125e+01 1.667063713073730469e+01 1.167151689529418945e+00 7.661174774169921875e+00 2.648498058319091797e+00 5.419375002384185791e-02
1.407000000000000000e+03 4.129493331909179688e+01 1.690994834899902344e+01 7.864046692848205566e-01 8.923959732055664062e+00 2.913109302520751953e+00 9.575698971748352051e-01
1.408000000000000000e+03 6.585047149658203125e+01 -1.198477935791015625e+01 9.059424996376037598e-01 2.826639890670776367e+00 1.119774699211120605e+00 1.205090641975402832e+00
1.409000000000000000e+03 6.853752136230468750e+01 -9.949764251708984375e+00 4.331458806991577148e-01 4.777411460876464844e+00 1.563167214393615723e+00 9.176147580146789551e-01
1.410000000000000000e+03 7.535926818847656250e+00 -2.899261093139648438e+01 -2.293210029602050781e+00 7.573865413665771484e+00 1.584196567535400391e+00 1.543572306632995605e+00
1.411000000000000000e+03 6.557505035400390625e+01 -1.823651313781738281e+01 -1.288393437862396240e-01 1.180419325828552246e+00 3.154740035533905029e-01 9.545061588287353516e-01
1.412000000000000000e+03 3.248529672622680664e+00 -1.988271713256835938e+01 9.652996063232421875e-01 4.169937610626220703e+00 1.540571212768554688e+00 6.855930089950561523e-01
1.413000000000000000e+03 7.229832172393798828e+00 -2.049359703063964844e+01 2.864728450775146484e+00 1.231208324432373047e+01 4.553043365478515625e+00 2.699558496475219727e+00
1.414000000000000000e+03 5.536251068115234375e+01 -3.199583816528320312e+01 2.728610754013061523e+00 9.777054786682128906e+00 3.751699447631835938e+00 -2.399093866348266602e+00
1.415000000000000000e+03 5.691318511962890625e+01 -2.373538780212402344e+01 1.328229904174804688e+00 2.344372987747192383e+00 1.101780891418457031e+00 9.872618317604064941e-01
1.416000000000000000e+03 2.161474800109863281e+01 -1.058398437500000000e+01 -3.781568288803100586e+00 -5.671728253364562988e-01 -1.304622292518615723e+00 -1.446163058280944824e-01
1.417000000000000000e+03 3.901429748535156250e+01 1.353147983551025391e+01 1.475417971611022949e+00 8.240937232971191406e+00 2.914906501770019531e+00 -3.589994311332702637e-01
1.418000000000000000e+03 4.378643417358398438e+01 -3.613966369628906250e+01 -2.051585197448730469e+00 5.653652667999267578e+00 1.080620288848876953e+00 2.066649794578552246e-01
1.419000000000000000e+03 6.824788665771484375e+01 -2.028695678710937500e+01 -9.422186017036437988e-01 6.688496470451354980e-01 -8.201067149639129639e-02 -5.444890260696411133e-01
1.420000000000000000e+03 2.620870208740234375e+01 -1.310328483581542969e+01 -4.064543247222900391e+00 2.440007627010345459e-01 -1.146162748336791992e+00 3.468660116195678711e-01
1.421000000000000000e+03 2.304286384582519531e+01 -1.078536796569824219e+01 -3.534074068069458008e+00 -1.932799369096755981e-01 -1.118206143379211426e+00 -3.591552376747131348e-01
1.422000000000000000e+03 7.204382324218750000e+01 2.557034873962402344e+01 3.715299069881439209e-01 7.897139549255371094e+00 2.480600833892822266e+00 2.215712964534759521e-01
1.423000000000000000e+03 7.191585540771484375e+01 2.713407897949218750e+01 2.767015695571899414e-01 7.408414363861083984e+00 2.305534839630126953e+00 2.612702548503875732e-01
1.424000000000000000e+03 7.244135284423828125e+01 7.781524658203125000e+00 2.295320183038711548e-01 9.830972671508789062e+00 3.018151283264160156e+00 4.326431155204772949e-01
1.425000000000000000e+03 7.110131072998046875e+01 -3.370569229125976562e+01 -7.920321226119995117e-01 5.458520889282226562e+00 1.399946570396423340e+00 7.680866718292236328e-01
1.426000000000000000e+03 1.068700599670410156e+01 -3.186898231506347656e+01 -2.324981689453125000e+00 2.521307706832885742e+00 5.889781191945075989e-02 -9.648557752370834351e-02
1.427000000000000000e+03 1.332780933380126953e+01 -3.378691482543945312e+01 -1.703154444694519043e+00 3.616297841072082520e-01 -4.024573862552642822e-01 2.379501163959503174e-01
1.428000000000000000e+03 1.500779533386230469e+01 -3.464301300048828125e+01 -1.474648118019104004e+00 -2.073356211185455322e-01 -5.045951008796691895e-01 5.883778929710388184e-01
1.429000000000000000e+03 1.191046714782714844e+01 -3.286232376098632812e+01 -2.009064197540283203e+00 1.293011069297790527e+00 -2.148158997297286987e-01 -2.090868353843688965e-02
1.430000000000000000e+03 5.189682388305664062e+01 -2.890646743774414062e+01 2.058776617050170898e+00 6.336194038391113281e+00 2.518491029739379883e+00 -2.291651010513305664e+00
1.431000000000000000e+03 5.214627075195312500e+01 -3.007405281066894531e+01 1.937442541122436523e+00 6.349024772644042969e+00 2.485940217971801758e+00 -1.834818243980407715e+00
1.432000000000000000e+03 4.928794860839843750e+01 -1.258736324310302734e+01 -7.244291901588439941e-01 5.870474338531494141e+00 1.543813586235046387e+00 -4.954771399497985840e-01
1.433000000000000000e+03 3.675032043457031250e+01 -3.646532821655273438e+01 -1.420530676841735840e+00 5.734275579452514648e-01 -2.541309297084808350e-01 4.588663280010223389e-01
1.434000000000000000e+03 6.689957427978515625e+01 -1.918956375122070312e+01 -3.115015029907226562e-01 8.660475015640258789e-01 1.663637906312942505e-01 3.653253912925720215e-01
1.435000000000000000e+03 5.696888351440429688e+01 4.118982315063476562e+01 8.676809817552566528e-02 -1.537310928106307983e-01 -2.008889988064765930e-02 7.327991724014282227e-02
1.436000000000000000e+03 5.838792037963867188e+01 3.807296752929687500e+01 -4.059230685234069824e-01 -3.065523207187652588e-01 -2.137426137924194336e-01 1.530273854732513428e-01
1.437000000000000000e+03 4.457424926757812500e+01 -3.420203399658203125e+01 -1.586386561393737793e+00 6.746850967407226562e+00 1.548139333724975586e+00 -2.587602138519287109e-01
1.438000000000000000e+03 7.683923339843750000e+01 -2.931409835815429688e+01 3.063313066959381104e-01 7.435518741607666016e+00 2.322555065155029297e+00 -5.434302091598510742e-01
1.439000000000000000e+03 7.302453613281250000e+01 -2.945315742492675781e+01 8.314822316169738770e-01 9.110194206237792969e+00 2.982502937316894531e+00 7.709893397986888885e-03
1.440000000000000000e+03 7.222788238525390625e+01 1.421113777160644531e+01 -5.027796328067779541e-02 8.980137825012207031e+00 2.678957939147949219e+00 1.223409846425056458e-01
1.441000000000000000e+03 7.104229736328125000e+01 1.428506278991699219e+01 2.117377370595932007e-01 9.103952407836914062e+00 2.794707059860229492e+00 2.403709739446640015e-01
1.442000000000000000e+03 5.775548171997070312e+01 -1.725556564331054688e+01 -2.164125680923461914e+00 1.463277041912078857e-01 -6.053393483161926270e-01 1.356279134750366211e+00
1.443000000000000000e+03 4.341574478149414062e+01 -2.056632232666015625e+01 2.883699178695678711e+00 1.089468574523925781e+01 4.133515357971191406e+00 -2.003541469573974609e+00
1.444000000000000000e+03 4.318054962158203125e+01 2.972908592224121094e+01 -1.551381349563598633e-01 4.649430751800537109e+00 1.348287820816040039e+00 7.561522722244262695e-01
1.445000000000000000e+03 1.520771217346191406e+01 -1.265483474731445312e+01 -4.674379348754882812e+00 2.037559986114501953e+00 -7.910458445549011230e-01 2.198915481567382812e+00
1.446000000000000000e+03 7.563114166259765625e+01 -2.562364006042480469e+01 8.057951927185058594e-01 7.889240264892578125e+00 2.608510732650756836e+00 4.003925621509552002e-01
1.447000000000000000e+03 6.971891021728515625e+01 3.276090240478515625e+01 -8.092101216316223145e-01 4.503956317901611328e+00 1.108423829078674316e+00 -2.452876716852188110e-01
1.448000000000000000e+03 3.906618881225585938e+01 -3.559959411621093750e+01 -1.655873417854309082e+00 2.167632818222045898e+00 1.535277962684631348e-01 1.085433721542358398e+00
1.449000000000000000e+03 7.337874603271484375e+01 -1.744840431213378906e+01 -7.609657645225524902e-01 6.567681789398193359e+00 1.742014765739440918e+00 -4.870351850986480713e-01
1.450000000000000000e+03 3.008597373962402344e+00 -2.743599700927734375e+01 -2.155645638704299927e-01 6.948154449462890625e+00 2.019777059555053711e+00 2.688055038452148438e+00
1.451000000000000000e+03 7.264154434204101562e+00 -2.545318984985351562e+01 6.047357320785522461e-01 1.096675491333007812e+01 3.471447229385375977e+00 2.206593990325927734e+00
1.452000000000000000e+03 9.592065811157226562e+00 -3.084534263610839844e+01 -2.630453348159790039e+00 4.307698726654052734e+00 5.031736493110656738e-01 -7.810197025537490845e-02
1.453000000000000000e+03 7.181288909912109375e+01 2.884840583801269531e+01 -3.875651955604553223e-02 6.854198455810546875e+00 2.044632673263549805e+00 3.633633255958557129e-01
1.454000000000000000e+03 7.378277587890625000e+01 3.304749298095703125e+01 -4.290891289710998535e-01 7.389425754547119141e+00 2.088100910186767578e+00 4.275537431240081787e-01
1.455000000000000000e+03 5.008817672729492188e+01 3.429163742065429688e+01 -2.999692261219024658e-01 1.756627082824707031e+00 4.369973540306091309e-01 6.119349598884582520e-01
1.456000000000000000e+03 5.053828048706054688e+01 3.978992843627929688e+01 -4.975408315658569336e-01 1.677893400192260742e+00 3.541057407855987549e-01 1.949329227209091187e-01
1.457000000000000000e+03 4.025402069091796875e+01 8.503004074096679688e+00 1.990452647209167480e+00 8.372578620910644531e+00 3.108909606933593750e+00 -1.349182128906250000e+00
1.458000000000000000e+03 3.895146942138671875e+01 -1.635843086242675781e+01 -6.703276634216308594e-01 5.159090995788574219e+00 1.346628904342651367e+00 -3.177516460418701172e+00
1.459000000000000000e+03 4.986687088012695312e+01 -1.411876487731933594e+01 -1.085616350173950195e+00 5.603622436523437500e+00 1.355401754379272461e+00 -2.832389473915100098e-01
1.460000000000000000e+03 6.133213043212890625e+01 3.827902603149414062e+01 -2.385184913873672485e-01 -2.366158664226531982e-01 -1.425403058528900146e-01 3.573007285594940186e-01
1.461000000000000000e+03 5.675445938110351562e+01 -1.811442756652832031e+01 -1.086255550384521484e+00 -1.652542129158973694e-02 -3.308342695236206055e-01 9.043627381324768066e-01
1.462000000000000000e+03 5.744916152954101562e+01 -1.905987167358398438e+01 -4.993219971656799316e-01 5.437222719192504883e-01 1.332008745521306992e-02 1.260501861572265625e+00
1.463000000000000000e+03 5.471327209472656250e+01 -1.803606605529785156e+01 -1.105506181716918945e+00 5.460259914398193359e-01 -1.678440421819686890e-01 -1.931120008230209351e-01
1.464000000000000000e+03 5.371285247802734375e+01 -1.706021690368652344e+01 -1.981227636337280273e+00 1.471489191055297852e+00 -1.529215425252914429e-01 -6.387824416160583496e-01
1.465000000000000000e+03 9.394081115722656250e+00 -1.580178928375244141e+01 9.154641032218933105e-01 9.846719741821289062e+00 3.228655099868774414e+00 2.849411725997924805e+00
1.466000000000000000e+03 4.722172927856445312e+01 -2.884440612792968750e+01 1.358342289924621582e+00 7.681073188781738281e+00 2.711824655532836914e+00 -2.377621173858642578e+00
1.467000000000000000e+03 1.388827133178710938e+01 -1.248872280120849609e+01 -3.464838266372680664e+00 4.044460296630859375e+00 1.738865673542022705e-01 3.184515237808227539e+00
1.468000000000000000e+03 4.027280426025390625e+01 -1.598255157470703125e+01 -6.098949313163757324e-01 6.895957946777343750e+00 1.885818958282470703e+00 -3.146810054779052734e+00
1.469000000000000000e+03 5.981863403320312500e+01 -3.515496826171875000e+01 -5.418216437101364136e-02 8.075625896453857422e-01 2.260141372680664062e-01 -1.112951278686523438e+00
1.470000000000000000e+03 6.288358688354492188e+01 -2.113166427612304688e+01 -2.374563366174697876e-01 9.436408877372741699e-01 2.118553668260574341e-01 1.254685282707214355e+00
1.471000000000000000e+03 6.560837554931640625e+01 -1.945162391662597656e+01 -5.609366893768310547e-01 8.049594163894653320e-01 7.320681959390640259e-02 1.148993968963623047e+00
1.472000000000000000e+03 7.316533660888671875e+01 -2.101124191284179688e+01 -9.980149865150451660e-01 7.569503307342529297e+00 1.971446514129638672e+00 6.558156758546829224e-02
1.473000000000000000e+03 7.372341156005859375e+01 -2.372297859191894531e+01 7.982890605926513672e-01 8.397099494934082031e+00 2.758616447448730469e+00 5.735950469970703125e-01
1.474000000000000000e+03 4.443199920654296875e+01 -3.114072418212890625e+01 -4.556283652782440186e-01 8.233126640319824219e+00 2.333249568939208984e+00 -1.111300110816955566e+00
1.475000000000000000e+03 4.609951019287109375e+01 -3.059882354736328125e+01 4.787086844444274902e-01 7.811674594879150391e+00 2.487114906311035156e+00 -1.759162068367004395e+00
1.476000000000000000e+03 4.422818756103515625e+01 -2.215528488159179688e+01 3.180415630340576172e+00 1.083145618438720703e+01 4.203561782836914062e+00 -2.212781190872192383e+00
1.477000000000000000e+03 4.244978713989257812e+01 -1.798851394653320312e+01 -4.968223161995410919e-03 1.017518711090087891e+01 3.051065683364868164e+00 -2.445644378662109375e+00
1.478000000000000000e+03 6.855431365966796875e+01 3.583914566040039062e+01 -5.656273961067199707e-01 3.176543474197387695e+00 7.832748293876647949e-01 -4.125449955463409424e-01
1.479000000000000000e+03 5.112727165222167969e+00 -4.047895812988281250e+01 5.953408777713775635e-02 7.339945316314697266e+00 2.219843864440917969e+00 2.391546666622161865e-01
1.480000000000000000e+03 5.567255020141601562e+01 -1.894348335266113281e+01 -6.104116439819335938e-01 2.654608190059661865e-01 -1.034852489829063416e-01 3.506816923618316650e-01
1.481000000000000000e+03 5.346595764160156250e+01 -3.417080688476562500e+01 4.412740170955657959e-01 7.246465682983398438e+00 2.306321859359741211e+00 -8.179740309715270996e-01
1.482000000000000000e+03 5.321092605590820312e+00 3.987624740600585938e+01 -8.451131731271743774e-02 1.764637589454650879e+00 5.040378570556640625e-01 -5.011199414730072021e-02
1.483000000000000000e+03 5.551457214355468750e+01 -3.562635421752929688e+01 -5.203260779380798340e-01 6.338653564453125000e+00 1.745498180389404297e+00 -1.414676785469055176e+00
1.484000000000000000e+03 5.588368225097656250e+01 -3.729758834838867188e+01 -8.331245183944702148e-01 5.692909240722656250e+00 1.457935333251953125e+00 -1.253099918365478516e+00
1.485000000000000000e+03 6.586455535888671875e+01 -3.764232635498046875e+01 4.480133950710296631e-01 8.729346990585327148e-01 3.962844312191009521e-01 3.566202223300933838e-01
1.486000000000000000e+03 1.195842647552490234e+01 1.363998174667358398e+00 4.124592542648315430e-01 5.018659114837646484e+00 1.629335522651672363e+00 -2.127280473709106445e+00
1.487000000000000000e+03 1.289312171936035156e+01 9.407112598419189453e-01 -7.310609519481658936e-02 1.007901096343994141e+01 3.001771450042724609e+00 -1.088554382324218750e+00
1.488000000000000000e+03 1.165388679504394531e+01 1.922138214111328125e+00 5.254209041595458984e-01 4.054125308990478516e+00 1.373863816261291504e+00 -1.835571408271789551e+00
1.489000000000000000e+03 1.132325649261474609e+01 2.260004043579101562e+00 5.566999912261962891e-01 3.309830904006958008e+00 1.159959316253662109e+00 -1.622847557067871094e+00
1.490000000000000000e+03 1.341477298736572266e+01 1.256278991699218750e+00 8.124934136867523193e-02 1.064026737213134766e+01 3.216454982757568359e+00 4.733285009860992432e-01
1.491000000000000000e+03 1.525848579406738281e+01 -4.083201587200164795e-01 7.196104049682617188e+00 8.321557044982910156e+00 4.655298233032226562e+00 4.650938510894775391e+00
1.492000000000000000e+03 1.426666069030761719e+01 1.235715895891189575e-01 4.296759128570556641e+00 1.225558090209960938e+01 4.965702056884765625e+00 4.935977935791015625e+00
1.493000000000000000e+03 1.507800960540771484e+01 -1.557008475065231323e-01 6.354557514190673828e+00 9.130407333374023438e+00 4.645489215850830078e+00 4.991693973541259766e+00
1.494000000000000000e+03 1.475201702117919922e+01 5.070700049400329590e-01 3.636445999145507812e+00 1.025126552581787109e+01 4.166313171386718750e+00 4.448973655700683594e+00
1.495000000000000000e+03 1.237564182281494141e+01 -3.345581054687500000e+00 4.321577072143554688e+00 1.019765090942382812e+01 4.355768203735351562e+00 6.521830558776855469e+00
1.496000000000000000e+03 1.465307807922363281e+01 -1.311619162559509277e+00 1.062761116027832031e+01 9.270096778869628906e+00 5.969312191009521484e+00 3.421735286712646484e+00
1.497000000000000000e+03 1.446014976501464844e+01 -2.664545297622680664e+00 7.061442375183105469e+00 1.057543087005615234e+01 5.291061878204345703e+00 1.062566399574279785e+00
1.498000000000000000e+03 1.393494415283203125e+01 -2.892273902893066406e+00 5.737119197845458984e+00 1.245344257354736328e+01 5.457168579101562500e+00 1.687893152236938477e+00
1.499000000000000000e+03 1.357938003540039062e+01 -3.422960519790649414e+00 3.818343639373779297e+00 1.196810531616210938e+01 4.735934734344482422e+00 3.128708362579345703e+00
1.500000000000000000e+03 1.055298614501953125e+01 -2.881393432617187500e+00 5.596697330474853516e+00 2.261588573455810547e+00 2.357485771179199219e+00 4.553480625152587891e+00
1.501000000000000000e+03 1.099144172668457031e+01 -2.431552410125732422e+00 6.932892799377441406e+00 2.009001255035400391e+00 2.682568311691284180e+00 4.559012413024902344e+00
1.502000000000000000e+03 1.075568008422851562e+01 2.422029972076416016e+00 6.709498763084411621e-01 2.140149593353271484e+00 8.433298468589782715e-01 -1.357854723930358887e+00
1.503000000000000000e+03 8.910412788391113281e+00 -2.491789340972900391e+00 3.095953941345214844e+00 5.182618498802185059e-01 1.084264755249023438e+00 1.849762082099914551e+00
1.504000000000000000e+03 9.517976760864257812e+00 3.410909175872802734e+00 6.741951704025268555e-01 1.248463511466979980e+00 5.767976045608520508e-01 -7.090469002723693848e-01
1.505000000000000000e+03 3.445873498916625977e+00 6.638154506683349609e+00 1.958496421575546265e-01 -5.346017330884933472e-02 4.271684214472770691e-02 1.142942681908607483e-01
1.506000000000000000e+03 7.568682670593261719e+00 3.015341997146606445e+00 2.681160271167755127e-01 2.382743209600448608e-01 1.519171148538589478e-01 4.382672533392906189e-02
1.507000000000000000e+03 3.678494215011596680e+00 4.764996051788330078e+00 1.321317106485366821e-01 -9.049451351165771484e-02 1.249116007238626480e-02 2.542488276958465576e-01
1.508000000000000000e+03 4.314787387847900391e+00 4.338937759399414062e+00 1.530847549438476562e-01 -3.259292989969253540e-02 3.614754602313041687e-02 2.710011005401611328e-01
1.509000000000000000e+03 8.950138092041015625e+00 2.879399299621582031e+00 4.972043335437774658e-01 6.456667780876159668e-01 3.428613245487213135e-01 -3.729113042354583740e-01
1.510000000000000000e+03 7.588958740234375000e+00 3.681395769119262695e+00 4.406382143497467041e-01 3.988784253597259521e-01 2.518549859523773193e-01 -7.820706069469451904e-02
1.511000000000000000e+03 6.896313190460205078e+00 3.736055135726928711e+00 3.442674875259399414e-01 2.640788555145263672e-01 1.825039088726043701e-01 6.412079185247421265e-02
1.512000000000000000e+03 2.996202707290649414e+00 5.389986038208007812e+00 1.107083559036254883e-01 -1.818703860044479370e-01 -2.134860865771770477e-02 2.160576879978179932e-01
1.513000000000000000e+03 5.373908996582031250e+00 -4.320248126983642578e+00 8.367945551872253418e-01 9.504865407943725586e-01 5.361843109130859375e-01 1.012534141540527344e+00
1.514000000000000000e+03 6.073405742645263672e+00 -4.051616191864013672e+00 1.183354258537292480e+00 9.510077834129333496e-01 6.403086185455322266e-01 1.291412830352783203e+00
1.515000000000000000e+03 6.760098457336425781e+00 -3.939591407775878906e+00 1.526551246643066406e+00 1.021763920783996582e+00 7.644945979118347168e-01 1.615479826927185059e+00
1.516000000000000000e+03 3.571196556091308594e+00 -6.620681762695312500e+00 1.676998436450958252e-01 1.297554373741149902e+00 4.395762681961059570e-01 7.499543428421020508e-01
1.517000000000000000e+03 2.722584247589111328e+00 -5.217724323272705078e+00 2.487352788448333740e-01 5.576338171958923340e-01 2.419107258319854736e-01 3.482941091060638428e-01
1.518000000000000000e+03 8.141564369201660156e+00 -3.184012651443481445e+00 2.511651992797851562e+00 8.304817676544189453e-01 1.002640128135681152e+00 2.009072065353393555e+00
1.519000000000000000e+03 9.566337585449218750e+00 2.820975542068481445e+00 6.083198785781860352e-01 9.785636663436889648e-01 4.760650694370269775e-01 -6.423132419586181641e-01
1.520000000000000000e+03 8.943274497985839844e+00 4.152149677276611328e+00 6.496047973632812500e-01 1.132495641708374023e+00 5.346301198005676270e-01 -5.421596765518188477e-01
1.521000000000000000e+03 1.530867385864257812e+01 -1.161608028411865234e+01 -4.030145168304443359e+00 2.728013038635253906e+00 -3.906395733356475830e-01 3.011609315872192383e+00
1.522000000000000000e+03 3.097025680541992188e+01 -1.365657138824462891e+01 -2.226447343826293945e+00 1.039839506149291992e+00 -3.559823334217071533e-01 -5.005863904953002930e-01
1.523000000000000000e+03 6.817806243896484375e+01 -1.906980133056640625e+01 -4.008063673973083496e-01 1.674836158752441406e+00 3.822089433670043945e-01 -2.530574202537536621e-01
1.524000000000000000e+03 3.141741561889648438e+01 -1.256349945068359375e+01 -1.739353775978088379e+00 1.419275045394897461e+00 -9.602361172437667847e-02 -1.006497025489807129e+00
1.525000000000000000e+03 5.979894638061523438e+01 -2.169972610473632812e+01 5.078122019767761230e-01 1.114675045013427734e+00 4.867461919784545898e-01 1.433028101921081543e+00
1.526000000000000000e+03 1.124609184265136719e+01 -1.226302337646484375e+01 -2.504205942153930664e+00 7.346531867980957031e+00 1.452697753906250000e+00 3.670976638793945312e+00
1.527000000000000000e+03 8.476266860961914062e+00 -1.511459445953369141e+01 -1.976629048585891724e-01 9.082312583923339844e+00 2.665394783020019531e+00 1.883661270141601562e+00
1.528000000000000000e+03 4.307479476928710938e+01 -1.873653173446655273e+00 4.318181574344635010e-01 6.080906391143798828e+00 1.953817367553710938e+00 -2.451932907104492188e+00
1.529000000000000000e+03 4.536472702026367188e+01 -5.016569137573242188e+00 1.367042809724807739e-01 6.105055809020996094e+00 1.872528076171875000e+00 -2.224007844924926758e+00
1.530000000000000000e+03 4.453516387939453125e+01 2.970204734802246094e+01 4.354039672762155533e-03 4.342662334442138672e+00 1.304104924201965332e+00 1.033327698707580566e+00
1.531000000000000000e+03 4.495291900634765625e+01 -3.788555622100830078e+00 2.648252546787261963e-01 6.092889785766601562e+00 1.907314538955688477e+00 -2.336874485015869141e+00
1.532000000000000000e+03 4.606762313842773438e+01 -3.325464010238647461e+00 4.401701688766479492e-01 6.056046009063720703e+00 1.948864936828613281e+00 -2.400429010391235352e+00
1.533000000000000000e+03 1.028456878662109375e+01 -1.474717998504638672e+01 -1.939622759819030762e-01 9.029048919677734375e+00 2.650525808334350586e+00 2.965610742568969727e+00
1.534000000000000000e+03 4.347610855102539062e+01 -3.013008356094360352e+00 2.663098275661468506e-01 6.078144550323486328e+00 1.903336286544799805e+00 -2.380243062973022461e+00
1.535000000000000000e+03 1.939485359191894531e+01 -1.053322792053222656e+01 -3.633190393447875977e+00 -1.797776073217391968e-01 -1.143890380859375000e+00 6.325511932373046875e-01
1.536000000000000000e+03 1.853961563110351562e+01 -1.100046730041503906e+01 -4.246388435363769531e+00 -1.651314198970794678e-01 -1.323455929756164551e+00 9.555501341819763184e-01
1.537000000000000000e+03 4.353277587890625000e+01 -2.631294131278991699e-01 6.949306130409240723e-01 6.221764087677001953e+00 2.075008392333984375e+00 -2.568181037902832031e+00
1.538000000000000000e+03 4.198802566528320312e+01 4.744418621063232422e+00 1.261921286582946777e+00 7.796872138977050781e+00 2.717638015747070312e+00 -2.411138296127319336e+00
1.539000000000000000e+03 7.217729949951171875e+01 1.160224533081054688e+01 -4.501568377017974854e-01 9.268682479858398438e+00 2.645557641983032227e+00 1.497054398059844971e-01
1.540000000000000000e+03 7.476509857177734375e+01 4.583112239837646484e+00 4.010889530181884766e-01 8.304768562316894531e+00 2.611757278442382812e+00 3.793963789939880371e-01
1.541000000000000000e+03 7.253336334228515625e+01 3.760891914367675781e+00 5.852189660072326660e-01 1.034455108642578125e+01 3.278931140899658203e+00 4.813000559806823730e-01
1.542000000000000000e+03 4.665003585815429688e+01 -8.973882675170898438e+00 -4.190287292003631592e-01 6.381837368011474609e+00 1.788842678070068359e+00 -1.486520051956176758e+00
1.543000000000000000e+03 4.766048049926757812e+01 -1.163759040832519531e+01 -7.901141047477722168e-01 6.475379467010498047e+00 1.705579638481140137e+00 -8.453210592269897461e-01
1.544000000000000000e+03 7.458409118652343750e+01 1.272845745086669922e+01 -1.984689980745315552e-01 8.435947418212890625e+00 2.471243619918823242e+00 3.965998291969299316e-01
1.545000000000000000e+03 7.714511108398437500e+01 2.515660285949707031e+00 2.201098948717117310e-01 6.677116394042968750e+00 2.069167852401733398e+00 5.535061657428741455e-02
1.546000000000000000e+03 7.568994140625000000e+01 -2.092065513134002686e-01 3.409552574157714844e-01 7.464158058166503906e+00 2.341534137725830078e+00 -2.698201835155487061e-01
1.547000000000000000e+03 7.347751617431640625e+01 5.329133033752441406e+00 4.817480742931365967e-01 9.408305168151855469e+00 2.967015981674194336e+00 4.888331294059753418e-01
1.548000000000000000e+03 7.585924530029296875e+01 4.974802017211914062e+00 2.825501859188079834e-01 7.609104156494140625e+00 2.367496252059936523e+00 3.805778324604034424e-01
1.549000000000000000e+03 7.277811431884765625e+01 2.304313182830810547e+00 7.228291034698486328e-01 9.846397399902343750e+00 3.170768022537231445e+00 4.043145477771759033e-01
1.550000000000000000e+03 7.443689727783203125e+01 5.824235916137695312e+00 3.647305667400360107e-01 8.585034370422363281e+00 2.684929609298706055e+00 5.206507444381713867e-01
1.551000000000000000e+03 7.543086242675781250e+01 9.724241256713867188e+00 -8.713667839765548706e-02 8.113388061523437500e+00 2.407875537872314453e+00 5.696498751640319824e-01
1.552000000000000000e+03 7.554213714599609375e+01 -7.250082969665527344e+00 -4.253035783767700195e-02 7.108419418334960938e+00 2.119766712188720703e+00 -5.908619165420532227e-01
1.553000000000000000e+03 7.690462493896484375e+01 -5.825222492218017578e+00 -1.577250845730304718e-02 6.991146564483642578e+00 2.092612266540527344e+00 -5.757887959480285645e-01
1.554000000000000000e+03 7.263803100585937500e+01 -3.594581604003906250e+00 2.279523164033889771e-01 8.217019081115722656e+00 2.533491611480712891e+00 8.823393844068050385e-03
1.555000000000000000e+03 7.565882873535156250e+01 1.122938156127929688e+01 -1.584282666444778442e-01 8.026336669921875000e+00 2.360372543334960938e+00 4.855286777019500732e-01
1.556000000000000000e+03 7.450601196289062500e+01 1.139986801147460938e+01 -2.225095629692077637e-01 8.484491348266601562e+00 2.478594541549682617e+00 4.546573758125305176e-01
1.557000000000000000e+03 7.573597717285156250e+01 -4.507767677307128906e+00 4.489644616842269897e-02 7.222179889678955078e+00 2.180122852325439453e+00 -5.578082799911499023e-01
1.558000000000000000e+03 7.309728240966796875e+01 -2.172541618347167969e+00 3.958142399787902832e-01 8.492591857910156250e+00 2.666521787643432617e+00 -6.754296272993087769e-02
1.559000000000000000e+03 7.344793701171875000e+01 1.965182685852050781e+01 9.242121875286102295e-02 8.526953697204589844e+00 2.585812330245971680e+00 3.496590852737426758e-01
1.560000000000000000e+03 7.582196807861328125e+01 1.672853660583496094e+01 2.651588059961795807e-02 8.004714965820312500e+00 2.409369230270385742e+00 3.379060029983520508e-01
1.561000000000000000e+03 7.697502899169921875e+01 1.950795364379882812e+01 4.200004786252975464e-02 7.896068572998046875e+00 2.381420612335205078e+00 3.284561932086944580e-01
1.562000000000000000e+03 7.345785522460937500e+01 1.685103988647460938e+01 8.362594246864318848e-02 8.556505203247070312e+00 2.592039108276367188e+00 3.560664057731628418e-01
1.563000000000000000e+03 7.602106475830078125e+01 -1.431763076782226562e+01 -2.018758654594421387e-01 7.245054721832275391e+00 2.112953662872314453e+00 -3.592297136783599854e-01
1.564000000000000000e+03 7.704748535156250000e+01 -1.275712013244628906e+01 -9.718072414398193359e-02 7.464083671569824219e+00 2.210070848464965820e+00 -3.914014995098114014e-01
1.565000000000000000e+03 7.029867553710937500e+01 -9.000478744506835938e+00 1.658392995595932007e-01 5.925024986267089844e+00 1.827259182929992676e+00 4.634156227111816406e-01
1.566000000000000000e+03 7.576493835449218750e+01 -1.146735191345214844e+01 -1.084244325757026672e-01 7.069865703582763672e+00 2.088432550430297852e+00 -4.993853569030761719e-01
1.567000000000000000e+03 7.699186706542968750e+01 -1.966595458984375000e+01 -3.379683494567871094e-01 7.807401657104492188e+00 2.240830183029174805e+00 4.314078688621520996e-01
1.568000000000000000e+03 7.419767761230468750e+01 -1.825029754638671875e+01 -8.560104370117187500e-01 7.152319431304931641e+00 1.888892650604248047e+00 -2.082274258136749268e-01
1.569000000000000000e+03 7.686157226562500000e+01 -2.520088577270507812e+01 5.060715079307556152e-01 7.515745162963867188e+00 2.406544923782348633e+00 5.052390098571777344e-01
1.570000000000000000e+03 7.609398651123046875e+01 -2.674571228027343750e+01 7.726327776908874512e-01 7.753505706787109375e+00 2.557841539382934570e+00 1.025174111127853394e-01
1.571000000000000000e+03 7.385993194580078125e+01 -2.186813545227050781e+01 -6.465155482292175293e-01 8.249908447265625000e+00 2.281018018722534180e+00 3.673651516437530518e-01
1.572000000000000000e+03 7.536859130859375000e+01 -2.175996589660644531e+01 -3.239984512329101562e-01 7.915202617645263672e+00 2.277361154556274414e+00 7.194941043853759766e-01
1.573000000000000000e+03 7.585558319091796875e+01 -1.789428901672363281e+01 -5.118229985237121582e-01 7.544136524200439453e+00 2.109694242477416992e+00 2.785428427159786224e-02
1.574000000000000000e+03 7.467835998535156250e+01 -2.643059539794921875e+01 1.153948783874511719e+00 8.642885208129882812e+00 2.939050197601318359e+00 1.919884681701660156e-01
1.575000000000000000e+03 7.476881408691406250e+01 -2.457853889465332031e+01 9.817166924476623535e-01 8.486678123474121094e+00 2.840518474578857422e+00 5.913851857185363770e-01
1.576000000000000000e+03 7.562828063964843750e+01 -2.341763305664062500e+01 2.884197533130645752e-01 7.845118999481201172e+00 2.440061807632446289e+00 9.445397853851318359e-01
1.577000000000000000e+03 7.511806488037109375e+01 3.502472305297851562e+01 -3.731260597705841064e-01 7.940117359161376953e+00 2.270097255706787109e+00 2.489146292209625244e-01
1.578000000000000000e+03 7.669259643554687500e+01 3.599924468994140625e+01 -2.300729453563690186e-01 9.000896453857421875e+00 2.631247043609619141e+00 1.707797944545745850e-01
1.579000000000000000e+03 7.165055847167968750e+01 3.302182006835937500e+01 -6.644947528839111328e-01 5.899240970611572266e+00 1.570423841476440430e+00 1.484662890434265137e-01
1.580000000000000000e+03 7.455270385742187500e+01 2.246689987182617188e+01 1.905142515897750854e-01 8.221050262451171875e+00 2.523469448089599609e+00 4.501560628414154053e-01
1.581000000000000000e+03 7.331636047363281250e+01 2.400248908996582031e+01 2.960484325885772705e-01 8.149101257324218750e+00 2.533545017242431641e+00 3.973997235298156738e-01
1.582000000000000000e+03 7.444898223876953125e+01 2.680980110168457031e+01 1.294293850660324097e-01 7.949437618255615234e+00 2.423660039901733398e+00 6.816508769989013672e-01
1.583000000000000000e+03 7.446961975097656250e+01 2.537279129028320312e+01 2.170625180006027222e-01 8.018302917480468750e+00 2.470609664916992188e+00 6.187873482704162598e-01
1.584000000000000000e+03 6.828328704833984375e+01 -1.669438171386718750e+01 5.051866173744201660e-02 2.863081932067871094e+00 8.740801811218261719e-01 -1.539217233657836914e-01
1.585000000000000000e+03 7.109833526611328125e+01 -1.663344955444335938e+01 -4.510119855403900146e-01 4.901452064514160156e+00 1.335132002830505371e+00 -7.404960393905639648e-01
1.586000000000000000e+03 7.520685577392578125e+01 -3.465108871459960938e+01 -4.490385055541992188e-01 7.319713115692138672e+00 2.061202287673950195e+00 -3.922329843044281006e-01
1.587000000000000000e+03 7.686726379394531250e+01 3.067433547973632812e+01 -9.151858836412429810e-02 8.771728515625000000e+00 2.604063034057617188e+00 5.942329168319702148e-01
1.588000000000000000e+03 7.570655822753906250e+01 2.665904998779296875e+01 9.353903681039810181e-02 8.190617561340332031e+00 2.485246896743774414e+00 7.015153765678405762e-01
1.589000000000000000e+03 7.672899627685546875e+01 3.207039260864257812e+01 -1.871393322944641113e-01 8.816934585571289062e+00 2.588938713073730469e+00 5.106738209724426270e-01
1.590000000000000000e+03 7.575736999511718750e+01 2.935514450073242188e+01 -4.283453524112701416e-02 8.293274879455566406e+00 2.475132226943969727e+00 7.114666104316711426e-01
1.591000000000000000e+03 7.678350830078125000e+01 -3.078994941711425781e+01 1.390295922756195068e-01 7.541433811187744141e+00 2.304138898849487305e+00 -6.974328756332397461e-01
1.592000000000000000e+03 7.548006439208984375e+01 -3.122338104248046875e+01 7.981976866722106934e-02 7.763727188110351562e+00 2.353064060211181641e+00 -6.740994453430175781e-01
1.593000000000000000e+03 7.365988922119140625e+01 -3.066370010375976562e+01 3.278586268424987793e-01 8.251239776611328125e+00 2.573729515075683594e+00 -2.070043832063674927e-01
1.594000000000000000e+03 7.572645568847656250e+01 3.066267585754394531e+01 -1.658393293619155884e-01 8.328620910644531250e+00 2.448834419250488281e+00 6.542304754257202148e-01
1.595000000000000000e+03 7.598654937744140625e+01 1.167913794517517090e+00 3.995980918407440186e-01 7.377550601959228516e+00 2.333144426345825195e+00 -8.855467289686203003e-02
1.596000000000000000e+03 6.583340454101562500e+01 -1.397845554351806641e+01 6.070870161056518555e-01 2.406964063644409180e+00 9.042153358459472656e-01 8.648129701614379883e-01
1.597000000000000000e+03 7.342918395996093750e+01 1.057123184204101562e+00 7.380436658859252930e-01 9.122665405273437500e+00 2.958212614059448242e+00 1.858149766921997070e-01
1.598000000000000000e+03 1.645579528808593750e+01 -1.154024505615234375e+01 -4.507525920867919922e+00 1.212592601776123047e+00 -9.884800314903259277e-01 2.361641407012939453e+00
1.599000000000000000e+03 7.227658843994140625e+01 1.693463706970214844e+01 8.835788071155548096e-02 8.947120666503906250e+00 2.710643529891967773e+00 3.709807991981506348e-01
1.600000000000000000e+03 7.344546508789062500e+01 1.548287391662597656e+01 6.745103746652603149e-03 8.632065773010253906e+00 2.591643095016479492e+00 2.801479399204254150e-01
1.601000000000000000e+03 7.228820037841796875e+01 1.832059860229492188e+01 4.201862961053848267e-02 8.856435775756835938e+00 2.669536352157592773e+00 3.248890638351440430e-01
1.602000000000000000e+03 7.379053497314453125e+01 -3.742403030395507812e+01 -3.244972825050354004e-01 6.290380954742431641e+00 1.789765000343322754e+00 4.333148151636123657e-02
1.603000000000000000e+03 4.737095642089843750e+01 -7.167077541351318359e+00 5.799077078700065613e-02 6.182881355285644531e+00 1.872261643409729004e+00 -1.776530385017395020e+00
1.604000000000000000e+03 4.621497344970703125e+01 -7.613124847412109375e+00 -1.965501308441162109e-01 6.256001472473144531e+00 1.817835330963134766e+00 -1.801564693450927734e+00
1.605000000000000000e+03 3.914005041122436523e+00 -1.541249084472656250e+01 -8.045921474695205688e-02 4.227005481719970703e+00 1.243963837623596191e+00 -1.321117132902145386e-01
1.606000000000000000e+03 4.173635482788085938e+00 2.101581001281738281e+01 -1.271399110555648804e-02 9.363163709640502930e-01 2.770807147026062012e-01 -3.252460658550262451e-01
1.607000000000000000e+03 6.949319362640380859e+00 -2.701180458068847656e+01 -1.048714041709899902e+00 9.376085281372070312e+00 2.498211383819580078e+00 2.603292465209960938e+00
1.608000000000000000e+03 5.478100299835205078e+00 -2.208571243286132812e+01 2.071559190750122070e+00 8.432623863220214844e+00 3.151254892349243164e+00 2.281134366989135742e+00
1.609000000000000000e+03 2.926262140274047852e+00 -1.705569458007812500e+01 2.814569771289825439e-01 3.157863616943359375e+00 1.031796097755432129e+00 -2.143892347812652588e-01
1.610000000000000000e+03 4.335196971893310547e+00 -1.803785324096679688e+01 8.278720974922180176e-01 5.598134517669677734e+00 1.927801966667175293e+00 3.244815766811370850e-01
1.611000000000000000e+03 5.788575172424316406e+00 -2.038646697998046875e+01 2.247907638549804688e+00 8.856721878051757812e+00 3.331388711929321289e+00 1.593284726142883301e+00
1.612000000000000000e+03 3.319041490554809570e+00 -2.472832870483398438e+01 4.303622543811798096e-01 6.092278003692626953e+00 1.956792116165161133e+00 2.778290748596191406e+00
1.613000000000000000e+03 4.590279102325439453e+00 -2.490949440002441406e+01 6.303165555000305176e-01 7.477332592010498047e+00 2.432294607162475586e+00 3.156281232833862305e+00
1.614000000000000000e+03 4.355314731597900391e+00 -2.634346771240234375e+01 -7.328011840581893921e-02 7.640813350677490234e+00 2.270259857177734375e+00 3.287438631057739258e+00
1.615000000000000000e+03 7.842867851257324219e+00 -1.793839645385742188e+01 1.787518739700317383e+00 1.085815906524658203e+01 3.793703317642211914e+00 2.327132463455200195e+00
1.616000000000000000e+03 2.986652851104736328e+00 1.991625404357910156e+01 -6.083901040256023407e-03 5.866553783416748047e-01 1.741714477539062500e-01 -2.565939426422119141e-01
1.617000000000000000e+03 4.235397815704345703e+00 2.239012908935546875e+01 -1.521278917789459229e-02 1.026275515556335449e+00 3.033187985420227051e-01 -3.221016824245452881e-01
1.618000000000000000e+03 4.498242855072021484e+00 2.531487846374511719e+01 -2.477870881557464600e-02 1.229639887809753418e+00 3.614583611488342285e-01 -3.097027242183685303e-01
1.619000000000000000e+03 4.687833786010742188e+00 2.695847511291503906e+01 -3.790875524282455444e-02 1.339539289474487305e+00 3.904891610145568848e-01 -2.994089424610137939e-01
1.620000000000000000e+03 5.549263477325439453e+00 2.924884414672851562e+01 -5.542165786027908325e-02 1.568354368209838867e+00 4.538798332214355469e-01 -3.020050525665283203e-01
1.621000000000000000e+03 3.978527069091796875e+00 1.421592903137207031e+01 4.149559885263442993e-02 5.115100145339965820e-01 1.659016758203506470e-01 -2.977923750877380371e-01
1.622000000000000000e+03 4.034239768981933594e+00 1.559563255310058594e+01 1.863033324480056763e-02 6.055721044540405273e-01 1.872607320547103882e-01 -3.130336403846740723e-01
1.623000000000000000e+03 5.216167449951171875e+00 1.678553771972656250e+01 1.113299187272787094e-02 9.988561272621154785e-01 3.029967248439788818e-01 -3.782160282135009766e-01
1.624000000000000000e+03 4.118271350860595703e+00 1.832906150817871094e+01 -3.687988733872771263e-03 7.762189507484436035e-01 2.317592948675155640e-01 -3.274634182453155518e-01
1.625000000000000000e+03 2.963983774185180664e+00 1.854788780212402344e+01 -1.191686373203992844e-03 4.882891476154327393e-01 1.461292356252670288e-01 -2.573349773883819580e-01
1.626000000000000000e+03 4.141204357147216797e+00 1.967023086547851562e+01 -5.739326123148202896e-03 8.549306988716125488e-01 2.547574043273925781e-01 -3.275018334388732910e-01
1.627000000000000000e+03 3.257836580276489258e+00 2.560517311096191406e+01 -1.577361486852169037e-02 1.012336850166320801e+00 2.989689707756042480e-01 -2.394155859947204590e-01
1.628000000000000000e+03 5.477751731872558594e+00 2.346846580505371094e+01 -2.871716208755970001e-02 1.336066126823425293e+00 3.922047019004821777e-01 -3.686262369155883789e-01
1.629000000000000000e+03 4.340762138366699219e+00 2.381139755249023438e+01 -2.528199739754199982e-02 1.121017098426818848e+00 3.287205398082733154e-01 -3.149828612804412842e-01
1.630000000000000000e+03 4.947674274444580078e+00 1.133406257629394531e+01 1.386484354734420776e-01 6.376991271972656250e-01 2.329042702913284302e-01 -2.730226516723632812e-01
1.631000000000000000e+03 6.381446838378906250e+00 3.066271018981933594e+01 -7.494363933801651001e-02 1.756615042686462402e+00 5.045014023780822754e-01 -3.047843277454376221e-01
1.632000000000000000e+03 3.328774690628051758e+00 3.547657775878906250e+01 1.220706908497959375e-04 1.425969362258911133e+00 4.278274476528167725e-01 -1.100433394312858582e-01
1.633000000000000000e+03 3.475370168685913086e+00 -2.981361579895019531e+01 -8.394719958305358887e-01 7.904357910156250000e+00 2.119465827941894531e+00 2.118920326232910156e+00
1.634000000000000000e+03 4.545859813690185547e+00 -6.712518215179443359e+00 2.644468247890472412e-01 1.787894368171691895e+00 6.157023906707763672e-01 1.167811036109924316e+00
1.635000000000000000e+03 2.565632820129394531e+00 -1.044024944305419922e+01 -2.169233113527297974e-01 1.808467268943786621e+00 4.774631857872009277e-01 2.726138830184936523e-01
1.636000000000000000e+03 3.813910484313964844e+00 -1.415698432922363281e+01 -3.102001547813415527e-01 3.800122737884521484e+00 1.046976804733276367e+00 -1.042655333876609802e-01
1.637000000000000000e+03 3.863105058670043945e+00 1.146081733703613281e+01 9.700964391231536865e-02 3.178261220455169678e-01 1.244507282972335815e-01 -2.177395224571228027e-01
1.638000000000000000e+03 3.678555250167846680e+00 8.796185493469238281e+00 1.614471226930618286e-01 9.204328805208206177e-02 7.604712247848510742e-02 -6.538680940866470337e-02
1.639000000000000000e+03 4.553554058074951172e+00 2.853143882751464844e+01 -3.449397161602973938e-02 1.388990640640258789e+00 4.063490033149719238e-01 -2.793490886688232422e-01
1.640000000000000000e+03 3.254457473754882812e+00 3.408853530883789062e+01 -1.861025206744670868e-02 1.421962976455688477e+00 4.210058152675628662e-01 -1.265012472867965698e-01
1.641000000000000000e+03 4.583634376525878906e+00 3.375801467895507812e+01 -4.393815994262695312e-02 1.575258016586303711e+00 4.593959748744964600e-01 -1.783978044986724854e-01
1.642000000000000000e+03 5.800363540649414062e+00 -3.372633361816406250e+01 -1.150731682777404785e+00 7.003450870513916016e+00 1.755815744400024414e+00 6.868685483932495117e-01
1.643000000000000000e+03 4.830991268157958984e+00 -2.958223533630371094e+01 -1.353873372077941895e+00 7.959964275360107422e+00 1.981827139854431152e+00 2.214292764663696289e+00
1.644000000000000000e+03 4.940856933593750000e+00 -3.099571418762207031e+01 -1.387386918067932129e+00 7.753102779388427734e+00 1.909714698791503906e+00 1.625803470611572266e+00
1.645000000000000000e+03 3.618901729583740234e+00 -3.129584693908691406e+01 -8.706572055816650391e-01 8.087683677673339844e+00 2.165107727050781250e+00 1.478179931640625000e+00
1.646000000000000000e+03 3.655495882034301758e+00 -1.162607860565185547e+01 -4.474883377552032471e-01 3.046045780181884766e+00 7.795672416687011719e-01 3.096318542957305908e-01
1.647000000000000000e+03 3.704521894454956055e+00 -5.431174755096435547e+00 3.784158229827880859e-01 9.543204903602600098e-01 3.998208940029144287e-01 6.524897813796997070e-01
1.648000000000000000e+03 2.584566116333007812e+00 -6.514973640441894531e+00 1.122205778956413269e-01 8.439071178436279297e-01 2.868382930755615234e-01 4.558824002742767334e-01
1.649000000000000000e+03 3.688620090484619141e+00 5.921356678009033203e+00 1.812681555747985840e-01 -5.247695371508598328e-02 3.863735869526863098e-02 1.565084755420684814e-01
1.650000000000000000e+03 3.887854003906250000e+01 9.304173469543457031e+00 2.238617181777954102e+00 7.938003063201904297e+00 3.052986145019531250e+00 -9.294858574867248535e-01
1.651000000000000000e+03 3.934762954711914062e+01 7.380813598632812500e+00 1.842923879623413086e+00 7.691588878631591797e+00 2.860353946685791016e+00 -1.177209854125976562e+00
1.652000000000000000e+03 5.321228790283203125e+01 -2.458350944519042969e+01 1.361160874366760254e+00 4.568809986114501953e+00 1.778991222381591797e+00 -1.082943320274353027e+00
1.653000000000000000e+03 4.568416213989257812e+01 -2.418818283081054688e+01 2.361482620239257812e+00 9.702420234680175781e+00 3.619170904159545898e+00 -2.668619155883789062e+00
1.654000000000000000e+03 3.593125820159912109e+00 -3.711862945556640625e+01 -3.533489108085632324e-01 8.776405334472656250e+00 2.526916980743408203e+00 3.204740211367607117e-02
1.655000000000000000e+03 5.606097221374511719e+00 -3.615815353393554688e+01 -5.907248258590698242e-01 6.880064487457275391e+00 1.886801958084106445e+00 3.055190742015838623e-01
1.656000000000000000e+03 7.247058105468750000e+01 -2.013618278503417969e+01 -1.416823267936706543e+00 7.116035461425781250e+00 1.709763646125793457e+00 -4.361769556999206543e-01
1.657000000000000000e+03 7.257855224609375000e+01 -2.132102996110916138e-01 6.956701874732971191e-01 9.359762191772460938e+00 3.016629695892333984e+00 2.429842799901962280e-01
1.658000000000000000e+03 3.590111541748046875e+01 -1.144563770294189453e+01 -8.693458437919616699e-01 3.436762809753417969e+00 7.702251076698303223e-01 -2.402775526046752930e+00
1.659000000000000000e+03 3.486766052246093750e+01 -1.458458518981933594e+01 -1.101194024085998535e+00 1.831082105636596680e+00 2.189664244651794434e-01 -1.744862556457519531e+00
1.660000000000000000e+03 4.538903808593750000e+01 -2.789622116088867188e+01 1.406588792800903320e+00 9.109870910644531250e+00 3.154937982559204102e+00 -2.145668506622314453e+00
1.661000000000000000e+03 4.687694549560546875e+01 -2.756028747558593750e+01 1.627125024795532227e+00 8.006191253662109375e+00 2.889994859695434570e+00 -2.363303661346435547e+00
1.662000000000000000e+03 7.034905242919921875e+01 3.392746353149414062e+01 -7.532943487167358398e-01 4.893310546875000000e+00 1.242004752159118652e+00 -1.874152123928070068e-01
1.663000000000000000e+03 4.111525726318359375e+01 3.981774568557739258e+00 1.224297165870666504e+00 7.054672241210937500e+00 2.483690738677978516e+00 -1.986448645591735840e+00
1.664000000000000000e+03 4.234257888793945312e+01 1.941940665245056152e+00 9.639320373535156250e-01 6.605208873748779297e+00 2.270742177963256836e+00 -2.435223579406738281e+00
1.665000000000000000e+03 7.093827819824218750e+01 -4.543434143066406250e+00 2.476420998573303223e-01 7.954285621643066406e+00 2.460578203201293945e+00 7.278124690055847168e-01
1.666000000000000000e+03 3.736847305297851562e+01 -1.526848983764648438e+01 -7.531735897064208984e-01 3.336720228195190430e+00 7.750639915466308594e-01 -2.712324857711791992e+00
1.667000000000000000e+03 3.766910934448242188e+01 -1.659849166870117188e+01 -2.719699442386627197e-01 3.305593013763427734e+00 9.100869297981262207e-01 -3.185370445251464844e+00
1.668000000000000000e+03 7.337894439697265625e+01 2.253453445434570312e+01 2.291631996631622314e-01 8.317805290222167969e+00 2.564090490341186523e+00 3.416296243667602539e-01
1.669000000000000000e+03 7.301354980468750000e+01 -1.043816184997558594e+01 -8.001482486724853516e-02 6.446281909942626953e+00 1.909880042076110840e+00 -3.462734818458557129e-01
1.670000000000000000e+03 7.147727203369140625e+01 -3.149433612823486328e+00 3.303189873695373535e-01 8.700901031494140625e+00 2.709366083145141602e+00 5.818224549293518066e-01
1.671000000000000000e+03 7.198843383789062500e+01 -1.706851601600646973e+00 4.977239072322845459e-01 9.219208717346191406e+00 2.915079832077026367e+00 3.513932824134826660e-01
1.672000000000000000e+03 6.455692768096923828e+00 -1.668483352661132812e+01 6.914953589439392090e-01 8.234376907348632812e+00 2.677761554718017578e+00 8.329423069953918457e-01
1.673000000000000000e+03 6.773454284667968750e+01 -1.132872200012207031e+01 5.382153391838073730e-01 3.993143320083618164e+00 1.359407663345336914e+00 8.811464309692382812e-01
1.674000000000000000e+03 7.100241088867187500e+01 -1.077241516113281250e+01 7.764721661806106567e-02 5.677295207977294922e+00 1.726482629776000977e+00 7.901096343994140625e-02
1.675000000000000000e+03 4.300226593017578125e+01 2.662953376770019531e+01 3.583198785781860352e-01 5.358992099761962891e+00 1.715193510055541992e+00 1.160651445388793945e+00
1.676000000000000000e+03 3.653871917724609375e+01 2.118311119079589844e+01 7.264056801795959473e-01 6.288814067840576172e+00 2.104565858840942383e+00 9.644242934882640839e-03
1.677000000000000000e+03 4.549073791503906250e+01 -2.270682525634765625e+01 2.760639190673828125e+00 9.671200752258300781e+00 3.729552030563354492e+00 -2.550783157348632812e+00
1.678000000000000000e+03 4.391915512084960938e+01 -1.943091773986816406e+01 1.071226477622985840e+00 1.047933864593505859e+01 3.465169429779052734e+00 -1.726194381713867188e+00
1.679000000000000000e+03 3.969147109985351562e+01 1.609996986389160156e+01 1.005368351936340332e+00 8.374736785888671875e+00 2.814031600952148438e+00 2.407205998897552490e-01
1.680000000000000000e+03 3.710179138183593750e+01 1.304531097412109375e+01 1.825759172439575195e+00 7.084911346435546875e+00 2.673201084136962891e+00 -4.501518905162811279e-01
1.681000000000000000e+03 4.817222595214843750e+01 -1.300977420806884766e+01 -9.926937222480773926e-01 6.415863037109375000e+00 1.626950740814208984e+00 -5.841740369796752930e-01
1.682000000000000000e+03 5.882979393005371094e+00 -2.519774818420410156e+01 5.663475394248962402e-01 9.351127624511718750e+00 2.975242614746093750e+00 3.377697706222534180e+00
1.683000000000000000e+03 7.150957489013671875e+01 -6.369012355804443359e+00 8.819713443517684937e-02 7.208393096923828125e+00 2.188977241516113281e+00 3.105104267597198486e-01
1.684000000000000000e+03 6.682411956787109375e+01 -3.594164276123046875e+01 -2.377280294895172119e-01 1.078520655632019043e+00 2.522377967834472656e-01 6.158317923545837402e-01
1.685000000000000000e+03 6.968285369873046875e+01 -1.048896217346191406e+01 2.131726890802383423e-01 5.199753761291503906e+00 1.623877882957458496e+00 4.572448730468750000e-01
1.686000000000000000e+03 3.925699615478515625e+01 2.107727813720703125e+01 7.216945290565490723e-01 6.892993927001953125e+00 2.284406423568725586e+00 5.304408669471740723e-01
1.687000000000000000e+03 3.866854476928710938e+01 1.804999160766601562e+01 9.952427148818969727e-01 7.438529014587402344e+00 2.530131578445434570e+00 2.461493164300918579e-01
1.688000000000000000e+03 2.360813331604003906e+01 -1.150002288818359375e+01 -4.024579524993896484e+00 -3.223623335361480713e-01 -1.304082512855529785e+00 -1.578209251165390015e-01
1.689000000000000000e+03 5.615242385864257812e+01 -2.269108200073242188e+01 1.019604206085205078e+00 2.111065626144409180e+00 9.392009973526000977e-01 4.485679864883422852e-01
1.690000000000000000e+03 5.266714859008789062e+01 -1.801191902160644531e+01 -1.035725355148315430e+00 2.893535375595092773e+00 5.573430657386779785e-01 -7.925415039062500000e-01
1.691000000000000000e+03 5.369471740722656250e+01 -1.902224731445312500e+01 -4.865793585777282715e-01 2.095700263977050781e+00 4.827362298965454102e-01 -7.310095429420471191e-01
1.692000000000000000e+03 7.531317901611328125e+01 4.037269973754882812e+01 1.244007889181375504e-02 8.302845954895019531e+00 2.494585752487182617e+00 2.143928557634353638e-01
1.693000000000000000e+03 5.269869995117187500e+01 -3.628276824951171875e+01 -8.727808594703674316e-01 6.868883132934570312e+00 1.798830747604370117e+00 -6.335600614547729492e-01
1.694000000000000000e+03 4.578524398803710938e+01 -6.287679195404052734e+00 -3.135034441947937012e-02 6.182829380035400391e+00 1.845443725585937500e+00 -2.022613763809204102e+00
1.695000000000000000e+03 4.155992126464843750e+01 -1.557942008972167969e+01 -1.091895818710327148e+00 7.912853240966796875e+00 2.046287298202514648e+00 -2.619004964828491211e+00
1.696000000000000000e+03 6.391999244689941406e+00 -2.123096847534179688e+01 2.693676233291625977e+00 1.112505817413330078e+01 4.145620346069335938e+00 2.204991102218627930e+00
1.697000000000000000e+03 5.902693176269531250e+01 -2.238996505737304688e+01 9.082840681076049805e-01 1.260945558547973633e+00 6.507689356803894043e-01 1.261810183525085449e+00
1.698000000000000000e+03 5.826936340332031250e+01 -2.036410713195800781e+01 1.703473329544067383e-01 1.013745069503784180e+00 3.552277386188507080e-01 1.362151980400085449e+00
1.699000000000000000e+03 6.261225509643554688e+01 -1.700644111633300781e+01 -3.581607937812805176e-01 1.380640029907226562e+00 3.067437708377838135e-01 1.342361450195312500e+00
1.700000000000000000e+03 2.074379730224609375e+01 -1.054108142852783203e+01 -3.849776744842529297e+00 -6.280947327613830566e-01 -1.343361496925354004e+00 2.093590199947357178e-01
1.701000000000000000e+03 7.317415618896484375e+01 2.698865509033203125e+01 1.883448064327239990e-01 7.641729354858398438e+00 2.349022150039672852e+00 5.868969559669494629e-01
1.702000000000000000e+03 7.318560791015625000e+01 2.849161148071289062e+01 -1.024921797215938568e-02 7.475072860717773438e+00 2.239447116851806641e+00 6.253624558448791504e-01
1.703000000000000000e+03 2.430781173706054688e+01 -1.215286445617675781e+01 -4.368483543395996094e+00 -7.009320706129074097e-02 -1.331573009490966797e+00 -1.462830007076263428e-01
1.704000000000000000e+03 2.446294021606445312e+01 -1.083004570007324219e+01 -3.132698774337768555e+00 1.748522818088531494e-01 -8.873538970947265625e-01 -6.104257106781005859e-01
1.705000000000000000e+03 1.296285820007324219e+01 -3.785690307617187500e+01 -3.096574842929840088e-01 1.290045976638793945e+00 2.941165566444396973e-01 9.674239158630371094e-02
1.706000000000000000e+03 1.404922580718994141e+01 -3.624038696289062500e+01 -7.562803626060485840e-01 5.737857222557067871e-01 -5.474838986992835999e-02 2.283994555473327637e-01
1.707000000000000000e+03 3.655140686035156250e+01 1.189170551300048828e+01 2.002024650573730469e+00 6.734444618225097656e+00 2.620940923690795898e+00 -4.223904609680175781e-01
1.708000000000000000e+03 3.804229736328125000e+01 1.120119762420654297e+01 2.033941507339477539e+00 7.532812595367431641e+00 2.870026350021362305e+00 -7.319979071617126465e-01
1.709000000000000000e+03 3.334547424316406250e+01 -3.532052612304687500e+01 -2.048240423202514648e+00 -2.606796324253082275e-01 -6.926760077476501465e-01 -2.062551826238632202e-01
1.710000000000000000e+03 3.998783493041992188e+01 1.750820350646972656e+01 9.059987664222717285e-01 8.216175079345703125e+00 2.736652135848999023e+00 5.371806025505065918e-01
1.711000000000000000e+03 3.706129455566406250e+01 1.724413871765136719e+01 1.229712843894958496e+00 6.895333766937255859e+00 2.437513828277587891e+00 -5.141551047563552856e-02
1.712000000000000000e+03 6.778038024902343750e+01 -1.333177661895751953e+01 4.354934096336364746e-01 3.457180976867675781e+00 1.167802333831787109e+00 4.806121587753295898e-01
1.713000000000000000e+03 7.081420135498046875e+01 3.156146240234375000e+01 -5.929542183876037598e-01 5.621860504150390625e+00 1.508671879768371582e+00 5.758653208613395691e-02
1.714000000000000000e+03 4.650575637817382812e+01 -2.348715400695800781e+01 2.537392854690551758e+00 8.247606277465820312e+00 3.235499858856201172e+00 -2.180122375488281250e+00
1.715000000000000000e+03 7.399093627929687500e+01 -2.888792228698730469e+01 9.492694139480590820e-01 8.624569892883300781e+00 2.872151851654052734e+00 -1.057963371276855469e-01
1.716000000000000000e+03 6.273996734619140625e+01 -1.597111034393310547e+01 -9.823535569012165070e-03 1.370854616165161133e+00 4.083093404769897461e-01 1.144283533096313477e+00
1.717000000000000000e+03 6.397691726684570312e+01 -1.544361019134521484e+01 3.706105947494506836e-01 1.646799564361572266e+00 6.052230596542358398e-01 1.011510252952575684e+00
1.718000000000000000e+03 7.212506866455078125e+01 -3.315274810791015625e+01 -5.407466888427734375e-01 6.365964412689208984e+00 1.747565388679504395e+00 5.261828303337097168e-01
1.719000000000000000e+03 6.495497703552246094e+00 -1.976285934448242188e+01 2.202384710311889648e+00 1.047162437438964844e+01 3.802202701568603516e+00 1.631641983985900879e+00
1.720000000000000000e+03 7.111599445343017578e+00 -1.889780044555664062e+01 2.075670957565307617e+00 1.092257690429687500e+01 3.899474382400512695e+00 2.141254186630249023e+00
1.721000000000000000e+03 5.347805404663085938e+01 -2.208775138854980469e+01 9.377325773239135742e-01 3.372239112854003906e+00 1.292991518974304199e+00 -7.449598312377929688e-01
1.722000000000000000e+03 6.017298126220703125e+01 -2.069427299499511719e+01 1.706561893224716187e-01 1.134876847267150879e+00 3.916598856449127197e-01 1.525887250900268555e+00
1.723000000000000000e+03 7.129450225830078125e+01 -3.640233612060546875e+01 -5.061519742012023926e-01 4.889487266540527344e+00 1.315000534057617188e+00 7.597965002059936523e-01
1.724000000000000000e+03 3.228918075561523438e+01 -1.298052692413330078e+01 -1.610992312431335449e+00 1.495259165763854980e+00 -3.471995890140533447e-02 -1.107241868972778320e+00
1.725000000000000000e+03 7.458412933349609375e+01 2.951338195800781250e+01 -1.136880815029144287e-01 7.925933837890625000e+00 2.343673706054687500e+00 7.030294537544250488e-01
1.726000000000000000e+03 6.789977264404296875e+01 3.834027481079101562e+01 -1.369071006774902344e-02 2.547957897186279297e+00 7.602801322937011719e-01 -2.841421365737915039e-01
1.727000000000000000e+03 7.820316791534423828e+00 -1.629290962219238281e+01 7.551822066307067871e-01 9.311100006103515625e+00 3.019884586334228516e+00 1.620384693145751953e+00
1.728000000000000000e+03 1.071613883972167969e+01 -3.422188186645507812e+01 -1.417624354362487793e+00 2.544942617416381836e+00 3.381954431533813477e-01 -1.383052021265029907e-01
1.729000000000000000e+03 1.218659687042236328e+01 -3.529498672485351562e+01 -1.042486548423767090e+00 1.469366431236267090e+00 1.280639767646789551e-01 -6.477022171020507812e-02
1.730000000000000000e+03 6.385774135589599609e+00 -2.841440200805664062e+01 -1.827484726905822754e+00 8.422328948974609375e+00 1.978453278541564941e+00 2.276815414428710938e+00
1.731000000000000000e+03 4.865364456176757812e+01 -1.600041961669921875e+01 -1.224539756774902344e+00 6.572784900665283203e+00 1.604473471641540527e+00 -5.314702391624450684e-01
1.732000000000000000e+03 5.157799148559570312e+01 -1.904313087463378906e+01 -3.176964819431304932e-01 4.223849296569824219e+00 1.171845912933349609e+00 -1.114835381507873535e+00
1.733000000000000000e+03 2.564939117431640625e+01 -1.184461879730224609e+01 -3.451061248779296875e+00 2.679767906665802002e-01 -9.549253582954406738e-01 -3.217366933822631836e-01
1.734000000000000000e+03 2.395721626281738281e+01 -1.013910484313964844e+01 -2.396848440170288086e+00 -1.020669820718467236e-03 -7.193607687950134277e-01 -6.447291374206542969e-01
1.735000000000000000e+03 6.594569206237792969e+00 -3.173002243041992188e+01 -1.837374567985534668e+00 6.990913391113281250e+00 1.546061635017395020e+00 1.065633654594421387e+00
1.736000000000000000e+03 5.514402389526367188e+00 -1.741360282897949219e+01 9.015553593635559082e-01 7.079856872558593750e+00 2.394423723220825195e+00 5.488537549972534180e-01
1.737000000000000000e+03 6.108156681060791016e+00 -2.381708526611328125e+01 1.894205451011657715e+00 9.638468742370605469e+00 3.459802389144897461e+00 2.889779090881347656e+00
1.738000000000000000e+03 7.679646492004394531e+00 -3.088671875000000000e+01 -2.309026718139648438e+00 6.444262027740478516e+00 1.240570664405822754e+00 8.314508199691772461e-01
1.739000000000000000e+03 9.554509162902832031e+00 -3.305355072021484375e+01 -1.874308824539184570e+00 3.968514919281005859e+00 6.282618641853332520e-01 -6.470139324665069580e-02
1.740000000000000000e+03 6.432761383056640625e+01 -1.964426040649414062e+01 -6.416308283805847168e-01 1.073283553123474121e+00 1.294957995414733887e-01 1.314403176307678223e+00
1.741000000000000000e+03 6.444857788085937500e+01 -1.736585998535156250e+01 -8.676269650459289551e-02 1.369444608688354492e+00 3.848045766353607178e-01 1.166583299636840820e+00
1.742000000000000000e+03 4.738602066040039062e+01 -2.248943328857421875e+01 2.090813398361206055e+00 7.759611606597900391e+00 2.955127477645874023e+00 -2.029457330703735352e+00
1.743000000000000000e+03 5.299584960937500000e+01 -2.736154174804687500e+01 1.558378219604492188e+00 6.119762897491455078e+00 2.303442239761352539e+00 -1.585894346237182617e+00
1.744000000000000000e+03 4.861169052124023438e+01 -1.451552009582519531e+01 -1.216433763504028320e+00 6.439403533935546875e+00 1.566890835762023926e+00 -3.803831636905670166e-01
1.745000000000000000e+03 7.511451721191406250e+01 3.350721359252929688e+01 -3.519732058048248291e-01 7.999391555786132812e+00 2.294225454330444336e+00 3.987351655960083008e-01
1.746000000000000000e+03 6.306005096435546875e+01 4.110931777954101562e+01 3.835043311119079590e-01 8.705659955739974976e-02 1.411682814359664917e-01 1.430543046444654465e-02
1.747000000000000000e+03 6.791322326660156250e+01 -4.109748840332031250e+01 7.378003001213073730e-01 2.181740999221801758e+00 8.758624196052551270e-01 2.241539210081100464e-01
1.748000000000000000e+03 6.025551223754882812e+01 -1.953880691528320312e+01 -4.629378914833068848e-01 1.077272653579711914e+00 1.843004375696182251e-01 1.690878152847290039e+00
1.749000000000000000e+03 5.988116455078125000e+01 -1.846279144287109375e+01 -6.933088898658752441e-01 1.061513304710388184e+00 1.104613393545150757e-01 1.545738577842712402e+00
1.750000000000000000e+03 3.883139419555664062e+01 1.960343551635742188e+01 8.419830799102783203e-01 7.178399562835693359e+00 2.406114816665649414e+00 3.702790141105651855e-01
1.751000000000000000e+03 7.397836303710937500e+01 -2.727040100097656250e+01 1.367934465408325195e+00 8.818784713745117188e+00 3.056015729904174805e+00 2.191383540630340576e-01
1.752000000000000000e+03 4.222562026977539062e+01 3.122256851196289062e+01 -4.540455341339111328e-01 4.715167045593261719e+00 1.278336405754089355e+00 5.271786451339721680e-01
1.753000000000000000e+03 4.687869262695312500e+01 -1.798314285278320312e+01 -1.082615461200475693e-02 7.860686779022216797e+00 2.354958295822143555e+00 -8.749957680702209473e-01
1.754000000000000000e+03 7.318314361572265625e+01 -3.257627487182617188e+01 -5.030382275581359863e-01 7.365348815917968750e+00 2.058693170547485352e+00 4.927728325128555298e-02
1.755000000000000000e+03 6.145211791992187500e+01 -2.097875595092773438e+01 7.583863101899623871e-03 1.060183286666870117e+00 3.203301429748535156e-01 1.517472267150878906e+00
1.756000000000000000e+03 1.089923191070556641e+01 -2.621267557144165039e+00 6.466638088226318359e+00 2.414458513259887695e+00 2.664329051971435547e+00 4.893241405487060547e+00
1.757000000000000000e+03 1.196604537963867188e+01 -2.889302968978881836e+00 6.247831821441650391e+00 8.073553085327148438e+00 4.296415328979492188e+00 7.380687713623046875e+00
1.758000000000000000e+03 1.211159992218017578e+01 2.635051488876342773e+00 2.507376074790954590e-01 5.219915866851806641e+00 1.641196012496948242e+00 -1.464356780052185059e+00
1.759000000000000000e+03 1.166534423828125000e+01 2.340082406997680664e+00 4.429562091827392578e-01 4.109624385833740234e+00 1.365774154663085938e+00 -1.647823214530944824e+00
1.760000000000000000e+03 1.287479877471923828e+01 1.508771061897277832e+00 -6.160708516836166382e-02 8.677638053894042969e+00 2.584809303283691406e+00 -9.713052511215209961e-01
1.761000000000000000e+03 1.327697944641113281e+01 1.062255024909973145e+00 -3.425367921590805054e-02 1.086617565155029297e+01 3.249576568603515625e+00 1.174076199531555176e-01
1.762000000000000000e+03 1.196009826660156250e+01 -3.098834037780761719e+00 5.469470024108886719e+00 8.169113159179687500e+00 4.091575145721435547e+00 7.122918128967285156e+00
1.763000000000000000e+03 1.551432418823242188e+01 2.227611541748046875e-01 5.198318004608154297e+00 8.108065605163574219e+00 3.991914987564086914e+00 4.532827377319335938e+00
1.764000000000000000e+03 1.335307121276855469e+01 -3.523009061813354492e+00 3.413365602493286133e+00 1.173801803588867188e+01 4.545414924621582031e+00 3.787585258483886719e+00
1.765000000000000000e+03 1.513948822021484375e+01 -9.321480393409729004e-01 8.756497383117675781e+00 8.056470870971679688e+00 5.043890476226806641e+00 4.047712802886962891e+00
1.766000000000000000e+03 1.248696708679199219e+01 -3.583246946334838867e+00 3.571188926696777344e+00 1.004386901855468750e+01 4.084517478942871094e+00 5.971167087554931641e+00
1.767000000000000000e+03 1.458198928833007812e+01 7.595456242561340332e-01 2.753431320190429688e+00 1.051844501495361328e+01 3.981562852859497070e+00 3.960222005844116211e+00
1.768000000000000000e+03 1.369299316406250000e+01 -3.004175662994384766e+00 5.065818309783935547e+00 1.286618041992187500e+01 5.379599571228027344e+00 2.332683801651000977e+00
1.769000000000000000e+03 1.490717601776123047e+01 -1.806066155433654785e+00 9.608695983886718750e+00 8.515659332275390625e+00 5.437306404113769531e+00 2.072915315628051758e+00
1.770000000000000000e+03 1.473865318298339844e+01 -2.560392618179321289e+00 7.512224197387695312e+00 9.334537506103515625e+00 5.054028511047363281e+00 1.070026874542236328e+00
1.771000000000000000e+03 1.111902332305908203e+01 1.911357283592224121e+00 6.646905541419982910e-01 2.593024492263793945e+00 9.773145318031311035e-01 -1.579481720924377441e+00
1.772000000000000000e+03 1.155822086334228516e+01 -2.876301050186157227e+00 6.609970092773437500e+00 5.511112213134765625e+00 3.636324882507324219e+00 6.859016418457031250e+00
1.773000000000000000e+03 8.724472045898437500e+00 -3.207180023193359375e+00 3.015949487686157227e+00 1.052593111991882324e+00 1.220562815666198730e+00 2.500861883163452148e+00
1.774000000000000000e+03 7.422270774841308594e+00 -3.916405439376831055e+00 1.886674046516418457e+00 1.182644724845886230e+00 9.207956194877624512e-01 2.027176141738891602e+00
1.775000000000000000e+03 1.010114669799804688e+01 2.783645629882812500e+00 6.896513104438781738e-01 1.483856201171875000e+00 6.520522236824035645e-01 -9.601376652717590332e-01
1.776000000000000000e+03 8.276625633239746094e+00 3.600405931472778320e+00 5.308236479759216309e-01 6.061605215072631836e-01 3.410952389240264893e-01 -2.582232654094696045e-01
1.777000000000000000e+03 9.805133819580078125e+00 -2.787870645523071289e+00 4.490646362304687500e+00 1.126615881919860840e+00 1.685178637504577637e+00 3.145508766174316406e+00
1.778000000000000000e+03 9.406383514404296875e+00 -2.627408742904663086e+00 3.831658840179443359e+00 7.538641691207885742e-01 1.375656843185424805e+00 2.399483919143676758e+00
1.779000000000000000e+03 4.933599472045898438e+00 4.032959938049316406e+00 1.689360290765762329e-01 3.232513740658760071e-02 6.037835031747817993e-02 2.661205530166625977e-01
1.780000000000000000e+03 5.568244457244873047e+00 3.854230403900146484e+00 2.044801861047744751e-01 9.932424128055572510e-02 9.114132821559906006e-02 2.338370382785797119e-01
1.781000000000000000e+03 5.192369937896728516e+00 4.588469982147216797e+00 2.542373239994049072e-01 1.026846989989280701e-01 1.070766076445579529e-01 1.996930688619613647e-01
1.782000000000000000e+03 6.223233699798583984e+00 3.779228687286376953e+00 2.634639143943786621e-01 1.683142930269241333e-01 1.295334547758102417e-01 1.619425714015960693e-01
1.783000000000000000e+03 4.164161682128906250e+00 6.516670227050781250e+00 2.451469600200653076e-01 7.095071673393249512e-02 9.482930600643157959e-02 8.385824412107467651e-02
1.784000000000000000e+03 7.597261428833007812e+00 4.402134418487548828e+00 5.281449556350708008e-01 5.844212174415588379e-01 3.337698578834533691e-01 -1.832115054130554199e-01
1.785000000000000000e+03 6.907342910766601562e+00 4.448631286621093750e+00 4.449314177036285400e-01 4.019033014774322510e-01 2.540504038333892822e-01 -3.856631368398666382e-02
1.786000000000000000e+03 4.566005706787109375e+00 -5.662696838378906250e+00 5.075405240058898926e-01 1.328135967254638672e+00 5.507029294967651367e-01 1.059142470359802246e+00
1.787000000000000000e+03 4.781061172485351562e+00 -4.852822780609130859e+00 6.568391323089599609e-01 1.002679467201232910e+00 4.978555738925933838e-01 9.125424623489379883e-01
1.788000000000000000e+03 6.259346961975097656e+00 4.442150115966796875e+00 3.631135225296020508e-01 2.718216180801391602e-01 1.904805451631546021e-01 7.783062011003494263e-02
1.789000000000000000e+03 6.177278518676757812e+00 -4.655129909515380859e+00 1.138248085975646973e+00 1.303390145301818848e+00 7.324914932250976562e-01 1.605282545089721680e+00
1.790000000000000000e+03 6.743558883666992188e+00 -4.629984378814697266e+00 1.379312396049499512e+00 1.440623283386230469e+00 8.459807038307189941e-01 1.923963308334350586e+00
1.791000000000000000e+03 8.055816650390625000e+00 -3.944607734680175781e+00 2.286972045898437500e+00 1.444514393806457520e+00 1.119445919990539551e+00 2.551274061203002930e+00
1.792000000000000000e+03 1.816907501220703125e+01 -1.017251300811767578e+01 -2.898572206497192383e+00 5.865165591239929199e-01 -6.936166882514953613e-01 1.371422648429870605e+00
1.793000000000000000e+03 2.006194496154785156e+01 -9.903308868408203125e+00 -2.684834718704223633e+00 -1.049218475818634033e-01 -8.369269967079162598e-01 3.282253742218017578e-01
1.794000000000000000e+03 1.891758346557617188e+01 -9.832133293151855469e+00 -2.543726205825805664e+00 3.178330957889556885e-01 -6.677679419517517090e-01 9.063956141471862793e-01
1.795000000000000000e+03 3.524820327758789062e+01 -1.308166217803955078e+01 -1.010487079620361328e+00 2.598920345306396484e+00 4.765300154685974121e-01 -2.141502380371093750e+00
1.796000000000000000e+03 2.775001716613769531e+01 -1.228152465820312500e+01 -2.872003793716430664e+00 7.127872705459594727e-01 -6.477649807929992676e-01 -3.937840461730957031e-01
1.797000000000000000e+03 1.280835628509521484e+01 -1.200459289550781250e+01 -2.906904935836791992e+00 5.811834335327148438e+00 8.714787960052490234e-01 3.987425804138183594e+00
1.798000000000000000e+03 9.650760650634765625e+00 -1.230175685882568359e+01 -2.090395689010620117e+00 7.814159393310546875e+00 1.717129111289978027e+00 2.951684474945068359e+00
1.799000000000000000e+03 4.477045440673828125e+01 -2.108544540405273438e+01 2.920034170150756836e+00 1.035191535949707031e+01 3.981584787368774414e+00 -1.871124148368835449e+00
1.800000000000000000e+03 7.611214447021484375e+01 -2.224170684814453125e+01 -1.788980513811111450e-01 7.922845840454101562e+00 2.323184251785278320e+00 8.243057727813720703e-01
1.801000000000000000e+03 3.860783004760742188e+01 -1.496725559234619141e+01 -7.720637917518615723e-01 4.859575271606445312e+00 1.226253390312194824e+00 -3.147790431976318359e+00
1.802000000000000000e+03 7.362425231933593750e+01 6.482933998107910156e+00 2.897852361202239990e-01 9.147088050842285156e+00 2.831061840057373047e+00 5.152930021286010742e-01
1.803000000000000000e+03 1.192031669616699219e+01 -1.147968387603759766e+01 -2.833382606506347656e+00 6.802523612976074219e+00 1.190742254257202148e+00 4.059359073638916016e+00
1.804000000000000000e+03 4.406147003173828125e+01 -1.412217617034912109e+00 5.410271883010864258e-01 6.171747207641601562e+00 2.013832330703735352e+00 -2.502775669097900391e+00
1.805000000000000000e+03 4.243021392822265625e+01 -3.340629339218139648e+00 1.920808553695678711e-01 5.963845729827880859e+00 1.846778035163879395e+00 -2.367853879928588867e+00
1.806000000000000000e+03 3.971304321289062500e+01 3.976081132888793945e+00 1.299373030662536621e+00 6.768930435180664062e+00 2.420490980148315430e+00 -1.545384049415588379e+00
1.807000000000000000e+03 5.586807632446289062e+01 -2.069841766357421875e+01 4.791014194488525391e-01 1.196197509765625000e+00 5.025897026062011719e-01 3.818226158618927002e-01
1.808000000000000000e+03 1.634827804565429688e+01 -1.064754772186279297e+01 -3.298536300659179688e+00 2.012038469314575195e+00 -3.859493136405944824e-01 2.669385194778442383e+00
1.809000000000000000e+03 2.572888612747192383e+00 6.410806655883789062e+00 1.159106716513633728e-01 -2.471200823783874512e-01 -3.936282172799110413e-02 1.495399773120880127e-01
1.810000000000000000e+03 2.886945152282714844e+01 -1.276747608184814453e+01 -2.711490869522094727e+00 8.683080673217773438e-01 -5.529548525810241699e-01 -3.820838034152984619e-01
1.811000000000000000e+03 2.994538307189941406e+01 -1.321888637542724609e+01 -2.439511299133300781e+00 9.414963722229003906e-01 -4.494044482707977295e-01 -4.078356623649597168e-01
1.812000000000000000e+03 4.383473205566406250e+01 -4.194195270538330078e+00 1.164750456809997559e-01 6.059792995452880859e+00 1.852880358695983887e+00 -2.348664045333862305e+00
1.813000000000000000e+03 3.564776229858398438e+01 1.371777725219726562e+01 1.799221038818359375e+00 6.463989257812500000e+00 2.478963136672973633e+00 -2.759682536125183105e-01
1.814000000000000000e+03 4.126231384277343750e+01 -2.526046991348266602e+00 3.062085211277008057e-01 5.865013599395751953e+00 1.851366639137268066e+00 -2.309964418411254883e+00
1.815000000000000000e+03 4.173796081542968750e+01 2.995570182800292969e+00 1.031210303306579590e+00 7.066295146942138672e+00 2.429251670837402344e+00 -2.288867712020874023e+00
1.816000000000000000e+03 4.137609100341796875e+01 1.311500072479248047e+00 8.411707282066345215e-01 6.538131713867187500e+00 2.213790893554687500e+00 -2.210625886917114258e+00
1.817000000000000000e+03 2.255811882019042969e+01 -9.995285987854003906e+00 -2.551958799362182617e+00 -1.854722350835800171e-01 -8.212293386459350586e-01 -4.879014194011688232e-01
1.818000000000000000e+03 4.594905853271484375e+00 -1.027239513397216797e+01 -5.709819793701171875e-01 3.436734914779663086e+00 8.597258925437927246e-01 9.250564575195312500e-01
1.819000000000000000e+03 6.608435821533203125e+01 -1.566877651214599609e+01 3.149373829364776611e-01 2.206181764602661133e+00 7.563357353210449219e-01 6.933540105819702148e-01
1.820000000000000000e+03 7.345951843261718750e+01 1.824135208129882812e+01 7.234119623899459839e-02 8.598228454589843750e+00 2.601170778274536133e+00 3.761186599731445312e-01
1.821000000000000000e+03 7.299626827239990234e+00 -3.288575363159179688e+01 -1.699545621871948242e+00 5.990622043609619141e+00 1.287322878837585449e+00 4.774719178676605225e-01
1.822000000000000000e+03 6.880148315429687500e+01 -1.198117160797119141e+01 3.660386800765991211e-01 4.373391151428222656e+00 1.421828985214233398e+00 4.762978255748748779e-01
1.823000000000000000e+03 6.689536285400390625e+01 -1.463339805603027344e+01 4.458276033401489258e-01 2.709724664688110352e+00 9.466656446456909180e-01 5.789464712142944336e-01
1.824000000000000000e+03 4.434407424926757812e+01 -9.624463081359863281e+00 -9.059126973152160645e-01 6.627232074737548828e+00 1.716395854949951172e+00 -1.755445480346679688e+00
1.825000000000000000e+03 7.551084136962890625e+01 3.200577163696289062e+01 -2.649169266223907471e-01 8.224535942077636719e+00 2.387885808944702148e+00 5.574485659599304199e-01
1.826000000000000000e+03 4.463980865478515625e+01 -6.678412437438964844e+00 -2.196162492036819458e-01 6.187545299530029297e+00 1.790378689765930176e+00 -2.078003644943237305e+00
1.827000000000000000e+03 4.199611282348632812e+01 2.710840106010437012e-01 7.247751355171203613e-01 6.255678176879882812e+00 2.094135999679565430e+00 -2.336404085159301758e+00
1.828000000000000000e+03 7.574459838867187500e+01 2.239689826965332031e+01 1.458551287651062012e-01 8.132431030273437500e+00 2.483485698699951172e+00 4.652447700500488281e-01
1.829000000000000000e+03 7.572736358642578125e+01 2.803037261962890625e+01 1.754033379256725311e-02 8.254509925842285156e+00 2.481615066528320312e+00 7.129021286964416504e-01
1.830000000000000000e+03 7.448031616210937500e+01 2.820818138122558594e+01 2.017685025930404663e-02 7.899402618408203125e+00 2.375873804092407227e+00 7.375454902648925781e-01
1.831000000000000000e+03 3.955133819580078125e+01 5.570617675781250000e+00 1.521667361259460449e+00 7.212940216064453125e+00 2.620382308959960938e+00 -1.337805867195129395e+00
1.832000000000000000e+03 7.604132080078125000e+01 3.675429821014404297e+00 2.949331700801849365e-01 7.437336444854736328e+00 2.319680929183959961e+00 2.312376946210861206e-01
1.833000000000000000e+03 7.572273254394531250e+01 2.383203697204589844e+01 1.552250385284423828e-01 8.144265174865722656e+00 2.489846944808959961e+00 5.553793907165527344e-01
1.834000000000000000e+03 7.458740997314453125e+01 2.102422332763671875e+01 1.423263400793075562e-01 8.269108772277832031e+00 2.523430347442626953e+00 3.991590738296508789e-01
1.835000000000000000e+03 7.579099273681640625e+01 -2.010105323791503906e+01 -5.672792792320251465e-01 7.791807651519775391e+00 2.167358398437500000e+00 4.355713129043579102e-01
1.836000000000000000e+03 7.476537322998046875e+01 -2.093318176269531250e+01 -7.076599597930908203e-01 7.840302944183349609e+00 2.139792919158935547e+00 5.868661999702453613e-01
1.837000000000000000e+03 7.494271087646484375e+01 -1.442069721221923828e+01 -2.973167598247528076e-01 6.905507564544677734e+00 1.982457280158996582e+00 -4.402786195278167725e-01
1.838000000000000000e+03 7.590277862548828125e+01 -1.289306545257568359e+01 -1.502134799957275391e-01 7.135933876037597656e+00 2.095716238021850586e+00 -4.639609456062316895e-01
1.839000000000000000e+03 7.576073455810546875e+01 1.262817955017089844e+01 -1.339170038700103760e-01 7.980968952178955078e+00 2.354115724563598633e+00 3.898826539516448975e-01
1.840000000000000000e+03 7.580817413330078125e+01 1.812568283081054688e+01 4.388131201267242432e-02 8.062829971313476562e+00 2.432013273239135742e+00 3.479025661945343018e-01
1.841000000000000000e+03 7.412470245361328125e+01 -7.242722034454345703e+00 -3.749890998005867004e-02 7.115137100219726562e+00 2.123291492462158203e+00 -4.294832646846771240e-01
1.842000000000000000e+03 7.564335632324218750e+01 -5.865736484527587891e+00 -2.332024974748492241e-03 7.138941287994384766e+00 2.140982866287231445e+00 -5.664196014404296875e-01
1.843000000000000000e+03 7.329165649414062500e+01 1.035679912567138672e+01 -2.736742496490478516e-01 9.092509269714355469e+00 2.645650386810302734e+00 4.550662934780120850e-01
1.844000000000000000e+03 7.498613739013671875e+01 3.389362096786499023e+00 4.528695344924926758e-01 8.116561889648437500e+00 2.570829391479492188e+00 2.360442876815795898e-01
1.845000000000000000e+03 7.570964050292968750e+01 -3.153840541839599609e+00 1.495457589626312256e-01 7.286187171936035156e+00 2.230719804763793945e+00 -5.132223367691040039e-01
1.846000000000000000e+03 7.366744995117187500e+01 -4.157830238342285156e+00 1.260938197374343872e-01 7.800920486450195312e+00 2.378104209899902344e+00 -3.035274744033813477e-01
1.847000000000000000e+03 7.578885650634765625e+01 1.954238700866699219e+01 8.664520084857940674e-02 8.085914611816406250e+00 2.451767921447753906e+00 3.776173293590545654e-01
1.848000000000000000e+03 7.562263488769531250e+01 -1.005305099487304688e+01 -8.478994667530059814e-02 7.043405532836914062e+00 2.087584733963012695e+00 -5.432921648025512695e-01
1.849000000000000000e+03 7.295265197753906250e+01 -1.142870712280273438e+01 -7.341484725475311279e-02 6.334126472473144531e+00 1.878213524818420410e+00 -3.973176777362823486e-01
1.850000000000000000e+03 7.382775115966796875e+01 -1.307265377044677734e+01 -2.148651480674743652e-01 6.511229991912841797e+00 1.888909459114074707e+00 -4.714948832988739014e-01
1.851000000000000000e+03 7.625426483154296875e+01 -1.666703033447265625e+01 -3.307364284992218018e-01 7.511968612670898438e+00 2.154369592666625977e+00 -1.058032214641571045e-01
1.852000000000000000e+03 7.021275329589843750e+01 -1.929648780822753906e+01 -9.886866211891174316e-01 3.993727445602416992e+00 9.015122652053833008e-01 -1.210427284240722656e+00
1.853000000000000000e+03 7.335725402832031250e+01 -1.921266746520996094e+01 -1.017466068267822266e+00 7.025554180145263672e+00 1.802426457405090332e+00 -3.131441473960876465e-01
1.854000000000000000e+03 7.508730316162109375e+01 -1.907308769226074219e+01 -6.955352425575256348e-01 7.517051696777343750e+00 2.046454906463623047e+00 1.718229651451110840e-01
1.855000000000000000e+03 7.447956848144531250e+01 1.954382956027984619e-01 5.225084424018859863e-01 8.170407295227050781e+00 2.607874870300292969e+00 -1.142924576997756958e-01
1.856000000000000000e+03 7.516653442382812500e+01 2.327188253402709961e+00 4.377763569355010986e-01 7.961299419403076172e+00 2.519722700119018555e+00 1.114756986498832703e-01
1.857000000000000000e+03 7.432714080810546875e+01 1.916760563850402832e+00 5.790644288063049316e-01 8.521802902221679688e+00 2.730260133743286133e+00 1.488096714019775391e-01
1.858000000000000000e+03 7.335473632812500000e+01 1.154682445526123047e+01 -3.553050756454467773e-01 9.029354095458984375e+00 2.602214574813842773e+00 3.920314908027648926e-01
1.859000000000000000e+03 7.342439270019531250e+01 1.413822937011718750e+01 -9.715241193771362305e-02 8.680683135986328125e+00 2.575059413909912109e+00 2.810900807380676270e-01
1.860000000000000000e+03 7.369548797607421875e+01 -9.677847027778625488e-01 4.646622240543365479e-01 8.416475296020507812e+00 2.664341211318969727e+00 -1.139307990670204163e-01
1.861000000000000000e+03 7.410806274414062500e+01 -8.762825965881347656e+00 -7.799053937196731567e-02 6.915616035461425781e+00 2.051287651062011719e+00 -4.528277814388275146e-01
1.862000000000000000e+03 7.271562957763671875e+01 -9.170272827148437500e+00 -4.903485253453254700e-02 6.620986938476562500e+00 1.971585631370544434e+00 -2.185609787702560425e-01
1.863000000000000000e+03 7.405738830566406250e+01 -1.485807704925537109e+01 -3.779823780059814453e-01 6.572709560394287109e+00 1.858418107032775879e+00 -4.568299949169158936e-01
1.864000000000000000e+03 7.333477020263671875e+01 -1.575300121307373047e+01 -4.756466150283813477e-01 6.293707370758056641e+00 1.745418190956115723e+00 -5.111524462699890137e-01
1.865000000000000000e+03 7.479164123535156250e+01 -2.994079208374023438e+01 4.747339785099029541e-01 8.012986183166503906e+00 2.546316146850585938e+00 -5.854030847549438477e-01
1.866000000000000000e+03 7.259464263916015625e+01 3.461238479614257812e+01 -5.150818824768066406e-01 6.399628639221191406e+00 1.765364050865173340e+00 1.595885306596755981e-01
1.867000000000000000e+03 7.368760681152343750e+01 -3.387664413452148438e+01 -5.671449899673461914e-01 6.873223781585693359e+00 1.891823649406433105e+00 -1.427726000547409058e-01
1.868000000000000000e+03 7.597238159179687500e+01 -3.258927536010742188e+01 -2.420769929885864258e-01 7.543858528137207031e+00 2.190534353256225586e+00 -6.606128215789794922e-01
1.869000000000000000e+03 7.090204620361328125e+01 -2.010674476623535156e+01 -1.229958176612854004e+00 4.854320049285888672e+00 1.087308645248413086e+00 -1.339609026908874512e+00
1.870000000000000000e+03 7.409920501708984375e+01 -2.006011581420898438e+01 -1.010357141494750977e+00 7.686423301696777344e+00 2.002819776535034180e+00 1.071477904915809631e-01
1.871000000000000000e+03 3.613992309570312500e+01 1.487872409820556641e+01 1.623398780822753906e+00 6.633949756622314453e+00 2.477204561233520508e+00 -2.812539339065551758e-01
1.872000000000000000e+03 7.225507354736328125e+01 1.556529331207275391e+01 1.304529458284378052e-01 8.849818229675292969e+00 2.694081306457519531e+00 3.016290664672851562e-01
1.873000000000000000e+03 4.426462173461914062e+00 2.990930557250976562e+01 -4.177851229906082153e-02 1.428646683692932129e+00 4.160604476928710938e-01 -2.427781075239181519e-01
1.874000000000000000e+03 5.309420108795166016e+00 3.178735351562500000e+01 -5.811335891485214233e-02 1.619410395622253418e+00 4.683891236782073975e-01 -2.524780631065368652e-01
1.875000000000000000e+03 5.122883319854736328e+00 -2.810798263549804688e+01 -1.133228659629821777e+00 8.224827766418457031e+00 2.127479791641235352e+00 2.910410881042480469e+00
1.876000000000000000e+03 5.578352928161621094e+00 -1.018295669555664062e+01 -7.580943107604980469e-01 4.193596839904785156e+00 1.030650854110717773e+00 1.377990245819091797e+00
1.877000000000000000e+03 7.485459136962890625e+01 -3.597100830078125000e+01 -4.075689911842346191e-01 6.963822841644287109e+00 1.966876268386840820e+00 -1.283346265554428101e-01
1.878000000000000000e+03 3.858287429809570312e+01 6.245029449462890625e+00 1.838882684707641602e+00 6.835843086242675781e+00 2.602417707443237305e+00 -1.086812496185302734e+00
1.879000000000000000e+03 4.595256423950195312e+01 -1.083768653869628906e+01 -9.176914095878601074e-01 6.753816604614257812e+00 1.750837564468383789e+00 -1.273556232452392578e+00
1.880000000000000000e+03 5.694312572479248047e+00 2.492315864562988281e+01 -4.031178727746009827e-02 1.429169416427612305e+00 4.166572988033294678e-01 -3.617357015609741211e-01
1.881000000000000000e+03 5.013484954833984375e+00 -1.510334205627441406e+01 -1.989000141620635986e-01 5.487523078918457031e+00 1.586586952209472656e+00 1.148121953010559082e-01
1.882000000000000000e+03 5.135956287384033203e+00 1.543530464172363281e+01 2.992011234164237976e-02 9.122442603111267090e-01 2.826493084430694580e-01 -3.697624802589416504e-01
1.883000000000000000e+03 5.279950141906738281e+00 1.812544631958007812e+01 -8.779006893746554852e-04 1.067276954650878906e+00 3.199197053909301758e-01 -3.827867507934570312e-01
1.884000000000000000e+03 4.516931533813476562e+00 -9.070189476013183594e+00 -3.334481120109558105e-01 2.876552104949951172e+00 7.629311680793762207e-01 1.094970226287841797e+00
1.885000000000000000e+03 4.526107788085937500e+00 -1.947708129882812500e+01 1.271330833435058594e+00 6.185785770416259766e+00 2.237134933471679688e+00 7.373387813568115234e-01
1.886000000000000000e+03 5.057760238647460938e+00 1.408175086975097656e+01 5.812284722924232483e-02 8.265352249145507812e-01 2.653974294662475586e-01 -3.499597907066345215e-01
1.887000000000000000e+03 6.039834976196289062e+00 2.653397750854492188e+01 -4.879627749323844910e-02 1.561826944351196289e+00 4.539091885089874268e-01 -3.532839417457580566e-01
1.888000000000000000e+03 4.007912158966064453e+00 -2.770153236389160156e+01 -5.822139382362365723e-01 7.710747718811035156e+00 2.138560295104980469e+00 2.929847002029418945e+00
1.889000000000000000e+03 4.757240295410156250e+00 -2.096346855163574219e+01 1.903021812438964844e+00 7.219910621643066406e+00 2.736879825592041016e+00 1.692365407943725586e+00
1.890000000000000000e+03 3.731805324554443359e+00 -1.289721584320068359e+01 -4.215132892131805420e-01 3.451850652694702148e+00 9.091012477874755859e-01 9.241066128015518188e-02
1.891000000000000000e+03 7.344957828521728516e+00 -1.475263214111328125e+01 -5.021557807922363281e-01 8.017877578735351562e+00 2.254716634750366211e+00 1.198178052902221680e+00
1.892000000000000000e+03 5.292893409729003906e+00 -3.233996963500976562e+01 -1.289749860763549805e+00 7.399635314941406250e+00 1.832965612411499023e+00 1.057420969009399414e+00
1.893000000000000000e+03 6.618101119995117188e+00 -3.502672195434570312e+01 -1.036830782890319824e+00 6.090622901916503906e+00 1.516137599945068359e+00 3.235295712947845459e-01
1.894000000000000000e+03 5.350281238555908203e+00 2.210244941711425781e+01 -2.714594453573226929e-02 1.256856560707092285e+00 3.689132034778594971e-01 -3.727567791938781738e-01
1.895000000000000000e+03 5.293941497802734375e+00 1.944725799560546875e+01 -7.727815769612789154e-03 1.126629352569580078e+00 3.356704711914062500e-01 -3.841629624366760254e-01
1.896000000000000000e+03 5.294583797454833984e+00 2.076842880249023438e+01 -1.344596128910779953e-02 1.190502882003784180e+00 3.531170785427093506e-01 -3.831045329570770264e-01
1.897000000000000000e+03 5.910417938232421875e+01 -2.061673355102539062e+01 1.742679923772811890e-01 1.013326168060302734e+00 3.562782406806945801e-01 1.468864083290100098e+00
1.898000000000000000e+03 3.784795761108398438e+00 1.009979629516601562e+01 1.387190222740173340e-01 2.088573426008224487e-01 1.042729094624519348e-01 -1.542987376451492310e-01
1.899000000000000000e+03 4.994628429412841797e+00 1.271919727325439453e+01 1.017543151974678040e-01 7.383906841278076172e-01 2.520435154438018799e-01 -3.232103586196899414e-01
1.900000000000000000e+03 4.876389026641845703e+00 9.943945884704589844e+00 1.955596059560775757e-01 5.367565155029296875e-01 2.196948379278182983e-01 -2.173484712839126587e-01
1.901000000000000000e+03 4.802384853363037109e+00 8.570371627807617188e+00 2.547981142997741699e-01 4.088746607303619385e-01 1.991018354892730713e-01 -1.273126900196075439e-01
1.902000000000000000e+03 3.533618211746215820e+00 7.625861167907714844e+00 1.801258474588394165e-01 5.051379557698965073e-03 5.555316805839538574e-02 2.975852042436599731e-02
1.903000000000000000e+03 3.528124809265136719e+00 -7.844451904296875000e+00 -9.689594618976116180e-03 1.728572010993957520e+00 5.156646966934204102e-01 7.937869429588317871e-01
1.904000000000000000e+03 6.074020862579345703e+00 -1.369622611999511719e+01 -7.229481339454650879e-01 6.222185611724853516e+00 1.649771213531494141e+00 6.631131172180175781e-01
1.905000000000000000e+03 3.744904327392578125e+01 1.843439865112304688e+01 1.057321310043334961e+00 7.012159824371337891e+00 2.420844316482543945e+00 9.100806713104248047e-02
1.906000000000000000e+03 6.420651435852050781e+00 3.487312698364257812e+01 -9.023572504520416260e-02 1.875532746315002441e+00 5.355890989303588867e-01 -2.056964784860610962e-01
1.907000000000000000e+03 7.231521606445312500e+01 9.078861236572265625e+00 -1.496466994285583496e-01 9.609442710876464844e+00 2.837938785552978516e+00 5.061048269271850586e-01
1.908000000000000000e+03 4.508626937866210938e+01 -8.001465797424316406e+00 -4.623356759548187256e-01 6.354089736938476562e+00 1.767526149749755859e+00 -1.851599931716918945e+00
1.909000000000000000e+03 2.729152107238769531e+01 -1.350597381591796875e+01 -3.789004325866699219e+00 4.190791845321655273e-01 -1.010977506637573242e+00 2.866128087043762207e-01
1.910000000000000000e+03 3.817746353149414062e+01 -1.359794712066650391e+01 -1.092370629310607910e+00 4.583923816680908203e+00 1.047465920448303223e+00 -2.845815896987915039e+00
1.911000000000000000e+03 4.706226348876953125e+01 -1.333934783935546875e+01 -1.191688656806945801e+00 6.996879577636718750e+00 1.741557240486145020e+00 -6.902555227279663086e-01
1.912000000000000000e+03 1.444125747680664062e+01 -1.060143852233886719e+01 -3.076075077056884766e+00 4.253119468688964844e+00 3.531134128570556641e-01 3.722588062286376953e+00
1.913000000000000000e+03 1.422205352783203125e+01 -1.147808647155761719e+01 -3.628093242645263672e+00 4.048741340637207031e+00 1.261943727731704712e-01 3.653455972671508789e+00
1.914000000000000000e+03 6.322816848754882812e+01 -1.842804527282714844e+01 -4.768694639205932617e-01 1.301331877708435059e+00 2.473387122154235840e-01 1.478510260581970215e+00
1.915000000000000000e+03 7.273986053466796875e+01 -6.919008731842041016e+00 -2.261977270245552063e-02 7.152235031127929688e+00 2.138884544372558594e+00 -1.273613572120666504e-01
1.916000000000000000e+03 5.867841720581054688e+01 -1.881931304931640625e+01 -8.555202484130859375e-01 6.081676483154296875e-01 -7.420578598976135254e-02 1.555862188339233398e+00
1.917000000000000000e+03 5.650612258911132812e+01 -1.969176101684570312e+01 -2.236870490014553070e-02 7.044920921325683594e-01 2.046370208263397217e-01 8.463386297225952148e-01
1.918000000000000000e+03 7.536340332031250000e+01 -2.726531410217285156e+01 9.336863160133361816e-01 7.952194213867187500e+00 2.665764093399047852e+00 -1.532319560647010803e-02
1.919000000000000000e+03 6.439776611328125000e+01 -1.843320274353027344e+01 -3.195679485797882080e-01 1.207517981529235840e+00 2.663849890232086182e-01 1.370386362075805664e+00
1.920000000000000000e+03 7.250797271728515625e+01 -1.221644783020019531e+01 -1.279318928718566895e-01 6.114929199218750000e+00 1.796099185943603516e+00 -3.509567379951477051e-01
1.921000000000000000e+03 4.525166702270507812e+01 -1.994993591308593750e+01 1.532079815864562988e+00 9.141729354858398438e+00 3.202142715454101562e+00 -1.124548792839050293e+00
1.922000000000000000e+03 6.674182891845703125e+01 -1.791531944274902344e+01 -8.891494572162628174e-02 1.629423618316650391e+00 4.621526002883911133e-01 4.743970036506652832e-01
1.923000000000000000e+03 6.520561981201171875e+01 -1.518924236297607422e+01 4.867324829101562500e-01 2.033091068267822266e+00 7.559470534324645996e-01 9.089829921722412109e-01
1.924000000000000000e+03 7.205213928222656250e+01 -5.013061046600341797e+00 1.080704554915428162e-01 7.753343582153320312e+00 2.358424186706542969e+00 1.909352988004684448e-01
1.925000000000000000e+03 7.438378143310546875e+01 -5.789121627807617188e+00 8.694057352840900421e-03 7.335191726684570312e+00 2.203165769577026367e+00 -4.701830446720123291e-01
1.926000000000000000e+03 7.451090240478515625e+01 2.392004776000976562e+01 2.339455187320709229e-01 8.119809150695800781e+00 2.506126642227172852e+00 5.038861632347106934e-01
1.927000000000000000e+03 7.181018829345703125e+01 -1.200142002105712891e+01 -5.202386900782585144e-02 5.832706928253173828e+00 1.734204888343811035e+00 -1.767862588167190552e-01
1.928000000000000000e+03 7.022216796875000000e+00 -1.587534046173095703e+01 2.618928849697113037e-01 8.452220916748046875e+00 2.614234209060668945e+00 1.094958424568176270e+00
1.929000000000000000e+03 9.359590530395507812e+00 -1.399510097503662109e+01 -1.177846312522888184e+00 8.641349792480468750e+00 2.239051103591918945e+00 2.375322580337524414e+00
1.930000000000000000e+03 4.538676071166992188e+01 -3.264109039306640625e+01 -8.284027576446533203e-01 7.561252117156982422e+00 2.019854784011840820e+00 -8.898679018020629883e-01
1.931000000000000000e+03 7.339676666259765625e+01 1.282153129577636719e+01 -2.557985782623291016e-01 8.811651229858398438e+00 2.566755771636962891e+00 2.445822060108184814e-01
1.932000000000000000e+03 4.736256027221679688e+01 -2.452993202209472656e+01 2.227600097656250000e+00 7.821236610412597656e+00 3.014651060104370117e+00 -2.502733707427978516e+00
1.933000000000000000e+03 4.615438461303710938e+01 -2.514446830749511719e+01 2.310069322586059570e+00 8.696353912353515625e+00 3.301926851272583008e+00 -2.326189041137695312e+00
1.934000000000000000e+03 4.070142745971679688e+01 2.450600624084472656e+01 4.386885464191436768e-01 6.181574821472167969e+00 1.986078977584838867e+00 7.371577024459838867e-01
1.935000000000000000e+03 3.915931701660156250e+01 2.469875907897949219e+01 2.979172766208648682e-01 6.106951713562011719e+00 1.921460747718811035e+00 4.013343453407287598e-01
1.936000000000000000e+03 7.125784301757812500e+01 3.818352127075195312e+01 -2.163669466972351074e-01 5.310377597808837891e+00 1.528203129768371582e+00 -1.082579717040061951e-01
1.937000000000000000e+03 1.692955207824707031e+01 -3.547758483886718750e+01 -1.361535191535949707e+00 -4.851809144020080566e-01 -5.540148019790649414e-01 7.269065976142883301e-01
1.938000000000000000e+03 6.849155426025390625e+01 -3.850889587402343750e+01 3.410448729991912842e-01 2.598345041275024414e+00 8.818169832229614258e-01 6.335693597793579102e-01
1.939000000000000000e+03 7.324031829833984375e+01 2.548723030090332031e+01 3.080054521560668945e-01 7.904376983642578125e+00 2.463714838027954102e+00 4.576446115970611572e-01
1.940000000000000000e+03 7.089166164398193359e+00 -1.730050468444824219e+01 1.143777370452880859e+00 9.363261222839355469e+00 3.152111530303955078e+00 1.462447404861450195e+00
1.941000000000000000e+03 6.869141387939453125e+01 -1.404685783386230469e+01 2.699245810508728027e-01 3.756962299346923828e+00 1.208066105842590332e+00 2.132080346345901489e-01
1.942000000000000000e+03 6.968775177001953125e+01 -1.287516403198242188e+01 1.727982312440872192e-01 4.605134487152099609e+00 1.433379888534545898e+00 9.761940687894821167e-02
1.943000000000000000e+03 5.791793060302734375e+01 -2.132376670837402344e+01 5.748689770698547363e-01 1.103415608406066895e+00 5.034853816032409668e-01 1.221289157867431641e+00
1.944000000000000000e+03 5.720173263549804688e+01 -2.204859161376953125e+01 8.762047290802001953e-01 1.564773082733154297e+00 7.322933077812194824e-01 9.470280408859252930e-01
1.945000000000000000e+03 3.335573577880859375e+01 -1.317556476593017578e+01 -1.313967943191528320e+00 1.733961224555969238e+00 1.259979903697967529e-01 -1.417497873306274414e+00
1.946000000000000000e+03 2.345964050292968750e+01 -9.391088485717773438e+00 -1.851061463356018066e+00 4.111366346478462219e-02 -5.429843664169311523e-01 -6.911105513572692871e-01
1.947000000000000000e+03 5.424811935424804688e+01 -2.408001518249511719e+01 1.226833224296569824e+00 3.907016754150390625e+00 1.540155053138732910e+00 -5.857451558113098145e-01
1.948000000000000000e+03 5.520605850219726562e+01 -2.345397758483886719e+01 1.249931335449218750e+00 3.000919580459594727e+00 1.275255322456359863e+00 4.384456947445869446e-02
1.949000000000000000e+03 5.375870895385742188e+01 -2.569644546508789062e+01 1.320614695549011230e+00 5.009659767150878906e+00 1.899082422256469727e+00 -9.171028733253479004e-01
1.950000000000000000e+03 6.158783912658691406e+00 -1.588668632507324219e+01 1.646133959293365479e-01 7.298525333404541016e+00 2.238941669464111328e+00 5.366408824920654297e-01
1.951000000000000000e+03 6.886372089385986328e+00 -3.003663063049316406e+01 -2.256279945373535156e+00 7.551665782928466797e+00 1.588615775108337402e+00 1.481687307357788086e+00
1.952000000000000000e+03 2.497383117675781250e+01 -1.146021938323974609e+01 -3.530499458312988281e+00 1.282127052545547485e-01 -1.020686030387878418e+00 -3.318011760711669922e-01
1.953000000000000000e+03 2.435531997680664062e+01 -8.866509437561035156e+00 -1.062300562858581543e+00 3.142852783203125000e-01 -2.244045883417129517e-01 -9.120415449142456055e-01
1.954000000000000000e+03 7.338333892822265625e+01 2.989138412475585938e+01 -1.802326589822769165e-01 7.399248600006103516e+00 2.165704727172851562e+00 6.614410877227783203e-01
1.955000000000000000e+03 7.447673034667968750e+01 3.175383377075195312e+01 -3.771041035652160645e-01 7.786152839660644531e+00 2.222714662551879883e+00 5.481760501861572266e-01
1.956000000000000000e+03 3.652000808715820312e+01 3.158010673522949219e+01 -6.544890403747558594e-01 5.237403869628906250e+00 1.374874472618103027e+00 -4.383109137415885925e-02
1.957000000000000000e+03 4.079295730590820312e+01 2.837467765808105469e+01 -1.447433084249496460e-01 5.328913688659667969e+00 1.555251121520996094e+00 4.736996293067932129e-01
1.958000000000000000e+03 4.300034332275390625e+01 3.447169876098632812e+01 -7.982921004295349121e-01 4.291146755218505859e+00 1.047856450080871582e+00 3.940544128417968750e-01
1.959000000000000000e+03 6.432392597198486328e+00 -2.270006370544433594e+01 2.039540052413940430e+00 1.132106971740722656e+01 4.008183002471923828e+00 2.446345329284667969e+00
1.960000000000000000e+03 7.427590942382812500e+01 -2.076313972473144531e+00 3.142201900482177734e-01 7.926937103271484375e+00 2.472347259521484375e+00 -3.126977086067199707e-01
1.961000000000000000e+03 4.735773086547851562e+01 -1.463797473907470703e+01 -1.226668477058410645e+00 7.108219623565673828e+00 1.764465332031250000e+00 -6.210122108459472656e-01
1.962000000000000000e+03 3.280831909179687500e+01 -1.543609142303466797e+01 -1.945973634719848633e+00 7.463455796241760254e-01 -3.598884344100952148e-01 -4.361335039138793945e-01
1.963000000000000000e+03 3.391050720214843750e+01 -1.562298774719238281e+01 -1.571737408638000488e+00 8.174984455108642578e-01 -2.262716591358184814e-01 -7.290621399879455566e-01
1.964000000000000000e+03 4.278833389282226562e+01 -1.521132850646972656e+01 -1.253386735916137695e+00 8.208067893981933594e+00 2.086404323577880859e+00 -2.092476129531860352e+00
1.965000000000000000e+03 3.739700698852539062e+01 1.001652717590332031e+01 2.157878160476684570e+00 6.908383846282958984e+00 2.719878673553466797e+00 -6.270338892936706543e-01
1.966000000000000000e+03 3.591427230834960938e+01 1.072443294525146484e+01 2.172837734222412109e+00 6.383544921875000000e+00 2.566914796829223633e+00 -4.492261707782745361e-01
1.967000000000000000e+03 4.703411483764648438e+01 4.071454238891601562e+01 -7.711107134819030762e-01 2.794192790985107422e+00 6.069246530532836914e-01 1.461691409349441528e-01
1.968000000000000000e+03 5.300533676147460938e+01 4.129542541503906250e+01 -2.948935031890869141e-01 9.686115384101867676e-01 2.021154165267944336e-01 1.104083582758903503e-01
1.969000000000000000e+03 9.148943901062011719e+00 -3.564910507202148438e+01 -9.074363112449645996e-01 4.028007507324218750e+00 9.361714124679565430e-01 -7.038468122482299805e-02
1.970000000000000000e+03 7.281261444091796875e+01 3.192337036132812500e+01 -5.118358731269836426e-01 6.775266170501708984e+00 1.879029035568237305e+00 4.506354033946990967e-01
1.971000000000000000e+03 4.447594833374023438e+01 -1.695951271057128906e+01 -6.260699033737182617e-01 8.944325447082519531e+00 2.495476484298706055e+00 -1.344678401947021484e+00
1.972000000000000000e+03 4.974062728881835938e+01 -1.655963706970214844e+01 -1.137552857398986816e+00 5.836007595062255859e+00 1.409536361694335938e+00 -5.803579092025756836e-01
1.973000000000000000e+03 4.933264541625976562e+01 -1.855284881591796875e+01 -1.481534540653228760e-01 6.087841510772705078e+00 1.781906366348266602e+00 -9.110153913497924805e-01
1.974000000000000000e+03 7.470199584960937500e+01 3.067715454101562500e+01 -1.854365468025207520e-01 7.918355941772460938e+00 2.319875955581665039e+00 6.787393689155578613e-01
1.975000000000000000e+03 1.174314594268798828e+01 -3.162033796310424805e+00 5.414808273315429688e+00 6.962787151336669922e+00 3.713278532028198242e+00 6.900539398193359375e+00
1.976000000000000000e+03 1.299755096435546875e+01 1.229897975921630859e+00 -1.321517229080200195e-01 9.735112190246582031e+00 2.880888223648071289e+00 -7.904748320579528809e-01
1.977000000000000000e+03 1.272284698486328125e+01 1.566450476646423340e+00 -1.347661856561899185e-02 7.970381736755371094e+00 2.387071609497070312e+00 -1.308186531066894531e+00
1.978000000000000000e+03 1.217673969268798828e+01 1.883720278739929199e+00 2.430489361286163330e-01 5.830716609954833984e+00 1.822129607200622559e+00 -1.757336139678955078e+00
1.979000000000000000e+03 1.396086978912353516e+01 9.487818479537963867e-01 1.001957893371582031e+00 1.155026531219482422e+01 3.765666961669921875e+00 2.434451103210449219e+00
1.980000000000000000e+03 1.345297908782958984e+01 1.506291151046752930e+00 2.212254889309406281e-02 9.952493667602539062e+00 2.992384910583496094e+00 4.166365563869476318e-01
1.981000000000000000e+03 1.213719367980957031e+01 -3.533464670181274414e+00 4.161137580871582031e+00 8.803280830383300781e+00 3.889325380325317383e+00 6.589414596557617188e+00
1.982000000000000000e+03 1.536710834503173828e+01 -9.115902781486511230e-01 8.380612373352050781e+00 7.634256839752197266e+00 4.804461002349853516e+00 3.943231344223022461e+00
1.983000000000000000e+03 1.449376964569091797e+01 3.372330367565155029e-01 3.773095846176147461e+00 1.125400447845458984e+01 4.508130073547363281e+00 4.655270576477050781e+00
1.984000000000000000e+03 1.488929367065429688e+01 9.251645207405090332e-02 5.397748947143554688e+00 9.839929580688476562e+00 4.571303844451904297e+00 5.032145977020263672e+00
1.985000000000000000e+03 1.454415035247802734e+01 -3.303747653961181641e+00 5.152227878570556641e+00 9.795282363891601562e+00 4.484252929687500000e+00 1.375453114509582520e+00
1.986000000000000000e+03 1.342939567565917969e+01 -3.913177013397216797e+00 2.817760229110717773e+00 1.088366603851318359e+01 4.110427856445312500e+00 3.731468439102172852e+00
1.987000000000000000e+03 1.379496955871582031e+01 -3.338780879974365234e+00 4.275770187377929688e+00 1.194179153442382812e+01 4.865268707275390625e+00 2.424972534179687500e+00
1.988000000000000000e+03 1.487061977386474609e+01 -2.329616069793701172e+00 8.087782859802246094e+00 8.910674095153808594e+00 5.099536895751953125e+00 1.255115628242492676e+00
1.989000000000000000e+03 1.555670738220214844e+01 -1.164240717887878418e+00 8.324874877929687500e+00 7.087779521942138672e+00 4.623796463012695312e+00 3.411792039871215820e+00
1.990000000000000000e+03 9.729850769042968750e+00 -3.361005783081054688e+00 4.034330368041992188e+00 1.874470114707946777e+00 1.772640228271484375e+00 3.808722972869873047e+00
1.991000000000000000e+03 8.638055801391601562e+00 -3.908288717269897461e+00 2.676384210586547852e+00 1.676107168197631836e+00 1.305747389793395996e+00 3.021738529205322266e+00
1.992000000000000000e+03 1.177703285217285156e+01 -3.435282230377197266e+00 4.727077960968017578e+00 7.327647209167480469e+00 3.616417646408081055e+00 6.717190265655517578e+00
1.993000000000000000e+03 1.112036705017089844e+01 2.669468402862548828e+00 5.962577462196350098e-01 3.041160583496093750e+00 1.091225504875183105e+00 -1.446323990821838379e+00
1.994000000000000000e+03 1.016499519348144531e+01 -3.345855951309204102e+00 4.446876049041748047e+00 2.382408618927001953e+00 2.048785448074340820e+00 4.392958641052246094e+00
1.995000000000000000e+03 9.240295410156250000e+00 -3.270030260086059570e+00 3.457540273666381836e+00 1.375017523765563965e+00 1.449767351150512695e+00 3.092032194137573242e+00
1.996000000000000000e+03 7.338939666748046875e+00 -4.654375076293945312e+00 1.623207211494445801e+00 1.678929328918457031e+00 9.906409978866577148e-01 2.341559886932373047e+00
1.997000000000000000e+03 8.344141006469726562e+00 5.029035568237304688e+00 6.008574962615966797e-01 1.060177087783813477e+00 4.983103871345520020e-01 -4.212960898876190186e-01
1.998000000000000000e+03 4.725868701934814453e+00 4.956813812255859375e+00 2.314787358045578003e-01 5.437122657895088196e-02 8.575499057769775391e-02 1.990518569946289062e-01
1.999000000000000000e+03 5.398034095764160156e+00 6.759146213531494141e+00 3.488502204418182373e-01 3.740356266498565674e-01 2.168657630681991577e-01 -5.510661005973815918e-02
2.000000000000000000e+03 5.217528820037841797e+00 -5.421331405639648438e+00 6.803113818168640137e-01 1.457683563232421875e+00 6.413984894752502441e-01 1.296981811523437500e+00
2.001000000000000000e+03 6.090703487396240234e+00 -5.231858730316162109e+00 1.004152059555053711e+00 1.627275705337524414e+00 7.894283533096313477e-01 1.769753694534301758e+00
2.002000000000000000e+03 5.686734199523925781e+00 -4.897163391113281250e+00 9.153073430061340332e-01 1.367423534393310547e+00 6.848192811012268066e-01 1.427763462066650391e+00
2.003000000000000000e+03 6.851212501525878906e+00 5.242866516113281250e+00 4.878535866737365723e-01 5.496473312377929688e-01 3.112502694129943848e-01 -1.255165636539459229e-01
2.004000000000000000e+03 8.291091918945312500e+00 4.294635295867919922e+00 6.022030711174011230e-01 8.207818269729614258e-01 4.268954694271087646e-01 -3.518773317337036133e-01
2.005000000000000000e+03 6.640820980072021484e+00 -5.337883472442626953e+00 1.104671478271484375e+00 1.883201718330383301e+00 8.963619470596313477e-01 2.113391637802124023e+00
2.006000000000000000e+03 4.766982555389404297e+00 6.051931858062744141e+00 2.791061401367187500e-01 1.522732228040695190e-01 1.294138133525848389e-01 7.723817974328994751e-02
2.007000000000000000e+03 5.590894699096679688e+00 4.956127643585205078e+00 3.337218463420867920e-01 2.212379723787307739e-01 1.664879471063613892e-01 1.115223541855812073e-01
2.008000000000000000e+03 7.932142257690429688e+00 -4.728763580322265625e+00 1.837682008743286133e+00 2.043749570846557617e+00 1.164429426193237305e+00 2.868603944778442383e+00
2.009000000000000000e+03 1.942776870727539062e+01 -9.299760818481445312e+00 -1.828465223312377930e+00 3.782245516777038574e-01 -4.350722134113311768e-01 6.491192579269409180e-01
2.010000000000000000e+03 2.204416656494140625e+01 -9.154226303100585938e+00 -1.590299725532531738e+00 -1.203465685248374939e-01 -5.131939053535461426e-01 -3.936734199523925781e-01
2.011000000000000000e+03 7.597165584564208984e+00 5.198114395141601562e+00 5.549373030662536621e-01 7.587758302688598633e-01 3.941139280796051025e-01 -2.629454731941223145e-01
2.012000000000000000e+03 1.708506774902343750e+01 -9.662235260009765625e+00 -2.235231399536132812e+00 1.946119785308837891e+00 -8.673345297574996948e-02 2.182549238204956055e+00
2.013000000000000000e+03 8.593281745910644531e+00 -1.051960468292236328e+01 -1.674803018569946289e+00 6.452196598052978516e+00 1.433218121528625488e+00 2.903098821640014648e+00
2.014000000000000000e+03 3.434801483154296875e+01 -1.368550682067871094e+01 -1.226080656051635742e+00 1.969684958457946777e+00 2.230812907218933105e-01 -1.642409443855285645e+00
2.015000000000000000e+03 4.492834568023681641e+00 -7.888481140136718750e+00 -5.344609543681144714e-02 2.322909832000732422e+00 6.808391213417053223e-01 1.194062232971191406e+00
2.016000000000000000e+03 1.326223850250244141e+01 -1.115394783020019531e+01 -3.132148504257202148e+00 5.398450374603271484e+00 6.798905134201049805e-01 4.061728954315185547e+00
2.017000000000000000e+03 1.243022823333740234e+01 -1.073058319091796875e+01 -2.780575990676879883e+00 6.264435291290283203e+00 1.045157790184020996e+00 4.305435180664062500e+00
2.018000000000000000e+03 7.035585021972656250e+01 -1.573114395141601562e+01 -1.538401544094085693e-01 4.401847839355468750e+00 1.274402379989624023e+00 -4.859154522418975830e-01
2.019000000000000000e+03 4.420631408691406250e+01 -5.417319774627685547e+00 -6.220568343997001648e-02 6.126894474029541016e+00 1.819406628608703613e+00 -2.200592517852783203e+00
2.020000000000000000e+03 4.268240356445312500e+01 -4.512475490570068359e+00 -1.092116907238960266e-02 5.990143299102783203e+00 1.793766617774963379e+00 -2.296980381011962891e+00
2.021000000000000000e+03 4.831538009643554688e+01 -2.358403205871582031e+01 2.044399023056030273e+00 6.843093395233154297e+00 2.666247844696044922e+00 -2.090447187423706055e+00
2.022000000000000000e+03 3.302534103393554688e+01 -1.431532669067382812e+01 -1.637894749641418457e+00 1.171887874603271484e+00 -1.398020535707473755e-01 -9.191476106643676758e-01
2.023000000000000000e+03 3.200043869018554688e+01 -1.073799800872802734e+01 -1.145528435707092285e+00 1.990116000175476074e+00 2.533763051033020020e-01 -1.568393707275390625e+00
2.024000000000000000e+03 4.975698089599609375e+01 -2.681243896484375000e+01 1.852469682693481445e+00 6.491088867187500000e+00 2.503067493438720703e+00 -2.390040159225463867e+00
2.025000000000000000e+03 4.109854125976562500e+01 -3.200096189975738525e-01 6.363711953163146973e-01 6.166988372802734375e+00 2.041007995605468750e+00 -2.203465223312377930e+00
2.026000000000000000e+03 1.847015571594238281e+01 -8.413972854614257812e+00 -7.455714941024780273e-01 1.493487834930419922e+00 2.243749201297760010e-01 1.148959398269653320e+00
2.027000000000000000e+03 1.730026054382324219e+01 -1.045247840881347656e+01 -3.186181068420410156e+00 1.135661244392395020e+00 -6.151559352874755859e-01 1.994300484657287598e+00
2.028000000000000000e+03 1.537390327453613281e+01 -1.070406913757324219e+01 -3.364192485809326172e+00 3.126935243606567383e+00 -7.117717713117599487e-02 3.273194074630737305e+00
2.029000000000000000e+03 6.354896545410156250e+01 -1.726018524169921875e+01 -1.960838735103607178e-01 1.401335120201110840e+00 3.615753948688507080e-01 1.357544183731079102e+00
2.030000000000000000e+03 4.145153045654296875e+01 -4.665105342864990234e+00 -2.826595865190029144e-02 5.813415050506591797e+00 1.735544800758361816e+00 -2.317766666412353516e+00
2.031000000000000000e+03 1.789715194702148438e+01 -9.414749145507812500e+00 -1.896628379821777344e+00 1.399089217185974121e+00 -1.492617428302764893e-01 1.600265264511108398e+00
2.032000000000000000e+03 4.700101852416992188e+00 -1.149384403228759766e+01 -6.866880059242248535e-01 4.032700538635253906e+00 1.003803730010986328e+00 6.682789325714111328e-01
2.033000000000000000e+03 4.250279998779296875e+01 -1.395770835876464844e+01 -1.449799299240112305e+00 7.644945621490478516e+00 1.858543872833251953e+00 -2.115623950958251953e+00
2.034000000000000000e+03 4.258015441894531250e+01 -7.813691496849060059e-01 5.619847178459167480e-01 6.231575489044189453e+00 2.038068056106567383e+00 -2.404352664947509766e+00
2.035000000000000000e+03 3.974608230590820312e+01 1.766197443008422852e+00 1.005307912826538086e+00 6.307069778442382812e+00 2.193713188171386719e+00 -1.832402110099792480e+00
2.036000000000000000e+03 4.042686462402343750e+01 6.673399806022644043e-01 8.181776404380798340e-01 6.110866546630859375e+00 2.078713178634643555e+00 -2.010474443435668945e+00
2.037000000000000000e+03 3.046459197998046875e+01 -1.202998352050781250e+01 -1.919412374496459961e+00 1.339537739753723145e+00 -1.739624142646789551e-01 -9.432294964790344238e-01
2.038000000000000000e+03 2.482300376892089844e+01 -9.592316627502441406e+00 -1.830511689186096191e+00 3.682833611965179443e-01 -4.386684894561767578e-01 -8.912934660911560059e-01
2.039000000000000000e+03 6.137522697448730469e+00 -1.483883762359619141e+01 -4.121258258819580078e-01 6.778762817382812500e+00 1.909991025924682617e+00 5.636013150215148926e-01
2.040000000000000000e+03 5.165577888488769531e+00 -1.627312660217285156e+01 2.171094119548797607e-01 6.107512950897216797e+00 1.897386789321899414e+00 2.121889740228652954e-01
2.041000000000000000e+03 4.618766403198242188e+01 -2.162723541259765625e+01 2.273047208786010742e+00 8.308796882629394531e+00 3.174553394317626953e+00 -1.723646759986877441e+00
2.042000000000000000e+03 3.744816970825195312e+01 6.874307155609130859e+00 1.996891736984252930e+00 6.572000503540039062e+00 2.570667743682861328e+00 -8.225485086441040039e-01
2.043000000000000000e+03 3.839788436889648438e+01 3.214880228042602539e+00 1.309253215789794922e+00 6.183700084686279297e+00 2.247885942459106445e+00 -1.370211601257324219e+00
2.044000000000000000e+03 3.811257171630859375e+01 8.106758117675781250e+00 2.053342342376708984e+00 7.023970603942871094e+00 2.723193883895874023e+00 -8.036417961120605469e-01
2.045000000000000000e+03 4.656480407714843750e+01 -1.209848308563232422e+01 -1.050261735916137695e+00 6.846870899200439453e+00 1.738982796669006348e+00 -9.884564876556396484e-01
2.046000000000000000e+03 5.884386825561523438e+01 -2.153092575073242188e+01 5.720001459121704102e-01 1.194673776626586914e+00 5.300021767616271973e-01 1.346524357795715332e+00
2.047000000000000000e+03 5.517035293579101562e+01 -2.172858619689941406e+01 8.614130616188049316e-01 2.176720619201660156e+00 9.114400744438171387e-01 4.380980879068374634e-02
2.048000000000000000e+03 1.056703948974609375e+01 3.026021003723144531e+01 -1.695662736892700195e-01 2.479367017745971680e+00 6.929401755332946777e-01 -3.824838697910308838e-01
2.049000000000000000e+03 9.823544502258300781e+00 3.202191162109375000e+01 -1.614197641611099243e-01 2.345798015594482422e+00 6.553134322166442871e-01 -3.145273029804229736e-01
2.050000000000000000e+03 6.649919891357421875e+01 -1.668171691894531250e+01 1.727443635463714600e-01 2.031907558441162109e+00 6.613955497741699219e-01 5.633761882781982422e-01
2.051000000000000000e+03 7.610571289062500000e+01 -2.777032852172851562e+01 6.021066308021545410e-01 7.684320926666259766e+00 2.485928297042846680e+00 -2.236651331186294556e-01
2.052000000000000000e+03 5.462027072906494141e+00 -9.049117088317871094e+00 -4.687000513076782227e-01 3.525292396545410156e+00 9.169777035713195801e-01 1.545930385589599609e+00
2.053000000000000000e+03 4.810589790344238281e+00 -1.271927452087402344e+01 -6.463420391082763672e-01 4.523620128631591797e+00 1.163183331489562988e+00 4.071163535118103027e-01
2.054000000000000000e+03 8.598768234252929688e+00 -1.302855014801025391e+01 -1.558832049369812012e+00 7.898996829986572266e+00 1.902049422264099121e+00 2.171989917755126953e+00
2.055000000000000000e+03 4.039530944824218750e+01 4.839104652404785156e+00 1.446254730224609375e+00 7.264341831207275391e+00 2.613178968429565430e+00 -1.802187919616699219e+00
2.056000000000000000e+03 5.947725296020507812e+00 3.315913772583007812e+01 -7.304341346025466919e-02 1.778125166893005371e+00 5.115245580673217773e-01 -2.428823262453079224e-01
2.057000000000000000e+03 1.038654708862304688e+01 -1.308962345123291016e+01 -2.005404710769653320e+00 8.112759590148925781e+00 1.832206487655639648e+00 3.168052911758422852e+00
2.058000000000000000e+03 7.490631866455078125e+01 -1.722446823120117188e+01 -5.966570377349853516e-01 7.136051177978515625e+00 1.961818218231201172e+00 -2.045610845088958740e-01
2.059000000000000000e+03 7.463681030273437500e+01 1.541024780273437500e+01 -1.289367675781250000e-02 8.298047065734863281e+00 2.485546112060546875e+00 3.384480476379394531e-01
2.060000000000000000e+03 7.463994598388671875e+01 1.678249931335449219e+01 3.036216460168361664e-02 8.313428878784179688e+00 2.503137350082397461e+00 3.406902849674224854e-01
2.061000000000000000e+03 7.463145446777343750e+01 1.817750549316406250e+01 7.854282110929489136e-02 8.290705680847167969e+00 2.510774612426757812e+00 3.738739490509033203e-01
2.062000000000000000e+03 7.428820037841796875e+01 1.007328605651855469e+01 -1.887186616659164429e-01 8.676069259643554688e+00 2.546205282211303711e+00 5.785080194473266602e-01
2.063000000000000000e+03 7.391724395751953125e+01 2.931403160095214844e+00 5.662165880203247070e-01 8.899507522583007812e+00 2.839717149734497070e+00 2.724646925926208496e-01
2.064000000000000000e+03 7.452536773681640625e+01 -3.372656583786010742e+00 1.725696772336959839e-01 7.669499397277832031e+00 2.352620601654052734e+00 -4.169504940509796143e-01
2.065000000000000000e+03 7.459439086914062500e+01 -1.164602184295654297e+01 -1.286468058824539185e-01 6.753890991210937500e+00 1.987573266029357910e+00 -4.887018501758575439e-01
2.066000000000000000e+03 7.431751251220703125e+01 -1.023128318786621094e+01 -9.714262932538986206e-02 6.798727035522460938e+00 2.010475158691406250e+00 -4.601978063583374023e-01
2.067000000000000000e+03 7.549013519287109375e+01 -1.616505241394042969e+01 -4.120641946792602539e-01 7.219165325164794922e+00 2.042130231857299805e+00 -2.581433653831481934e-01
2.068000000000000000e+03 7.258677673339843750e+01 -1.836294937133789062e+01 -1.032563567161560059e+00 6.343705177307128906e+00 1.593342423439025879e+00 -6.165515780448913574e-01
2.069000000000000000e+03 7.205006408691406250e+01 -8.185126304626464844e+00 7.656103465706110001e-03 6.721995830535888672e+00 2.018895626068115234e+00 -5.357313901185989380e-03
2.070000000000000000e+03 7.553867340087890625e+01 6.396929740905761719e+00 2.154828459024429321e-01 7.927145481109619141e+00 2.442788600921630859e+00 5.385255813598632812e-01
2.071000000000000000e+03 7.474659729003906250e+01 -1.554579830169677734e+01 -3.915299177169799805e-01 6.905951499938964844e+00 1.954326391220092773e+00 -3.767191767692565918e-01
2.072000000000000000e+03 7.039136505126953125e+01 -1.393762016296386719e+01 2.983791939914226532e-02 4.730801582336425781e+00 1.428191900253295898e+00 -2.214756160974502563e-01
2.073000000000000000e+03 7.576697540283203125e+01 2.096855735778808594e+01 1.032837256789207458e-01 8.129360198974609375e+00 2.469793081283569336e+00 4.203301072120666504e-01
2.074000000000000000e+03 8.742320060729980469e+00 2.107398796081542969e+01 -3.540203720331192017e-02 1.992963790893554688e+00 5.872685313224792480e-01 -4.685579240322113037e-01
2.075000000000000000e+03 6.862050533294677734e+00 2.441969299316406250e+01 -4.881256446242332458e-02 1.653792619705200195e+00 4.814940094947814941e-01 -4.060453772544860840e-01
2.076000000000000000e+03 6.933274841308593750e+01 -1.900344657897949219e+01 -5.583775639533996582e-01 2.604836702346801758e+00 6.139377951622009277e-01 -9.581236839294433594e-01
2.077000000000000000e+03 5.901998901367187500e+01 -1.977437400817871094e+01 -1.242907643318176270e-01 8.775592446327209473e-01 2.259805351495742798e-01 1.558393001556396484e+00
2.078000000000000000e+03 6.342051029205322266e+00 1.659822273254394531e+01 1.587437652051448822e-02 1.294247508049011230e+00 3.930365741252899170e-01 -4.252371490001678467e-01
2.079000000000000000e+03 6.769135284423828125e+01 -1.742096138000488281e+01 8.560468442738056183e-03 2.056076288223266602e+00 6.193910241127014160e-01 1.005120202898979187e-01
2.080000000000000000e+03 6.481954574584960938e+00 1.793476867675781250e+01 4.431620982359163463e-05 1.381383180618286133e+00 4.144282341003417969e-01 -4.291942417621612549e-01
2.081000000000000000e+03 6.224493503570556641e+00 1.528199100494384766e+01 4.133583605289459229e-02 1.213665962219238281e+00 3.765005469322204590e-01 -4.127755165100097656e-01
2.082000000000000000e+03 6.387542724609375000e+00 2.056520462036132812e+01 -2.233207598328590393e-02 1.442826390266418457e+00 4.261482954025268555e-01 -4.181532859802246094e-01
2.083000000000000000e+03 3.579492950439453125e+01 1.792876625061035156e+01 1.178567528724670410e+00 6.449287414550781250e+00 2.288356542587280273e+00 -1.228995025157928467e-01
2.084000000000000000e+03 3.988921737670898438e+01 -1.461264514923095703e+01 -1.217934370040893555e+00 6.190459251403808594e+00 1.491757512092590332e+00 -3.004848480224609375e+00
2.085000000000000000e+03 4.310138320922851562e+01 -8.445400238037109375e+00 -7.344812750816345215e-01 6.324745655059814453e+00 1.677079319953918457e+00 -2.043501853942871094e+00
2.086000000000000000e+03 7.570704936981201172e+00 2.948293685913085938e+01 -8.963207900524139404e-02 1.918714523315429688e+00 5.487247109413146973e-01 -3.544760048389434814e-01
2.087000000000000000e+03 6.679638862609863281e+00 2.809635734558105469e+01 -6.674360483884811401e-02 1.726985096931457520e+00 4.980724453926086426e-01 -3.508503735065460205e-01
2.088000000000000000e+03 6.798684597015380859e+00 9.578098297119140625e+00 2.933109998703002930e-01 1.105141997337341309e+00 4.195359051227569580e-01 -3.563168644905090332e-01
2.089000000000000000e+03 5.881721496582031250e+00 8.488596916198730469e+00 3.229009509086608887e-01 6.980919837951660156e-01 3.062978684902191162e-01 -2.211868613958358765e-01
2.090000000000000000e+03 5.758775711059570312e+00 -5.918683528900146484e+00 6.630618572235107422e-01 1.927883386611938477e+00 7.772835493087768555e-01 1.704682826995849609e+00
2.091000000000000000e+03 5.049357223510742188e+01 -3.276657104492187500e+01 5.993821024894714355e-01 6.730551242828369141e+00 2.198980093002319336e+00 -1.273425579071044922e+00
2.092000000000000000e+03 4.765375900268554688e+01 -3.014155197143554688e+01 9.061741232872009277e-01 7.431238651275634766e+00 2.501223802566528320e+00 -2.052075624465942383e+00
2.093000000000000000e+03 4.812516403198242188e+01 -2.026852798461914062e+01 1.014986515045166016e+00 6.935164451599121094e+00 2.385045289993286133e+00 -1.234558820724487305e+00
2.094000000000000000e+03 5.271035766601562500e+01 -2.011568832397460938e+01 2.618295252323150635e-01 3.236997842788696289e+00 1.049648284912109375e+00 -9.485931396484375000e-01
2.095000000000000000e+03 6.112537384033203125e+00 1.397298049926757812e+01 7.892449200153350830e-02 1.133492469787597656e+00 3.637250661849975586e-01 -3.932791650295257568e-01
2.096000000000000000e+03 5.928696155548095703e+00 9.839833259582519531e+00 2.409637123346328735e-01 8.508456945419311523e-01 3.275428116321563721e-01 -2.849928140640258789e-01
2.097000000000000000e+03 7.168789863586425781e+00 7.673985481262207031e+00 4.300701320171356201e-01 1.044628620147705078e+00 4.424096345901489258e-01 -3.259809911251068115e-01
2.098000000000000000e+03 3.508522796630859375e+01 1.256591796875000000e+01 1.979977488517761230e+00 6.171272754669189453e+00 2.445374965667724609e+00 -3.327425420284271240e-01
2.099000000000000000e+03 7.318669128417968750e+01 -5.482112884521484375e+00 4.541853070259094238e-02 7.565995216369628906e+00 2.283424139022827148e+00 -2.183178663253784180e-01
2.100000000000000000e+03 3.762703323364257812e+01 -1.228238296508789062e+01 -9.485716819763183594e-01 4.324295520782470703e+00 1.012717127799987793e+00 -2.733204603195190430e+00
2.101000000000000000e+03 4.914346694946289062e+00 -1.392320251464843750e+01 -5.017037987709045410e-01 5.048023700714111328e+00 1.363896012306213379e+00 2.385307401418685913e-01
2.102000000000000000e+03 5.739558696746826172e+00 -1.134744262695312500e+01 -9.648821353912353516e-01 4.882776737213134766e+00 1.175368428230285645e+00 1.163648843765258789e+00
2.103000000000000000e+03 4.551789093017578125e+01 -1.268485546112060547e+01 -1.283780455589294434e+00 7.313692569732666016e+00 1.808973550796508789e+00 -1.147085189819335938e+00
2.104000000000000000e+03 4.408715438842773438e+01 -1.068910408020019531e+01 -1.089547872543334961e+00 6.862906455993652344e+00 1.732007503509521484e+00 -1.716079115867614746e+00
2.105000000000000000e+03 5.044818878173828125e+01 -2.923364639282226562e+01 1.675947189331054688e+00 6.495472431182861328e+00 2.451425790786743164e+00 -2.163524627685546875e+00
2.106000000000000000e+03 7.502192687988281250e+01 1.343844413757324219e+00 5.358690023422241211e-01 7.979371547698974609e+00 2.554572105407714844e+00 4.260310437530279160e-03
2.107000000000000000e+03 4.313255691528320312e+01 -1.639363288879394531e+01 -9.651202559471130371e-01 9.084365844726562500e+00 2.435773611068725586e+00 -1.873862981796264648e+00
2.108000000000000000e+03 7.083183288574218750e+01 -1.214285469055175781e+01 5.965763702988624573e-02 5.274208545684814453e+00 1.600159883499145508e+00 -2.455956861376762390e-02
2.109000000000000000e+03 6.788892364501953125e+01 -1.524396610260009766e+01 2.633100450038909912e-01 2.985173225402832031e+00 9.745450019836425781e-01 2.049288451671600342e-01
2.110000000000000000e+03 3.666479110717773438e+01 8.770210266113281250e+00 2.269172191619873047e+00 6.456300258636474609e+00 2.617641687393188477e+00 -5.595081448554992676e-01
2.111000000000000000e+03 7.145880126953125000e+01 -9.359205245971679688e+00 2.743580192327499390e-02 6.198804378509521484e+00 1.867872118949890137e+00 9.237155318260192871e-02
2.112000000000000000e+03 4.446269607543945312e+01 -1.837603378295898438e+01 4.058209061622619629e-01 9.285358428955078125e+00 2.907353878021240234e+00 -1.369348049163818359e+00
2.113000000000000000e+03 4.740965270996093750e+01 -1.594864654541015625e+01 -1.033825874328613281e+00 7.281142711639404297e+00 1.874195098876953125e+00 -6.235179901123046875e-01
2.114000000000000000e+03 5.010536956787109375e+01 -2.806406784057617188e+01 1.902935743331909180e+00 6.496766567230224609e+00 2.519910573959350586e+00 -2.455368041992187500e+00
2.115000000000000000e+03 1.117662525177001953e+01 -1.091567420959472656e+01 -2.527001380920410156e+00 6.997209072113037109e+00 1.341062307357788086e+00 4.021539211273193359e+00
2.116000000000000000e+03 9.878974914550781250e+00 -1.087158489227294922e+01 -2.165769338607788086e+00 7.118668556213378906e+00 1.485869765281677246e+00 3.502508401870727539e+00
2.117000000000000000e+03 4.593017196655273438e+01 -1.783738136291503906e+01 -2.092393189668655396e-01 8.308080673217773438e+00 2.429652452468872070e+00 -8.877782821655273438e-01
2.118000000000000000e+03 5.273161315917968750e+01 -2.347990798950195312e+01 1.319602012634277344e+00 4.393661499023437500e+00 1.713979005813598633e+00 -1.155329465866088867e+00
2.119000000000000000e+03 3.742001342773437500e+01 1.974013137817382812e+01 8.742159605026245117e-01 6.714854240417480469e+00 2.276721000671386719e+00 1.538622826337814331e-01
2.120000000000000000e+03 3.642908477783203125e+01 -1.269494819641113281e+01 -1.006481170654296875e+00 3.464068651199340820e+00 7.372762560844421387e-01 -2.437588930130004883e+00
2.121000000000000000e+03 7.201296997070312500e+01 -1.278309345245361328e+01 -1.310336589813232422e-01 5.749158859252929688e+00 1.685437560081481934e+00 -2.773345708847045898e-01
2.122000000000000000e+03 3.917373657226562500e+01 2.325548934936523438e+01 4.859715104103088379e-01 6.346563816070556641e+00 2.049760580062866211e+00 4.351698160171508789e-01
2.123000000000000000e+03 4.002213668823242188e+01 2.218289566040039062e+01 6.318507790565490723e-01 6.750462532043457031e+00 2.214694023132324219e+00 6.935541033744812012e-01
2.124000000000000000e+03 4.349983596801757812e+01 -7.055491924285888672e+00 -4.256792664527893066e-01 6.192411899566650391e+00 1.730019807815551758e+00 -2.126941680908203125e+00
2.125000000000000000e+03 7.154714965820312500e+01 -3.845307922363281250e+01 -5.216619744896888733e-02 4.787534713745117188e+00 1.420610547065734863e+00 4.536342620849609375e-01
2.126000000000000000e+03 4.098524475097656250e+01 2.987276649475097656e+01 -3.674905896186828613e-01 5.109663486480712891e+00 1.422651886940002441e+00 4.309313297271728516e-01
2.127000000000000000e+03 1.667338943481445312e+01 -4.109823226928710938e+01 -2.086825370788574219e-01 -2.088443487882614136e-01 -1.252580583095550537e-01 1.385116428136825562e-01
2.128000000000000000e+03 3.646705627441406250e+01 2.402213287353515625e+01 3.205157220363616943e-01 5.896148681640625000e+00 1.864999413490295410e+00 -8.774451911449432373e-03
2.129000000000000000e+03 3.254241561889648438e+01 -4.133832550048828125e+01 -9.957680702209472656e-01 -6.737253069877624512e-02 -3.189421892166137695e-01 2.388689434155821800e-03
2.130000000000000000e+03 4.051240158081054688e+01 3.298418426513671875e+01 -7.710818648338317871e-01 4.807976245880126953e+00 1.211068391799926758e+00 2.289397865533828735e-01
2.131000000000000000e+03 5.475608825683593750e+01 -1.991605567932128906e+01 1.692770570516586304e-01 1.565179586410522461e+00 5.203369855880737305e-01 -2.517079114913940430e-01
2.132000000000000000e+03 1.257901477813720703e+01 1.683605551719665527e+00 4.010946676135063171e-02 7.285772323608398438e+00 2.197764396667480469e+00 -1.506575107574462891e+00
2.133000000000000000e+03 1.239967441558837891e+01 1.798328995704650879e+00 1.448803693056106567e-01 6.619423866271972656e+00 2.029291152954101562e+00 -1.650787711143493652e+00
2.134000000000000000e+03 1.199511909484863281e+01 2.280749320983886719e+00 3.061026036739349365e-01 5.087265014648437500e+00 1.618010282516479492e+00 -1.638599872589111328e+00
2.135000000000000000e+03 1.094968414306640625e+01 -3.273459672927856445e+00 5.291918754577636719e+00 3.875419139862060547e+00 2.750201463699340820e+00 5.681259632110595703e+00
2.136000000000000000e+03 1.187581729888916016e+01 -3.700309276580810547e+00 4.019778251647949219e+00 7.722854614257812500e+00 3.522789716720581055e+00 6.468194007873535156e+00
2.137000000000000000e+03 1.288682556152343750e+01 -4.106071949005126953e+00 2.498338222503662109e+00 1.005360221862792969e+01 3.765582084655761719e+00 4.964828491210937500e+00
2.138000000000000000e+03 1.267989349365234375e+01 -3.801602125167846680e+00 3.083450794219970703e+00 1.019054317474365234e+01 3.982198238372802734e+00 5.466587066650390625e+00
2.139000000000000000e+03 1.597933864593505859e+01 -6.808467507362365723e-01 7.090539932250976562e+00 6.539617061614990234e+00 4.089046955108642578e+00 3.822045564651489258e+00
2.140000000000000000e+03 1.508409309387207031e+01 -3.222988605499267578e+00 5.483207702636718750e+00 8.393338203430175781e+00 4.162963867187500000e+00 1.130067348480224609e+00
2.141000000000000000e+03 1.242742729187011719e+01 -4.070606708526611328e+00 2.744633674621582031e+00 9.077146530151367188e+00 3.546534061431884766e+00 5.661416053771972656e+00
2.142000000000000000e+03 1.447983264923095703e+01 1.273070693016052246e+00 1.489873051643371582e+00 1.017645263671875000e+01 3.499897718429565430e+00 2.932549715042114258e+00
2.143000000000000000e+03 1.495048618316650391e+01 -3.519996881484985352e+00 4.665249347686767578e+00 8.677595138549804688e+00 4.002853393554687500e+00 1.259058713912963867e+00
2.144000000000000000e+03 1.377664375305175781e+01 -3.994031190872192383e+00 2.819469690322875977e+00 1.041618347167968750e+01 3.970695972442626953e+00 3.136479616165161133e+00
2.145000000000000000e+03 1.609701728820800781e+01 -2.419734477996826172e+00 6.901818752288818359e+00 6.091087818145751953e+00 3.897871971130371094e+00 1.606353759765625000e+00
2.146000000000000000e+03 1.522760486602783203e+01 -2.072853565216064453e+00 8.510500907897949219e+00 7.795879840850830078e+00 4.891913890838623047e+00 1.703987360000610352e+00
2.147000000000000000e+03 1.084826469421386719e+01 3.091942071914672852e+00 6.299598217010498047e-01 2.673581361770629883e+00 9.910623431205749512e-01 -1.279740929603576660e+00
2.148000000000000000e+03 1.257608795166015625e+01 2.098256111145019531e+00 4.835930094122886658e-02 6.851998329162597656e+00 2.070107221603393555e+00 -1.284184694290161133e+00
2.149000000000000000e+03 1.053094387054443359e+01 2.842075824737548828e+00 7.116321325302124023e-01 2.038263320922851562e+00 8.249686360359191895e-01 -1.193071961402893066e+00
2.150000000000000000e+03 5.485818386077880859e+00 -6.857033252716064453e+00 3.056962788105010986e-01 2.311554670333862305e+00 7.851752638816833496e-01 1.669757008552551270e+00
2.151000000000000000e+03 9.533937454223632812e+00 4.004541397094726562e+00 6.763219237327575684e-01 1.507370829582214355e+00 6.551078557968139648e-01 -7.417304515838623047e-01
2.152000000000000000e+03 7.219865322113037109e+00 -5.382598400115966797e+00 1.224745988845825195e+00 2.192173719406127930e+00 1.025075912475585938e+00 2.527491807937622070e+00
2.153000000000000000e+03 8.302204132080078125e+00 -5.632329463958740234e+00 1.286906480789184570e+00 3.075765609741210938e+00 1.308801651000976562e+00 3.494455099105834961e+00
2.154000000000000000e+03 5.415962219238281250e+00 -7.948004722595214844e+00 -1.082411035895347595e-01 2.915363073348999023e+00 8.421365618705749512e-01 1.636914491653442383e+00
2.155000000000000000e+03 5.253232479095458984e+00 5.491499423980712891e+00 3.166635036468505859e-01 2.044075578451156616e-01 1.563213169574737549e-01 9.099065512418746948e-02
2.156000000000000000e+03 1.539817428588867188e+01 -9.902877807617187500e+00 -2.557509183883666992e+00 3.557403087615966797e+00 2.999681532382965088e-01 3.272894382476806641e+00
2.157000000000000000e+03 7.620772838592529297e+00 6.098114967346191406e+00 5.267534852027893066e-01 9.665262103080749512e-01 4.479838907718658447e-01 -3.272305428981781006e-01
2.158000000000000000e+03 6.489051342010498047e+00 -6.124693393707275391e+00 6.930523514747619629e-01 2.421506881713867188e+00 9.343677759170532227e-01 2.221621036529541016e+00
2.159000000000000000e+03 6.171388626098632812e+00 5.148070335388183594e+00 4.067710936069488525e-01 3.708404302597045898e-01 2.332834452390670776e-01 7.354442030191421509e-03
2.160000000000000000e+03 6.704504013061523438e+00 6.179873466491699219e+00 4.763597846031188965e-01 6.688783168792724609e-01 3.435714244842529297e-01 -1.797063946723937988e-01
2.161000000000000000e+03 5.905230998992919922e+00 5.916323661804199219e+00 4.037647247314453125e-01 4.177534580230712891e-01 2.464554458856582642e-01 -3.715322911739349365e-02
2.162000000000000000e+03 7.147715091705322266e+00 -6.114011764526367188e+00 8.060206174850463867e-01 2.742797374725341797e+00 1.064645409584045410e+00 2.673260450363159180e+00
2.163000000000000000e+03 9.023286819458007812e+00 4.811758518218994141e+00 6.403833627700805664e-01 1.396119832992553711e+00 6.109509468078613281e-01 -6.029544472694396973e-01
2.164000000000000000e+03 8.475882530212402344e+00 5.770315170288085938e+00 5.831143856048583984e-01 1.321963071823120117e+00 5.715232491493225098e-01 -4.961824417114257812e-01
2.165000000000000000e+03 2.297328948974609375e+01 -8.552653312683105469e+00 -8.107241392135620117e-01 1.975480616092681885e-01 -1.839528232812881470e-01 -6.670523881912231445e-01
2.166000000000000000e+03 2.528981208801269531e+01 -1.031807041168212891e+01 -2.250517606735229492e+00 2.973597049713134766e-01 -5.859473347663879395e-01 -7.222779989242553711e-01
2.167000000000000000e+03 2.521550559997558594e+01 -8.389867782592773438e+00 -7.104235291481018066e-01 5.642182230949401855e-01 -4.386159405112266541e-02 -1.003491044044494629e+00
2.168000000000000000e+03 1.358827209472656250e+01 -1.035964202880859375e+01 -2.873297929763793945e+00 5.188219070434570312e+00 6.944763064384460449e-01 4.178053855895996094e+00
2.169000000000000000e+03 7.407483577728271484e+00 -9.872789382934570312e+00 -1.128705859184265137e+00 5.355829715728759766e+00 1.268137216567993164e+00 2.436304807662963867e+00
2.170000000000000000e+03 1.458656597137451172e+01 -9.834969520568847656e+00 -2.623464584350585938e+00 4.452914714813232422e+00 5.488350391387939453e-01 3.764470338821411133e+00
2.171000000000000000e+03 7.156519889831542969e+00 1.387522506713867188e+01 8.864317834377288818e-02 1.448731422424316406e+00 4.612123668193817139e-01 -4.316537976264953613e-01
2.172000000000000000e+03 8.694396972656250000e+00 1.742703437805175781e+01 1.522550359368324280e-02 1.957210421562194824e+00 5.917307734489440918e-01 -4.663895070552825928e-01
2.173000000000000000e+03 4.401261520385742188e+01 -8.317275047302246094e+00 -6.176478862762451172e-01 6.362977504730224609e+00 1.723598837852478027e+00 -1.969769120216369629e+00
2.174000000000000000e+03 4.298243713378906250e+01 -5.787199020385742188e+00 -1.994860172271728516e-01 6.036408424377441406e+00 1.751076817512512207e+00 -2.262077569961547852e+00
2.175000000000000000e+03 6.545452117919921875e+01 -1.711409187316894531e+01 1.256951689720153809e-02 1.611901164054870605e+00 4.873411953449249268e-01 9.502729177474975586e-01
2.176000000000000000e+03 6.522332763671875000e+01 -1.615789222717285156e+01 2.032594531774520874e-01 1.768514871597290039e+00 5.915322899818420410e-01 8.581851124763488770e-01
2.177000000000000000e+03 4.213813781738281250e+01 -2.260216712951660156e+00 3.316205441951751709e-01 6.031065940856933594e+00 1.908805966377258301e+00 -2.332841396331787109e+00
2.178000000000000000e+03 1.542038249969482422e+01 -2.770076990127563477e+00 6.721869468688964844e+00 7.563179969787597656e+00 4.285514831542968750e+00 1.194398283958435059e+00
2.179000000000000000e+03 1.611617469787597656e+01 -9.119753837585449219e+00 -1.815910577774047852e+00 3.323425292968750000e+00 4.522544145584106445e-01 2.765435218811035156e+00
2.180000000000000000e+03 4.520159912109375000e+01 -1.584651374816894531e+01 -1.073406100273132324e+00 8.280835151672363281e+00 2.162228584289550781e+00 -1.060835003852844238e+00
2.181000000000000000e+03 3.612649154663085938e+01 7.414895057678222656e+00 2.124870777130126953e+00 5.969493865966796875e+00 2.428309440612792969e+00 -5.431228280067443848e-01
2.182000000000000000e+03 4.169775772094726562e+01 -1.266674280166625977e+00 5.092329382896423340e-01 6.014131546020507812e+00 1.957009434700012207e+00 -2.307417631149291992e+00
2.183000000000000000e+03 2.065758895874023438e+01 -9.208276748657226562e+00 -1.763622879981994629e+00 -1.055725887417793274e-01 -5.607586503028869629e-01 5.727022141218185425e-02
2.184000000000000000e+03 4.279970169067382812e+01 -1.052338218688964844e+01 -1.141296982765197754e+00 6.628838062286376953e+00 1.646262288093566895e+00 -2.069416284561157227e+00
2.185000000000000000e+03 7.096551513671875000e+01 -1.838842964172363281e+01 -8.251624703407287598e-01 4.728878498077392578e+00 1.171114802360534668e+00 -1.073851943016052246e+00
2.186000000000000000e+03 3.952971267700195312e+01 -1.020908430218696594e-01 7.564787268638610840e-01 5.897308349609375000e+00 1.996136188507080078e+00 -1.964368224143981934e+00
2.187000000000000000e+03 2.566613578796386719e+01 -1.106362724304199219e+01 -2.966911077499389648e+00 4.453889429569244385e-01 -7.564566135406494141e-01 -6.606398820877075195e-01
2.188000000000000000e+03 2.612557411193847656e+01 -9.892814636230468750e+00 -1.795497655868530273e+00 6.697133779525756836e-01 -3.377352952957153320e-01 -9.941270947456359863e-01
2.189000000000000000e+03 7.041897773742675781e+00 -1.228978061676025391e+01 -1.333169579505920410e+00 6.436376094818115234e+00 1.530961990356445312e+00 1.550067305564880371e+00
2.190000000000000000e+03 6.354101657867431641e+00 -9.006366729736328125e+00 -5.916997790336608887e-01 4.124456882476806641e+00 1.059827089309692383e+00 2.026739835739135742e+00
2.191000000000000000e+03 5.369858551025390625e+01 -2.310953712463378906e+01 1.283754706382751465e+00 3.699207544326782227e+00 1.494888663291931152e+00 -7.819325327873229980e-01
2.192000000000000000e+03 5.119379425048828125e+01 -2.301786994934082031e+01 1.444248318672180176e+00 5.117142200469970703e+00 1.968417048454284668e+00 -1.637617349624633789e+00
2.193000000000000000e+03 3.888638305664062500e+01 4.476607799530029297e+00 1.558306574821472168e+00 6.575538635253906250e+00 2.440153598785400391e+00 -1.365622282028198242e+00
2.194000000000000000e+03 3.941218185424804688e+01 2.948871135711669922e+00 1.256804943084716797e+00 6.305586338043212891e+00 2.268717288970947266e+00 -1.618998050689697266e+00
2.195000000000000000e+03 6.599044799804687500e+00 2.308174896240234375e+01 -3.580518439412117004e-02 1.550608515739440918e+00 4.544409811496734619e-01 -4.093567728996276855e-01
2.196000000000000000e+03 8.437302589416503906e+00 2.509486961364746094e+01 -7.094079256057739258e-02 1.986801147460937500e+00 5.747581124305725098e-01 -4.406118690967559814e-01
2.197000000000000000e+03 1.050036334991455078e+01 -1.159641265869140625e+01 -2.428025484085083008e+00 7.452647209167480469e+00 1.507386445999145508e+00 3.604527473449707031e+00
2.198000000000000000e+03 1.171791362762451172e+01 -1.025227069854736328e+01 -2.519432544708251953e+00 6.707786083221435547e+00 1.256505966186523438e+00 4.314802169799804688e+00
2.199000000000000000e+03 6.271742820739746094e+00 -8.001943588256835938e+00 -1.908626556396484375e-01 3.475690841674804688e+00 9.854484200477600098e-01 2.119280338287353516e+00
2.200000000000000000e+03 3.873250198364257812e+01 9.755691289901733398e-01 1.000155687332153320e+00 5.795720100402832031e+00 2.038762807846069336e+00 -1.661461949348449707e+00
2.201000000000000000e+03 7.335801696777343750e+01 -1.409312343597412109e+01 -2.790926992893218994e-01 6.274674415588378906e+00 1.798674464225769043e+00 -4.709568023681640625e-01
2.202000000000000000e+03 7.479398345947265625e+01 -1.306282711029052734e+01 -1.766569465398788452e-01 6.802501201629638672e+00 1.987753272056579590e+00 -4.767036736011505127e-01
2.203000000000000000e+03 7.366432189941406250e+01 -1.203234004974365234e+01 -1.189254745841026306e-01 6.500343799591064453e+00 1.914425492286682129e+00 -4.537924528121948242e-01
2.204000000000000000e+03 7.408807373046875000e+01 -1.650866317749023438e+01 -6.010837554931640625e-01 6.771977424621582031e+00 1.851268172264099121e+00 -3.822225034236907959e-01
2.205000000000000000e+03 5.919811725616455078e+00 -1.252841377258300781e+01 -9.674146771430969238e-01 5.647019386291503906e+00 1.403881311416625977e+00 8.847964406013488770e-01
2.206000000000000000e+03 3.508010864257812500e+01 2.255333709716796875e+01 5.207164287567138672e-01 5.907258033752441406e+00 1.928392291069030762e+00 -1.417353004217147827e-01
2.207000000000000000e+03 7.622171401977539062e+00 1.759616851806640625e+01 7.485910784453153610e-03 1.653573632240295410e+00 4.983178675174713135e-01 -4.611726999282836914e-01
2.208000000000000000e+03 4.479120635986328125e+01 -1.162953853607177734e+01 -1.192000508308410645e+00 7.046460628509521484e+00 1.756338119506835938e+00 -1.470049381256103516e+00
2.209000000000000000e+03 3.780368804931640625e+01 1.946597695350646973e+00 1.281713247299194336e+00 5.698746204376220703e+00 2.094137907028198242e+00 -1.459622740745544434e+00
2.210000000000000000e+03 4.382828140258789062e+01 -1.365262603759765625e+01 -1.421702384948730469e+00 7.738009452819824219e+00 1.894892096519470215e+00 -1.659547924995422363e+00
2.211000000000000000e+03 8.205759048461914062e+00 1.843904304504394531e+01 -1.086261123418807983e-02 1.812826395034790039e+00 5.405890941619873047e-01 -4.658323526382446289e-01
2.212000000000000000e+03 7.026715850830078125e+01 -1.746370124816894531e+01 -4.440420866012573242e-01 4.066240310668945312e+00 1.086659431457519531e+00 -8.135187625885009766e-01
2.213000000000000000e+03 7.913034915924072266e+00 6.938160419464111328e+00 4.885226488113403320e-01 1.232728600502014160e+00 5.163753628730773926e-01 -4.068973958492279053e-01
2.214000000000000000e+03 3.793910598754882812e+01 5.048130512237548828e+00 1.652406692504882812e+00 6.413495540618896484e+00 2.419770717620849609e+00 -1.081113100051879883e+00
2.215000000000000000e+03 8.109014511108398438e+00 -1.192647361755371094e+01 -1.672244191169738770e+00 6.958671092987060547e+00 1.585928201675415039e+00 2.182248830795288086e+00
2.216000000000000000e+03 8.518000602722167969e+00 9.959888458251953125e+00 2.708463370800018311e-01 1.782233238220214844e+00 6.159238815307617188e-01 -4.632174074649810791e-01
2.217000000000000000e+03 6.030097961425781250e+00 1.265301227569580078e+01 1.187778860330581665e-01 1.057173252105712891e+00 3.527853488922119141e-01 -3.717635869979858398e-01
2.218000000000000000e+03 5.115922927856445312e+01 -2.651865768432617188e+01 1.786412000656127930e+00 6.060323238372802734e+00 2.354020595550537109e+00 -2.170368194580078125e+00
2.219000000000000000e+03 4.879566955566406250e+01 -1.728368949890136719e+01 -7.199114561080932617e-01 6.524913311004638672e+00 1.741500616073608398e+00 -6.652204394340515137e-01
2.220000000000000000e+03 3.947307968139648438e+01 -1.315795135498046875e+01 -1.136807799339294434e+00 5.656985759735107422e+00 1.356053352355957031e+00 -2.866701126098632812e+00
2.221000000000000000e+03 3.881986999511718750e+01 -1.175626659393310547e+01 -1.126327276229858398e+00 5.190825939178466797e+00 1.219349622726440430e+00 -2.710152387619018555e+00
2.222000000000000000e+03 3.773762512207031250e+01 -7.976076126098632812e+00 -5.051034092903137207e-01 4.702495098114013672e+00 1.259217500686645508e+00 -2.402768135070800781e+00
2.223000000000000000e+03 5.163108825683593750e+01 -2.115787124633789062e+01 6.570667028427124023e-01 4.330883026123046875e+00 1.496384978294372559e+00 -1.272506713867187500e+00
2.224000000000000000e+03 4.159269714355468750e+01 -5.999876499176025391e+00 -3.077994287014007568e-01 5.865643501281738281e+00 1.667353272438049316e+00 -2.264997482299804688e+00
2.225000000000000000e+03 4.268659210205078125e+01 -7.564206123352050781e+00 -5.458373427391052246e-01 6.107915878295898438e+00 1.668623685836791992e+00 -2.159201860427856445e+00
2.226000000000000000e+03 8.001124382019042969e+00 1.264333057403564453e+01 1.469263881444931030e-01 1.695492863655090332e+00 5.527257919311523438e-01 -4.470758736133575439e-01
2.227000000000000000e+03 3.386840057373046875e+01 1.743774223327636719e+01 1.283219337463378906e+00 5.914577484130859375e+00 2.159339189529418945e+00 -2.023301720619201660e-01
2.228000000000000000e+03 3.473623657226562500e+01 1.554370784759521484e+01 1.556873798370361328e+00 6.174486160278320312e+00 2.319407939910888672e+00 -2.097929567098617554e-01
2.229000000000000000e+03 7.174583435058593750e+01 -1.925450897216796875e+01 -1.228328227996826172e+00 6.025652408599853516e+00 1.439197301864624023e+00 -1.066376447677612305e+00
2.230000000000000000e+03 3.421506500244140625e+01 1.436263656616210938e+01 1.747779965400695801e+00 5.930791378021240234e+00 2.303571462631225586e+00 -2.546657323837280273e-01
2.231000000000000000e+03 4.797259521484375000e+01 -2.580205535888671875e+01 2.059202432632446289e+00 7.192609786987304688e+00 2.775543689727783203e+00 -2.440080404281616211e+00
2.232000000000000000e+03 4.945029449462890625e+01 -2.402483558654785156e+01 1.863625168800354004e+00 6.237440109252929688e+00 2.430319547653198242e+00 -2.128271341323852539e+00
2.233000000000000000e+03 4.086127090454101562e+01 -1.159078884124755859e+01 -1.232177615165710449e+00 6.267026901245117188e+00 1.510454773902893066e+00 -2.527448415756225586e+00
2.234000000000000000e+03 4.348843002319335938e+01 -9.949894905090332031e+00 -1.007656812667846680e+00 6.595148086547851562e+00 1.676247358322143555e+00 -1.989521384239196777e+00
2.235000000000000000e+03 5.068439102172851562e+01 -3.142305564880371094e+01 1.237781882286071777e+00 6.632272720336914062e+00 2.361016511917114258e+00 -1.772201538085937500e+00
2.236000000000000000e+03 5.224274444580078125e+01 -3.128912925720214844e+01 1.658656597137451172e+00 6.759272098541259766e+00 2.525378704071044922e+00 -1.592451333999633789e+00
2.237000000000000000e+03 4.867868041992187500e+01 -2.843692779541015625e+01 1.573559999465942383e+00 7.032785892486572266e+00 2.581903696060180664e+00 -2.349915981292724609e+00
2.238000000000000000e+03 5.392175674438476562e+01 -2.098006439208984375e+01 5.240344405174255371e-01 2.623495340347290039e+00 9.442589282989501953e-01 -6.723784804344177246e-01
2.239000000000000000e+03 4.118859481811523438e+01 -1.426863193511962891e+01 -1.299184322357177734e+00 7.144365310668945312e+00 1.753554344177246094e+00 -2.680109977722167969e+00
2.240000000000000000e+03 4.951404571533203125e+01 -1.987236785888671875e+01 4.652033746242523193e-01 5.769945621490478516e+00 1.870544791221618652e+00 -1.266049265861511230e+00
2.241000000000000000e+03 3.083212852478027344e+01 -1.077994918823242188e+01 -1.340813279151916504e+00 1.633807659149169922e+00 8.789829909801483154e-02 -1.307127118110656738e+00
2.242000000000000000e+03 2.936269187927246094e+01 -1.161759376525878906e+01 -2.048887014389038086e+00 1.152765393257141113e+00 -2.688364684581756592e-01 -8.542217016220092773e-01
2.243000000000000000e+03 4.504999542236328125e+01 -1.755193901062011719e+01 -4.547765552997589111e-01 8.836288452148437500e+00 2.514453411102294922e+00 -1.123487591743469238e+00
2.244000000000000000e+03 4.562018966674804688e+01 -1.885079765319824219e+01 6.229631304740905762e-01 8.905634880065917969e+00 2.858579397201538086e+00 -1.118880033493041992e+00
2.245000000000000000e+03 4.833036804199218750e+01 -2.715987205505371094e+01 1.904857397079467773e+00 7.180956840515136719e+00 2.725744247436523438e+00 -2.594895362854003906e+00
2.246000000000000000e+03 4.907086563110351562e+01 -2.965943908691406250e+01 1.434095740318298340e+00 6.889511108398437500e+00 2.497081995010375977e+00 -2.267829895019531250e+00
2.247000000000000000e+03 7.346964359283447266e+00 -1.349142932891845703e+01 -1.111815690994262695e+00 7.420453071594238281e+00 1.892591238021850586e+00 1.355747938156127930e+00
2.248000000000000000e+03 9.065352439880371094e+00 -1.142645645141601562e+01 -1.979157805442810059e+00 7.232460498809814453e+00 1.575990796089172363e+00 2.897586107254028320e+00
2.249000000000000000e+03 3.643259429931640625e+01 1.903526687622070312e+01 1.028278946876525879e+00 6.436037540435791016e+00 2.239295005798339844e+00 -6.969550997018814087e-02
2.250000000000000000e+03 3.786319732666015625e+01 2.239217376708984375e+01 5.555796027183532715e-01 6.393224239349365234e+00 2.084641218185424805e+00 2.271793335676193237e-01
2.251000000000000000e+03 4.977022552490234375e+01 -2.101062202453613281e+01 9.875044226646423340e-01 5.748757362365722656e+00 2.020878553390502930e+00 -1.438419818878173828e+00
2.252000000000000000e+03 9.577605247497558594e+00 2.942537307739257812e+01 -1.322707384824752808e-01 2.280962944030761719e+00 6.446076631546020508e-01 -3.764920830726623535e-01
2.253000000000000000e+03 7.126236724853515625e+01 -1.324866676330566406e+01 -5.802584439516067505e-02 5.279959678649902344e+00 1.566580176353454590e+00 -2.487039566040039062e-01
2.254000000000000000e+03 6.954759216308593750e+01 -1.484790992736816406e+01 4.555775225162506104e-02 4.072219371795654297e+00 1.235333085060119629e+00 -1.548867523670196533e-01
2.255000000000000000e+03 4.669834518432617188e+01 -3.502122879028320312e+01 -1.333341360092163086e+00 6.958220005035400391e+00 1.687463641166687012e+00 -6.419994235038757324e-01
2.256000000000000000e+03 3.469813537597656250e+01 -1.178598022460937500e+01 -1.007533788681030273e+00 2.722298860549926758e+00 5.144295096397399902e-01 -2.010922670364379883e+00
2.257000000000000000e+03 3.224039077758789062e+01 -1.196680545806884766e+01 -1.429569125175476074e+00 1.741726517677307129e+00 9.364720433950424194e-02 -1.347409248352050781e+00
2.258000000000000000e+03 3.344040679931640625e+01 -1.192516613006591797e+01 -1.185850739479064941e+00 2.220548629760742188e+00 3.104093968868255615e-01 -1.747172117233276367e+00
2.259000000000000000e+03 3.667533493041992188e+01 2.727089118957519531e+01 -1.502831727266311646e-01 5.592650413513183594e+00 1.632710099220275879e+00 -3.666397929191589355e-02
2.260000000000000000e+03 1.165402793884277344e+01 3.246723937988281250e+01 -2.144563943147659302e-01 2.662370204925537109e+00 7.343741655349731445e-01 -3.439401984214782715e-01
2.261000000000000000e+03 8.334139823913574219e+00 3.380374908447265625e+01 -1.352723538875579834e-01 2.123718261718750000e+00 5.965337753295898438e-01 -2.709477543830871582e-01
2.262000000000000000e+03 4.417951583862304688e+01 -1.603280830383300781e+01 -9.727261662483215332e-01 8.539748191833496094e+00 2.270106554031372070e+00 -1.368467688560485840e+00
2.263000000000000000e+03 4.620448303222656250e+01 -1.473502159118652344e+01 -1.212693333625793457e+00 7.595290184020996094e+00 1.914779067039489746e+00 -8.184480667114257812e-01
2.264000000000000000e+03 5.207526016235351562e+01 -2.500638198852539062e+01 1.536602735519409180e+00 5.227031230926513672e+00 2.029090166091918945e+00 -1.576047182083129883e+00
2.265000000000000000e+03 5.229802703857421875e+01 -2.231117439270019531e+01 1.161431074142456055e+00 4.045420169830322266e+00 1.562055349349975586e+00 -1.218297123908996582e+00
2.266000000000000000e+03 7.891537189483642578e+00 2.713286781311035156e+01 -7.928315550088882446e-02 1.922827482223510742e+00 5.530632734298706055e-01 -3.985470831394195557e-01
2.267000000000000000e+03 9.018140792846679688e+00 2.624418258666992188e+01 -9.571006894111633301e-02 2.115123987197875977e+00 6.058242321014404297e-01 -4.313637614250183105e-01
2.268000000000000000e+03 2.831278038024902344e+01 -1.111291217803955078e+01 -2.200392723083496094e+00 9.958825707435607910e-01 -3.613530397415161133e-01 -8.626644015312194824e-01
2.269000000000000000e+03 3.445225143432617188e+01 1.142181587219238281e+01 2.113910436630249023e+00 5.782456398010253906e+00 2.368910074234008789e+00 -2.619511187076568604e-01
2.270000000000000000e+03 3.483747482299804688e+01 7.561576366424560547e+00 2.239963293075561523e+00 5.571381568908691406e+00 2.343403339385986328e+00 -3.611078560352325439e-01
2.271000000000000000e+03 1.288011932373046875e+01 1.713942408561706543e+00 -5.609614029526710510e-02 8.212781906127929688e+00 2.447005748748779297e+00 -9.327501654624938965e-01
2.272000000000000000e+03 1.522065544128417969e+01 -1.583844900131225586e+00 9.158628463745117188e+00 7.667981624603271484e+00 5.047983169555664062e+00 2.575358152389526367e+00
2.273000000000000000e+03 1.381485462188720703e+01 2.211700439453125000e+00 1.487078517675399780e-01 8.700119972229003906e+00 2.654648303985595703e+00 7.232753634452819824e-01
2.274000000000000000e+03 1.532303237915039062e+01 -2.375192403793334961e+00 7.644861698150634766e+00 7.668818473815917969e+00 4.594103813171386719e+00 1.390810608863830566e+00
2.275000000000000000e+03 1.437108516693115234e+01 1.828267097473144531e+00 7.697407603263854980e-01 9.398022651672363281e+00 3.050328969955444336e+00 2.035146713256835938e+00
2.276000000000000000e+03 1.261336421966552734e+01 -4.391464710235595703e+00 2.146886825561523438e+00 9.152346611022949219e+00 3.389770030975341797e+00 5.287886142730712891e+00
2.277000000000000000e+03 1.463178634643554688e+01 -3.574321031570434570e+00 4.317567348480224609e+00 9.295852661132812500e+00 4.084025859832763672e+00 1.564113974571228027e+00
2.278000000000000000e+03 1.597385120391845703e+01 -1.575970888137817383e+00 7.763667583465576172e+00 6.162657260894775391e+00 4.177897453308105469e+00 2.639445066452026367e+00
2.279000000000000000e+03 1.417761039733886719e+01 -4.018988609313964844e+00 3.043769359588623047e+00 9.800831794738769531e+00 3.853380203247070312e+00 2.385657310485839844e+00
2.280000000000000000e+03 1.663407897949218750e+01 -8.289184570312500000e+00 -9.668161273002624512e-01 3.341135025024414062e+00 7.122957110404968262e-01 2.273594141006469727e+00
2.281000000000000000e+03 8.445092201232910156e+00 -4.932763576507568359e+00 1.965015292167663574e+00 2.517863035202026367e+00 1.344863533973693848e+00 3.413679838180541992e+00
2.282000000000000000e+03 1.629954528808593750e+01 -1.460604190826416016e+00 7.317492008209228516e+00 5.737176895141601562e+00 3.916400671005249023e+00 2.714533567428588867e+00
2.283000000000000000e+03 1.571750736236572266e+01 -2.197587013244628906e+00 7.500039100646972656e+00 6.661698341369628906e+00 4.248521327972412109e+00 1.742043375968933105e+00
2.284000000000000000e+03 1.109666728973388672e+01 -3.704672813415527344e+00 4.353276729583740234e+00 4.957072734832763672e+00 2.793104887008666992e+00 5.942521095275878906e+00
2.285000000000000000e+03 1.038186454772949219e+01 -3.731923103332519531e+00 4.097929477691650391e+00 3.307855606079101562e+00 2.221735477447509766e+00 5.012268543243408203e+00
2.286000000000000000e+03 1.177872848510742188e+01 2.763040065765380859e+00 3.899395167827606201e-01 4.372962474822998047e+00 1.428870677947998047e+00 -1.497616052627563477e+00
2.287000000000000000e+03 1.049096298217773438e+01 3.302841186523437500e+00 6.516265273094177246e-01 2.200214385986328125e+00 8.555523157119750977e-01 -1.123302936553955078e+00
2.288000000000000000e+03 9.650071144104003906e+00 -3.938520431518554688e+00 3.445551156997680664e+00 2.507625818252563477e+00 1.785953164100646973e+00 4.201687335968017578e+00
2.289000000000000000e+03 6.337764739990234375e+00 -7.030023574829101562e+00 2.714369893074035645e-01 2.936283826828002930e+00 9.623162746429443359e-01 2.214689970016479492e+00
2.290000000000000000e+03 7.777268886566162109e+00 -5.449887752532958984e+00 1.299917221069335938e+00 2.599251747131347656e+00 1.169750690460205078e+00 2.990560531616210938e+00
2.291000000000000000e+03 1.624140167236328125e+01 -9.839953422546386719e+00 -2.524997949600219727e+00 2.711875200271606445e+00 5.606316775083541870e-02 2.742293596267700195e+00
2.292000000000000000e+03 1.005262660980224609e+01 3.869292974472045898e+00 6.740298867225646973e-01 1.897833824157714844e+00 7.715591192245483398e-01 -9.169956445693969727e-01
2.293000000000000000e+03 7.321911334991455078e+00 -6.711310386657714844e+00 4.654977619647979736e-01 3.263889312744140625e+00 1.118816137313842773e+00 2.821290254592895508e+00
2.294000000000000000e+03 9.430120468139648438e+00 6.041996955871582031e+00 5.508299469947814941e-01 1.898637413978576660e+00 7.348402142524719238e-01 -6.563621759414672852e-01
2.295000000000000000e+03 2.450176048278808594e+01 -6.933444023132324219e+00 4.866224527359008789e-01 5.976788401603698730e-01 3.252903819084167480e-01 -8.456455469131469727e-01
2.296000000000000000e+03 2.175230979919433594e+01 -7.603662967681884766e+00 1.268046796321868896e-01 4.395644068717956543e-01 1.699107289314270020e-01 -2.816254496574401855e-01
2.297000000000000000e+03 1.538094520568847656e+01 -9.197475433349609375e+00 -2.046727180480957031e+00 4.018639087677001953e+00 5.915735960006713867e-01 3.238497734069824219e+00
2.298000000000000000e+03 7.026742458343505859e+00 -7.201211452484130859e+00 1.882156282663345337e-01 3.421781063079833984e+00 1.082998991012573242e+00 2.653685331344604492e+00
2.299000000000000000e+03 6.273137092590332031e+00 7.260594367980957031e+00 4.003625810146331787e-01 6.828553080558776855e-01 3.249653577804565430e-01 -1.948948353528976440e-01
2.300000000000000000e+03 9.183609008789062500e+00 5.449113368988037109e+00 6.072359681129455566e-01 1.636272788047790527e+00 6.730526089668273926e-01 -6.383348107337951660e-01
2.301000000000000000e+03 7.363530635833740234e+00 8.976508140563964844e+00 3.587565720081329346e-01 1.291016101837158203e+00 4.949318170547485352e-01 -4.025456607341766357e-01
2.302000000000000000e+03 2.566302680969238281e+01 -9.102541923522949219e+00 -1.180983185768127441e+00 5.549985766410827637e-01 -1.877953857183456421e-01 -1.019691824913024902e+00
2.303000000000000000e+03 2.481953239440917969e+01 -7.682012081146240234e+00 -8.374015241861343384e-02 5.791743993759155273e-01 1.486302763223648071e-01 -9.488682746887207031e-01
2.304000000000000000e+03 1.383318805694580078e+01 -9.643386840820312500e+00 -2.438136577606201172e+00 5.288093566894531250e+00 8.549870848655700684e-01 4.070656776428222656e+00
2.305000000000000000e+03 9.365068435668945312e+00 -1.009812927246093750e+01 -1.814616441726684570e+00 6.637675285339355469e+00 1.446917653083801270e+00 3.483955860137939453e+00
2.306000000000000000e+03 6.522209167480468750e+00 -1.005895328521728516e+01 -9.554954767227172852e-01 4.827129840850830078e+00 1.161490321159362793e+00 1.900580525398254395e+00
2.307000000000000000e+03 1.869586181640625000e+01 -9.153221130371093750e+00 -1.582453966140747070e+00 9.383487105369567871e-01 -1.932315975427627563e-01 1.093571424484252930e+00
2.308000000000000000e+03 1.764916801452636719e+01 -8.706909179687500000e+00 -1.193988442420959473e+00 2.039654254913330078e+00 2.536997199058532715e-01 1.711335182189941406e+00
2.309000000000000000e+03 4.017339324951171875e+01 -5.880789279937744141e+00 -2.534618377685546875e-01 5.558384895324707031e+00 1.591476917266845703e+00 -2.336471080780029297e+00
2.310000000000000000e+03 4.092358398437500000e+01 -1.748959302902221680e+00 4.424559772014617920e-01 5.926442146301269531e+00 1.910669445991516113e+00 -2.232898950576782227e+00
2.311000000000000000e+03 4.015950393676757812e+01 -4.580185413360595703e+00 -1.897799223661422729e-02 5.584014892578125000e+00 1.669511079788208008e+00 -2.237173080444335938e+00
2.312000000000000000e+03 1.992052268981933594e+01 -8.613061904907226562e+00 -8.881711959838867188e-01 5.247529149055480957e-01 -1.090254783630371094e-01 4.281190335750579834e-01
2.313000000000000000e+03 4.027507019042968750e+01 -1.003168225288391113e+00 5.940290093421936035e-01 5.836542606353759766e+00 1.929171562194824219e+00 -2.083163022994995117e+00
2.314000000000000000e+03 7.186554718017578125e+01 -1.579786491394042969e+01 -4.075040817260742188e-01 5.469583511352539062e+00 1.518623828887939453e+00 -6.054258346557617188e-01
2.315000000000000000e+03 2.748674392700195312e+01 -1.032862091064453125e+01 -1.878849387168884277e+00 9.161384701728820801e-01 -2.888132631778717041e-01 -1.005743503570556641e+00
2.316000000000000000e+03 7.563570499420166016e+00 -7.239418983459472656e+00 9.325145184993743896e-02 3.872691631317138672e+00 1.189782977104187012e+00 3.013970136642456055e+00
2.317000000000000000e+03 4.224496078491210938e+01 -1.272699642181396484e+01 -1.409220099449157715e+00 7.168909549713134766e+00 1.727906823158264160e+00 -2.223418474197387695e+00
2.318000000000000000e+03 6.882762145996093750e+01 -1.580573368072509766e+01 7.802347093820571899e-02 3.420591831207275391e+00 1.049584627151489258e+00 -1.003252491354942322e-01
2.319000000000000000e+03 6.934513854980468750e+01 -1.801127433776855469e+01 -3.863135278224945068e-01 3.086902618408203125e+00 8.101767301559448242e-01 -7.186545133590698242e-01
2.320000000000000000e+03 3.982389450073242188e+01 -9.162211418151855469e+00 -8.276755809783935547e-01 5.535818576812744141e+00 1.412442922592163086e+00 -2.487873792648315430e+00
2.321000000000000000e+03 4.170659255981445312e+01 -7.170376300811767578e+00 -5.096839666366577148e-01 5.919201850891113281e+00 1.622855424880981445e+00 -2.300141811370849609e+00
2.322000000000000000e+03 3.461238479614257812e+01 6.338464260101318359e+00 2.146307945251464844e+00 5.293715000152587891e+00 2.232006788253784180e+00 -4.156847596168518066e-01
2.323000000000000000e+03 7.835697174072265625e+00 8.248997688293457031e+00 4.082912206649780273e-01 1.404360055923461914e+00 5.437953472137451172e-01 -4.322325289249420166e-01
2.324000000000000000e+03 6.755967617034912109e+00 -1.115471172332763672e+01 -1.225373864173889160e+00 5.620653629302978516e+00 1.318583965301513672e+00 1.719782233238220215e+00
2.325000000000000000e+03 4.207325363159179688e+01 -1.163084125518798828e+01 -1.358551979064941406e+00 6.757788181304931641e+00 1.619770884513854980e+00 -2.226428508758544922e+00
2.326000000000000000e+03 4.286970520019531250e+01 -9.312477111816406250e+00 -9.000448584556579590e-01 6.417553424835205078e+00 1.655252575874328613e+00 -2.097902536392211914e+00
2.327000000000000000e+03 4.779230117797851562e+01 -1.774238967895507812e+01 -4.223808944225311279e-01 7.141325473785400391e+00 2.015683412551879883e+00 -7.728081941604614258e-01
2.328000000000000000e+03 4.803555297851562500e+01 -1.892731666564941406e+01 3.771136403083801270e-01 7.049648761749267578e+00 2.228028774261474609e+00 -9.180051684379577637e-01
2.329000000000000000e+03 5.173278045654296875e+01 -2.391350555419921875e+01 1.462328076362609863e+00 4.856303691864013672e+00 1.895589470863342285e+00 -1.609689950942993164e+00
2.330000000000000000e+03 4.943843460083007812e+01 -2.544536018371582031e+01 1.926817059516906738e+00 6.575886249542236328e+00 2.550811052322387695e+00 -2.360231637954711914e+00
2.331000000000000000e+03 7.978689193725585938e+00 1.160755729675292969e+01 1.969226002693176270e-01 1.652733445167541504e+00 5.548968315124511719e-01 -4.501168131828308105e-01
2.332000000000000000e+03 2.364453697204589844e+01 -7.292454719543457031e+00 2.947770059108734131e-01 4.840469956398010254e-01 2.336471974849700928e-01 -7.303108572959899902e-01
2.333000000000000000e+03 1.250192260742187500e+01 2.811080169677734375e+01 -1.656203269958496094e-01 2.742611646652221680e+00 7.730973958969116211e-01 -4.599774777889251709e-01
2.334000000000000000e+03 1.054051685333251953e+01 2.824454116821289062e+01 -1.382414549589157104e-01 2.444811582565307617e+00 6.919710040092468262e-01 -4.362957179546356201e-01
2.335000000000000000e+03 4.825355529785156250e+01 -3.150797080993652344e+01 5.752894878387451172e-01 7.107901096343994141e+00 2.304957151412963867e+00 -1.777233719825744629e+00
2.336000000000000000e+03 1.923360252380371094e+01 -7.957323551177978516e+00 -2.053536325693130493e-01 1.166330099105834961e+00 2.882929444313049316e-01 7.029877305030822754e-01
2.337000000000000000e+03 6.445698738098144531e+00 2.181143188476562500e+01 -3.153061121702194214e-02 1.481730341911315918e+00 4.350599348545074463e-01 -4.108777642250061035e-01
2.338000000000000000e+03 3.895971679687500000e+01 -9.888518333435058594e+00 -9.065747261047363281e-01 5.161805152893066406e+00 1.276569247245788574e+00 -2.570310831069946289e+00
2.339000000000000000e+03 4.602861785888671875e+01 -1.363227939605712891e+01 -1.277359724044799805e+00 7.398425579071044922e+00 1.836319804191589355e+00 -9.271736145019531250e-01
2.340000000000000000e+03 4.666834259033203125e+01 -2.032891654968261719e+01 1.610887408256530762e+00 8.103643417358398438e+00 2.914359092712402344e+00 -1.332705140113830566e+00
2.341000000000000000e+03 7.470723152160644531e+00 1.638037300109863281e+01 2.223194204270839691e-02 1.578538894653320312e+00 4.802312552928924561e-01 -4.459882974624633789e-01
2.342000000000000000e+03 1.037849998474121094e+01 1.672046089172363281e+01 2.712099254131317139e-02 2.367166996002197266e+00 7.182863950729370117e-01 -4.556306004524230957e-01
2.343000000000000000e+03 2.269964027404785156e+01 -7.610900402069091797e+00 5.312164872884750366e-02 3.114957809448242188e-01 1.093852221965789795e-01 -5.608294606208801270e-01
2.344000000000000000e+03 4.216598129272460938e+01 -8.936956405639648438e+00 -8.096331357955932617e-01 6.169487953186035156e+00 1.607956409454345703e+00 -2.202597856521606445e+00
2.345000000000000000e+03 3.744559097290039062e+01 -9.444285392761230469e+00 -7.508832216262817383e-01 4.492699623107910156e+00 1.122544884681701660e+00 -2.477328300476074219e+00
2.346000000000000000e+03 9.098126411437988281e+00 1.034449577331542969e+01 2.464549839496612549e-01 2.026480913162231445e+00 6.818807721138000488e-01 -4.915598332881927490e-01
2.347000000000000000e+03 7.390509605407714844e+00 1.030578231811523438e+01 2.465921938419342041e-01 1.350342035293579102e+00 4.790802896022796631e-01 -4.072220027446746826e-01
2.348000000000000000e+03 3.434883499145507812e+01 -1.042092132568359375e+01 -8.209021687507629395e-01 2.916992425918579102e+00 6.288270950317382812e-01 -2.094844102859497070e+00
2.349000000000000000e+03 4.681805038452148438e+01 -1.905143737792968750e+01 4.520550966262817383e-01 7.868074893951416016e+00 2.496038913726806641e+00 -9.023893475532531738e-01
2.350000000000000000e+03 4.925702285766601562e+01 -2.277766227722167969e+01 1.746899366378784180e+00 6.263570308685302734e+00 2.403140783309936523e+00 -1.876877069473266602e+00
2.351000000000000000e+03 8.172644615173339844e+00 1.071241092681884766e+01 2.259698212146759033e-01 1.683777332305908203e+00 5.729241371154785156e-01 -4.516112804412841797e-01
2.352000000000000000e+03 7.045110702514648438e+00 1.137834072113037109e+01 1.987523287534713745e-01 1.308317303657531738e+00 4.521209001541137695e-01 -3.969906270503997803e-01
2.353000000000000000e+03 7.562728881835937500e+00 2.148941612243652344e+01 -3.525372222065925598e-02 1.711618065834045410e+00 5.029093027114868164e-01 -4.451322853565216064e-01
2.354000000000000000e+03 8.650871276855468750e+00 1.619747543334960938e+01 3.151429817080497742e-02 1.939828634262084961e+00 5.914028882980346680e-01 -4.663335084915161133e-01
2.355000000000000000e+03 3.491586303710937500e+01 2.553812789916992188e+01 6.625510007143020630e-02 5.629415512084960938e+00 1.708701133728027344e+00 -1.677372604608535767e-01
2.356000000000000000e+03 3.781707000732421875e+01 2.546316909790039062e+01 1.366959363222122192e-01 5.918880939483642578e+00 1.816673040390014648e+00 1.462009400129318237e-01
2.357000000000000000e+03 2.979382896423339844e+01 -1.052108383178710938e+01 -1.517992854118347168e+00 1.404620170593261719e+00 -3.401179239153862000e-02 -1.218156218528747559e+00
2.358000000000000000e+03 3.988481521606445312e+01 -7.166311264038085938e+00 -4.914115369319915771e-01 5.451092720031738281e+00 1.487904310226440430e+00 -2.358156919479370117e+00
2.359000000000000000e+03 3.805543136596679688e+01 -1.053870487213134766e+01 -8.699480891227722168e-01 4.693841934204101562e+00 1.147168159484863281e+00 -2.597329139709472656e+00
2.360000000000000000e+03 1.177509784698486328e+01 3.044303894042968750e+01 -1.908973306417465210e-01 2.649090528488159180e+00 7.374579906463623047e-01 -4.128285646438598633e-01
2.361000000000000000e+03 4.667859649658203125e+01 -3.192033386230468750e+01 -4.781967401504516602e-02 7.549497127532958984e+00 2.250503301620483398e+00 -1.543814778327941895e+00
2.362000000000000000e+03 3.957835388183593750e+01 -1.883829116821289062e+00 4.941464662551879883e-01 5.634545803070068359e+00 1.838607668876647949e+00 -2.102767944335937500e+00
2.363000000000000000e+03 3.363558959960937500e+01 1.320448684692382812e+01 1.912262678146362305e+00 5.675086975097656250e+00 2.276204824447631836e+00 -1.831030994653701782e-01
2.364000000000000000e+03 8.818801879882812500e+00 1.173224163055419922e+01 1.809010505676269531e-01 1.955020189285278320e+00 6.407763957977294922e-01 -4.652658104896545410e-01
2.365000000000000000e+03 7.032966136932373047e+00 1.264604187011718750e+01 1.359114050865173340e-01 1.356562256813049316e+00 4.477421045303344727e-01 -4.160099923610687256e-01
2.366000000000000000e+03 3.525093460083007812e+01 1.673966789245605469e+01 1.391367197036743164e+00 6.255712509155273438e+00 2.294123888015747070e+00 -2.141365408897399902e-01
2.367000000000000000e+03 3.449480819702148438e+01 1.873933792114257812e+01 1.093579173088073730e+00 5.976750850677490234e+00 2.121098995208740234e+00 -2.088557779788970947e-01
2.368000000000000000e+03 4.526847457885742188e+01 -1.676348114013671875e+01 -7.159954309463500977e-01 8.330238342285156250e+00 2.284272670745849609e+00 -1.000103712081909180e+00
2.369000000000000000e+03 3.432848739624023438e+01 8.550642013549804688e+00 2.294956445693969727e+00 5.483703136444091797e+00 2.333597898483276367e+00 -2.963263690471649170e-01
2.370000000000000000e+03 4.357261657714843750e+01 -1.237727069854736328e+01 -1.406483054161071777e+00 7.325201511383056641e+00 1.775615572929382324e+00 -1.731399655342102051e+00
2.371000000000000000e+03 9.725919723510742188e+00 2.731881332397460938e+01 -1.103305816650390625e-01 2.270711183547973633e+00 6.481142044067382812e-01 -4.272495806217193604e-01
2.372000000000000000e+03 5.067672729492187500e+01 -2.015258979797363281e+01 4.120649397373199463e-01 4.903311252593994141e+00 1.594612956047058105e+00 -1.189767956733703613e+00
2.373000000000000000e+03 4.852543258666992188e+01 -2.161053276062011719e+01 1.559774160385131836e+00 6.498203277587890625e+00 2.417393207550048828e+00 -1.626622080802917480e+00
2.374000000000000000e+03 4.251553726196289062e+01 -3.786656951904296875e+01 -1.849806785583496094e+00 4.679426670074462891e+00 8.488860130310058594e-01 3.958160579204559326e-01
2.375000000000000000e+03 3.689116287231445312e+01 5.614587306976318359e+00 1.886498570442199707e+00 5.980803489685058594e+00 2.360190629959106445e+00 -8.041544556617736816e-01
2.376000000000000000e+03 3.785680389404296875e+01 -8.402461558580398560e-02 9.449742436408996582e-01 5.387808322906494141e+00 1.899834871292114258e+00 -1.707289695739746094e+00
2.377000000000000000e+03 3.702738952636718750e+01 -1.104757881164550781e+01 -9.278320670127868652e-01 4.152393817901611328e+00 9.673684239387512207e-01 -2.519487857818603516e+00
2.378000000000000000e+03 3.545946502685546875e+01 -1.019999790191650391e+01 -7.755147814750671387e-01 3.443983793258666992e+00 8.005406856536865234e-01 -2.256525278091430664e+00
2.379000000000000000e+03 9.532072067260742188e+00 2.442901229858398438e+01 -7.200770825147628784e-02 2.189719915390014648e+00 6.353136897087097168e-01 -4.593822658061981201e-01
2.380000000000000000e+03 1.152806854248046875e+01 2.712931442260742188e+01 -1.294145137071609497e-01 2.584015607833862305e+00 7.363803386688232422e-01 -4.710441827774047852e-01
2.381000000000000000e+03 7.189512634277343750e+01 -1.416659736633300781e+01 -1.864020973443984985e-01 5.527646064758300781e+00 1.602373123168945312e+00 -4.223956465721130371e-01
2.382000000000000000e+03 1.357446384429931641e+01 1.940616130828857422e+00 3.884904086589813232e-02 8.981691360473632812e+00 2.706161975860595703e+00 3.901000022888183594e-01
2.383000000000000000e+03 1.338986301422119141e+01 2.158560514450073242e+00 -2.205713652074337006e-02 8.407617568969726562e+00 2.515668153762817383e+00 -4.517161287367343903e-03
2.384000000000000000e+03 1.367786026000976562e+01 1.508588194847106934e+00 2.055951058864593506e-01 1.003903484344482422e+01 3.073388814926147461e+00 9.376288652420043945e-01
2.385000000000000000e+03 1.561588001251220703e+01 -3.357656002044677734e-01 6.731225013732910156e+00 7.546714782714843750e+00 4.283381938934326172e+00 4.436090946197509766e+00
2.386000000000000000e+03 1.242227172851562500e+01 2.534899473190307617e+00 1.244451031088829041e-01 5.981336116790771484e+00 1.831734299659729004e+00 -1.305146217346191406e+00
2.387000000000000000e+03 1.146343612670898438e+01 3.038546800613403320e+00 4.919923543930053711e-01 3.751555442810058594e+00 1.273064374923706055e+00 -1.414161324501037598e+00
2.388000000000000000e+03 1.312071514129638672e+01 -4.420870304107666016e+00 1.947717785835266113e+00 9.638776779174804688e+00 3.475948572158813477e+00 4.429822921752929688e+00
2.389000000000000000e+03 1.200791263580322266e+01 -3.973407506942749023e+00 3.259005546569824219e+00 8.046617507934570312e+00 3.391686916351318359e+00 6.202646255493164062e+00
2.390000000000000000e+03 8.742712020874023438e+00 -4.453821182250976562e+00 2.398907423019409180e+00 2.234464168548583984e+00 1.390011429786682129e+00 3.452922821044921875e+00
2.391000000000000000e+03 1.522843742370605469e+01 9.128748178482055664e-01 3.300052404403686523e+00 9.030508041381835938e+00 3.699167966842651367e+00 4.106061935424804688e+00
2.392000000000000000e+03 1.372172164916992188e+01 2.647829532623291016e+00 5.720438808202743530e-02 7.957695484161376953e+00 2.404469966888427734e+00 3.950593769550323486e-01
2.393000000000000000e+03 1.577480220794677734e+01 -1.312823057174682617e+00 7.956014156341552734e+00 6.532191276550292969e+00 4.346461772918701172e+00 3.073995828628540039e+00
2.394000000000000000e+03 1.344272327423095703e+01 -4.501498699188232422e+00 1.902893543243408203e+00 9.600218772888183594e+00 3.450933933258056641e+00 3.918138742446899414e+00
2.395000000000000000e+03 1.510196781158447266e+01 5.469896197319030762e-01 4.038406848907470703e+00 9.419819831848144531e+00 4.037467956542968750e+00 4.530396938323974609e+00
2.396000000000000000e+03 1.503225040435791016e+01 1.438939452171325684e+00 2.068270206451416016e+00 9.093441009521484375e+00 3.348513364791870117e+00 3.341935634613037109e+00
2.397000000000000000e+03 1.406468868255615234e+01 2.017541408538818359e+00 3.252069652080535889e-01 9.153773307800292969e+00 2.843694210052490234e+00 1.259156823158264160e+00
2.398000000000000000e+03 1.383558750152587891e+01 -4.460420131683349609e+00 2.135220289230346680e+00 9.551696777343750000e+00 3.506075143814086914e+00 3.213339567184448242e+00
2.399000000000000000e+03 1.405536270141601562e+01 -3.669590711593627930e+00 3.704353570938110352e+00 1.074484443664550781e+01 4.334759235382080078e+00 2.319550752639770508e+00
2.400000000000000000e+03 1.530550765991210938e+01 -8.560956001281738281e+00 -1.478010654449462891e+00 4.507632255554199219e+00 9.088864326477050781e-01 3.188180685043334961e+00
2.401000000000000000e+03 1.524366664886474609e+01 -3.892777919769287109e+00 4.084411621093750000e+00 7.906422138214111328e+00 3.597250223159790039e+00 1.354124903678894043e+00
2.402000000000000000e+03 1.593541049957275391e+01 -3.189578771591186523e+00 5.628447532653808594e+00 6.528018951416015625e+00 3.646939992904663086e+00 1.104137063026428223e+00
2.403000000000000000e+03 1.593263912200927734e+01 -2.793827056884765625e+00 6.374370574951171875e+00 6.416518211364746094e+00 3.837266683578491211e+00 1.305249691009521484e+00
2.404000000000000000e+03 1.157767105102539062e+01 -9.153996467590332031e+00 -1.956364750862121582e+00 6.592823505401611328e+00 1.390937566757202148e+00 4.531414031982421875e+00
2.405000000000000000e+03 7.792139530181884766e+00 -6.514179706573486328e+00 6.020538806915283203e-01 3.405970335006713867e+00 1.202407240867614746e+00 3.174399137496948242e+00
2.406000000000000000e+03 1.014892959594726562e+01 4.376824855804443359e+00 6.373352408409118652e-01 2.175198554992675781e+00 8.437601327896118164e-01 -9.196236133575439453e-01
2.407000000000000000e+03 1.467896461486816406e+01 -9.167735099792480469e+00 -2.031563043594360352e+00 4.727349281311035156e+00 8.087357878684997559e-01 3.622445583343505859e+00
2.408000000000000000e+03 1.402935695648193359e+01 -9.009700775146484375e+00 -2.032065153121948242e+00 5.382949352264404297e+00 1.005265235900878906e+00 4.035758495330810547e+00
2.409000000000000000e+03 7.715490341186523438e+00 -7.924581050872802734e+00 -2.837097942829132080e-01 4.359492778778076172e+00 1.222734928131103516e+00 3.045560836791992188e+00
2.410000000000000000e+03 1.451105880737304688e+01 -3.861197233200073242e+00 3.609036445617675781e+00 9.469643592834472656e+00 3.923604011535644531e+00 1.831415891647338867e+00
2.411000000000000000e+03 8.925426483154296875e+00 8.225723266601562500e+00 4.049668312072753906e-01 1.854421377182006836e+00 6.778164505958557129e-01 -5.328179597854614258e-01
2.412000000000000000e+03 1.733938407897949219e+01 -8.048775672912597656e+00 -5.643976330757141113e-01 2.742928028106689453e+00 6.535591483116149902e-01 1.765523910522460938e+00
2.413000000000000000e+03 1.687524414062500000e+01 -8.949102401733398438e+00 -1.546605706214904785e+00 2.665618419647216797e+00 3.357037901878356934e-01 2.210077762603759766e+00
2.414000000000000000e+03 1.414904689788818359e+01 -5.645769596099853516e+00 8.280184864997863770e-01 7.755486011505126953e+00 2.575051307678222656e+00 3.323879003524780273e+00
2.415000000000000000e+03 1.216223907470703125e+01 -9.603128433227539062e+00 -2.282905578613281250e+00 6.407041549682617188e+00 1.237240672111511230e+00 4.499636650085449219e+00
2.416000000000000000e+03 1.282897090911865234e+01 -1.001449298858642578e+01 -2.608983516693115234e+00 6.020183086395263672e+00 1.023359894752502441e+00 4.372713088989257812e+00
2.417000000000000000e+03 8.739640235900878906e+00 6.460023880004882812e+00 5.383821725845336914e-01 1.562935471534729004e+00 6.303952932357788086e-01 -5.445537567138671875e-01
2.418000000000000000e+03 7.714701652526855469e+00 -1.088199615478515625e+01 -1.465565323829650879e+00 6.129841804504394531e+00 1.399282932281494141e+00 2.330346107482910156e+00
2.419000000000000000e+03 2.931830978393554688e+01 -9.167327880859375000e+00 -9.132657051086425781e-01 1.485949158668518066e+00 1.718050241470336914e-01 -1.343330025672912598e+00
2.420000000000000000e+03 7.034872531890869141e+00 -8.013078689575195312e+00 -2.578124105930328369e-01 3.970340967178344727e+00 1.113758563995361328e+00 2.576746463775634766e+00
2.421000000000000000e+03 1.110754966735839844e+01 -9.737401008605957031e+00 -2.131539344787597656e+00 6.693655490875244141e+00 1.368634939193725586e+00 4.308118343353271484e+00
2.422000000000000000e+03 8.944389343261718750e+00 9.324750900268554688e+00 3.287696838378906250e-01 1.927352190017700195e+00 6.768365502357482910e-01 -5.023782253265380859e-01
2.423000000000000000e+03 7.919947624206542969e+00 9.503076553344726562e+00 3.307093679904937744e-01 1.522307276725769043e+00 5.559049844741821289e-01 -4.444991648197174072e-01
2.424000000000000000e+03 7.178969860076904297e+00 -8.909941673278808594e+00 -6.996349692344665527e-01 4.613600254058837891e+00 1.174189686775207520e+00 2.537528514862060547e+00
2.425000000000000000e+03 1.054877281188964844e+01 -1.030792140960693359e+01 -2.238636255264282227e+00 6.955373764038085938e+00 1.415021181106567383e+00 3.976813793182373047e+00
2.426000000000000000e+03 3.891205215454101562e+01 -5.656156063079833984e+00 -1.666152328252792358e-01 5.147800445556640625e+00 1.494355559349060059e+00 -2.276238203048706055e+00
2.427000000000000000e+03 2.051668548583984375e+01 -7.938083171844482422e+00 -9.011685103178024292e-02 5.456690192222595215e-01 1.366656571626663208e-01 8.961059153079986572e-02
2.428000000000000000e+03 1.985242843627929688e+01 -7.350520610809326172e+00 5.221683382987976074e-01 1.142230272293090820e+00 4.993195831775665283e-01 3.868440687656402588e-01
2.429000000000000000e+03 2.262595176696777344e+01 -6.701837062835693359e+00 1.013203382492065430e+00 6.293239593505859375e-01 4.927582144737243652e-01 -4.194733798503875732e-01
2.430000000000000000e+03 2.343232917785644531e+01 -6.449733257293701172e+00 1.010318756103515625e+00 5.609970688819885254e-01 4.713947772979736328e-01 -5.928682684898376465e-01
2.431000000000000000e+03 2.695072746276855469e+01 -9.383677482604980469e+00 -1.284602522850036621e+00 8.510366678237915039e-01 -1.300697773694992065e-01 -1.069588899612426758e+00
2.432000000000000000e+03 7.259431457519531250e+01 -1.346233272552490234e+01 -2.107700705528259277e-01 5.939680099487304688e+00 1.718672990798950195e+00 -4.024806916713714600e-01
2.433000000000000000e+03 2.561145210266113281e+01 -7.263826847076416016e+00 1.872708797454833984e-01 7.539860010147094727e-01 2.823770642280578613e-01 -1.023054361343383789e+00
2.434000000000000000e+03 2.603066253662109375e+01 -7.898059844970703125e+00 -2.925597131252288818e-01 7.715514302253723145e-01 1.436975151300430298e-01 -1.078087091445922852e+00
2.435000000000000000e+03 2.426003265380859375e+01 -6.132925987243652344e+00 1.124184727668762207e+00 7.574661374092102051e-01 5.644952654838562012e-01 -6.948486566543579102e-01
2.436000000000000000e+03 3.870396804809570312e+01 -1.068920373916625977e+00 6.913401484489440918e-01 5.491191864013671875e+00 1.854759573936462402e+00 -1.869390368461608887e+00
2.437000000000000000e+03 3.901438522338867188e+01 -3.004661560058593750e+00 3.327159583568572998e-01 5.335725307464599609e+00 1.700532436370849609e+00 -2.075982809066772461e+00
2.438000000000000000e+03 3.410302352905273438e+01 -9.071241378784179688e+00 -5.518383979797363281e-01 3.066314458847045898e+00 7.543428540229797363e-01 -2.044924497604370117e+00
2.439000000000000000e+03 5.044388580322265625e+01 -2.207629394531250000e+01 1.353751182556152344e+00 5.367710113525390625e+00 2.016438245773315430e+00 -1.571457982063293457e+00
2.440000000000000000e+03 3.609220886230468750e+01 -8.776571273803710938e+00 -5.601169466972351074e-01 3.928776741027832031e+00 1.010597944259643555e+00 -2.298437595367431641e+00
2.441000000000000000e+03 5.068859481811523438e+01 -2.403673744201660156e+01 1.641096472740173340e+00 5.643620491027832031e+00 2.185415029525756836e+00 -1.889499783515930176e+00
2.442000000000000000e+03 8.953251838684082031e+00 -9.290143013000488281e+00 -1.318577170372009277e+00 5.964486598968505859e+00 1.393772840499877930e+00 3.490058898925781250e+00
2.443000000000000000e+03 4.712764739990234375e+01 -1.705071640014648438e+01 -8.336420655250549316e-01 7.540363788604736328e+00 2.012016534805297852e+00 -7.173845171928405762e-01
2.444000000000000000e+03 4.615993881225585938e+01 -1.685750007629394531e+01 -7.822585701942443848e-01 8.078248977661132812e+00 2.188797235488891602e+00 -9.040880799293518066e-01
2.445000000000000000e+03 3.691135406494140625e+01 -3.101793766021728516e+00 5.327895879745483398e-01 4.687700271606445312e+00 1.566146969795227051e+00 -1.914863824844360352e+00
2.446000000000000000e+03 6.961587524414062500e+01 -1.655251693725585938e+01 -1.358678936958312988e-01 3.713624715805053711e+00 1.073327064514160156e+00 -4.416012763977050781e-01
2.447000000000000000e+03 3.319581985473632812e+01 -1.056161022186279297e+01 -9.212484955787658691e-01 2.419890165328979492e+00 4.495925307273864746e-01 -1.813807845115661621e+00
2.448000000000000000e+03 4.085648345947265625e+01 -1.287987518310546875e+01 -1.380165576934814453e+00 6.512082576751708984e+00 1.539575099945068359e+00 -2.597133874893188477e+00
2.449000000000000000e+03 4.201722335815429688e+01 -1.068876934051513672e+01 -1.153352618217468262e+00 6.456409454345703125e+00 1.590917110443115234e+00 -2.248742103576660156e+00
2.450000000000000000e+03 8.201883316040039062e+00 1.375320243835449219e+01 9.610775858163833618e-02 1.761520266532897949e+00 5.572884082794189453e-01 -4.522973895072937012e-01
2.451000000000000000e+03 8.424740791320800781e+00 1.493489837646484375e+01 6.351815909147262573e-02 1.839705705642700195e+00 5.709671378135681152e-01 -4.596111774444580078e-01
2.452000000000000000e+03 4.315632629394531250e+01 -1.133950138092041016e+01 -1.256226062774658203e+00 6.908539772033691406e+00 1.695694088935852051e+00 -1.922877192497253418e+00
2.453000000000000000e+03 3.701113891601562500e+01 8.409017324447631836e-01 1.170194983482360840e+00 5.241592407226562500e+00 1.923536181449890137e+00 -1.416948914527893066e+00
2.454000000000000000e+03 9.232776641845703125e+00 1.906177902221679688e+01 -1.472053769975900650e-02 2.075177431106567383e+00 6.181370615959167480e-01 -4.682614505290985107e-01
2.455000000000000000e+03 7.423805713653564453e+00 2.042222785949707031e+01 -2.741813845932483673e-02 1.657087683677673340e+00 4.889008402824401855e-01 -4.474821090698242188e-01
2.456000000000000000e+03 3.182007026672363281e+01 -9.290553092956542969e+00 -7.027873992919921875e-01 2.199827432632446289e+00 4.491120278835296631e-01 -1.693431496620178223e+00
2.457000000000000000e+03 3.738161468505859375e+01 3.827281475067138672e+00 1.608280181884765625e+00 5.841439247131347656e+00 2.234915733337402344e+00 -1.112570405006408691e+00
2.458000000000000000e+03 4.151565933227539062e+01 -8.765715599060058594e+00 -8.059632182121276855e-01 6.067001342773437500e+00 1.578311443328857422e+00 -2.307616233825683594e+00
2.459000000000000000e+03 9.077825546264648438e+00 2.338212013244628906e+01 -5.796069279313087463e-02 2.091746091842651367e+00 6.101356148719787598e-01 -4.614973068237304688e-01
2.460000000000000000e+03 7.725377559661865234e+00 2.266245079040527344e+01 -4.013312608003616333e-02 1.788461685180664062e+00 5.244985818862915039e-01 -4.455210268497467041e-01
2.461000000000000000e+03 1.069629669189453125e+01 1.576698017120361328e+01 5.608423426747322083e-02 2.480909824371337891e+00 7.610982060432434082e-01 -4.485179781913757324e-01
2.462000000000000000e+03 5.082990264892578125e+01 -2.528570175170898438e+01 1.727088212966918945e+00 5.738772392272949219e+00 2.239758253097534180e+00 -2.050821781158447266e+00
2.463000000000000000e+03 9.485217094421386719e+00 9.830095291137695312e+00 2.631086111068725586e-01 2.166396856307983398e+00 7.288516163825988770e-01 -4.906182587146759033e-01
2.464000000000000000e+03 1.135806465148925781e+01 2.913263511657714844e+01 -1.676519513130187988e-01 2.566106319427490234e+00 7.195363044738769531e-01 -4.280203580856323242e-01
2.465000000000000000e+03 4.173973846435546875e+01 -9.462560653686523438e+00 -9.456572532653808594e-01 6.189086914062500000e+00 1.573028802871704102e+00 -2.244530916213989258e+00
2.466000000000000000e+03 1.010439300537109375e+01 2.543714714050292969e+01 -9.497214853763580322e-02 2.303745269775390625e+00 6.626319289207458496e-01 -4.613633453845977783e-01
2.467000000000000000e+03 9.510902404785156250e+00 1.213933372497558594e+01 1.590554416179656982e-01 2.183887720108032227e+00 7.028829455375671387e-01 -4.637450277805328369e-01
2.468000000000000000e+03 3.222352600097656250e+01 1.381214237213134766e+01 1.800044894218444824e+00 5.356142044067382812e+00 2.146856069564819336e+00 -1.189399734139442444e-01
2.469000000000000000e+03 3.661120986938476562e+01 1.605463409423828125e+01 1.401109337806701660e+00 6.901840209960937500e+00 2.490884780883789062e+00 -1.565776914358139038e-01
2.470000000000000000e+03 5.389620208740234375e+01 -3.227842712402343750e+01 1.889941334724426270e+00 7.198114395141601562e+00 2.726416826248168945e+00 -8.927706480026245117e-01
2.471000000000000000e+03 4.864728927612304688e+01 -3.305570602416992188e+01 -8.134319633245468140e-02 7.026697635650634766e+00 2.083606243133544922e+00 -1.414678573608398438e+00
2.472000000000000000e+03 3.240113830566406250e+01 1.808422851562500000e+01 1.181036353111267090e+00 5.517509937286376953e+00 2.009563922882080078e+00 -2.316641509532928467e-01
2.473000000000000000e+03 3.334143829345703125e+01 1.617332267761230469e+01 1.491357922554016113e+00 5.713741779327392578e+00 2.161529779434204102e+00 -2.323837727308273315e-01
2.474000000000000000e+03 3.975796127319335938e+01 -1.095734977722167969e+01 -1.080315113067626953e+00 5.630301952362060547e+00 1.364996075630187988e+00 -2.596804141998291016e+00
2.475000000000000000e+03 4.071854400634765625e+01 -8.789350509643554688e+00 -8.250219821929931641e-01 5.822346687316894531e+00 1.499197483062744141e+00 -2.331509828567504883e+00
2.476000000000000000e+03 3.576455688476562500e+01 6.067926883697509766e+00 2.060868978500366211e+00 5.676084995269775391e+00 2.321086168289184570e+00 -6.203722953796386719e-01
2.477000000000000000e+03 3.586428451538085938e+01 3.260186433792114258e+00 1.703533649444580078e+00 5.244666099548339844e+00 2.084460020065307617e+00 -9.239903092384338379e-01
2.478000000000000000e+03 3.377696609497070312e+01 1.029594326019287109e+01 2.218501567840576172e+00 5.501773834228515625e+00 2.316082715988159180e+00 -1.940848827362060547e-01
2.479000000000000000e+03 3.392967987060546875e+01 2.106769371032714844e+01 7.537785172462463379e-01 5.777859210968017578e+00 1.959491372108459473e+00 -2.172414958477020264e-01
2.480000000000000000e+03 7.112665557861328125e+01 -1.490836524963378906e+01 -1.972512602806091309e-01 5.024034976959228516e+00 1.448035001754760742e+00 -4.633078873157501221e-01
2.481000000000000000e+03 1.162376785278320312e+01 3.484794235229492188e+01 -2.461769282817840576e-01 2.669491291046142578e+00 7.269943356513977051e-01 -2.742357254028320312e-01
2.482000000000000000e+03 3.881641006469726562e+01 -4.345449924468994141e+00 1.309771835803985596e-01 5.190431594848632812e+00 1.596422553062438965e+00 -2.207633018493652344e+00
2.483000000000000000e+03 1.564367294311523438e+01 -6.517435312271118164e-01 7.470707416534423828e+00 7.232355594635009766e+00 4.410918712615966797e+00 4.098127365112304688e+00
2.484000000000000000e+03 1.534777069091796875e+01 4.162589907646179199e-01 4.525651931762695312e+00 8.528390884399414062e+00 3.916212797164916992e+00 4.424267768859863281e+00
2.485000000000000000e+03 1.308063793182373047e+01 2.063556194305419922e+00 -6.655670702457427979e-02 8.035516738891601562e+00 2.390687942504882812e+00 -5.477932691574096680e-01
2.486000000000000000e+03 1.452477931976318359e+01 2.194764375686645508e+00 7.127606868743896484e-01 8.784759521484375000e+00 2.849256038665771484e+00 1.906444191932678223e+00
2.487000000000000000e+03 1.132083892822265625e+01 -4.057989120483398438e+00 3.459731817245483398e+00 6.028985500335693359e+00 2.846615076065063477e+00 6.027435779571533203e+00
2.488000000000000000e+03 1.272978401184082031e+01 2.433126211166381836e+00 2.024847827851772308e-02 6.795578479766845703e+00 2.044748067855834961e+00 -1.008061051368713379e+00
2.489000000000000000e+03 1.225803852081298828e+01 2.966832160949707031e+00 1.773383021354675293e-01 5.341872692108154297e+00 1.655763268470764160e+00 -1.245190382003784180e+00
2.490000000000000000e+03 1.493211746215820312e+01 1.931999444961547852e+00 1.308495640754699707e+00 8.771760940551757812e+00 3.024077177047729492e+00 2.634689092636108398e+00
2.491000000000000000e+03 1.427044963836669922e+01 2.355226516723632812e+00 4.153645336627960205e-01 8.607992172241210938e+00 2.707006931304931641e+00 1.383281707763671875e+00
2.492000000000000000e+03 1.470417785644531250e+01 1.637339353561401367e+00 1.357945799827575684e+00 9.390077590942382812e+00 3.224406957626342773e+00 2.755978822708129883e+00
2.493000000000000000e+03 1.633096313476562500e+01 -2.051649808883666992e+00 7.060507297515869141e+00 5.637464523315429688e+00 3.809391736984252930e+00 2.009715080261230469e+00
2.494000000000000000e+03 1.578391170501708984e+01 1.200787067413330078e+00 3.235039949417114258e+00 7.899255752563476562e+00 3.340288639068603516e+00 3.889220952987670898e+00
2.495000000000000000e+03 1.390319347381591797e+01 -4.923624515533447266e+00 1.514999985694885254e+00 8.820276260375976562e+00 3.100582838058471680e+00 3.305706262588500977e+00
2.496000000000000000e+03 1.815935516357421875e+01 -6.775732517242431641e+00 9.071851372718811035e-01 2.605484008789062500e+00 1.053800702095031738e+00 1.075584173202514648e+00
2.497000000000000000e+03 2.053816604614257812e+01 -5.517273426055908203e+00 2.198235750198364258e+00 1.327377200126647949e+00 1.057683825492858887e+00 2.721135020256042480e-01
2.498000000000000000e+03 9.905471801757812500e+00 -4.629603385925292969e+00 2.615555763244628906e+00 3.627545356750488281e+00 1.872930288314819336e+00 4.713287353515625000e+00
2.499000000000000000e+03 1.075265979766845703e+01 -4.036520481109619141e+00 3.678324699401855469e+00 4.469347476959228516e+00 2.444301605224609375e+00 5.550980091094970703e+00
2.500000000000000000e+03 7.686384201049804688e+00 -6.043765068054199219e+00 9.748905897140502930e-01 2.952685117721557617e+00 1.178272724151611328e+00 3.073438644409179688e+00
2.501000000000000000e+03 1.116705036163330078e+01 3.450368165969848633e+00 5.451058149337768555e-01 3.191619634628295898e+00 1.121017694473266602e+00 -1.277463555335998535e+00
2.502000000000000000e+03 1.175278282165527344e+01 -4.113220691680908203e+00 3.175168275833129883e+00 7.311971664428710938e+00 3.146142005920410156e+00 6.149550437927246094e+00
2.503000000000000000e+03 1.041570949554443359e+01 -7.783627033233642578e+00 -7.175350189208984375e-01 6.039552688598632812e+00 1.596605300903320312e+00 4.626523494720458984e+00
2.504000000000000000e+03 8.132126808166503906e+00 -6.207606792449951172e+00 8.728751540184020996e-01 3.418467998504638672e+00 1.287402987480163574e+00 3.416762113571166992e+00
2.505000000000000000e+03 1.803784942626953125e+01 -7.731730461120605469e+00 -7.043033093214035034e-02 2.265446662902832031e+00 6.585049033164978027e-01 1.303910613059997559e+00
2.506000000000000000e+03 7.934457778930664062e+00 -8.733111381530761719e+00 -7.736568450927734375e-01 5.013903141021728516e+00 1.272073864936828613e+00 3.025914669036865234e+00
2.507000000000000000e+03 1.002354526519775391e+01 -9.652519226074218750e+00 -1.817424058914184570e+00 6.589290618896484375e+00 1.431560039520263672e+00 3.929557085037231445e+00
2.508000000000000000e+03 1.315147399902343750e+01 -9.350214004516601562e+00 -2.243668556213378906e+00 5.855840206146240234e+00 1.083651423454284668e+00 4.389996528625488281e+00
2.509000000000000000e+03 9.032526969909667969e+00 -4.715979576110839844e+00 2.249686479568481445e+00 2.848846197128295898e+00 1.529559850692749023e+00 3.901411771774291992e+00
2.510000000000000000e+03 1.124116706848144531e+01 4.236755371093750000e+00 4.602518379688262939e-01 3.403682708740234375e+00 1.159180402755737305e+00 -1.097208023071289062e+00
2.511000000000000000e+03 1.059116744995117188e+01 4.172278881072998047e+00 5.935585498809814453e-01 2.591838121414184570e+00 9.556189775466918945e-01 -1.018289089202880859e+00
2.512000000000000000e+03 9.790249824523925781e+00 5.145249366760253906e+00 6.024136543273925781e-01 2.017342329025268555e+00 7.859267592430114746e-01 -7.721736431121826172e-01
2.513000000000000000e+03 9.868509292602539062e+00 8.371023178100585938e+00 3.492803275585174561e-01 2.343306303024291992e+00 8.077760338783264160e-01 -5.501396059989929199e-01
2.514000000000000000e+03 1.573065567016601562e+01 -7.838107585906982422e+00 -7.501189112663269043e-01 4.573132991790771484e+00 1.146904230117797852e+00 2.744350433349609375e+00
2.515000000000000000e+03 1.595130443572998047e+01 -8.458192825317382812e+00 -1.280216097831726074e+00 3.949064016342163086e+00 8.006544113159179688e-01 2.717765331268310547e+00
2.516000000000000000e+03 2.043119430541992188e+01 -6.781937122344970703e+00 1.052087187767028809e+00 9.942158460617065430e-01 6.138909459114074707e-01 1.762243658304214478e-01
2.517000000000000000e+03 1.470632171630859375e+01 -4.535562515258789062e+00 2.597219467163085938e+00 8.440286636352539062e+00 3.311251878738403320e+00 2.115217447280883789e+00
2.518000000000000000e+03 8.622923851013183594e+00 -8.475042343139648438e+00 -7.818062901496887207e-01 5.303964614868164062e+00 1.356647491455078125e+00 3.520244359970092773e+00
2.519000000000000000e+03 1.020529556274414062e+01 -6.579696655273437500e+00 3.965335190296173096e-01 5.341812610626220703e+00 1.721503734588623047e+00 4.791426181793212891e+00
2.520000000000000000e+03 1.384319019317626953e+01 -5.930837631225585938e+00 4.489263296127319336e-01 7.669773101806640625e+00 2.435609817504882812e+00 3.684527635574340820e+00
2.521000000000000000e+03 1.253408622741699219e+01 -8.986472129821777344e+00 -2.000871419906616211e+00 6.339873790740966797e+00 1.301700830459594727e+00 4.530932426452636719e+00
2.522000000000000000e+03 8.403583526611328125e+00 8.807475090026855469e+00 3.767115473747253418e-01 1.678214669227600098e+00 6.164778470993041992e-01 -4.805249273777008057e-01
2.523000000000000000e+03 8.437151908874511719e+00 7.614454746246337891e+00 4.474045038223266602e-01 1.572935461997985840e+00 6.061019897460937500e-01 -4.849815666675567627e-01
2.524000000000000000e+03 3.296001434326171875e+01 -9.093527793884277344e+00 -6.028519272804260254e-01 2.611220836639404297e+00 6.025106906890869141e-01 -1.903210401535034180e+00
2.525000000000000000e+03 3.514568328857421875e+01 -8.974707603454589844e+00 -5.276139974594116211e-01 3.473668336868286133e+00 8.838163614273071289e-01 -2.227828741073608398e+00
2.526000000000000000e+03 3.586127090454101562e+01 -7.763281345367431641e+00 -3.185745477676391602e-01 3.885833501815795898e+00 1.070177674293518066e+00 -2.246033906936645508e+00
2.527000000000000000e+03 9.596003532409667969e+00 -8.941428184509277344e+00 -1.347682476043701172e+00 6.155500888824462891e+00 1.442345499992370605e+00 3.954993486404418945e+00
2.528000000000000000e+03 1.058734130859375000e+01 -9.192957878112792969e+00 -1.761735916137695312e+00 6.567370414733886719e+00 1.441690325736999512e+00 4.285578250885009766e+00
2.529000000000000000e+03 2.629704284667968750e+01 -6.821120738983154297e+00 4.511053562164306641e-01 9.375596046447753906e-01 4.165994822978973389e-01 -1.115550994873046875e+00
2.530000000000000000e+03 2.649574851989746094e+01 -8.571859359741210938e+00 -8.134089708328247070e-01 8.315111398696899414e-01 5.430663004517555237e-03 -1.133388996124267578e+00
2.531000000000000000e+03 2.185115814208984375e+01 -6.740477561950683594e+00 1.065579891204833984e+00 6.628961563110351562e-01 5.185428261756896973e-01 -2.548574805259704590e-01
2.532000000000000000e+03 2.096138191223144531e+01 -7.288331985473632812e+00 4.790818989276885986e-01 6.703428030014038086e-01 3.448274135589599609e-01 -2.303260006010532379e-02
2.533000000000000000e+03 2.818482398986816406e+01 -9.578315734863281250e+00 -1.312859773635864258e+00 1.116291761398315430e+00 -5.897039547562599182e-02 -1.149674415588378906e+00
2.534000000000000000e+03 9.268178939819335938e+00 1.351729297637939453e+01 1.113862693309783936e-01 2.109175920486450195e+00 6.661686301231384277e-01 -4.588381648063659668e-01
2.535000000000000000e+03 3.649809265136718750e+01 -9.878928184509277344e+00 -7.118108272552490234e-01 3.979470491409301758e+00 9.802978634834289551e-01 -2.432973861694335938e+00
2.536000000000000000e+03 3.831588745117187500e+01 -8.889221191406250000e+00 -6.847701072692871094e-01 4.870773792266845703e+00 1.255801081657409668e+00 -2.494259595870971680e+00
2.537000000000000000e+03 1.004292774200439453e+01 1.150632667541503906e+01 1.801353842020034790e-01 2.395894289016723633e+00 7.728088498115539551e-01 -4.579700529575347900e-01
2.538000000000000000e+03 1.041058158874511719e+01 9.865139961242675781e+00 2.334669232368469238e-01 2.583358764648437500e+00 8.450477123260498047e-01 -4.791879355907440186e-01
2.539000000000000000e+03 2.496160697937011719e+01 -5.004889011383056641e+00 1.741318345069885254e+00 1.038794875144958496e+00 8.340339660644531250e-01 -6.021714806556701660e-01
2.540000000000000000e+03 3.086191749572753906e+01 -9.590651512145996094e+00 -8.739376664161682129e-01 1.853756666183471680e+00 2.939456999301910400e-01 -1.562843084335327148e+00
2.541000000000000000e+03 8.917300224304199219e+00 1.097542858123779297e+01 2.163400352001190186e-01 1.970463037490844727e+00 6.560409069061279297e-01 -4.777699112892150879e-01
2.542000000000000000e+03 2.528596878051757812e+01 -6.587205886840820312e+00 6.553440690040588379e-01 8.256122469902038574e-01 4.442869126796722412e-01 -9.498019218444824219e-01
2.543000000000000000e+03 2.404755783081054688e+01 -5.293369293212890625e+00 1.758321046829223633e+00 8.417075276374816895e-01 7.800085544586181641e-01 -4.937210083007812500e-01
2.544000000000000000e+03 2.190440940856933594e+01 -6.030210494995117188e+00 1.577783584594726562e+00 8.376544713973999023e-01 7.246314287185668945e-01 -1.805280596017837524e-01
2.545000000000000000e+03 3.701268005371093750e+01 -1.087427258491516113e+00 8.914304375648498535e-01 4.936534881591796875e+00 1.748389601707458496e+00 -1.660274386405944824e+00
2.546000000000000000e+03 9.565336227416992188e+00 1.468537902832031250e+01 6.937393546104431152e-02 2.184746742248535156e+00 6.762362122535705566e-01 -4.557623267173767090e-01
2.547000000000000000e+03 9.981258392333984375e+00 2.093058586120605469e+01 -3.390455618500709534e-02 2.248274087905883789e+00 6.643108129501342773e-01 -4.749064445495605469e-01
2.548000000000000000e+03 4.114345932006835938e+01 -1.057810211181640625e+01 -1.152120828628540039e+00 6.156695365905761719e+00 1.501372456550598145e+00 -2.353072643280029297e+00
2.549000000000000000e+03 3.534556198120117188e+01 4.841856956481933594e+00 1.941131711006164551e+00 5.307777404785156250e+00 2.174672842025756836e+00 -6.601628065109252930e-01
2.550000000000000000e+03 4.084698104858398438e+01 -7.709400653839111328e+00 -6.112188696861267090e-01 5.817709445953369141e+00 1.561947226524353027e+00 -2.328993797302246094e+00
2.551000000000000000e+03 4.038829803466796875e+01 -1.012707805633544922e+01 -1.051449656486511230e+00 5.924394130706787109e+00 1.461883425712585449e+00 -2.456470012664794922e+00
2.552000000000000000e+03 4.105565261840820312e+01 -9.732494354248046875e+00 -9.622517824172973633e-01 6.015937328338623047e+00 1.516105651855468750e+00 -2.344696760177612305e+00
2.553000000000000000e+03 3.492113113403320312e+01 3.711192369461059570e+00 1.865291953086853027e+00 5.022745132446289062e+00 2.066411018371582031e+00 -7.363076210021972656e-01
2.554000000000000000e+03 3.093279838562011719e+01 1.147488021850585938e+01 2.044048309326171875e+00 4.899748802185058594e+00 2.083139181137084961e+00 6.200161948800086975e-02
2.555000000000000000e+03 3.283265686035156250e+01 1.496105480194091797e+01 1.641323328018188477e+00 5.571653842926025391e+00 2.163892984390258789e+00 -1.593352407217025757e-01
2.556000000000000000e+03 3.680854034423828125e+01 2.667381048202514648e+00 1.474010109901428223e+00 5.513490676879882812e+00 2.096250295639038086e+00 -1.143870711326599121e+00
2.557000000000000000e+03 3.450664520263671875e+01 -1.565215349197387695e+00 1.146237015724182129e+00 4.102639675140380859e+00 1.574662923812866211e+00 -1.432584762573242188e+00
2.558000000000000000e+03 8.826861381530761719e+00 2.226740074157714844e+01 -4.397489875555038452e-02 2.030533552169799805e+00 5.959675908088684082e-01 -4.658712148666381836e-01
2.559000000000000000e+03 1.230535697937011719e+01 2.393520545959472656e+01 -7.341044396162033081e-02 2.710057020187377930e+00 7.909939289093017578e-01 -4.821174144744873047e-01
2.560000000000000000e+03 5.204070663452148438e+01 -3.858083343505859375e+01 -1.471729874610900879e+00 6.531258583068847656e+00 1.517858624458312988e+00 -4.899676144123077393e-01
2.561000000000000000e+03 3.088214111328125000e+01 1.448122596740722656e+01 1.654635787010192871e+00 5.086803913116455078e+00 2.022431850433349609e+00 -4.681927710771560669e-02
2.562000000000000000e+03 1.429521274566650391e+01 2.150309944152832031e+01 -8.271840400993824005e-03 3.086354970932006836e+00 9.234248995780944824e-01 -4.332953393459320068e-01
2.563000000000000000e+03 2.692084884643554688e+01 1.561757850646972656e+01 1.252066969871520996e+00 4.625484943389892578e+00 1.763265609741210938e+00 8.821498602628707886e-02
2.564000000000000000e+03 2.774277496337890625e+01 2.595094680786132812e+01 1.940535567700862885e-02 4.846003532409667969e+00 1.459622621536254883e+00 -3.979845643043518066e-01
2.565000000000000000e+03 3.157001113891601562e+01 2.505809974670410156e+01 1.416696161031723022e-01 5.288860321044921875e+00 1.629158973693847656e+00 -3.307648897171020508e-01
2.566000000000000000e+03 1.002263641357421875e+01 2.293170547485351562e+01 -5.408386141061782837e-02 2.274912595748901367e+00 6.662486791610717773e-01 -4.712107777595520020e-01
2.567000000000000000e+03 3.886673355102539062e+01 -6.714763164520263672e+00 -3.441981673240661621e-01 5.133498668670654297e+00 1.436790227890014648e+00 -2.369874000549316406e+00
2.568000000000000000e+03 3.778455352783203125e+01 -5.715841770172119141e+00 -7.206460833549499512e-02 4.779704570770263672e+00 1.412292003631591797e+00 -2.256585121154785156e+00
2.569000000000000000e+03 1.562792873382568359e+01 4.634628295898437500e-01 4.674590110778808594e+00 8.050045967102050781e+00 3.817390918731689453e+00 4.403898715972900391e+00
2.570000000000000000e+03 1.108087444305419922e+01 -4.359133720397949219e+00 3.068923473358154297e+00 5.574322223663330078e+00 2.592973709106445312e+00 5.858847618103027344e+00
2.571000000000000000e+03 1.010107612609863281e+01 -4.152343273162841797e+00 3.358347654342651367e+00 3.402068853378295898e+00 2.028125047683715820e+00 4.814238071441650391e+00
2.572000000000000000e+03 1.183796882629394531e+01 -4.376813411712646484e+00 2.656517982482910156e+00 7.493842601776123047e+00 3.045108079910278320e+00 5.924540519714355469e+00
2.573000000000000000e+03 1.652664947509765625e+01 -1.722415089607238770e+00 7.073015213012695312e+00 5.365119457244873047e+00 3.731440305709838867e+00 2.348351478576660156e+00
2.574000000000000000e+03 1.226154136657714844e+01 -4.656921386718750000e+00 1.959851861000061035e+00 8.178804397583007812e+00 3.041596889495849609e+00 5.501436710357666016e+00
2.575000000000000000e+03 1.249569988250732422e+01 -5.058398246765136719e+00 1.379197716712951660e+00 8.180335998535156250e+00 2.867860078811645508e+00 5.153786182403564453e+00
2.576000000000000000e+03 1.452633666992187500e+01 2.541555404663085938e+00 5.423148870468139648e-01 8.254939079284667969e+00 2.639176130294799805e+00 1.577694177627563477e+00
2.577000000000000000e+03 1.604138946533203125e+01 -7.067693710327148438e+00 8.617608994245529175e-02 4.767185688018798828e+00 1.456008553504943848e+00 2.299876689910888672e+00
2.578000000000000000e+03 1.432820606231689453e+01 -4.956105709075927734e+00 1.674219846725463867e+00 8.366892814636230469e+00 3.012333869934082031e+00 2.822586774826049805e+00
2.579000000000000000e+03 1.698809623718261719e+01 -7.439536094665527344e+00 -1.223364472389221191e-02 3.492322683334350586e+00 1.044026732444763184e+00 1.835174441337585449e+00
2.580000000000000000e+03 1.490149116516113281e+01 -4.188727855682373047e+00 3.276124238967895508e+00 8.406708717346191406e+00 3.504849910736083984e+00 1.728299736976623535e+00
2.581000000000000000e+03 1.560066318511962891e+01 -4.316225051879882812e+00 3.358485460281372070e+00 6.926310062408447266e+00 3.085438728332519531e+00 1.425685882568359375e+00
2.582000000000000000e+03 1.760245132446289062e+01 -7.150669574737548828e+00 4.688290655612945557e-01 3.004226922988891602e+00 1.041916847229003906e+00 1.401980161666870117e+00
2.583000000000000000e+03 1.658395004272460938e+01 -2.615221023559570312e+00 6.165621757507324219e+00 5.236115455627441406e+00 3.420521259307861328e+00 1.524507641792297363e+00
2.584000000000000000e+03 8.059908866882324219e+00 -7.034853935241699219e+00 2.185663878917694092e-01 3.980417013168334961e+00 1.259695053100585938e+00 3.321463346481323242e+00
2.585000000000000000e+03 9.220081329345703125e+00 -5.265643596649169922e+00 1.780745983123779297e+00 3.526393890380859375e+00 1.592141866683959961e+00 4.187862396240234375e+00
2.586000000000000000e+03 2.250866508483886719e+01 -5.967045307159423828e+00 1.534945130348205566e+00 7.663326859474182129e-01 6.903833746910095215e-01 -3.053421974182128906e-01
2.587000000000000000e+03 8.797494888305664062e+00 -5.744915485382080078e+00 1.309484958648681641e+00 3.537124395370483398e+00 1.453982830047607422e+00 3.910188674926757812e+00
2.588000000000000000e+03 1.032599258422851562e+01 4.857874393463134766e+00 5.680624842643737793e-01 2.421262741088867188e+00 8.967975378036499023e-01 -8.822394013404846191e-01
2.589000000000000000e+03 8.516120910644531250e+00 -6.709316730499267578e+00 4.881641566753387451e-01 4.021972656250000000e+00 1.353040933609008789e+00 3.687388896942138672e+00
2.590000000000000000e+03 1.868177986145019531e+01 -7.302934646606445312e+00 5.041124820709228516e-01 1.972617506980895996e+00 7.430189847946166992e-01 9.372530579566955566e-01
2.591000000000000000e+03 1.054453372955322266e+01 1.091642761230468750e+01 1.940408200025558472e-01 2.611205101013183594e+00 8.415737748146057129e-01 -4.557252228260040283e-01
2.592000000000000000e+03 9.537237167358398438e+00 1.084923171997070312e+01 2.082921415567398071e-01 2.197505235671997070e+00 7.217391729354858398e-01 -4.692904353141784668e-01
2.593000000000000000e+03 1.421761035919189453e+01 -8.456195831298828125e+00 -1.580418586730957031e+00 5.572966575622558594e+00 1.197764396667480469e+00 3.817034959793090820e+00
2.594000000000000000e+03 1.472149181365966797e+01 -8.602908134460449219e+00 -1.665743350982666016e+00 4.991972446441650391e+00 9.978687763214111328e-01 3.560307502746582031e+00
2.595000000000000000e+03 1.080862140655517578e+01 4.565955162048339844e+00 5.339155197143554688e-01 2.847980737686157227e+00 1.014568805694580078e+00 -9.919816255569458008e-01
2.596000000000000000e+03 1.000004386901855469e+01 1.036697864532470703e+01 2.242285758256912231e-01 2.407088279724121094e+00 7.893950939178466797e-01 -4.710560739040374756e-01
2.597000000000000000e+03 1.001782703399658203e+01 5.657202720642089844e+00 5.401538014411926270e-01 2.267066001892089844e+00 8.421659469604492188e-01 -7.616817951202392578e-01
2.598000000000000000e+03 1.106383323669433594e+01 -8.696548461914062500e+00 -1.554373741149902344e+00 6.450538158416748047e+00 1.468849301338195801e+00 4.542957305908203125e+00
2.599000000000000000e+03 1.635306549072265625e+01 -7.663968563079833984e+00 -4.300923347473144531e-01 4.047773361206054688e+00 1.085304379463195801e+00 2.271624803543090820e+00
2.600000000000000000e+03 1.016042900085449219e+01 -8.602286338806152344e+00 -1.291051745414733887e+00 6.208779811859130859e+00 1.475318431854248047e+00 4.274800300598144531e+00
2.601000000000000000e+03 1.342814636230468750e+01 -8.748269081115722656e+00 -1.868399500846862793e+00 5.933198451995849609e+00 1.219439744949340820e+00 4.243569374084472656e+00
2.602000000000000000e+03 1.197341632843017578e+01 -8.574770927429199219e+00 -1.642062664031982422e+00 6.482308864593505859e+00 1.452073931694030762e+00 4.670823097229003906e+00
2.603000000000000000e+03 1.369337844848632812e+01 -8.194804191589355469e+00 -1.457986593246459961e+00 5.994308948516845703e+00 1.360896825790405273e+00 4.132871150970458984e+00
2.604000000000000000e+03 8.221108436584472656e+00 -9.612253189086914062e+00 -1.251518130302429199e+00 5.728831768035888672e+00 1.343194127082824707e+00 2.995625972747802734e+00
2.605000000000000000e+03 3.656166458129882812e+01 -7.522512912750244141e+00 -3.396337330341339111e-01 4.278735160827636719e+00 1.181730389595031738e+00 -2.283443927764892578e+00
2.606000000000000000e+03 9.138324737548828125e+00 7.100049495697021484e+00 4.657637178897857666e-01 1.866233706474304199e+00 6.995992660522460938e-01 -5.794321298599243164e-01
2.607000000000000000e+03 9.513009071350097656e+00 7.754160404205322266e+00 4.133042395114898682e-01 2.127223253250122070e+00 7.621582746505737305e-01 -5.818461179733276367e-01
2.608000000000000000e+03 2.698045921325683594e+01 -6.470871925354003906e+00 5.793985128402709961e-01 1.136653661727905273e+00 5.148156881332397461e-01 -1.117658495903015137e+00
2.609000000000000000e+03 2.737479400634765625e+01 -7.899022102355957031e+00 -2.748856842517852783e-01 1.072422742843627930e+00 2.392611354589462280e-01 -1.235048651695251465e+00
2.610000000000000000e+03 3.916837310791015625e+01 -8.183849334716796875e+00 -6.454474925994873047e-01 5.261706829071044922e+00 1.384877800941467285e+00 -2.447892427444458008e+00
2.611000000000000000e+03 3.748962402343750000e+01 -4.450010299682617188e+00 1.890306770801544189e-01 4.811442375183105469e+00 1.500141978263854980e+00 -2.099009275436401367e+00
2.612000000000000000e+03 3.046347999572753906e+01 -8.704205513000488281e+00 -5.872688293457031250e-01 1.850707292556762695e+00 3.790315389633178711e-01 -1.546354174613952637e+00
2.613000000000000000e+03 2.584287643432617188e+01 -5.669666767120361328e+00 1.203373312950134277e+00 1.050384759902954102e+00 6.761274337768554688e-01 -8.585694432258605957e-01
2.614000000000000000e+03 1.636129570007324219e+01 -2.906327009201049805e+00 5.934792518615722656e+00 5.633215427398681641e+00 3.470402479171752930e+00 1.319744467735290527e+00
2.615000000000000000e+03 1.120738410949707031e+01 1.141174316406250000e+01 1.622818410396575928e-01 2.829006910324096680e+00 8.973866105079650879e-01 -4.174180924892425537e-01
2.616000000000000000e+03 2.677539062500000000e+01 -7.282527446746826172e+00 1.237168312072753906e-01 1.082667469978332520e+00 3.619152903556823730e-01 -1.142670989036560059e+00
2.617000000000000000e+03 1.042115974426269531e+01 1.963114738464355469e+01 -1.348546519875526428e-02 2.345746517181396484e+00 6.996783614158630371e-01 -4.725751280784606934e-01
2.618000000000000000e+03 1.233486652374267578e+01 1.880062866210937500e+01 1.954913325607776642e-02 2.778258323669433594e+00 8.393422365188598633e-01 -4.295783936977386475e-01
2.619000000000000000e+03 9.733315467834472656e+00 1.590249729156494141e+01 4.402352869510650635e-02 2.219982862472534180e+00 6.792019009590148926e-01 -4.544571638107299805e-01
2.620000000000000000e+03 2.121995735168457031e+01 -5.858805656433105469e+00 1.840156197547912598e+00 1.022975683212280273e+00 8.589395880699157715e-01 1.870312727987766266e-02
2.621000000000000000e+03 2.507926177978515625e+01 -5.845181941986083984e+00 1.169451713562011719e+00 8.723018169403076172e-01 6.125260591506958008e-01 -7.910919785499572754e-01
2.622000000000000000e+03 2.327848625183105469e+01 -4.291387557983398438e+00 2.474138498306274414e+00 1.069733977317810059e+00 1.063161730766296387e+00 -1.149567887187004089e-01
2.623000000000000000e+03 9.248497962951660156e+00 -8.160782814025878906e+00 -7.133252620697021484e-01 5.498566150665283203e+00 1.435572147369384766e+00 3.955598831176757812e+00
2.624000000000000000e+03 3.406529617309570312e+01 -7.746147632598876953e+00 -2.651536762714385986e-01 3.228506088256835938e+00 8.890057206153869629e-01 -2.059324026107788086e+00
2.625000000000000000e+03 3.300190353393554688e+01 -7.617981433868408203e+00 -1.558014154434204102e-01 2.808521986007690430e+00 7.958161830902099609e-01 -1.887991547584533691e+00
2.626000000000000000e+03 3.621922302246093750e+01 -1.266362220048904419e-01 1.150627493858337402e+00 4.869312286376953125e+00 1.805981874465942383e+00 -1.462610602378845215e+00
2.627000000000000000e+03 1.076946735382080078e+01 1.212919521331787109e+01 1.511289924383163452e-01 2.652703762054443359e+00 8.411498069763183594e-01 -4.243915081024169922e-01
2.628000000000000000e+03 1.152470588684082031e+01 1.712268257141113281e+01 2.856201678514480591e-02 2.633419752120971680e+00 7.985945343971252441e-01 -4.290560185909271240e-01
2.629000000000000000e+03 9.827415466308593750e+00 1.780759429931640625e+01 8.017281070351600647e-03 2.226370573043823242e+00 6.703163981437683105e-01 -4.599273800849914551e-01
2.630000000000000000e+03 3.726133728027343750e+01 -7.068265914916992188e+00 -2.926405370235443115e-01 4.517194271087646484e+00 1.267366170883178711e+00 -2.323457717895507812e+00
2.631000000000000000e+03 3.611540222167968750e+01 -1.930071115493774414e+00 8.568370938301086426e-01 4.605598926544189453e+00 1.638730883598327637e+00 -1.679181337356567383e+00
2.632000000000000000e+03 3.530788040161132812e+01 2.229371786117553711e+00 1.632854819297790527e+00 4.922818660736083984e+00 1.966701984405517578e+00 -9.712069034576416016e-01
2.633000000000000000e+03 3.615214920043945312e+01 1.608340024948120117e+00 1.444261431694030762e+00 5.089253425598144531e+00 1.960054397583007812e+00 -1.208005905151367188e+00
2.634000000000000000e+03 3.174188995361328125e+01 9.726066589355468750e+00 2.239698171615600586e+00 4.889812469482421875e+00 2.138853073120117188e+00 2.202708646655082703e-02
2.635000000000000000e+03 3.308593750000000000e+01 9.188169479370117188e+00 2.256585836410522461e+00 5.155388355255126953e+00 2.223592281341552734e+00 -1.243666559457778931e-01
2.636000000000000000e+03 3.154592514038085938e+01 1.547921848297119141e+01 1.553289771080017090e+00 5.295302391052246094e+00 2.054577589035034180e+00 -1.604525446891784668e-01
2.637000000000000000e+03 3.579415893554687500e+01 -3.713826417922973633e+00 5.272212028503417969e-01 4.268262386322021484e+00 1.438645124435424805e+00 -1.875869870185852051e+00
2.638000000000000000e+03 3.236452484130859375e+01 1.090829086303710938e+01 2.137538194656372070e+00 5.140682220458984375e+00 2.183466196060180664e+00 -6.229075416922569275e-02
2.639000000000000000e+03 1.453432178497314453e+01 2.407020187377929688e+01 -6.845270097255706787e-02 3.098769664764404297e+00 9.090950489044189453e-01 -4.587874114513397217e-01
2.640000000000000000e+03 1.119451999664306641e+01 2.472448921203613281e+01 -8.295478671789169312e-02 2.511907100677490234e+00 7.286856770515441895e-01 -4.771922826766967773e-01
2.641000000000000000e+03 3.005670356750488281e+01 1.335752391815185547e+01 1.769203424453735352e+00 4.897439479827880859e+00 1.999992728233337402e+00 4.396348446607589722e-02
2.642000000000000000e+03 2.883316802978515625e+01 1.720372962951660156e+01 1.170063734054565430e+00 4.920776367187500000e+00 1.827252030372619629e+00 -9.721308946609497070e-02
2.643000000000000000e+03 3.024907684326171875e+01 1.556684207916259766e+01 1.488735795021057129e+00 5.062415599822998047e+00 1.965345382690429688e+00 -6.149410083889961243e-02
2.644000000000000000e+03 4.802045440673828125e+01 -4.103831481933593750e+01 -2.112268686294555664e+00 6.510299682617187500e+00 1.319409370422363281e+00 -3.500049188733100891e-02
2.645000000000000000e+03 5.061150360107421875e+01 -3.423895263671875000e+01 -2.473398856818675995e-02 6.958772182464599609e+00 2.080211400985717773e+00 -1.047921180725097656e+00
2.646000000000000000e+03 4.689623641967773438e+01 -3.325165557861328125e+01 -6.407081484794616699e-01 7.066310405731201172e+00 1.927680730819702148e+00 -1.122100114822387695e+00
2.647000000000000000e+03 4.880172729492187500e+01 -3.486497116088867188e+01 -7.352772355079650879e-01 6.858022689819335938e+00 1.836823582649230957e+00 -7.178958654403686523e-01
2.648000000000000000e+03 1.335561943054199219e+01 2.410264968872070312e+00 -3.015701286494731903e-02 7.901859760284423828e+00 2.361510753631591797e+00 -1.565929502248764038e-01
2.649000000000000000e+03 1.633063697814941406e+01 -7.320103645324707031e-01 6.837498664855957031e+00 5.983995437622070312e+00 3.846448183059692383e+00 3.560972213745117188e+00
2.650000000000000000e+03 1.312389659881591797e+01 2.719854354858398438e+00 -1.759832724928855896e-02 7.074874401092529297e+00 2.117182731628417969e+00 -4.993832707405090332e-01
2.651000000000000000e+03 1.601118469238281250e+01 1.907164230942726135e-02 5.780608654022216797e+00 7.036556720733642578e+00 3.845149755477905273e+00 4.282018184661865234e+00
2.652000000000000000e+03 1.293447971343994141e+01 3.053434371948242188e+00 5.207933019846677780e-03 6.477702617645263672e+00 1.944873213768005371e+00 -6.507714986801147461e-01
2.653000000000000000e+03 1.605271720886230469e+01 -3.575712680816650391e+00 4.919204711914062500e+00 6.312927246093750000e+00 3.369639635086059570e+00 1.124305963516235352e+00
2.654000000000000000e+03 1.945486640930175781e+01 -5.481776237487792969e+00 2.367295742034912109e+00 1.984000444412231445e+00 1.305388808250427246e+00 5.684533715248107910e-01
2.655000000000000000e+03 1.627722740173339844e+01 -1.091527462005615234e+00 7.258477210998535156e+00 5.887223720550537109e+00 3.943710327148437500e+00 3.185658454895019531e+00
2.656000000000000000e+03 1.200119686126708984e+01 3.101499319076538086e+00 2.939955294132232666e-01 4.732234954833984375e+00 1.507869124412536621e+00 -1.304521322250366211e+00
2.657000000000000000e+03 1.283289051055908203e+01 2.768547773361206055e+00 2.413554862141609192e-02 6.605099201202392578e+00 1.988770484924316406e+00 -7.805358171463012695e-01
2.658000000000000000e+03 1.183817577362060547e+01 -4.745789051055908203e+00 2.046084642410278320e+00 7.351523876190185547e+00 2.819282531738281250e+00 5.742890357971191406e+00
2.659000000000000000e+03 1.554653072357177734e+01 1.666158199310302734e+00 2.284259319305419922e+00 8.145242691040039062e+00 3.128850460052490234e+00 3.373688936233520508e+00
2.660000000000000000e+03 1.378873443603515625e+01 -5.276816844940185547e+00 1.089162111282348633e+00 8.389213562011718750e+00 2.843512773513793945e+00 3.551118135452270508e+00
2.661000000000000000e+03 1.662904930114746094e+01 -6.862263679504394531e+00 4.812264740467071533e-01 4.252027034759521484e+00 1.419976115226745605e+00 1.854979872703552246e+00
2.662000000000000000e+03 1.427104854583740234e+01 -4.467168331146240234e+00 2.396086454391479492e+00 9.158376693725585938e+00 3.466338872909545898e+00 2.556355476379394531e+00
2.663000000000000000e+03 8.860747337341308594e+00 -5.153137207031250000e+00 1.886261820793151855e+00 3.057791233062744141e+00 1.483215928077697754e+00 3.877104759216308594e+00
2.664000000000000000e+03 9.786050796508789062e+00 -7.264627456665039062e+00 -1.929419934749603271e-01 5.391543388366699219e+00 1.559580326080322266e+00 4.394905567169189453e+00
2.665000000000000000e+03 1.531364727020263672e+01 -4.558949470520019531e+00 2.871119737625122070e+00 7.328115940093994141e+00 3.059770822525024414e+00 1.668408751487731934e+00
2.666000000000000000e+03 8.969375610351562500e+00 -6.398035049438476562e+00 6.672463417053222656e-01 4.193935871124267578e+00 1.458354592323303223e+00 4.020785331726074219e+00
2.667000000000000000e+03 1.006996536254882812e+01 -5.332028388977050781e+00 1.809463858604431152e+00 4.480493068695068359e+00 1.886987090110778809e+00 4.966323375701904297e+00
2.668000000000000000e+03 1.768368911743164062e+01 -6.326728343963623047e+00 1.416045069694519043e+00 3.303751707077026367e+00 1.415938973426818848e+00 1.216533184051513672e+00
2.669000000000000000e+03 1.156166744232177734e+01 3.815154075622558594e+00 4.068368375301361084e-01 3.886352539062500000e+00 1.287956833839416504e+00 -1.176212668418884277e+00
2.670000000000000000e+03 8.332809448242187500e+00 -7.707129955291748047e+00 -2.430073767900466919e-01 4.635159015655517578e+00 1.317645430564880371e+00 3.477339982986450195e+00
2.671000000000000000e+03 1.092421340942382812e+01 -7.807785511016845703e+00 -9.100353717803955078e-01 6.281803131103515625e+00 1.611530423164367676e+00 4.766900062561035156e+00
2.672000000000000000e+03 1.049640369415283203e+01 -4.453492164611816406e+00 2.985227346420288086e+00 4.388726234436035156e+00 2.212186098098754883e+00 5.327856063842773438e+00
2.673000000000000000e+03 1.926532936096191406e+01 -6.726223945617675781e+00 1.127816319465637207e+00 1.674218654632568359e+00 8.406105041503906250e-01 6.219750642776489258e-01
2.674000000000000000e+03 1.458516216278076172e+01 -8.121653556823730469e+00 -1.250173091888427734e+00 5.428979873657226562e+00 1.253642082214355469e+00 3.579712152481079102e+00
2.675000000000000000e+03 1.513949680328369141e+01 -7.979434967041015625e+00 -1.038396000862121582e+00 5.102731704711914062e+00 1.219300627708435059e+00 3.139882087707519531e+00
2.676000000000000000e+03 1.315281009674072266e+01 -7.922128200531005859e+00 -1.286562681198120117e+00 6.471077919006347656e+00 1.555354595184326172e+00 4.366320133209228516e+00
2.677000000000000000e+03 8.890560150146484375e+00 -7.398779869079589844e+00 -1.186468005180358887e-01 4.841885089874267578e+00 1.416971564292907715e+00 3.905305147171020508e+00
2.678000000000000000e+03 1.054471302032470703e+01 5.314050197601318359e+00 5.176975131034851074e-01 2.661879301071166992e+00 9.538730382919311523e-01 -8.580411076545715332e-01
2.679000000000000000e+03 1.126552677154541016e+01 -4.999705314636230469e+00 1.991913914680480957e+00 6.197020530700683594e+00 2.456680297851562500e+00 5.679985523223876953e+00
2.680000000000000000e+03 1.093535900115966797e+01 1.035756111145019531e+01 2.064265906810760498e-01 2.791228771209716797e+00 8.992965817451477051e-01 -4.496875703334808350e-01
2.681000000000000000e+03 9.401448249816894531e+00 8.798956871032714844e+00 3.472526967525482178e-01 2.121366977691650391e+00 7.405859231948852539e-01 -5.314981341361999512e-01
2.682000000000000000e+03 9.901044845581054688e+00 9.342823028564453125e+00 2.881554365158081055e-01 2.363707065582275391e+00 7.955587506294250488e-01 -5.012317895889282227e-01
2.683000000000000000e+03 2.217461776733398438e+01 -5.458724975585937500e+00 2.040185689926147461e+00 9.269334077835083008e-01 8.901357054710388184e-01 -1.354151517152786255e-01
2.684000000000000000e+03 1.816908645629882812e+01 -5.582068920135498047e+00 2.236110448837280273e+00 3.081990242004394531e+00 1.595430254936218262e+00 9.234569072723388672e-01
2.685000000000000000e+03 1.992679786682128906e+01 -6.130331993103027344e+00 1.720665812492370605e+00 1.527692794799804688e+00 9.745075702667236328e-01 3.789913356304168701e-01
2.686000000000000000e+03 1.285863113403320312e+01 -8.423301696777343750e+00 -1.626254677772521973e+00 6.304829120635986328e+00 1.403572320938110352e+00 4.518496990203857422e+00
2.687000000000000000e+03 1.072287845611572266e+01 1.465940761566162109e+01 7.783097773790359497e-02 2.523682594299316406e+00 7.804540991783142090e-01 -4.310269653797149658e-01
2.688000000000000000e+03 2.597891426086425781e+01 -6.269702434539794922e+00 6.960474848747253418e-01 9.494358301162719727e-01 4.936449825763702393e-01 -9.889108538627624512e-01
2.689000000000000000e+03 2.397059249877929688e+01 -4.489827156066894531e+00 2.215525150299072266e+00 1.023673295974731445e+00 9.717595577239990234e-01 -3.074377179145812988e-01
2.690000000000000000e+03 9.779922485351562500e+00 6.597719192504882812e+00 4.846803545951843262e-01 2.191791534423828125e+00 8.029415607452392578e-01 -6.635701060295104980e-01
2.691000000000000000e+03 1.026871681213378906e+01 7.002242565155029297e+00 4.092514514923095703e-01 2.517604112625122070e+00 8.780566453933715820e-01 -6.560790538787841797e-01
2.692000000000000000e+03 1.396208667755126953e+01 1.463424968719482422e+01 1.374903321266174316e-01 3.317168951034545898e+00 1.036397814750671387e+00 -2.445139288902282715e-01
2.693000000000000000e+03 1.103940582275390625e+01 1.833577346801757812e+01 1.175432000309228897e-02 2.515699148178100586e+00 7.582359910011291504e-01 -4.562396407127380371e-01
2.694000000000000000e+03 3.428302383422851562e+01 5.146396636962890625e+00 2.103808879852294922e+00 5.022321701049804688e+00 2.137839317321777344e+00 -4.660922586917877197e-01
2.695000000000000000e+03 3.451695251464843750e+01 2.711766481399536133e+00 1.801455616950988770e+00 4.736370086669921875e+00 1.961347699165344238e+00 -7.857750058174133301e-01
2.696000000000000000e+03 3.694926834106445312e+01 -8.435506820678710938e+00 -5.112327337265014648e-01 4.321622848510742188e+00 1.143117070198059082e+00 -2.387012481689453125e+00
2.697000000000000000e+03 2.588531494140625000e+01 -4.859648227691650391e+00 1.604731678962707520e+00 1.139005422592163086e+00 8.231211304664611816e-01 -7.406553626060485840e-01
2.698000000000000000e+03 1.228198432922363281e+01 2.194189453125000000e+01 -4.154748842120170593e-02 2.722749233245849609e+00 8.043605685234069824e-01 -4.721595644950866699e-01
2.699000000000000000e+03 2.156662559509277344e+01 -5.159565448760986328e+00 2.353250265121459961e+00 1.142211079597473145e+00 1.048638463020324707e+00 5.693822726607322693e-02
2.700000000000000000e+03 3.544845199584960938e+01 6.813719272613525391e-01 1.360870361328125000e+00 4.707679271697998047e+00 1.820564985275268555e+00 -1.220785617828369141e+00
2.701000000000000000e+03 3.539465332031250000e+01 -9.325898885726928711e-01 1.130102515220642090e+00 4.472796440124511719e+00 1.680869817733764648e+00 -1.426516890525817871e+00
2.702000000000000000e+03 3.398262405395507812e+01 -4.635766983032226562e+00 5.258983969688415527e-01 3.555979013442993164e+00 1.224563241004943848e+00 -1.788749456405639648e+00
2.703000000000000000e+03 3.518549346923828125e+01 9.531312942504882812e+00 2.219381809234619141e+00 5.856415271759033203e+00 2.422739028930664062e+00 -3.688345253467559814e-01
2.704000000000000000e+03 3.344347000122070312e+01 6.537137508392333984e+00 2.268359184265136719e+00 4.941517829895019531e+00 2.162963151931762695e+00 -2.298172265291213989e-01
2.705000000000000000e+03 3.319774246215820312e+01 5.352342128753662109e+00 2.197440147399902344e+00 4.668179988861083984e+00 2.059685945510864258e+00 -2.835106551647186279e-01
2.706000000000000000e+03 1.183246707916259766e+01 1.485941410064697266e+01 9.805126488208770752e-02 2.832636594772338867e+00 8.792063593864440918e-01 -3.920599818229675293e-01
2.707000000000000000e+03 3.247437667846679688e+01 7.996519088745117188e+00 2.320039749145507812e+00 4.837653160095214844e+00 2.147307872772216797e+00 -5.959887430071830750e-02
2.708000000000000000e+03 3.370976257324218750e+01 7.648579120635986328e+00 2.257688522338867188e+00 5.090208530426025391e+00 2.204369068145751953e+00 -2.219762653112411499e-01
2.709000000000000000e+03 1.070957565307617188e+01 2.641903305053710938e+01 -1.232492774724960327e-01 2.416959524154663086e+00 6.881130337715148926e-01 -4.622168838977813721e-01
2.710000000000000000e+03 1.148308277130126953e+01 2.296830749511718750e+01 -5.960652604699134827e-02 2.567965984344482422e+00 7.525078654289245605e-01 -4.812685847282409668e-01
2.711000000000000000e+03 1.173611450195312500e+01 2.010049438476562500e+01 -1.394137740135192871e-02 2.639633417129516602e+00 7.877076268196105957e-01 -4.605641961097717285e-01
2.712000000000000000e+03 3.517243576049804688e+01 -6.563039779663085938e+00 -2.619908377528190613e-02 3.781949996948242188e+00 1.126725316047668457e+00 -2.119166851043701172e+00
2.713000000000000000e+03 3.503104400634765625e+01 -7.772016525268554688e+00 -3.123807311058044434e-01 3.592716932296752930e+00 9.841008782386779785e-01 -2.142681121826171875e+00
2.714000000000000000e+03 3.121107864379882812e+01 -6.427509307861328125e+00 2.810363173484802246e-01 2.342770338058471680e+00 7.871419787406921387e-01 -1.646208167076110840e+00
2.715000000000000000e+03 3.123502159118652344e+01 -8.038676261901855469e+00 -2.757459580898284912e-01 2.182521104812622070e+00 5.720325708389282227e-01 -1.708611965179443359e+00
2.716000000000000000e+03 3.356520462036132812e+01 -2.145670413970947266e+00 1.154940009117126465e+00 3.718097925186157227e+00 1.461911320686340332e+00 -1.398720979690551758e+00
2.717000000000000000e+03 3.426834106445312500e+01 -5.476609706878662109e+00 3.214607238769531250e-01 3.532697200775146484e+00 1.156247377395629883e+00 -1.920317053794860840e+00
2.718000000000000000e+03 3.628169250488281250e+01 -4.965062618255615234e+00 2.289206385612487793e-01 4.280881881713867188e+00 1.352940678596496582e+00 -2.057699680328369141e+00
2.719000000000000000e+03 4.458826446533203125e+01 -3.976432800292968750e+01 -2.090943098068237305e+00 5.566431999206542969e+00 1.042646646499633789e+00 1.347390711307525635e-01
2.720000000000000000e+03 3.518928146362304688e+01 -5.337668895721435547e+00 2.340195924043655396e-01 3.896701335906982422e+00 1.239216208457946777e+00 -1.987030863761901855e+00
2.721000000000000000e+03 1.349889373779296875e+01 3.313569068908691406e+00 2.572540007531642914e-02 6.898971080780029297e+00 2.077409029006958008e+00 -5.463930964469909668e-02
2.722000000000000000e+03 1.663110542297363281e+01 -1.428661704063415527e+00 6.862547874450683594e+00 5.261592864990234375e+00 3.637242317199707031e+00 2.691745281219482422e+00
2.723000000000000000e+03 1.600377273559570312e+01 -3.369357883930206299e-01 6.475626468658447266e+00 6.773477554321289062e+00 3.974731206893920898e+00 4.095210075378417969e+00
2.724000000000000000e+03 1.648303222656250000e+01 3.602139353752136230e-01 5.067043304443359375e+00 6.388580322265625000e+00 3.436686992645263672e+00 3.991390943527221680e+00
2.725000000000000000e+03 1.481781768798828125e+01 2.200804948806762695e+00 9.558849334716796875e-01 8.634202003479003906e+00 2.877026081085205078e+00 2.244930505752563477e+00
2.726000000000000000e+03 1.415048503875732422e+01 2.961465358734130859e+00 2.131733745336532593e-01 7.789843559265136719e+00 2.400905132293701172e+00 8.775307536125183105e-01
2.727000000000000000e+03 1.567227935791015625e+01 8.218562602996826172e-01 3.948325634002685547e+00 8.053956985473632812e+00 3.600684642791748047e+00 4.197426795959472656e+00
2.728000000000000000e+03 1.640843772888183594e+01 -3.748440444469451904e-01 6.279707431793212891e+00 6.060985565185546875e+00 3.702207803726196289e+00 3.807157754898071289e+00
2.729000000000000000e+03 1.623956298828125000e+01 -4.432621479034423828e+00 3.440603733062744141e+00 5.853988647460937500e+00 2.788377761840820312e+00 1.239290118217468262e+00
2.730000000000000000e+03 1.214549827575683594e+01 3.616703748703002930e+00 2.517561614513397217e-01 4.815336227416992188e+00 1.520127773284912109e+00 -1.065133571624755859e+00
2.731000000000000000e+03 1.287134838104248047e+01 -4.740823745727539062e+00 1.651601791381835938e+00 9.042512893676757812e+00 3.208234548568725586e+00 4.792978286743164062e+00
2.732000000000000000e+03 1.226761913299560547e+01 3.278513669967651367e+00 1.853775829076766968e-01 5.221220493316650391e+00 1.621979475021362305e+00 -1.114802241325378418e+00
2.733000000000000000e+03 1.283786487579345703e+01 3.598327398300170898e+00 6.856996566057205200e-02 5.856266975402832031e+00 1.777451157569885254e+00 -6.121470332145690918e-01
2.734000000000000000e+03 1.419806957244873047e+01 3.441936016082763672e+00 1.852747499942779541e-01 7.171633243560791016e+00 2.207072496414184570e+00 7.069054841995239258e-01
2.735000000000000000e+03 1.679595184326171875e+01 -2.242531538009643555e+00 6.441137790679931641e+00 4.973483085632324219e+00 3.424386262893676758e+00 1.794926881790161133e+00
2.736000000000000000e+03 1.571770095825195312e+01 -6.485520362854003906e+00 5.750120878219604492e-01 5.513634681701660156e+00 1.826593995094299316e+00 2.278285741806030273e+00
2.737000000000000000e+03 1.341303730010986328e+01 -7.509739398956298828e+00 -9.682887196540832520e-01 6.480907917022705078e+00 1.653785705566406250e+00 4.274486541748046875e+00
2.738000000000000000e+03 1.545732975006103516e+01 -7.251718997955322266e+00 -3.077086508274078369e-01 5.279541969299316406e+00 1.491550087928771973e+00 2.741925954818725586e+00
2.739000000000000000e+03 9.719232559204101562e+00 -5.068256855010986328e+00 2.035572528839111328e+00 3.895484447479248047e+00 1.779317140579223633e+00 4.614956855773925781e+00
2.740000000000000000e+03 1.752404403686523438e+01 -5.180635452270507812e+00 2.645694971084594727e+00 3.876356124877929688e+00 1.956615328788757324e+00 1.036607146263122559e+00
2.741000000000000000e+03 1.057185840606689453e+01 -6.316390037536621094e+00 5.050095319747924805e-01 5.678047657012939453e+00 1.854917049407958984e+00 5.019407749176025391e+00
2.742000000000000000e+03 1.035534286499023438e+01 -7.180581569671630859e+00 -2.781575024127960205e-01 5.761405467987060547e+00 1.644974350929260254e+00 4.691838741302490234e+00
2.743000000000000000e+03 1.683263587951660156e+01 -6.107042312622070312e+00 1.457693696022033691e+00 4.407903671264648438e+00 1.759679317474365234e+00 1.499282002449035645e+00
2.744000000000000000e+03 2.094433021545410156e+01 -4.877138614654541016e+00 2.707770586013793945e+00 1.388053178787231445e+00 1.228747129440307617e+00 2.584232389926910400e-01
2.745000000000000000e+03 9.856654167175292969e+00 -7.922891616821289062e+00 -6.846410036087036133e-01 5.745688438415527344e+00 1.518314242362976074e+00 4.351779460906982422e+00
2.746000000000000000e+03 1.719105339050292969e+01 -6.621045112609863281e+00 9.065475463867187500e-01 3.737761974334716797e+00 1.393292903900146484e+00 1.478533387184143066e+00
2.747000000000000000e+03 1.066078853607177734e+01 -5.158800125122070312e+00 1.966742873191833496e+00 5.204108715057373047e+00 2.151255369186401367e+00 5.378269195556640625e+00
2.748000000000000000e+03 1.028255844116210938e+01 -4.887297630310058594e+00 2.354724407196044922e+00 4.434412479400634766e+00 2.036741018295288086e+00 5.117099761962890625e+00
2.749000000000000000e+03 1.628570747375488281e+01 -6.287197113037109375e+00 1.002962827682495117e+00 5.029614448547363281e+00 1.809773206710815430e+00 1.864328742027282715e+00
2.750000000000000000e+03 1.233173561096191406e+01 -8.043670654296875000e+00 -1.346579790115356445e+00 6.569607257843017578e+00 1.566908240318298340e+00 4.668380737304687500e+00
2.751000000000000000e+03 1.125302219390869141e+01 5.452167510986328125e+00 3.956364393234252930e-01 3.346627235412597656e+00 1.122679114341735840e+00 -8.566311001777648926e-01
2.752000000000000000e+03 1.103762817382812500e+01 5.001705646514892578e+00 4.606487751007080078e-01 3.110408782958984375e+00 1.071317195892333984e+00 -9.402548670768737793e-01
2.753000000000000000e+03 1.862624931335449219e+01 -6.270256042480468750e+00 1.569256067276000977e+00 2.428565502166748047e+00 1.199346542358398438e+00 8.335146307945251465e-01
2.754000000000000000e+03 9.513008117675781250e+00 -5.455990314483642578e+00 1.621655821800231934e+00 3.959556102752685547e+00 1.674363613128662109e+00 4.486278533935546875e+00
2.755000000000000000e+03 9.717084884643554688e+00 -6.697070121765136719e+00 3.577714860439300537e-01 5.006833076477050781e+00 1.609381318092346191e+00 4.531586647033691406e+00
2.756000000000000000e+03 1.730735397338867188e+01 -5.873296737670898438e+00 1.791697263717651367e+00 3.925110340118408203e+00 1.715042233467102051e+00 1.234926819801330566e+00
2.757000000000000000e+03 1.030334758758544922e+01 6.124021530151367188e+00 4.805304110050201416e-01 2.524780988693237305e+00 9.015933871269226074e-01 -7.518823742866516113e-01
2.758000000000000000e+03 1.031561946868896484e+01 8.898517608642578125e+00 2.950185537338256836e-01 2.553639650344848633e+00 8.545974493026733398e-01 -5.244827270507812500e-01
2.759000000000000000e+03 1.268176078796386719e+01 -7.556692123413085938e+00 -9.707401394844055176e-01 6.645979404449462891e+00 1.702571749687194824e+00 4.629882812500000000e+00
2.760000000000000000e+03 2.232319068908691406e+01 -4.451027870178222656e+00 2.672358036041259766e+00 1.151851892471313477e+00 1.147262930870056152e+00 6.500171124935150146e-02
2.761000000000000000e+03 1.069669628143310547e+01 8.487239837646484375e+00 2.914100885391235352e-01 2.759693384170532227e+00 9.153310060501098633e-01 -5.509161353111267090e-01
2.762000000000000000e+03 1.102694797515869141e+01 1.356507301330566406e+01 1.080198064446449280e-01 2.642121791839599609e+00 8.250424265861511230e-01 -4.108944535255432129e-01
2.763000000000000000e+03 2.419309425354003906e+01 -3.800856351852416992e+00 2.558977365493774414e+00 1.234752655029296875e+00 1.138119101524353027e+00 -1.405712813138961792e-01
2.764000000000000000e+03 1.057759189605712891e+01 7.727095603942871094e+00 3.424511551856994629e-01 2.756970405578613281e+00 9.298264384269714355e-01 -6.134156584739685059e-01
2.765000000000000000e+03 3.419250488281250000e+01 -6.524491786956787109e+00 7.546076923608779907e-02 3.406401872634887695e+00 1.044558763504028320e+00 -1.974204182624816895e+00
2.766000000000000000e+03 3.516013717651367188e+01 -2.592132091522216797e+00 8.570781946182250977e-01 4.178389549255371094e+00 1.510640382766723633e+00 -1.636861324310302734e+00
2.767000000000000000e+03 2.787135314941406250e+01 -6.111073493957519531e+00 7.139126658439636230e-01 1.417259454727172852e+00 6.393516659736633301e-01 -1.193948984146118164e+00
2.768000000000000000e+03 2.652186203002929688e+01 -5.820790767669677734e+00 9.902694225311279297e-01 1.139271497726440430e+00 6.388622522354125977e-01 -1.002057671546936035e+00
2.769000000000000000e+03 3.044386291503906250e+01 5.841833114624023438e+00 2.411191463470458984e+00 4.055848598480224609e+00 1.940112113952636719e+00 1.600577086210250854e-01
2.770000000000000000e+03 3.475604629516601562e+01 -9.097755700349807739e-02 1.356767296791076660e+00 4.411167621612548828e+00 1.730380415916442871e+00 -1.258322954177856445e+00
2.771000000000000000e+03 1.015689945220947266e+01 1.293143081665039062e+01 1.303560137748718262e-01 2.417645931243896484e+00 7.644006013870239258e-01 -4.452015459537506104e-01
2.772000000000000000e+03 1.195073509216308594e+01 1.391129875183105469e+01 9.802246093750000000e-02 2.905333042144775391e+00 9.010066390037536621e-01 -3.764936327934265137e-01
2.773000000000000000e+03 1.177103233337402344e+01 1.595953559875488281e+01 5.515301972627639771e-02 2.740271329879760742e+00 8.386273384094238281e-01 -4.082136750221252441e-01
2.774000000000000000e+03 1.302511978149414062e+01 1.606914138793945312e+01 8.356662839651107788e-02 3.049566268920898438e+00 9.399398565292358398e-01 -3.432293832302093506e-01
2.775000000000000000e+03 2.785649871826171875e+01 -4.167165279388427734e+00 1.565912842750549316e+00 1.705505847930908203e+00 9.814255833625793457e-01 -9.176464676856994629e-01
2.776000000000000000e+03 3.113610458374023438e+01 8.476807594299316406e+00 2.292596578598022461e+00 4.568837165832519531e+00 2.058430194854736328e+00 1.139181628823280334e-01
2.777000000000000000e+03 3.603534698486328125e+01 -6.831788063049316406e+00 -1.271778196096420288e-01 4.055449008941650391e+00 1.178481340408325195e+00 -2.173628330230712891e+00
2.778000000000000000e+03 3.164361953735351562e+01 3.176120519638061523e+00 2.248468160629272461e+00 3.909330844879150391e+00 1.847339749336242676e+00 -2.776218950748443604e-01
2.779000000000000000e+03 3.293118667602539062e+01 4.166485786437988281e+00 2.174314022064208984e+00 4.440204620361328125e+00 1.984355568885803223e+00 -3.674753606319427490e-01
2.780000000000000000e+03 2.679870033264160156e+01 -5.018789768218994141e+00 1.346637010574340820e+00 1.348385572433471680e+00 8.085067868232727051e-01 -9.306063055992126465e-01
2.781000000000000000e+03 2.526213264465332031e+01 -3.564721822738647461e+00 2.314333200454711914e+00 1.294138193130493164e+00 1.082541346549987793e+00 -3.616701662540435791e-01
2.782000000000000000e+03 2.947574996948242188e+01 1.200270271301269531e+01 1.908792972564697266e+00 4.666923522949218750e+00 1.972715020179748535e+00 1.858301311731338501e-01
2.783000000000000000e+03 2.898699760437011719e+01 1.070197010040283203e+01 2.042336463928222656e+00 4.489625930786132812e+00 1.959588646888732910e+00 3.058360815048217773e-01
2.784000000000000000e+03 3.036964607238769531e+01 1.024706268310546875e+01 2.148321151733398438e+00 4.630835056304931641e+00 2.033746719360351562e+00 1.721179634332656860e-01
2.785000000000000000e+03 3.198228836059570312e+01 -7.130598545074462891e+00 -8.569198660552501678e-03 2.541194200515747070e+00 7.597874999046325684e-01 -1.753727197647094727e+00
2.786000000000000000e+03 2.968042945861816406e+01 -7.406682491302490234e+00 -3.496133163571357727e-02 1.817490220069885254e+00 5.347586870193481445e-01 -1.533177375793457031e+00
2.787000000000000000e+03 1.300899600982666016e+01 2.071725463867187500e+01 -7.217995356768369675e-03 2.871211290359497070e+00 8.591980338096618652e-01 -4.432329535484313965e-01
2.788000000000000000e+03 1.536504745483398438e+01 2.122258901596069336e+00 1.564841508865356445e+00 8.086178779602050781e+00 2.895306110382080078e+00 2.798841953277587891e+00
2.789000000000000000e+03 1.610383987426757812e+01 7.646003365516662598e-01 4.247088432312011719e+00 7.206548690795898438e+00 3.436091184616088867e+00 4.072573184967041016e+00
2.790000000000000000e+03 1.381007862091064453e+01 3.001979351043701172e+00 7.117488235235214233e-02 7.571074008941650391e+00 2.292674779891967773e+00 3.988853991031646729e-01
2.791000000000000000e+03 1.508777523040771484e+01 2.202383756637573242e+00 1.278343081474304199e+00 8.276553153991699219e+00 2.866468906402587891e+00 2.538631916046142578e+00
2.792000000000000000e+03 1.286882305145263672e+01 -6.104897022247314453e+00 2.070918828248977661e-01 7.540011405944824219e+00 2.324131011962890625e+00 4.633449554443359375e+00
2.793000000000000000e+03 1.484274005889892578e+01 2.559643983840942383e+00 7.546328902244567871e-01 8.127432823181152344e+00 2.664619922637939453e+00 1.917739510536193848e+00
2.794000000000000000e+03 1.171047973632812500e+01 -5.212592124938964844e+00 1.497328162193298340e+00 7.015973567962646484e+00 2.553990602493286133e+00 5.526715755462646484e+00
2.795000000000000000e+03 1.436236286163330078e+01 -7.613443851470947266e+00 -9.416685700416564941e-01 5.978255748748779297e+00 1.510976076126098633e+00 3.612024784088134766e+00
2.796000000000000000e+03 1.317483043670654297e+01 -5.807417392730712891e+00 4.671618640422821045e-01 7.918153285980224609e+00 2.515594482421875000e+00 4.318468570709228516e+00
2.797000000000000000e+03 1.451002597808837891e+01 -5.430990219116210938e+00 1.196001648902893066e+00 7.758314132690429688e+00 2.686294794082641602e+00 2.808871269226074219e+00
2.798000000000000000e+03 1.352208232879638672e+01 -4.927530765533447266e+00 1.441927433013916016e+00 8.995448112487792969e+00 3.131212472915649414e+00 3.887999773025512695e+00
2.799000000000000000e+03 1.474204730987548828e+01 -4.913896083831787109e+00 1.949928998947143555e+00 8.003186225891113281e+00 2.985934734344482422e+00 2.332971811294555664e+00
2.800000000000000000e+03 1.214437389373779297e+01 5.100428581237792969e+00 2.460794597864151001e-01 4.255473136901855469e+00 1.350465774536132812e+00 -7.350549101829528809e-01
2.801000000000000000e+03 1.105323219299316406e+01 6.147971630096435547e+00 3.850706815719604492e-01 3.105724096298217773e+00 1.047238469123840332e+00 -7.539471983909606934e-01
2.802000000000000000e+03 1.169985008239746094e+01 7.971486568450927734e+00 2.384829521179199219e-01 3.394461154937744141e+00 1.089883208274841309e+00 -5.028899908065795898e-01
2.803000000000000000e+03 1.688302612304687500e+01 -4.035789012908935547e+00 4.169692993164062500e+00 4.937586307525634766e+00 2.732183694839477539e+00 1.065314173698425293e+00
2.804000000000000000e+03 1.805515861511230469e+01 -5.989284038543701172e+00 1.802051901817321777e+00 3.074562788009643555e+00 1.462984442710876465e+00 1.002938270568847656e+00
2.805000000000000000e+03 1.151641464233398438e+01 4.717865467071533203e+00 3.758182823657989502e-01 3.701748847961425781e+00 1.223270177841186523e+00 -9.730100035667419434e-01
2.806000000000000000e+03 1.202610874176025391e+01 4.049855709075927734e+00 2.808324694633483887e-01 4.454330921173095703e+00 1.420549035072326660e+00 -1.001827597618103027e+00
2.807000000000000000e+03 1.490177345275878906e+01 -7.425889492034912109e+00 -6.120231747627258301e-01 5.618797302246093750e+00 1.502032160758972168e+00 3.179965257644653320e+00
2.808000000000000000e+03 1.306031417846679688e+01 -7.156417846679687500e+00 -7.128789424896240234e-01 6.871888160705566406e+00 1.847702860832214355e+00 4.452357292175292969e+00
2.809000000000000000e+03 1.043763256072998047e+01 -5.599103450775146484e+00 1.442404627799987793e+00 5.127988338470458984e+00 1.971117973327636719e+00 5.129909038543701172e+00
2.810000000000000000e+03 1.384055614471435547e+01 -7.688703536987304688e+00 -1.055997014045715332e+00 6.205045700073242188e+00 1.544714570045471191e+00 3.955701589584350586e+00
2.811000000000000000e+03 2.001814270019531250e+01 -5.027158737182617188e+00 2.724847555160522461e+00 1.746593475341796875e+00 1.341432332992553711e+00 4.821505844593048096e-01
2.812000000000000000e+03 1.916453361511230469e+01 -4.899586200714111328e+00 2.982332229614257812e+00 2.415936946868896484e+00 1.619480729103088379e+00 6.894043684005737305e-01
2.813000000000000000e+03 2.125113868713378906e+01 -4.321379184722900391e+00 2.988203763961791992e+00 1.388316512107849121e+00 1.312956094741821289e+00 3.372337520122528076e-01
2.814000000000000000e+03 2.043585205078125000e+01 -4.513400077819824219e+00 3.061339855194091797e+00 1.597823739051818848e+00 1.397749066352844238e+00 4.694763720035552979e-01
2.815000000000000000e+03 1.244372463226318359e+01 -6.767794132232666016e+00 -3.543720543384552002e-01 6.980649471282958984e+00 1.987883210182189941e+00 4.846260547637939453e+00
2.816000000000000000e+03 1.202160072326660156e+01 4.576431274414062500e+00 2.738753855228424072e-01 4.297708988189697266e+00 1.371475338935852051e+00 -8.883362412452697754e-01
2.817000000000000000e+03 1.029326915740966797e+01 8.060584068298339844e+00 3.377059400081634521e-01 2.529649496078491211e+00 8.602066040039062500e-01 -5.816586017608642578e-01
2.818000000000000000e+03 9.819820404052734375e+00 -5.797685146331787109e+00 1.268683195114135742e+00 4.581375122070312500e+00 1.755017518997192383e+00 4.746542930603027344e+00
2.819000000000000000e+03 1.009587287902832031e+01 7.560626029968261719e+00 3.934396803379058838e-01 2.420826673507690430e+00 8.442799448966979980e-01 -6.212893128395080566e-01
2.820000000000000000e+03 1.107089614868164062e+01 6.851639270782470703e+00 3.326289057731628418e-01 3.076526641845703125e+00 1.022746682167053223e+00 -6.617432832717895508e-01
2.821000000000000000e+03 1.168820571899414062e+01 9.385578155517578125e+00 2.042769491672515869e-01 3.203090429306030273e+00 1.022210240364074707e+00 -4.255641698837280273e-01
2.822000000000000000e+03 1.080677127838134766e+01 9.383837699890136719e+00 2.456533312797546387e-01 2.785857677459716797e+00 9.094532728195190430e-01 -4.815829694271087646e-01
2.823000000000000000e+03 1.183410835266113281e+01 -7.617945671081542969e+00 -9.227128624916076660e-01 6.535669326782226562e+00 1.683886885643005371e+00 4.841406345367431641e+00
2.824000000000000000e+03 1.095528030395507812e+01 -6.560868740081787109e+00 2.318452298641204834e-01 6.021548271179199219e+00 1.876017928123474121e+00 5.076983451843261719e+00
2.825000000000000000e+03 9.446238517761230469e+00 -6.160098075866699219e+00 9.172276258468627930e-01 4.450595855712890625e+00 1.610347151756286621e+00 4.455019950866699219e+00
2.826000000000000000e+03 1.202880859375000000e+01 1.178939342498779297e+01 1.512269824743270874e-01 3.080924034118652344e+00 9.696452617645263672e-01 -3.501934409141540527e-01
2.827000000000000000e+03 1.162237358093261719e+01 1.263910675048828125e+01 1.378395557403564453e-01 2.908354997634887695e+00 9.138584136962890625e-01 -3.797493577003479004e-01
2.828000000000000000e+03 1.832574462890625000e+01 -4.336531639099121094e+00 3.665612697601318359e+00 3.194112539291381836e+00 2.057917594909667969e+00 8.844591379165649414e-01
2.829000000000000000e+03 3.480200958251953125e+01 -4.196877002716064453e+00 5.617181658744812012e-01 3.858673572540283203e+00 1.326117515563964844e+00 -1.823596000671386719e+00
2.830000000000000000e+03 3.420639038085937500e+01 -3.176931858062744141e+00 8.597540259361267090e-01 3.808888435363769531e+00 1.400592803955078125e+00 -1.620506644248962402e+00
2.831000000000000000e+03 2.178542900085449219e+01 -4.568140983581542969e+00 2.693786382675170898e+00 1.224368929862976074e+00 1.175446629524230957e+00 1.544100195169448853e-01
2.832000000000000000e+03 2.921952247619628906e+01 -6.518894672393798828e+00 4.548428058624267578e-01 1.787431716918945312e+00 6.726823449134826660e-01 -1.388009428977966309e+00
2.833000000000000000e+03 2.470639419555664062e+01 -4.248294353485107422e+00 2.139233589172363281e+00 1.089444518089294434e+00 9.686034321784973145e-01 -4.294517040252685547e-01
2.834000000000000000e+03 2.296903800964355469e+01 -3.301650047302246094e+00 3.052018880844116211e+00 1.311329126358032227e+00 1.309004426002502441e+00 2.252225577831268311e-01
2.835000000000000000e+03 2.154132843017578125e+01 -3.828000545501708984e+00 3.252670049667358398e+00 1.458835721015930176e+00 1.413451671600341797e+00 4.004230797290802002e-01
2.836000000000000000e+03 2.607175445556640625e+01 -3.897545576095581055e+00 2.013527631759643555e+00 1.347747683525085449e+00 1.008382558822631836e+00 -5.830631256103515625e-01
2.837000000000000000e+03 3.053188705444335938e+01 -2.414873987436294556e-01 2.044312238693237305e+00 3.057992935180664062e+00 1.530691504478454590e+00 -6.326335072517395020e-01
2.838000000000000000e+03 3.401497268676757812e+01 4.533276259899139404e-01 1.568054556846618652e+00 4.195648193359375000e+00 1.729110836982727051e+00 -1.064017653465270996e+00
2.839000000000000000e+03 3.466698074340820312e+01 1.330686330795288086e+00 1.620576500892639160e+00 4.528976917266845703e+00 1.844866037368774414e+00 -1.003294825553894043e+00
2.840000000000000000e+03 1.208060359954833984e+01 9.848927497863769531e+00 1.838772892951965332e-01 3.337548971176147461e+00 1.056427955627441406e+00 -3.649457395076751709e-01
2.841000000000000000e+03 3.212485122680664062e+01 5.486979484558105469e+00 2.330012321472167969e+00 4.382774829864501953e+00 2.013836145401000977e+00 -1.210295110940933228e-01
2.842000000000000000e+03 3.188471412658691406e+01 4.318083286285400391e+00 2.268749952316284180e+00 4.144815921783447266e+00 1.924069762229919434e+00 -2.166885882616043091e-01
2.843000000000000000e+03 3.257863616943359375e+01 -2.828850269317626953e+00 1.153591632843017578e+00 3.305371522903442383e+00 1.337688922882080078e+00 -1.376665830612182617e+00
2.844000000000000000e+03 3.394881057739257812e+01 -5.411344766616821289e-01 1.407378435134887695e+00 4.049496173858642578e+00 1.637062430381774902e+00 -1.174075245857238770e+00
2.845000000000000000e+03 3.350387954711914062e+01 -5.315563678741455078e+00 4.446644186973571777e-01 3.309537887573242188e+00 1.126260757446289062e+00 -1.789474129676818848e+00
2.846000000000000000e+03 3.040878295898437500e+01 7.332215785980224609e+00 2.372903585433959961e+00 4.293011188507080078e+00 1.999774456024169922e+00 1.929832249879837036e-01
2.847000000000000000e+03 2.983804893493652344e+01 9.030163764953613281e+00 2.251660585403442383e+00 4.413629531860351562e+00 1.999587059020996094e+00 2.771830856800079346e-01
2.848000000000000000e+03 3.269456100463867188e+01 2.955204010009765625e+00 2.064447164535522461e+00 4.165289878845214844e+00 1.868921160697937012e+00 -5.063781738281250000e-01
2.849000000000000000e+03 3.367474746704101562e+01 2.866693496704101562e+00 1.945603728294372559e+00 4.469096183776855469e+00 1.924409985542297363e+00 -6.518836021423339844e-01
2.850000000000000000e+03 2.842584228515625000e+01 1.387862396240234375e+01 1.604835033416748047e+00 4.696555137634277344e+00 1.890417098999023438e+00 1.395451575517654419e-01
2.851000000000000000e+03 2.854933929443359375e+01 9.454014778137207031e+00 2.153070926666259766e+00 4.285497665405273438e+00 1.931570529937744141e+00 4.193709492683410645e-01
2.852000000000000000e+03 3.117773056030273438e+01 5.553177356719970703e+00 2.360554695129394531e+00 4.194314956665039062e+00 1.966460943222045898e+00 -3.967262338846921921e-03
2.853000000000000000e+03 1.428613090515136719e+01 1.790619659423828125e+01 8.643832057714462280e-02 3.207911252975463867e+00 9.883049130439758301e-01 -3.308796882629394531e-01
2.854000000000000000e+03 1.367630195617675781e+01 1.935258483886718750e+01 2.963633649051189423e-02 3.032129526138305664e+00 9.185297489166259766e-01 -4.064416885375976562e-01
2.855000000000000000e+03 3.005274963378906250e+01 -6.051405906677246094e+00 5.340363979339599609e-01 2.072382211685180664e+00 7.819255590438842773e-01 -1.456231713294982910e+00
2.856000000000000000e+03 3.082935714721679688e+01 1.860923004150390625e+01 1.058886647224426270e+00 5.261772155761718750e+00 1.896197676658630371e+00 -2.133669108152389526e-01
2.857000000000000000e+03 2.868095588684082031e+01 1.550078392028808594e+01 1.400240898132324219e+00 4.813071250915527344e+00 1.863993644714355469e+00 1.426071394234895706e-03
2.858000000000000000e+03 1.694870567321777344e+01 7.051050662994384766e-01 4.540599346160888672e+00 5.921980381011962891e+00 3.138773918151855469e+00 3.749695301055908203e+00
2.859000000000000000e+03 1.662705802917480469e+01 -3.115880727767944336e+00 5.521848678588867188e+00 5.209637165069580078e+00 3.219445943832397461e+00 1.264061450958251953e+00
2.860000000000000000e+03 2.077681922912597656e+01 -4.003576278686523438e+00 3.354922294616699219e+00 1.631354689598083496e+00 1.495883107185363770e+00 5.155185461044311523e-01
2.861000000000000000e+03 1.664613533020019531e+01 -1.111503005027770996e+00 6.763586997985839844e+00 5.335195064544677734e+00 3.629634618759155273e+00 2.965054035186767578e+00
2.862000000000000000e+03 1.570507526397705078e+01 -4.974274635314941406e+00 2.423405885696411133e+00 6.468527793884277344e+00 2.667580127716064453e+00 1.622710585594177246e+00
2.863000000000000000e+03 1.505665397644042969e+01 -4.789184570312500000e+00 2.427163362503051758e+00 7.663594722747802734e+00 3.027227401733398438e+00 1.881933093070983887e+00
2.864000000000000000e+03 1.607287025451660156e+01 -5.728272914886474609e+00 1.562141776084899902e+00 5.594198226928710938e+00 2.146902084350585938e+00 1.766393780708312988e+00
2.865000000000000000e+03 1.253996467590332031e+01 4.115073680877685547e+00 1.556929200887680054e-01 5.148825645446777344e+00 1.591355562210083008e+00 -7.413066029548645020e-01
2.866000000000000000e+03 1.618436241149902344e+01 1.137956142425537109e+00 3.665627956390380859e+00 7.199167251586914062e+00 3.259438514709472656e+00 3.903700828552246094e+00
2.867000000000000000e+03 1.486911869049072266e+01 2.942970752716064453e+00 6.565570831298828125e-01 7.717815876007080078e+00 2.512311935424804688e+00 1.705975413322448730e+00
2.868000000000000000e+03 1.704010581970214844e+01 -5.561518073081970215e-01 6.063732624053955078e+00 5.080688953399658203e+00 3.343326568603515625e+00 3.287127971649169922e+00
2.869000000000000000e+03 1.667797279357910156e+01 -7.920374870300292969e-01 6.580840587615966797e+00 5.461855888366699219e+00 3.612808942794799805e+00 3.302119731903076172e+00
2.870000000000000000e+03 1.698897933959960938e+01 -2.977304458618164062e-01 5.850636482238769531e+00 5.345763683319091797e+00 3.358920097351074219e+00 3.503762960433959961e+00
2.871000000000000000e+03 1.081207370758056641e+01 -5.863409042358398438e+00 1.003961563110351562e+00 5.766976356506347656e+00 2.031281471252441406e+00 5.257763862609863281e+00
2.872000000000000000e+03 1.322809600830078125e+01 3.321514368057250977e+00 1.006998773664236069e-02 6.565917491912841797e+00 1.972796201705932617e+00 -3.363198637962341309e-01
2.873000000000000000e+03 1.282002830505371094e+01 -6.746508598327636719e+00 -3.571996390819549561e-01 7.059694290161132812e+00 2.010748386383056641e+00 4.595560550689697266e+00
2.874000000000000000e+03 1.457210922241210938e+01 3.400424480438232422e+00 3.522754013538360596e-01 7.277834415435791016e+00 2.289032936096191406e+00 1.126525044441223145e+00
2.875000000000000000e+03 1.373015880584716797e+01 -7.257559299468994141e+00 -7.095007300376892090e-01 6.578441143035888672e+00 1.760682106018066406e+00 3.980735540390014648e+00
2.876000000000000000e+03 1.382426452636718750e+01 3.405187845230102539e+00 7.001537084579467773e-02 7.072657585144042969e+00 2.142801761627197266e+00 3.160613179206848145e-01
2.877000000000000000e+03 1.094720363616943359e+01 -7.169759750366210938e+00 -3.643678724765777588e-01 6.167279720306396484e+00 1.740873575210571289e+00 4.894125461578369141e+00
2.878000000000000000e+03 1.020211505889892578e+01 -6.062614440917968750e+00 9.553871750831604004e-01 5.055708408355712891e+00 1.803328633308410645e+00 4.909415245056152344e+00
2.879000000000000000e+03 1.514845371246337891e+01 -6.683153629302978516e+00 1.422855406999588013e-01 5.980844497680664062e+00 1.836938977241516113e+00 2.789504051208496094e+00
2.880000000000000000e+03 1.772374534606933594e+01 -5.646674156188964844e+00 2.120620012283325195e+00 3.530712842941284180e+00 1.695399880409240723e+00 1.072549343109130859e+00
2.881000000000000000e+03 1.877424049377441406e+01 -5.652008056640625000e+00 2.200176715850830078e+00 2.443719863891601562e+00 1.393168926239013672e+00 7.595195770263671875e-01
2.882000000000000000e+03 1.701086616516113281e+01 -5.401826381683349609e+00 2.290433645248413086e+00 4.506325721740722656e+00 2.039027690887451172e+00 1.260050773620605469e+00
2.883000000000000000e+03 1.617309951782226562e+01 -5.298595905303955078e+00 2.194626331329345703e+00 5.679398536682128906e+00 2.362207412719726562e+00 1.529099225997924805e+00
2.884000000000000000e+03 1.655457687377929688e+01 -5.627283573150634766e+00 1.881657242774963379e+00 4.918137550354003906e+00 2.039938449859619141e+00 1.458732962608337402e+00
2.885000000000000000e+03 1.167316436767578125e+01 6.661844730377197266e+00 2.747143507003784180e-01 3.540925025939941406e+00 1.144691824913024902e+00 -6.185368895530700684e-01
2.886000000000000000e+03 1.219117259979248047e+01 9.061007499694824219e+00 1.935148686170578003e-01 3.454281806945800781e+00 1.094339013099670410e+00 -3.752645254135131836e-01
2.887000000000000000e+03 1.494801425933837891e+01 -6.208682060241699219e+00 5.029209852218627930e-01 6.544927120208740234e+00 2.114354372024536133e+00 2.761522531509399414e+00
2.888000000000000000e+03 1.680799674987792969e+01 -4.983315467834472656e+00 2.733124017715454102e+00 4.878799438476562500e+00 2.283576965332031250e+00 1.204836964607238770e+00
2.889000000000000000e+03 1.065711212158203125e+01 6.521398067474365234e+00 4.102213382720947266e-01 2.774132728576660156e+00 9.553062319755554199e-01 -7.155335545539855957e-01
2.890000000000000000e+03 1.129188919067382812e+01 7.599810600280761719e+00 2.866724729537963867e-01 3.205640792846679688e+00 1.047693967819213867e+00 -5.656722784042358398e-01
2.891000000000000000e+03 1.080253314971923828e+01 7.290014266967773438e+00 3.530884683132171631e-01 2.899156332015991211e+00 9.756734371185302734e-01 -6.341399550437927246e-01
2.892000000000000000e+03 1.133569049835205078e+01 6.482227802276611328e+00 3.242288827896118164e-01 3.305482149124145508e+00 1.088913321495056152e+00 -6.794286370277404785e-01
2.893000000000000000e+03 1.170174789428710938e+01 5.233973503112792969e+00 3.146880865097045898e-01 3.822279453277587891e+00 1.241090178489685059e+00 -8.232952356338500977e-01
2.894000000000000000e+03 1.346315765380859375e+01 -6.869184494018554688e+00 -4.151786267757415771e-01 6.910800457000732422e+00 1.948686480522155762e+00 4.150882720947265625e+00
2.895000000000000000e+03 1.100436973571777344e+01 8.059006690979003906e+00 2.888996601104736328e-01 2.956321954727172852e+00 9.735665321350097656e-01 -5.523384213447570801e-01
2.896000000000000000e+03 1.148735332489013672e+01 -7.088094711303710938e+00 -4.714369475841522217e-01 6.527853488922119141e+00 1.816924929618835449e+00 4.982427120208740234e+00
2.897000000000000000e+03 2.272595405578613281e+01 -3.937497138977050781e+00 2.827352762222290039e+00 1.165932297706604004e+00 1.197985529899597168e+00 9.876842796802520752e-02
2.898000000000000000e+03 1.233139610290527344e+01 8.200749397277832031e+00 2.054694145917892456e-01 3.643066406250000000e+00 1.154560685157775879e+00 -3.651455640792846680e-01
2.899000000000000000e+03 1.150968074798583984e+01 1.077840042114257812e+01 1.850531697273254395e-01 2.986887454986572266e+00 9.515821933746337891e-01 -4.017842113971710205e-01
2.900000000000000000e+03 2.697156333923339844e+01 -4.043677806854248047e+00 1.750015377998352051e+00 1.518833398818969727e+00 9.806545972824096680e-01 -7.632132172584533691e-01
2.901000000000000000e+03 2.357814598083496094e+01 -3.525596618652343750e+00 2.807303428649902344e+00 1.241566181182861328e+00 1.214660882949829102e+00 1.910348609089851379e-02
2.902000000000000000e+03 2.196714591979980469e+01 -4.099450588226318359e+00 2.980483293533325195e+00 1.325281500816345215e+00 1.291729450225830078e+00 2.171253710985183716e-01
2.903000000000000000e+03 3.233292388916015625e+01 1.827701926231384277e+00 2.006408929824829102e+00 3.908975601196289062e+00 1.774615406990051270e+00 -6.022232770919799805e-01
2.904000000000000000e+03 3.392119979858398438e+01 1.959321618080139160e+00 1.781804919242858887e+00 4.425440311431884766e+00 1.862173557281494141e+00 -8.008593320846557617e-01
2.905000000000000000e+03 1.398366832733154297e+01 1.087084960937500000e+01 1.818716526031494141e-01 3.786952257156372070e+00 1.190647125244140625e+00 -9.350641071796417236e-02
2.906000000000000000e+03 1.238925933837890625e+01 1.317958545684814453e+01 1.281694769859313965e-01 3.076355457305908203e+00 9.613574743270874023e-01 -3.254999518394470215e-01
2.907000000000000000e+03 2.882956695556640625e+01 -5.598863124847412109e+00 8.065428137779235840e-01 1.770275354385375977e+00 7.730454802513122559e-01 -1.270496845245361328e+00
2.908000000000000000e+03 2.767997741699218750e+01 -5.077459335327148438e+00 1.177715420722961426e+00 1.473789453506469727e+00 7.954514622688293457e-01 -1.054200768470764160e+00
2.909000000000000000e+03 3.267793655395507812e+01 -4.821513652801513672e+00 6.462838649749755859e-01 3.079507827758789062e+00 1.117737531661987305e+00 -1.649156570434570312e+00
2.910000000000000000e+03 3.238567733764648438e+01 -5.971075057983398438e+00 3.768854439258575439e-01 2.828406572341918945e+00 9.615876078605651855e-01 -1.736760020256042480e+00
2.911000000000000000e+03 2.808165931701660156e+01 -3.204199790954589844e+00 1.823165893554687500e+00 1.875388264656066895e+00 1.109566211700439453e+00 -7.879477143287658691e-01
2.912000000000000000e+03 3.146143913269042969e+01 2.097079753875732422e+00 2.182062149047851562e+00 3.675642967224121094e+00 1.757311463356018066e+00 -3.875681459903717041e-01
2.913000000000000000e+03 1.362819385528564453e+01 1.363632583618164062e+01 1.592904627323150635e-01 3.334350824356079102e+00 1.048092365264892578e+00 -2.271698713302612305e-01
2.914000000000000000e+03 1.672148704528808594e+01 1.558707714080810547e+01 2.697595953941345215e-01 3.760210514068603516e+00 1.208991050720214844e+00 -6.972341239452362061e-02
2.915000000000000000e+03 2.879898452758789062e+01 6.746639251708984375e+00 2.427885293960571289e+00 3.941024303436279297e+00 1.910672903060913086e+00 4.454288184642791748e-01
2.916000000000000000e+03 1.504305076599121094e+01 2.001059532165527344e+01 5.360605195164680481e-02 3.263177394866943359e+00 9.950349926948547363e-01 -3.699004054069519043e-01
2.917000000000000000e+03 1.408286380767822266e+01 1.242373943328857422e+01 1.767736375331878662e-01 3.585442304611206055e+00 1.128664731979370117e+00 -1.395654231309890747e-01
2.918000000000000000e+03 1.276302814483642578e+01 1.392766284942626953e+01 1.221180111169815063e-01 3.139674663543701172e+00 9.785377979278564453e-01 -3.194521367549896240e-01
2.919000000000000000e+03 2.799385261535644531e+01 1.240767478942871094e+01 1.763509035110473633e+00 4.537873744964599609e+00 1.890414834022521973e+00 2.813752591609954834e-01
2.920000000000000000e+03 3.082497215270996094e+01 4.500328540802001953e+00 2.395646810531616211e+00 3.930968999862670898e+00 1.897984743118286133e+00 9.934192523360252380e-03
2.921000000000000000e+03 2.674280738830566406e+01 1.407749557495117188e+01 1.422917366027832031e+00 4.526474952697753906e+00 1.784817695617675781e+00 2.194842547178268433e-01
2.922000000000000000e+03 1.661455345153808594e+01 -3.725676774978637695e+00 4.617827415466308594e+00 5.352821826934814453e+00 2.991194725036621094e+00 1.105999469757080078e+00
2.923000000000000000e+03 1.691845703125000000e+01 -1.845268249511718750e+00 6.588421821594238281e+00 4.856677532196044922e+00 3.433529853820800781e+00 2.160386085510253906e+00
2.924000000000000000e+03 1.740608787536621094e+01 -8.175377249717712402e-01 5.960087299346923828e+00 4.603475093841552734e+00 3.169068813323974609e+00 2.916788339614868164e+00
2.925000000000000000e+03 1.703016281127929688e+01 -1.141422867774963379e+00 6.415978908538818359e+00 4.891815662384033203e+00 3.392338275909423828e+00 2.835315704345703125e+00
2.926000000000000000e+03 1.515244293212890625e+01 2.542009353637695312e+00 1.055444359779357910e+00 7.981367111206054688e+00 2.711043357849121094e+00 2.299631357192993164e+00
2.927000000000000000e+03 1.214246654510498047e+01 -5.458070278167724609e+00 1.059954762458801270e+00 7.455090999603271484e+00 2.554513692855834961e+00 5.281867504119873047e+00
2.928000000000000000e+03 1.696840858459472656e+01 -2.923719167709350586e+00 5.601961612701416016e+00 4.785569667816162109e+00 3.116259336471557617e+00 1.375971555709838867e+00
2.929000000000000000e+03 1.461481857299804688e+01 -6.867120742797851562e+00 -2.077510356903076172e-01 6.335817337036132812e+00 1.838419914245605469e+00 3.236280441284179688e+00
2.930000000000000000e+03 1.692275810241699219e+01 3.512144982814788818e-01 5.030051231384277344e+00 5.801279544830322266e+00 3.249399185180664062e+00 3.743386983871459961e+00
2.931000000000000000e+03 1.337833690643310547e+01 3.556443929672241211e+00 3.319271281361579895e-02 6.531355381011962891e+00 1.969364404678344727e+00 -2.041001319885253906e-01
2.932000000000000000e+03 1.451887798309326172e+01 -6.067121982574462891e+00 4.985587000846862793e-01 7.059489727020263672e+00 2.267414569854736328e+00 3.077532052993774414e+00
2.933000000000000000e+03 1.388489151000976562e+01 4.024833202362060547e+00 9.997823089361190796e-02 6.457519531250000000e+00 1.967249393463134766e+00 2.671198844909667969e-01
2.934000000000000000e+03 1.175327968597412109e+01 -6.425874233245849609e+00 9.557572752237319946e-02 6.703919887542724609e+00 2.039848804473876953e+00 5.121984004974365234e+00
2.935000000000000000e+03 1.535568618774414062e+01 -5.192943572998046875e+00 1.969087004661560059e+00 6.834305763244628906e+00 2.641017913818359375e+00 1.932089805603027344e+00
2.936000000000000000e+03 1.637490272521972656e+01 -4.971340179443359375e+00 2.641059637069702148e+00 5.487035751342773438e+00 2.438428640365600586e+00 1.349379062652587891e+00
2.937000000000000000e+03 1.700016021728515625e+01 -1.480623483657836914e+00 6.550124168395996094e+00 4.848742008209228516e+00 3.419659852981567383e+00 2.557396888732910156e+00
2.938000000000000000e+03 1.863875770568847656e+01 -5.077583312988281250e+00 2.850719451904296875e+00 2.694578409194946289e+00 1.663589358329772949e+00 7.933087348937988281e-01
2.939000000000000000e+03 1.924735450744628906e+01 -4.171332359313964844e+00 3.668080568313598633e+00 2.484483957290649414e+00 1.845769405364990234e+00 7.889660000801086426e-01
2.940000000000000000e+03 1.493360328674316406e+01 -5.312430381774902344e+00 1.507244706153869629e+00 7.443668842315673828e+00 2.685274124145507812e+00 2.354918003082275391e+00
2.941000000000000000e+03 2.237043952941894531e+01 -3.190069198608398438e+00 3.308211803436279297e+00 1.433117985725402832e+00 1.422398924827575684e+00 4.277262985706329346e-01
2.942000000000000000e+03 1.187784290313720703e+01 5.709389209747314453e+00 2.806864380836486816e-01 3.872745275497436523e+00 1.246029496192932129e+00 -7.119394540786743164e-01
2.943000000000000000e+03 1.244021797180175781e+01 9.573048591613769531e+00 1.849006265401840210e-01 3.489048004150390625e+00 1.102184534072875977e+00 -3.300532698631286621e-01
2.944000000000000000e+03 1.385436725616455078e+01 -6.618786334991455078e+00 -1.877368986606597900e-01 7.011444091796875000e+00 2.047112226486206055e+00 3.799237489700317383e+00
2.945000000000000000e+03 1.415221977233886719e+01 -7.082664966583251953e+00 -4.921577274799346924e-01 6.510800361633300781e+00 1.805592775344848633e+00 3.670091152191162109e+00
2.946000000000000000e+03 1.223500347137451172e+01 -7.196231842041015625e+00 -6.721159815788269043e-01 6.809954166412353516e+00 1.841351389884948730e+00 4.825643062591552734e+00
2.947000000000000000e+03 1.207034111022949219e+01 7.729256629943847656e+00 2.259120196104049683e-01 3.574154138565063477e+00 1.140019893646240234e+00 -4.568971991539001465e-01
2.948000000000000000e+03 1.153242969512939453e+01 7.114384174346923828e+00 2.797389328479766846e-01 3.401951789855957031e+00 1.104507207870483398e+00 -5.942265391349792480e-01
2.949000000000000000e+03 1.555114078521728516e+01 -5.672520160675048828e+00 1.442205786705017090e+00 6.232547283172607422e+00 2.302425861358642578e+00 2.024462699890136719e+00
2.950000000000000000e+03 1.146327209472656250e+01 8.407050132751464844e+00 2.476661950349807739e-01 3.190759658813476562e+00 1.031527757644653320e+00 -4.942737519741058350e-01
2.951000000000000000e+03 1.961142730712890625e+01 -4.561336994171142578e+00 3.202943325042724609e+00 2.081511735916137695e+00 1.585336565971374512e+00 6.437265872955322266e-01
2.952000000000000000e+03 1.243493461608886719e+01 1.017489624023437500e+01 1.752909719944000244e-01 3.414550065994262695e+00 1.076952338218688965e+00 -3.154075145721435547e-01
2.953000000000000000e+03 1.129728317260742188e+01 9.847693443298339844e+00 2.097668051719665527e-01 2.970324277877807617e+00 9.540272951126098633e-01 -4.394782781600952148e-01
2.954000000000000000e+03 2.562038230895996094e+01 -2.706419944763183594e+00 2.548810482025146484e+00 1.523739933967590332e+00 1.221765160560607910e+00 -2.070419490337371826e-01
2.955000000000000000e+03 2.237702560424804688e+01 -2.595870971679687500e+00 3.516422986984252930e+00 1.565638065338134766e+00 1.524618268013000488e+00 6.054099798202514648e-01
2.956000000000000000e+03 2.636324882507324219e+01 -2.959938526153564453e+00 2.281527757644653320e+00 1.602290630340576172e+00 1.165145516395568848e+00 -4.247381985187530518e-01
2.957000000000000000e+03 3.139614868164062500e+01 -6.728731393814086914e-01 1.815885543823242188e+00 3.219531536102294922e+00 1.510625123977661133e+00 -8.473691940307617188e-01
2.958000000000000000e+03 1.340824317932128906e+01 1.066626739501953125e+01 1.807745248079299927e-01 3.618559837341308594e+00 1.139800310134887695e+00 -1.749344915151596069e-01
2.959000000000000000e+03 3.157299041748046875e+01 -5.634129047393798828e+00 4.905701577663421631e-01 2.573103666305541992e+00 9.191021323204040527e-01 -1.629107594490051270e+00
2.960000000000000000e+03 2.971363258361816406e+01 -5.110551834106445312e+00 8.988505005836486816e-01 2.087932348251342773e+00 8.960348963737487793e-01 -1.314349889755249023e+00
2.961000000000000000e+03 3.297564697265625000e+01 -9.924958944320678711e-01 1.487778902053833008e+00 3.676180839538574219e+00 1.549187898635864258e+00 -1.149552106857299805e+00
2.962000000000000000e+03 3.315417861938476562e+01 1.088254332542419434e+00 1.793803572654724121e+00 4.051930427551269531e+00 1.753720164299011230e+00 -8.238267898559570312e-01
2.963000000000000000e+03 2.491909599304199219e+01 -2.361948966979980469e+00 2.822663545608520508e+00 1.517447710037231445e+00 1.302033424377441406e+00 3.300942480564117432e-02
2.964000000000000000e+03 2.456237411499023438e+01 -3.115559101104736328e+00 2.706832170486450195e+00 1.341557145118713379e+00 1.214516758918762207e+00 -6.901676952838897705e-02
2.965000000000000000e+03 3.225522994995117188e+01 1.250320374965667725e-01 1.791214346885681152e+00 3.594845533370971680e+00 1.615817904472351074e+00 -8.394654989242553711e-01
2.966000000000000000e+03 1.646483039855957031e+01 2.068579673767089844e+01 7.891545444726943970e-02 3.489899396896362305e+00 1.070644497871398926e+00 -3.521400392055511475e-01
2.967000000000000000e+03 2.971304512023925781e+01 6.338261127471923828e+00 2.422574758529663086e+00 3.963003396987915039e+00 1.915673375129699707e+00 2.921577394008636475e-01
2.968000000000000000e+03 2.814197921752929688e+01 8.255990982055664062e+00 2.275974035263061523e+00 4.098714828491210938e+00 1.912406682968139648e+00 5.225358605384826660e-01
2.969000000000000000e+03 1.320915126800537109e+01 1.272371101379394531e+01 1.498151868581771851e-01 3.336410284042358398e+00 1.045867681503295898e+00 -2.444927394390106201e-01
2.970000000000000000e+03 1.288116645812988281e+01 1.103230953216552734e+01 1.583686918020248413e-01 3.436009883880615234e+00 1.078313589096069336e+00 -2.590457797050476074e-01
2.971000000000000000e+03 1.626280403137207031e+01 1.706015586853027344e+01 1.928424835205078125e-01 3.577576637268066406e+00 1.131125688552856445e+00 -1.970973610877990723e-01
2.972000000000000000e+03 2.761392593383789062e+01 1.105066013336181641e+01 1.907683968544006348e+00 4.370608806610107422e+00 1.883487939834594727e+00 4.216175079345703125e-01
2.973000000000000000e+03 1.455186080932617188e+01 1.323252010345458984e+01 1.868123561143875122e-01 3.600671291351318359e+00 1.136245131492614746e+00 -1.257390379905700684e-01
2.974000000000000000e+03 1.511374473571777344e+01 1.422110652923583984e+01 2.056926637887954712e-01 3.615816831588745117e+00 1.146452784538269043e+00 -1.122311353683471680e-01
2.975000000000000000e+03 2.930303192138671875e+01 7.867445945739746094e+00 2.326490163803100586e+00 4.174119472503662109e+00 1.950182914733886719e+00 3.655590415000915527e-01
2.976000000000000000e+03 2.928191757202148438e+01 5.379950046539306641e+00 2.498849630355834961e+00 3.769633769989013672e+00 1.880545020103454590e+00 3.421258330345153809e-01
2.977000000000000000e+03 2.848091506958007812e+01 -4.674925327301025391e+00 1.235979676246643066e+00 1.779069781303405762e+00 9.045147895812988281e-01 -1.110663175582885742e+00
2.978000000000000000e+03 3.167220497131347656e+01 -4.562821865081787109e+00 8.511098027229309082e-01 2.782737255096435547e+00 1.090154170989990234e+00 -1.504799246788024902e+00
2.979000000000000000e+03 1.819039344787597656e+01 1.602765846252441406e+01 3.758634030818939209e-01 3.918435811996459961e+00 1.288289785385131836e+00 -4.711594898253679276e-03
2.980000000000000000e+03 1.497205066680908203e+01 1.660796737670898438e+01 1.429515480995178223e-01 3.407622337341308594e+00 1.065172195434570312e+00 -2.516339421272277832e-01
2.981000000000000000e+03 3.328563308715820312e+01 -3.850333929061889648e+00 8.290033340454101562e-01 3.383611917495727539e+00 1.263784527778625488e+00 -1.608563423156738281e+00
2.982000000000000000e+03 1.306163311004638672e+01 5.009927272796630859e+00 1.226137802004814148e-01 5.170097351074218750e+00 1.587813377380371094e+00 -3.601587116718292236e-01
2.983000000000000000e+03 1.735730171203613281e+01 3.011562302708625793e-02 5.292543888092041016e+00 5.083529472351074219e+00 3.112822055816650391e+00 3.408732891082763672e+00
2.984000000000000000e+03 1.253812313079833984e+01 4.571655273437500000e+00 1.753264516592025757e-01 4.915117740631103516e+00 1.527133345603942871e+00 -6.674997806549072266e-01
2.985000000000000000e+03 1.369238948822021484e+01 3.724865436553955078e+00 1.008491963148117065e-01 6.588248729705810547e+00 2.006729364395141602e+00 1.420827060937881470e-01
2.986000000000000000e+03 1.466712474822998047e+01 3.851704835891723633e+00 3.445942699909210205e-01 6.886949539184570312e+00 2.169463157653808594e+00 1.037489891052246094e+00
2.987000000000000000e+03 1.657359504699707031e+01 -4.691197395324707031e+00 3.093607187271118164e+00 5.322569370269775391e+00 2.524852991104125977e+00 1.207625031471252441e+00
2.988000000000000000e+03 1.317755985260009766e+01 -6.477052211761474609e+00 -1.548149436712265015e-01 7.293570995330810547e+00 2.141626834869384766e+00 4.334152698516845703e+00
2.989000000000000000e+03 1.146043014526367188e+01 -5.709131240844726562e+00 9.544154405593872070e-01 6.529356956481933594e+00 2.245131731033325195e+00 5.381359100341796875e+00
2.990000000000000000e+03 1.424026393890380859e+01 -6.362177371978759766e+00 1.418849527835845947e-01 7.032517433166503906e+00 2.152320623397827148e+00 3.416333436965942383e+00
2.991000000000000000e+03 1.241804409027099609e+01 7.632649421691894531e+00 2.039151787757873535e-01 3.822160243988037109e+00 1.207822561264038086e+00 -3.843532204627990723e-01
2.992000000000000000e+03 1.998166084289550781e+01 -4.132072448730468750e+00 3.488895416259765625e+00 1.963608622550964355e+00 1.635751247406005859e+00 6.817380189895629883e-01
2.993000000000000000e+03 1.205628108978271484e+01 6.193315505981445312e+00 2.398511767387390137e-01 3.902499675750732422e+00 1.242705225944519043e+00 -6.029948592185974121e-01
2.994000000000000000e+03 2.110731887817382812e+01 -3.515070199966430664e+00 3.537015438079833984e+00 1.602858066558837891e+00 1.541962027549743652e+00 6.000250577926635742e-01
2.995000000000000000e+03 2.030935859680175781e+01 -3.662473201751708984e+00 3.711651086807250977e+00 1.861858725547790527e+00 1.672052979469299316e+00 7.410197257995605469e-01
2.996000000000000000e+03 1.538524913787841797e+01 -6.040984630584716797e+00 8.853802680969238281e-01 6.152927875518798828e+00 2.111492395401000977e+00 2.331827402114868164e+00
2.997000000000000000e+03 1.477725887298583984e+01 -5.837142944335937500e+00 8.948639035224914551e-01 7.115447998046875000e+00 2.403093576431274414e+00 2.728159189224243164e+00
2.998000000000000000e+03 1.136972332000732422e+01 -6.521721363067626953e+00 1.450306177139282227e-01 6.425350189208984375e+00 1.971114277839660645e+00 5.101629734039306641e+00
2.999000000000000000e+03 2.225559234619140625e+01 -3.679930448532104492e+00 3.070609569549560547e+00 1.344506144523620605e+00 1.324534773826599121e+00 2.909928858280181885e-01
3.000000000000000000e+03 1.808063125610351562e+01 -4.634893417358398438e+00 3.309186935424804688e+00 3.354323863983154297e+00 1.999053239822387695e+00 9.153298139572143555e-01
3.001000000000000000e+03 1.164913845062255859e+01 6.277426719665527344e+00 2.951413094997406006e-01 3.571756839752197266e+00 1.160069465637207031e+00 -6.683849096298217773e-01
3.002000000000000000e+03 1.766354179382324219e+01 -4.330988883972167969e+00 3.672071933746337891e+00 3.858995914459228516e+00 2.259320497512817383e+00 9.996128082275390625e-01
3.003000000000000000e+03 1.259855556488037109e+01 -6.405091762542724609e+00 -1.744079217314720154e-02 7.317124843597412109e+00 2.189905166625976562e+00 4.767388343811035156e+00
3.004000000000000000e+03 1.188052940368652344e+01 -6.849254608154296875e+00 -3.317409157752990723e-01 6.690885066986083984e+00 1.907743215560913086e+00 4.980774402618408203e+00
3.005000000000000000e+03 1.596866035461425781e+01 -4.685661315917968750e+00 2.912435531616210938e+00 6.220823287963867188e+00 2.739977836608886719e+00 1.435662627220153809e+00
3.006000000000000000e+03 1.187573337554931641e+01 -5.943114757537841797e+00 5.710995793342590332e-01 6.922036170959472656e+00 2.247940778732299805e+00 5.204524040222167969e+00
3.007000000000000000e+03 1.890438652038574219e+01 -4.466081142425537109e+00 3.404817342758178711e+00 2.662318229675292969e+00 1.820140600204467773e+00 7.702203392982482910e-01
3.008000000000000000e+03 2.310620498657226562e+01 -2.568742513656616211e+00 3.293859243392944336e+00 1.492479443550109863e+00 1.435901522636413574e+00 4.155415296554565430e-01
3.009000000000000000e+03 1.287305927276611328e+01 9.520700454711914062e+00 1.813286691904067993e-01 3.662614822387695312e+00 1.153183102607727051e+00 -2.582777440547943115e-01
3.010000000000000000e+03 2.188648223876953125e+01 -3.379936218261718750e+00 3.364986896514892578e+00 1.495384693145751953e+00 1.458111524581909180e+00 4.734389781951904297e-01
3.011000000000000000e+03 1.271147727966308594e+01 9.899325370788574219e+00 1.761857271194458008e-01 3.539753913879394531e+00 1.114781856536865234e+00 -2.754481732845306396e-01
3.012000000000000000e+03 2.421906661987304688e+01 -1.968382716178894043e+00 3.126694202423095703e+00 1.598489522933959961e+00 1.417555093765258789e+00 3.215584754943847656e-01
3.013000000000000000e+03 2.658654785156250000e+01 -2.088480949401855469e+00 2.482181787490844727e+00 1.816549897193908691e+00 1.289619445800781250e+00 -2.543205022811889648e-01
3.014000000000000000e+03 2.717488288879394531e+01 -3.108929872512817383e+00 2.076070547103881836e+00 1.685434341430664062e+00 1.128451466560363770e+00 -6.231210827827453613e-01
3.015000000000000000e+03 1.278531551361083984e+01 8.980009078979492188e+00 1.863058358430862427e-01 3.731413364410400391e+00 1.175315737724304199e+00 -2.769670486450195312e-01
3.016000000000000000e+03 1.371661567687988281e+01 9.329872131347656250e+00 1.854360997676849365e-01 4.020490646362304688e+00 1.261777997016906738e+00 -8.759209513664245605e-02
3.017000000000000000e+03 3.062651634216308594e+01 -1.235282063484191895e+00 1.833734750747680664e+00 2.874311685562133789e+00 1.412413835525512695e+00 -8.411109447479248047e-01
3.018000000000000000e+03 2.731673812866210938e+01 -2.187145948410034180e+00 2.253450155258178711e+00 1.913619995117187500e+00 1.250120997428894043e+00 -4.480490684509277344e-01
3.019000000000000000e+03 3.053934478759765625e+01 3.327476501464843750e+00 2.369098424911499023e+00 3.668972730636596680e+00 1.811421275138854980e+00 -7.041160762310028076e-02
3.020000000000000000e+03 3.047290992736816406e+01 2.107286453247070312e+00 2.339405536651611328e+00 3.455166339874267578e+00 1.738371610641479492e+00 -2.092676907777786255e-01
3.021000000000000000e+03 2.363308143615722656e+01 -1.428353428840637207e+00 3.375086545944213867e+00 1.765433073043823242e+00 1.542155861854553223e+00 6.092859506607055664e-01
3.022000000000000000e+03 2.384851837158203125e+01 -2.740314006805419922e+00 3.028050184249877930e+00 1.444214344024658203e+00 1.341679334640502930e+00 1.981609761714935303e-01
3.023000000000000000e+03 3.105080223083496094e+01 -2.236987113952636719e+00 1.577269077301025391e+00 2.876715421676635742e+00 1.336195349693298340e+00 -1.054314017295837402e+00
3.024000000000000000e+03 2.935177040100097656e+01 -4.120836734771728516e+00 1.298647165298461914e+00 2.065475702285766602e+00 1.009236931800842285e+00 -1.148354768753051758e+00
3.025000000000000000e+03 3.149446105957031250e+01 -3.367012500762939453e+00 1.182494401931762695e+00 2.850698709487915039e+00 1.209957957267761230e+00 -1.322218537330627441e+00
3.026000000000000000e+03 3.201160812377929688e+01 -1.677157282829284668e+00 1.521139144897460938e+00 3.254830598831176758e+00 1.432790994644165039e+00 -1.092561125755310059e+00
3.027000000000000000e+03 2.842229270935058594e+01 5.621288299560546875e+00 2.492075204849243164e+00 3.708850860595703125e+00 1.860277771949768066e+00 4.811271727085113525e-01
3.028000000000000000e+03 2.924797630310058594e+01 4.444159030914306641e+00 2.505537986755371094e+00 3.604102849960327148e+00 1.832892298698425293e+00 2.574451565742492676e-01
3.029000000000000000e+03 1.613953781127929688e+01 1.346022415161132812e+01 2.834839820861816406e-01 3.868306875228881836e+00 1.245537281036376953e+00 3.274406120181083679e-02
3.030000000000000000e+03 2.515395355224609375e+01 1.412411689758300781e+01 1.276910305023193359e+00 4.420231342315673828e+00 1.709142565727233887e+00 2.989567220211029053e-01
3.031000000000000000e+03 2.727338600158691406e+01 9.775361061096191406e+00 2.046187162399291992e+00 4.221438884735107422e+00 1.880287766456604004e+00 5.523032546043395996e-01
3.032000000000000000e+03 2.696369743347167969e+01 8.560110092163085938e+00 2.178669452667236328e+00 4.045461177825927734e+00 1.867239236831665039e+00 6.663419008255004883e-01
3.033000000000000000e+03 2.776365661621093750e+01 7.082159042358398438e+00 2.379137754440307617e+00 3.886580467224121094e+00 1.879715442657470703e+00 6.048529744148254395e-01
3.034000000000000000e+03 1.568064212799072266e+01 1.851488304138183594e+01 1.222531422972679138e-01 3.441614627838134766e+00 1.069160342216491699e+00 -2.951880693435668945e-01
3.035000000000000000e+03 1.307884025573730469e+01 2.526734352111816406e+01 -1.053086295723915100e-01 2.831848859786987305e+00 8.179621100425720215e-01 -4.777368605136871338e-01
3.036000000000000000e+03 1.721491622924804688e+01 1.415941143035888672e+01 3.597912490367889404e-01 3.923219442367553711e+00 1.284903168678283691e+00 7.319243997335433960e-02
3.037000000000000000e+03 1.538940906524658203e+01 1.540789222717285156e+01 2.033354192972183228e-01 3.583187818527221680e+00 1.135957002639770508e+00 -1.538922041654586792e-01
3.038000000000000000e+03 2.370287322998046875e+01 1.273741149902343750e+01 1.280409216880798340e+00 4.312734603881835938e+00 1.677943110466003418e+00 4.994165599346160889e-01
3.039000000000000000e+03 1.380191898345947266e+01 4.417050838470458984e+00 1.105861440300941467e-01 6.110414505004882812e+00 1.866300225257873535e+00 1.667560040950775146e-01
3.040000000000000000e+03 1.628592491149902344e+01 1.532014131546020508e+00 3.077885627746582031e+00 7.097014904022216797e+00 3.052470207214355469e+00 3.639684200286865234e+00
3.041000000000000000e+03 1.447141838073730469e+01 4.391549587249755859e+00 2.186302840709686279e-01 6.356617927551269531e+00 1.972574591636657715e+00 6.342079639434814453e-01
3.042000000000000000e+03 1.743630981445312500e+01 -2.696243047714233398e+00 5.582750797271728516e+00 4.211190700531005859e+00 2.938182592391967773e+00 1.495975852012634277e+00
3.043000000000000000e+03 1.904623031616210938e+01 -3.498575210571289062e+00 4.260652065277099609e+00 2.708395481109619141e+00 2.090714216232299805e+00 1.017276048660278320e+00
3.044000000000000000e+03 1.888968658447265625e+01 -3.894140958786010742e+00 3.971647024154663086e+00 2.754922628402709961e+00 2.017970800399780273e+00 9.050942063331604004e-01
3.045000000000000000e+03 1.302692890167236328e+01 4.187171459197998047e+00 8.891205489635467529e-02 5.640743255615234375e+00 1.718896508216857910e+00 -4.344649016857147217e-01
3.046000000000000000e+03 1.226550674438476562e+01 -6.153853893280029297e+00 2.383126616477966309e-01 7.220131874084472656e+00 2.237533330917358398e+00 5.017632961273193359e+00
3.047000000000000000e+03 1.658773803710937500e+01 1.096694946289062500e+00 3.892274856567382812e+00 6.567048072814941406e+00 3.137796878814697266e+00 3.801607370376586914e+00
3.048000000000000000e+03 1.602482604980468750e+01 1.989217996597290039e+00 2.293307781219482422e+00 7.384464263916015625e+00 2.903331756591796875e+00 3.253482103347778320e+00
3.049000000000000000e+03 1.803941917419433594e+01 -7.618921399116516113e-01 5.577965736389160156e+00 4.085128307342529297e+00 2.898928165435791016e+00 2.709649801254272461e+00
3.050000000000000000e+03 1.931404495239257812e+01 -3.071128845214843750e+00 4.419265747070312500e+00 2.547120571136474609e+00 2.089915990829467773e+00 1.132429480552673340e+00
3.051000000000000000e+03 1.228033638000488281e+01 5.580449581146240234e+00 2.304123640060424805e-01 4.224747180938720703e+00 1.336547970771789551e+00 -6.196281313896179199e-01
3.052000000000000000e+03 1.806927490234375000e+01 -5.091455459594726562e+00 2.775362253189086914e+00 3.236580848693847656e+00 1.803582906723022461e+00 9.559532403945922852e-01
3.053000000000000000e+03 1.850362777709960938e+01 -3.837919950485229492e+00 4.101774692535400391e+00 3.086806297302246094e+00 2.156574487686157227e+00 9.999018311500549316e-01
3.054000000000000000e+03 1.260051918029785156e+01 5.035949707031250000e+00 1.746508926153182983e-01 4.723522186279296875e+00 1.469451904296875000e+00 -5.829095244407653809e-01
3.055000000000000000e+03 1.201395225524902344e+01 7.213145256042480469e+00 2.391215562820434570e-01 3.664843082427978516e+00 1.171189308166503906e+00 -5.009596347808837891e-01
3.056000000000000000e+03 1.316064834594726562e+01 3.820468187332153320e+00 6.305251270532608032e-02 6.058268070220947266e+00 1.836396217346191406e+00 -3.826961815357208252e-01
3.057000000000000000e+03 1.210453891754150391e+01 6.695512294769287109e+00 2.340949475765228271e-01 3.833781242370605469e+00 1.220362782478332520e+00 -5.392491817474365234e-01
3.058000000000000000e+03 1.291415309906005859e+01 7.817755699157714844e+00 1.713438332080841064e-01 4.030382156372070312e+00 1.260517716407775879e+00 -3.031999468803405762e-01
3.059000000000000000e+03 1.195360469818115234e+01 8.470844268798828125e+00 2.106038033962249756e-01 3.439477682113647461e+00 1.095024466514587402e+00 -4.197225272655487061e-01
3.060000000000000000e+03 1.736392593383789062e+01 -3.847003221511840820e+00 4.372247219085693359e+00 4.305199146270751953e+00 2.603233814239501953e+00 1.105301380157470703e+00
3.061000000000000000e+03 2.148265266418457031e+01 -3.038935899734497070e+00 3.644251585006713867e+00 1.637264370918273926e+00 1.584454774856567383e+00 6.550089716911315918e-01
3.062000000000000000e+03 1.718316459655761719e+01 -3.356590747833251953e+00 5.018083095550537109e+00 4.535384178161621094e+00 2.866040229797363281e+00 1.187504172325134277e+00
3.063000000000000000e+03 1.865370559692382812e+01 -4.145474433898925781e+00 3.840161561965942383e+00 2.896453142166137695e+00 2.020984411239624023e+00 8.858001828193664551e-01
3.064000000000000000e+03 1.888354873657226562e+01 -2.223300695419311523e+00 5.036737918853759766e+00 2.985871553421020508e+00 2.406782865524291992e+00 1.600837826728820801e+00
3.065000000000000000e+03 1.953735733032226562e+01 -3.785320043563842773e+00 3.858741521835327148e+00 2.252619504928588867e+00 1.833408355712890625e+00 8.592804670333862305e-01
3.066000000000000000e+03 2.231995964050292969e+01 -1.970634222030639648e+00 3.715858697891235352e+00 1.743617057800292969e+00 1.637842774391174316e+00 8.189990520477294922e-01
3.067000000000000000e+03 2.176366424560546875e+01 -2.556512594223022461e+00 3.726404666900634766e+00 1.671901226043701172e+00 1.619491815567016602e+00 7.540571093559265137e-01
3.068000000000000000e+03 1.329096889495849609e+01 8.868522644042968750e+00 1.758053898811340332e-01 3.941022872924804688e+00 1.235048532485961914e+00 -1.769479066133499146e-01
3.069000000000000000e+03 1.330187034606933594e+01 7.465691566467285156e+00 1.804958283901214600e-01 4.327112674713134766e+00 1.352282524108886719e+00 -1.630376428365707397e-01
3.070000000000000000e+03 3.064351081848144531e+01 -4.741173267364501953e+00 9.237605333328247070e-01 2.374502897262573242e+00 9.894790649414062500e-01 -1.383139848709106445e+00
3.071000000000000000e+03 2.617006683349609375e+01 -1.130334973335266113e+00 2.809828281402587891e+00 1.948722481727600098e+00 1.427565217018127441e+00 9.476199746131896973e-02
3.072000000000000000e+03 2.526828384399414062e+01 -1.598317742347717285e+00 2.940066814422607422e+00 1.725929975509643555e+00 1.399799108505249023e+00 1.593438237905502319e-01
3.073000000000000000e+03 2.673939514160156250e+01 -1.274656176567077637e+00 2.599235534667968750e+00 2.025123119354248047e+00 1.387307643890380859e+00 -1.131299287080764771e-01
3.074000000000000000e+03 2.590750503540039062e+01 -1.890252113342285156e+00 2.696087360382080078e+00 1.748360037803649902e+00 1.333334207534790039e+00 -6.473751366138458252e-02
3.075000000000000000e+03 2.906105995178222656e+01 -3.049081802368164062e+00 1.679900527000427246e+00 2.175699234008789062e+00 1.156679868698120117e+00 -9.187006950378417969e-01
3.076000000000000000e+03 2.944870185852050781e+01 8.811192512512207031e-01 2.400151252746582031e+00 2.962208509445190430e+00 1.608707904815673828e+00 -2.234025299549102783e-01
3.077000000000000000e+03 2.561065673828125000e+01 -8.189171552658081055e-01 2.970128774642944336e+00 1.934837579727172852e+00 1.471489906311035156e+00 2.561423182487487793e-01
3.078000000000000000e+03 1.685648536682128906e+01 1.241282463073730469e+01 3.988429903984069824e-01 4.074825763702392578e+00 1.342100620269775391e+00 2.213508039712905884e-01
3.079000000000000000e+03 3.159817695617675781e+01 1.107458829879760742e+00 2.048088550567626953e+00 3.557310342788696289e+00 1.681619644165039062e+00 -5.776280760765075684e-01
3.080000000000000000e+03 2.601356506347656250e+01 1.001472187042236328e+01 1.912119984626770020e+00 4.178450107574462891e+00 1.827171087265014648e+00 6.671641469001770020e-01
3.081000000000000000e+03 2.718965339660644531e+01 4.758590698242187500e+00 2.621501684188842773e+00 3.408168554306030273e+00 1.808901071548461914e+00 6.680772900581359863e-01
3.082000000000000000e+03 2.744491195678710938e+01 5.912812232971191406e+00 2.513957500457763672e+00 3.660331010818481445e+00 1.852286577224731445e+00 6.531373262405395508e-01
3.083000000000000000e+03 1.858716773986816406e+01 1.963799858093261719e+01 2.130177915096282959e-01 3.816257953643798828e+00 1.208782672882080078e+00 -2.439796626567840576e-01
3.084000000000000000e+03 1.537075424194335938e+01 1.262150287628173828e+01 2.428536117076873779e-01 3.833559513092041016e+00 1.222923994064331055e+00 1.664710417389869690e-02
3.085000000000000000e+03 1.779730224609375000e+01 1.291037082672119141e+01 4.750555753707885742e-01 4.129037380218505859e+00 1.381227970123291016e+00 2.705353498458862305e-01
3.086000000000000000e+03 2.515624618530273438e+01 1.563905334472656250e+01 1.084921717643737793e+00 4.458392143249511719e+00 1.662994265556335449e+00 1.384204775094985962e-01
3.087000000000000000e+03 2.507066535949707031e+01 1.273824024200439453e+01 1.436696410179138184e+00 4.355293273925781250e+00 1.737596869468688965e+00 4.415988028049468994e-01
3.088000000000000000e+03 1.973043823242187500e+01 2.188795280456542969e+01 1.357235610485076904e-01 3.914084672927856445e+00 1.214942455291748047e+00 -3.229048848152160645e-01
3.089000000000000000e+03 1.736758232116699219e+01 2.314020347595214844e+01 -1.883884542621672153e-04 3.549299955368041992e+00 1.064733505249023438e+00 -4.052716791629791260e-01
3.090000000000000000e+03 2.941636085510253906e+01 2.097536087036132812e+00 2.458626985549926758e+00 3.197361469268798828e+00 1.696796536445617676e+00 -3.961992636322975159e-02
3.091000000000000000e+03 1.612490272521972656e+01 2.413011312484741211e+00 1.951957941055297852e+00 7.125707149505615234e+00 2.723299503326416016e+00 2.956295013427734375e+00
3.092000000000000000e+03 1.735376930236816406e+01 -1.908563256263732910e+00 6.181294918060302734e+00 4.374537467956542969e+00 3.166749715805053711e+00 2.079478740692138672e+00
3.093000000000000000e+03 1.517195129394531250e+01 4.209457397460937500e+00 4.770450294017791748e-01 6.628700256347656250e+00 2.131723403930664062e+00 1.269000887870788574e+00
3.094000000000000000e+03 1.525341320037841797e+01 3.300135374069213867e+00 7.704123854637145996e-01 7.262777328491210938e+00 2.409956932067871094e+00 1.810022592544555664e+00
3.095000000000000000e+03 1.568027591705322266e+01 2.047862529754638672e+00 1.943701863288879395e+00 7.780132770538330078e+00 2.917150497436523438e+00 3.073706865310668945e+00
3.096000000000000000e+03 1.737579345703125000e+01 7.022324800491333008e-01 4.542152404785156250e+00 5.405764102935791016e+00 2.984375000000000000e+00 3.545452594757080078e+00
3.097000000000000000e+03 1.502707099914550781e+01 3.777891874313354492e+00 5.079281330108642578e-01 6.948600292205810547e+00 2.236958503723144531e+00 1.364862322807312012e+00
3.098000000000000000e+03 1.520069503784179688e+01 2.914604663848876953e+00 8.854057788848876953e-01 7.607384204864501953e+00 2.547837018966674805e+00 2.018444299697875977e+00
3.099000000000000000e+03 1.728392982482910156e+01 -2.311307668685913086e+00 6.033253192901611328e+00 4.434027671813964844e+00 3.140184164047241211e+00 1.733695983886718750e+00
3.100000000000000000e+03 1.771999931335449219e+01 -3.120205402374267578e+00 5.067379951477050781e+00 3.888992071151733398e+00 2.686911582946777344e+00 1.310750007629394531e+00
3.101000000000000000e+03 1.789615058898925781e+01 -3.592138051986694336e+00 4.509834289550781250e+00 3.648609876632690430e+00 2.447533369064331055e+00 1.108186006546020508e+00
3.102000000000000000e+03 1.301859378814697266e+01 4.591858386993408203e+00 1.285215467214584351e-01 5.339797019958496094e+00 1.640495657920837402e+00 -4.119816422462463379e-01
3.103000000000000000e+03 1.312554073333740234e+01 5.446468830108642578e+00 1.331410109996795654e-01 4.998264312744140625e+00 1.539421677589416504e+00 -3.046006560325622559e-01
3.104000000000000000e+03 1.347232532501220703e+01 4.601078987121582031e+00 9.862159192562103271e-02 5.772048950195312500e+00 1.761201143264770508e+00 -9.786644577980041504e-02
3.105000000000000000e+03 1.268651676177978516e+01 7.680202484130859375e+00 1.952853649854660034e-01 3.940486907958984375e+00 1.240731716156005859e+00 -3.432975411415100098e-01
3.106000000000000000e+03 1.808232307434082031e+01 -4.012345314025878906e+00 4.071486473083496094e+00 3.437503814697265625e+00 2.252696990966796875e+00 9.666947126388549805e-01
3.107000000000000000e+03 1.982621002197265625e+01 -3.341459035873413086e+00 4.077930927276611328e+00 2.204993963241577148e+00 1.884877443313598633e+00 9.460071921348571777e-01
3.108000000000000000e+03 2.012020492553710938e+01 -2.839823961257934570e+00 4.272891044616699219e+00 2.146837234497070312e+00 1.925918579101562500e+00 1.093800187110900879e+00
3.109000000000000000e+03 2.063417434692382812e+01 -3.183486700057983398e+00 3.867410898208618164e+00 1.868713021278381348e+00 1.720837116241455078e+00 8.096494078636169434e-01
3.110000000000000000e+03 1.378572177886962891e+01 7.842981815338134766e+00 1.830811947584152222e-01 4.404390811920166016e+00 1.376241683959960938e+00 -2.374688349664211273e-02
3.111000000000000000e+03 2.151079940795898438e+01 -1.596739649772644043e+00 4.025891780853271484e+00 2.016284465789794922e+00 1.812652826309204102e+00 1.173080563545227051e+00
3.112000000000000000e+03 2.299987602233886719e+01 -1.812905907630920410e+00 3.497257471084594727e+00 1.686311960220336914e+00 1.555070757865905762e+00 6.715983152389526367e-01
3.113000000000000000e+03 2.501994323730468750e+01 -5.508621931076049805e-01 3.114760637283325195e+00 1.991026043891906738e+00 1.531736016273498535e+00 4.594667553901672363e-01
3.114000000000000000e+03 2.098391914367675781e+01 -2.723628520965576172e+00 3.972543001174926758e+00 1.838770747184753418e+00 1.743394136428833008e+00 9.068098068237304688e-01
3.115000000000000000e+03 2.174686622619628906e+01 -2.081045389175415039e+00 3.861407756805419922e+00 1.794675827026367188e+00 1.696825027465820312e+00 9.442667365074157715e-01
3.116000000000000000e+03 1.378005695343017578e+01 1.024897289276123047e+01 1.885000616312026978e-01 3.876940727233886719e+00 1.219632267951965332e+00 -9.760726988315582275e-02
3.117000000000000000e+03 1.305148506164550781e+01 1.021580696105957031e+01 1.807758361101150513e-01 3.564952850341796875e+00 1.123718619346618652e+00 -2.301732003688812256e-01
3.118000000000000000e+03 2.807453918457031250e+01 -2.234038352966308594e+00 2.139248371124267578e+00 2.028679370880126953e+00 1.250378251075744629e+00 -5.975785851478576660e-01
3.119000000000000000e+03 2.367803001403808594e+01 -3.592599034309387207e-01 3.455272674560546875e+00 2.066767930984497070e+00 1.656612157821655273e+00 8.963535428047180176e-01
3.120000000000000000e+03 2.321461677551269531e+01 -8.129635453224182129e-01 3.577580690383911133e+00 1.971470475196838379e+00 1.664715409278869629e+00 9.320506453514099121e-01
3.121000000000000000e+03 2.881863212585449219e+01 -1.974030733108520508e+00 2.041873216629028320e+00 2.292236328125000000e+00 1.300232768058776855e+00 -6.515124440193176270e-01
3.122000000000000000e+03 1.470738506317138672e+01 1.192134094238281250e+01 2.149669229984283447e-01 3.813564777374267578e+00 1.208559513092041016e+00 -3.324865922331809998e-02
3.123000000000000000e+03 2.660396385192871094e+01 -5.195994377136230469e-01 2.798711061477661133e+00 2.171087980270385742e+00 1.490939736366271973e+00 1.169069334864616394e-01
3.124000000000000000e+03 2.743028068542480469e+01 -1.266039133071899414e+00 2.494231939315795898e+00 2.129107236862182617e+00 1.387001752853393555e+00 -2.458884865045547485e-01
3.125000000000000000e+03 2.938999748229980469e+01 3.342177629470825195e+00 2.521547794342041016e+00 3.446111440658569336e+00 1.790297746658325195e+00 1.386751979589462280e-01
3.126000000000000000e+03 3.054955863952636719e+01 8.937153220176696777e-01 2.173934936523437500e+00 3.235337734222412109e+00 1.622781753540039062e+00 -4.446399211883544922e-01
3.127000000000000000e+03 1.603294372558593750e+01 1.182650470733642578e+01 3.258844614028930664e-01 4.042128562927246094e+00 1.310403943061828613e+00 1.683291792869567871e-01
3.128000000000000000e+03 2.667554855346679688e+01 7.380303859710693359e+00 2.326582193374633789e+00 3.866537570953369141e+00 1.857935905456542969e+00 7.663580179214477539e-01
3.129000000000000000e+03 2.366490936279296875e+01 1.401178646087646484e+01 1.132726788520812988e+00 4.334246635437011719e+00 1.640092015266418457e+00 3.437317907810211182e-01
3.130000000000000000e+03 2.492830276489257812e+01 1.142482089996337891e+01 1.605352044105529785e+00 4.272269248962402344e+00 1.763286352157592773e+00 6.101118922233581543e-01
3.131000000000000000e+03 1.765329551696777344e+01 1.752990150451660156e+01 2.590301632881164551e-01 3.773069143295288086e+00 1.209629774093627930e+00 -1.575111150741577148e-01
3.132000000000000000e+03 1.801278877258300781e+01 2.130377960205078125e+01 1.047341749072074890e-01 3.669913530349731445e+00 1.132394313812255859e+00 -3.297013640403747559e-01
3.133000000000000000e+03 2.531251716613769531e+01 1.735559844970703125e+01 9.089660048484802246e-01 4.519876480102539062e+00 1.628652811050415039e+00 -6.767198909074068069e-03
3.134000000000000000e+03 2.616367912292480469e+01 5.145251750946044922e+00 2.625957012176513672e+00 3.440016269683837891e+00 1.819791913032531738e+00 9.007415175437927246e-01
3.135000000000000000e+03 2.578546524047851562e+01 8.808512687683105469e+00 2.063872575759887695e+00 4.046289443969726562e+00 1.833048701286315918e+00 8.011149764060974121e-01
3.136000000000000000e+03 1.711646080017089844e+01 2.498456573486328125e+01 -7.522671669721603394e-02 3.480385065078735352e+00 1.021547555923461914e+00 -4.305483102798461914e-01
3.137000000000000000e+03 1.774279022216796875e+01 -3.129288852214813232e-01 5.452921390533447266e+00 4.510546684265136719e+00 2.989040374755859375e+00 3.076087474822998047e+00
3.138000000000000000e+03 1.777292442321777344e+01 1.492252945899963379e-02 5.172376155853271484e+00 4.633954048156738281e+00 2.941899061203002930e+00 3.218986749649047852e+00
3.139000000000000000e+03 1.584392070770263672e+01 2.851418972015380859e+00 1.400591850280761719e+00 7.196715354919433594e+00 2.579192161560058594e+00 2.512163400650024414e+00
3.140000000000000000e+03 1.303586769104003906e+01 7.080088615417480469e+00 1.751960068941116333e-01 4.307634830474853516e+00 1.344849228858947754e+00 -2.621849179267883301e-01
3.141000000000000000e+03 1.552017784118652344e+01 2.877789974212646484e+00 1.146609306335449219e+00 7.429056644439697266e+00 2.572699785232543945e+00 2.308499097824096680e+00
3.142000000000000000e+03 1.667370986938476562e+01 1.491096615791320801e+00 3.377417802810668945e+00 6.551772117614746094e+00 2.978756904602050781e+00 3.621394634246826172e+00
3.143000000000000000e+03 1.699296569824218750e+01 1.070400476455688477e+00 4.056351661682128906e+00 6.037619590759277344e+00 3.028191328048706055e+00 3.704929590225219727e+00
3.144000000000000000e+03 1.417925167083740234e+01 4.685981273651123047e+00 1.627790927886962891e-01 6.098749160766601562e+00 1.878458380699157715e+00 3.884821236133575439e-01
3.145000000000000000e+03 1.677918243408203125e+01 1.910408854484558105e+00 2.889456510543823242e+00 6.474000930786132812e+00 2.809037208557128906e+00 3.388020038604736328e+00
3.146000000000000000e+03 1.649173164367675781e+01 2.388831377029418945e+00 2.219616651535034180e+00 6.762038707733154297e+00 2.694496631622314453e+00 3.072682619094848633e+00
3.147000000000000000e+03 1.741869354248046875e+01 -1.515794396400451660e+00 6.161234855651855469e+00 4.348144054412841797e+00 3.152813673019409180e+00 2.399872303009033203e+00
3.148000000000000000e+03 1.780761146545410156e+01 1.083841323852539062e+00 4.127173900604248047e+00 5.080851554870605469e+00 2.762407541275024414e+00 3.341269254684448242e+00
3.149000000000000000e+03 1.342837142944335938e+01 7.881127357482910156e+00 1.798837631940841675e-01 4.236882209777832031e+00 1.325029850006103516e+00 -1.213523223996162415e-01
3.150000000000000000e+03 1.260510444641113281e+01 6.794053554534912109e+00 1.952287107706069946e-01 4.126867294311523438e+00 1.296628832817077637e+00 -3.907290101051330566e-01
3.151000000000000000e+03 1.243833541870117188e+01 6.045260906219482422e+00 2.116333246231079102e-01 4.199813842773437500e+00 1.323434114456176758e+00 -5.088697671890258789e-01
3.152000000000000000e+03 1.827515220642089844e+01 -2.407422304153442383e+00 5.335982799530029297e+00 3.454742193222045898e+00 2.637217521667480469e+00 1.613796710968017578e+00
3.153000000000000000e+03 1.847249412536621094e+01 -3.421596288681030273e+00 4.482023239135742188e+00 3.149175167083740234e+00 2.289359569549560547e+00 1.115247607231140137e+00
3.154000000000000000e+03 2.097697448730468750e+01 -1.922599792480468750e+00 4.168591499328613281e+00 2.056452274322509766e+00 1.867513179779052734e+00 1.224070429801940918e+00
3.155000000000000000e+03 2.269164085388183594e+01 -1.166229248046875000e+00 3.694609403610229492e+00 1.945391893386840820e+00 1.692000389099121094e+00 9.819771051406860352e-01
3.156000000000000000e+03 2.132189178466796875e+01 -1.062738060951232910e+00 4.128223896026611328e+00 2.202911376953125000e+00 1.899340510368347168e+00 1.402455449104309082e+00
3.157000000000000000e+03 2.600712966918945312e+01 9.425945580005645752e-03 2.951472282409667969e+00 2.208501100540161133e+00 1.547991991043090820e+00 3.409426510334014893e-01
3.158000000000000000e+03 1.423459720611572266e+01 9.866440773010253906e+00 2.004504948854446411e-01 4.033560752868652344e+00 1.270203351974487305e+00 -3.525036387145519257e-03
3.159000000000000000e+03 1.526460647583007812e+01 1.121731376647949219e+01 2.686949074268341064e-01 4.004028797149658203e+00 1.281817197799682617e+00 1.022102832794189453e-01
3.160000000000000000e+03 2.656016349792480469e+01 3.065030574798583984e+00 2.814741611480712891e+00 3.000468730926513672e+00 1.744563102722167969e+00 7.099817991256713867e-01
3.161000000000000000e+03 2.189907646179199219e+01 -8.884611129760742188e-01 3.944051742553710938e+00 2.129295825958251953e+00 1.822004199028015137e+00 1.284285902976989746e+00
3.162000000000000000e+03 2.211616134643554688e+01 -1.400909543037414551e+00 3.827170610427856445e+00 1.932093739509582520e+00 1.727779269218444824e+00 1.062734842300415039e+00
3.163000000000000000e+03 1.445632743835449219e+01 8.838138580322265625e+00 2.198902964591979980e-01 4.308680534362792969e+00 1.358571171760559082e+00 1.003046110272407532e-01
3.164000000000000000e+03 3.005456161499023438e+01 -2.658125877380371094e+00 1.599773645401000977e+00 2.476507425308227539e+00 1.222884297370910645e+00 -1.025264859199523926e+00
3.165000000000000000e+03 2.826911163330078125e+01 3.270050287246704102e+00 2.630790233612060547e+00 3.218275070190429688e+00 1.754719614982604980e+00 3.550354242324829102e-01
3.166000000000000000e+03 2.841679954528808594e+01 -3.336637616157531738e-01 2.435230970382690430e+00 2.521108865737915039e+00 1.486901998519897461e+00 -2.556008398532867432e-01
3.167000000000000000e+03 1.827362060546875000e+01 2.087828636169433594e+00 3.291280984878540039e+00 5.012404918670654297e+00 2.491105794906616211e+00 3.057288169860839844e+00
3.168000000000000000e+03 2.840143394470214844e+01 8.714717626571655273e-01 2.537442684173583984e+00 2.761565446853637695e+00 1.589702367782592773e+00 -3.242051973938941956e-02
3.169000000000000000e+03 2.557186317443847656e+01 7.644171237945556641e+00 2.222628355026245117e+00 3.882417917251586914e+00 1.831513881683349609e+00 9.206014871597290039e-01
3.170000000000000000e+03 2.738013076782226562e+01 2.027066946029663086e+00 2.754848480224609375e+00 2.841049432754516602e+00 1.678769350051879883e+00 3.760654628276824951e-01
3.171000000000000000e+03 1.831235694885253906e+01 1.179412937164306641e+01 5.934729576110839844e-01 4.266208648681640625e+00 1.457904577255249023e+00 4.554615020751953125e-01
3.172000000000000000e+03 2.625124168395996094e+01 1.037214636802673340e+00 2.936880826950073242e+00 2.479706048965454102e+00 1.624976038932800293e+00 4.944421947002410889e-01
3.173000000000000000e+03 2.363689994812011719e+01 1.149522686004638672e+01 1.417736649513244629e+00 4.275388717651367188e+00 1.707937598228454590e+00 6.629672646522521973e-01
3.174000000000000000e+03 1.856019210815429688e+01 1.456157207489013672e+01 4.785162806510925293e-01 4.047981739044189453e+00 1.357949376106262207e+00 1.493339240550994873e-01
3.175000000000000000e+03 1.709241676330566406e+01 1.907102012634277344e+01 1.657208949327468872e-01 3.612558603286743164e+00 1.133483886718750000e+00 -2.651384770870208740e-01
3.176000000000000000e+03 1.965760612487792969e+01 1.660649681091308594e+01 4.748769998550415039e-01 4.042484760284423828e+00 1.355208635330200195e+00 1.262925937771797180e-02
3.177000000000000000e+03 2.242082786560058594e+01 1.763847732543945312e+01 6.097542047500610352e-01 4.265762805938720703e+00 1.462655067443847656e+00 -1.869956590235233307e-02
3.178000000000000000e+03 2.373845100402832031e+01 1.758774566650390625e+01 7.540621757507324219e-01 4.379964351654052734e+00 1.540207982063293457e+00 -1.168961543589830399e-02
3.179000000000000000e+03 2.498714637756347656e+01 4.362754344940185547e+00 2.768500566482543945e+00 3.277000188827514648e+00 1.813650250434875488e+00 1.147840499877929688e+00
3.180000000000000000e+03 2.640861129760742188e+01 6.228425025939941406e+00 2.468719244003295898e+00 3.652993440628051758e+00 1.836513757705688477e+00 8.466302156448364258e-01
3.181000000000000000e+03 1.921589851379394531e+01 2.368229293823242188e+01 2.382294647395610809e-02 3.809661865234375000e+00 1.150045394897460938e+00 -3.844861090183258057e-01
3.182000000000000000e+03 2.021289253234863281e+01 2.654330253601074219e+01 -1.362502574920654297e-01 3.933926343917846680e+00 1.139302849769592285e+00 -4.300785958766937256e-01
3.183000000000000000e+03 1.706199073791503906e+01 1.455018997192382812e+00 3.593634128570556641e+00 6.039086818695068359e+00 2.889816284179687500e+00 3.548820257186889648e+00
3.184000000000000000e+03 1.779756546020507812e+01 7.082725167274475098e-01 4.519922256469726562e+00 4.929869651794433594e+00 2.834937572479248047e+00 3.350611448287963867e+00
3.185000000000000000e+03 1.778617858886718750e+01 3.534746468067169189e-01 4.851049900054931641e+00 4.790195465087890625e+00 2.892373561859130859e+00 3.287118673324584961e+00
3.186000000000000000e+03 1.793172073364257812e+01 -1.157808780670166016e+00 5.760338306427001953e+00 3.998236179351806641e+00 2.927572250366210938e+00 2.516779422760009766e+00
3.187000000000000000e+03 1.353085422515869141e+01 4.987367630004882812e+00 1.167362332344055176e-01 5.537115097045898438e+00 1.696155428886413574e+00 -7.245892286300659180e-02
3.188000000000000000e+03 1.779870986938476562e+01 -1.956190705299377441e+00 5.768175601959228516e+00 3.858784437179565430e+00 2.888087987899780273e+00 1.957708597183227539e+00
3.189000000000000000e+03 1.403612709045410156e+01 7.247413158416748047e+00 1.853516697883605957e-01 4.676916122436523438e+00 1.458680272102355957e+00 6.194216012954711914e-02
3.190000000000000000e+03 1.655912971496582031e+01 2.862875699996948242e+00 1.892046213150024414e+00 6.574384212493896484e+00 2.539929151535034180e+00 2.785359621047973633e+00
3.191000000000000000e+03 1.745841979980468750e+01 -1.136700391769409180e+00 6.088768959045410156e+00 4.443999767303466797e+00 3.159830570220947266e+00 2.705808639526367188e+00
3.192000000000000000e+03 1.837106132507324219e+01 -2.916242122650146484e+00 4.947094917297363281e+00 3.291330814361572266e+00 2.471527576446533203e+00 1.322292208671569824e+00
3.193000000000000000e+03 1.340997695922851562e+01 6.866794586181640625e+00 1.693297177553176880e-01 4.543991565704345703e+00 1.413996338844299316e+00 -1.506215929985046387e-01
3.194000000000000000e+03 1.277133655548095703e+01 6.346507549285888672e+00 1.733679473400115967e-01 4.358550071716308594e+00 1.359575390815734863e+00 -3.838360309600830078e-01
3.195000000000000000e+03 1.899401092529296875e+01 -2.713869810104370117e+00 4.747640609741210938e+00 2.844229221343994141e+00 2.277560949325561523e+00 1.365708708763122559e+00
3.196000000000000000e+03 1.397547912597656250e+01 8.844642639160156250e+00 1.948196142911911011e-01 4.202986240386962891e+00 1.319341778755187988e+00 -1.372241135686635971e-02
3.197000000000000000e+03 1.363418960571289062e+01 7.345117092132568359e+00 1.757147610187530518e-01 4.485041618347167969e+00 1.398226857185363770e+00 -6.665720790624618530e-02
3.198000000000000000e+03 2.006708717346191406e+01 -1.498631596565246582e+00 4.635345935821533203e+00 2.526936292648315430e+00 2.148684740066528320e+00 1.657567143440246582e+00
3.199000000000000000e+03 1.955404472351074219e+01 -2.624359369277954102e+00 4.548294544219970703e+00 2.477778434753417969e+00 2.107821941375732422e+00 1.274852395057678223e+00
3.200000000000000000e+03 2.050654029846191406e+01 -2.359592437744140625e+00 4.294255256652832031e+00 2.138814926147460938e+00 1.929921030998229980e+00 1.174344062805175781e+00
3.201000000000000000e+03 2.524965286254882812e+01 2.238049656152725220e-01 3.105592727661132812e+00 2.228608608245849609e+00 1.600260376930236816e+00 5.885604619979858398e-01
3.202000000000000000e+03 2.072134780883789062e+01 -5.554139614105224609e-01 4.324337959289550781e+00 2.566316127777099609e+00 2.067196369171142578e+00 1.791039943695068359e+00
3.203000000000000000e+03 2.240711784362792969e+01 -6.488051414489746094e-01 3.798652410507202148e+00 2.108803272247314453e+00 1.772236704826354980e+00 1.198454141616821289e+00
3.204000000000000000e+03 1.522315406799316406e+01 9.071337699890136719e+00 2.853833734989166260e-01 4.447330951690673828e+00 1.419814229011535645e+00 2.904094755649566650e-01
3.205000000000000000e+03 1.492621421813964844e+01 8.604050636291503906e+00 2.642297744750976562e-01 4.497972011566162109e+00 1.428660511970520020e+00 2.585000693798065186e-01
3.206000000000000000e+03 2.739844322204589844e+01 -2.604444026947021484e-01 2.646592378616333008e+00 2.327131509780883789e+00 1.492117166519165039e+00 -7.845024578273296356e-03
3.207000000000000000e+03 2.823764228820800781e+01 -1.369558095932006836e+00 2.271637439727783203e+00 2.282326221466064453e+00 1.366189122200012207e+00 -4.208682775497436523e-01
3.208000000000000000e+03 2.733476257324218750e+01 3.106202840805053711e+00 2.742220640182495117e+00 3.091188669204711914e+00 1.750022768974304199e+00 5.333942770957946777e-01
3.209000000000000000e+03 2.433038330078125000e+01 6.765609741210937500e+00 2.277302026748657227e+00 3.798169851303100586e+00 1.822641611099243164e+00 1.179003477096557617e+00
3.210000000000000000e+03 1.583697795867919922e+01 1.051130676269531250e+01 3.356878161430358887e-01 4.235220432281494141e+00 1.371272444725036621e+00 2.721819877624511719e-01
3.211000000000000000e+03 2.243234252929687500e+01 1.268376159667968750e+01 1.121810317039489746e+00 4.283543109893798828e+00 1.621605992317199707e+00 5.232713818550109863e-01
3.212000000000000000e+03 2.341672706604003906e+01 9.170152664184570312e+00 1.738472580909729004e+00 4.144017219543457031e+00 1.764746904373168945e+00 9.969013333320617676e-01
3.213000000000000000e+03 2.476456069946289062e+01 1.018555545806884766e+01 1.753606677055358887e+00 4.186363697052001953e+00 1.781991124153137207e+00 7.634255886077880859e-01
3.214000000000000000e+03 1.885109519958496094e+01 1.325968933105468750e+01 5.752187967300415039e-01 4.159674167633056641e+00 1.420467972755432129e+00 3.158021569252014160e-01
3.215000000000000000e+03 1.742207527160644531e+01 1.139890575408935547e+01 4.945215582847595215e-01 4.268714427947998047e+00 1.428970813751220703e+00 4.092507064342498779e-01
3.216000000000000000e+03 2.446688461303710938e+01 7.871869564056396484e+00 2.090618371963500977e+00 3.952044010162353516e+00 1.812798738479614258e+00 1.054328799247741699e+00
3.217000000000000000e+03 2.205382728576660156e+01 1.492390251159667969e+01 8.387305140495300293e-01 4.257469177246093750e+00 1.528859972953796387e+00 2.559390962123870850e-01
3.218000000000000000e+03 2.127101135253906250e+01 1.259965801239013672e+01 9.634580016136169434e-01 4.277477264404296875e+00 1.572280645370483398e+00 5.394104123115539551e-01
3.219000000000000000e+03 2.035625648498535156e+01 1.547872257232666016e+01 6.038877964019775391e-01 4.139779567718505859e+00 1.423100233078002930e+00 1.459750533103942871e-01
3.220000000000000000e+03 1.911251449584960938e+01 1.807739830017089844e+01 3.288050293922424316e-01 3.921668529510498047e+00 1.275142073631286621e+00 -1.321281492710113525e-01
3.221000000000000000e+03 2.160624122619628906e+01 1.476477831602096558e-02 3.988874197006225586e+00 2.502988100051879883e+00 1.947558641433715820e+00 1.660448431968688965e+00
3.222000000000000000e+03 2.536562347412109375e+01 6.514692783355712891e+00 2.395359516143798828e+00 3.710864305496215820e+00 1.831867098808288574e+00 1.024819254875183105e+00
3.223000000000000000e+03 2.556743812561035156e+01 1.920900344848632812e+01 7.129673361778259277e-01 4.570589542388916016e+00 1.585067033767700195e+00 -1.589401960372924805e-01
3.224000000000000000e+03 2.106348037719726562e+01 1.721883773803710938e+01 5.578309297561645508e-01 4.147832393646240234e+00 1.411699056625366211e+00 -1.108433771878480911e-02
3.225000000000000000e+03 2.020048141479492188e+01 2.018918037414550781e+01 2.738134860992431641e-01 3.985946893692016602e+00 1.277928113937377930e+00 -2.288739681243896484e-01
3.226000000000000000e+03 2.837464714050292969e+01 2.057600021362304688e+00 2.636222600936889648e+00 2.987207174301147461e+00 1.687028884887695312e+00 1.701638847589492798e-01
3.227000000000000000e+03 2.738253593444824219e+01 1.915575981140136719e+01 8.222504258155822754e-01 4.790339946746826172e+00 1.683777093887329102e+00 -1.770167201757431030e-01
3.228000000000000000e+03 2.968255996704101562e+01 -1.541702628135681152e+00 1.970055580139160156e+00 2.581314325332641602e+00 1.365411043167114258e+00 -7.330223917961120605e-01
3.229000000000000000e+03 2.947593498229980469e+01 -3.408958315849304199e-01 2.215458393096923828e+00 2.744906187057495117e+00 1.488109350204467773e+00 -4.490451812744140625e-01
3.230000000000000000e+03 2.192987060546875000e+01 2.066067886352539062e+01 3.339996635913848877e-01 4.199150562286376953e+00 1.359945058822631836e+00 -2.362074106931686401e-01
3.231000000000000000e+03 1.866458511352539062e+01 2.536921882629394531e+01 -8.487494289875030518e-02 3.740136623382568359e+00 1.096578478813171387e+00 -4.311183393001556396e-01
3.232000000000000000e+03 1.740443038940429688e+01 2.905912780761718750e+01 -2.600486874580383301e-01 3.490868091583251953e+00 9.692458510398864746e-01 -4.042205214500427246e-01
3.233000000000000000e+03 1.772323036193847656e+01 2.651109886169433594e+01 -1.346432119607925415e-01 3.577576875686645508e+00 1.032880187034606934e+00 -4.356276094913482666e-01
3.234000000000000000e+03 1.818663024902343750e+01 -1.956069841980934143e-02 5.043762683868408203e+00 4.250362396240234375e+00 2.788237571716308594e+00 2.987781763076782227e+00
3.235000000000000000e+03 1.717574119567871094e+01 1.861048579216003418e+00 3.132951498031616211e+00 6.007141590118408203e+00 2.742027759552001953e+00 3.353253126144409180e+00
3.236000000000000000e+03 1.853155517578125000e+01 -8.455403447151184082e-01 5.303979873657226562e+00 3.630314826965332031e+00 2.680288314819335938e+00 2.482947349548339844e+00
3.237000000000000000e+03 1.785878944396972656e+01 -1.555535435676574707e+00 5.850622177124023438e+00 3.934451818466186523e+00 2.935522079467773438e+00 2.263622283935546875e+00
3.238000000000000000e+03 1.820937538146972656e+01 7.121959924697875977e-01 4.456963062286376953e+00 4.560694217681884766e+00 2.705297231674194336e+00 3.161497354507446289e+00
3.239000000000000000e+03 2.014877510070800781e+01 -1.949144601821899414e+00 4.480179309844970703e+00 2.328520059585571289e+00 2.042609930038452148e+00 1.400800228118896484e+00
3.240000000000000000e+03 1.765882682800292969e+01 -6.330903768539428711e-01 5.744369029998779297e+00 4.424437046051025391e+00 3.050641775131225586e+00 2.949007272720336914e+00
3.241000000000000000e+03 1.688551139831542969e+01 2.362076044082641602e+00 2.496347427368164062e+00 6.351917743682861328e+00 2.654479503631591797e+00 3.137341260910034180e+00
3.242000000000000000e+03 1.778989601135253906e+01 1.485742330551147461e+00 3.717051506042480469e+00 5.258923530578613281e+00 2.692792415618896484e+00 3.310974121093750000e+00
3.243000000000000000e+03 1.326163959503173828e+01 6.380556106567382812e+00 1.553826779127120972e-01 4.625082492828369141e+00 1.434139490127563477e+00 -2.020533084869384766e-01
3.244000000000000000e+03 1.953065872192382812e+01 -2.084550857543945312e+00 4.739034652709960938e+00 2.619162797927856445e+00 2.207459211349487305e+00 1.522020220756530762e+00
3.245000000000000000e+03 1.392909240722656250e+01 8.339614868164062500e+00 1.959762573242187500e-01 4.325407505035400391e+00 1.356415152549743652e+00 4.086790140718221664e-03
3.246000000000000000e+03 1.461893367767333984e+01 7.676661968231201172e+00 2.333626449108123779e-01 4.706134319305419922e+00 1.481849074363708496e+00 2.309279888868331909e-01
3.247000000000000000e+03 1.431988334655761719e+01 8.268921852111816406e+00 2.092200815677642822e-01 4.474047183990478516e+00 1.404980182647705078e+00 1.036078631877899170e-01
3.248000000000000000e+03 1.731021499633789062e+01 2.310425281524658203e+00 2.745025873184204102e+00 5.949316024780273438e+00 2.608302593231201172e+00 3.159191608428955078e+00
3.249000000000000000e+03 2.055969047546386719e+01 -1.592492818832397461e+00 4.365093231201171875e+00 2.282442331314086914e+00 1.994260668754577637e+00 1.429432153701782227e+00
3.250000000000000000e+03 1.860037040710449219e+01 -4.370839893817901611e-01 5.149061203002929688e+00 3.749669790267944336e+00 2.669619321823120117e+00 2.662591695785522461e+00
3.251000000000000000e+03 2.254300117492675781e+01 7.083357125520706177e-02 3.738379716873168945e+00 2.304804563522338867e+00 1.812955260276794434e+00 1.340849757194519043e+00
3.252000000000000000e+03 2.216347694396972656e+01 -2.240871340036392212e-01 3.856949090957641602e+00 2.294158935546875000e+00 1.845332503318786621e+00 1.396487832069396973e+00
3.253000000000000000e+03 2.071386337280273438e+01 -1.088474273681640625e+00 4.347601890563964844e+00 2.366729736328125000e+00 2.014299392700195312e+00 1.590099811553955078e+00
3.254000000000000000e+03 2.411424064636230469e+01 6.565854698419570923e-02 3.369527101516723633e+00 2.144337177276611328e+00 1.654159307479858398e+00 8.717619180679321289e-01
3.255000000000000000e+03 1.471918201446533203e+01 8.169591903686523438e+00 2.333088219165802002e-01 4.571168422698974609e+00 1.441343069076538086e+00 2.206788212060928345e-01
3.256000000000000000e+03 1.473621368408203125e+01 9.448407173156738281e+00 2.373440265655517578e-01 4.238767623901367188e+00 1.342833518981933594e+00 1.276702880859375000e-01
3.257000000000000000e+03 2.733467674255371094e+01 8.799025416374206543e-01 2.747571945190429688e+00 2.579778909683227539e+00 1.598205208778381348e+00 2.046201676130294800e-01
3.258000000000000000e+03 2.461479949951171875e+01 2.631506919860839844e-01 3.250149965286254883e+00 2.222250699996948242e+00 1.641720175743103027e+00 7.740392684936523438e-01
3.259000000000000000e+03 2.461051750183105469e+01 9.011363029479980469e+00 1.917709231376647949e+00 4.073534965515136719e+00 1.797373294830322266e+00 9.144714474678039551e-01
3.260000000000000000e+03 2.230969619750976562e+01 1.380300903320312500e+01 9.892885684967041016e-01 4.287292957305908203e+00 1.582974433898925781e+00 3.846026360988616943e-01
3.261000000000000000e+03 1.881869697570800781e+01 1.074070835113525391e+01 7.459991574287414551e-01 4.389164447784423828e+00 1.540549039840698242e+00 6.693029403686523438e-01
3.262000000000000000e+03 1.658937072753906250e+01 1.096896457672119141e+01 4.105015695095062256e-01 4.240715026855468750e+00 1.395364999771118164e+00 3.451188206672668457e-01
3.263000000000000000e+03 1.702588462829589844e+01 1.008772754669189453e+01 4.999969303607940674e-01 4.441877841949462891e+00 1.482562422752380371e+00 5.425382852554321289e-01
3.264000000000000000e+03 1.994604682922363281e+01 1.345465469360351562e+01 6.908201575279235840e-01 4.206073284149169922e+00 1.469067931175231934e+00 3.678048849105834961e-01
3.265000000000000000e+03 2.062691116333007812e+01 1.862889289855957031e+01 3.967661857604980469e-01 4.087895870208740234e+00 1.345398664474487305e+00 -1.218590363860130310e-01
3.266000000000000000e+03 2.593775177001953125e+01 4.179971694946289062e+00 2.743332147598266602e+00 3.227139949798583984e+00 1.791141629219055176e+00 8.945101499557495117e-01
3.267000000000000000e+03 2.580487251281738281e+01 3.312123537063598633e+00 2.842586755752563477e+00 3.032653808593750000e+00 1.762572169303894043e+00 8.588806390762329102e-01
3.268000000000000000e+03 2.293318176269531250e+01 1.653680419921875000e+01 7.938632369041442871e-01 4.311038970947265625e+00 1.531470656394958496e+00 8.230534195899963379e-02
3.269000000000000000e+03 2.384114456176757812e+01 1.919873046875000000e+01 6.052780747413635254e-01 4.406697273254394531e+00 1.503592610359191895e+00 -1.377936452627182007e-01
3.270000000000000000e+03 2.245389556884765625e+01 6.237609982490539551e-01 3.699063062667846680e+00 2.533546924591064453e+00 1.869783043861389160e+00 1.528648138046264648e+00
3.271000000000000000e+03 2.516741943359375000e+01 5.428378582000732422e+00 2.566457033157348633e+00 3.511980295181274414e+00 1.823531150817871094e+00 1.102679967880249023e+00
3.272000000000000000e+03 2.348999786376953125e+01 2.292832374572753906e+01 2.180464714765548706e-01 4.370978355407714844e+00 1.376707434654235840e+00 -3.423562347888946533e-01
3.273000000000000000e+03 2.527341079711914062e+01 1.123484611511230469e+00 3.117111682891845703e+00 2.459640264511108398e+00 1.673025608062744141e+00 7.599323391914367676e-01
3.274000000000000000e+03 2.915713119506835938e+01 1.896785926818847656e+01 9.476731419563293457e-01 4.986004829406738281e+00 1.780103445053100586e+00 -2.065239995718002319e-01
3.275000000000000000e+03 2.219325828552246094e+01 2.764679145812988281e+01 -1.872095167636871338e-01 4.185210704803466797e+00 1.199400424957275391e+00 -4.381982684135437012e-01
3.276000000000000000e+03 1.979668426513671875e+01 1.457507419586181641e+01 6.071485877037048340e-01 4.128516197204589844e+00 1.420699357986450195e+00 2.159668356180191040e-01
3.277000000000000000e+03 1.820253562927246094e+01 3.419611454010009766e-01 4.768991470336914062e+00 4.394657135009765625e+00 2.749094486236572266e+00 3.104560613632202148e+00
3.278000000000000000e+03 1.842408943176269531e+01 -1.250918030738830566e+00 5.474037647247314453e+00 3.610905170440673828e+00 2.725482940673828125e+00 2.281342744827270508e+00
3.279000000000000000e+03 1.862014007568359375e+01 7.063448429107666016e-01 4.418083667755126953e+00 4.233306407928466797e+00 2.595417022705078125e+00 2.987600564956665039e+00
3.280000000000000000e+03 1.777408790588378906e+01 2.199201345443725586e+00 3.049177169799804688e+00 5.470351219177246094e+00 2.555858612060546875e+00 3.135334253311157227e+00
3.281000000000000000e+03 1.483643341064453125e+01 4.667510032653808594e+00 3.200884163379669189e-01 6.208561897277832031e+00 1.958595037460327148e+00 8.548055887222290039e-01
3.282000000000000000e+03 1.450957775115966797e+01 5.658816814422607422e+00 2.113669365644454956e-01 5.576442718505859375e+00 1.736342906951904297e+00 4.467866718769073486e-01
3.283000000000000000e+03 1.552555370330810547e+01 4.068011760711669922e+00 6.715088486671447754e-01 6.596547126770019531e+00 2.180416822433471680e+00 1.547973394393920898e+00
3.284000000000000000e+03 1.619145393371582031e+01 3.266581773757934570e+00 1.369954466819763184e+00 6.766888141632080078e+00 2.441052675247192383e+00 2.408470153808593750e+00
3.285000000000000000e+03 1.556087303161621094e+01 3.249307632446289062e+00 9.931778907775878906e-01 7.145902156829833984e+00 2.441724061965942383e+00 2.062678813934326172e+00
3.286000000000000000e+03 1.757304763793945312e+01 1.763484835624694824e+00 3.390235662460327148e+00 5.555490016937255859e+00 2.683717727661132812e+00 3.308419942855834961e+00
3.287000000000000000e+03 1.861811637878417969e+01 3.303103148937225342e-01 4.654933929443359375e+00 4.070519924163818359e+00 2.617636203765869141e+00 2.904138565063476562e+00
3.288000000000000000e+03 1.510330200195312500e+01 7.645093917846679688e+00 3.008340597152709961e-01 4.824471950531005859e+00 1.537591695785522461e+00 4.229856133460998535e-01
3.289000000000000000e+03 1.893029975891113281e+01 -1.411168694496154785e+00 5.158314704895019531e+00 3.132510900497436523e+00 2.487247705459594727e+00 2.026334762573242188e+00
3.290000000000000000e+03 2.123982620239257812e+01 -5.334408879280090332e-01 4.162014007568359375e+00 2.411489486694335938e+00 1.972051024436950684e+00 1.622199177742004395e+00
3.291000000000000000e+03 2.328851127624511719e+01 1.770351380109786987e-01 3.559546232223510742e+00 2.251747131347656250e+00 1.743388056755065918e+00 1.161187291145324707e+00
3.292000000000000000e+03 2.119266700744628906e+01 3.869540393352508545e-01 4.028797149658203125e+00 2.740509510040283203e+00 2.030791997909545898e+00 1.896741271018981934e+00
3.293000000000000000e+03 2.172697830200195312e+01 -4.193350076675415039e-01 3.993141174316406250e+00 2.311635255813598633e+00 1.891432881355285645e+00 1.481020212173461914e+00
3.294000000000000000e+03 1.958323860168457031e+01 -9.816525578498840332e-01 4.848166942596435547e+00 2.938621997833251953e+00 2.336036682128906250e+00 2.034357309341430664e+00
3.295000000000000000e+03 2.190571212768554688e+01 3.905915975570678711e+00 2.794771194458007812e+00 3.645931959152221680e+00 1.932211041450500488e+00 1.878353953361511230e+00
3.296000000000000000e+03 1.575382709503173828e+01 8.923949241638183594e+00 3.492134809494018555e-01 4.568069934844970703e+00 1.475184917449951172e+00 4.345849752426147461e-01
3.297000000000000000e+03 2.639866256713867188e+01 2.131842851638793945e+00 2.904321432113647461e+00 2.769244194030761719e+00 1.702069640159606934e+00 6.358567476272583008e-01
3.298000000000000000e+03 2.555070304870605469e+01 2.567336082458496094e+00 2.986522912979125977e+00 2.800167322158813477e+00 1.736007094383239746e+00 8.814160823822021484e-01
3.299000000000000000e+03 2.434448242187500000e+01 2.983917951583862305e+00 3.015593290328979492e+00 2.999810695648193359e+00 1.804621219635009766e+00 1.246702075004577637e+00
3.300000000000000000e+03 1.624466514587402344e+01 9.780113220214843750e+00 3.982516229152679443e-01 4.421070575714111328e+00 1.445796608924865723e+00 4.347672462463378906e-01
3.301000000000000000e+03 1.521860313415527344e+01 1.001524353027343750e+01 2.784354984760284424e-01 4.223064899444580078e+00 1.350450038909912109e+00 2.043402493000030518e-01
3.302000000000000000e+03 2.087319374084472656e+01 1.459034538269042969e+01 7.549204230308532715e-01 4.224768638610839844e+00 1.493906736373901367e+00 2.730370759963989258e-01
3.303000000000000000e+03 2.108284187316894531e+01 1.360513114929199219e+01 8.418428897857666016e-01 4.244109153747558594e+00 1.525785684585571289e+00 3.849012553691864014e-01
3.304000000000000000e+03 2.242292594909667969e+01 1.155146312713623047e+01 1.243234515190124512e+00 4.275381565093994141e+00 1.655584812164306641e+00 6.832950711250305176e-01
3.305000000000000000e+03 2.351346015930175781e+01 1.030499076843261719e+01 1.584335088729858398e+00 4.210933208465576172e+00 1.738580465316772461e+00 8.444225192070007324e-01
3.306000000000000000e+03 2.419294357299804688e+01 5.696488380432128906e+00 2.483644962310791016e+00 3.625701427459716797e+00 1.832803845405578613e+00 1.276458024978637695e+00
3.307000000000000000e+03 1.931902313232421875e+01 9.706189155578613281e+00 9.439207315444946289e-01 4.473659515380859375e+00 1.625274062156677246e+00 9.231515526771545410e-01
3.308000000000000000e+03 1.790009498596191406e+01 1.040367412567138672e+01 6.271412372589111328e-01 4.415662765502929688e+00 1.512841224670410156e+00 6.228744387626647949e-01
3.309000000000000000e+03 2.331061744689941406e+01 6.981782913208007812e+00 2.133580923080444336e+00 3.929368972778320312e+00 1.818884968757629395e+00 1.309491634368896484e+00
3.310000000000000000e+03 2.323865127563476562e+01 5.962221622467041016e+00 2.356347084045410156e+00 3.774903059005737305e+00 1.839375019073486328e+00 1.433170199394226074e+00
3.311000000000000000e+03 2.159195327758789062e+01 1.602213287353515625e+01 7.010152935981750488e-01 4.221703529357910156e+00 1.476815700531005859e+00 1.240556612610816956e-01
3.312000000000000000e+03 2.220753097534179688e+01 1.903691101074218750e+01 4.960795044898986816e-01 4.219491958618164062e+00 1.414671421051025391e+00 -1.261069774627685547e-01
3.313000000000000000e+03 2.565827941894531250e+01 2.115401840209960938e+01 4.979684650897979736e-01 4.613648414611816406e+00 1.533485054969787598e+00 -2.659099102020263672e-01
3.314000000000000000e+03 1.363503360748291016e+01 5.857132434844970703e+00 1.428795754909515381e-01 5.066166400909423828e+00 1.562713742256164551e+00 -4.265385121107101440e-02
3.315000000000000000e+03 1.397124862670898438e+01 5.044373512268066406e+00 1.420984268188476562e-01 5.747555255889892578e+00 1.766896128654479980e+00 1.958048194646835327e-01
3.316000000000000000e+03 1.461856460571289062e+01 5.021242141723632812e+00 2.681069076061248779e-01 5.960730552673339844e+00 1.868651151657104492e+00 6.586762666702270508e-01
3.317000000000000000e+03 1.418357753753662109e+01 7.750833988189697266e+00 1.928171515464782715e-01 4.572462558746337891e+00 1.429583907127380371e+00 9.371322393417358398e-02
3.318000000000000000e+03 1.829196739196777344e+01 -1.620856046676635742e+00 5.528157711029052734e+00 3.570634603500366211e+00 2.729637622833251953e+00 2.088312864303588867e+00
3.319000000000000000e+03 2.019272232055664062e+01 -5.146753787994384766e-01 4.511492252349853516e+00 2.788621187210083008e+00 2.190033912658691406e+00 2.002593755722045898e+00
3.320000000000000000e+03 1.355553817749023438e+01 5.418838024139404297e+00 1.381780058145523071e-01 5.262784957885742188e+00 1.620288968086242676e+00 -6.849355995655059814e-02
3.321000000000000000e+03 1.550750255584716797e+01 5.263055801391601562e+00 4.833154976367950439e-01 5.919057369232177734e+00 1.920711874961853027e+00 1.095189690589904785e+00
3.322000000000000000e+03 1.821314239501953125e+01 1.109480857849121094e+00 4.137152194976806641e+00 4.722474575042724609e+00 2.657887935638427734e+00 3.194874525070190430e+00
3.323000000000000000e+03 1.561359405517578125e+01 3.586949348449707031e+00 8.905312418937683105e-01 6.863763809204101562e+00 2.326288461685180664e+00 1.866931200027465820e+00
3.324000000000000000e+03 1.387509059906005859e+01 6.764742851257324219e+00 1.711411029100418091e-01 4.806382179260253906e+00 1.493257045745849609e+00 2.848234400153160095e-02
3.325000000000000000e+03 1.824687004089355469e+01 -1.976700425148010254e+00 5.470923900604248047e+00 3.521936178207397461e+00 2.697858095169067383e+00 1.839322090148925781e+00
3.326000000000000000e+03 1.949875831604003906e+01 -1.517255425453186035e+00 4.868147373199462891e+00 2.815782785415649414e+00 2.305178880691528320e+00 1.803276538848876953e+00
3.327000000000000000e+03 2.013499641418457031e+01 -1.020497083663940430e+00 4.613281726837158203e+00 2.657683849334716797e+00 2.181289672851562500e+00 1.826253294944763184e+00
3.328000000000000000e+03 2.040908241271972656e+01 5.608492493629455566e-01 4.150041580200195312e+00 3.112064361572265625e+00 2.178631782531738281e+00 2.229669332504272461e+00
3.329000000000000000e+03 2.228412437438964844e+01 3.368105292320251465e-01 3.754584550857543945e+00 2.473921537399291992e+00 1.868551850318908691e+00 1.500904917716979980e+00
3.330000000000000000e+03 2.380596351623535156e+01 6.404830217361450195e-01 3.419306039810180664e+00 2.342955827713012695e+00 1.728678584098815918e+00 1.091554641723632812e+00
3.331000000000000000e+03 2.067057800292968750e+01 1.053707003593444824e+00 3.892321586608886719e+00 3.199234247207641602e+00 2.127466678619384766e+00 2.213296413421630859e+00
3.332000000000000000e+03 2.197769927978515625e+01 1.477241069078445435e-01 3.865877628326416016e+00 2.453064203262329102e+00 1.895682573318481445e+00 1.555007100105285645e+00
3.333000000000000000e+03 1.570712947845458984e+01 8.278922080993652344e+00 3.650047183036804199e-01 4.720642089843750000e+00 1.525694131851196289e+00 5.110638141632080078e-01
3.334000000000000000e+03 1.515012454986572266e+01 8.192268371582031250e+00 2.901150286197662354e-01 4.654824256896972656e+00 1.483481764793395996e+00 3.627831935882568359e-01
3.335000000000000000e+03 1.645773124694824219e+01 9.023009300231933594e+00 4.599649310111999512e-01 4.626763820648193359e+00 1.526018500328063965e+00 6.050745248794555664e-01
3.336000000000000000e+03 1.731087684631347656e+01 9.207255363464355469e+00 5.928951501846313477e-01 4.605433464050292969e+00 1.559498548507690430e+00 7.366318106651306152e-01
3.337000000000000000e+03 2.492098045349121094e+01 2.060901165008544922e+00 3.092526197433471680e+00 2.679228782653808594e+00 1.731526494026184082e+00 9.657445549964904785e-01
3.338000000000000000e+03 2.232279396057128906e+01 7.124988555908203125e+00 1.968798875808715820e+00 4.079591274261474609e+00 1.814517021179199219e+00 1.409930825233459473e+00
3.339000000000000000e+03 2.336204338073730469e+01 8.058708190917968750e+00 1.920743584632873535e+00 4.049279689788818359e+00 1.791007041931152344e+00 1.161767840385437012e+00
3.340000000000000000e+03 2.232615852355957031e+01 6.163411617279052734e+00 2.196922540664672852e+00 3.967320203781127930e+00 1.849272847175598145e+00 1.558299422264099121e+00
3.341000000000000000e+03 2.285102844238281250e+01 5.188806653022766113e-01 3.610860586166381836e+00 2.418710708618164062e+00 1.808871388435363770e+00 1.347892642021179199e+00
3.342000000000000000e+03 1.639171218872070312e+01 8.272938728332519531e+00 4.820488393306732178e-01 4.789700508117675781e+00 1.581524729728698730e+00 7.078278660774230957e-01
3.343000000000000000e+03 2.505046463012695312e+01 3.358982801437377930e+00 2.920463562011718750e+00 3.031188249588012695e+00 1.785495519638061523e+00 1.100147604942321777e+00
3.344000000000000000e+03 2.401797103881835938e+01 4.636449813842773438e+00 2.704922199249267578e+00 3.410572052001953125e+00 1.834648251533508301e+00 1.357232689857482910e+00
3.345000000000000000e+03 2.226048660278320312e+01 8.162374496459960938e+00 1.733343958854675293e+00 4.182479381561279297e+00 1.774746894836425781e+00 1.244412541389465332e+00
3.346000000000000000e+03 1.924901580810546875e+01 1.214616584777832031e+01 6.973939538002014160e-01 4.271051406860351562e+00 1.490533590316772461e+00 4.965202808380126953e-01
3.347000000000000000e+03 2.265561485290527344e+01 2.542268037796020508e+00 3.223974466323852539e+00 3.089376211166381836e+00 1.894005298614501953e+00 1.696742534637451172e+00
3.348000000000000000e+03 2.054460144042968750e+01 1.150022220611572266e+01 9.495685100555419922e-01 4.323078155517578125e+00 1.581794023513793945e+00 6.854851245880126953e-01
3.349000000000000000e+03 2.374341011047363281e+01 2.098432922363281250e+01 4.133259356021881104e-01 4.382210254669189453e+00 1.438660860061645508e+00 -2.524509727954864502e-01
3.350000000000000000e+03 3.142523956298828125e+01 2.028997230529785156e+01 8.286404609680175781e-01 5.338473320007324219e+00 1.850134015083312988e+00 -2.653127908706665039e-01
3.351000000000000000e+03 2.766719818115234375e+01 2.116285705566406250e+01 5.950139760971069336e-01 4.833312034606933594e+00 1.628497838973999023e+00 -2.850340902805328369e-01
3.352000000000000000e+03 2.558928871154785156e+01 2.326880645751953125e+01 2.577478885650634766e-01 4.584978103637695312e+00 1.452817916870117188e+00 -3.489817976951599121e-01
3.353000000000000000e+03 1.937043762207031250e+01 1.799026727676391602e-01 4.580914974212646484e+00 3.499309778213500977e+00 2.424067497253417969e+00 2.553462505340576172e+00
3.354000000000000000e+03 1.696714019775390625e+01 2.864002943038940430e+00 2.117718458175659180e+00 6.245399475097656250e+00 2.508935451507568359e+00 2.864974260330200195e+00
3.355000000000000000e+03 1.820560646057128906e+01 1.565288901329040527e+00 3.703520298004150391e+00 4.924362182617187500e+00 2.588364601135253906e+00 3.171805143356323242e+00
3.356000000000000000e+03 1.420608043670654297e+01 6.218368530273437500e+00 1.807622462511062622e-01 5.176495552062988281e+00 1.607177257537841797e+00 2.106651663780212402e-01
3.357000000000000000e+03 1.904741096496582031e+01 -9.228019714355468750e-01 5.048305988311767578e+00 3.243475198745727539e+00 2.487534284591674805e+00 2.232706069946289062e+00
3.358000000000000000e+03 1.965411186218261719e+01 -4.630231857299804688e-01 4.684630870819091797e+00 3.093075990676879883e+00 2.333312034606933594e+00 2.211030483245849609e+00
3.359000000000000000e+03 1.639063835144042969e+01 3.771595239639282227e+00 1.256432414054870605e+00 6.389708042144775391e+00 2.293842077255249023e+00 2.197309255599975586e+00
3.360000000000000000e+03 1.618920707702636719e+01 7.587525367736816406e+00 4.775261282920837402e-01 4.979362487792968750e+00 1.637066602706909180e+00 7.818940281867980957e-01
3.361000000000000000e+03 1.575751590728759766e+01 4.475977420806884766e+00 6.975083947181701660e-01 6.271609306335449219e+00 2.090735435485839844e+00 1.514520764350891113e+00
3.362000000000000000e+03 2.081652069091796875e+01 4.377182424068450928e-01 4.103113174438476562e+00 2.896803617477416992e+00 2.099974870681762695e+00 2.043108224868774414e+00
3.363000000000000000e+03 2.073974990844726562e+01 -4.694682359695434570e-02 4.232879161834716797e+00 2.742874383926391602e+00 2.092726230621337891e+00 1.942694187164306641e+00
3.364000000000000000e+03 2.154807090759277344e+01 4.139670729637145996e-01 3.933448314666748047e+00 2.659987926483154297e+00 1.978030800819396973e+00 1.783163666725158691e+00
3.365000000000000000e+03 2.348122215270996094e+01 1.331908822059631348e+00 3.403544664382934570e+00 2.566958665847778320e+00 1.791150927543640137e+00 1.308937311172485352e+00
3.366000000000000000e+03 1.563144683837890625e+01 7.635034561157226562e+00 3.782311081886291504e-01 4.922461509704589844e+00 1.590207695960998535e+00 6.049531102180480957e-01
3.367000000000000000e+03 1.498468971252441406e+01 7.107366085052490234e+00 2.863030731678009033e-01 5.006902694702148438e+00 1.587961792945861816e+00 4.516548812389373779e-01
3.368000000000000000e+03 2.416338920593261719e+01 1.699329257011413574e+00 3.244740009307861328e+00 2.617574453353881836e+00 1.758694291114807129e+00 1.141789674758911133e+00
3.369000000000000000e+03 1.828226089477539062e+01 9.416289329528808594e+00 7.662928104400634766e-01 4.561782836914062500e+00 1.598422646522521973e+00 8.627308607101440430e-01
3.370000000000000000e+03 2.147121429443359375e+01 5.469498157501220703e+00 2.256975412368774414e+00 4.058813095092773438e+00 1.894736528396606445e+00 1.783129811286926270e+00
3.371000000000000000e+03 2.216110229492187500e+01 6.077666878700256348e-01 3.785989284515380859e+00 2.573199510574340820e+00 1.907756567001342773e+00 1.624192476272583008e+00
3.372000000000000000e+03 1.986054992675781250e+01 8.750644683837890625e+00 1.160811543464660645e+00 4.497015953063964844e+00 1.697348237037658691e+00 1.144138455390930176e+00
3.373000000000000000e+03 1.697131729125976562e+01 8.079686164855957031e+00 6.072196364402770996e-01 4.818732261657714844e+00 1.627785444259643555e+00 8.679724335670471191e-01
3.374000000000000000e+03 1.752355384826660156e+01 8.427200317382812500e+00 6.916757822036743164e-01 4.744752883911132812e+00 1.630928516387939453e+00 9.205716252326965332e-01
3.375000000000000000e+03 2.310108757019042969e+01 5.022042274475097656e+00 2.574428081512451172e+00 3.629748582839965820e+00 1.861253023147583008e+00 1.551403045654296875e+00
3.376000000000000000e+03 2.037199783325195312e+01 1.014717197418212891e+01 1.103784084320068359e+00 4.373660087585449219e+00 1.643233180046081543e+00 9.049386978149414062e-01
3.377000000000000000e+03 1.972817039489746094e+01 1.111774730682373047e+01 8.513823151588439941e-01 4.348694801330566406e+00 1.560023069381713867e+00 6.812933087348937988e-01
3.378000000000000000e+03 2.223802185058593750e+01 1.042029094696044922e+01 1.359287619590759277e+00 4.275047302246093750e+00 1.690300464630126953e+00 8.700851798057556152e-01
3.379000000000000000e+03 2.003069686889648438e+01 6.271651744842529297e+00 1.710600852966308594e+00 4.517302989959716797e+00 1.868371129035949707e+00 1.725877642631530762e+00
3.380000000000000000e+03 2.215571784973144531e+01 9.279031753540039062e+00 1.519867062568664551e+00 4.244315624237060547e+00 1.729254722595214844e+00 1.055297613143920898e+00
3.381000000000000000e+03 2.524342918395996094e+01 2.561287689208984375e+01 2.195400372147560120e-02 4.556810855865478516e+00 1.373629450798034668e+00 -4.099492728710174561e-01
3.382000000000000000e+03 3.042407226562500000e+01 1.703741073608398438e+01 1.271950364112854004e+00 5.120704650878906250e+00 1.917796492576599121e+00 -1.592555791139602661e-01
3.383000000000000000e+03 1.861719322204589844e+01 -4.672662168741226196e-02 4.906998634338378906e+00 3.886552333831787109e+00 2.638065338134765625e+00 2.786851882934570312e+00
3.384000000000000000e+03 1.903488540649414062e+01 3.273895978927612305e-01 4.572270393371582031e+00 3.776157379150390625e+00 2.504528284072875977e+00 2.728123903274536133e+00
3.385000000000000000e+03 1.395812034606933594e+01 5.399462223052978516e+00 1.435133665800094604e-01 5.475638389587402344e+00 1.685745477676391602e+00 1.369696557521820068e-01
3.386000000000000000e+03 1.862022018432617188e+01 1.100535869598388672e+00 4.107629299163818359e+00 4.402381896972656250e+00 2.553003311157226562e+00 3.025800704956054688e+00
3.387000000000000000e+03 1.700263595581054688e+01 3.426577329635620117e+00 1.753175020217895508e+00 6.113989353179931641e+00 2.360149383544921875e+00 2.553202629089355469e+00
3.388000000000000000e+03 1.602481651306152344e+01 6.980281829833984375e+00 4.822439849376678467e-01 5.165785312652587891e+00 1.694408893585205078e+00 8.588731884956359863e-01
3.389000000000000000e+03 1.449061489105224609e+01 7.168355941772460938e+00 2.185813784599304199e-01 4.867194652557373047e+00 1.525732755661010742e+00 2.468403726816177368e-01
3.390000000000000000e+03 1.585560512542724609e+01 3.564748287200927734e+00 1.079351186752319336e+00 6.774573802947998047e+00 2.356177330017089844e+00 2.089812040328979492e+00
3.391000000000000000e+03 1.483912372589111328e+01 6.591676235198974609e+00 2.621542811393737793e-01 5.202709674835205078e+00 1.639459252357482910e+00 4.702345132827758789e-01
3.392000000000000000e+03 1.791156005859375000e+01 2.743746042251586914e+00 2.635941267013549805e+00 5.433514118194580078e+00 2.420836687088012695e+00 2.916293621063232422e+00
3.393000000000000000e+03 1.750183486938476562e+01 3.377689838409423828e+00 2.032844066619873047e+00 5.743198394775390625e+00 2.332812786102294922e+00 2.641764640808105469e+00
3.394000000000000000e+03 2.025540161132812500e+01 2.216097712516784668e-02 4.362538814544677734e+00 2.975296974182128906e+00 2.201350688934326172e+00 2.154318332672119141e+00
3.395000000000000000e+03 1.874840164184570312e+01 1.982686758041381836e+00 3.445014715194702148e+00 4.616117477416992188e+00 2.418339729309082031e+00 2.930502414703369141e+00
3.396000000000000000e+03 2.125415992736816406e+01 7.731572389602661133e-01 3.936433792114257812e+00 2.837323665618896484e+00 2.032127380371093750e+00 1.951210975646972656e+00
3.397000000000000000e+03 2.244246292114257812e+01 9.938150644302368164e-01 3.643870830535888672e+00 2.620654821395874023e+00 1.879357695579528809e+00 1.584665536880493164e+00
3.398000000000000000e+03 2.288436317443847656e+01 1.098727822303771973e+00 3.537963151931762695e+00 2.576566934585571289e+00 1.834359049797058105e+00 1.452114582061767578e+00
3.399000000000000000e+03 2.365790367126464844e+01 3.741564273834228516e+00 2.900285005569458008e+00 3.246782064437866211e+00 1.844120144844055176e+00 1.450181841850280762e+00
3.400000000000000000e+03 2.225717926025390625e+01 5.298567771911621094e+00 2.415871858596801758e+00 3.843070268630981445e+00 1.877682685852050781e+00 1.677256941795349121e+00
3.401000000000000000e+03 2.211388206481933594e+01 9.432491660118103027e-01 3.726366281509399414e+00 2.706602573394775391e+00 1.929890632629394531e+00 1.714391589164733887e+00
3.402000000000000000e+03 1.911763191223144531e+01 8.184736251831054688e+00 1.085665464401245117e+00 4.619906902313232422e+00 1.711671710014343262e+00 1.215390682220458984e+00
3.403000000000000000e+03 2.092816543579101562e+01 9.142259597778320312e+00 1.318381547927856445e+00 4.355207920074462891e+00 1.702076792716979980e+00 1.087085485458374023e+00
3.404000000000000000e+03 1.706591415405273438e+01 4.014167785644531250e+00 1.477219700813293457e+00 5.938872814178466797e+00 2.224827766418457031e+00 2.271792411804199219e+00
3.405000000000000000e+03 2.122733879089355469e+01 8.114474296569824219e+00 1.566360354423522949e+00 4.317700862884521484e+00 1.765218377113342285e+00 1.304796576499938965e+00
3.406000000000000000e+03 2.140968704223632812e+01 7.159926891326904297e+00 1.798633098602294922e+00 4.246309280395507812e+00 1.813482642173767090e+00 1.481103539466857910e+00
3.407000000000000000e+03 1.894897460937500000e+01 2.466316223144531250e+00 3.116369962692260742e+00 4.610315799713134766e+00 2.318005800247192383e+00 2.785675525665283203e+00
3.408000000000000000e+03 1.837887382507324219e+01 8.511773109436035156e+00 8.708323836326599121e-01 4.673936843872070312e+00 1.663430690765380859e+00 1.043869018554687500e+00
3.409000000000000000e+03 1.746987915039062500e+01 7.846982955932617188e+00 7.857032418251037598e-01 4.847028255462646484e+00 1.689819455146789551e+00 1.059204339981079102e+00
3.410000000000000000e+03 2.315120697021484375e+01 3.087017536163330078e+00 3.071136236190795898e+00 3.149647235870361328e+00 1.866235017776489258e+00 1.578557610511779785e+00
3.411000000000000000e+03 2.156397247314453125e+01 2.245191192626953125e+01 1.816767305135726929e-01 4.129564285278320312e+00 1.293372392654418945e+00 -3.251840472221374512e-01
3.412000000000000000e+03 2.154106140136718750e+01 7.681974172592163086e-01 3.898226022720336914e+00 2.780515432357788086e+00 2.003622531890869141e+00 1.880407929420471191e+00
3.413000000000000000e+03 1.911087989807128906e+01 -4.471946358680725098e-01 4.907156467437744141e+00 3.399000644683837891e+00 2.491847276687622070e+00 2.440387248992919922e+00
3.414000000000000000e+03 1.656374740600585938e+01 6.887845039367675781e+00 6.131388545036315918e-01 5.181242942810058594e+00 1.738314628601074219e+00 1.054486870765686035e+00
3.415000000000000000e+03 1.533272171020507812e+01 4.695803165435791016e+00 4.631893038749694824e-01 6.243094444274902344e+00 2.011885166168212891e+00 1.170269608497619629e+00
3.416000000000000000e+03 1.612889671325683594e+01 4.287592887878417969e+00 9.003563523292541504e-01 6.330554962158203125e+00 2.169273376464843750e+00 1.807246565818786621e+00
3.417000000000000000e+03 1.468235206604003906e+01 6.105097770690917969e+00 2.404984980821609497e-01 5.398515701293945312e+00 1.691704273223876953e+00 4.624135494232177734e-01
3.418000000000000000e+03 2.163074874877929688e+01 1.089015364646911621e+00 3.777489662170410156e+00 2.865279912948608398e+00 1.992830872535705566e+00 1.892085671424865723e+00
3.419000000000000000e+03 1.904263305664062500e+01 6.969875097274780273e-01 4.337198734283447266e+00 3.920951128005981445e+00 2.477444887161254883e+00 2.792653322219848633e+00
3.420000000000000000e+03 1.728790092468261719e+01 7.327859401702880859e+00 7.676684856414794922e-01 5.008107662200927734e+00 1.732732772827148438e+00 1.164599299430847168e+00
3.421000000000000000e+03 1.496381759643554688e+01 5.450704097747802734e+00 3.146052360534667969e-01 5.798461437225341797e+00 1.833920001983642578e+00 7.480918765068054199e-01
3.422000000000000000e+03 1.657603645324707031e+01 4.153563976287841797e+00 1.194408774375915527e+00 6.171165466308593750e+00 2.209672212600708008e+00 2.073591709136962891e+00
3.423000000000000000e+03 1.801519584655761719e+01 3.299074172973632812e+00 2.326141119003295898e+00 5.382030010223388672e+00 2.312451362609863281e+00 2.704206705093383789e+00
3.424000000000000000e+03 1.741922760009765625e+01 2.823117733001708984e+00 2.387544631958007812e+00 5.849714279174804688e+00 2.471177816390991211e+00 2.915844440460205078e+00
3.425000000000000000e+03 1.915507698059082031e+01 1.826258659362792969e+00 3.578475952148437500e+00 4.269351482391357422e+00 2.354348182678222656e+00 2.800873279571533203e+00
3.426000000000000000e+03 2.132161140441894531e+01 1.561466217041015625e+00 3.633731126785278320e+00 3.133988380432128906e+00 2.030315876007080078e+00 2.045083045959472656e+00
3.427000000000000000e+03 2.311813354492187500e+01 2.006435632705688477e+00 3.334828615188598633e+00 2.838041782379150391e+00 1.851861119270324707e+00 1.519101619720458984e+00
3.428000000000000000e+03 2.055872917175292969e+01 1.628415822982788086e+00 3.688995838165283203e+00 3.446825981140136719e+00 2.140746593475341797e+00 2.317630529403686523e+00
3.429000000000000000e+03 1.812382698059082031e+01 3.849482297897338867e+00 2.023417949676513672e+00 5.306530475616455078e+00 2.198984622955322266e+00 2.463335037231445312e+00
3.430000000000000000e+03 2.371023368835449219e+01 2.455612421035766602e+00 3.169686555862426758e+00 2.890952348709106445e+00 1.818191647529602051e+00 1.385167360305786133e+00
3.431000000000000000e+03 1.673664093017578125e+01 7.471112728118896484e+00 6.133680343627929688e-01 4.995312690734863281e+00 1.682604312896728516e+00 9.595411419868469238e-01
3.432000000000000000e+03 2.148206138610839844e+01 6.270498752593994141e+00 2.036401271820068359e+00 4.152281761169433594e+00 1.856604933738708496e+00 1.643523931503295898e+00
3.433000000000000000e+03 1.997938728332519531e+01 2.207260370254516602e+00 3.435037851333618164e+00 3.902376890182495117e+00 2.201224327087402344e+00 2.533754348754882812e+00
3.434000000000000000e+03 1.785344123840332031e+01 7.457930088043212891e+00 8.866463899612426758e-01 4.927139759063720703e+00 1.744135856628417969e+00 1.237461209297180176e+00
3.435000000000000000e+03 2.115447425842285156e+01 1.077480888366699219e+01 1.158106684684753418e+00 4.310068130493164062e+00 1.640452504158020020e+00 8.206108212471008301e-01
3.436000000000000000e+03 2.286101341247558594e+01 4.219976902008056641e+00 2.752713680267333984e+00 3.509147644042968750e+00 1.878558397293090820e+00 1.638539195060729980e+00
3.437000000000000000e+03 2.211280822753906250e+01 4.549360752105712891e+00 2.621786117553710938e+00 3.730130195617675781e+00 1.905574917793273926e+00 1.787172436714172363e+00
3.438000000000000000e+03 1.844774246215820312e+01 2.652589559555053711e+00 2.867849588394165039e+00 5.016449928283691406e+00 2.365289926528930664e+00 2.865618944168090820e+00
3.439000000000000000e+03 2.253171157836914062e+01 3.556493997573852539e+00 2.937307357788085938e+00 3.399504184722900391e+00 1.901043534278869629e+00 1.737985372543334961e+00
3.440000000000000000e+03 1.850155639648437500e+01 7.743348598480224609e+00 1.008527278900146484e+00 4.786178112030029297e+00 1.738411664962768555e+00 1.269237399101257324e+00
3.441000000000000000e+03 1.943249130249023438e+01 7.695695757865905762e-01 4.221720218658447266e+00 3.692804574966430664e+00 2.374357461929321289e+00 2.641968250274658203e+00
3.442000000000000000e+03 1.713358116149902344e+01 6.767038345336914062e+00 7.827840447425842285e-01 5.156398296356201172e+00 1.781754732131958008e+00 1.252108335494995117e+00
3.443000000000000000e+03 1.966496467590332031e+01 4.617926776409149170e-01 4.332478046417236328e+00 3.419157743453979492e+00 2.325490713119506836e+00 2.487742424011230469e+00
3.444000000000000000e+03 1.904222488403320312e+01 1.453413367271423340e+00 3.844858884811401367e+00 4.228902816772460938e+00 2.422128438949584961e+00 2.865095615386962891e+00
3.445000000000000000e+03 1.759053421020507812e+01 3.938929796218872070e+00 1.771112322807312012e+00 5.638309955596923828e+00 2.222826719284057617e+00 2.411188840866088867e+00
3.446000000000000000e+03 1.576833057403564453e+01 3.844645977020263672e+00 8.844661116600036621e-01 6.617061614990234375e+00 2.250458240509033203e+00 1.824994206428527832e+00
3.447000000000000000e+03 1.677697563171386719e+01 5.675257205963134766e+00 8.387386202812194824e-01 5.565586090087890625e+00 1.921297430992126465e+00 1.495820403099060059e+00
3.448000000000000000e+03 1.613525962829589844e+01 4.698842048645019531e+00 7.893339395523071289e-01 6.110508918762207031e+00 2.069952964782714844e+00 1.605613112449645996e+00
3.449000000000000000e+03 2.216986656188964844e+01 2.040603160858154297e+00 3.414138793945312500e+00 3.041286230087280273e+00 1.936627507209777832e+00 1.819230556488037109e+00
3.450000000000000000e+03 2.088364028930664062e+01 3.254305601119995117e+00 2.954263448715209961e+00 3.822424411773681641e+00 2.033006429672241211e+00 2.189456939697265625e+00
3.451000000000000000e+03 1.853748512268066406e+01 3.212822914123535156e+00 2.556616544723510742e+00 5.024990558624267578e+00 2.274482250213623047e+00 2.694393157958984375e+00
3.452000000000000000e+03 1.902241134643554688e+01 3.365365266799926758e+00 2.590900897979736328e+00 4.750608921051025391e+00 2.202452898025512695e+00 2.577495336532592773e+00
3.453000000000000000e+03 2.060817718505859375e+01 7.087994575500488281e+00 1.657490134239196777e+00 4.400957584381103516e+00 1.817534327507019043e+00 1.537289738655090332e+00
3.454000000000000000e+03 2.260036468505859375e+01 1.634102106094360352e+00 3.469074487686157227e+00 2.801167249679565430e+00 1.881072521209716797e+00 1.629598975181579590e+00
3.455000000000000000e+03 2.034062004089355469e+01 7.904145717620849609e+00 1.412423133850097656e+00 4.455551147460937500e+00 1.760392308235168457e+00 1.343355774879455566e+00
3.456000000000000000e+03 2.071941566467285156e+01 6.292324066162109375e+00 1.874623179435729980e+00 4.340496063232421875e+00 1.864535689353942871e+00 1.699156165122985840e+00
3.457000000000000000e+03 2.140074348449707031e+01 4.762414455413818359e+00 2.464257955551147461e+00 3.965186357498168945e+00 1.928833246231079102e+00 1.899258971214294434e+00
3.458000000000000000e+03 1.967885780334472656e+01 1.024369239807128906e+00 4.052141189575195312e+00 3.634766817092895508e+00 2.306072473526000977e+00 2.582824230194091797e+00
3.459000000000000000e+03 2.083197784423828125e+01 1.882550716400146484e+00 3.555761814117431641e+00 3.407334089279174805e+00 2.088928699493408203e+00 2.238468408584594727e+00
3.460000000000000000e+03 1.971184730529785156e+01 1.903756141662597656e+00 3.573872804641723633e+00 3.962481260299682617e+00 2.260906219482421875e+00 2.630513668060302734e+00
3.461000000000000000e+03 1.569148731231689453e+01 5.844812870025634766e+00 4.874424636363983154e-01 5.598643779754638672e+00 1.825825810432434082e+00 1.007965207099914551e+00
3.462000000000000000e+03 2.030282020568847656e+01 1.254795789718627930e+00 3.858282804489135742e+00 3.423454761505126953e+00 2.184521198272705078e+00 2.375828266143798828e+00
3.463000000000000000e+03 2.172257041931152344e+01 2.456699609756469727e+00 3.304498195648193359e+00 3.287199020385742188e+00 1.977509140968322754e+00 1.973369479179382324e+00
3.464000000000000000e+03 1.938137817382812500e+01 1.376223921775817871e+00 3.907733917236328125e+00 3.960676431655883789e+00 2.360522985458374023e+00 2.745820283889770508e+00
3.465000000000000000e+03 1.768624877929687500e+01 4.487593173980712891e+00 1.547660589218139648e+00 5.510106563568115234e+00 2.117330312728881836e+00 2.182392120361328125e+00
3.466000000000000000e+03 2.215165328979492188e+01 2.979462862014770508e+00 3.118311882019042969e+00 3.326305389404296875e+00 1.933385252952575684e+00 1.851879835128784180e+00
3.467000000000000000e+03 2.222526741027832031e+01 1.295488357543945312e+00 3.609024286270141602e+00 2.774585723876953125e+00 1.915082931518554688e+00 1.705958604812622070e+00
3.468000000000000000e+03 1.612271118164062500e+01 5.192292690277099609e+00 6.995831727981567383e-01 5.888285160064697266e+00 1.976360559463500977e+00 1.418755650520324707e+00
3.469000000000000000e+03 1.823586845397949219e+01 4.403498172760009766e+00 1.808010935783386230e+00 5.244396209716796875e+00 2.115722179412841797e+00 2.278965950012207031e+00
3.470000000000000000e+03 1.736972045898437500e+01 6.088922500610351562e+00 9.518330097198486328e-01 5.299389362335205078e+00 1.875366687774658203e+00 1.511324286460876465e+00
3.471000000000000000e+03 1.928630065917968750e+01 2.879363536834716797e+00 2.934043407440185547e+00 4.494550704956054688e+00 2.228578329086303711e+00 2.633515357971191406e+00
3.472000000000000000e+03 1.940359878540039062e+01 6.267704486846923828e+00 1.536391735076904297e+00 4.712915420532226562e+00 1.874792098999023438e+00 1.724782109260559082e+00
3.473000000000000000e+03 1.669884300231933594e+01 5.155184745788574219e+00 9.371840953826904297e-01 5.744158267974853516e+00 2.004402637481689453e+00 1.663398504257202148e+00
3.474000000000000000e+03 2.128856849670410156e+01 4.145007610321044922e+00 2.672379016876220703e+00 3.869021415710449219e+00 1.962420225143432617e+00 2.002532720565795898e+00
3.475000000000000000e+03 1.759929275512695312e+01 6.511466979980468750e+00 9.491285085678100586e-01 5.135854721069335938e+00 1.825495004653930664e+00 1.426749944686889648e+00
3.476000000000000000e+03 1.965142250061035156e+01 7.553177356719970703e+00 1.315597057342529297e+00 4.588686466217041016e+00 1.771285057067871094e+00 1.401222348213195801e+00
3.477000000000000000e+03 2.074304962158203125e+01 5.552939414978027344e+00 2.092799186706542969e+00 4.272737026214599609e+00 1.909660935401916504e+00 1.858769536018371582e+00
3.478000000000000000e+03 1.830418968200683594e+01 4.978518962860107422e+00 1.607857465744018555e+00 5.166583061218261719e+00 2.032332181930541992e+00 2.072610855102539062e+00
3.479000000000000000e+03 1.691142272949218750e+01 6.215388774871826172e+00 7.945527434349060059e-01 5.369383811950683594e+00 1.849181056022644043e+00 1.364123463630676270e+00
3.480000000000000000e+03 2.072227287292480469e+01 4.874289512634277344e+00 2.317862987518310547e+00 4.193445205688476562e+00 1.953392386436462402e+00 1.992963314056396484e+00
3.481000000000000000e+03 2.028723907470703125e+01 1.898854970932006836e+00 3.586331844329833984e+00 3.642221450805664062e+00 2.168565988540649414e+00 2.428481340408325195e+00
3.482000000000000000e+03 2.059113121032714844e+01 2.214230775833129883e+00 3.419602155685424805e+00 3.616581201553344727e+00 2.110855102539062500e+00 2.315675258636474609e+00
3.483000000000000000e+03 1.948929595947265625e+01 1.641759991645812988e+00 3.716258049011230469e+00 3.982711553573608398e+00 2.309690952301025391e+00 2.696352243423461914e+00
3.484000000000000000e+03 2.000019836425781250e+01 1.569652318954467773e+00 3.776477098464965820e+00 3.666364669799804688e+00 2.232852458953857422e+00 2.520149230957031250e+00
3.485000000000000000e+03 1.866257667541503906e+01 3.725006341934204102e+00 2.281837701797485352e+00 4.993482112884521484e+00 2.182595968246459961e+00 2.501295328140258789e+00
3.486000000000000000e+03 1.639144325256347656e+01 6.318945407867431641e+00 6.342209577560424805e-01 5.379008769989013672e+00 1.803969025611877441e+00 1.150617837905883789e+00
3.487000000000000000e+03 2.124743080139160156e+01 2.085861444473266602e+00 3.458565711975097656e+00 3.328066349029541016e+00 2.035989522933959961e+00 2.109016180038452148e+00
3.488000000000000000e+03 1.665316581726074219e+01 4.655147075653076172e+00 1.040278792381286621e+00 5.923630237579345703e+00 2.089172840118408203e+00 1.845294713973999023e+00
3.489000000000000000e+03 1.716315078735351562e+01 4.568059444427490234e+00 1.293919801712036133e+00 5.745171070098876953e+00 2.111727237701416016e+00 2.038644313812255859e+00
3.490000000000000000e+03 1.808926391601562500e+01 6.810386657714843750e+00 1.038262605667114258e+00 4.991683959960937500e+00 1.808983922004699707e+00 1.438551306724548340e+00
3.491000000000000000e+03 1.994988632202148438e+01 6.958197593688964844e+00 1.538755655288696289e+00 4.534626483917236328e+00 1.822014570236206055e+00 1.563070297241210938e+00
3.492000000000000000e+03 2.068470573425292969e+01 4.258211135864257812e+00 2.527775049209594727e+00 4.118733882904052734e+00 1.993952631950378418e+00 2.107548952102661133e+00
3.493000000000000000e+03 2.093984031677246094e+01 2.522687911987304688e+00 3.271280527114868164e+00 3.572534084320068359e+00 2.053144454956054688e+00 2.200061798095703125e+00
3.494000000000000000e+03 1.946134376525878906e+01 4.918005466461181641e+00 1.986927628517150879e+00 4.685767173767089844e+00 2.001808404922485352e+00 2.103737831115722656e+00
3.495000000000000000e+03 1.993505668640136719e+01 2.811276674270629883e+00 3.101232528686523438e+00 4.108969211578369141e+00 2.163060426712036133e+00 2.499125719070434570e+00
3.496000000000000000e+03 1.729196166992187500e+01 5.598994255065917969e+00 1.048641681671142578e+00 5.430487155914306641e+00 1.943738698959350586e+00 1.664065718650817871e+00
3.497000000000000000e+03 1.723085403442382812e+01 5.088777065277099609e+00 1.155369758605957031e+00 5.577677726745605469e+00 2.019914150238037109e+00 1.836889624595642090e+00
3.498000000000000000e+03 2.164027595520019531e+01 3.347700595855712891e+00 2.973526954650878906e+00 3.581936597824096680e+00 1.966639041900634766e+00 1.987611770629882812e+00
3.499000000000000000e+03 2.007007217407226562e+01 5.579960346221923828e+00 1.923708200454711914e+00 4.491448879241943359e+00 1.924547195434570312e+00 1.900387287139892578e+00
3.500000000000000000e+03 2.027270507812500000e+01 2.533976078033447266e+00 3.263098239898681641e+00 3.870848655700683594e+00 2.140184164047241211e+00 2.430346012115478516e+00
3.501000000000000000e+03 2.130729675292968750e+01 2.885261297225952148e+00 3.148127079010009766e+00 3.566490888595581055e+00 2.014385461807250977e+00 2.110512495040893555e+00
3.502000000000000000e+03 1.969898605346679688e+01 3.133403301239013672e+00 2.853405952453613281e+00 4.335885047912597656e+00 2.156787395477294922e+00 2.492779493331909180e+00
3.503000000000000000e+03 1.887061691284179688e+01 4.936964988708496094e+00 1.815796017646789551e+00 4.916882991790771484e+00 2.019803762435913086e+00 2.107409954071044922e+00
3.504000000000000000e+03 1.873542785644531250e+01 6.995642185211181641e+00 1.183299183845520020e+00 4.827893257141113281e+00 1.803357839584350586e+00 1.473136544227600098e+00
3.505000000000000000e+03 2.055906677246093750e+01 2.908780336380004883e+00 3.081871747970581055e+00 3.859030723571777344e+00 2.082270622253417969e+00 2.309880495071411133e+00
3.506000000000000000e+03 2.008397483825683594e+01 4.277742385864257812e+00 2.419458389282226562e+00 4.336692333221435547e+00 2.026845216751098633e+00 2.198207616806030273e+00
3.507000000000000000e+03 2.114889526367187500e+01 3.625912666320800781e+00 2.826830863952636719e+00 3.811316251754760742e+00 1.991444110870361328e+00 2.075974225997924805e+00
3.508000000000000000e+03 1.963692092895507812e+01 2.520024061203002930e+00 3.225662708282470703e+00 4.188186645507812500e+00 2.224154710769653320e+00 2.611099720001220703e+00
3.509000000000000000e+03 1.882713890075683594e+01 4.291749954223632812e+00 2.073630332946777344e+00 4.938761234283447266e+00 2.103717565536499023e+00 2.325198888778686523e+00
3.510000000000000000e+03 2.007775688171386719e+01 4.912103176116943359e+00 2.162240743637084961e+00 4.437823295593261719e+00 1.980019211769104004e+00 2.070108890533447266e+00
3.511000000000000000e+03 1.936820411682128906e+01 6.977630138397216797e+00 1.353174448013305664e+00 4.673454284667968750e+00 1.807988643646240234e+00 1.519396185874938965e+00
3.512000000000000000e+03 1.832235145568847656e+01 5.570524215698242188e+00 1.425711870193481445e+00 5.093709468841552734e+00 1.955826401710510254e+00 1.871144056320190430e+00
3.513000000000000000e+03 1.775962829589843750e+01 5.027844905853271484e+00 1.388196468353271484e+00 5.384585857391357422e+00 2.031834602355957031e+00 1.980287075042724609e+00
3.514000000000000000e+03 1.886889839172363281e+01 5.582443714141845703e+00 1.586590647697448730e+00 4.910059452056884766e+00 1.948994994163513184e+00 1.906610250473022461e+00
3.515000000000000000e+03 2.012646102905273438e+01 3.161056518554687500e+00 2.917404174804687500e+00 4.106944084167480469e+00 2.107304573059082031e+00 2.385285854339599609e+00
3.516000000000000000e+03 1.780017089843750000e+01 5.562617778778076172e+00 1.244074106216430664e+00 5.269400596618652344e+00 1.954042315483093262e+00 1.788811087608337402e+00
3.517000000000000000e+03 1.954200172424316406e+01 3.622555494308471680e+00 2.592511177062988281e+00 4.502615928649902344e+00 2.128538131713867188e+00 2.439256429672241211e+00
3.518000000000000000e+03 2.013210868835449219e+01 3.671170234680175781e+00 2.677365541458129883e+00 4.215853691101074219e+00 2.067965745925903320e+00 2.298438549041748047e+00
3.519000000000000000e+03 1.881853485107421875e+01 6.255946159362792969e+00 1.390242218971252441e+00 4.876455307006835938e+00 1.880009293556213379e+00 1.703196406364440918e+00
3.520000000000000000e+03 1.945850372314453125e+01 4.250239372253417969e+00 2.279915332794189453e+00 4.632756710052490234e+00 2.073801517486572266e+00 2.299823760986328125e+00
3.521000000000000000e+03 1.944734191894531250e+01 5.584767341613769531e+00 1.759072184562683105e+00 4.699284076690673828e+00 1.937506794929504395e+00 1.914610862731933594e+00
3.522000000000000000e+03 2.066930007934570312e+01 3.698051691055297852e+00 2.759304523468017578e+00 4.003779888153076172e+00 2.028925180435180664e+00 2.197621107101440430e+00
3.523000000000000000e+03 2.962418746948242188e+01 2.087422370910644531e+01 6.924039721488952637e-01 5.092903137207031250e+00 1.735592246055603027e+00 -2.820045351982116699e-01
3.524000000000000000e+03 8.172598838806152344e+00 -4.137404632568359375e+01 4.033248126506805420e-02 4.830848217010498047e+00 1.461354136466979980e+00 7.655528374016284943e-03
3.525000000000000000e+03 3.327867889404296875e+01 2.695845985412597656e+01 -1.044516861438751221e-01 5.387849807739257812e+00 1.585019469261169434e+00 -2.630904316902160645e-01
3.526000000000000000e+03 3.343003463745117188e+01 2.380541610717773438e+01 3.432712554931640625e-01 5.558190822601318359e+00 1.770438671112060547e+00 -2.574893236160278320e-01
3.527000000000000000e+03 1.458371925354003906e+01 3.436094284057617188e+01 -3.301756381988525391e-01 3.119063138961791992e+00 8.366662263870239258e-01 -3.283552825450897217e-01
3.528000000000000000e+03 5.727118301391601562e+01 -4.111486434936523438e+01 -5.688810348510742188e-01 4.260081768035888672e+00 1.107360243797302246e+00 -4.841970801353454590e-01
3.529000000000000000e+03 5.398977279663085938e+01 -3.740063095092773438e+01 -1.072563409805297852e+00 6.343104839324951172e+00 1.581162452697753906e+00 -8.447793722152709961e-01
3.530000000000000000e+03 8.174355506896972656e+00 -3.415227127075195312e+01 -1.407085299491882324e+00 5.227455615997314453e+00 1.146111130714416504e+00 1.312494874000549316e-01
3.531000000000000000e+03 7.277065753936767578e+00 -3.645640945434570312e+01 -6.765292882919311523e-01 5.444089889526367188e+00 1.430268168449401855e+00 1.278536319732666016e-01
3.532000000000000000e+03 3.682147979736328125e+01 -3.884262084960937500e+01 -1.210054516792297363e+00 1.120375633239746094e+00 -2.690365724265575409e-02 3.121423721313476562e-01
3.533000000000000000e+03 2.847639465332031250e+01 -3.866147613525390625e+01 -1.280463695526123047e+00 -3.198103606700897217e-01 -4.800822138786315918e-01 -8.284251205623149872e-03
3.534000000000000000e+03 4.161783599853515625e+01 -4.115721511840820312e+01 -1.806395173072814941e+00 4.016888141632080078e+00 6.631479263305664062e-01 1.818759441375732422e-01
3.535000000000000000e+03 9.060809135437011719e+00 3.594433593750000000e+01 -1.692822426557540894e-01 2.271066188812255859e+00 6.305351853370666504e-01 -2.125709354877471924e-01
3.536000000000000000e+03 4.645516204833984375e+01 3.731966781616210938e+01 -7.458019256591796875e-01 3.096918821334838867e+00 7.053350806236267090e-01 4.454159736633300781e-01
3.537000000000000000e+03 3.379382324218750000e+01 3.295269012451171875e+01 -7.753490209579467773e-01 5.155855178833007812e+00 1.314151763916015625e+00 -2.052918672561645508e-01
3.538000000000000000e+03 2.508512878417968750e+01 -3.614350509643554688e+01 -1.575113415718078613e+00 -2.507338523864746094e-01 -5.477541685104370117e-01 2.811710238456726074e-01
3.539000000000000000e+03 4.884485626220703125e+01 -3.831043624877929688e+01 -1.736136198043823242e+00 6.729992389678955078e+00 1.498156905174255371e+00 -2.110656350851058960e-01
3.540000000000000000e+03 7.812174987792968750e+01 -4.166672897338867188e+01 2.069004625082015991e-01 8.132326126098632812e+00 2.501768112182617188e+00 5.811713263392448425e-02
3.541000000000000000e+03 1.390809726715087891e+01 2.690556526184082031e+01 -1.412604302167892456e-01 2.943560361862182617e+00 8.406899571418762207e-01 -4.717409610748291016e-01
3.542000000000000000e+03 1.337503433227539062e+01 2.286087036132812500e+01 -4.919427260756492615e-02 2.907854080200195312e+00 8.575978875160217285e-01 -4.627731144428253174e-01
3.543000000000000000e+03 2.795062637329101562e+01 2.344058799743652344e+01 3.047821819782257080e-01 4.892304420471191406e+00 1.559125900268554688e+00 -3.573826849460601807e-01
3.544000000000000000e+03 7.340044403076171875e+01 3.756981277465820312e+01 -2.487865388393402100e-01 6.723720550537109375e+00 1.942480206489562988e+00 1.930408738553524017e-02
3.545000000000000000e+03 3.534134292602539062e+01 2.002828216552734375e+01 8.744816780090332031e-01 6.183967113494873047e+00 2.117534637451171875e+00 -1.297905445098876953e-01
3.546000000000000000e+03 3.798157501220703125e+01 3.432402420043945312e+01 -9.120622873306274414e-01 4.973650932312011719e+00 1.218476653099060059e+00 3.960596024990081787e-02
3.547000000000000000e+03 1.073791408538818359e+01 -3.699934005737304688e+01 -6.294240355491638184e-01 2.741586208343505859e+00 6.336486935615539551e-01 -1.154839992523193359e-01
3.548000000000000000e+03 2.464945030212402344e+01 2.825250625610351562e+01 -2.288749814033508301e-01 4.478102207183837891e+00 1.274768114089965820e+00 -4.320388734340667725e-01
3.549000000000000000e+03 1.388337039947509766e+01 3.187587356567382812e+01 -2.598068714141845703e-01 3.013042926788330078e+00 8.259707689285278320e-01 -4.022486805915832520e-01
3.550000000000000000e+03 1.080590629577636719e+01 3.740340042114257812e+01 -2.328859567642211914e-01 2.513750791549682617e+00 6.842594742774963379e-01 -1.832439005374908447e-01
3.551000000000000000e+03 1.589078044891357422e+01 3.061853790283203125e+01 -2.675246000289916992e-01 3.252613544464111328e+00 8.955266475677490234e-01 -4.199020266532897949e-01
3.552000000000000000e+03 2.337324333190917969e+01 -4.101013183593750000e+01 -8.365572690963745117e-01 -6.098369956016540527e-01 -4.339182674884796143e-01 1.262324005365371704e-01
3.553000000000000000e+03 8.683403015136718750e+00 4.063501358032226562e+01 -1.696912795305252075e-01 2.229872703552246094e+00 6.180544495582580566e-01 -5.832587927579879761e-02
3.554000000000000000e+03 5.991863632202148438e+01 4.008420562744140625e+01 1.068945974111557007e-01 -4.367446303367614746e-01 -9.895500540733337402e-02 1.412649750709533691e-01
3.555000000000000000e+03 3.249034881591796875e+01 4.068807983398437500e+01 -1.127184987068176270e+00 4.973090171813964844e+00 1.153771519660949707e+00 -5.289169400930404663e-02
3.556000000000000000e+03 1.861781692504882812e+01 3.749286270141601562e+01 -5.281892418861389160e-01 3.675436496734619141e+00 9.441741704940795898e-01 -2.096351534128189087e-01
3.557000000000000000e+03 2.296626281738281250e+01 3.775453948974609375e+01 -7.099542021751403809e-01 4.264183998107910156e+00 1.066268920898437500e+00 -1.940109878778457642e-01
3.558000000000000000e+03 2.783599853515625000e+01 -4.124935150146484375e+01 -1.070839881896972656e+00 -5.056346654891967773e-01 -4.729423522949218750e-01 -3.487189859151840210e-02
3.559000000000000000e+03 2.476159667968750000e+01 -3.828339767456054688e+01 -1.272326946258544922e+00 -4.689962863922119141e-01 -5.223969817161560059e-01 2.691877484321594238e-01
3.560000000000000000e+03 1.441036128997802734e+01 3.744689178466796875e+01 -3.756224811077117920e-01 3.082646131515502930e+00 8.121070861816406250e-01 -2.065908461809158325e-01
3.561000000000000000e+03 3.285563659667968750e+01 -3.675745010375976562e+01 -1.511051177978515625e+00 -1.410839110612869263e-01 -4.956405162811279297e-01 -1.886367499828338623e-01
3.562000000000000000e+03 1.986996269226074219e+01 3.397701263427734375e+01 -4.844005703926086426e-01 3.845328807830810547e+00 1.008278489112854004e+00 -3.338347077369689941e-01
3.563000000000000000e+03 1.635044288635253906e+01 2.748340415954589844e+01 -1.725439429283142090e-01 3.351878404617309570e+00 9.538003206253051758e-01 -4.488068819046020508e-01
3.564000000000000000e+03 1.884173011779785156e+01 2.796694564819335938e+01 -2.133642584085464478e-01 3.753620386123657227e+00 1.062076807022094727e+00 -4.434300661087036133e-01
3.565000000000000000e+03 3.156319808959960938e+01 2.821192932128906250e+01 -2.429718375205993652e-01 5.227235317230224609e+00 1.495279073715209961e+00 -3.294389545917510986e-01
3.566000000000000000e+03 2.714290809631347656e+01 3.451536178588867188e+01 -7.299467921257019043e-01 4.708066940307617188e+00 1.193436026573181152e+00 -2.959542572498321533e-01
3.567000000000000000e+03 2.402268981933593750e+01 3.124068260192871094e+01 -4.525348842144012451e-01 4.388463497161865234e+00 1.180778622627258301e+00 -3.981602787971496582e-01
3.568000000000000000e+03 2.118427848815917969e+01 3.064191246032714844e+01 -3.634778261184692383e-01 4.039974689483642578e+00 1.102949023246765137e+00 -4.233400225639343262e-01
3.569000000000000000e+03 3.523536300659179688e+01 3.576446151733398438e+01 -1.003774642944335938e+00 5.055342197418212891e+00 1.215470194816589355e+00 -1.072104573249816895e-01
3.570000000000000000e+03 1.236046028137207031e+01 -3.959096908569335938e+01 -1.086022332310676575e-01 1.688983798027038574e+00 4.741144776344299316e-01 -2.081150561571121216e-02
3.571000000000000000e+03 2.723565292358398438e+01 2.859425735473632812e+01 -2.803627252578735352e-01 4.762235641479492188e+00 1.344561815261840820e+00 -4.065438807010650635e-01
3.572000000000000000e+03 3.004782867431640625e+01 2.666012573242187500e+01 -3.513044863939285278e-02 5.080106258392333984e+00 1.513492703437805176e+00 -3.714676499366760254e-01
3.573000000000000000e+03 3.263774490356445312e+01 3.037960433959960938e+01 -5.086441636085510254e-01 5.189030170440673828e+00 1.404115796089172363e+00 -2.735061049461364746e-01
3.574000000000000000e+03 3.069683456420898438e+01 3.403878021240234375e+01 -7.911844253540039062e-01 4.988574028015136719e+00 1.259216904640197754e+00 -2.572820484638214111e-01
3.575000000000000000e+03 3.819521713256835938e+01 3.723823547363281250e+01 -1.092971444129943848e+00 4.849877834320068359e+00 1.127071976661682129e+00 3.887797892093658447e-02
3.576000000000000000e+03 2.999802589416503906e+01 3.121799468994140625e+01 -5.567185282707214355e-01 4.995149612426757812e+00 1.331529259681701660e+00 -3.425901532173156738e-01
3.577000000000000000e+03 1.137915802001953125e+01 1.866862893104553223e+00 6.211233735084533691e-01 3.347357749938964844e+00 1.190544366836547852e+00 -1.772753477096557617e+00
3.578000000000000000e+03 1.159392833709716797e+01 1.174722075462341309e+00 5.761262178421020508e-01 3.482479810714721680e+00 1.217581868171691895e+00 -1.988211750984191895e+00
3.579000000000000000e+03 1.179789352416992188e+01 1.087127447128295898e+00 5.887653827667236328e-01 4.297917842864990234e+00 1.466005086898803711e+00 -2.217607975006103516e+00
3.580000000000000000e+03 1.198819732666015625e+01 9.780402183532714844e-01 5.700085163116455078e-01 5.122421264648437500e+00 1.707728862762451172e+00 -2.342271327972412109e+00
3.581000000000000000e+03 1.230839157104492188e+01 1.163548588752746582e+00 2.494488209486007690e-01 6.763459205627441406e+00 2.103872299194335938e+00 -2.150445222854614258e+00
3.582000000000000000e+03 1.312638950347900391e+01 4.859381020069122314e-01 3.640299430117011070e-03 1.291817951202392578e+01 3.876545906066894531e+00 -1.295972615480422974e-01
3.583000000000000000e+03 1.340405941009521484e+01 9.373107552528381348e-01 2.272317409515380859e-01 1.161803340911865234e+01 3.553579568862915039e+00 7.123288512229919434e-01
3.584000000000000000e+03 1.352764797210693359e+01 8.505515456199645996e-01 3.357850909233093262e-01 1.229083824157714844e+01 3.787986993789672852e+00 1.271644711494445801e+00
3.585000000000000000e+03 1.394870090484619141e+01 4.353235661983489990e-01 2.175668716430664062e+00 1.297464561462402344e+01 4.545094490051269531e+00 3.716263055801391602e+00
3.586000000000000000e+03 1.365868568420410156e+01 6.156594753265380859e-01 9.957422018051147461e-01 1.290730190277099609e+01 4.170913219451904297e+00 2.246644973754882812e+00
3.587000000000000000e+03 1.410457706451416016e+01 2.850351035594940186e-01 3.121243238449096680e+00 1.282479858398437500e+01 4.783812522888183594e+00 4.427756309509277344e+00
3.588000000000000000e+03 1.439708709716796875e+01 -6.256010383367538452e-02 5.553635120391845703e+00 1.175847721099853516e+01 5.193633556365966797e+00 5.441593647003173828e+00
3.589000000000000000e+03 1.469078159332275391e+01 -6.014016866683959961e-01 8.413840293884277344e+00 9.910305976867675781e+00 5.497244358062744141e+00 5.183356285095214844e+00
3.590000000000000000e+03 1.440081691741943359e+01 -1.061123967170715332e+00 1.109944343566894531e+01 1.031699085235595703e+01 6.424930572509765625e+00 4.552320480346679688e+00
3.591000000000000000e+03 1.496743965148925781e+01 -5.479109287261962891e-01 7.917563438415527344e+00 8.973583221435546875e+00 5.067344188690185547e+00 4.839139938354492188e+00
3.592000000000000000e+03 1.468896293640136719e+01 -8.485060930252075195e-01 9.539904594421386719e+00 9.541938781738281250e+00 5.724553108215332031e+00 4.800210952758789062e+00
3.593000000000000000e+03 1.460643577575683594e+01 -1.752987504005432129e+00 1.035611629486083984e+01 9.450110435485839844e+00 5.941867828369140625e+00 2.063358306884765625e+00
3.594000000000000000e+03 1.406770133972167969e+01 -2.257331848144531250e+00 8.812752723693847656e+00 1.234166622161865234e+01 6.346325874328613281e+00 9.406095147132873535e-01
3.595000000000000000e+03 1.417174339294433594e+01 -2.748036146163940430e+00 6.574345588684082031e+00 1.163597583770751953e+01 5.463096618652343750e+00 1.217889666557312012e+00
3.596000000000000000e+03 1.345163631439208984e+01 -3.083503484725952148e+00 4.558357238769531250e+00 1.310985946655273438e+01 5.300465106964111328e+00 3.215990781784057617e+00
3.597000000000000000e+03 1.177457332611083984e+01 -2.879608869552612305e+00 6.515073776245117188e+00 6.762708663940429688e+00 3.983334779739379883e+00 7.184647560119628906e+00
3.598000000000000000e+03 1.121112918853759766e+01 -2.741990327835083008e+00 6.729569911956787109e+00 3.630499362945556641e+00 3.108020782470703125e+00 5.837164402008056641e+00
3.599000000000000000e+03 1.083094882965087891e+01 -2.338380098342895508e+00 6.701632976531982422e+00 1.444526791572570801e+00 2.443847894668579102e+00 3.990869522094726562e+00
3.600000000000000000e+03 9.938230514526367188e+00 -2.314047098159790039e+00 4.538261413574218750e+00 7.118492126464843750e-01 1.575033187866210938e+00 2.513777017593383789e+00
3.601000000000000000e+03 7.803175354003906250e+01 4.167278671264648438e+01 2.815860807895660400e-01 1.000185298919677734e+01 3.085031509399414062e+00 -7.897802442312240601e-02
3.602000000000000000e+03 5.547591781616210938e+01 -3.434303283691406250e+01 4.865328669548034668e-01 7.017816066741943359e+00 2.251304626464843750e+00 -1.469633221626281738e+00
3.603000000000000000e+03 4.272631072998046875e+01 -2.163676643371582031e+01 4.622942447662353516e+00 1.501930236816406250e+01 5.892673492431640625e+00 -4.388031959533691406e+00
3.604000000000000000e+03 6.752609252929687500e+01 4.113260269165039062e+01 2.326124012470245361e-01 2.279071569442749023e+00 7.535052299499511719e-01 -1.094320267438888550e-01
3.605000000000000000e+03 5.763225936889648438e+01 -3.871281814575195312e+01 -5.171681046485900879e-01 4.287186622619628906e+00 1.131005525588989258e+00 -1.274339675903320312e+00
3.606000000000000000e+03 1.188227462768554688e+01 1.588080883026123047e+00 4.744192957878112793e-01 4.754671096801757812e+00 1.568727016448974609e+00 -2.005844593048095703e+00
3.607000000000000000e+03 7.336985778808593750e+01 -2.800125885009765625e+01 1.225134730339050293e+00 9.345970153808593750e+00 3.171331405639648438e+00 -1.678746193647384644e-01
3.608000000000000000e+03 5.272761154174804688e+01 3.645479202270507812e+01 -3.795184791088104248e-01 6.724013686180114746e-01 8.786485344171524048e-02 3.456895947456359863e-01
3.609000000000000000e+03 2.519031906127929688e+01 -1.269020271301269531e+01 -4.619393348693847656e+00 1.576212644577026367e-01 -1.338531613349914551e+00 1.703746765851974487e-01
3.610000000000000000e+03 5.646866989135742188e+01 -3.477712631225585938e+01 1.729676723480224609e-01 6.482588768005371094e+00 1.996666908264160156e+00 -1.868023395538330078e+00
3.611000000000000000e+03 5.430500793457031250e+01 -3.570516586303710938e+01 -4.501901566982269287e-01 6.774678707122802734e+00 1.897346615791320801e+00 -1.122764945030212402e+00
3.612000000000000000e+03 1.192105102539062500e+01 1.924366831779479980e+00 3.919201493263244629e-01 4.856642723083496094e+00 1.574568867683410645e+00 -1.825263261795043945e+00
3.613000000000000000e+03 1.243712997436523438e+01 1.426903009414672852e+00 1.067784726619720459e-01 7.096204757690429688e+00 2.160895109176635742e+00 -1.831279873847961426e+00
3.614000000000000000e+03 1.226434421539306641e+01 1.516932010650634766e+00 2.055773138999938965e-01 6.318119525909423828e+00 1.957109093666076660e+00 -1.934019327163696289e+00
3.615000000000000000e+03 1.279465389251708984e+01 1.271406531333923340e+00 -6.781451404094696045e-02 8.877500534057617188e+00 2.642905712127685547e+00 -1.256638765335083008e+00
3.616000000000000000e+03 1.260986804962158203e+01 1.338577628135681152e+00 3.564030304551124573e-02 7.918346405029296875e+00 2.386196136474609375e+00 -1.593380093574523926e+00
3.617000000000000000e+03 1.056670570373535156e+01 2.099306583404541016e+00 6.293336153030395508e-01 1.626980543136596680e+00 6.768942475318908691e-01 -1.186393141746520996e+00
3.618000000000000000e+03 1.344408035278320312e+01 6.550634503364562988e-01 3.450986444950103760e-01 1.288277530670166016e+01 3.968362331390380859e+00 1.254973888397216797e+00
3.619000000000000000e+03 5.442260360717773438e+01 -3.443256378173828125e+01 2.897992432117462158e-01 7.005049228668212891e+00 2.188454389572143555e+00 -1.164514660835266113e+00
3.620000000000000000e+03 1.066109466552734375e+01 -2.548112392425537109e+00 6.082939624786376953e+00 1.711466431617736816e+00 2.338321924209594727e+00 4.128001213073730469e+00
3.621000000000000000e+03 1.111417102813720703e+01 -2.548622369766235352e+00 7.081387996673583984e+00 2.744240283966064453e+00 2.947688341140747070e+00 5.306349754333496094e+00
3.622000000000000000e+03 1.130489444732666016e+01 -3.025336980819702148e+00 6.066903591156005859e+00 4.766590118408203125e+00 3.250048160552978516e+00 6.318909168243408203e+00
3.623000000000000000e+03 1.148410224914550781e+01 -3.189748287200927734e+00 5.541415691375732422e+00 5.747768878936767578e+00 3.386755228042602539e+00 6.561258316040039062e+00
3.624000000000000000e+03 1.212202930450439453e+01 -2.958029031753540039e+00 5.778789520263671875e+00 9.257058143615722656e+00 4.510754108428955078e+00 7.340216636657714844e+00
3.625000000000000000e+03 1.203634071350097656e+01 -3.300933599472045898e+00 4.777566432952880859e+00 8.470664024353027344e+00 3.974469184875488281e+00 6.869517803192138672e+00
3.626000000000000000e+03 5.420485305786132812e+01 -3.340445327758789062e+01 1.145040154457092285e+00 7.446828365325927734e+00 2.577560663223266602e+00 -1.171880960464477539e+00
3.627000000000000000e+03 5.222818374633789062e+01 -3.520784759521484375e+01 -3.273015022277832031e-01 6.995172977447509766e+00 2.000361442565917969e+00 -7.755998373031616211e-01
3.628000000000000000e+03 1.414007854461669922e+01 6.335523724555969238e-01 2.184696674346923828e+00 1.194250774383544922e+01 4.238161563873291016e+00 3.613971471786499023e+00
3.629000000000000000e+03 4.513993453979492188e+01 -2.661986160278320312e+01 1.748590111732482910e+00 9.747474670410156250e+00 3.448819398880004883e+00 -1.944486379623413086e+00
3.630000000000000000e+03 6.944654083251953125e+01 -3.422170639038085938e+01 -5.061845183372497559e-01 3.411104679107666016e+00 8.714760541915893555e-01 1.149107336997985840e+00
3.631000000000000000e+03 1.464069938659667969e+01 3.075564047321677208e-03 5.540321350097656250e+00 1.060751914978027344e+01 4.844352245330810547e+00 5.175537586212158203e+00
3.632000000000000000e+03 2.058798074722290039e+00 3.694352340698242188e+01 -6.437812000513076782e-03 1.355714082717895508e+00 4.047828912734985352e-01 -8.084786683320999146e-02
3.633000000000000000e+03 1.260914993286132812e+01 -3.295686483383178711e+00 4.139727592468261719e+00 1.111321830749511719e+01 4.575883865356445312e+00 6.063482284545898438e+00
3.634000000000000000e+03 1.308462715148925781e+01 -3.570538759231567383e+00 3.265577077865600586e+00 1.141291522979736328e+01 4.403547763824462891e+00 4.558690547943115234e+00
3.635000000000000000e+03 1.283928394317626953e+01 -3.469604969024658203e+00 3.574521541595458984e+00 1.142810344696044922e+01 4.500787734985351562e+00 5.356908798217773438e+00
3.636000000000000000e+03 1.322725772857666016e+01 -3.163538694381713867e+00 4.257029533386230469e+00 1.300931739807128906e+01 5.179903984069824219e+00 4.080897808074951172e+00
3.637000000000000000e+03 1.416005516052246094e+01 -3.185412645339965820e+00 5.041906833648681641e+00 1.121821212768554688e+01 4.878035545349121094e+00 1.716319799423217773e+00
3.638000000000000000e+03 1.479570674896240234e+01 -3.636777102947235107e-01 7.300756454467773438e+00 9.866974830627441406e+00 5.150319099426269531e+00 5.253654479980468750e+00
3.639000000000000000e+03 1.491595363616943359e+01 -1.572320342063903809e+00 9.858519554138183594e+00 8.438796043395996094e+00 5.489194869995117188e+00 2.591334819793701172e+00
3.640000000000000000e+03 1.491165351867675781e+01 -1.345095753669738770e+00 9.863276481628417969e+00 8.480046272277832031e+00 5.502996921539306641e+00 3.206309318542480469e+00
3.641000000000000000e+03 1.489279270172119141e+01 -2.056406736373901367e+00 8.930449485778808594e+00 8.592365264892578125e+00 5.256844520568847656e+00 1.615089058876037598e+00
3.642000000000000000e+03 1.437117767333984375e+01 -3.046123027801513672e+00 5.729095458984375000e+00 1.065913772583007812e+01 4.916470050811767578e+00 1.310458302497863770e+00
3.643000000000000000e+03 1.464070320129394531e+01 -2.947785615921020508e+00 6.162096977233886719e+00 9.910758018493652344e+00 4.821856498718261719e+00 1.085853576660156250e+00
3.644000000000000000e+03 7.412899780273437500e+01 -3.510906982421875000e+01 -5.847433805465698242e-01 6.926836967468261719e+00 1.902628064155578613e+00 -9.019800275564193726e-02
3.645000000000000000e+03 1.003481769561767578e+01 3.342485427856445312e+00 6.897968649864196777e-01 1.701719999313354492e+00 7.174550294876098633e-01 -9.306218624114990234e-01
3.646000000000000000e+03 5.139937973022460938e+01 -3.682302856445312500e+01 -1.151764750480651855e+00 6.955842494964599609e+00 1.741223335266113281e+00 -6.127283573150634766e-01
3.647000000000000000e+03 6.531674957275390625e+01 3.765335083007812500e+01 -1.537243276834487915e-01 7.703531384468078613e-01 1.849886327981948853e-01 -1.205940544605255127e-01
3.648000000000000000e+03 7.182716369628906250e+01 -1.750954818725585938e+01 -7.599692940711975098e-01 5.603068351745605469e+00 1.452929735183715820e+00 -8.130918145179748535e-01
3.649000000000000000e+03 5.323450851440429688e+01 -3.532524108886718750e+01 -2.613330781459808350e-01 6.703635692596435547e+00 1.932690739631652832e+00 -7.551425695419311523e-01
3.650000000000000000e+03 7.455766296386718750e+01 3.699176025390625000e+01 -6.825681775808334351e-02 7.824118614196777344e+00 2.326758623123168945e+00 2.319924384355545044e-01
3.651000000000000000e+03 7.368999481201171875e+01 3.589390945434570312e+01 -3.762730360031127930e-01 7.080063819885253906e+00 2.011137247085571289e+00 2.277477532625198364e-01
3.652000000000000000e+03 4.492007827758789062e+01 -2.544018745422363281e+01 1.994472503662109375e+00 1.083102607727050781e+01 3.847649335861206055e+00 -2.527484178543090820e+00
3.653000000000000000e+03 5.227704238891601562e+01 -3.259932708740234375e+01 1.283249855041503906e+00 6.741806030273437500e+00 2.407516717910766602e+00 -1.340275168418884277e+00
3.654000000000000000e+03 5.099963760375976562e+01 -3.554885482788085938e+01 -5.430577993392944336e-01 6.967293739318847656e+00 1.927270770072937012e+00 -6.887272000312805176e-01
3.655000000000000000e+03 5.223234558105468750e+01 -3.395769882202148438e+01 5.254148244857788086e-01 6.710224628448486328e+00 2.170691728591918945e+00 -8.143326640129089355e-01
3.656000000000000000e+03 7.254219055175781250e+01 -3.448247146606445312e+01 -7.402001023292541504e-01 6.198750495910644531e+00 1.637565135955810547e+00 4.007537364959716797e-01
3.657000000000000000e+03 5.657846927642822266e+00 -1.934013938903808594e+01 1.747125864028930664e+00 8.294948577880859375e+00 3.012622356414794922e+00 1.230284571647644043e+00
3.658000000000000000e+03 7.040277862548828125e+01 -3.464126205444335938e+01 -7.059963345527648926e-01 4.661878108978271484e+00 1.186764478683471680e+00 1.021392107009887695e+00
3.659000000000000000e+03 7.294412231445312500e+01 -3.591540145874023438e+01 -4.697760343551635742e-01 5.909072399139404297e+00 1.631788969039916992e+00 2.118889242410659790e-01
3.660000000000000000e+03 6.860265350341796875e+01 -3.661549758911132812e+01 -6.448071449995040894e-02 2.730550289154052734e+00 7.998208403587341309e-01 9.364051818847656250e-01
3.661000000000000000e+03 1.229485321044921875e+01 2.203846931457519531e+00 1.853316277265548706e-01 5.914900779724121094e+00 1.830069661140441895e+00 -1.531643629074096680e+00
3.662000000000000000e+03 6.885895538330078125e+01 -3.535523605346679688e+01 -5.112261176109313965e-01 2.727483749389648438e+00 6.648772954940795898e-01 1.159790635108947754e+00
3.663000000000000000e+03 1.018955326080322266e+01 -2.838008880615234375e+00 5.030072212219238281e+00 1.599595189094543457e+00 1.988900184631347656e+00 3.776209592819213867e+00
3.664000000000000000e+03 1.146706104278564453e+01 -3.532622575759887695e+00 4.701928138732910156e+00 6.064400672912597656e+00 3.229898691177368164e+00 6.418628692626953125e+00
3.665000000000000000e+03 1.433027172088623047e+01 5.046182274818420410e-01 2.906561613082885742e+00 1.169374370574951172e+01 4.380091667175292969e+00 4.202648162841796875e+00
3.666000000000000000e+03 1.428764057159423828e+01 9.238787889480590820e-01 1.720541238784790039e+00 1.106195163726806641e+01 3.834747791290283203e+00 3.210579872131347656e+00
3.667000000000000000e+03 1.226590824127197266e+01 -3.792997837066650391e+00 3.414103269577026367e+00 9.149412155151367188e+00 3.769054651260375977e+00 6.141879558563232422e+00
3.668000000000000000e+03 1.491161155700683594e+01 -1.121273517608642578e+00 9.640496253967285156e+00 8.605700492858886719e+00 5.473858833312988281e+00 3.840729951858520508e+00
3.669000000000000000e+03 1.533860492706298828e+01 -6.724783182144165039e-01 7.834065914154052734e+00 7.864716529846191406e+00 4.709634780883789062e+00 4.329395771026611328e+00
3.670000000000000000e+03 1.378540992736816406e+01 -3.631276369094848633e+00 3.546504259109497070e+00 1.112959480285644531e+01 4.402829647064208984e+00 2.792705535888671875e+00
3.671000000000000000e+03 1.403985023498535156e+01 -3.396866321563720703e+00 4.383621215820312500e+00 1.137073707580566406e+01 4.726307392120361328e+00 2.100716590881347656e+00
3.672000000000000000e+03 1.437999439239501953e+01 -3.416639566421508789e+00 4.500296115875244141e+00 1.016581439971923828e+01 4.399833202362060547e+00 1.771237492561340332e+00
3.673000000000000000e+03 1.478003692626953125e+01 -3.229513883590698242e+00 5.490965366363525391e+00 9.540155410766601562e+00 4.509335994720458984e+00 1.124425411224365234e+00
3.674000000000000000e+03 1.497448062896728516e+01 -2.850915908813476562e+00 6.653461456298828125e+00 8.793650627136230469e+00 4.634133338928222656e+00 1.074660301208496094e+00
3.675000000000000000e+03 1.549140739440917969e+01 -3.228359222412109375e+00 5.526949405670166016e+00 7.422907352447509766e+00 3.884957075119018555e+00 1.107028841972351074e+00
3.676000000000000000e+03 1.482896900177001953e+01 1.078395485877990723e+00 2.411193609237670898e+00 9.796023368835449219e+00 3.662164926528930664e+00 3.694371938705444336e+00
3.677000000000000000e+03 1.394284343719482422e+01 1.247309803962707520e+00 7.320188879966735840e-01 1.079262733459472656e+01 3.457394123077392578e+00 1.963640689849853516e+00
3.678000000000000000e+03 1.359232425689697266e+01 1.004752159118652344e+00 3.608537316322326660e-01 1.146337223052978516e+01 3.547267675399780273e+00 1.294179797172546387e+00
3.679000000000000000e+03 8.554445266723632812e+00 -3.191674995422363281e+01 -2.294643878936767578e+00 5.468361377716064453e+00 9.521152973175048828e-01 2.773712277412414551e-01
3.680000000000000000e+03 7.260780334472656250e+01 -1.663579750061035156e+01 -6.327616572380065918e-01 5.992724418640136719e+00 1.607988834381103516e+00 -5.972673892974853516e-01
3.681000000000000000e+03 1.314504051208496094e+01 -3.917478084564208984e+00 2.769857406616210938e+00 1.083429718017578125e+01 4.081246376037597656e+00 4.413832664489746094e+00
3.682000000000000000e+03 1.531705951690673828e+01 4.475013539195060730e-02 5.833244800567626953e+00 8.519749641418457031e+00 4.305898666381835938e+00 4.730146408081054688e+00
3.683000000000000000e+03 4.100990676879882812e+01 2.593787384033203125e+01 1.999878585338592529e-01 5.771606445312500000e+00 1.791478276252746582e+00 6.937753558158874512e-01
3.684000000000000000e+03 6.227676868438720703e+00 -1.826287651062011719e+01 1.334188818931579590e+00 8.674422264099121094e+00 3.002583265304565430e+00 1.013391733169555664e+00
3.685000000000000000e+03 5.697247695922851562e+01 -2.107357025146484375e+01 5.474776029586791992e-01 1.422637581825256348e+00 5.910345315933227539e-01 9.162134528160095215e-01
3.686000000000000000e+03 6.090748977661132812e+01 -1.760463714599609375e+01 -7.170559763908386230e-01 1.136278867721557617e+00 1.257668733596801758e-01 1.483267903327941895e+00
3.687000000000000000e+03 6.201222991943359375e+01 -1.820747375488281250e+01 -4.992855191230773926e-01 1.257571101188659668e+00 2.274856716394424438e-01 1.580875754356384277e+00
3.688000000000000000e+03 1.159460353851318359e+01 -3.854483127593994141e+00 3.773006439208984375e+00 6.694079875946044922e+00 3.140125989913940430e+00 6.267269611358642578e+00
3.689000000000000000e+03 6.893122863769531250e+01 -1.725107383728027344e+01 -9.690435230731964111e-02 3.138327836990356445e+00 9.124270677566528320e-01 -3.391984701156616211e-01
3.690000000000000000e+03 5.446040344238281250e+01 -2.257435607910156250e+01 9.991894364356994629e-01 2.888039112091064453e+00 1.166168570518493652e+00 -3.993016183376312256e-01
3.691000000000000000e+03 6.177653884887695312e+01 -1.660536956787109375e+01 -4.224925041198730469e-01 1.240854859352111816e+00 2.455087155103683472e-01 1.248077034950256348e+00
3.692000000000000000e+03 1.425252723693847656e+01 -3.583934307098388672e+00 4.122567176818847656e+00 1.044542598724365234e+01 4.370398044586181641e+00 1.849792838096618652e+00
3.693000000000000000e+03 4.203676605224609375e+01 2.896141624450683594e+01 -1.499223113059997559e-01 4.995551586151123047e+00 1.453688740730285645e+00 6.533759832382202148e-01
3.694000000000000000e+03 1.278197669982910156e+01 1.923711895942687988e+00 -1.300262194126844406e-02 7.594021320343017578e+00 2.274305582046508789e+00 -1.085826873779296875e+00
3.695000000000000000e+03 1.213772678375244141e+01 -4.276826381683349609e+00 2.598591566085815430e+00 8.265074729919433594e+00 3.259099960327148438e+00 5.882974624633789062e+00
3.696000000000000000e+03 5.990467071533203125e+00 -2.962150764465332031e+01 -1.829014301300048828e+00 7.863568782806396484e+00 1.810366392135620117e+00 2.042622566223144531e+00
3.697000000000000000e+03 1.090082645416259766e+01 3.868917942047119141e+00 5.687931776046752930e-01 2.896258115768432617e+00 1.039515376091003418e+00 -1.163391947746276855e+00
3.698000000000000000e+03 1.332176208496093750e+01 -4.185385704040527344e+00 2.331859588623046875e+00 1.023138809204101562e+01 3.768974304199218750e+00 4.050931453704833984e+00
3.699000000000000000e+03 7.260992431640625000e+01 -1.497013854980468750e+01 -3.703988492488861084e-01 5.890378952026367188e+00 1.655994057655334473e+00 -5.106018185615539551e-01
3.700000000000000000e+03 1.283308792114257812e+01 -5.429470539093017578e+00 8.628395199775695801e-01 8.119089126586914062e+00 2.694578647613525391e+00 4.737073898315429688e+00
3.701000000000000000e+03 1.317265605926513672e+01 -5.129131317138671875e+00 1.204087853431701660e+00 8.711047172546386719e+00 2.974540472030639648e+00 4.331999301910400391e+00
3.702000000000000000e+03 1.507532501220703125e+01 -7.476522922515869141e-01 8.385764122009277344e+00 8.483036041259765625e+00 5.060639858245849609e+00 4.479253292083740234e+00
3.703000000000000000e+03 1.493474674224853516e+01 -9.037454724311828613e-01 9.043338775634765625e+00 8.726468086242675781e+00 5.330941677093505859e+00 4.324156284332275391e+00
3.704000000000000000e+03 1.516807460784912109e+01 -1.348681569099426270e+00 9.184704780578613281e+00 7.802438735961914062e+00 5.096143245697021484e+00 3.118190288543701172e+00
3.705000000000000000e+03 1.469718456268310547e+01 2.372734993696212769e-01 4.646193027496337891e+00 1.039086532592773438e+01 4.511117458343505859e+00 4.850933074951171875e+00
3.706000000000000000e+03 1.321192550659179688e+01 1.245202183723449707e+00 -6.362462788820266724e-02 1.017158126831054688e+01 3.032386779785156250e+00 -2.319207191467285156e-01
3.707000000000000000e+03 1.369811820983886719e+01 8.699048757553100586e-01 6.020095944404602051e-01 1.182483005523681641e+01 3.728051900863647461e+00 1.736815810203552246e+00
3.708000000000000000e+03 1.522027015686035156e+01 -1.827358126640319824e+00 8.923824310302734375e+00 7.688770294189453125e+00 4.983778476715087891e+00 2.130481958389282227e+00
3.709000000000000000e+03 1.548204421997070312e+01 -1.946276068687438965e+00 8.345986366271972656e+00 7.226172447204589844e+00 4.671647548675537109e+00 2.042201519012451172e+00
3.710000000000000000e+03 1.054544353485107422e+01 -3.328296184539794922e+00 4.881503582000732422e+00 3.094396352767944336e+00 2.392770051956176758e+00 5.050268173217773438e+00
3.711000000000000000e+03 1.564855861663818359e+01 -3.692961454391479492e+00 4.616840362548828125e+00 7.110433101654052734e+00 3.518182039260864258e+00 1.156129360198974609e+00
3.712000000000000000e+03 9.133181571960449219e+00 -4.341740608215332031e+00 2.705401659011840820e+00 2.434143066406250000e+00 1.541863322257995605e+00 3.805628538131713867e+00
3.713000000000000000e+03 9.160063743591308594e+00 -3.863262653350830078e+00 3.195501089096069336e+00 1.926381587982177734e+00 1.536564826965332031e+00 3.543570041656494141e+00
3.714000000000000000e+03 9.520924568176269531e+00 -4.436892986297607422e+00 2.732886791229248047e+00 3.003475904464721680e+00 1.720908761024475098e+00 4.259227752685546875e+00
3.715000000000000000e+03 1.178673267364501953e+01 3.392311096191406250e+00 3.524754047393798828e-01 4.332601547241210938e+00 1.405523061752319336e+00 -1.258808732032775879e+00
3.716000000000000000e+03 7.378151702880859375e+01 3.105221748352050781e+01 -3.549579679965972900e-01 7.528713226318359375e+00 2.152126550674438477e+00 6.058221459388732910e-01
3.717000000000000000e+03 1.562899494171142578e+01 -9.358522295951843262e-01 7.963278770446777344e+00 7.030558586120605469e+00 4.498151302337646484e+00 3.739660501480102539e+00
3.718000000000000000e+03 1.592995262145996094e+01 -1.027354598045349121e+00 7.629183769226074219e+00 6.419448852539062500e+00 4.214589595794677734e+00 3.402416229248046875e+00
3.719000000000000000e+03 1.561021518707275391e+01 -1.281822472810745239e-02 5.900209903717041016e+00 7.853641033172607422e+00 4.126155376434326172e+00 4.548704624176025391e+00
3.720000000000000000e+03 1.513315200805664062e+01 2.606979906558990479e-01 4.937101364135742188e+00 9.392077445983886719e+00 4.298753261566162109e+00 4.807782649993896484e+00
3.721000000000000000e+03 1.392439174652099609e+01 1.521283507347106934e+00 4.770929515361785889e-01 9.968564987182617188e+00 3.133697271347045898e+00 1.441489458084106445e+00
3.722000000000000000e+03 1.382136917114257812e+01 1.751146197319030762e+00 2.360005080699920654e-01 9.637601852416992188e+00 2.962080717086791992e+00 1.039461135864257812e+00
3.723000000000000000e+03 1.364621353149414062e+01 1.222313523292541504e+00 3.500969111919403076e-01 1.084508323669433594e+01 3.358554124832153320e+00 1.156047105789184570e+00
3.724000000000000000e+03 4.508597564697265625e+01 -1.479749774932861328e+01 -1.237605690956115723e+00 7.941036224365234375e+00 2.011029243469238281e+00 -1.159057736396789551e+00
3.725000000000000000e+03 4.396081542968750000e+01 -1.492783546447753906e+01 -1.349921226501464844e+00 8.312750816345214844e+00 2.088848829269409180e+00 -1.485263466835021973e+00
3.726000000000000000e+03 4.501765441894531250e+01 -1.363839912414550781e+01 -1.352767229080200195e+00 7.618234157562255859e+00 1.879640102386474609e+00 -1.201792120933532715e+00
3.727000000000000000e+03 9.623307228088378906e+00 4.590496540069580078e+00 6.522191762924194336e-01 1.746507763862609863e+00 7.196180820465087891e-01 -7.586511969566345215e-01
3.728000000000000000e+03 6.840196228027343750e+01 -1.800611877441406250e+01 -1.756381094455718994e-01 2.199457645416259766e+00 6.071458458900451660e-01 -2.909251451492309570e-01
3.729000000000000000e+03 6.424607086181640625e+01 -1.647997283935546875e+01 -1.550595182925462723e-02 1.593762159347534180e+00 4.734768569469451904e-01 1.094427466392517090e+00
3.730000000000000000e+03 3.099965858459472656e+01 -3.568676757812500000e+01 -1.785721778869628906e+00 -8.131498843431472778e-02 -5.601110458374023438e-01 -1.686460524797439575e-01
3.731000000000000000e+03 1.891547966003417969e+01 3.000871467590332031e+01 -3.099010884761810303e-01 3.769451856613159180e+00 1.037865281105041504e+00 -4.221229851245880127e-01
3.732000000000000000e+03 2.132313537597656250e+01 -8.468249320983886719e+00 -6.978394985198974609e-01 2.551448643207550049e-01 -1.328083872795104980e-01 -1.984797865152359009e-01
3.733000000000000000e+03 1.156550979614257812e+01 -4.299489498138427734e+00 2.962290763854980469e+00 6.714525222778320312e+00 2.903044700622558594e+00 6.028884410858154297e+00
3.734000000000000000e+03 1.311481380462646484e+01 1.769919395446777344e+00 -5.142160132527351379e-02 8.698450088500976562e+00 2.594108581542968750e+00 -4.913255572319030762e-01
3.735000000000000000e+03 2.882445907592773438e+01 -3.613602066040039062e+01 -1.704917192459106445e+00 -1.727185249328613281e-01 -5.632907152175903320e-01 2.749136462807655334e-02
3.736000000000000000e+03 1.514314651489257812e+01 -1.133814096450805664e+00 9.054206848144531250e+00 7.934788227081298828e+00 5.096698760986328125e+00 3.675609827041625977e+00
3.737000000000000000e+03 1.535984706878662109e+01 -1.119805216789245605e+00 8.619996070861816406e+00 7.488550662994384766e+00 4.832563877105712891e+00 3.559220790863037109e+00
3.738000000000000000e+03 2.662442398071289062e+01 -1.198168277740478516e+01 -3.309591293334960938e+00 5.840359330177307129e-01 -8.176665902137756348e-01 -4.204079210758209229e-01
3.739000000000000000e+03 1.335699462890625000e+01 1.710505008697509766e+00 -3.182600811123847961e-02 9.285326957702636719e+00 2.776050329208374023e+00 4.721700027585029602e-02
3.740000000000000000e+03 1.325232219696044922e+01 1.485424637794494629e+00 -1.273384094238281250e-01 9.644009590148925781e+00 2.855001449584960938e+00 -2.849194109439849854e-01
3.741000000000000000e+03 2.109858703613281250e+01 -6.604310512542724609e+00 1.186284303665161133e+00 8.716441392898559570e-01 6.173785328865051270e-01 -1.769945211708545685e-02
3.742000000000000000e+03 1.086963748931884766e+01 -4.739513874053955078e+00 2.504203796386718750e+00 5.330288887023925781e+00 2.350347757339477539e+00 5.579946041107177734e+00
3.743000000000000000e+03 1.105434322357177734e+01 -5.428787231445312500e+00 1.487531781196594238e+00 5.968880653381347656e+00 2.236923694610595703e+00 5.452845573425292969e+00
3.744000000000000000e+03 3.930549240112304688e+01 2.622191238403320312e+01 7.825247943401336670e-02 5.786400318145751953e+00 1.759395837783813477e+00 3.430210947990417480e-01
3.745000000000000000e+03 1.051551246643066406e+01 3.757080316543579102e+00 6.458980441093444824e-01 2.387197017669677734e+00 9.099285006523132324e-01 -1.084501266479492188e+00
3.746000000000000000e+03 9.373868942260742188e+00 -4.866837978363037109e+00 2.198127269744873047e+00 3.257521867752075195e+00 1.636694669723510742e+00 4.233854770660400391e+00
3.747000000000000000e+03 1.592487144470214844e+01 -4.100637912750244141e+00 3.886513948440551758e+00 6.516418933868408203e+00 3.120879888534545898e+00 1.191342949867248535e+00
3.748000000000000000e+03 1.539288330078125000e+01 1.295890092849731445e+00 2.688106060028076172e+00 8.561631202697753906e+00 3.374921083450317383e+00 3.697407245635986328e+00
3.749000000000000000e+03 6.748468780517578125e+01 -1.641828727722167969e+01 1.786848157644271851e-01 2.431447029113769531e+00 7.830395698547363281e-01 2.904292047023773193e-01
3.750000000000000000e+03 1.590633583068847656e+01 1.586370944976806641e+00 2.722270965576171875e+00 7.648383140563964844e+00 3.111196279525756836e+00 3.561679124832153320e+00
3.751000000000000000e+03 1.521820926666259766e+01 1.776718258857727051e+00 1.803562164306640625e+00 8.562315940856933594e+00 3.109763383865356445e+00 3.084012508392333984e+00
3.752000000000000000e+03 1.401766300201416016e+01 2.544921159744262695e+00 2.053593993186950684e-01 8.317562103271484375e+00 2.556876420974731445e+00 8.958426713943481445e-01
3.753000000000000000e+03 1.254961299896240234e+01 2.874367475509643555e+00 9.056259691715240479e-02 5.961597919464111328e+00 1.815648078918457031e+00 -1.091098427772521973e+00
3.754000000000000000e+03 1.595602512359619141e+01 -1.898668646812438965e+00 7.542157173156738281e+00 6.182304382324218750e+00 4.117338657379150391e+00 2.148303508758544922e+00
3.755000000000000000e+03 1.631609535217285156e+01 -3.182699441909790039e+00 5.534684181213378906e+00 5.793027400970458984e+00 3.398313522338867188e+00 1.190318346023559570e+00
3.756000000000000000e+03 1.540004158020019531e+01 -1.299914836883544922e+00 8.670609474182128906e+00 7.335836887359619141e+00 4.801933765411376953e+00 3.214093446731567383e+00
3.757000000000000000e+03 1.603954696655273438e+01 3.921299874782562256e-01 4.949314594268798828e+00 7.216784000396728516e+00 3.649829626083374023e+00 4.237214565277099609e+00
3.758000000000000000e+03 1.646207809448242188e+01 -6.883550435304641724e-03 5.660124778747558594e+00 6.210654735565185547e+00 3.561233758926391602e+00 3.914672851562500000e+00
3.759000000000000000e+03 1.652507972717285156e+01 7.242333889007568359e-01 4.460758209228515625e+00 6.553690910339355469e+00 3.304334640502929688e+00 3.956346988677978516e+00
3.760000000000000000e+03 1.251986408233642578e+01 -5.770844936370849609e+00 5.710020065307617188e-01 7.674125194549560547e+00 2.473538160324096680e+00 4.903198242187500000e+00
3.761000000000000000e+03 1.348852539062500000e+01 -5.533364772796630859e+00 7.398933172225952148e-01 8.118078231811523438e+00 2.657391548156738281e+00 3.977848768234252930e+00
3.762000000000000000e+03 1.640048980712890625e+01 -3.476438999176025391e+00 5.135731220245361328e+00 5.743987560272216797e+00 3.263915538787841797e+00 1.083765149116516113e+00
3.763000000000000000e+03 1.326552772521972656e+01 2.980475807189941406e+01 -2.103000730276107788e-01 2.865884304046630859e+00 7.966752648353576660e-01 -4.290994107723236084e-01
3.764000000000000000e+03 1.142994022369384766e+01 -4.607526302337646484e+00 2.476194143295288086e+00 6.435541629791259766e+00 2.673520803451538086e+00 5.815806388854980469e+00
3.765000000000000000e+03 1.569217109680175781e+01 -1.733193278312683105e+00 8.213034629821777344e+00 6.729716777801513672e+00 4.482825279235839844e+00 2.420335531234741211e+00
3.766000000000000000e+03 7.365953826904296875e+01 4.141624450683593750e+00 5.598157644271850586e-01 9.218134880065917969e+00 2.933385133743286133e+00 3.993743360042572021e-01
3.767000000000000000e+03 7.311167907714843750e+01 -1.270796489715576172e+01 -1.755863428115844727e-01 6.210366249084472656e+00 1.810433983802795410e+00 -4.302718937397003174e-01
3.768000000000000000e+03 4.626195144653320312e+01 -1.583275127410888672e+01 -1.042272806167602539e+00 7.769186496734619141e+00 2.018074035644531250e+00 -8.076590299606323242e-01
3.769000000000000000e+03 1.306082439422607422e+01 1.501055717468261719e+00 -1.154570579528808594e-01 9.240772247314453125e+00 2.737594604492187500e+00 -5.872213840484619141e-01
3.770000000000000000e+03 4.078813171386718750e+01 2.341033220291137695e+00 1.045117616653442383e+00 6.558652400970458984e+00 2.281131029129028320e+00 -1.983232498168945312e+00
3.771000000000000000e+03 7.461937713623046875e+01 1.406242084503173828e+01 -1.155530214309692383e-01 8.358312606811523438e+00 2.472827911376953125e+00 3.067271709442138672e-01
3.772000000000000000e+03 1.305381965637207031e+01 2.391644239425659180e+00 -2.157232537865638733e-02 7.451630115509033203e+00 2.229017257690429688e+00 -5.795736312866210938e-01
3.773000000000000000e+03 1.674688911437988281e+01 -3.443945407867431641e+00 5.060018539428710938e+00 5.090836048126220703e+00 3.045256376266479492e+00 1.177186250686645508e+00
3.774000000000000000e+03 1.627091407775878906e+01 -3.914078950881958008e+00 4.265971183776855469e+00 5.923745155334472656e+00 3.056914806365966797e+00 1.098585963249206543e+00
3.775000000000000000e+03 8.673894882202148438e+00 2.835493087768554688e+01 -9.906280785799026489e-02 2.083397150039672852e+00 5.953002572059631348e-01 -3.903205990791320801e-01
3.776000000000000000e+03 1.351829242706298828e+01 -6.200620174407958984e+00 1.503997594118118286e-01 7.447277069091796875e+00 2.279303073883056641e+00 4.028607845306396484e+00
3.777000000000000000e+03 1.692003440856933594e+01 2.928048605099320412e-03 5.511952877044677734e+00 5.589523315429687500e+00 3.330442905426025391e+00 3.664264917373657227e+00
3.778000000000000000e+03 1.144501590728759766e+01 -8.130294799804687500e+00 -1.236055135726928711e+00 6.491265296936035156e+00 1.576563119888305664e+00 4.729736804962158203e+00
3.779000000000000000e+03 1.117550754547119141e+01 -6.131350040435791016e+00 6.093667745590209961e-01 6.229641914367675781e+00 2.051702499389648438e+00 5.235878467559814453e+00
3.780000000000000000e+03 7.210827636718750000e+01 -1.104778671264648438e+01 -5.268495157361030579e-02 6.113982677459716797e+00 1.818389296531677246e+00 -2.071807831525802612e-01
3.781000000000000000e+03 1.253541469573974609e+01 3.716032505035400391e+00 1.512155979871749878e-01 5.335077762603759766e+00 1.645887970924377441e+00 -8.300377726554870605e-01
3.782000000000000000e+03 4.230317306518554688e+01 -9.970180511474609375e+00 -1.058108568191528320e+00 6.351683616638183594e+00 1.588072538375854492e+00 -2.190676450729370117e+00
3.783000000000000000e+03 1.551783084869384766e+01 -1.502028346061706543e+00 8.549077033996582031e+00 7.056828022003173828e+00 4.681771755218505859e+00 2.734957218170166016e+00
3.784000000000000000e+03 1.359332942962646484e+01 2.357017517089843750e+00 4.296078532934188843e-02 8.343037605285644531e+00 2.515799522399902344e+00 3.208295106887817383e-01
3.785000000000000000e+03 1.342381191253662109e+01 2.697065591812133789e+00 -1.615135744214057922e-02 7.581655025482177734e+00 2.269651174545288086e+00 -8.398115634918212891e-02
3.786000000000000000e+03 4.206058025360107422e+00 5.409524917602539062e+00 2.011816799640655518e-01 -5.618079565465450287e-03 5.866907909512519836e-02 1.826188415288925171e-01
3.787000000000000000e+03 9.220545768737792969e+00 -5.680675983428955078e+00 1.394832372665405273e+00 3.892093658447265625e+00 1.586077809333801270e+00 4.269405841827392578e+00
3.788000000000000000e+03 2.657024574279785156e+01 -1.085203361511230469e+01 -2.385180950164794922e+00 6.045099496841430664e-01 -5.342013239860534668e-01 -7.154520153999328613e-01
3.789000000000000000e+03 1.639423179626464844e+01 1.947902202606201172e+00 2.623930454254150391e+00 6.930541992187500000e+00 2.866341829299926758e+00 3.353424072265625000e+00
3.790000000000000000e+03 1.546126174926757812e+01 2.496045827865600586e+00 1.365636944770812988e+00 7.718379497528076172e+00 2.725204944610595703e+00 2.554807662963867188e+00
3.791000000000000000e+03 1.451128387451171875e+01 2.940179824829101562e+00 4.158957302570343018e-01 7.811792373657226562e+00 2.468306303024291992e+00 1.309857726097106934e+00
3.792000000000000000e+03 1.209708213806152344e+01 -6.545159339904785156e+00 -1.014779061079025269e-01 6.946531772613525391e+00 2.053516149520874023e+00 5.000058174133300781e+00
3.793000000000000000e+03 2.855517387390136719e+01 -8.761191368103027344e+00 -6.918544173240661621e-01 1.344379663467407227e+00 1.957575529813766479e-01 -1.326764225959777832e+00
3.794000000000000000e+03 5.679645538330078125e+00 4.430041790008544922e+00 2.939394116401672363e-01 1.767767667770385742e-01 1.412148624658584595e-01 1.587441712617874146e-01
3.795000000000000000e+03 1.256857204437255859e+01 3.395293474197387695e+00 1.024610847234725952e-01 5.605763435363769531e+00 1.712467432022094727e+00 -9.441124200820922852e-01
3.796000000000000000e+03 1.078676986694335938e+01 5.750476837158203125e+00 4.532890021800994873e-01 2.883464574813842773e+00 1.001026153564453125e+00 -8.146892786026000977e-01
3.797000000000000000e+03 1.146385765075683594e+01 5.882549762725830078e+00 3.314335048198699951e-01 3.498395204544067383e+00 1.148948550224304199e+00 -7.480183839797973633e-01
3.798000000000000000e+03 1.578227615356445312e+01 2.448488473892211914e+00 1.643323659896850586e+00 7.456336498260498047e+00 2.729897975921630859e+00 2.772627115249633789e+00
3.799000000000000000e+03 1.272032451629638672e+01 3.160207509994506836e+00 7.620818167924880981e-02 5.922374248504638672e+00 1.799574732780456543e+00 -8.451696038246154785e-01
3.800000000000000000e+03 1.319413948059082031e+01 3.022231578826904297e+00 -8.682495914399623871e-03 6.834671497344970703e+00 2.047796726226806641e+00 -4.061026573181152344e-01
3.801000000000000000e+03 1.652603912353515625e+01 -4.202331542968750000e+00 3.903588294982910156e+00 5.590928077697753906e+00 2.848354816436767578e+00 1.063790082931518555e+00
3.802000000000000000e+03 1.774111747741699219e+01 -2.376324653625488281e+00 5.588330268859863281e+00 3.855626106262207031e+00 2.833186864852905273e+00 1.684750199317932129e+00
3.803000000000000000e+03 1.735968017578125000e+01 3.562038540840148926e-01 4.962427139282226562e+00 5.232314109802246094e+00 3.058422327041625977e+00 3.517881393432617188e+00
3.804000000000000000e+03 2.890715789794921875e+01 -1.010840415954589844e+01 -1.395292878150939941e+00 1.251493215560913086e+00 -4.313988983631134033e-02 -1.210954904556274414e+00
3.805000000000000000e+03 3.006970405578613281e+01 -9.520752906799316406e+00 -9.123431444168090820e-01 1.564996600151062012e+00 1.957960426807403564e-01 -1.441091656684875488e+00
3.806000000000000000e+03 2.776196479797363281e+01 -8.814096450805664062e+00 -8.380004763603210449e-01 1.102996826171875000e+00 7.949890196323394775e-02 -1.225383162498474121e+00
3.807000000000000000e+03 6.742749691009521484e+00 8.621103286743164062e+00 3.428649008274078369e-01 9.780457019805908203e-01 3.962731957435607910e-01 -3.037402331829071045e-01
3.808000000000000000e+03 4.163072204589843750e+01 -8.010899543762207031e+00 -7.217369079589843750e-01 6.009644508361816406e+00 1.586372375488281250e+00 -2.269955396652221680e+00
3.809000000000000000e+03 4.236687088012695312e+01 -8.249195098876953125e+00 -7.501654624938964844e-01 6.159313678741455078e+00 1.622744441032409668e+00 -2.222440481185913086e+00
3.810000000000000000e+03 1.063592052459716797e+01 -8.267161369323730469e+00 -1.190367698669433594e+00 6.292638778686523438e+00 1.530681252479553223e+00 4.539610862731933594e+00
3.811000000000000000e+03 9.319002151489257812e+00 -7.007128238677978516e+00 1.112192496657371521e-01 4.877449512481689453e+00 1.496600627899169922e+00 4.204353332519531250e+00
3.812000000000000000e+03 1.348728942871093750e+01 3.008474826812744141e+00 3.577330615371465683e-03 7.201437950134277344e+00 2.161504507064819336e+00 -3.250588849186897278e-02
3.813000000000000000e+03 3.112131118774414062e+01 6.533691883087158203e+00 2.364307641983032227e+00 4.325506210327148438e+00 2.006944179534912109e+00 7.473985850811004639e-02
3.814000000000000000e+03 2.998838424682617188e+01 4.941556930541992188e+00 2.451094865798950195e+00 3.808156967163085938e+00 1.877775549888610840e+00 1.610406637191772461e-01
3.815000000000000000e+03 1.492608451843261719e+01 3.354778051376342773e+00 5.429478883743286133e-01 7.344685077667236328e+00 2.366289854049682617e+00 1.505396246910095215e+00
3.816000000000000000e+03 1.296269035339355469e+01 3.318812370300292969e+00 4.441703483462333679e-02 6.225761890411376953e+00 1.881053686141967773e+00 -5.639398097991943359e-01
3.817000000000000000e+03 1.269420719146728516e+01 5.491492748260498047e+00 1.729737371206283569e-01 4.621847629547119141e+00 1.438446402549743652e+00 -4.789961874485015869e-01
3.818000000000000000e+03 2.276192283630371094e+01 -4.945489406585693359e+00 2.223152637481689453e+00 9.733066558837890625e-01 9.589377641677856445e-01 -1.653823852539062500e-01
3.819000000000000000e+03 1.736516761779785156e+01 -2.722722887992858887e-01 5.626782894134521484e+00 4.932789325714111328e+00 3.167871713638305664e+00 3.310752391815185547e+00
3.820000000000000000e+03 2.894202041625976562e+01 -7.909453868865966797e+00 -2.853744626045227051e-01 1.468927741050720215e+00 3.550660014152526855e-01 -1.381844639778137207e+00
3.821000000000000000e+03 2.970126342773437500e+01 -8.279300689697265625e+00 -3.935324847698211670e-01 1.710605382919311523e+00 3.951218724250793457e-01 -1.474118590354919434e+00
3.822000000000000000e+03 3.845129013061523438e+01 -7.456128597259521484e+00 -4.495729804039001465e-01 4.951966285705566406e+00 1.350718021392822266e+00 -2.382321596145629883e+00
3.823000000000000000e+03 1.866569900512695312e+01 -1.814055681228637695e+00 5.269770145416259766e+00 3.237675905227661133e+00 2.552233934402465820e+00 1.876209855079650879e+00
3.824000000000000000e+03 1.675138473510742188e+01 -4.810593128204345703e-01 6.134362220764160156e+00 5.547001361846923828e+00 3.504409074783325195e+00 3.500711202621459961e+00
3.825000000000000000e+03 1.703142929077148438e+01 -8.342789411544799805e-01 6.250178337097167969e+00 4.970887184143066406e+00 3.366319656372070312e+00 3.060068845748901367e+00
3.826000000000000000e+03 1.685481643676757812e+01 -4.409786701202392578e+00 3.599449396133422852e+00 4.974213600158691406e+00 2.572098970413208008e+00 1.098226070404052734e+00
3.827000000000000000e+03 1.724235725402832031e+01 -4.702482223510742188e+00 3.222825765609741211e+00 4.303688526153564453e+00 2.257954359054565430e+00 1.079406857490539551e+00
3.828000000000000000e+03 1.740102005004882812e+01 1.061181902885437012e+00 4.110183238983154297e+00 5.538067340850830078e+00 2.894475221633911133e+00 3.521796703338623047e+00
3.829000000000000000e+03 1.618817138671875000e+01 2.848047256469726562e+00 1.635509848594665527e+00 6.903519630432128906e+00 2.561708927154541016e+00 2.658437967300415039e+00
3.830000000000000000e+03 1.427135276794433594e+01 3.947563171386718750e+00 1.979258954524993896e-01 6.681101322174072266e+00 2.063708305358886719e+00 6.164438724517822266e-01
3.831000000000000000e+03 1.513003063201904297e+01 -5.702460765838623047e+00 1.202602624893188477e+00 6.982001781463623047e+00 2.455381393432617188e+00 2.381616115570068359e+00
3.832000000000000000e+03 1.851174163818359375e+01 -4.649433612823486328e+00 3.245027780532836914e+00 2.883929729461669922e+00 1.838687181472778320e+00 8.239996433258056641e-01
3.833000000000000000e+03 1.743184089660644531e+01 1.419421076774597168e+00 3.739199399948120117e+00 5.649065971374511719e+00 2.816479444503784180e+00 3.481284856796264648e+00
3.834000000000000000e+03 1.279295444488525391e+01 5.926535606384277344e+00 1.714666485786437988e-01 4.565569877624511719e+00 1.421110987663269043e+00 -4.025768637657165527e-01
3.835000000000000000e+03 1.344854640960693359e+01 4.278180599212646484e+00 5.951580405235290527e-02 6.027980327606201172e+00 1.826248884201049805e+00 -1.276637166738510132e-01
3.836000000000000000e+03 3.802750015258789062e+01 -6.703551769256591797e+00 -2.990987896919250488e-01 4.811661243438720703e+00 1.353768825531005859e+00 -2.324155807495117188e+00
3.837000000000000000e+03 3.050900268554687500e+01 -7.017033100128173828e+00 1.222450137138366699e-01 2.105076313018798828e+00 6.681964397430419922e-01 -1.562618255615234375e+00
3.838000000000000000e+03 2.822871208190917969e+01 4.470828533172607422e+00 2.607091188430786133e+00 3.449201107025146484e+00 1.816887736320495605e+00 4.545042514801025391e-01
3.839000000000000000e+03 4.043215179443359375e+01 -2.420347452163696289e+00 3.460093736648559570e-01 5.711605072021484375e+00 1.817284345626831055e+00 -2.170920133590698242e+00
3.840000000000000000e+03 4.134984970092773438e+01 -3.502392768859863281e+00 1.359445154666900635e-01 5.851279258728027344e+00 1.796167135238647461e+00 -2.265682935714721680e+00
3.841000000000000000e+03 1.320234966278076172e+01 5.901438713073730469e+00 1.493195891380310059e-01 4.805513858795166016e+00 1.486450076103210449e+00 -2.515734136104583740e-01
3.842000000000000000e+03 1.735658454895019531e+01 -5.509603619575500488e-01 5.885940074920654297e+00 4.815014362335205078e+00 3.210286378860473633e+00 3.143749952316284180e+00
3.843000000000000000e+03 1.534624004364013672e+01 3.687175750732421875e+00 6.834918856620788574e-01 6.971113681793212891e+00 2.296381711959838867e+00 1.646608710289001465e+00
3.844000000000000000e+03 3.676199340820312500e+01 -6.114419937133789062e+00 -8.172070235013961792e-02 4.405583381652832031e+00 1.297158837318420410e+00 -2.195856094360351562e+00
3.845000000000000000e+03 1.586575317382812500e+01 3.232477426528930664e+00 1.203236460685729980e+00 6.972665786743164062e+00 2.452770709991455078e+00 2.285044431686401367e+00
3.846000000000000000e+03 1.480197811126708984e+01 4.269160747528076172e+00 3.552064001560211182e-01 6.561138629913330078e+00 2.074903488159179688e+00 1.001170635223388672e+00
3.847000000000000000e+03 1.353230476379394531e+01 3.979603052139282227e+00 5.552225559949874878e-02 6.166589260101318359e+00 1.866633415222167969e+00 -7.823444902896881104e-02
3.848000000000000000e+03 1.373933601379394531e+01 6.305036067962646484e+00 1.579884588718414307e-01 4.933903694152832031e+00 1.527567625045776367e+00 -8.511440828442573547e-03
3.849000000000000000e+03 1.407157611846923828e+01 5.787713050842285156e+00 1.582768261432647705e-01 5.341770648956298828e+00 1.650014281272888184e+00 1.736246943473815918e-01
3.850000000000000000e+03 3.082227706909179688e+01 -5.679375171661376953e+00 5.702763199806213379e-01 2.355690956115722656e+00 8.777901530265808105e-01 -1.498548746109008789e+00
3.851000000000000000e+03 1.612180519104003906e+01 3.617853164672851562e+00 1.191297650337219238e+00 6.658086299896240234e+00 2.354815244674682617e+00 2.194644212722778320e+00
3.852000000000000000e+03 1.655986213684082031e+01 3.368819952011108398e+00 1.539918184280395508e+00 6.430624961853027344e+00 2.391162872314453125e+00 2.465088605880737305e+00
3.853000000000000000e+03 7.577264308929443359e+00 1.939647102355957031e+01 -8.970249444246292114e-03 1.697582364082336426e+00 5.065836310386657715e-01 -4.537971317768096924e-01
3.854000000000000000e+03 1.056378555297851562e+01 2.376751708984375000e+01 -6.940065324306488037e-02 2.379967451095581055e+00 6.931700110435485840e-01 -4.741779565811157227e-01
3.855000000000000000e+03 1.429439353942871094e+01 5.282288074493408203e+00 1.772888451814651489e-01 5.755388736724853516e+00 1.779803276062011719e+00 3.936391472816467285e-01
3.856000000000000000e+03 1.606645393371582031e+01 3.929639577865600586e+00 9.940836429595947266e-01 6.467483043670654297e+00 2.238470077514648438e+00 1.932150840759277344e+00
3.857000000000000000e+03 1.119996833801269531e+01 8.911313056945800781e+00 2.351074814796447754e-01 3.007385253906250000e+00 9.727478027343750000e-01 -4.873147308826446533e-01
3.858000000000000000e+03 1.423212814331054688e+01 1.576770019531250000e+01 1.214250400662422180e-01 3.307592630386352539e+00 1.028705358505249023e+00 -2.580732703208923340e-01
3.859000000000000000e+03 2.466252708435058594e+01 -1.262878894805908203e+00 3.130190134048461914e+00 1.788764834403991699e+00 1.475686430931091309e+00 3.859070539474487305e-01
3.860000000000000000e+03 1.864834022521972656e+01 1.526922106742858887e+00 3.769659042358398438e+00 4.529785633087158203e+00 2.489833354949951172e+00 3.001909017562866211e+00
3.861000000000000000e+03 1.176395034790039062e+01 2.589595031738281250e+01 -1.139303222298622131e-01 2.609177589416503906e+00 7.485741972923278809e-01 -4.692988693714141846e-01
3.862000000000000000e+03 2.683324050903320312e+01 3.843491315841674805e+00 2.716331481933593750e+00 3.216198921203613281e+00 1.779759168624877930e+00 6.775503754615783691e-01
3.863000000000000000e+03 1.118169212341308594e+01 2.129456138610839844e+01 -3.631503507494926453e-02 2.517774343490600586e+00 7.444378137588500977e-01 -4.755493700504302979e-01
3.864000000000000000e+03 8.399751663208007812e+00 2.001699066162109375e+01 -2.167178317904472351e-02 1.921114921569824219e+00 5.698329210281372070e-01 -4.652307927608489990e-01
3.865000000000000000e+03 1.434872055053710938e+01 6.679335117340087891e+00 2.047175616025924683e-01 5.021803855895996094e+00 1.567956328392028809e+00 2.328089624643325806e-01
3.866000000000000000e+03 1.245386028289794922e+01 7.242105484008789062e+00 2.068368643522262573e-01 3.899472475051879883e+00 1.231892824172973633e+00 -3.963961303234100342e-01
3.867000000000000000e+03 1.517304229736328125e+01 5.969691276550292969e+00 3.447804749011993408e-01 5.553324222564697266e+00 1.769431352615356445e+00 7.529532909393310547e-01
3.868000000000000000e+03 1.069088268280029297e+01 2.228676223754882812e+01 -5.358058959245681763e-02 2.405414104461669922e+00 7.055500745773315430e-01 -4.806360900402069092e-01
3.869000000000000000e+03 3.038806533813476562e+01 -3.715765476226806641e+00 1.277709364891052246e+00 2.452260494232177734e+00 1.118991017341613770e+00 -1.213623642921447754e+00
3.870000000000000000e+03 2.448799896240234375e+01 -3.107396066188812256e-01 3.247719764709472656e+00 2.056338071823120117e+00 1.591217398643493652e+00 6.612996459007263184e-01
3.871000000000000000e+03 1.280877017974853516e+01 7.385822772979736328e+00 1.853647828102111816e-01 4.084482192993164062e+00 1.280954122543334961e+00 -3.299687206745147705e-01
3.872000000000000000e+03 1.901152992248535156e+01 1.075708508491516113e+00 4.089319705963134766e+00 4.099098205566406250e+00 2.456525325775146484e+00 2.867036342620849609e+00
3.873000000000000000e+03 1.935962486267089844e+01 2.188668966293334961e+00 3.386144399642944336e+00 4.236412525177001953e+00 2.286767005920410156e+00 2.709817171096801758e+00
3.874000000000000000e+03 1.814463615417480469e+01 -3.829777240753173828e-01 5.290182113647460938e+00 4.123345375061035156e+00 2.824058294296264648e+00 2.870724439620971680e+00
3.875000000000000000e+03 9.833053588867187500e+00 2.205001258850097656e+01 -5.005898699164390564e-02 2.225573301315307617e+00 6.526542901992797852e-01 -4.718936085700988770e-01
3.876000000000000000e+03 2.133073616027832031e+01 -2.316545963287353516e+00 3.970777988433837891e+00 1.863831758499145508e+00 1.750382900238037109e+00 9.611059427261352539e-01
3.877000000000000000e+03 1.534438610076904297e+01 6.500149250030517578e+00 3.603336215019226074e-01 5.312290191650390625e+00 1.701787233352661133e+00 7.066024541854858398e-01
3.878000000000000000e+03 2.447414398193359375e+01 9.405695199966430664e-01 3.265114545822143555e+00 2.391896486282348633e+00 1.697103261947631836e+00 9.472041726112365723e-01
3.879000000000000000e+03 1.255542182922363281e+01 7.930102348327636719e+00 1.833281517028808594e-01 3.829284429550170898e+00 1.203783750534057617e+00 -3.601938188076019287e-01
3.880000000000000000e+03 1.586220836639404297e+01 6.409056663513183594e+00 4.822179675102233887e-01 5.377814292907714844e+00 1.758009672164916992e+00 9.384037256240844727e-01
3.881000000000000000e+03 1.549956798553466797e+01 7.050570964813232422e+00 3.708975017070770264e-01 5.113029479980468750e+00 1.645178079605102539e+00 6.630126237869262695e-01
3.882000000000000000e+03 8.872168540954589844e+00 1.255055999755859375e+01 1.499453485012054443e-01 1.979351401329040527e+00 6.387890577316284180e-01 -4.573367536067962646e-01
3.883000000000000000e+03 1.906361579895019531e+01 -3.179753571748733521e-02 4.760482311248779297e+00 3.593396186828613281e+00 2.506163597106933594e+00 2.610568523406982422e+00
3.884000000000000000e+03 2.118999290466308594e+01 -5.325236171483993530e-02 4.105112552642822266e+00 2.595625162124633789e+00 2.010221481323242188e+00 1.781160593032836914e+00
3.885000000000000000e+03 1.305516147613525391e+01 7.610000133514404297e+00 1.838875114917755127e-01 4.159012317657470703e+00 1.302869915962219238e+00 -2.538801133632659912e-01
3.886000000000000000e+03 1.281805419921875000e+01 8.101535797119140625e+00 1.776037365198135376e-01 3.908880710601806641e+00 1.225945353507995605e+00 -3.088356554508209229e-01
3.887000000000000000e+03 1.623818969726562500e+01 5.753108501434326172e+00 6.440472006797790527e-01 5.629093170166015625e+00 1.881942152976989746e+00 1.267634630203247070e+00
3.888000000000000000e+03 2.022113990783691406e+01 1.242855453491210938e+01 8.188548684120178223e-01 4.266026496887207031e+00 1.525464534759521484e+00 5.175060033798217773e-01
3.889000000000000000e+03 2.137974929809570312e+01 1.163559913635253906e+01 1.095890879631042480e+00 4.286104679107666016e+00 1.614598631858825684e+00 6.749312281608581543e-01
3.890000000000000000e+03 1.975048446655273438e+01 5.012760683894157410e-02 4.498140335083007812e+00 3.225667476654052734e+00 2.317142248153686523e+00 2.355275392532348633e+00
3.891000000000000000e+03 2.001501083374023438e+01 8.031661510467529297e-01 4.108417987823486328e+00 3.397876977920532227e+00 2.251888513565063477e+00 2.419947862625122070e+00
3.892000000000000000e+03 1.177475166320800781e+01 1.025302314758300781e+01 1.866867393255233765e-01 3.162039756774902344e+00 1.004617929458618164e+00 -3.916046023368835449e-01
3.893000000000000000e+03 1.310524177551269531e+01 8.461160659790039062e+00 1.798942089080810547e-01 3.949482917785644531e+00 1.238813161849975586e+00 -2.256971150636672974e-01
3.894000000000000000e+03 1.271541118621826172e+01 8.463517189025878906e+00 1.847771108150482178e-01 3.796103715896606445e+00 1.194264292716979980e+00 -3.085208833217620850e-01
3.895000000000000000e+03 1.314308357238769531e+01 7.877257347106933594e+00 1.665937006473541260e-01 4.116990566253662109e+00 1.285075306892395020e+00 -2.265465259552001953e-01
3.896000000000000000e+03 1.936057090759277344e+01 1.071501016616821289e+00 4.064682960510253906e+00 3.908531188964843750e+00 2.391964197158813477e+00 2.752902030944824219e+00
3.897000000000000000e+03 1.309688949584960938e+01 8.165032386779785156e+00 1.693327128887176514e-01 4.030717372894287109e+00 1.260015010833740234e+00 -2.363767772912979126e-01
3.898000000000000000e+03 1.969348526000976562e+01 1.373076796531677246e+00 3.885602235794067383e+00 3.756681442260742188e+00 2.292685031890869141e+00 2.614894866943359375e+00
3.899000000000000000e+03 2.098321151733398438e+01 8.808352947235107422e-01 3.917704820632934570e+00 3.003787279129028320e+00 2.076447725296020508e+00 2.070003986358642578e+00
3.900000000000000000e+03 1.224602794647216797e+01 1.051796245574951172e+01 1.696420609951019287e-01 3.309759616851806641e+00 1.043820500373840332e+00 -3.313613533973693848e-01
3.901000000000000000e+03 1.216135311126708984e+01 1.104773235321044922e+01 1.653426289558410645e-01 3.218651771545410156e+00 1.015198349952697754e+00 -3.335222899913787842e-01
3.902000000000000000e+03 1.361724281311035156e+01 8.549283981323242188e+00 1.817361563444137573e-01 4.147190093994140625e+00 1.298677802085876465e+00 -9.194003790616989136e-02
3.903000000000000000e+03 1.336168289184570312e+01 8.258797645568847656e+00 1.778855919837951660e-01 4.114987850189208984e+00 1.287861943244934082e+00 -1.483035832643508911e-01
3.904000000000000000e+03 1.335595703125000000e+01 9.784353256225585938e+00 1.801335513591766357e-01 3.775869131088256836e+00 1.186800837516784668e+00 -1.614058315753936768e-01
3.905000000000000000e+03 1.298859119415283203e+01 1.181695461273193359e+01 1.569365561008453369e-01 3.381895065307617188e+00 1.061649441719055176e+00 -2.535136640071868896e-01
3.906000000000000000e+03 1.779021453857421875e+01 6.076207637786865234e+00 1.120390653610229492e+00 5.173813343048095703e+00 1.888261079788208008e+00 1.621230363845825195e+00
3.907000000000000000e+03 2.128087425231933594e+01 1.113824009895324707e+00 3.814372301101684570e+00 2.983774185180664062e+00 2.039443969726562500e+00 2.011903762817382812e+00
3.908000000000000000e+03 2.187269210815429688e+01 5.028204917907714844e-01 3.847753524780273438e+00 2.613723754882812500e+00 1.938443183898925781e+00 1.695090293884277344e+00
3.909000000000000000e+03 1.826910781860351562e+01 6.183016777038574219e+00 1.242379307746887207e+00 5.041049480438232422e+00 1.885028600692749023e+00 1.664342880249023438e+00
3.910000000000000000e+03 1.561985969543457031e+01 9.486606597900390625e+00 3.278104960918426514e-01 4.412120819091796875e+00 1.421979308128356934e+00 3.409667909145355225e-01
3.911000000000000000e+03 1.467545032501220703e+01 1.055291271209716797e+01 2.293549478054046631e-01 3.999366760253906250e+00 1.268616437911987305e+00 4.673524200916290283e-02
3.912000000000000000e+03 2.182308197021484375e+01 1.518833756446838379e+00 3.597601175308227539e+00 2.964212179183959961e+00 1.968544006347656250e+00 1.878891587257385254e+00
3.913000000000000000e+03 2.087057495117187500e+01 1.501245021820068359e+00 3.709536075592041016e+00 3.277032136917114258e+00 2.095970392227172852e+00 2.202257156372070312e+00
3.914000000000000000e+03 2.181682205200195312e+01 8.592846989631652832e-01 3.802323341369628906e+00 2.739910364151000977e+00 1.962670087814331055e+00 1.790995240211486816e+00
3.915000000000000000e+03 9.809309005737304688e+00 2.995910942554473877e-01 -2.201834917068481445e+00 -2.544252574443817139e-01 -7.368780374526977539e-01 4.558579027652740479e-01
3.916000000000000000e+03 9.834986686706542969e+00 4.980830550193786621e-01 -1.660568952560424805e+00 -2.461255937814712524e-01 -5.720083713531494141e-01 2.589471638202667236e-01
3.917000000000000000e+03 8.813147544860839844e+00 2.048064023256301880e-01 -2.143628120422363281e+00 2.427026815712451935e-02 -6.358073949813842773e-01 7.620232552289962769e-02
3.918000000000000000e+03 6.567476272583007812e+00 2.642557322978973389e-01 -1.259031295776367188e+00 -3.401084803044795990e-03 -3.787297308444976807e-01 7.578029483556747437e-02
3.919000000000000000e+03 5.797538280487060547e+00 2.664746344089508057e-01 -1.026755809783935547e+00 3.724654670804738998e-03 -3.069093525409698486e-01 7.790459692478179932e-02
3.920000000000000000e+03 4.253377914428710938e+00 2.687028348445892334e-01 -5.883736014366149902e-01 1.576020615175366402e-03 -1.760392636060714722e-01 6.741684675216674805e-02
3.921000000000000000e+03 5.026023864746093750e+00 2.685572803020477295e-01 -7.998648881912231445e-01 -6.282311398535966873e-03 -2.418441623449325562e-01 7.326136529445648193e-02
3.922000000000000000e+03 2.099626541137695312e+00 7.784601449966430664e-01 -1.505958139896392822e-01 -1.309959683567285538e-02 -4.910862073302268982e-02 1.039168983697891235e-01
3.923000000000000000e+03 1.982388973236083984e+00 2.772981822490692139e-01 -1.073391139507293701e-01 -1.742305816151201725e-03 -3.272442519664764404e-02 4.045036435127258301e-02
3.924000000000000000e+03 1.581262469291687012e+00 9.456387162208557129e-01 -9.072346985340118408e-02 -3.965867310762405396e-02 -3.911464288830757141e-02 9.553469717502593994e-02
3.925000000000000000e+03 2.720688819885253906e+00 2.664572894573211670e-01 -2.397482991218566895e-01 -1.594835426658391953e-03 -7.240293920040130615e-02 4.550917074084281921e-02
3.926000000000000000e+03 1.058267474174499512e+00 1.128470897674560547e+00 -4.978087916970252991e-02 -5.809662863612174988e-02 -3.236325085163116455e-02 7.485748827457427979e-02
3.927000000000000000e+03 3.752886652946472168e-01 9.576067924499511719e-01 -7.732904050499200821e-03 -2.417593635618686676e-02 -9.572652168571949005e-03 1.878374256193637848e-02
3.928000000000000000e+03 6.564800739288330078e-01 3.884709179401397705e-01 -1.038448791950941086e-02 -3.860021941363811493e-03 -4.273353144526481628e-03 5.379406269639730453e-03
3.929000000000000000e+03 3.482633113861083984e+00 2.676017284393310547e-01 -3.980289697647094727e-01 -7.219924125820398331e-03 -1.215746626257896423e-01 5.826142057776451111e-02
3.930000000000000000e+03 5.124840259552001953e+00 1.255824804306030273e+00 -5.009169578552246094e-01 -1.641428284347057343e-02 -1.551993638277053833e-01 2.762296795845031738e-01
3.931000000000000000e+03 5.910782337188720703e+00 1.254282355308532715e+00 -6.029641628265380859e-01 -4.180408082902431488e-03 -1.821433603763580322e-01 2.828944325447082520e-01
3.932000000000000000e+03 7.349011898040771484e+00 2.766889333724975586e-01 -1.508038997650146484e+00 -6.496075540781021118e-03 -4.543605446815490723e-01 9.060447663068771362e-02
3.933000000000000000e+03 8.287188529968261719e+00 6.557045578956604004e-01 -1.367975592613220215e+00 -4.875425714999437332e-03 -4.118552803993225098e-01 2.122270464897155762e-01
3.934000000000000000e+03 9.925656318664550781e+00 6.694539785385131836e-01 -1.047941803932189941e+00 -1.526219844818115234e-01 -3.601691424846649170e-01 9.247094392776489258e-02
3.935000000000000000e+03 1.005822181701660156e+01 9.572271108627319336e-01 -4.334890842437744141e-01 2.917739748954772949e-02 -1.212935075163841248e-01 -2.246270477771759033e-01
3.936000000000000000e+03 1.008167934417724609e+01 1.101938843727111816e+00 -5.976587533950805664e-02 2.302560657262802124e-01 5.114705860614776611e-02 -4.615544974803924561e-01
3.937000000000000000e+03 9.993823051452636719e+00 1.415549755096435547e+00 1.282663196325302124e-01 2.695333957672119141e-01 1.193399131298065186e-01 -4.844810068607330322e-01
3.938000000000000000e+03 1.001170635223388672e+01 8.103036880493164062e-01 -5.621367692947387695e-01 -4.480468481779098511e-02 -1.820824444293975830e-01 -7.738231122493743896e-02
3.939000000000000000e+03 9.830287933349609375e+00 1.071092128753662109e+00 -4.278931915760040283e-01 2.423442341387271881e-02 -1.210976317524909973e-01 -1.652042120695114136e-01
3.940000000000000000e+03 9.711550712585449219e+00 1.144360825419425964e-01 -3.091723918914794922e+00 -8.609039336442947388e-02 -9.533442854881286621e-01 3.078634440898895264e-01
3.941000000000000000e+03 9.723481178283691406e+00 8.855327367782592773e-01 -7.570503354072570801e-01 -1.394597738981246948e-01 -2.689530253410339355e-01 3.350527584552764893e-02
3.942000000000000000e+03 9.163629531860351562e+00 1.307025909423828125e+00 -3.697394430637359619e-01 4.893567785620689392e-02 -9.624113142490386963e-02 6.583259999752044678e-02
3.943000000000000000e+03 9.360291481018066406e+00 2.703710198402404785e-01 -2.466781377792358398e+00 -9.716930985450744629e-02 -7.691852450370788574e-01 1.934140920639038086e-01
3.944000000000000000e+03 8.108668327331542969e+00 2.462166249752044678e-01 -1.776563048362731934e+00 -7.938535884022712708e-03 -5.353504419326782227e-01 1.098881512880325317e-01
3.945000000000000000e+03 6.686680793762207031e+00 1.251654505729675293e+00 -6.702019572257995605e-01 -1.323943585157394409e-02 -2.050324231386184692e-01 2.861338257789611816e-01
3.946000000000000000e+03 3.520911931991577148e+00 7.655715346336364746e-01 -3.576179146766662598e-01 -1.309975050389766693e-02 -1.112152934074401855e-01 1.601548343896865845e-01
3.947000000000000000e+03 5.075121402740478516e+00 7.643820643424987793e-01 -6.564365625381469727e-01 -5.017498508095741272e-03 -1.984362304210662842e-01 1.943889260292053223e-01
3.948000000000000000e+03 7.414497375488281250e+00 1.249985694885253906e+00 -6.845448017120361328e-01 3.535810392349958420e-03 -2.043026983737945557e-01 2.636868953704833984e-01
3.949000000000000000e+03 8.457814216613769531e+00 1.274934172630310059e+00 -6.470751762390136719e-01 -3.319892100989818573e-03 -1.951185315847396851e-01 2.171642780303955078e-01
3.950000000000000000e+03 1.007959365844726562e+01 1.254427433013916016e+00 8.984567224979400635e-02 1.876817494630813599e-01 8.325822651386260986e-02 -4.761883020401000977e-01
3.951000000000000000e+03 1.290104627609252930e+00 3.251298069953918457e-01 -2.996544539928436279e-02 -1.161584351211786270e-02 -1.247438695281744003e-02 1.857224665582180023e-02
3.952000000000000000e+03 2.069446086883544922e+00 1.261161923408508301e+00 -1.267606467008590698e-01 -5.609279870986938477e-02 -5.485603585839271545e-02 1.562514603137969971e-01
3.953000000000000000e+03 2.769246578216552734e+00 7.664883732795715332e-01 -2.287357449531555176e-01 -2.072118967771530151e-02 -7.483708113431930542e-02 1.349686384201049805e-01
3.954000000000000000e+03 2.781649827957153320e+00 1.260031104087829590e+00 -2.053131610155105591e-01 -4.238877445459365845e-02 -7.431058585643768311e-02 2.015490233898162842e-01
3.955000000000000000e+03 3.552254199981689453e+00 1.257969856262207031e+00 -2.956740558147430420e-01 -3.369843587279319763e-02 -9.881174564361572266e-02 2.395922690629959106e-01
3.956000000000000000e+03 4.337225914001464844e+00 1.256809949874877930e+00 -4.011746644973754883e-01 -1.849950291216373444e-02 -1.259022504091262817e-01 2.609609961509704590e-01
3.957000000000000000e+03 5.851694583892822266e+00 7.607569694519042969e-01 -8.150272965431213379e-01 -6.802729796618223190e-03 -2.465490102767944336e-01 2.016144096851348877e-01
3.958000000000000000e+03 6.616647720336914062e+00 7.559102177619934082e-01 -9.931541681289672852e-01 3.322714474052190781e-04 -2.978465557098388672e-01 2.114501744508743286e-01
3.959000000000000000e+03 7.903921127319335938e+00 1.012390613555908203e+00 -9.390919804573059082e-01 -1.680502854287624359e-02 -2.867690920829772949e-01 2.220774888992309570e-01
3.960000000000000000e+03 8.698478698730468750e+00 8.795146942138671875e-01 -1.078650116920471191e+00 5.066262092441320419e-03 -3.220751583576202393e-01 2.369463741779327393e-01
3.961000000000000000e+03 8.788172721862792969e+00 5.493869185447692871e-01 -1.646171212196350098e+00 1.797874458134174347e-02 -4.884577691555023193e-01 2.094094306230545044e-01
3.962000000000000000e+03 9.267324447631835938e+00 9.148676395416259766e-01 -9.329620599746704102e-01 -9.775941818952560425e-02 -3.092164397239685059e-01 1.597867310047149658e-01
3.963000000000000000e+03 9.317793846130371094e+00 5.641543865203857422e-01 -1.612255573272705078e+00 -1.637095361948013306e-01 -5.327895283699035645e-01 2.803122699260711670e-01
3.964000000000000000e+03 7.345117092132568359e+00 7.666746377944946289e-01 -1.147230982780456543e+00 -2.166809700429439545e-02 -3.506697118282318115e-01 2.263848930597305298e-01
3.965000000000000000e+03 4.295745372772216797e+00 7.655127644538879395e-01 -5.005788207054138184e-01 -1.195707265287637711e-02 -1.537607759237289429e-01 1.817950904369354248e-01
3.966000000000000000e+03 9.716671943664550781e+00 1.282489299774169922e+00 -1.537912189960479736e-01 1.889400035142898560e-01 1.054463442414999008e-02 -2.868196368217468262e-01
3.967000000000000000e+03 1.267535591125488281e+01 -1.121822714805603027e+00 3.949036026000976562e+01 2.243791580200195312e+00 1.252024555206298828e+01 -3.604683637619018555e+00
3.968000000000000000e+03 1.267165374755859375e+01 -1.140938520431518555e+00 4.581262207031250000e+01 3.686138629913330078e+00 1.484962844848632812e+01 7.900274276733398438e+00
3.969000000000000000e+03 1.267174339294433594e+01 -1.160409450531005859e+00 4.772367858886718750e+01 9.272201538085937500e+00 1.709876441955566406e+01 1.501627159118652344e+01
3.970000000000000000e+03 1.267562294006347656e+01 -1.179490327835083008e+00 4.670280075073242188e+01 1.672470474243164062e+01 1.902825164794921875e+01 2.107337188720703125e+01
3.971000000000000000e+03 1.268314361572265625e+01 -1.197450518608093262e+00 4.387080764770507812e+01 2.517477607727050781e+01 2.071367454528808594e+01 2.477036666870117188e+01
3.972000000000000000e+03 1.269401645660400391e+01 -1.213602662086486816e+00 3.949998092651367188e+01 3.402602767944335938e+01 2.205780410766601562e+01 2.630102729797363281e+01
3.973000000000000000e+03 1.270782756805419922e+01 -1.227328419685363770e+00 3.484666061401367188e+01 4.223911285400390625e+01 2.312573051452636719e+01 2.541163444519042969e+01
3.974000000000000000e+03 1.272404575347900391e+01 -1.238102436065673828e+00 3.043227386474609375e+01 4.900299835205078125e+01 2.383058166503906250e+01 2.243463706970214844e+01
3.975000000000000000e+03 1.274205207824707031e+01 -1.245512247085571289e+00 2.729944610595703125e+01 5.365969467163085938e+01 2.428774261474609375e+01 1.796089363098144531e+01
3.976000000000000000e+03 1.276115608215332031e+01 -1.249274253845214844e+00 2.574825477600097656e+01 5.598218536376953125e+01 2.451913261413574219e+01 1.268544483184814453e+01
3.977000000000000000e+03 1.278062725067138672e+01 -1.249244451522827148e+00 2.585152244567871094e+01 5.595504379272460938e+01 2.454197120666503906e+01 7.533693790435791016e+00
3.978000000000000000e+03 1.279972076416015625e+01 -1.245423913002014160e+00 2.750359916687011719e+01 5.402198791503906250e+01 2.445767593383789062e+01 3.142203092575073242e+00
3.979000000000000000e+03 1.281770420074462891e+01 -1.237958908081054688e+00 3.031339073181152344e+01 5.081074142456054688e+01 2.433724021911621094e+01 4.479646310210227966e-02
3.980000000000000000e+03 1.283388900756835938e+01 -1.227135181427001953e+00 3.366272354125976562e+01 4.682977676391601562e+01 2.414775085449218750e+01 -1.598617434501647949e+00
3.981000000000000000e+03 1.284765815734863281e+01 -1.213367104530334473e+00 3.723933410644531250e+01 4.296473693847656250e+01 2.406122016906738281e+01 -1.651153802871704102e+00
3.982000000000000000e+03 1.285848236083984375e+01 -1.197181701660156250e+00 4.045698165893554688e+01 3.939021682739257812e+01 2.395416069030761719e+01 -3.199745714664459229e-01
3.983000000000000000e+03 1.286594772338867188e+01 -1.179198384284973145e+00 4.303240203857421875e+01 3.691268539428710938e+01 2.398352622985839844e+01 2.232002735137939453e+00
3.984000000000000000e+03 1.286976814270019531e+01 -1.160105586051940918e+00 4.451250457763671875e+01 3.550791168212890625e+01 2.400612449645996094e+01 5.739674568176269531e+00
3.985000000000000000e+03 1.286979866027832031e+01 -1.140634179115295410e+00 4.459979248046875000e+01 3.567530059814453125e+01 2.408252906799316406e+01 9.712927818298339844e+00
3.986000000000000000e+03 1.286603641510009766e+01 -1.121529698371887207e+00 4.299407958984375000e+01 3.741606140136718750e+01 2.412304115295410156e+01 1.373383045196533203e+01
3.987000000000000000e+03 1.285862731933593750e+01 -1.103523254394531250e+00 3.965073394775390625e+01 4.067332458496093750e+01 2.409721755981445312e+01 1.710521316528320312e+01
3.988000000000000000e+03 1.284785366058349609e+01 -1.087304234504699707e+00 3.466163253784179688e+01 4.506019973754882812e+01 2.391654968261718750e+01 1.923375701904296875e+01
3.989000000000000000e+03 1.283412742614746094e+01 -1.073493480682373047e+00 2.856089782714843750e+01 4.990292358398437500e+01 2.353914642333984375e+01 1.956134414672851562e+01
3.990000000000000000e+03 1.281797504425048828e+01 -1.062619686126708984e+00 2.194800567626953125e+01 5.447267913818359375e+01 2.292620468139648438e+01 1.780283355712890625e+01
3.991000000000000000e+03 1.280001449584960938e+01 -1.055099010467529297e+00 1.559843254089355469e+01 5.763536071777343750e+01 2.197013854980468750e+01 1.414187335968017578e+01
3.992000000000000000e+03 1.278093338012695312e+01 -1.051219463348388672e+00 1.031344890594482422e+01 5.886382293701171875e+01 2.075318145751953125e+01 8.849727630615234375e+00
3.993000000000000000e+03 1.276146221160888672e+01 -1.051129579544067383e+00 6.382443428039550781e+00 5.746307754516601562e+01 1.915365600585937500e+01 2.865008831024169922e+00
3.994000000000000000e+03 1.274234676361083984e+01 -1.054832577705383301e+00 4.197625160217285156e+00 5.341039276123046875e+01 1.728240585327148438e+01 -3.248934268951416016e+00
3.995000000000000000e+03 1.272431755065917969e+01 -1.062186956405639648e+00 3.402331829071044922e+00 4.700962448120117188e+01 1.512358665466308594e+01 -8.428986549377441406e+00
3.996000000000000000e+03 1.270806503295898438e+01 -1.072911024093627930e+00 4.428837776184082031e+00 3.831636428833007812e+01 1.282356071472167969e+01 -1.240722465515136719e+01
3.997000000000000000e+03 1.269421195983886719e+01 -1.086594343185424805e+00 6.072442054748535156e+00 2.827568626403808594e+01 1.030443859100341797e+01 -1.438154411315917969e+01
3.998000000000000000e+03 1.268328952789306641e+01 -1.102713108062744141e+00 1.250086212158203125e+01 1.405665969848632812e+01 7.967256546020507812e+00 -1.238498115539550781e+01
