# el_label, x, y, sXX, sYY, sZZ, sXY
1.000000000000000000e+00 5.184048843383789062e+01 -1.959293746948242188e+01 -2.787217378616333008e+00 -2.882687807083129883e+00 -1.700971603393554688e+00 -2.315094470977783203e+00
2.000000000000000000e+00 5.164986419677734375e+01 -1.965021133422851562e+01 -4.026381969451904297e-01 9.623000621795654297e-01 1.678985506296157837e-01 3.882489502429962158e-01
3.000000000000000000e+00 5.145924377441406250e+01 -1.970748710632324219e+01 -1.184016108512878418e+00 -3.569229841232299805e-01 -4.622817337512969971e-01 -1.677235215902328491e-01
4.000000000000000000e+00 5.126862335205078125e+01 -1.976476478576660156e+01 -1.422343373298645020e+00 1.695808917284011841e-01 -3.758287429809570312e-01 -1.851007491350173950e-01
5.000000000000000000e+00 5.186268615722656250e+01 -1.964695930480957031e+01 7.262800693511962891e+00 -1.052082061767578125e+00 1.863215684890747070e+00 3.111078977584838867e+00
6.000000000000000000e+00 5.168685913085937500e+01 -1.974024963378906250e+01 2.141596794128417969e+00 6.120716929435729980e-01 8.261005878448486328e-01 1.338955879211425781e+00
7.000000000000000000e+00 5.151103591918945312e+01 -1.983353996276855469e+01 1.807471156120300293e+00 1.329895377159118652e+00 9.412099719047546387e-01 1.839303255081176758e+00
8.000000000000000000e+00 5.133521270751953125e+01 -1.992683029174804688e+01 1.003647089004516602e+00 5.898150801658630371e-01 4.780386686325073242e-01 1.168584227561950684e+00
9.000000000000000000e+00 5.189497375488281250e+01 -1.969562530517578125e+01 9.073675155639648438e+00 4.595963001251220703e+00 4.100891590118408203e+00 8.137560844421386719e+00
1.000000000000000000e+01 5.174067687988281250e+01 -1.982136154174804688e+01 5.351174831390380859e+00 2.831359386444091797e+00 2.454760074615478516e+00 4.664850711822509766e+00
1.100000000000000000e+01 5.158638000488281250e+01 -1.994709777832031250e+01 3.214186191558837891e+00 2.653804779052734375e+00 1.760397195816040039e+00 3.420838832855224609e+00
1.200000000000000000e+01 5.143207931518554688e+01 -2.007283210754394531e+01 2.612137556076049805e+00 2.719907522201538086e+00 1.599613547325134277e+00 3.178104877471923828e+00
1.300000000000000000e+01 5.193611907958984375e+01 -1.973707580566406250e+01 8.881206512451171875e+00 1.146256351470947266e+01 6.103130817413330078e+00 1.113113307952880859e+01
1.400000000000000000e+01 5.180925369262695312e+01 -1.989044380187988281e+01 5.342921733856201172e+00 7.016424655914306641e+00 3.707803964614868164e+00 7.214830398559570312e+00
1.500000000000000000e+01 5.168238449096679688e+01 -2.004381179809570312e+01 4.078327655792236328e+00 5.768595218658447266e+00 2.954076766967773438e+00 5.521756172180175781e+00
1.600000000000000000e+01 5.155551910400390625e+01 -2.019718170166015625e+01 2.878775596618652344e+00 4.798408508300781250e+00 2.303155183792114258e+00 4.567983627319335938e+00
1.700000000000000000e+01 5.198454666137695312e+01 -1.976972198486328125e+01 6.561863899230957031e+00 1.856823539733886719e+01 7.539029598236083984e+00 1.199070262908935547e+01
1.800000000000000000e+01 5.188996505737304688e+01 -1.994485473632812500e+01 4.649660110473632812e+00 1.229125595092773438e+01 5.082274913787841797e+00 8.374137878417968750e+00
1.900000000000000000e+01 5.179538345336914062e+01 -2.011998748779296875e+01 3.231484889984130859e+00 9.524263381958007812e+00 3.826724529266357422e+00 6.614528656005859375e+00
2.000000000000000000e+01 5.170080184936523438e+01 -2.029512023925781250e+01 2.494909286499023438e+00 8.305248260498046875e+00 3.240047454833984375e+00 5.544538974761962891e+00
2.100000000000000000e+01 5.203840637207031250e+01 -1.979231643676757812e+01 4.553721904754638672e+00 2.535504722595214844e+01 8.972630500793457031e+00 1.061558151245117188e+01
2.200000000000000000e+01 5.197972869873046875e+01 -1.998251152038574219e+01 2.983345270156860352e+00 1.729906845092773438e+01 6.084723949432373047e+00 7.976024627685546875e+00
2.300000000000000000e+01 5.192105102539062500e+01 -2.017270660400390625e+01 2.240682840347290039e+00 1.389517593383789062e+01 4.840757846832275391e+00 6.470784187316894531e+00
2.400000000000000000e+01 5.186237335205078125e+01 -2.036290168762207031e+01 1.418294668197631836e+00 1.169781589508056641e+01 3.934833288192749023e+00 5.561777591705322266e+00
2.500000000000000000e+01 5.209563064575195312e+01 -1.980399322509765625e+01 2.801238298416137695e+00 3.058838462829589844e+01 1.001688671112060547e+01 7.508124828338623047e+00
2.600000000000000000e+01 5.207510375976562500e+01 -2.000197219848632812e+01 2.029909849166870117e+00 2.177799987792968750e+01 7.142373085021972656e+00 6.122826099395751953e+00
2.700000000000000000e+01 5.205457687377929688e+01 -2.019995117187500000e+01 1.016902208328247070e+00 1.759923171997070312e+01 5.584840297698974609e+00 5.223631858825683594e+00
2.800000000000000000e+01 5.203404998779296875e+01 -2.039793205261230469e+01 6.041182279586791992e-01 1.518895244598388672e+01 4.737921237945556641e+00 4.392801284790039062e+00
2.900000000000000000e+01 5.215403366088867188e+01 -1.980430412292480469e+01 2.756121873855590820e+00 3.397880554199218750e+01 1.102047824859619141e+01 3.441733837127685547e+00
3.000000000000000000e+01 5.217244338989257812e+01 -2.000249290466308594e+01 1.519947648048400879e+00 2.500982284545898438e+01 7.958931446075439453e+00 3.286619186401367188e+00
3.100000000000000000e+01 5.219085311889648438e+01 -2.020067977905273438e+01 8.033362030982971191e-01 2.042089271545410156e+01 6.367268562316894531e+00 2.950805187225341797e+00
3.200000000000000000e+01 5.220926284790039062e+01 -2.039886856079101562e+01 -1.994280144572257996e-02 1.769064712524414062e+01 5.301211357116699219e+00 2.656201362609863281e+00
3.300000000000000000e+01 5.221138000488281250e+01 -1.979324150085449219e+01 4.320743083953857422e+00 3.527221298217773438e+01 1.187788677215576172e+01 -9.059189558029174805e-01
3.400000000000000000e+01 5.226802062988281250e+01 -1.998405265808105469e+01 2.096185684204101562e+00 2.674813079833984375e+01 8.653295516967773438e+00 1.777936369180679321e-01
3.500000000000000000e+01 5.232466125488281250e+01 -2.017486572265625000e+01 1.341710448265075684e+00 2.220537948608398438e+01 7.064127445220947266e+00 1.114516630768775940e-01
3.600000000000000000e+01 5.238130187988281250e+01 -2.036567687988281250e+01 5.987271070480346680e-01 1.896555709838867188e+01 5.869285583496093750e+00 2.746091485023498535e-01
3.700000000000000000e+01 5.226547622680664062e+01 -1.977122497558593750e+01 7.056614398956298828e+00 3.476465225219726562e+01 1.254638099670410156e+01 -4.573912143707275391e+00
3.800000000000000000e+01 5.235818099975585938e+01 -1.994735908508300781e+01 4.056927204132080078e+00 2.695070266723632812e+01 9.302289009094238281e+00 -2.808504104614257812e+00
3.900000000000000000e+01 5.245088577270507812e+01 -2.012349319458007812e+01 2.443761587142944336e+00 2.261265563964843750e+01 7.516925334930419922e+00 -2.400580167770385742e+00
4.000000000000000000e+01 5.254359054565429688e+01 -2.029962539672851562e+01 2.091343164443969727e+00 2.012033271789550781e+01 6.663502693176269531e+00 -2.358829259872436523e+00
4.100000000000000000e+01 5.231425094604492188e+01 -1.973909759521484375e+01 1.043733119964599609e+01 3.282812118530273438e+01 1.297963619232177734e+01 -7.052568435668945312e+00
4.200000000000000000e+01 5.243947219848632812e+01 -1.989381408691406250e+01 6.951498031616210938e+00 2.615857696533203125e+01 9.933022499084472656e+00 -5.089335441589355469e+00
4.300000000000000000e+01 5.256469345092773438e+01 -2.004853057861328125e+01 4.593189716339111328e+00 2.177257156372070312e+01 7.909728527069091797e+00 -4.485068798065185547e+00
4.400000000000000000e+01 5.268991088867187500e+01 -2.020324707031250000e+01 3.571477413177490234e+00 1.928136444091796875e+01 6.855852603912353516e+00 -3.565936088562011719e+00
4.500000000000000000e+01 5.235583877563476562e+01 -1.969808959960937500e+01 1.501041412353515625e+01 3.098243331909179688e+01 1.379785442352294922e+01 -7.766892433166503906e+00
4.600000000000000000e+01 5.250878524780273438e+01 -1.982546806335449219e+01 9.445299148559570312e+00 2.389226531982421875e+01 1.000126934051513672e+01 -6.713194370269775391e+00
4.700000000000000000e+01 5.266172790527343750e+01 -1.995284652709960938e+01 7.859104633331298828e+00 2.086322212219238281e+01 8.616698265075683594e+00 -5.293748855590820312e+00
4.800000000000000000e+01 5.281467437744140625e+01 -2.008022499084472656e+01 5.895134449005126953e+00 1.648280906677246094e+01 6.713382720947265625e+00 -5.082852840423583984e+00
4.900000000000000000e+01 5.238864898681640625e+01 -1.964977073669433594e+01 1.792376136779785156e+01 2.763655471801757812e+01 1.366809463500976562e+01 -7.785249710083007812e+00
5.000000000000000000e+01 5.256346511840820312e+01 -1.974493598937988281e+01 1.300856685638427734e+01 2.291699600219726562e+01 1.077766895294189453e+01 -6.401634693145751953e+00
5.100000000000000000e+01 5.273828125000000000e+01 -1.984010124206542969e+01 9.974458694458007812e+00 1.791952514648437500e+01 8.368195533752441406e+00 -5.905900001525878906e+00
5.200000000000000000e+01 5.291309738159179688e+01 -1.993526649475097656e+01 9.096030235290527344e+00 1.685889625549316406e+01 7.786477565765380859e+00 -5.708246231079101562e+00
5.300000000000000000e+01 5.241142272949218750e+01 -1.959598922729492188e+01 2.092416572570800781e+01 2.672727966308593750e+01 1.429543304443359375e+01 -6.301074981689453125e+00
5.400000000000000000e+01 5.260142135620117188e+01 -1.965530014038085938e+01 1.519454288482666016e+01 2.026467704772949219e+01 1.063776588439941406e+01 -5.557462692260742188e+00
5.500000000000000000e+01 5.279141616821289062e+01 -1.971461105346679688e+01 1.247708225250244141e+01 1.732517051696777344e+01 8.940675735473632812e+00 -5.162794589996337891e+00
5.600000000000000000e+01 5.298141479492187500e+01 -1.977392196655273438e+01 9.679644584655761719e+00 1.511063098907470703e+01 7.437082290649414062e+00 -4.626039505004882812e+00
5.700000000000000000e+01 5.242328643798828125e+01 -1.953880310058593750e+01 2.226362419128417969e+01 2.534256935119628906e+01 1.428185844421386719e+01 -4.267806053161621094e+00
5.800000000000000000e+01 5.262119674682617188e+01 -1.955998802185058594e+01 1.703787994384765625e+01 1.943590736389160156e+01 1.094213581085205078e+01 -3.887894868850708008e+00
5.900000000000000000e+01 5.281910705566406250e+01 -1.958117485046386719e+01 1.341411399841308594e+01 1.637722969055175781e+01 8.937402725219726562e+00 -3.611054658889770508e+00
6.000000000000000000e+01 5.301701736450195312e+01 -1.960236358642578125e+01 1.128379249572753906e+01 1.339016819000244141e+01 7.402188301086425781e+00 -2.667965173721313477e+00
6.100000000000000000e+01 5.242379379272460938e+01 -1.948040008544921875e+01 2.264985084533691406e+01 2.522054862976074219e+01 1.436112022399902344e+01 -1.986347556114196777e+00
6.200000000000000000e+01 5.262204360961914062e+01 -1.946265220642089844e+01 1.727892875671386719e+01 1.934588241577148438e+01 1.098744297027587891e+01 -2.029789209365844727e+00
6.300000000000000000e+01 5.282028961181640625e+01 -1.944490432739257812e+01 1.395738792419433594e+01 1.590235996246337891e+01 8.957924842834472656e+00 -1.429620385169982910e+00
6.400000000000000000e+01 5.301853942871093750e+01 -1.942715644836425781e+01 1.217365455627441406e+01 1.326229476928710938e+01 7.630784988403320312e+00 -1.719983339309692383e+00
6.500000000000000000e+01 5.241292190551757812e+01 -1.942301750183105469e+01 2.184986305236816406e+01 2.603561401367187500e+01 1.436564254760742188e+01 -1.343205571174621582e-01
6.600000000000000000e+01 5.260391998291015625e+01 -1.936701393127441406e+01 1.638310241699218750e+01 2.008932113647460938e+01 1.094172668457031250e+01 1.185548771172761917e-02
6.700000000000000000e+01 5.279492187500000000e+01 -1.931100845336914062e+01 1.357049465179443359e+01 1.631917190551757812e+01 8.966899871826171875e+00 -1.292382925748825073e-01
6.800000000000000000e+01 5.298591995239257812e+01 -1.925500488281250000e+01 1.134148693084716797e+01 1.425185298919677734e+01 7.678001880645751953e+00 -1.083658784627914429e-01
6.900000000000000000e+01 5.239108657836914062e+01 -1.936884880065917969e+01 1.984305191040039062e+01 2.778168678283691406e+01 1.428742122650146484e+01 1.446212291717529297e+00
7.000000000000000000e+01 5.256752777099609375e+01 -1.927673149108886719e+01 1.464794635772705078e+01 2.141224479675292969e+01 1.081805706024169922e+01 1.138117551803588867e+00
7.100000000000000000e+01 5.274396896362304688e+01 -1.918461418151855469e+01 1.176700973510742188e+01 1.780902671813964844e+01 8.872811317443847656e+00 7.853530645370483398e-01
7.200000000000000000e+01 5.292041397094726562e+01 -1.909249877929687500e+01 1.029933357238769531e+01 1.503873825073242188e+01 7.601421356201171875e+00 7.503983378410339355e-01
7.300000000000000000e+01 5.235912322998046875e+01 -1.931996726989746094e+01 1.714111709594726562e+01 2.951691627502441406e+01 1.399740982055664062e+01 2.055441856384277344e+00
7.400000000000000000e+01 5.251425552368164062e+01 -1.919526290893554688e+01 1.206933403015136719e+01 2.366157150268554688e+01 1.071927165985107422e+01 1.371814489364624023e+00
7.500000000000000000e+01 5.266938781738281250e+01 -1.907055854797363281e+01 9.447877883911132812e+00 1.931298637390136719e+01 8.628258705139160156e+00 9.112929701805114746e-01
7.600000000000000000e+01 5.282452011108398438e+01 -1.894585418701171875e+01 7.909406185150146484e+00 1.657770919799804688e+01 7.346134185791015625e+00 2.837941646575927734e-01
7.700000000000000000e+01 5.231825256347656250e+01 -1.927824401855468750e+01 1.415875339508056641e+01 3.211545181274414062e+01 1.388226222991943359e+01 1.379035830497741699e+00
7.800000000000000000e+01 5.244614028930664062e+01 -1.912572479248046875e+01 9.149585723876953125e+00 2.516738891601562500e+01 1.029509258270263672e+01 7.419762611389160156e-01
7.900000000000000000e+01 5.257402801513671875e+01 -1.897320365905761719e+01 6.954229354858398438e+00 2.146389198303222656e+01 8.525436401367187500e+00 -1.159460842609405518e-01
8.000000000000000000e+01 5.270191192626953125e+01 -1.882068443298339844e+01 4.873032093048095703e+00 1.810897827148437500e+01 6.894602775573730469e+00 -5.212998986244201660e-01
8.100000000000000000e+01 5.227004241943359375e+01 -1.924527549743652344e+01 1.074029254913330078e+01 3.364691925048828125e+01 1.331616401672363281e+01 -2.369232922792434692e-01
8.200000000000000000e+01 5.236578750610351562e+01 -1.907077598571777344e+01 6.963766098022460938e+00 2.673920440673828125e+01 1.011089134216308594e+01 -1.296079397201538086e+00
8.300000000000000000e+01 5.246153640747070312e+01 -1.889627647399902344e+01 4.310328960418701172e+00 2.242564010620117188e+01 8.020790100097656250e+00 -1.457484841346740723e+00
8.400000000000000000e+01 5.255728530883789062e+01 -1.872177886962890625e+01 2.973926067352294922e+00 2.010634803771972656e+01 6.924082279205322266e+00 -1.975020647048950195e+00
8.500000000000000000e+01 5.221633529663085938e+01 -1.922232246398925781e+01 8.617088317871093750e+00 3.478123474121093750e+01 1.301949691772460938e+01 -3.272562742233276367e+00
8.600000000000000000e+01 5.227627944946289062e+01 -1.903252220153808594e+01 4.817852497100830078e+00 2.682495689392089844e+01 9.492842674255371094e+00 -3.770127773284912109e+00
8.700000000000000000e+01 5.233622360229492188e+01 -1.884272193908691406e+01 3.132838010787963867e+00 2.269252395629882812e+01 7.747608184814453125e+00 -3.773980855941772461e+00
8.800000000000000000e+01 5.239616775512695312e+01 -1.865292167663574219e+01 1.609572052955627441e+00 2.020890235900878906e+01 6.545542716979980469e+00 -3.307571887969970703e+00
8.900000000000000000e+01 5.215919113159179688e+01 -1.921026420593261719e+01 6.814445018768310547e+00 3.402164459228515625e+01 1.225082683563232422e+01 -6.877098560333251953e+00
9.000000000000000000e+01 5.218103408813476562e+01 -1.901242637634277344e+01 4.443361759185791016e+00 2.591116333007812500e+01 9.106357574462890625e+00 -6.783499240875244141e+00
9.100000000000000000e+01 5.220288085937500000e+01 -1.881458854675292969e+01 2.264655113220214844e+00 2.150133514404296875e+01 7.129796981811523438e+00 -6.119442939758300781e+00
9.200000000000000000e+01 5.222473144531250000e+01 -1.861674880981445312e+01 1.705445408821105957e+00 1.847669601440429688e+01 6.054642677307128906e+00 -5.704440116882324219e+00
9.300000000000000000e+01 5.210079193115234375e+01 -1.920956420898437500e+01 7.316868782043457031e+00 3.183128929138183594e+01 1.174444675445556641e+01 -1.071328544616699219e+01
9.400000000000000000e+01 5.208370208740234375e+01 -1.901125717163085938e+01 4.288328170776367188e+00 2.328374671936035156e+01 8.271622657775878906e+00 -9.490840911865234375e+00
9.500000000000000000e+01 5.206661605834960938e+01 -1.881295013427734375e+01 3.209361791610717773e+00 1.915594100952148438e+01 6.709590911865234375e+00 -8.445549011230468750e+00
9.600000000000000000e+01 5.204953002929687500e+01 -1.861464500427246094e+01 1.366513013839721680e+00 1.624424362182617188e+01 5.283226966857910156e+00 -8.034185409545898438e+00
9.700000000000000000e+01 5.204337310791015625e+01 -1.922024536132812500e+01 8.185230255126953125e+00 2.740991210937500000e+01 1.067854309082031250e+01 -1.396831130981445312e+01
9.800000000000000000e+01 5.198800277709960938e+01 -1.902905845642089844e+01 6.085254669189453125e+00 1.967585372924804688e+01 7.728332519531250000e+00 -1.139885807037353516e+01
9.900000000000000000e+01 5.193263626098632812e+01 -1.883787345886230469e+01 3.762198925018310547e+00 1.567428016662597656e+01 5.830943584442138672e+00 -1.021747016906738281e+01
1.000000000000000000e+02 5.187726974487304688e+01 -1.864668846130371094e+01 2.743968725204467773e+00 1.367191600799560547e+01 4.924765110015869141e+00 -9.223950386047363281e+00
1.010000000000000000e+02 5.198912811279296875e+01 -1.924189949035644531e+01 1.102755355834960938e+01 2.198202514648437500e+01 9.902873992919921875e+00 -1.563757324218750000e+01
1.020000000000000000e+02 5.189760208129882812e+01 -1.906515121459960938e+01 7.397748470306396484e+00 1.482217025756835938e+01 6.665975570678710938e+00 -1.238820171356201172e+01
1.030000000000000000e+02 5.180607223510742188e+01 -1.888840293884277344e+01 5.581013679504394531e+00 1.196100044250488281e+01 5.262604236602783203e+00 -1.059862804412841797e+01
1.040000000000000000e+02 5.171454620361328125e+01 -1.871165466308593750e+01 3.687263011932373047e+00 1.005419063568115234e+01 4.122436046600341797e+00 -9.606907844543457031e+00
1.050000000000000000e+02 5.194013977050781250e+01 -1.927370071411132812e+01 1.343584537506103516e+01 1.522510910034179688e+01 8.598286628723144531e+00 -1.570435142517089844e+01
1.060000000000000000e+02 5.181595611572265625e+01 -1.911815261840820312e+01 9.269231796264648438e+00 1.013858985900878906e+01 5.822346687316894531e+00 -1.166869640350341797e+01
1.070000000000000000e+02 5.169176864624023438e+01 -1.896260452270507812e+01 6.576244831085205078e+00 7.747418403625488281e+00 4.297099113464355469e+00 -1.000149250030517578e+01
1.080000000000000000e+02 5.156758499145507812e+01 -1.880705833435058594e+01 5.101287841796875000e+00 6.655618190765380859e+00 3.527071714401245117e+00 -8.812263488769531250e+00
1.090000000000000000e+02 5.189828109741210938e+01 -1.931443023681640625e+01 1.551524162292480469e+01 9.057747840881347656e+00 7.371896743774414062e+00 -1.354858875274658203e+01
1.100000000000000000e+02 5.174618911743164062e+01 -1.918603515625000000e+01 9.963132858276367188e+00 5.379011631011962891e+00 4.602643489837646484e+00 -9.771301269531250000e+00
1.110000000000000000e+02 5.159409713745117188e+01 -1.905764007568359375e+01 7.196067810058593750e+00 4.289830684661865234e+00 3.445769548416137695e+00 -8.055134773254394531e+00
1.120000000000000000e+02 5.144200515747070312e+01 -1.892924690246582031e+01 5.271265983581542969e+00 3.693447351455688477e+00 2.689414024353027344e+00 -7.352861881256103516e+00
1.130000000000000000e+02 5.186515426635742188e+01 -1.936252975463867188e+01 1.574373149871826172e+01 3.382915496826171875e+00 5.737994194030761719e+00 -9.788574218750000000e+00
1.140000000000000000e+02 5.169097518920898438e+01 -1.926620101928710938e+01 9.305303573608398438e+00 2.005742311477661133e+00 3.393313884735107422e+00 -6.647532939910888672e+00
1.150000000000000000e+02 5.151679611206054688e+01 -1.916987228393554688e+01 6.389233112335205078e+00 1.586116313934326172e+00 2.392604827880859375e+00 -5.692317008972167969e+00
1.160000000000000000e+02 5.134261703491210938e+01 -1.907354354858398438e+01 4.568613529205322266e+00 1.547379016876220703e+00 1.834797739982604980e+00 -4.972929477691650391e+00
1.170000000000000000e+02 5.184202194213867188e+01 -1.941615867614746094e+01 1.315310001373291016e+01 -2.144675999879837036e-01 3.881589651107788086e+00 -5.031625747680664062e+00
1.180000000000000000e+02 5.165242385864257812e+01 -1.935558319091796875e+01 6.860653877258300781e+00 -2.336887419223785400e-01 1.988089561462402344e+00 -3.294073104858398438e+00
1.190000000000000000e+02 5.146282577514648438e+01 -1.929500579833984375e+01 3.909130334854125977e+00 4.846172332763671875e-01 1.318124294281005859e+00 -3.069528579711914062e+00
1.200000000000000000e+02 5.127322387695312500e+01 -1.923443031311035156e+01 2.839602708816528320e+00 1.958023756742477417e-01 9.106215238571166992e-01 -3.232040882110595703e+00
1.210000000000000000e+02 5.182977294921875000e+01 -1.947326469421386719e+01 7.382417201995849609e+00 -2.205207347869873047e+00 1.553162932395935059e+00 1.049814820289611816e-01
1.220000000000000000e+02 5.163201141357421875e+01 -1.945075988769531250e+01 1.574568271636962891e+00 -1.095535904169082642e-01 4.395044147968292236e-01 -9.867521524429321289e-01
1.230000000000000000e+02 5.143424606323242188e+01 -1.942825317382812500e+01 1.331600308418273926e+00 -1.375090982764959335e-02 3.953548073768615723e-01 -1.743439435958862305e+00
1.240000000000000000e+02 5.123648071289062500e+01 -1.940574836730957031e+01 -8.888487517833709717e-02 -3.264653682708740234e-01 -1.246050745248794556e-01 -1.356366157531738281e+00
1.250000000000000000e+02 5.182887649536132812e+01 -1.953166198730468750e+01 -5.203367710113525391e+00 -1.438024044036865234e+00 -1.992417573928833008e+00 1.481501102447509766e+00
1.260000000000000000e+02 5.163051605224609375e+01 -1.954808807373046875e+01 -1.323242545127868652e+00 5.427066683769226074e-01 -2.341607660055160522e-01 -1.055081367492675781e+00
1.270000000000000000e+02 5.143215560913085938e+01 -1.956451416015625000e+01 -2.830640077590942383e+00 -5.233396887779235840e-01 -1.006193876266479492e+00 -5.156871676445007324e-01
1.280000000000000000e+02 5.123379135131835938e+01 -1.958094024658203125e+01 -3.259510755538940430e+00 4.109722003340721130e-02 -9.655240774154663086e-01 -8.670794367790222168e-01
1.290000000000000000e+02 4.454376983642578125e+01 -2.153533744812011719e+01 -8.091363906860351562e-01 -1.282622516155242920e-01 -2.812196016311645508e-01 -3.894093036651611328e-01
1.300000000000000000e+02 4.525796890258789062e+01 -2.133341026306152344e+01 -1.083887696266174316e+00 -1.656166166067123413e-01 -3.748513162136077881e-01 -4.372116029262542725e-01
1.310000000000000000e+02 4.405188369750976562e+01 -2.244241142272949219e+01 -3.063167035579681396e-01 -2.279056608676910400e-01 -1.602667123079299927e-01 -4.947474300861358643e-01
1.320000000000000000e+02 4.615114593505859375e+01 -2.184869003295898438e+01 -7.596701383590698242e-01 -1.142095178365707397e-01 -2.621638774871826172e-01 -4.866321980953216553e-01
1.330000000000000000e+02 4.545270156860351562e+01 -2.204736137390136719e+01 -5.923232436180114746e-01 -1.600780338048934937e-01 -2.257203757762908936e-01 -5.088208913803100586e-01
1.340000000000000000e+02 4.475288772583007812e+01 -2.224522018432617188e+01 -4.416398704051971436e-01 -2.253515571355819702e-01 -2.000974267721176147e-01 -5.140746235847473145e-01
1.350000000000000000e+02 4.597079086303710938e+01 -2.113067054748535156e+01 -1.299582004547119141e+00 -1.050321683287620544e-01 -4.213842451572418213e-01 -4.656185805797576904e-01
1.360000000000000000e+02 4.382838821411132812e+01 -2.173659515380859375e+01 -5.036867260932922363e-01 -1.451796740293502808e-01 -1.946599334478378296e-01 -3.092465102672576904e-01
1.370000000000000000e+02 4.783393096923828125e+01 -2.070822715759277344e+01 -1.935953855514526367e+00 -1.402426809072494507e-01 -6.228589415550231934e-01 -5.077174901962280273e-01
1.380000000000000000e+02 4.752394104003906250e+01 -2.154920959472656250e+01 -8.195689320564270020e-01 7.405839860439300537e-03 -2.436489313840866089e-01 -3.301136493682861328e-01
1.390000000000000000e+02 4.913885879516601562e+01 -2.066800880432128906e+01 -1.519607067108154297e+00 2.593880519270896912e-02 -4.481004774570465088e-01 -2.798318266868591309e-01
1.400000000000000000e+02 4.835882949829101562e+01 -2.055233192443847656e+01 -2.117207765579223633e+00 -2.306065522134304047e-02 -6.420805454254150391e-01 -5.079437494277954102e-01
1.410000000000000000e+02 4.925832748413085938e+01 -2.124421882629394531e+01 -3.028557598590850830e-01 3.200972974300384521e-01 5.172462202608585358e-03 3.093707859516143799e-01
1.420000000000000000e+02 4.921613693237304688e+01 -2.085789489746093750e+01 -1.038713455200195312e+00 1.130869761109352112e-01 -2.776879668235778809e-01 -5.293219164013862610e-02
1.430000000000000000e+02 4.886587142944335938e+01 -2.082305717468261719e+01 -1.322528004646301270e+00 -9.086553007364273071e-02 -4.240180552005767822e-01 -1.924040615558624268e-01
1.440000000000000000e+02 4.908090209960937500e+01 -2.045059967041015625e+01 -1.784054994583129883e+00 -2.794037759304046631e-02 -5.435986518859863281e-01 -4.272807538509368896e-01
1.450000000000000000e+02 4.897539138793945312e+01 -2.024198341369628906e+01 -2.428905248641967773e+00 -9.365632385015487671e-02 -7.567684650421142578e-01 -5.019397139549255371e-01
1.460000000000000000e+02 4.860971069335937500e+01 -2.111439704895019531e+01 -8.629552125930786133e-01 1.113170012831687927e-01 -2.254914641380310059e-01 -1.347893923521041870e-01
1.470000000000000000e+02 4.725251007080078125e+01 -2.084870147705078125e+01 -1.735262274742126465e+00 -1.055488139390945435e-01 -5.522433519363403320e-01 -4.829019308090209961e-01
1.480000000000000000e+02 4.684451675415039062e+01 -2.168598937988281250e+01 -8.341331481933593750e-01 -5.714270845055580139e-02 -2.673827409744262695e-01 -4.580993950366973877e-01
1.490000000000000000e+02 4.663859558105468750e+01 -2.097245025634765625e+01 -1.517634272575378418e+00 -1.152993589639663696e-01 -4.898800849914550781e-01 -4.545302689075469971e-01
1.500000000000000000e+02 4.876203536987304688e+01 -2.048784065246582031e+01 -2.034253597259521484e+00 -1.725715100765228271e-01 -6.620475053787231445e-01 -4.221508800983428955e-01
1.510000000000000000e+02 4.925199890136718750e+01 -2.103855133056640625e+01 -6.501134037971496582e-01 3.189070522785186768e-01 -9.936191141605377197e-02 1.975276768207550049e-01
1.520000000000000000e+02 4.895714950561523438e+01 -2.132327079772949219e+01 -5.077702999114990234e-01 3.598196506500244141e-01 -4.438519850373268127e-02 1.445901244878768921e-01
1.530000000000000000e+02 4.918595123291015625e+01 -2.148076820373535156e+01 -2.886976003646850586e-01 5.123387575149536133e-01 6.709234416484832764e-02 3.879740834236145020e-01
1.540000000000000000e+02 4.904779052734375000e+01 -2.101172828674316406e+01 -9.344981312751770020e-01 1.241242364048957825e-01 -2.431121766567230225e-01 -1.654282584786415100e-02
1.550000000000000000e+02 4.817087554931640625e+01 -2.139570426940917969e+01 -7.912329435348510742e-01 1.167633235454559326e-01 -2.023408859968185425e-01 -1.697532534599304199e-01
1.560000000000000000e+02 4.930455780029296875e+01 -2.017319869995117188e+01 -2.450824975967407227e+00 -1.115323305130004883e-01 -7.687072157859802246e-01 -4.883302748203277588e-01
1.570000000000000000e+02 5.058269500732421875e+01 -2.070363616943359375e+01 5.623319745063781738e-01 1.319110393524169922e+00 5.644327402114868164e-01 1.467179656028747559e+00
1.580000000000000000e+02 4.980517578125000000e+01 -2.057866859436035156e+01 -9.790177941322326660e-01 2.175844907760620117e-01 -2.284299880266189575e-01 8.294166624546051025e-02
1.590000000000000000e+02 5.035635757446289062e+01 -2.025355720520019531e+01 -1.061240673065185547e+00 1.994590759277343750e-01 -2.585344910621643066e-01 1.120075508952140808e-01
1.600000000000000000e+02 5.271222305297851562e+01 -2.051352882385253906e+01 1.180783152580261230e+00 1.628426170349121094e+01 5.239513397216796875e+00 -2.014705419540405273e+00
1.610000000000000000e+02 5.316899871826171875e+01 -1.925662612915039062e+01 9.890093803405761719e+00 1.294328403472900391e+01 6.850013256072998047e+00 -9.169459342956542969e-01
1.620000000000000000e+02 5.332574844360351562e+01 -1.895738792419433594e+01 7.230492115020751953e+00 1.137521743774414062e+01 5.581713199615478516e+00 4.486818313598632812e-01
1.630000000000000000e+02 5.142497634887695312e+01 -1.865358161926269531e+01 3.608650684356689453e+00 5.766945362091064453e+00 2.812678813934326172e+00 -8.070116043090820312e+00
1.640000000000000000e+02 4.911297607421875000e+01 -1.932496833801269531e+01 -3.468287944793701172e+00 -6.380140781402587891e-02 -1.059626817703247070e+00 -9.501315355300903320e-01
1.650000000000000000e+02 5.173153686523437500e+01 -1.835966682434082031e+01 1.575121760368347168e+00 1.048037433624267578e+01 3.616648912429809570e+00 -8.218489646911621094e+00
1.660000000000000000e+02 5.216132736206054688e+01 -1.843663597106933594e+01 1.202954500913619995e-01 1.624573135375976562e+01 4.909808158874511719e+00 -6.213031768798828125e+00
1.670000000000000000e+02 5.299863815307617188e+01 -2.019526481628417969e+01 5.885854721069335938e+00 1.599429988861083984e+01 6.564046382904052734e+00 -5.736571311950683594e+00
1.680000000000000000e+02 4.954115676879882812e+01 -2.141488075256347656e+01 -7.053446490317583084e-03 1.038182854652404785e+00 3.093388080596923828e-01 7.044553160667419434e-01
1.690000000000000000e+02 4.973495864868164062e+01 -2.137316703796386719e+01 5.110923573374748230e-02 9.794500470161437988e-01 3.091677725315093994e-01 8.554740548133850098e-01
1.700000000000000000e+02 5.050918960571289062e+01 -2.093043136596679688e+01 6.235848069190979004e-01 1.613618731498718262e+00 6.711610555648803711e-01 1.666733145713806152e+00
1.710000000000000000e+02 5.209407424926757812e+01 -2.096800613403320312e+01 -6.892145276069641113e-01 1.298414611816406250e+01 3.688479661941528320e+00 2.520618677139282227e+00
1.720000000000000000e+02 5.227701187133789062e+01 -2.091918754577636719e+01 -3.386496007442474365e-01 1.226594066619873047e+01 3.578187465667724609e+00 2.363152503967285156e+00
1.730000000000000000e+02 5.160087585449218750e+01 -2.048461914062500000e+01 1.863782525062561035e+00 7.234919548034667969e+00 2.729610443115234375e+00 4.809857845306396484e+00
1.740000000000000000e+02 5.125939559936523438e+01 -2.020922851562500000e+01 1.836312055587768555e+00 1.971072554588317871e+00 1.142215371131896973e+00 2.520514011383056641e+00
1.750000000000000000e+02 5.110430908203125000e+01 -2.111995887756347656e+01 8.395442962646484375e-01 4.322562217712402344e+00 1.548632025718688965e+00 3.125302791595458984e+00
1.760000000000000000e+02 4.986424255371093750e+01 -2.109459686279296875e+01 -8.528335392475128174e-02 8.091385364532470703e-01 2.171565592288970947e-01 7.775422930717468262e-01
1.770000000000000000e+02 4.902692031860351562e+01 -1.870427131652832031e+01 -1.811864614486694336e+00 3.248755633831024170e-01 -4.460967183113098145e-01 -1.483402729034423828e+00
1.780000000000000000e+02 4.905527877807617188e+01 -1.892441368103027344e+01 -2.449055433273315430e+00 1.996076256036758423e-01 -6.748343706130981445e-01 -1.182047724723815918e+00
1.790000000000000000e+02 4.925161361694335938e+01 -1.942682266235351562e+01 -3.657902002334594727e+00 -1.186587288975715637e-01 -1.132968187332153320e+00 -9.052331447601318359e-01
1.800000000000000000e+02 5.141198348999023438e+01 -1.822736549377441406e+01 1.699896097183227539e+00 7.192604541778564453e+00 2.667750120162963867e+00 -7.488102436065673828e+00
1.810000000000000000e+02 4.925022506713867188e+01 -1.991875648498535156e+01 -5.670927524566650391e+00 -3.583127558231353760e-01 -1.808772087097167969e+00 -1.091983914375305176e+00
1.820000000000000000e+02 4.944002532958984375e+01 -1.986658096313476562e+01 -5.469847679138183594e+00 -1.003860384225845337e-01 -1.671070098876953125e+00 -1.081659555435180664e+00
1.830000000000000000e+02 4.943399429321289062e+01 -1.863547325134277344e+01 -1.271811008453369141e+00 3.476222157478332520e-01 -2.772566676139831543e-01 -1.841969370841979980e+00
1.840000000000000000e+02 5.005123901367187500e+01 -1.973559951782226562e+01 -5.120935440063476562e+00 -1.947198212146759033e-01 -1.594696521759033203e+00 -9.538555145263671875e-01
1.850000000000000000e+02 5.025408172607421875e+01 -1.971616172790527344e+01 -5.026665687561035156e+00 -1.665697395801544189e-01 -1.557970643043518066e+00 -9.300295114517211914e-01
1.860000000000000000e+02 5.045483779907226562e+01 -1.969460105895996094e+01 -4.910131931304931641e+00 -1.528470665216445923e-01 -1.518893718719482422e+00 -9.287471771240234375e-01
1.870000000000000000e+02 5.068965530395507812e+01 -1.950955963134765625e+01 -3.145526647567749023e+00 -1.601931452751159668e-01 -9.917159080505371094e-01 -1.040691375732421875e+00
1.880000000000000000e+02 5.101465225219726562e+01 -1.937525558471679688e+01 -8.020614385604858398e-01 -1.211929842829704285e-01 -2.769763171672821045e-01 -1.588384270668029785e+00
1.890000000000000000e+02 5.102014923095703125e+01 -1.959453201293945312e+01 -3.757886171340942383e+00 -2.950916886329650879e-01 -1.215893387794494629e+00 -8.134592175483703613e-01
1.900000000000000000e+02 5.305454635620117188e+01 -1.866513252258300781e+01 4.433150291442871094e+00 1.343898200988769531e+01 5.361639499664306641e+00 -1.655518859624862671e-01
1.910000000000000000e+02 5.161465072631835938e+01 -1.855521965026855469e+01 3.120705127716064453e+00 8.836174011230468750e+00 3.587063789367675781e+00 -8.781481742858886719e+00
1.920000000000000000e+02 5.106542587280273438e+01 -1.916555213928222656e+01 1.791296720504760742e+00 2.473465949296951294e-01 6.115930080413818359e-01 -2.832759618759155273e+00
1.930000000000000000e+02 5.107820892333984375e+01 -1.981824874877929688e+01 -1.654678106307983398e+00 -1.320861130952835083e-01 -5.360292792320251465e-01 -2.149743884801864624e-01
1.940000000000000000e+02 5.075860214233398438e+01 -2.013329124450683594e+01 -4.103105068206787109e-01 3.959200382232666016e-01 -4.317146260291337967e-03 4.668998420238494873e-01
1.950000000000000000e+02 5.141375350952148438e+01 -2.037650489807128906e+01 2.244940519332885742e+00 4.533719062805175781e+00 2.033597946166992188e+00 3.992590427398681641e+00
1.960000000000000000e+02 5.236889648437500000e+01 -2.067512702941894531e+01 -2.822999656200408936e-01 1.645319938659667969e+01 4.851269721984863281e+00 7.505346536636352539e-01
1.970000000000000000e+02 5.072383117675781250e+01 -2.118651580810546875e+01 7.266585230827331543e-01 2.906425714492797852e+00 1.089925289154052734e+00 2.330329418182373047e+00
1.980000000000000000e+02 4.950590515136718750e+01 -2.014101791381835938e+01 -2.444684743881225586e+00 -8.293091505765914917e-02 -7.582846879959106445e-01 -4.919742941856384277e-01
1.990000000000000000e+02 4.970442581176757812e+01 -2.010751724243164062e+01 -2.437035083770751953e+00 -1.004676669836044312e-01 -7.612507939338684082e-01 -4.779664874076843262e-01
2.000000000000000000e+02 5.218841552734375000e+01 -2.076608467102050781e+01 1.358619332313537598e-01 1.373616409301757812e+01 4.161607742309570312e+00 2.078187942504882812e+00
2.010000000000000000e+02 5.260438156127929688e+01 -2.076711082458496094e+01 1.035110205411911011e-01 1.543135547637939453e+01 4.660459995269775391e+00 -9.921044111251831055e-01
2.020000000000000000e+02 5.129512405395507812e+01 -2.104699134826660156e+01 8.636366128921508789e-01 5.466780185699462891e+00 1.899125099182128906e+00 3.451598405838012695e+00
2.030000000000000000e+02 5.096170806884765625e+01 -2.008020591735839844e+01 3.188947588205337524e-02 3.708686232566833496e-01 1.208274289965629578e-01 7.021731138229370117e-01
2.040000000000000000e+02 5.344067764282226562e+01 -1.951354217529296875e+01 8.961174011230468750e+00 1.029508304595947266e+01 5.776876926422119141e+00 -2.515472173690795898e+00
2.050000000000000000e+02 5.177818679809570312e+01 -2.054809379577636719e+01 1.250302672386169434e+00 1.038650989532470703e+01 3.491043806076049805e+00 4.859705448150634766e+00
2.060000000000000000e+02 5.291381072998046875e+01 -2.038698577880859375e+01 3.480342388153076172e+00 1.483732223510742188e+01 5.495299339294433594e+00 -3.521702051162719727e+00
2.070000000000000000e+02 5.318973159790039062e+01 -1.957675743103027344e+01 1.018643379211425781e+01 1.189693641662597656e+01 6.625011444091796875e+00 -2.868866443634033203e+00
2.080000000000000000e+02 5.317764663696289062e+01 -2.002950286865234375e+01 6.153597831726074219e+00 1.320688533782958984e+01 5.808145046234130859e+00 -4.535706043243408203e+00
2.090000000000000000e+02 5.039977645874023438e+01 -1.846812820434570312e+01 6.835170388221740723e-01 1.455923318862915039e+00 6.418321132659912109e-01 -3.813371896743774414e+00
2.100000000000000000e+02 5.115015411376953125e+01 -1.897567367553710938e+01 3.269341707229614258e+00 1.225439071655273438e+00 1.348434209823608398e+00 -4.754487037658691406e+00
2.110000000000000000e+02 5.228654861450195312e+01 -1.819555282592773438e+01 -1.042804837226867676e+00 1.474875926971435547e+01 4.111786365509033203e+00 -5.805997848510742188e+00
2.120000000000000000e+02 5.185573577880859375e+01 -1.817349433898925781e+01 1.663570404052734375e-01 1.163848876953125000e+01 3.541453599929809570e+00 -7.219798088073730469e+00
2.130000000000000000e+02 5.130054092407226562e+01 -1.847688102722167969e+01 2.913507938385009766e+00 5.292452335357666016e+00 2.461787939071655273e+00 -7.319442272186279297e+00
2.140000000000000000e+02 5.296984100341796875e+01 -1.883378982543945312e+01 6.355473041534423828e+00 1.421086692810058594e+01 6.169901847839355469e+00 2.262887656688690186e-01
2.150000000000000000e+02 5.196425628662109375e+01 -1.834860992431640625e+01 -6.657887995243072510e-02 1.342543697357177734e+01 4.007657527923583984e+00 -7.517567157745361328e+00
2.160000000000000000e+02 5.238245391845703125e+01 -1.844348526000976562e+01 9.731671810150146484e-01 1.750701904296875000e+01 5.544055938720703125e+00 -4.604573726654052734e+00
2.170000000000000000e+02 5.311423110961914062e+01 -1.904158592224121094e+01 9.144533157348632812e+00 1.355394935607910156e+01 6.809544563293457031e+00 5.672146677970886230e-01
2.180000000000000000e+02 5.018865203857421875e+01 -1.847779464721679688e+01 3.705687224864959717e-01 9.432699084281921387e-01 3.941515684127807617e-01 -3.242495059967041016e+00
2.190000000000000000e+02 5.162328338623046875e+01 -1.819020080566406250e+01 7.743774652481079102e-01 9.644419670104980469e+00 3.125639200210571289e+00 -7.914352893829345703e+00
2.200000000000000000e+02 5.120723724365234375e+01 -1.826986694335937500e+01 1.801473736763000488e+00 5.673951625823974609e+00 2.242627620697021484e+00 -7.145839691162109375e+00
2.210000000000000000e+02 5.316383361816406250e+01 -1.941646766662597656e+01 1.185451316833496094e+01 1.236984348297119141e+01 7.267307281494140625e+00 -1.528810024261474609e+00
2.220000000000000000e+02 5.192110443115234375e+01 -2.098129272460937500e+01 1.231064498424530029e-01 1.058101177215576172e+01 3.211235284805297852e+00 3.405848264694213867e+00
2.230000000000000000e+02 5.117811965942382812e+01 -2.082733345031738281e+01 1.247403502464294434e+00 4.372720241546630859e+00 1.686037182807922363e+00 3.368288516998291016e+00
2.240000000000000000e+02 5.172482299804687500e+01 -2.098206329345703125e+01 3.499871492385864258e-01 9.123438835144042969e+00 2.842027664184570312e+00 3.806444883346557617e+00
2.250000000000000000e+02 4.960356903076171875e+01 -2.059958267211914062e+01 -1.191979885101318359e+00 1.369858682155609131e-01 -3.164982199668884277e-01 -4.226652905344963074e-02
2.260000000000000000e+02 5.150479125976562500e+01 -2.099855422973632812e+01 7.619503140449523926e-01 6.852138519287109375e+00 2.284226655960083008e+00 3.823589801788330078e+00
2.270000000000000000e+02 5.009737014770507812e+01 -2.003892517089843750e+01 -2.351838588714599609e+00 -6.473641842603683472e-02 -7.249724864959716797e-01 -4.107508957386016846e-01
2.280000000000000000e+02 5.103628540039062500e+01 -2.094736289978027344e+01 1.018954873085021973e+00 3.837999343872070312e+00 1.457086324691772461e+00 2.973299264907836914e+00
2.290000000000000000e+02 5.190536880493164062e+01 -2.067757225036621094e+01 5.330300927162170410e-01 1.170209026336669922e+01 3.670536041259765625e+00 4.074760913848876953e+00
2.300000000000000000e+02 5.091709899902343750e+01 -2.116358184814453125e+01 7.789512872695922852e-01 3.704873323440551758e+00 1.345147371292114258e+00 2.727903366088867188e+00
2.310000000000000000e+02 4.945169067382812500e+01 -2.100585365295410156e+01 -4.271372258663177490e-01 3.224608004093170166e-01 -3.140293061733245850e-02 2.659084796905517578e-01
2.320000000000000000e+02 4.968124008178710938e+01 -2.116334342956542969e+01 -1.347739100456237793e-01 8.171414136886596680e-01 2.047102451324462891e-01 6.338268518447875977e-01
2.330000000000000000e+02 4.990179061889648438e+01 -2.007392501831054688e+01 -2.409638881683349609e+00 -5.138127133250236511e-02 -7.383060455322265625e-01 -4.601746201515197754e-01
2.340000000000000000e+02 5.016011047363281250e+01 -2.030078697204589844e+01 -1.221694707870483398e+00 8.100093901157379150e-02 -3.422081172466278076e-01 -1.863488182425498962e-02
2.350000000000000000e+02 5.055510330200195312e+01 -2.019121360778808594e+01 -7.928336858749389648e-01 2.339537143707275391e-01 -1.676640063524246216e-01 2.698523700237274170e-01
2.360000000000000000e+02 5.068811035156250000e+01 -1.991104316711425781e+01 -2.045572042465209961e+00 -5.463189259171485901e-02 -6.300612092018127441e-01 -3.126198649406433105e-01
2.370000000000000000e+02 5.025751113891601562e+01 -1.946077346801757812e+01 -3.142240762710571289e+00 -1.915768831968307495e-01 -1.000145316123962402e+00 -1.132826089859008789e+00
2.380000000000000000e+02 5.082074356079101562e+01 -1.964148139953613281e+01 -4.076112270355224609e+00 -1.861775070428848267e-01 -1.278687000274658203e+00 -9.865435957908630371e-01
2.390000000000000000e+02 5.108800506591796875e+01 -1.851507759094238281e+01 2.585690259933471680e+00 3.719253301620483398e+00 1.891483068466186523e+00 -6.399539947509765625e+00
2.400000000000000000e+02 4.982189941406250000e+01 -1.854402160644531250e+01 -3.583432435989379883e-01 6.507737636566162109e-01 8.772914856672286987e-02 -2.512121438980102539e+00
2.410000000000000000e+02 5.073067092895507812e+01 -1.867509841918945312e+01 1.538417696952819824e+00 1.432404518127441406e+00 8.912466764450073242e-01 -4.294662952423095703e+00
2.420000000000000000e+02 4.953802871704101562e+01 -1.889586448669433594e+01 -1.796061515808105469e+00 8.187305182218551636e-02 -5.142565369606018066e-01 -1.516565799713134766e+00
2.430000000000000000e+02 5.090547561645507812e+01 -1.856266403198242188e+01 2.273880958557128906e+00 2.394557237625122070e+00 1.400531411170959473e+00 -5.217728614807128906e+00
2.440000000000000000e+02 4.935994338989257812e+01 -1.896269226074218750e+01 -2.196749925613403320e+00 3.877650946378707886e-02 -6.473919749259948730e-01 -1.320323109626770020e+00
2.450000000000000000e+02 5.000437545776367188e+01 -1.849101829528808594e+01 -1.636224687099456787e-01 8.516805768013000488e-01 2.064174264669418335e-01 -2.852096557617187500e+00
2.460000000000000000e+02 5.100573730468750000e+01 -1.830892753601074219e+01 2.055306434631347656e+00 4.056797027587890625e+00 1.833631038665771484e+00 -6.260082721710205078e+00
2.470000000000000000e+02 4.923861694335937500e+01 -1.868508529663085938e+01 -1.697305083274841309e+00 2.249163836240768433e-01 -4.417166113853454590e-01 -1.534517884254455566e+00
2.480000000000000000e+02 5.025550079345703125e+01 -1.887513160705566406e+01 -4.314942359924316406e-01 2.920984625816345215e-01 -4.181873798370361328e-02 -2.423637866973876953e+00
2.490000000000000000e+02 4.941778945922851562e+01 -2.080518531799316406e+01 -1.038234233856201172e+00 2.222337573766708374e-01 -2.448001503944396973e-01 3.090170957148075104e-02
2.500000000000000000e+02 4.960733032226562500e+01 -2.080397415161132812e+01 -6.425607204437255859e-01 2.404360175132751465e-01 -1.206374093890190125e-01 1.202807947993278503e-01
2.510000000000000000e+02 4.936056137084960938e+01 -1.963215827941894531e+01 -4.652791976928710938e+00 -2.367463707923889160e-01 -1.466861486434936523e+00 -9.635192751884460449e-01
2.520000000000000000e+02 4.908251190185546875e+01 -1.912383079528808594e+01 -2.982638359069824219e+00 1.724632270634174347e-02 -8.896176218986511230e-01 -1.031854271888732910e+00
2.530000000000000000e+02 4.913932037353515625e+01 -1.950937652587890625e+01 -4.117661476135253906e+00 -1.563398689031600952e-01 -1.282200336456298828e+00 -7.525647878646850586e-01
2.540000000000000000e+02 5.104758071899414062e+01 -2.029839324951171875e+01 1.217797160148620605e+00 1.599133610725402832e+00 8.450791835784912109e-01 1.960708856582641602e+00
2.550000000000000000e+02 5.053870773315429688e+01 -1.924078559875488281e+01 -1.310885190963745117e+00 -8.148800581693649292e-02 -4.177119731903076172e-01 -1.793445110321044922e+00
2.560000000000000000e+02 5.082807159423828125e+01 -2.033601379394531250e+01 4.918957948684692383e-01 8.732513189315795898e-01 4.095441401004791260e-01 1.238632917404174805e+00
2.570000000000000000e+02 5.063061523437500000e+01 -2.040321350097656250e+01 1.301546692848205566e-01 7.648586630821228027e-01 2.685039937496185303e-01 9.672582745552062988e-01
2.580000000000000000e+02 5.032353591918945312e+01 -2.122735786437988281e+01 5.500476360321044922e-01 1.838602066040039062e+00 7.165949344635009766e-01 1.671656131744384766e+00
2.590000000000000000e+02 4.963404464721679688e+01 -1.979774856567382812e+01 -5.307463169097900391e+00 -2.773649096488952637e-01 -1.675448298454284668e+00 -1.028733253479003906e+00
2.600000000000000000e+02 5.126684951782226562e+01 -1.879878425598144531e+01 3.956411123275756836e+00 3.150184631347656250e+00 2.131978750228881836e+00 -6.387709140777587891e+00
2.610000000000000000e+02 4.952002334594726562e+01 -1.952867698669433594e+01 -4.076270103454589844e+00 -1.423086971044540405e-01 -1.265573620796203613e+00 -9.684475660324096680e-01
2.620000000000000000e+02 4.922310638427734375e+01 -1.906924629211425781e+01 -2.691048145294189453e+00 9.040662646293640137e-02 -7.801924943923950195e-01 -1.192977070808410645e+00
2.630000000000000000e+02 5.115468597412109375e+01 -2.001329612731933594e+01 4.975050091743469238e-01 6.732922792434692383e-01 3.512391746044158936e-01 9.913497567176818848e-01
2.640000000000000000e+02 5.129492187500000000e+01 -2.061580085754394531e+01 1.632150292396545410e+00 4.274308681488037109e+00 1.771937727928161621e+00 3.635518312454223633e+00
2.650000000000000000e+02 5.082440948486328125e+01 -1.907475280761718750e+01 9.290468692779541016e-01 3.041712641716003418e-01 3.699654340744018555e-01 -2.889468908309936523e+00
2.660000000000000000e+02 5.092427062988281250e+01 -1.886314582824707031e+01 2.282992124557495117e+00 1.177939295768737793e+00 1.038279414176940918e+00 -4.115465641021728516e+00
2.670000000000000000e+02 4.955875396728515625e+01 -2.036823463439941406e+01 -1.749794960021972656e+00 -3.427587077021598816e-02 -5.352212786674499512e-01 -3.185386061668395996e-01
2.680000000000000000e+02 5.012504196166992188e+01 -2.127159690856933594e+01 3.788306713104248047e-01 1.454636693000793457e+00 5.500402450561523438e-01 1.398647308349609375e+00
2.690000000000000000e+02 5.043901443481445312e+01 -2.051256942749023438e+01 -2.107385545969009399e-02 6.451947689056396484e-01 1.872362643480300903e-01 7.978510856628417969e-01
2.700000000000000000e+02 5.092238235473632812e+01 -2.085098457336425781e+01 1.147947192192077637e+00 3.041756153106689453e+00 1.256911039352416992e+00 2.718348979949951172e+00
2.710000000000000000e+02 5.005437088012695312e+01 -2.099489402770996094e+01 6.661399453878402710e-02 9.787144660949707031e-01 3.135985434055328369e-01 9.400439262390136719e-01
2.720000000000000000e+02 4.972728729248046875e+01 -1.884299087524414062e+01 -1.258330821990966797e+00 1.979793310165405273e-01 -3.181054592132568359e-01 -1.826150059700012207e+00
2.730000000000000000e+02 4.963288497924804688e+01 -1.913373565673828125e+01 -2.475959777832031250e+00 -8.863164484500885010e-02 -7.693774104118347168e-01 -1.286999940872192383e+00
2.740000000000000000e+02 5.080842590332031250e+01 -1.835466766357421875e+01 1.739629745483398438e+00 2.718051433563232422e+00 1.337304353713989258e+00 -5.515672206878662109e+00
2.750000000000000000e+02 5.022128295898437500e+01 -2.059482765197753906e+01 -2.718088924884796143e-01 5.598902702331542969e-01 8.642441034317016602e-02 6.126408576965332031e-01
2.760000000000000000e+02 5.018066024780273438e+01 -1.924798583984375000e+01 -2.141497373580932617e+00 -1.144980490207672119e-01 -6.767986416816711426e-01 -1.525801062583923340e+00
2.770000000000000000e+02 5.037406921386718750e+01 -1.910977935791015625e+01 -9.422867298126220703e-01 1.171305105090141296e-01 -2.475468665361404419e-01 -1.953535556793212891e+00
2.780000000000000000e+02 5.011212158203125000e+01 -1.866998100280761719e+01 -7.823820412158966064e-02 5.681633949279785156e-01 1.469775587320327759e-01 -2.668071746826171875e+00
2.790000000000000000e+02 5.325223159790039062e+01 -1.979954528808593750e+01 8.610093116760253906e+00 1.173817062377929688e+01 6.104479312896728516e+00 -3.810448169708251953e+00
2.800000000000000000e+02 4.919830322265625000e+01 -1.970572662353515625e+01 -4.775153636932373047e+00 -2.656450271606445312e-01 -1.512239694595336914e+00 -9.917597770690917969e-01
2.810000000000000000e+02 4.962864303588867188e+01 -1.859049606323242188e+01 -9.375972747802734375e-01 4.524554014205932617e-01 -1.455425769090652466e-01 -2.134330987930297852e+00
2.820000000000000000e+02 5.061229324340820312e+01 -1.841283607482910156e+01 1.291268587112426758e+00 2.103683471679687500e+00 1.018485665321350098e+00 -4.571368694305419922e+00
2.830000000000000000e+02 4.984150314331054688e+01 -1.974959182739257812e+01 -5.212394237518310547e+00 -1.850961297750473022e-01 -1.619247078895568848e+00 -9.832921624183654785e-01
2.840000000000000000e+02 5.049901199340820312e+01 -1.876727676391601562e+01 7.749758362770080566e-01 7.210288643836975098e-01 4.488013982772827148e-01 -3.225070953369140625e+00
2.850000000000000000e+02 5.180892181396484375e+01 -1.848962402343750000e+01 1.561006784439086914e+00 1.199521064758300781e+01 4.066865444183349609e+00 -8.741201400756835938e+00
2.860000000000000000e+02 5.005799102783203125e+01 -1.944815063476562500e+01 -3.399973630905151367e+00 -1.871217936277389526e-01 -1.076128602027893066e+00 -1.117458820343017578e+00
2.870000000000000000e+02 4.984365844726562500e+01 -1.941491127014160156e+01 -3.409875869750976562e+00 -2.302412241697311401e-01 -1.092035055160522461e+00 -1.130549192428588867e+00
2.880000000000000000e+02 4.934941101074218750e+01 -2.038720703125000000e+01 -1.883912801742553711e+00 -7.817840576171875000e-02 -5.886273384094238281e-01 -3.419517278671264648e-01
2.890000000000000000e+02 4.938792419433593750e+01 -2.059943199157714844e+01 -1.313190340995788574e+00 3.256294131278991699e-02 -3.841882050037384033e-01 -2.517879903316497803e-01
2.900000000000000000e+02 4.949631118774414062e+01 -2.120831680297851562e+01 -3.502953052520751953e-01 6.375524997711181641e-01 8.617715537548065186e-02 4.105329513549804688e-01
2.910000000000000000e+02 4.962085723876953125e+01 -2.097659492492675781e+01 -5.105744004249572754e-01 5.302950739860534668e-01 5.916212219744920731e-03 3.961843252182006836e-01
2.920000000000000000e+02 4.976110839843750000e+01 -2.034481239318847656e+01 -1.615872144699096680e+00 3.704157844185829163e-02 -4.736491739749908447e-01 -2.365082204341888428e-01
2.930000000000000000e+02 5.029228591918945312e+01 -1.999937248229980469e+01 -2.259156703948974609e+00 -8.838669955730438232e-02 -7.042630314826965332e-01 -3.966016173362731934e-01
2.940000000000000000e+02 5.048932266235351562e+01 -1.995582389831542969e+01 -2.166201353073120117e+00 -2.088549733161926270e-02 -6.561260819435119629e-01 -3.764647841453552246e-01
2.950000000000000000e+02 5.088538360595703125e+01 -1.986589813232421875e+01 -1.866765618324279785e+00 2.651211433112621307e-02 -5.520760416984558105e-01 -2.616509199142456055e-01
2.960000000000000000e+02 4.992942810058593750e+01 -2.132459449768066406e+01 2.273689955472946167e-01 1.330539822578430176e+00 4.673726558685302734e-01 1.087784051895141602e+00
2.970000000000000000e+02 5.027565383911132812e+01 -2.091904640197753906e+01 2.921345829963684082e-01 1.120236277580261230e+00 4.237112700939178467e-01 1.185523033142089844e+00
2.980000000000000000e+02 5.052459335327148438e+01 -2.120238304138183594e+01 6.326938271522521973e-01 2.274780511856079102e+00 8.722422719001770020e-01 1.966253042221069336e+00
2.990000000000000000e+02 5.071651077270507812e+01 -2.097469902038574219e+01 8.715455532073974609e-01 2.488045692443847656e+00 1.007877349853515625e+00 2.246644735336303711e+00
3.000000000000000000e+02 5.151720809936523438e+01 -2.071784782409667969e+01 1.286899566650390625e+00 6.968997955322265625e+00 2.476769208908081055e+00 4.209313869476318359e+00
3.010000000000000000e+02 5.243393325805664062e+01 -2.053714370727539062e+01 -3.367237746715545654e-01 1.749777793884277344e+01 5.148315906524658203e+00 4.658909142017364502e-01
3.020000000000000000e+02 5.064518356323242188e+01 -1.968484497070312500e+01 -4.680611133575439453e+00 -1.272591650485992432e-01 -1.442361116409301758e+00 -9.712648391723632812e-01
3.030000000000000000e+02 5.077017211914062500e+01 -1.931130599975585938e+01 -1.168461322784423828e+00 -1.753570139408111572e-01 -4.031454920768737793e-01 -1.505196213722229004e+00
3.040000000000000000e+02 5.106289672851562500e+01 -1.869350051879882812e+01 2.954954147338867188e+00 2.650877475738525391e+00 1.681749463081359863e+00 -5.866664886474609375e+00
3.050000000000000000e+02 5.207711029052734375e+01 -2.059504508972167969e+01 5.693892762064933777e-02 1.435448265075683594e+01 4.323426246643066406e+00 3.594614028930664062e+00
3.060000000000000000e+02 5.201198959350585938e+01 -2.084201812744140625e+01 -3.255714476108551025e-01 1.221168327331542969e+01 3.565833330154418945e+00 3.544853448867797852e+00
3.070000000000000000e+02 5.225144577026367188e+01 -2.056313133239746094e+01 -7.395133376121520996e-02 1.636124610900878906e+01 4.886188030242919922e+00 1.928239226341247559e+00
3.080000000000000000e+02 5.321494674682617188e+01 -2.028476142883300781e+01 5.174245357513427734e+00 1.314064788818359375e+01 5.494467735290527344e+00 -4.835377216339111328e+00
3.090000000000000000e+02 5.283197402954101562e+01 -1.838231086730957031e+01 1.757762670516967773e+00 1.467795276641845703e+01 4.930714607238769531e+00 -1.057608246803283691e+00
3.100000000000000000e+02 5.283837890625000000e+01 -1.869574356079101562e+01 3.628500461578369141e+00 1.619636726379394531e+01 5.947460651397705078e+00 -6.811784505844116211e-01
3.110000000000000000e+02 5.266340255737304688e+01 -1.854473304748535156e+01 2.097531080245971680e+00 1.720755958557128906e+01 5.791527271270751953e+00 -1.465046286582946777e+00
3.120000000000000000e+02 5.200336456298828125e+01 -1.845881271362304688e+01 1.089770555496215820e+00 1.471866703033447266e+01 4.742531299591064453e+00 -7.729352951049804688e+00
3.130000000000000000e+02 5.151484298706054688e+01 -1.840767669677734375e+01 2.106246471405029297e+00 8.117210388183593750e+00 3.067037105560302734e+00 -8.370213508605957031e+00
3.140000000000000000e+02 5.326003646850585938e+01 -1.941340255737304688e+01 1.056738758087158203e+01 1.172794818878173828e+01 6.688601016998291016e+00 -1.999720215797424316e+00
3.150000000000000000e+02 4.936397933959960938e+01 -1.930595397949218750e+01 -3.271274805068969727e+00 -1.047080680727958679e-01 -1.012794852256774902e+00 -1.072877764701843262e+00
3.160000000000000000e+02 4.948851394653320312e+01 -1.919589805603027344e+01 -2.952733039855957031e+00 -3.780926391482353210e-02 -8.971626758575439453e-01 -1.197441220283508301e+00
3.170000000000000000e+02 4.982378768920898438e+01 -1.910907554626464844e+01 -2.097125768661499023e+00 -3.611882030963897705e-02 -6.399734020233154297e-01 -1.452491283416748047e+00
3.180000000000000000e+02 5.003809356689453125e+01 -1.902360916137695312e+01 -1.388823866844177246e+00 5.599712952971458435e-02 -3.998480141162872314e-01 -1.785703778266906738e+00
3.190000000000000000e+02 4.992178344726562500e+01 -1.877586555480957031e+01 -8.738170862197875977e-01 3.301514387130737305e-01 -1.630996912717819214e-01 -2.152163743972778320e+00
3.200000000000000000e+02 4.999827194213867188e+01 -2.058298110961914062e+01 -6.325404047966003418e-01 3.676644265651702881e-01 -7.946278899908065796e-02 3.004262149333953857e-01
3.210000000000000000e+02 4.996112442016601562e+01 -2.032435226440429688e+01 -1.411533594131469727e+00 1.061234921216964722e-01 -3.916230201721191406e-01 -1.120031848549842834e-01
3.220000000000000000e+02 5.100584030151367188e+01 -2.070942878723144531e+01 1.337712526321411133e+00 2.895389795303344727e+00 1.269930601119995117e+00 2.799748897552490234e+00
3.230000000000000000e+02 5.107095336914062500e+01 -2.052078628540039062e+01 1.406277060508728027e+00 2.470798492431640625e+00 1.163122653961181641e+00 2.606471538543701172e+00
3.240000000000000000e+02 5.172676086425781250e+01 -2.074575042724609375e+01 7.918252348899841309e-01 9.047794342041015625e+00 2.951885938644409180e+00 4.375492572784423828e+00
3.250000000000000000e+02 4.976369476318359375e+01 -2.089715385437011719e+01 -3.774304091930389404e-01 5.885304808616638184e-01 6.333002448081970215e-02 4.614371657371520996e-01
3.260000000000000000e+02 4.963666534423828125e+01 -1.935846710205078125e+01 -3.433617353439331055e+00 -1.198322921991348267e-01 -1.066034913063049316e+00 -1.082585453987121582e+00
3.270000000000000000e+02 5.087096023559570312e+01 -2.050806617736816406e+01 9.279423952102661133e-01 1.484611272811889648e+00 7.237660884857177734e-01 1.842664122581481934e+00
3.280000000000000000e+02 5.076354217529296875e+01 -2.079428291320800781e+01 1.025132060050964355e+00 2.122507572174072266e+00 9.442918896675109863e-01 2.197558403015136719e+00
3.290000000000000000e+02 5.089112472534179688e+01 -2.099090576171875000e+01 9.222452044486999512e-01 3.194744586944580078e+00 1.235096931457519531e+00 2.679148197174072266e+00
3.300000000000000000e+02 4.991667556762695312e+01 -2.077427673339843750e+01 -4.014429152011871338e-01 4.598220288753509521e-01 1.751372776925563812e-02 4.568871557712554932e-01
3.310000000000000000e+02 5.084192657470703125e+01 -2.065016365051269531e+01 1.055907964706420898e+00 1.929504513740539551e+00 8.956237435340881348e-01 2.135292768478393555e+00
3.320000000000000000e+02 5.071844100952148438e+01 -2.056414222717285156e+01 6.276946663856506348e-01 1.165876388549804688e+00 5.380713343620300293e-01 1.461692690849304199e+00
3.330000000000000000e+02 5.047220230102539062e+01 -1.945718383789062500e+01 -2.888247489929199219e+00 -1.489521563053131104e-01 -9.111598730087280273e-01 -1.126034379005432129e+00
3.340000000000000000e+02 5.057860183715820312e+01 -1.902772712707519531e+01 1.074176058173179626e-01 2.479804903268814087e-01 1.066194251179695129e-01 -2.485045433044433594e+00
3.350000000000000000e+02 4.887020111083984375e+01 -1.997311210632324219e+01 -5.613296031951904297e+00 -1.161811426281929016e-01 -1.718843102455139160e+00 -1.021650314331054688e+00
3.360000000000000000e+02 4.873432922363281250e+01 -1.962645530700683594e+01 -4.405125617980957031e+00 6.734446622431278229e-03 -1.319517374038696289e+00 -9.132474660873413086e-01
3.370000000000000000e+02 4.714464569091796875e+01 -1.968859100341796875e+01 -4.127046108245849609e+00 -5.759913101792335510e-02 -1.255393505096435547e+00 -6.034715771675109863e-01
3.380000000000000000e+02 4.846424484252929688e+01 -1.982130622863769531e+01 -5.062919616699218750e+00 -2.017483860254287720e-01 -1.579400420188903809e+00 -9.022313356399536133e-01
3.390000000000000000e+02 4.891123962402343750e+01 -1.935953712463378906e+01 -3.673963785171508789e+00 -1.087478026747703552e-01 -1.134813427925109863e+00 -8.381868600845336914e-01
3.400000000000000000e+02 4.705174636840820312e+01 -1.920548057556152344e+01 -3.252441167831420898e+00 8.118713647127151489e-02 -9.513761997222900391e-01 -4.427207410335540771e-01
3.410000000000000000e+02 4.832587051391601562e+01 -1.943598556518554688e+01 -3.884585618972778320e+00 -1.222341433167457581e-01 -1.202045917510986328e+00 -8.132409453392028809e-01
3.420000000000000000e+02 4.883026123046875000e+01 -1.918592643737792969e+01 -3.202089548110961914e+00 -1.296148896217346191e-01 -9.995113611221313477e-01 -9.969141483306884766e-01
3.430000000000000000e+02 4.831940460205078125e+01 -1.903771400451660156e+01 -2.954620122909545898e+00 1.203743740916252136e-01 -8.502737283706665039e-01 -8.332566618919372559e-01
3.440000000000000000e+02 4.631501770019531250e+01 -1.935544776916503906e+01 -3.299276828765869141e+00 9.668426215648651123e-02 -9.607777595520019531e-01 -2.140839397907257080e-01
3.450000000000000000e+02 4.795904541015625000e+01 -2.002684974670410156e+01 -5.225024223327636719e+00 -1.767473071813583374e-01 -1.620531439781188965e+00 -9.371979832649230957e-01
3.460000000000000000e+02 4.866915130615234375e+01 -1.939179992675781250e+01 -3.808023214340209961e+00 -1.749551296234130859e-02 -1.147655606269836426e+00 -9.544483423233032227e-01
3.470000000000000000e+02 4.642541503906250000e+01 -1.983626937866210938e+01 -3.932165384292602539e+00 -7.417617738246917725e-02 -1.201902508735656738e+00 -4.993315935134887695e-01
3.480000000000000000e+02 4.654096984863281250e+01 -2.031808090209960938e+01 -4.810668468475341797e+00 -2.027869671583175659e-01 -1.504036545753479004e+00 -8.606052398681640625e-01
3.490000000000000000e+02 4.895589828491210938e+01 -1.973191261291503906e+01 -4.729990005493164062e+00 -4.290425777435302734e-02 -1.431868314743041992e+00 -9.349076151847839355e-01
3.500000000000000000e+02 4.862157058715820312e+01 -1.876935577392578125e+01 -2.288169145584106445e+00 1.034888699650764465e-01 -6.554040908813476562e-01 -1.068208098411560059e+00
3.510000000000000000e+02 4.895289230346679688e+01 -1.954551696777343750e+01 -4.125863075256347656e+00 -6.075260043144226074e-02 -1.255984783172607422e+00 -8.807201981544494629e-01
3.520000000000000000e+02 4.779952621459960938e+01 -1.955194664001464844e+01 -4.044307708740234375e+00 -3.174469619989395142e-02 -1.222815752029418945e+00 -6.655070185661315918e-01
3.530000000000000000e+02 4.775872039794921875e+01 -1.906645584106445312e+01 -3.088929414749145508e+00 5.751027911901473999e-02 -9.094257354736328125e-01 -6.484603285789489746e-01
3.540000000000000000e+02 4.726730728149414062e+01 -2.017241859436035156e+01 -5.024888992309570312e+00 -1.287784874439239502e-01 -1.546100258827209473e+00 -8.859525322914123535e-01
3.550000000000000000e+02 4.874571228027343750e+01 -1.898905372619628906e+01 -2.735029458999633789e+00 -1.034705340862274170e-01 -8.515499830245971680e-01 -9.754040241241455078e-01
3.560000000000000000e+02 4.511013412475585938e+01 -2.068459320068359375e+01 -3.470978021621704102e+00 -1.138920783996582031e-01 -1.075461030006408691e+00 -7.213378548622131348e-01
3.570000000000000000e+02 4.390709686279296875e+01 -2.007324600219726562e+01 -2.657183170318603516e+00 3.398954868316650391e-01 -6.951863169670104980e-01 1.932674348354339600e-01
3.580000000000000000e+02 4.365151596069335938e+01 -2.105886840820312500e+01 -2.143954515457153320e+00 -3.500073775649070740e-02 -6.536865830421447754e-01 -2.975454926490783691e-01
3.590000000000000000e+02 4.345931625366210938e+01 -2.058442878723144531e+01 -2.286052942276000977e+00 2.554411590099334717e-01 -6.091834902763366699e-01 9.496106952428817749e-02
3.600000000000000000e+02 4.505991363525390625e+01 -2.017992401123046875e+01 -3.378523111343383789e+00 9.333149343729019165e-02 -9.855574369430541992e-01 -2.932620346546173096e-01
3.610000000000000000e+02 4.490375900268554688e+01 -1.971904754638671875e+01 -3.029706954956054688e+00 2.800993025302886963e-01 -8.248823285102844238e-01 1.098800674080848694e-01
3.620000000000000000e+02 4.581826019287109375e+01 -2.049280738830566406e+01 -4.254058837890625000e+00 -2.136329114437103271e-01 -1.340307474136352539e+00 -8.738600611686706543e-01
3.630000000000000000e+02 4.558339309692382812e+01 -1.953003311157226562e+01 -3.191295862197875977e+00 1.835535615682601929e-01 -9.023226499557495117e-01 -6.812088936567306519e-02
3.640000000000000000e+02 4.328887557983398438e+01 -2.016592216491699219e+01 -2.358625411987304688e+00 4.344938993453979492e-01 -5.772394537925720215e-01 4.081114232540130615e-01
3.650000000000000000e+02 4.447577285766601562e+01 -2.017308807373046875e+01 -2.958503961563110352e+00 2.530445158481597900e-01 -8.116378188133239746e-01 -5.199262127280235291e-02
3.660000000000000000e+02 4.571121978759765625e+01 -2.000744628906250000e+01 -3.678269863128662109e+00 -9.122902527451515198e-03 -1.106217861175537109e+00 -3.318545818328857422e-01
3.670000000000000000e+02 4.439712142944335938e+01 -2.083943367004394531e+01 -2.763854980468750000e+00 -1.967301033437252045e-02 -8.350583910942077637e-01 -4.662482738494873047e-01
3.680000000000000000e+02 4.113447189331054688e+01 -2.129509162902832031e+01 -3.010652363300323486e-01 -2.110179662704467773e-01 -1.536249667406082153e-01 1.974521726369857788e-01
3.690000000000000000e+02 4.237675094604492188e+01 -2.122126770019531250e+01 -1.035221815109252930e+00 1.406371295452117920e-01 -2.683753967285156250e-01 1.222708746790885925e-01
3.700000000000000000e+02 4.206066131591796875e+01 -2.068220520019531250e+01 -1.626546978950500488e+00 3.292755782604217529e-01 -3.891814351081848145e-01 4.920660257339477539e-01
3.710000000000000000e+02 4.265045166015625000e+01 -2.040578460693359375e+01 -2.050213813781738281e+00 3.621279299259185791e-01 -5.064257383346557617e-01 4.019667208194732666e-01
3.720000000000000000e+02 4.185031890869140625e+01 -2.161000061035156250e+01 -3.210267126560211182e-01 6.685386598110198975e-02 -7.625184953212738037e-02 1.033050194382667542e-01
3.730000000000000000e+02 4.290772628784179688e+01 -2.134680175781250000e+01 -1.161041736602783203e+00 6.864502560347318649e-03 -3.462531864643096924e-01 -1.311936825513839722e-01
3.740000000000000000e+02 4.283658981323242188e+01 -2.086176490783691406e+01 -1.886717796325683594e+00 2.548505067825317383e-01 -4.895601570606231689e-01 2.159696221351623535e-01
3.750000000000000000e+02 4.150603866577148438e+01 -2.094869422912597656e+01 -1.152094125747680664e+00 -9.865348041057586670e-02 -3.752242624759674072e-01 4.914428889751434326e-01
3.760000000000000000e+02 4.183971786499023438e+01 -2.302727508544921875e+01 -1.691678166389465332e-02 -1.716469675302505493e-01 -5.656912550330162048e-02 -8.529732935130596161e-03
3.770000000000000000e+02 4.219042205810546875e+01 -2.229762840270996094e+01 -1.933544687926769257e-02 -7.703208178281784058e-02 -2.891025878489017487e-02 -8.465472608804702759e-02
3.780000000000000000e+02 4.326124572753906250e+01 -2.270085716247558594e+01 -1.208529248833656311e-01 -3.249518573284149170e-01 -1.337414383888244629e-01 -3.946298956871032715e-01
3.790000000000000000e+02 4.302730941772460938e+01 -2.199828910827636719e+01 -2.293675541877746582e-01 -1.217137053608894348e-01 -1.053243800997734070e-01 -1.948841512203216553e-01
3.800000000000000000e+02 4.243085479736328125e+01 -2.299776458740234375e+01 -4.702250286936759949e-02 -3.097602725028991699e-01 -1.070348322391510010e-01 -1.842190027236938477e-01
3.810000000000000000e+02 4.429703903198242188e+01 -2.321268081665039062e+01 -8.374217152595520020e-02 -2.889237999916076660e-01 -1.117997914552688599e-01 -5.465146303176879883e-01
3.820000000000000000e+02 4.395983123779296875e+01 -2.447423744201660156e+01 7.805046439170837402e-02 -4.136702120304107666e-01 -1.006859242916107178e-01 -5.022712945938110352e-01
3.830000000000000000e+02 4.776200866699218750e+01 -2.216996192932128906e+01 -2.856196463108062744e-01 2.465804964303970337e-01 -1.171174924820661545e-02 -1.416837126016616821e-01
3.840000000000000000e+02 4.568082809448242188e+01 -2.277740669250488281e+01 -2.414970546960830688e-01 -1.116548255085945129e-01 -1.059455648064613342e-01 -5.069096684455871582e-01
3.850000000000000000e+02 4.233181762695312500e+01 -2.833698654174804688e+01 -2.757898569107055664e-01 -1.896832823753356934e+00 -6.517868041992187500e-01 -3.957996964454650879e-01
3.860000000000000000e+02 4.047687911987304688e+01 -3.122662734985351562e+01 -8.922427296638488770e-01 -6.645406484603881836e-01 -4.670350253582000732e-01 -7.077050209045410156e-01
3.870000000000000000e+02 3.622626876831054688e+01 -3.330879974365234375e+01 -5.528924465179443359e-01 -1.658649146556854248e-01 -2.156272083520889282e-01 -2.189673930406570435e-01
3.880000000000000000e+02 3.429556274414062500e+01 -3.556377029418945312e+01 -1.227533295750617981e-01 -1.357176005840301514e-01 -7.754128426313400269e-02 -2.023920118808746338e-01
3.890000000000000000e+02 3.459682846069335938e+01 -3.336717605590820312e+01 -3.447258770465850830e-01 -2.476951852440834045e-02 -1.108486205339431763e-01 -7.740379124879837036e-02
3.900000000000000000e+02 3.081478881835937500e+01 -3.190901756286621094e+01 -5.228490382432937622e-02 -2.034676074981689453e-02 -2.178949862718582153e-02 -3.193234093487262726e-03
3.910000000000000000e+02 2.520624732971191406e+01 -3.143910980224609375e+01 -1.091121137142181396e-02 -6.836859043687582016e-03 -5.324420984834432602e-03 -3.415005514398217201e-03
3.920000000000000000e+02 1.977259445190429688e+01 -3.147891616821289062e+01 3.728560637682676315e-03 -1.188414986245334148e-03 7.620436954312026501e-04 -8.630608790554106236e-04
3.930000000000000000e+02 1.685284233093261719e+01 -3.133978652954101562e+01 5.781245417892932892e-03 -2.664611209183931351e-03 9.349902393296360970e-04 -2.872020122595131397e-04
3.940000000000000000e+02 1.538792037963867188e+01 -3.112956428527832031e+01 3.872098401188850403e-03 3.038172377273440361e-03 2.073081210255622864e-03 6.794274086132645607e-04
3.950000000000000000e+02 1.326036739349365234e+01 -3.242282104492187500e+01 2.930162474513053894e-03 1.480906736105680466e-03 1.323320786468684673e-03 2.491337480023503304e-03
3.960000000000000000e+02 8.009995460510253906e+00 -3.621315383911132812e+01 1.979433698579668999e-03 -1.760163577273488045e-03 6.578106695087626576e-05 2.524063922464847565e-03
3.970000000000000000e+02 1.615576553344726562e+01 -3.655636596679687500e+01 3.895292291417717934e-03 -1.961139030754566193e-03 5.802459781989455223e-04 1.738892053253948689e-03
3.980000000000000000e+02 1.996671867370605469e+01 -3.894605255126953125e+01 6.564920186065137386e-04 -7.567375432699918747e-03 -2.073265146464109421e-03 -1.536835225124377757e-05
3.990000000000000000e+02 2.656370544433593750e+01 -3.907575607299804688e+01 2.073601447045803070e-02 -4.376992955803871155e-02 -6.910174619406461716e-03 -3.301235660910606384e-02
4.000000000000000000e+02 3.956566619873046875e+01 -3.585250473022460938e+01 8.688678592443466187e-02 -1.056219115853309631e-01 -5.620537791401147842e-03 -3.955429792404174805e-02
4.010000000000000000e+02 4.042707824707031250e+01 -3.927917861938476562e+01 2.321402728557586670e-01 3.325613737106323242e-01 1.694104969501495361e-01 1.056046932935714722e-01
4.020000000000000000e+02 5.837855529785156250e+01 -3.537179565429687500e+01 -3.927613198757171631e-01 2.709618330001831055e+00 6.950570940971374512e-01 -1.682988524436950684e+00
4.030000000000000000e+02 5.936605453491210938e+01 -3.676171493530273438e+01 -4.610549509525299072e-01 1.557489395141601562e+00 3.289303183555603027e-01 -1.396376848220825195e+00
4.040000000000000000e+02 6.767074584960937500e+01 -3.657867431640625000e+01 -4.311078488826751709e-01 1.613976955413818359e+00 3.548607528209686279e-01 5.901946425437927246e-01
4.050000000000000000e+02 7.869785308837890625e+01 -4.008847808837890625e+01 -2.086292654275894165e-01 8.969944000244140625e+00 2.628394365310668945e+00 2.031330615282058716e-01
4.060000000000000000e+02 7.779856872558593750e+01 -3.687827682495117188e+01 -1.440989673137664795e-01 8.692197799682617188e+00 2.564429521560668945e+00 -1.534824222326278687e-01
4.070000000000000000e+02 7.938998413085937500e+01 -3.328983688354492188e+01 2.728662081062793732e-02 8.586730003356933594e+00 2.584205150604248047e+00 -2.557103633880615234e-01
4.080000000000000000e+02 7.812316131591796875e+01 -3.022937583923339844e+01 1.048521790653467178e-02 7.494614124298095703e+00 2.251529693603515625e+00 -7.628641724586486816e-01
4.090000000000000000e+02 7.938751220703125000e+01 -2.628320503234863281e+01 1.169308200478553772e-01 5.810870647430419922e+00 1.778340339660644531e+00 -1.000116392970085144e-01
4.100000000000000000e+02 7.289649963378906250e+01 -2.324179077148437500e+01 9.056472182273864746e-01 8.767226219177246094e+00 2.901861906051635742e+00 2.261826694011688232e-01
4.110000000000000000e+02 7.200485229492187500e+01 -2.622965049743652344e+01 7.033085227012634277e-01 1.332479667663574219e+01 4.208431243896484375e+00 -2.930663824081420898e-01
4.120000000000000000e+02 7.139653778076171875e+01 -2.869588279724121094e+01 1.282712578773498535e+00 1.141671466827392578e+01 3.809828281402587891e+00 2.370607376098632812e+00
4.130000000000000000e+02 6.998625946044921875e+01 -3.101526260375976562e+01 7.871115207672119141e-01 3.494407176971435547e+00 1.284455537796020508e+00 1.604716658592224121e+00
4.140000000000000000e+02 6.809368133544921875e+01 -3.289402389526367188e+01 -9.427266716957092285e-01 3.644544780254364014e-01 -1.734816581010818481e-01 -2.045381963253021240e-01
4.150000000000000000e+02 6.548070526123046875e+01 -3.469108963012695312e+01 -1.915319442749023438e+00 -8.334880322217941284e-02 -5.996004939079284668e-01 -4.513429403305053711e-01
4.160000000000000000e+02 6.291207885742187500e+01 -3.773283004760742188e+01 -5.856267735362052917e-02 2.121653780341148376e-02 -1.120384130626916885e-02 -4.011990725994110107e-01
4.170000000000000000e+02 6.083055877685546875e+01 -3.519395446777343750e+01 -1.219094753265380859e+00 3.062318451702594757e-02 -3.565414845943450928e-01 -3.815567195415496826e-01
4.180000000000000000e+02 5.954825592041015625e+01 -3.463791275024414062e+01 -4.804227352142333984e-01 8.698452264070510864e-02 -1.180314645171165466e-01 -4.116858541965484619e-01
4.190000000000000000e+02 5.716968536376953125e+01 -3.337961578369140625e+01 1.597051739692687988e+00 4.356523036956787109e+00 1.786072373390197754e+00 -2.519298791885375977e+00
4.200000000000000000e+02 5.595032119750976562e+01 -3.418817138671875000e+01 -8.774441480636596680e-02 6.005070209503173828e+00 1.775197744369506836e+00 -1.042175292968750000e+00
4.210000000000000000e+02 5.371356201171875000e+01 -3.182853889465332031e+01 1.462487697601318359e+00 6.182830333709716797e+00 2.293595552444458008e+00 5.428380370140075684e-01
4.220000000000000000e+02 5.589489364624023438e+01 -3.074220275878906250e+01 1.603180646896362305e+00 1.325428485870361328e+01 4.457239627838134766e+00 -9.198530912399291992e-01
4.230000000000000000e+02 5.503749847412109375e+01 -2.901301383972167969e+01 1.294621467590332031e+00 8.766830444335937500e+00 3.018435716629028320e+00 -5.879359319806098938e-02
4.240000000000000000e+02 5.652589416503906250e+01 -2.797362709045410156e+01 1.374152660369873047e+00 7.580691337585449219e+00 2.686453104019165039e+00 2.462983608245849609e+00
4.250000000000000000e+02 5.710695648193359375e+01 -2.680766296386718750e+01 2.266034632921218872e-01 3.991249322891235352e+00 1.265355825424194336e+00 1.592468619346618652e+00
4.260000000000000000e+02 5.634973907470703125e+01 -2.517017364501953125e+01 -4.229811131954193115e-01 5.344018459320068359e+00 1.476311206817626953e+00 5.839743018150329590e-01
4.270000000000000000e+02 5.856922912597656250e+01 -2.529134559631347656e+01 2.803083360195159912e-01 1.280406475067138672e+00 4.682144522666931152e-01 5.288259387016296387e-01
4.280000000000000000e+02 6.067720031738281250e+01 -2.390861892700195312e+01 2.737317979335784912e-01 5.883347988128662109e-02 9.976957738399505615e-02 1.338009536266326904e-01
4.290000000000000000e+02 6.312919616699218750e+01 -2.292933464050292969e+01 -3.024351000785827637e-01 5.270488187670707703e-02 -7.491905987262725830e-02 1.307386457920074463e-01
4.300000000000000000e+02 6.436901855468750000e+01 -2.257033729553222656e+01 -6.636945605278015137e-01 8.573001623153686523e-02 -1.733893603086471558e-01 -2.330291830003261566e-02
4.310000000000000000e+02 1.072649669647216797e+01 -3.033469009399414062e+01 2.533476566895842552e-03 1.395433559082448483e-03 1.178673002868890762e-03 1.179947634227573872e-03
4.320000000000000000e+02 1.977622032165527344e+00 -2.457384109497070312e+01 1.655477797612547874e-03 1.403056521667167544e-04 5.387350684031844139e-04 2.693737042136490345e-04
4.330000000000000000e+02 6.549209952354431152e-01 -3.039591407775878906e+01 -2.582270186394453049e-03 9.949508239515125751e-05 -7.448325632140040398e-04 -3.682343231048434973e-04
4.340000000000000000e+02 6.629137992858886719e-01 -3.180131149291992188e+01 2.823256654664874077e-03 3.539304016157984734e-04 9.531560936011373997e-04 5.127390613779425621e-04
4.350000000000000000e+02 8.440723419189453125e-01 -3.733930206298828125e+01 3.400420304387807846e-03 1.545752282254397869e-03 1.483851810917258263e-03 1.252035493962466717e-03
4.360000000000000000e+02 2.791152954101562500e+00 -3.795485687255859375e+01 2.258570166304707527e-03 1.334431697614490986e-03 1.077900524251163006e-03 2.118602860718965530e-03
4.370000000000000000e+02 1.050789451599121094e+01 -2.808924484252929688e+01 8.387962589040398598e-04 1.143111847341060638e-03 5.945723969489336014e-04 6.464450852945446968e-04
4.380000000000000000e+02 1.154378986358642578e+01 -2.911150169372558594e+01 7.082588854245841503e-04 -1.004679827019572258e-03 -8.892628102330490947e-05 -1.112982281483709812e-03
4.390000000000000000e+02 8.698341369628906250e+00 -2.561940002441406250e+01 1.077841152437031269e-03 2.960913698188960552e-04 4.121797683183103800e-04 2.599528816062957048e-04
4.400000000000000000e+02 8.559749603271484375e+00 -2.258419609069824219e+01 1.395977917127311230e-03 -9.551072434987872839e-05 3.901401360053569078e-04 1.743069151416420937e-04
4.410000000000000000e+02 8.800767898559570312e+00 -2.116712760925292969e+01 -1.650943420827388763e-03 1.186376321129500866e-04 -4.596917424350976944e-04 2.886915535782463849e-05
4.420000000000000000e+02 7.644123554229736328e+00 -2.103600883483886719e+01 1.745098386891186237e-03 -2.633249678183346987e-04 4.445320228114724159e-04 1.078111090464517474e-04
4.430000000000000000e+02 8.046396255493164062e+00 -1.965029907226562500e+01 -1.732661272399127483e-03 2.524993033148348331e-04 -4.440485790837556124e-04 4.669077679864130914e-05
4.440000000000000000e+02 1.163770294189453125e+01 -1.570101165771484375e+01 -1.049516504281200469e-04 -2.903245622292160988e-04 -1.185828587040305138e-04 4.882162320427596569e-04
4.450000000000000000e+02 1.393653678894042969e+01 -1.420836925506591797e+01 -1.091084268409758806e-04 -3.811472270172089338e-04 -1.470766874263063073e-04 1.370823738398030400e-04
4.460000000000000000e+02 1.673880386352539062e+01 -1.335404300689697266e+01 -5.636182686430402100e-05 -2.751244755927473307e-04 -9.944588964572176337e-05 3.173394361510872841e-05
4.470000000000000000e+02 1.967693328857421875e+01 -1.326994323730468750e+01 3.471179297775961459e-05 -2.849313314072787762e-04 -7.506586553063243628e-05 3.293511690571904182e-05
4.480000000000000000e+02 1.820450782775878906e+01 -1.317381191253662109e+01 3.129468677798286080e-05 2.443827397655695677e-04 8.270322723546996713e-05 -6.499001756310462952e-05
4.490000000000000000e+02 2.135663604736328125e+01 -1.394200515747070312e+01 -1.093711616704240441e-04 8.522664575139060616e-05 -7.243354048114269972e-06 -2.119296004821080714e-05
4.500000000000000000e+02 2.090733528137207031e+01 -1.265069293975830078e+01 3.106630902038887143e-05 1.890915591502562165e-04 6.604735972359776497e-05 3.867625855491496623e-05
4.510000000000000000e+02 2.220294380187988281e+01 -1.316523742675781250e+01 -8.747881656745448709e-05 -3.363873474881984293e-05 -3.633526284829713404e-05 -6.538813613587990403e-05
4.520000000000000000e+02 1.779527282714843750e+01 -7.017377853393554688e+00 2.107759792124852538e-04 9.422270522918552160e-05 9.149960533250123262e-05 6.440009747166186571e-05
4.530000000000000000e+02 1.635511779785156250e+01 -6.546129226684570312e+00 -1.901068171719089150e-04 -1.447587274014949799e-04 -1.004596633720211685e-04 -8.388482092414051294e-05
4.540000000000000000e+02 1.345449733734130859e+01 -3.663790225982666016e+00 2.125821192748844624e-04 1.370882819173857570e-04 1.049011189024895430e-04 8.828996215015649796e-05
4.550000000000000000e+02 1.076753425598144531e+01 -2.355503559112548828e+00 1.214742660522460938e-04 2.245807118015363812e-04 1.038164919009432197e-04 8.599744614912196994e-05
4.560000000000000000e+02 1.247966670989990234e+01 -3.938771486282348633e+00 2.251291298307478428e-04 1.663296861806884408e-04 1.174376448034308851e-04 5.009707820136100054e-05
4.570000000000000000e+02 9.989821434020996094e+00 -2.079298496246337891e+00 -1.058207126334309578e-04 -2.314739977009594440e-04 -1.011884087347425520e-04 -7.873857975937426090e-05
4.580000000000000000e+02 3.620674610137939453e+00 -1.931293964385986328e+00 -2.087344182655215263e-04 9.208156552631407976e-05 -3.499585727695375681e-05 -2.641500759636983275e-05
4.590000000000000000e+02 5.770552158355712891e-01 -1.065829753875732422e+01 -7.541726808995008469e-04 5.771891665062867105e-06 -2.245202340418472886e-04 -2.320164094271603972e-05
4.600000000000000000e+02 1.731321096420288086e+00 -1.058654975891113281e+01 7.877221214585006237e-04 7.935711437312420458e-06 2.386973501415923238e-04 2.681295154616236687e-05
4.610000000000000000e+02 5.912348031997680664e-01 -1.771478271484375000e+01 1.152598415501415730e-03 3.627945625339634717e-05 3.566633677110075951e-04 1.405166985932737589e-04
4.620000000000000000e+02 9.244624137878417969e+00 -1.982868385314941406e+01 1.868144841864705086e-03 -3.951121470890939236e-05 5.485900910571217537e-04 -1.908211415866389871e-04
4.630000000000000000e+02 1.787392139434814453e+00 -1.763129425048828125e+01 -1.158811850473284721e-03 -8.363734377780929208e-05 -3.727347648236900568e-04 -2.551653888076543808e-04
4.640000000000000000e+02 6.405928134918212891e-01 -2.333086395263671875e+01 1.518586650490760803e-03 4.215985609334893525e-05 4.682239668909460306e-04 1.909089332912117243e-04
4.650000000000000000e+02 7.396025085449218750e+01 -2.618681144714355469e+01 1.312702178955078125e+00 9.161060333251953125e+00 3.142128705978393555e+00 -2.774059772491455078e-01
4.660000000000000000e+02 7.943574523925781250e+01 -2.218130111694335938e+01 6.751248147338628769e-04 6.433888435363769531e+00 1.930369138717651367e+00 1.851466298103332520e-01
4.670000000000000000e+02 6.684767150878906250e+01 -1.079873466491699219e+01 9.364627599716186523e-01 4.022195339202880859e+00 1.487597346305847168e+00 1.398943424224853516e+00
4.680000000000000000e+02 6.578327178955078125e+01 -1.011660194396972656e+01 1.067005395889282227e+00 3.618187904357910156e+00 1.405557990074157715e+00 1.851733803749084473e+00
4.690000000000000000e+02 6.498181152343750000e+01 -1.131301021575927734e+01 1.390319705009460449e+00 3.013840913772583008e+00 1.321248173713684082e+00 1.787541627883911133e+00
4.700000000000000000e+02 6.444713592529296875e+01 -1.856263923645019531e+01 3.884370625019073486e-01 8.939152956008911133e-01 3.847056925296783447e-01 9.813217520713806152e-01
4.710000000000000000e+02 6.939782714843750000e+01 -1.980484008789062500e+01 -4.592967331409454346e-01 3.245886802673339844e+00 8.359770178794860840e-01 -1.673903942108154297e+00
4.720000000000000000e+02 7.007974243164062500e+01 -2.071463584899902344e+01 -1.035362482070922852e+00 4.217831611633300781e+00 9.547407627105712891e-01 -1.825884342193603516e+00
4.730000000000000000e+02 7.061003112792968750e+01 -2.175192260742187500e+01 2.027024924755096436e-01 5.256915569305419922e+00 1.637885451316833496e+00 -1.954935312271118164e+00
4.740000000000000000e+02 7.228586578369140625e+01 -2.217576789855957031e+01 -4.723494648933410645e-01 9.174155235290527344e+00 2.610541820526123047e+00 -2.737686038017272949e-01
4.750000000000000000e+02 7.824374389648437500e+01 -1.670144271850585938e+01 -9.850165992975234985e-02 7.341560840606689453e+00 2.172917842864990234e+00 2.460530772805213928e-02
4.760000000000000000e+02 7.938449859619140625e+01 -1.256475067138671875e+01 -1.966973580420017242e-02 7.270833015441894531e+00 2.175348997116088867e+00 -1.020471006631851196e-01
4.770000000000000000e+02 6.713838195800781250e+01 -7.584181785583496094e+00 9.228218197822570801e-01 5.258802413940429688e+00 1.854487180709838867e+00 2.099807262420654297e+00
4.780000000000000000e+02 6.773260498046875000e+01 -6.290737628936767578e+00 9.353989958763122559e-01 6.214688301086425781e+00 2.145026206970214844e+00 2.303944349288940430e+00
4.790000000000000000e+02 7.814010620117187500e+01 -9.869425773620605469e+00 -1.949682272970676422e-02 6.733017921447753906e+00 2.014056205749511719e+00 -3.543467521667480469e-01
4.800000000000000000e+02 7.936058044433593750e+01 -5.599790096282958984e+00 1.065952423959970474e-02 5.721265316009521484e+00 1.719577431678771973e+00 -1.664069443941116333e-01
4.810000000000000000e+02 7.022483062744140625e+01 1.884460806846618652e+00 5.893000364303588867e-01 1.419736862182617188e+01 4.436000823974609375e+00 1.153246045112609863e+00
4.820000000000000000e+02 6.925281524658203125e+01 -2.324384927749633789e+00 8.527163863182067871e-01 1.006315231323242188e+01 3.274760484695434570e+00 2.627528905868530273e+00
4.830000000000000000e+02 6.967157745361328125e+01 -9.598586559295654297e-01 7.827699780464172363e-01 1.159627532958984375e+01 3.713713407516479492e+00 2.545558452606201172e+00
4.840000000000000000e+02 7.807309722900390625e+01 -2.798311233520507812e+00 3.678354248404502869e-02 5.795573711395263672e+00 1.749707221984863281e+00 -3.611180782318115234e-01
4.850000000000000000e+02 7.941878509521484375e+01 2.807058811187744141e+00 2.735584974288940430e-02 4.460875988006591797e+00 1.346469521522521973e+00 4.642839729785919189e-02
4.860000000000000000e+02 7.015644073486328125e+01 7.556793689727783203e+00 3.501781225204467773e-01 1.237363338470458984e+01 3.817143440246582031e+00 -7.246466279029846191e-01
4.870000000000000000e+02 7.134401702880859375e+01 6.250201225280761719e+00 4.475267231464385986e-01 1.125736427307128906e+01 3.511467218399047852e+00 3.479158133268356323e-02
4.880000000000000000e+02 7.824916839599609375e+01 4.215317249298095703e+00 8.639417588710784912e-02 5.619379520416259766e+00 1.711732149124145508e+00 2.494164854288101196e-01
4.890000000000000000e+02 7.939355468750000000e+01 8.358215332031250000e+00 6.418633274734020233e-04 5.568494796752929688e+00 1.670740962028503418e+00 1.779819279909133911e-01
4.900000000000000000e+02 6.992068481445312500e+01 1.582531833648681641e+01 1.123066432774066925e-02 9.576577186584472656e+00 2.876342296600341797e+00 2.006026804447174072e-01
4.910000000000000000e+02 6.981675720214843750e+01 1.031688117980957031e+01 -2.057603597640991211e-01 8.626959800720214844e+00 2.526359796524047852e+00 -5.515450835227966309e-01
4.920000000000000000e+02 6.999588775634765625e+01 8.943714141845703125e+00 6.514421850442886353e-02 1.037332153320312500e+01 3.131539583206176758e+00 -9.430284500122070312e-01
4.930000000000000000e+02 7.820949554443359375e+01 1.110350608825683594e+01 -3.091293200850486755e-02 6.798584938049316406e+00 2.030301570892333984e+00 4.145834445953369141e-01
4.940000000000000000e+02 7.938484954833984375e+01 1.670968818664550781e+01 1.419026684015989304e-02 7.383740901947021484e+00 2.219379425048828125e+00 1.331345438957214355e-01
4.950000000000000000e+02 6.987330627441406250e+01 2.415680885314941406e+01 1.427460312843322754e-01 8.256897926330566406e+00 2.519893407821655273e+00 -2.460716217756271362e-01
4.960000000000000000e+02 6.992201232910156250e+01 1.721757698059082031e+01 1.776363886892795563e-02 9.219226837158203125e+00 2.771096944808959961e+00 1.671360731124877930e-01
4.970000000000000000e+02 7.810883331298828125e+01 1.809665489196777344e+01 2.946547232568264008e-02 7.789098262786865234e+00 2.345569133758544922e+00 3.314785361289978027e-01
4.980000000000000000e+02 7.936797332763671875e+01 2.374850654602050781e+01 -4.048725124448537827e-03 8.768721580505371094e+00 2.629401922225952148e+00 1.940687894821166992e-01
4.990000000000000000e+02 6.916355133056640625e+01 2.846224975585937500e+01 2.398279011249542236e-01 4.900250911712646484e+00 1.542023658752441406e+00 -8.415980935096740723e-01
5.000000000000000000e+02 6.977232360839843750e+01 2.558859252929687500e+01 2.076789140701293945e-01 7.585213184356689453e+00 2.337867736816406250e+00 -5.747408866882324219e-01
5.010000000000000000e+02 7.674884796142578125e+01 2.258682823181152344e+01 8.856710791587829590e-02 8.320536613464355469e+00 2.522731304168701172e+00 5.759934782981872559e-01
5.020000000000000000e+02 7.934434509277343750e+01 2.936491584777832031e+01 -2.133528236299753189e-03 1.033505439758300781e+01 3.099876165390014648e+00 2.137375622987747192e-01
5.030000000000000000e+02 6.680146026611328125e+01 3.218658447265625000e+01 -9.231206178665161133e-01 7.627632468938827515e-02 -2.540532946586608887e-01 5.211696624755859375e-01
5.040000000000000000e+02 6.582151031494140625e+01 3.330832290649414062e+01 -1.311988115310668945e+00 -4.702134430408477783e-01 -5.346604585647583008e-01 9.009414911270141602e-01
5.050000000000000000e+02 6.770825958251953125e+01 3.102762222290039062e+01 -4.584073126316070557e-01 1.052347183227539062e+00 1.781819611787796021e-01 -4.923769831657409668e-02
5.060000000000000000e+02 7.936709594726562500e+01 3.219964599609375000e+01 -1.452169567346572876e-02 1.099355792999267578e+01 3.293710708618164062e+00 1.515633761882781982e-01
5.070000000000000000e+02 7.910256195068359375e+01 3.731610870361328125e+01 -4.726471006870269775e-02 1.112806606292724609e+01 3.324240446090698242e+00 -1.160813495516777039e-01
5.080000000000000000e+02 7.008152008056640625e+01 3.611482620239257812e+01 -3.988921642303466797e-01 4.249086856842041016e+00 1.155058383941650391e+00 -1.929834038019180298e-01
5.090000000000000000e+02 6.344212341308593750e+01 3.504689025878906250e+01 -1.903647065162658691e+00 -6.183156371116638184e-01 -7.565888166427612305e-01 8.947283625602722168e-01
5.100000000000000000e+02 6.049781417846679688e+01 3.662767410278320312e+01 -1.216031908988952637e+00 -4.822117686271667480e-01 -5.094730854034423828e-01 4.148484468460083008e-01
5.110000000000000000e+02 6.226884460449218750e+01 3.581398773193359375e+01 -1.315331578254699707e+00 -2.344392985105514526e-01 -4.649312496185302734e-01 7.348686456680297852e-01
5.120000000000000000e+02 5.722397232055664062e+01 3.575992584228515625e+01 -9.093881845474243164e-01 2.530349045991897583e-02 -2.652254104614257812e-01 -2.060937285423278809e-01
5.130000000000000000e+02 5.848657608032226562e+01 3.649638748168945312e+01 -1.125176310539245605e+00 -2.566030919551849365e-01 -4.145338237285614014e-01 1.373579651117324829e-01
5.140000000000000000e+02 4.890895462036132812e+01 3.532485580444335938e+01 -4.287120103836059570e-01 1.149178147315979004e+00 2.161398380994796753e-01 2.412657886743545532e-01
5.150000000000000000e+02 4.924955749511718750e+01 3.017561149597167969e+01 3.800120055675506592e-01 9.194026589393615723e-01 3.898243904113769531e-01 6.250013113021850586e-01
5.160000000000000000e+02 5.106375885009765625e+01 3.225241851806640625e+01 6.025864183902740479e-02 3.983632922172546387e-01 1.375865787267684937e-01 2.820391356945037842e-01
5.170000000000000000e+02 4.915333938598632812e+01 3.188933944702148438e+01 1.569492742419242859e-02 9.648355841636657715e-01 2.941591441631317139e-01 4.037344753742218018e-01
5.180000000000000000e+02 5.340813827514648438e+01 3.423013687133789062e+01 -3.327529728412628174e-01 1.262486726045608521e-01 -6.195129081606864929e-02 -1.628457568585872650e-02
5.190000000000000000e+02 5.481734466552734375e+01 3.475320053100585938e+01 -4.420073330402374268e-01 1.761008054018020630e-02 -1.273191720247268677e-01 -1.890466809272766113e-01
5.200000000000000000e+02 3.847876739501953125e+01 3.747917938232421875e+01 -7.211117148399353027e-01 2.153956174850463867e+00 4.298533201217651367e-01 -7.091241329908370972e-02
5.210000000000000000e+02 4.270941925048828125e+01 3.833236312866210938e+01 -7.569453716278076172e-01 1.987584233283996582e+00 3.691916763782501221e-01 4.429004713892936707e-02
5.220000000000000000e+02 4.648653030395507812e+01 3.174902725219726562e+01 -1.992229968309402466e-01 1.723728775978088379e+00 4.573517143726348877e-01 3.802697360515594482e-01
5.230000000000000000e+02 4.516870498657226562e+01 2.440511894226074219e+01 6.491400003433227539e-01 3.027106523513793945e+00 1.102873921394348145e+00 1.295960545539855957e+00
5.240000000000000000e+02 4.583701324462890625e+01 2.569645500183105469e+01 6.006084680557250977e-01 2.517646551132202148e+00 9.354765415191650391e-01 1.196188211441040039e+00
5.250000000000000000e+02 4.737011337280273438e+01 2.812772369384765625e+01 5.915489792823791504e-01 1.730141878128051758e+00 6.965072751045227051e-01 9.651374220848083496e-01
5.260000000000000000e+02 3.757154464721679688e+01 4.073226547241210938e+01 -7.651922106742858887e-01 2.108676433563232422e+00 4.030452668666839600e-01 -3.793829306960105896e-02
5.270000000000000000e+02 3.868545532226562500e+01 2.949661636352539062e+01 -2.749067842960357666e-01 2.567067146301269531e+00 6.876481175422668457e-01 -1.205113679170608521e-01
5.280000000000000000e+02 3.961688232421875000e+01 2.608749198913574219e+01 -9.864224557531997561e-05 2.951040029525756836e+00 8.852824568748474121e-01 -1.220111735165119171e-02
5.290000000000000000e+02 3.897828292846679688e+01 1.559906864166259766e+01 7.372243404388427734e-01 4.755346298217773438e+00 1.647771120071411133e+00 -4.530065953731536865e-01
5.300000000000000000e+02 3.960025787353515625e+01 1.137225437164306641e+01 1.287352919578552246e+00 5.494253158569335938e+00 2.034481763839721680e+00 -9.931479096412658691e-01
5.310000000000000000e+02 3.924301910400390625e+01 4.951786518096923828e+00 1.065175414085388184e+00 4.268379211425781250e+00 1.600066304206848145e+00 -1.035400032997131348e+00
5.320000000000000000e+02 3.883050918579101562e+01 -1.887943387031555176e+00 5.097910165786743164e-01 2.694436073303222656e+00 9.612681269645690918e-01 -8.697890043258666992e-01
5.330000000000000000e+02 3.572312164306640625e+01 -1.459950447082519531e+01 -1.605696439743041992e+00 -2.932929694652557373e-01 -5.696967840194702148e-01 9.682866334915161133e-01
5.340000000000000000e+02 3.540851974487304688e+01 -1.796137046813964844e+01 -3.724938631057739258e+00 -6.589323282241821289e-02 -1.137249588966369629e+00 4.039473831653594971e-01
5.350000000000000000e+02 3.679724884033203125e+01 -1.701781845092773438e+01 -3.249782562255859375e+00 -7.003839015960693359e-01 -1.185050010681152344e+00 1.119047522544860840e+00
5.360000000000000000e+02 3.811762237548828125e+01 -1.826582908630371094e+01 -4.904462814331054688e+00 -1.019470572471618652e+00 -1.777179956436157227e+00 1.590887308120727539e+00
5.370000000000000000e+02 4.247351837158203125e+01 -1.975665855407714844e+01 -2.292575597763061523e+00 5.105979442596435547e-01 -5.345932841300964355e-01 6.793240904808044434e-01
5.380000000000000000e+02 4.470650100708007812e+01 -1.919820213317871094e+01 -2.775409936904907227e+00 4.685256779193878174e-01 -6.920652985572814941e-01 2.681135237216949463e-01
5.390000000000000000e+02 4.620795059204101562e+01 -1.884063911437988281e+01 -2.708392858505249023e+00 2.831313312053680420e-01 -7.275784611701965332e-01 -1.099927872419357300e-01
5.400000000000000000e+02 5.084957885742187500e+01 -1.022757720947265625e+01 1.107248306274414062e+00 7.695538520812988281e+00 2.640836000442504883e+00 -2.783897638320922852e+00
5.410000000000000000e+02 5.036774444580078125e+01 -8.821112632751464844e+00 9.256390929222106934e-01 7.210918903350830078e+00 2.440967559814453125e+00 -2.527362108230590820e+00
5.420000000000000000e+02 4.839414978027343750e+01 -6.205527305603027344e+00 8.655353188514709473e-01 5.446884632110595703e+00 1.893725872039794922e+00 -2.273699760437011719e+00
5.430000000000000000e+02 4.878906631469726562e+01 -3.421207427978515625e+00 6.954085230827331543e-01 5.415873527526855469e+00 1.833384633064270020e+00 -2.062342643737792969e+00
5.440000000000000000e+02 4.404897689819335938e+01 3.669195175170898438e+00 1.105670809745788574e+00 5.186742782592773438e+00 1.887724161148071289e+00 -2.397763967514038086e+00
5.450000000000000000e+02 4.455739974975585938e+01 5.262448787689208984e+00 1.610030889511108398e+00 5.593675613403320312e+00 2.161112070083618164e+00 -2.933370828628540039e+00
5.460000000000000000e+02 4.389850616455078125e+01 6.490774154663085938e+00 1.647878408432006836e+00 6.476501464843750000e+00 2.437314033508300781e+00 -3.024105072021484375e+00
5.470000000000000000e+02 4.276468276977539062e+01 9.077422142028808594e+00 1.288283586502075195e+00 8.565851211547851562e+00 2.956240653991699219e+00 -2.645145416259765625e+00
5.480000000000000000e+02 4.237776184082031250e+01 1.045683002471923828e+01 8.232363462448120117e-01 9.338009834289550781e+00 3.048373937606811523e+00 -1.606501817703247070e+00
5.490000000000000000e+02 3.804159927368164062e+01 1.428949737548828125e+01 9.763029813766479492e-01 4.413358211517333984e+00 1.616898298263549805e+00 -6.860373616218566895e-01
5.500000000000000000e+02 3.248421859741210938e+01 4.062347030639648438e+01 -6.357285380363464355e-01 1.909862399101257324e+00 3.822401762008666992e-01 -6.761656701564788818e-02
5.510000000000000000e+02 2.749770927429199219e+01 4.083258438110351562e+01 -4.489689767360687256e-01 1.452493309974670410e+00 3.010573089122772217e-01 -5.989501997828483582e-02
5.520000000000000000e+02 2.744885826110839844e+01 3.059986495971679688e+01 -9.530468285083770752e-02 1.408448338508605957e+00 3.939431011676788330e-01 -3.979497849941253662e-01
5.530000000000000000e+02 2.976114654541015625e+01 2.219128036499023438e+01 4.892792403697967529e-01 1.629032015800476074e+00 6.354933977127075195e-01 -6.152901649475097656e-01
5.540000000000000000e+02 3.311432266235351562e+01 2.022644996643066406e+01 6.155220270156860352e-01 2.353729724884033203e+00 8.907755613327026367e-01 -6.586430668830871582e-01
5.550000000000000000e+02 3.306050872802734375e+01 1.102511405944824219e+01 1.298929691314697266e+00 2.137548446655273438e+00 1.030943512916564941e+00 -6.243975162506103516e-01
5.560000000000000000e+02 3.128847312927246094e+01 5.419223308563232422e+00 9.133615493774414062e-01 1.300434112548828125e+00 6.641386747360229492e-01 -2.535330653190612793e-01
5.570000000000000000e+02 2.886027717590332031e+01 -5.653618335723876953e+00 -7.374377250671386719e-01 -6.819845642894506454e-03 -2.232772707939147949e-01 7.923336029052734375e-01
5.580000000000000000e+02 2.544503593444824219e+01 -1.154993152618408203e+01 -1.045905828475952148e+00 -1.174339413642883301e+00 -6.660735607147216797e-01 1.275900483131408691e+00
5.590000000000000000e+02 2.751914596557617188e+01 -1.645742607116699219e+01 -1.063243746757507324e+00 -2.639505565166473389e-01 -3.981583118438720703e-01 5.810728669166564941e-01
5.600000000000000000e+02 2.924798011779785156e+01 -1.692232131958007812e+01 -1.388808608055114746e+00 -2.296043932437896729e-01 -4.855239093303680420e-01 6.426962614059448242e-01
5.610000000000000000e+02 3.154383277893066406e+01 -1.769402503967285156e+01 -1.813190937042236328e+00 -2.555294707417488098e-02 -5.516231656074523926e-01 4.651876091957092285e-01
5.620000000000000000e+02 1.775915527343750000e+01 4.065724563598632812e+01 -1.591598540544509888e-01 3.239562511444091797e-01 4.943891242146492004e-02 -4.089122638106346130e-02
5.630000000000000000e+02 2.266044616699218750e+01 4.084457778930664062e+01 -2.871392369270324707e-01 9.214204549789428711e-01 1.902843713760375977e-01 -4.586856812238693237e-02
5.640000000000000000e+02 2.197546577453613281e+01 2.596534347534179688e+01 2.804424762725830078e-01 5.918427705764770508e-01 2.616855800151824951e-01 -3.448154330253601074e-01
5.650000000000000000e+02 2.541254997253417969e+01 2.292745399475097656e+01 4.608494043350219727e-01 9.437501430511474609e-01 4.213798642158508301e-01 -4.810672700405120850e-01
5.660000000000000000e+02 2.682072067260742188e+01 1.727915382385253906e+01 8.804697990417480469e-01 9.349507689476013184e-01 5.446261763572692871e-01 -5.107044577598571777e-01
5.670000000000000000e+02 2.789462661743164062e+01 1.454812240600585938e+01 1.025595545768737793e+00 1.004226088523864746e+00 6.089464426040649414e-01 -4.953268468379974365e-01
5.680000000000000000e+02 2.153122520446777344e+01 -5.216300487518310547e-01 -6.636367440223693848e-01 -1.186164855957031250e+00 -5.549405217170715332e-01 7.946158051490783691e-01
5.690000000000000000e+02 1.927092742919921875e+01 -3.314227581024169922e+00 -1.760740041732788086e+00 -1.808677554130554199e+00 -1.070825338363647461e+00 1.571860074996948242e+00
5.700000000000000000e+02 1.985389328002929688e+01 -3.873181819915771484e+00 -1.756018280982971191e+00 -1.875926494598388672e+00 -1.089583396911621094e+00 1.606635570526123047e+00
5.710000000000000000e+02 2.203994750976562500e+01 -6.239135265350341797e+00 -1.606820940971374512e+00 -1.977729558944702148e+00 -1.075365185737609863e+00 1.608251690864562988e+00
5.720000000000000000e+02 2.355297279357910156e+01 -7.068600177764892578e+00 -1.428022861480712891e+00 -1.607869386672973633e+00 -9.107676744461059570e-01 1.399632096290588379e+00
5.730000000000000000e+02 2.390568351745605469e+01 -8.840574264526367188e+00 -1.342705368995666504e+00 -1.749409079551696777e+00 -9.276343584060668945e-01 1.475908517837524414e+00
5.740000000000000000e+02 1.762925529479980469e+01 3.302425003051757812e+01 -2.470181696116924286e-02 2.533877491950988770e-01 6.860578060150146484e-02 -1.526072323322296143e-01
5.750000000000000000e+02 1.460829257965087891e+01 2.489069747924804688e+01 2.357343733310699463e-01 -2.811424434185028076e-01 -1.362241897732019424e-02 -5.292105302214622498e-02
5.760000000000000000e+02 1.454934787750244141e+01 1.783478355407714844e+01 4.566248059272766113e-01 -5.498290657997131348e-01 -2.796127833425998688e-02 1.597844958305358887e-01
5.770000000000000000e+02 1.604507064819335938e+01 6.908257484436035156e+00 2.310633808374404907e-01 -1.004554152488708496e+00 -2.320472449064254761e-01 6.254085302352905273e-01
5.780000000000000000e+02 1.083801937103271484e+01 1.826337814331054688e+00 -9.004436135292053223e-01 -6.262763738632202148e-01 -4.580160081386566162e-01 7.819569110870361328e-01
5.790000000000000000e+02 1.395804309844970703e+01 3.160502910614013672e-01 -1.417446970939636230e+00 -9.798644185066223145e-01 -7.191933989524841309e-01 1.107336997985839844e+00
5.800000000000000000e+02 1.505550289154052734e+01 5.275924205780029297e-01 -1.204836130142211914e+00 -1.163267970085144043e+00 -7.104312181472778320e-01 1.119825005531311035e+00
5.810000000000000000e+02 1.576017475128173828e+01 1.080366671085357666e-01 -1.265158534049987793e+00 -1.258077383041381836e+00 -7.569707632064819336e-01 1.174117684364318848e+00
5.820000000000000000e+02 1.737670707702636719e+01 -1.811387658119201660e+00 -1.720329642295837402e+00 -1.535370469093322754e+00 -9.767100214958190918e-01 1.462809562683105469e+00
5.830000000000000000e+02 1.277132034301757812e+01 4.074432754516601562e+01 -7.753840833902359009e-02 -2.178126573562622070e-01 -8.860532194375991821e-02 -2.603682875633239746e-02
5.840000000000000000e+02 8.696218490600585938e+00 3.820135116577148438e+01 -2.567685581743717194e-02 -7.029537558555603027e-01 -2.185891866683959961e-01 -2.244259044528007507e-02
5.850000000000000000e+02 7.944105625152587891e+00 3.189646339416503906e+01 1.850748620927333832e-02 -8.086418509483337402e-01 -2.370402961969375610e-01 -3.607078269124031067e-02
5.860000000000000000e+02 7.835971832275390625e+00 2.352518653869628906e+01 1.207371950149536133e-01 -8.914340138435363770e-01 -2.312090545892715454e-01 8.659081906080245972e-02
5.870000000000000000e+02 7.409457206726074219e+00 1.503690910339355469e+01 1.698647290468215942e-01 -8.660262227058410645e-01 -2.088484466075897217e-01 3.802886903285980225e-01
5.880000000000000000e+02 8.455638885498046875e+00 7.966075897216796875e+00 -8.864640258252620697e-04 -7.046374678611755371e-01 -2.116571813821792603e-01 6.493340730667114258e-01
5.890000000000000000e+02 6.218871593475341797e+00 1.860899686813354492e+00 -3.507153689861297607e-01 -7.807192951440811157e-02 -1.286361962556838989e-01 2.490456402301788330e-01
5.900000000000000000e+02 1.165638160705566406e+01 1.412575840950012207e+00 -1.077784657478332520e+00 -7.098484039306640625e-01 -5.362899303436279297e-01 8.395244479179382324e-01
5.910000000000000000e+02 1.998233199119567871e+00 4.163890457153320312e+01 -4.564229398965835571e-02 -1.434230804443359375e+00 -4.439619481563568115e-01 -1.293279137462377548e-02
5.920000000000000000e+02 4.324725627899169922e+00 3.773748779296875000e+01 1.155876740813255310e-02 -1.240280389785766602e+00 -3.686164915561676025e-01 1.977093331515789032e-02
5.930000000000000000e+02 2.101125240325927734e+00 3.586138153076171875e+01 1.539429742842912674e-02 -1.438508749008178711e+00 -4.269343316555023193e-01 -3.915458917617797852e-02
5.940000000000000000e+02 2.115162372589111328e+00 2.875929832458496094e+01 5.360138136893510818e-03 -1.455267667770385742e+00 -4.349722564220428467e-01 -4.205107688903808594e-04
5.950000000000000000e+02 1.922030568122863770e+00 2.307806396484375000e+01 1.294094696640968323e-02 -1.418792009353637695e+00 -4.217553138732910156e-01 4.204681515693664551e-02
5.960000000000000000e+02 1.793798446655273438e+00 1.751054000854492188e+01 1.579076610505580902e-02 -1.226552724838256836e+00 -3.632285594940185547e-01 1.073117777705192566e-01
5.970000000000000000e+02 5.249567627906799316e-01 6.450901985168457031e+00 -3.090625163167715073e-03 -2.355574369430541992e-01 -7.159441709518432617e-02 5.227231606841087341e-02
5.980000000000000000e+02 1.630559921264648438e+00 9.206730842590332031e+00 1.420425018295645714e-03 -5.668282508850097656e-01 -1.696223467588424683e-01 1.799219548702239990e-01
5.990000000000000000e+02 4.736295700073242188e+00 2.576008319854736328e+00 -2.150553464889526367e-01 -1.046150252223014832e-01 -9.590110927820205688e-02 2.118903994560241699e-01
6.000000000000000000e+02 4.043598175048828125e+01 -2.036388397216796875e+01 -1.328957557678222656e+00 -7.738526463508605957e-01 -6.308430433273315430e-01 1.056226730346679688e+00
6.010000000000000000e+02 4.112105178833007812e+01 -2.019219779968261719e+01 -1.774217724800109863e+00 3.679739683866500854e-02 -5.212261080741882324e-01 8.459144234657287598e-01
6.020000000000000000e+02 5.101854324340820312e+01 -1.329782962799072266e+01 9.779401421546936035e-01 6.857556343078613281e+00 2.350648880004882812e+00 -2.533101558685302734e+00
6.030000000000000000e+02 5.299778366088867188e+01 -1.779976654052734375e+01 -7.975813746452331543e-01 1.193798351287841797e+01 3.342120647430419922e+00 -1.928724288940429688e+00
6.040000000000000000e+02 5.281753921508789062e+01 -1.407266044616699219e+01 1.134464144706726074e+00 6.285373687744140625e+00 2.225951194763183594e+00 -3.081521272659301758e+00
6.050000000000000000e+02 5.403448104858398438e+01 -1.947246932983398438e+01 6.790970802307128906e+00 6.686327457427978516e+00 4.043189525604248047e+00 -2.051403760910034180e+00
6.060000000000000000e+02 5.431433486938476562e+01 -2.104456520080566406e+01 2.707147598266601562e+00 7.382053852081298828e+00 3.026760339736938477e+00 -2.663231611251831055e+00
6.070000000000000000e+02 6.401331329345703125e+01 -2.136996650695800781e+01 -4.549184143543243408e-01 3.793393969535827637e-01 -2.267370559275150299e-02 5.310848355293273926e-01
6.080000000000000000e+02 5.941719818115234375e+01 -1.580317687988281250e+01 3.565884009003639221e-02 4.884651899337768555e-01 1.572372168302536011e-01 9.595289230346679688e-01
6.090000000000000000e+02 5.432328414916992188e+01 -2.007732009887695312e+01 5.727872371673583984e+00 6.617242813110351562e+00 3.703534603118896484e+00 -2.783548355102539062e+00
6.100000000000000000e+02 5.828350830078125000e+01 -1.982299423217773438e+01 1.961474061012268066e+00 2.883204817771911621e-01 6.749383807182312012e-01 1.506406903266906738e+00
6.110000000000000000e+02 5.369503402709960938e+01 -2.054229164123535156e+01 4.096999645233154297e+00 9.952236175537109375e+00 4.214770793914794922e+00 -3.671661376953125000e+00
6.120000000000000000e+02 5.284153366088867188e+01 -2.106564712524414062e+01 1.626044660806655884e-01 1.311085987091064453e+01 3.982039213180541992e+00 -1.294116735458374023e+00
6.130000000000000000e+02 5.195088958740234375e+01 -2.126676177978515625e+01 -5.712490677833557129e-01 1.036599540710449219e+01 2.938423871994018555e+00 2.795214414596557617e+00
6.140000000000000000e+02 4.797779464721679688e+01 -2.271673965454101562e+01 5.689076706767082214e-02 5.826227664947509766e-01 1.918540745973587036e-01 1.108070164918899536e-01
6.150000000000000000e+02 5.263073348999023438e+01 -3.215370559692382812e+01 1.110743999481201172e+00 5.129674911499023438e+00 1.872125625610351562e+00 7.355889678001403809e-01
6.160000000000000000e+02 5.238674926757812500e+01 -3.132649040222167969e+01 1.354472875595092773e+00 5.148472785949707031e+00 1.950883746147155762e+00 5.826811194419860840e-01
6.170000000000000000e+02 5.272719573974609375e+01 -4.132273101806640625e+01 -1.077951788902282715e+00 3.822982072830200195e+00 8.235090970993041992e-01 4.588364437222480774e-02
6.180000000000000000e+02 6.559133911132812500e+01 -2.202969360351562500e+01 -1.291639566421508789e+00 2.592658251523971558e-02 -3.797138929367065430e-01 -2.609685659408569336e-01
6.190000000000000000e+02 6.187432479858398438e+01 -2.330054664611816406e+01 7.656109333038330078e-02 6.746711581945419312e-02 4.320846125483512878e-02 1.879376173019409180e-01
6.200000000000000000e+02 5.391599273681640625e+01 -1.873263168334960938e+01 5.017771244049072266e+00 7.800301551818847656e+00 3.845422029495239258e+00 8.964446187019348145e-02
6.210000000000000000e+02 5.366868972778320312e+01 -1.670435714721679688e+01 -4.135333061218261719e+00 6.287404537200927734e+00 6.456213593482971191e-01 -1.872054815292358398e+00
6.220000000000000000e+02 5.318082046508789062e+01 -1.568642330169677734e+01 -3.904475688934326172e+00 6.776350975036621094e+00 8.615626096725463867e-01 -1.792556166648864746e+00
6.230000000000000000e+02 4.706574630737304688e+01 -2.398979663848876953e+00 7.549945116043090820e-01 4.785331726074218750e+00 1.662097930908203125e+00 -2.223768472671508789e+00
6.240000000000000000e+02 4.126357269287109375e+01 1.023170948028564453e+01 1.382743954658508301e+00 7.006203174591064453e+00 2.516684055328369141e+00 -1.285868048667907715e+00
6.250000000000000000e+02 4.243323135375976562e+01 1.626444244384765625e+01 3.761777281761169434e-01 6.433878421783447266e+00 2.043016910552978516e+00 7.230393886566162109e-01
6.260000000000000000e+02 4.228787612915039062e+01 2.098928260803222656e+01 4.118668735027313232e-01 4.264317512512207031e+00 1.402855277061462402e+00 8.093578815460205078e-01
6.270000000000000000e+02 4.455685424804687500e+01 2.309696960449218750e+01 6.202488541603088379e-01 3.642130136489868164e+00 1.278713703155517578e+00 1.373133659362792969e+00
6.280000000000000000e+02 3.996388626098632812e+01 2.857536506652832031e+01 -2.127272039651870728e-01 2.681814908981323242e+00 7.407262921333312988e-01 -2.637267485260963440e-02
6.290000000000000000e+02 6.826557922363281250e+01 -2.135121154785156250e+01 -1.994632840156555176e+00 2.445159405469894409e-01 -5.250350832939147949e-01 -5.483314990997314453e-01
6.300000000000000000e+02 2.335397338867187500e+01 -3.739197921752929688e+01 4.595569334924221039e-03 -1.730429567396640778e-02 -3.812617855146527290e-03 -1.746343076229095459e-02
6.310000000000000000e+02 2.659109497070312500e+01 -3.173109436035156250e+01 -2.104840613901615143e-02 2.567760413512587547e-03 -5.544194020330905914e-03 -5.122277885675430298e-03
6.320000000000000000e+02 3.173801040649414062e+01 -3.830972671508789062e+01 5.029408633708953857e-02 -1.093536540865898132e-01 -1.771787181496620178e-02 -1.216442659497261047e-01
6.330000000000000000e+02 3.169968414306640625e+01 -3.415390014648437500e+01 -1.521093398332595825e-01 -3.447125665843486786e-03 -4.666693881154060364e-02 -8.249367773532867432e-02
6.340000000000000000e+02 4.299716949462890625e+01 -3.767845153808593750e+01 2.384377866983413696e-01 6.089222431182861328e-01 2.542079985141754150e-01 3.575997352600097656e-01
6.350000000000000000e+02 3.835111999511718750e+01 -3.785299682617187500e+01 2.541713714599609375e-01 -6.635952740907669067e-02 5.634355172514915466e-02 -6.121794879436492920e-02
6.360000000000000000e+02 5.743777847290039062e+01 -3.923297500610351562e+01 -6.822875738143920898e-01 2.974454641342163086e+00 6.876500844955444336e-01 -8.003652095794677734e-01
6.370000000000000000e+02 6.990193176269531250e+01 -3.458100509643554688e+01 -7.827919125556945801e-01 3.684836626052856445e+00 8.706134557723999023e-01 8.052945733070373535e-01
6.380000000000000000e+02 6.983716583251953125e+01 -3.274427413940429688e+01 -6.957901716232299805e-01 3.483147621154785156e+00 8.362072110176086426e-01 8.740503787994384766e-01
6.390000000000000000e+02 7.097281646728515625e+01 -3.514447402954101562e+01 -8.539930582046508789e-01 4.536802768707275391e+00 1.104842901229858398e+00 6.694658398628234863e-01
6.400000000000000000e+02 1.203137111663818359e+01 -1.385420989990234375e+01 -1.597452210262417793e-04 -3.157946630381047726e-04 -1.426619564881548285e-04 1.953132741618901491e-04
6.410000000000000000e+02 1.213331317901611328e+01 -1.222743320465087891e+01 -3.109005047008395195e-04 -4.763389297295361757e-04 -2.361718361498787999e-04 -7.042467768769711256e-05
6.420000000000000000e+02 4.623384475708007812e+01 -8.656913757324218750e+00 9.992281794548034668e-01 3.758182048797607422e+00 1.427223086357116699e+00 -2.009544610977172852e+00
6.430000000000000000e+02 3.572145080566406250e+01 -1.346882057189941406e+01 -1.182562470436096191e+00 -1.094993129372596741e-01 -3.876185417175292969e-01 8.916870355606079102e-01
6.440000000000000000e+02 3.719034194946289062e+01 3.016970634460449219e+01 -3.328909575939178467e-01 2.420503854751586914e+00 6.262838840484619141e-01 -2.367305010557174683e-01
6.450000000000000000e+02 3.350109863281250000e+01 3.267740249633789062e+01 -3.939272463321685791e-01 2.064082145690917969e+00 5.010464787483215332e-01 -3.049173355102539062e-01
6.460000000000000000e+02 2.149492073059082031e+01 2.887225532531738281e+01 1.158657670021057129e-01 6.128885746002197266e-01 2.186263054609298706e-01 -3.124938905239105225e-01
6.470000000000000000e+02 1.346693038940429688e+01 2.748935127258300781e+01 1.551833301782608032e-01 -3.353720605373382568e-01 -5.405662581324577332e-02 -6.513070315122604370e-02
6.480000000000000000e+02 7.404423236846923828e+00 2.501558494567871094e+01 9.826371073722839355e-02 -9.125077724456787109e-01 -2.442732155323028564e-01 5.757981538772583008e-02
6.490000000000000000e+02 1.590984344482421875e+01 2.384286117553710938e+01 3.143354356288909912e-01 -1.926747411489486694e-01 3.649820387363433838e-02 -8.191350102424621582e-02
6.500000000000000000e+02 3.159656715393066406e+01 2.157256698608398438e+01 5.205312967300415039e-01 1.981752753257751465e+00 7.506852149963378906e-01 -6.260545849800109863e-01
6.510000000000000000e+02 2.204398870468139648e+00 3.163412475585937500e+01 3.127439413219690323e-03 -1.436033844947814941e+00 -4.298719167709350586e-01 -5.115591920912265778e-03
6.520000000000000000e+02 7.065117645263671875e+01 3.098312759399414062e+01 -7.109540104866027832e-01 5.269802093505859375e+00 1.367654442787170410e+00 1.880467087030410767e-01
6.530000000000000000e+02 6.020384311676025391e+00 1.974016761779785156e+01 1.070340797305107117e-01 -1.002634644508361816e+00 -2.686801552772521973e-01 1.930556297302246094e-01
6.540000000000000000e+02 1.234185218811035156e+01 1.742570495605468750e+01 3.774715363979339600e-01 -6.743516921997070312e-01 -8.906405419111251831e-02 2.427476197481155396e-01
6.550000000000000000e+02 1.794513893127441406e+01 1.890966987609863281e+01 5.599519610404968262e-01 -1.987742483615875244e-01 1.083533167839050293e-01 -4.634737595915794373e-02
6.560000000000000000e+02 2.964049339294433594e+01 1.997711753845214844e+01 7.040147781372070312e-01 1.566379308700561523e+00 6.811182498931884766e-01 -6.291781067848205566e-01
6.570000000000000000e+02 4.313811111450195312e+01 1.906769371032714844e+01 3.870486617088317871e-01 5.019001960754394531e+00 1.621815204620361328e+00 1.171963810920715332e+00
6.580000000000000000e+02 3.752344894409179688e+01 1.645723152160644531e+01 8.048953413963317871e-01 3.884170293807983398e+00 1.406719684600830078e+00 -5.572438836097717285e-01
6.590000000000000000e+02 6.124817371368408203e+00 1.054176235198974609e+01 6.465780735015869141e-02 -7.376952171325683594e-01 -2.019112259149551392e-01 4.908062517642974854e-01
6.600000000000000000e+02 1.497013568878173828e+01 8.247825622558593750e+00 2.935204505920410156e-01 -9.423438906669616699e-01 -1.946470439434051514e-01 6.035476326942443848e-01
6.610000000000000000e+02 2.104252815246582031e+01 8.505791664123535156e+00 6.423132419586181641e-01 -5.583276152610778809e-01 2.519568987190723419e-02 2.133109420537948608e-01
6.620000000000000000e+02 1.777398943901062012e+00 1.612956428527832031e+01 1.262025721371173859e-02 -1.146793961524963379e+00 -3.402521312236785889e-01 1.261427104473114014e-01
6.630000000000000000e+02 2.086040496826171875e+01 4.995715245604515076e-02 -6.114636063575744629e-01 -1.224993467330932617e+00 -5.509371161460876465e-01 7.955677509307861328e-01
6.640000000000000000e+02 2.827402687072753906e+01 -2.232597768306732178e-01 -1.733672805130481720e-02 2.188187092542648315e-01 6.044459342956542969e-02 2.876329720020294189e-01
6.650000000000000000e+02 4.051010131835937500e+01 2.446739912033081055e+00 7.859583497047424316e-01 4.167665481567382812e+00 1.486087083816528320e+00 -1.333913922309875488e+00
6.660000000000000000e+02 2.676451492309570312e+01 -5.320932388305664062e+00 -9.298762679100036621e-01 -4.504135251045227051e-01 -4.140869379043579102e-01 8.838124275207519531e-01
6.670000000000000000e+02 3.987802124023437500e+01 -5.148589134216308594e+00 4.618314504623413086e-01 2.281435251235961914e+00 8.229799866676330566e-01 -8.811789751052856445e-01
6.680000000000000000e+02 4.586331939697265625e+01 -2.691159725189208984e+00 7.662422060966491699e-01 4.505185604095458984e+00 1.581428289413452148e+00 -2.162898302078247070e+00
6.690000000000000000e+02 4.531293487548828125e+01 -1.509076952934265137e+00 7.632254362106323242e-01 4.456771850585937500e+00 1.565999269485473633e+00 -2.117278337478637695e+00
6.700000000000000000e+02 2.741305541992187500e+01 -1.206199836730957031e+01 -1.093258380889892578e+00 -5.676948428153991699e-01 -4.982859790325164795e-01 1.285640597343444824e+00
6.710000000000000000e+02 4.618048477172851562e+01 -7.571231365203857422e+00 9.521998763084411621e-01 3.966339349746704102e+00 1.475561738014221191e+00 -2.066666364669799805e+00
6.720000000000000000e+02 6.687976837158203125e+01 -2.154354667663574219e+01 -2.388767004013061523e+00 -1.734146773815155029e-01 -7.686545252799987793e-01 -3.393624126911163330e-01
6.730000000000000000e+02 4.513220977783203125e+01 -2.448668098449707031e+01 1.582426279783248901e-01 -3.586831688880920410e-02 3.671229258179664612e-02 -4.590921700000762939e-01
6.740000000000000000e+02 3.833148956298828125e+01 -3.240942001342773438e+01 -7.979769110679626465e-01 -1.675115376710891724e-01 -2.896465361118316650e-01 -4.200403392314910889e-01
6.750000000000000000e+02 3.309489059448242188e+01 -3.294188690185546875e+01 -2.056926637887954712e-01 -3.273770958185195923e-02 -7.152911275625228882e-02 -3.633769601583480835e-02
6.760000000000000000e+02 2.592083358764648438e+01 -3.480360031127929688e+01 -9.174016304314136505e-03 -8.238105103373527527e-03 -5.223636515438556671e-03 -2.086960151791572571e-02
6.770000000000000000e+02 2.397094726562500000e+01 -3.127261352539062500e+01 -3.947112709283828735e-03 6.222410593181848526e-03 6.825893069617450237e-04 -1.088791759684681892e-03
6.780000000000000000e+02 2.290003204345703125e+01 -3.290457153320312500e+01 -7.933798246085643768e-03 9.610270353732630610e-05 -2.351308707147836685e-03 -4.736395087093114853e-03
6.790000000000000000e+02 2.121554374694824219e+01 -3.147838973999023438e+01 2.003036439418792725e-03 1.461546751670539379e-03 1.039374968968331814e-03 -6.860329303890466690e-04
6.800000000000000000e+02 2.263888931274414062e+01 -3.139474105834960938e+01 -3.707834184751845896e-05 -3.829489694908261299e-03 -1.159970415756106377e-03 -2.175526460632681847e-03
6.810000000000000000e+02 1.831886100769042969e+01 -3.143684577941894531e+01 5.060829687863588333e-03 1.415478880517184734e-03 1.942892558872699738e-03 -9.674592874944210052e-04
6.820000000000000000e+02 1.397843456268310547e+01 -3.069475555419921875e+01 2.565017435699701309e-03 -1.532594789750874043e-03 3.097267763223499060e-04 -1.792341703549027443e-03
6.830000000000000000e+02 1.267880821228027344e+01 -3.000787353515625000e+01 2.655821386724710464e-03 1.464745495468378067e-03 1.236170064657926559e-03 2.529339690227061510e-04
6.840000000000000000e+02 8.510481834411621094e+00 -2.406173896789550781e+01 -1.095716608688235283e-03 9.133914863923564553e-05 -3.013132081832736731e-04 -3.665107069537043571e-04
6.850000000000000000e+02 9.771055221557617188e+00 -1.856745529174804688e+01 -1.917297719046473503e-03 1.383877133775968105e-05 -5.710377008654177189e-04 3.481560270301997662e-04
6.860000000000000000e+02 1.026890754699707031e+01 -1.607378196716308594e+01 -1.671192003414034843e-03 -7.212768832687288523e-05 -5.229958915151655674e-04 -2.556547115091234446e-04
6.870000000000000000e+02 1.274728965759277344e+01 -1.497479820251464844e+01 9.143332135863602161e-05 6.530613172799348831e-04 2.233483974123373628e-04 -1.976835774257779121e-04
6.880000000000000000e+02 1.528826427459716797e+01 -1.364671325683593750e+01 -4.102810999029316008e-05 2.873669727705419064e-04 7.390166138065978885e-05 -1.103959293686784804e-04
6.890000000000000000e+02 1.810918617248535156e+01 -8.441168785095214844e+00 -2.002328983508050442e-04 -1.898703885672148317e-05 -6.576597661478444934e-05 -6.795790977776050568e-05
6.900000000000000000e+02 2.145391845703125000e+01 -1.207685184478759766e+01 -2.652422699611634016e-04 1.397790697410528082e-06 -7.915333844721317291e-05 -4.442270801519043744e-05
6.910000000000000000e+02 2.250998306274414062e+01 -1.428998184204101562e+01 -2.623675209179054946e-05 -1.015784946503117681e-04 -3.834457311313599348e-05 1.620928560441825539e-05
6.920000000000000000e+02 2.236199951171875000e+01 -1.373508358001708984e+01 3.171147909597493708e-05 1.697345578577369452e-05 1.460548082832247019e-05 7.266290594998281449e-06
6.930000000000000000e+02 2.161254310607910156e+01 -1.301187324523925781e+01 6.199834751896560192e-05 -4.755062036565504968e-05 4.334317509346874431e-06 7.358044240390881896e-05
6.940000000000000000e+02 2.037416267395019531e+01 -1.032951354980468750e+01 1.511820009909570217e-04 9.553615382174029946e-05 7.401545008178800344e-05 -3.031020060006994754e-05
6.950000000000000000e+02 2.109421730041503906e+01 -1.145356369018554688e+01 1.938612549565732479e-04 -3.120772089459933341e-05 4.879606058239005506e-05 -1.316024463449139148e-05
6.960000000000000000e+02 2.079426956176757812e+01 -1.087048053741455078e+01 -2.188137295888736844e-04 1.528332541056443006e-05 -6.105912325438112020e-05 1.052804145729169250e-05
6.970000000000000000e+02 1.995303726196289062e+01 -9.747381210327148438e+00 -9.340487304143607616e-05 -1.481485087424516678e-04 -7.246601307997480035e-05 -2.700018740142695606e-05
6.980000000000000000e+02 1.871002006530761719e+01 -8.029793739318847656e+00 1.760037121130153537e-04 5.022628829465247691e-05 6.786899757571518421e-05 8.529881597496569157e-05
6.990000000000000000e+02 1.682033729553222656e+01 -6.055924892425537109e+00 1.864350051619112492e-04 1.414088474120944738e-04 9.835315722739323974e-05 9.238690108759328723e-05
7.000000000000000000e+02 1.731067466735839844e+01 -6.534204483032226562e+00 -1.992580509977415204e-04 -1.215504307765513659e-04 -9.624254016671329737e-05 -7.102468953235074878e-05
7.010000000000000000e+02 1.424931049346923828e+01 -4.936400413513183594e+00 -3.018027637153863907e-04 -7.960529183037579060e-05 -1.144224152085371315e-04 -1.149997697211802006e-04
7.020000000000000000e+02 1.520298290252685547e+01 -4.773482322692871094e+00 -2.306007809238508344e-04 -1.139683445217087865e-04 -1.033707376336678863e-04 -1.274099922738969326e-04
7.030000000000000000e+02 1.464027404785156250e+01 -4.374404430389404297e+00 2.406126150162890553e-04 1.118598083849065006e-04 1.057417321135289967e-04 1.110897574108093977e-04
7.040000000000000000e+02 1.222798156738281250e+01 -2.989047288894653320e+00 1.692885853117331862e-04 1.924735115608200431e-04 1.085286276065744460e-04 9.336758375866338611e-05
7.050000000000000000e+02 1.284496498107910156e+01 -3.324714183807373047e+00 -1.864628720795735717e-04 -1.637867972021922469e-04 -1.050748978741466999e-04 -8.569062629248946905e-05
7.060000000000000000e+02 1.388932418823242188e+01 -5.502941608428955078e+00 3.689280129037797451e-04 4.397697557578794658e-05 1.238715049112215638e-04 1.360731839668005705e-04
7.070000000000000000e+02 8.290724754333496094e+00 -2.711358547210693359e+00 1.505406980868428946e-04 1.922563678817823529e-04 1.028391197905875742e-04 1.072213271982036531e-04
7.080000000000000000e+02 9.045476913452148438e+00 -2.757086753845214844e+00 -1.405915536452084780e-04 -2.225811767857521772e-04 -1.089518191292881966e-04 -1.044019008986651897e-04
7.090000000000000000e+02 8.421937942504882812e+00 -1.908209800720214844e+00 -1.263060257770121098e-04 -2.051041374215856194e-04 -9.942305041477084160e-05 -7.910477870609611273e-05
7.100000000000000000e+02 6.816792488098144531e+00 -1.902189612388610840e+00 -1.957823842531070113e-04 -9.567513916408643126e-05 -8.743725629756227136e-05 -1.237420656252652407e-04
7.110000000000000000e+02 7.621163845062255859e+00 -1.901391506195068359e+00 1.736760023050010204e-04 1.908599515445530415e-04 1.093607861548662186e-04 1.034693559631705284e-04
7.120000000000000000e+02 5.211600303649902344e+00 -1.904316186904907227e+00 -2.424128761049360037e-04 4.730160435428842902e-05 -5.853338007000274956e-05 -1.488953712396323681e-04
7.130000000000000000e+02 2.792151212692260742e+00 -2.056846618652343750e+00 1.567941071698442101e-04 -3.178744373144581914e-05 3.750199903151951730e-05 2.732934080995619297e-05
7.140000000000000000e+02 3.629328250885009766e+00 -2.702597379684448242e+00 4.535168409347534180e-04 -2.246828225906938314e-04 6.865020259283483028e-05 6.817044777562841773e-05
7.150000000000000000e+02 4.417150020599365234e+00 -1.904591798782348633e+00 2.774901222437620163e-04 -1.084924078895710409e-04 5.069931648904457688e-05 9.215960017172619700e-05
7.160000000000000000e+02 1.226781606674194336e+00 -2.040110826492309570e+00 -8.191861707018688321e-05 1.783135958248749375e-04 2.891849544539581984e-05 4.307723065721802413e-05
7.170000000000000000e+02 4.221824407577514648e-01 -2.166203975677490234e+00 -3.134731086902320385e-04 -8.219755545724183321e-05 -1.187011948786675930e-04 -1.246453757630661130e-04
7.180000000000000000e+02 2.052048206329345703e+00 -4.163228607177734375e+01 -1.611200277693569660e-03 1.865873928181827068e-03 7.640209514647722244e-05 5.020618555136024952e-04
7.190000000000000000e+02 5.235744953155517578e+00 -3.728349685668945312e+01 1.553729525767266750e-03 -7.220784900709986687e-04 2.494952932465821505e-04 1.628131372854113579e-03
7.200000000000000000e+02 1.024523019790649414e+00 -3.869013977050781250e+01 -3.944749943912029266e-03 1.234338851645588875e-03 -8.131233043968677521e-04 -9.590269182808697224e-04
7.210000000000000000e+02 7.237855195999145508e-01 -3.459533309936523438e+01 2.633826807141304016e-03 9.591412381269037724e-04 1.077890396118164062e-03 4.227650642860680819e-04
7.220000000000000000e+02 6.865695714950561523e-01 -3.320269775390625000e+01 -2.793775871396064758e-03 6.347888847813010216e-04 -6.476961425505578518e-04 -1.717853738227859139e-04
7.230000000000000000e+02 6.560514569282531738e-01 -2.898661994934082031e+01 2.322814892977476120e-03 1.177701342385262251e-04 7.321755401790142059e-04 4.287276242394000292e-04
7.240000000000000000e+02 6.591690778732299805e-01 -2.757401466369628906e+01 -2.017337828874588013e-03 -6.683100946247577667e-05 -6.252506864257156849e-04 -3.307325241621583700e-04
7.250000000000000000e+02 6.561218500137329102e-01 -2.474415206909179688e+01 -1.621090574190020561e-03 -6.102914630901068449e-05 -5.046359146945178509e-04 -2.384586405241861939e-04
7.260000000000000000e+02 6.613071560859680176e-01 -2.615895271301269531e+01 1.791498856619000435e-03 4.811683902516961098e-05 5.518847028724849224e-04 2.848090080078691244e-04
7.270000000000000000e+02 6.177602410316467285e-01 -2.192151069641113281e+01 -1.468963571824133396e-03 -2.438496267131995410e-05 -4.480045463424175978e-04 -1.726519985822960734e-04
7.280000000000000000e+02 5.982673764228820801e-01 -2.051685142517089844e+01 1.407692092470824718e-03 1.843330755946226418e-05 4.278376000002026558e-04 1.726220798445865512e-04
7.290000000000000000e+02 1.802347183227539062e+00 -2.037655258178710938e+01 -1.481472747400403023e-03 7.326716968236723915e-06 -4.422437923494726419e-04 -2.241233305539935827e-04
7.300000000000000000e+02 5.955582261085510254e-01 -1.630697822570800781e+01 -1.001012744382023811e-03 -1.627740130061283708e-05 -3.051870444323867559e-04 -1.137839499278925359e-04
7.310000000000000000e+02 5.996466875076293945e-01 -1.489553642272949219e+01 8.834565524011850357e-04 4.514900138019584119e-05 2.785816614050418139e-04 7.520423969253897667e-05
7.320000000000000000e+02 5.985783338546752930e-01 -1.348361110687255859e+01 -8.135888492688536644e-04 -3.542314516380429268e-06 -2.451393520459532738e-04 -4.327428177930414677e-05
7.330000000000000000e+02 1.801691055297851562e+00 -1.341069698333740234e+01 8.866388816386461258e-04 7.020853081485256553e-05 2.870542230084538460e-04 6.445289909606799483e-05
7.340000000000000000e+02 5.628391504287719727e-01 -9.249451637268066406e+00 7.322669844143092632e-04 5.758052338933339342e-06 2.214075066149234772e-04 2.683672937564551830e-05
7.350000000000000000e+02 5.549338459968566895e-01 -7.843862056732177734e+00 -6.878781714476644993e-04 8.876541869540233165e-06 -2.037004887824878097e-04 -3.162648499710485339e-05
7.360000000000000000e+02 4.222791194915771484e+00 -3.523117303848266602e+00 5.413842736743390560e-04 -6.613713776459917426e-05 1.425741356797516346e-04 2.421475946903228760e-04
7.370000000000000000e+02 7.097766113281250000e+01 -3.868832397460937500e+01 -1.096271872520446777e-01 4.153018474578857422e+00 1.213017344474792480e+00 4.222871661186218262e-01
7.380000000000000000e+02 5.275214767456054688e+01 -3.894913864135742188e+01 -9.794663786888122559e-01 4.010688304901123047e+00 9.093666076660156250e-01 2.372458577156066895e-01
7.390000000000000000e+02 3.578648376464843750e+01 -3.989830398559570312e+01 2.394427657127380371e-01 -1.483450829982757568e-01 2.732930518686771393e-02 -6.207120046019554138e-02
7.400000000000000000e+02 1.425372600555419922e+01 -3.785266876220703125e+01 -5.830823909491300583e-03 -7.359582232311367989e-04 -1.970034791156649590e-03 -1.276324852369725704e-03
7.410000000000000000e+02 7.848268127441406250e+01 4.018714904785156250e+01 -1.786528080701828003e-01 1.061835002899169922e+01 3.131909132003784180e+00 -3.174058794975280762e-01
7.420000000000000000e+02 7.802009582519531250e+01 4.172585678100585938e+01 4.439141154289245605e-01 1.041224956512451172e+01 3.256849050521850586e+00 -1.247829273343086243e-01
7.430000000000000000e+02 7.870977020263671875e+01 3.871584320068359375e+01 -5.622443184256553650e-02 1.087439250946044922e+01 3.245450496673583984e+00 -1.903852820396423340e-01
7.440000000000000000e+02 7.689623260498046875e+01 3.774813461303710938e+01 -2.459239959716796875e-01 9.639729499816894531e+00 2.818141698837280273e+00 1.264446079730987549e-01
7.450000000000000000e+02 7.949876403808593750e+01 3.467684936523437500e+01 -2.416563220322132111e-02 1.141206836700439453e+01 3.416370868682861328e+00 3.051911853253841400e-02
7.460000000000000000e+02 7.805188751220703125e+01 3.262744140625000000e+01 -7.685202360153198242e-02 1.008405494689941406e+01 3.002160787582397461e+00 3.257659673690795898e-01
7.470000000000000000e+02 7.951230621337890625e+01 3.350814819335937500e+01 -2.005857042968273163e-02 1.124990653991699219e+01 3.368954181671142578e+00 1.111469343304634094e-01
7.480000000000000000e+02 7.932676696777343750e+01 3.078087234497070312e+01 -2.127894386649131775e-02 1.069338035583496094e+01 3.201630353927612305e+00 1.910276561975479126e-01
7.490000000000000000e+02 7.813115692138671875e+01 2.811463165283203125e+01 -1.316578220576047897e-02 9.425750732421875000e+00 2.823775529861450195e+00 5.173204541206359863e-01
7.500000000000000000e+02 7.938240814208984375e+01 2.655838012695312500e+01 -3.135787119390442967e-05 9.530354499816894531e+00 2.859097003936767578e+00 2.166115045547485352e-01
7.510000000000000000e+02 7.698622894287109375e+01 2.546755027770996094e+01 7.523250579833984375e-02 8.632656097412109375e+00 2.612366676330566406e+00 6.471956968307495117e-01
7.520000000000000000e+02 7.938069152832031250e+01 2.515482521057128906e+01 1.358955539762973785e-02 9.135354995727539062e+00 2.744683504104614258e+00 2.010558545589447021e-01
7.530000000000000000e+02 7.934895324707031250e+01 2.093396186828613281e+01 -9.001542814075946808e-03 8.146136283874511719e+00 2.441140413284301758e+00 1.633143275976181030e-01
7.540000000000000000e+02 7.935392761230468750e+01 1.952579879760742188e+01 2.164419740438461304e-02 7.875636577606201172e+00 2.369184255599975586e+00 1.497765034437179565e-01
7.550000000000000000e+02 7.805438995361328125e+01 1.954493904113769531e+01 1.008835993707180023e-02 7.990033626556396484e+00 2.400036573410034180e+00 3.552592396736145020e-01
7.560000000000000000e+02 7.936832427978515625e+01 1.811650657653808594e+01 -8.973104879260063171e-03 7.625651359558105469e+00 2.285003423690795898e+00 1.375369727611541748e-01
7.570000000000000000e+02 7.940319061279296875e+01 1.391850948333740234e+01 -6.188757251948118210e-04 6.894750118255615234e+00 2.068239450454711914e+00 1.378122270107269287e-01
7.580000000000000000e+02 7.940407562255859375e+01 1.252614879608154297e+01 -7.776340004056692123e-03 6.612897872924804688e+00 1.981536388397216797e+00 1.483520865440368652e-01
7.590000000000000000e+02 7.940149688720703125e+01 1.113558292388916016e+01 -6.629517767578363419e-03 6.293894290924072266e+00 1.886179447174072266e+00 1.667566597461700439e-01
7.600000000000000000e+02 7.939527893066406250e+01 6.972301483154296875e+00 1.135796774178743362e-02 5.206846714019775391e+00 1.565461397171020508e+00 1.649089902639389038e-01
7.610000000000000000e+02 7.940402221679687500e+01 5.584329128265380859e+00 1.208319328725337982e-02 4.882284641265869141e+00 1.468310356140136719e+00 1.387522369623184204e-01
7.620000000000000000e+02 7.941404724121093750e+01 4.196232795715332031e+00 1.912718266248703003e-02 4.620016098022460938e+00 1.391742944717407227e+00 1.019818633794784546e-01
7.630000000000000000e+02 7.939636993408203125e+01 1.957023143768310547e-02 3.509994223713874817e-02 4.530566692352294922e+00 1.369699954986572266e+00 -7.078739255666732788e-02
7.640000000000000000e+02 7.937604522705078125e+01 -1.382002353668212891e+00 5.130007863044738770e-03 4.747197151184082031e+00 1.425698161125183105e+00 -1.160816773772239685e-01
7.650000000000000000e+02 7.806068420410156250e+01 -4.243389606475830078e+00 3.158606961369514465e-02 5.971135139465332031e+00 1.800816416740417480e+00 -4.040011167526245117e-01
7.660000000000000000e+02 7.935628509521484375e+01 -4.194774150848388672e+00 -7.273616269230842590e-03 5.368783950805664062e+00 1.608453154563903809e+00 -1.639312654733657837e-01
7.670000000000000000e+02 7.937541198730468750e+01 -8.391254425048828125e+00 5.022600293159484863e-03 6.421560287475585938e+00 1.927974820137023926e+00 -1.536358743906021118e-01
7.680000000000000000e+02 7.814522552490234375e+01 -1.125110626220703125e+01 -4.655143991112709045e-02 6.911217689514160156e+00 2.059399843215942383e+00 -3.185997903347015381e-01
7.690000000000000000e+02 7.938056945800781250e+01 -1.117568778991699219e+01 8.837379864417016506e-04 7.028319358825683594e+00 2.108760833740234375e+00 -1.219604983925819397e-01
7.700000000000000000e+02 7.940089416503906250e+01 -1.532993888854980469e+01 -2.071774750947952271e-02 7.566884994506835938e+00 2.263850212097167969e+00 -3.470596671104431152e-02
7.710000000000000000e+02 7.828942871093750000e+01 -1.803227424621582031e+01 -1.112097054719924927e-01 7.335355758666992188e+00 2.167243719100952148e+00 1.617517024278640747e-01
7.720000000000000000e+02 7.943291473388671875e+01 -1.808148956298828125e+01 -2.524187602102756500e-02 7.478180408477783203e+00 2.235881567001342773e+00 6.857886910438537598e-02
7.730000000000000000e+02 7.941210174560546875e+01 -2.354969787597656250e+01 2.618419006466865540e-02 6.034532070159912109e+00 1.818214893341064453e+00 1.456976085901260376e-01
7.740000000000000000e+02 7.619457244873046875e+01 -2.777846336364746094e+01 5.946231484413146973e-01 7.587234020233154297e+00 2.454557180404663086e+00 -7.887172102928161621e-01
7.750000000000000000e+02 7.940982818603515625e+01 -2.492364692687988281e+01 1.991409249603748322e-02 5.762001037597656250e+00 1.734574556350708008e+00 9.442938119173049927e-02
7.760000000000000000e+02 7.932696533203125000e+01 -2.907335662841796875e+01 2.034726925194263458e-02 6.710733413696289062e+00 2.019324302673339844e+00 -2.827876508235931396e-01
7.770000000000000000e+02 7.817098999023437500e+01 -3.163253784179687500e+01 -4.287100955843925476e-02 7.856356143951416016e+00 2.344045400619506836e+00 -7.586976289749145508e-01
7.780000000000000000e+02 7.938176727294921875e+01 -3.189750862121582031e+01 -6.924609839916229248e-02 8.018816947937011719e+00 2.384871244430541992e+00 -2.815368473529815674e-01
7.790000000000000000e+02 7.933561706542968750e+01 -3.603253555297851562e+01 -1.412922795861959457e-02 9.241177558898925781e+00 2.768114566802978516e+00 -8.307358622550964355e-02
7.800000000000000000e+02 7.922817230224609375e+01 -3.739509201049804688e+01 -8.186279237270355225e-02 9.239123344421386719e+00 2.747178316116333008e+00 3.186895698308944702e-02
7.810000000000000000e+02 7.904507446289062500e+01 -3.874199295043945312e+01 4.407706111669540405e-02 9.174035072326660156e+00 2.765433788299560547e+00 2.591301128268241882e-02
7.820000000000000000e+02 4.868331432342529297e+00 4.035988616943359375e+01 -2.188148908317089081e-02 -1.165646433830261230e+00 -3.562583625316619873e-01 1.822063326835632324e-02
7.830000000000000000e+02 6.937889862060546875e+01 3.836225891113281250e+01 -1.012740284204483032e-01 3.437653541564941406e+00 1.000913858413696289e+00 -1.639425158500671387e-01
7.840000000000000000e+02 3.854653239250183105e-01 2.179016590118408203e+00 -1.998769585043191910e-03 1.701167784631252289e-02 4.503872711211442947e-03 1.977853971766307950e-04
7.850000000000000000e+02 2.737375974655151367e+00 2.692541122436523438e+00 -8.732064068317413330e-02 -7.625536620616912842e-02 -4.907280206680297852e-02 9.246011078357696533e-02
7.860000000000000000e+02 1.591646194458007812e+00 6.488995075225830078e+00 -1.477864757180213928e-02 -3.035095632076263428e-01 -9.548646211624145508e-02 1.516707986593246460e-01
7.870000000000000000e+02 5.398610234260559082e-01 9.248056411743164062e+00 -1.550675020553171635e-03 -5.482141375541687012e-01 -1.649294495582580566e-01 6.292323023080825806e-02
7.880000000000000000e+02 5.662546157836914062e-01 1.205226516723632812e+01 -6.975459109526127577e-05 -8.676784038543701172e-01 -2.603244483470916748e-01 5.991683527827262878e-02
7.890000000000000000e+02 1.700474619865417480e+00 1.196449184417724609e+01 1.089175511151552200e-02 -8.280794024467468262e-01 -2.451562881469726562e-01 1.721957921981811523e-01
7.900000000000000000e+02 5.976484417915344238e-01 1.626750946044921875e+01 4.664943553507328033e-03 -1.251010775566101074e+00 -3.739037513732910156e-01 4.288908839225769043e-02
7.910000000000000000e+02 6.031438112258911133e-01 1.767181968688964844e+01 1.077952096238732338e-03 -1.346577167510986328e+00 -4.036497771739959717e-01 3.668597340583801270e-02
7.920000000000000000e+02 6.302096247673034668e-01 2.189235305786132812e+01 4.282902926206588745e-03 -1.538786053657531738e+00 -4.603509306907653809e-01 1.778324320912361145e-02
7.930000000000000000e+02 6.474939584732055664e-01 2.330340576171875000e+01 4.281731671653687954e-04 -1.574797511100769043e+00 -4.723107814788818359e-01 1.319226901978254318e-02
7.940000000000000000e+02 6.667618751525878906e-01 2.471638107299804688e+01 4.067533183842897415e-03 -1.598534584045410156e+00 -4.783401191234588623e-01 7.813465781509876251e-03
7.950000000000000000e+02 7.064306139945983887e-01 2.896566390991210938e+01 -1.699200016446411610e-03 -1.619531035423278809e+00 -4.863690733909606934e-01 -9.188465774059295654e-04
7.960000000000000000e+02 7.175610661506652832e-01 3.038510894775390625e+01 1.617722446098923683e-03 -1.618604660034179688e+00 -4.850960671901702881e-01 -1.224255771376192570e-03
7.970000000000000000e+02 2.150515556335449219e+00 3.019083786010742188e+01 -2.465023135300725698e-04 -1.446640253067016602e+00 -4.340660274028778076e-01 -5.229942034929990768e-03
7.980000000000000000e+02 7.310376167297363281e-01 3.180685615539550781e+01 3.855777686112560332e-05 -1.615814924240112305e+00 -4.847328960895538330e-01 -2.730392152443528175e-03
7.990000000000000000e+02 7.018433213233947754e-01 3.602402496337890625e+01 -4.691827576607465744e-03 -1.574449777603149414e+00 -4.737424850463867188e-01 -8.651842363178730011e-03
8.000000000000000000e+02 2.332470655441284180e+00 3.815887069702148438e+01 1.827024109661579132e-02 -1.399551510810852051e+00 -4.143843948841094971e-01 -4.354356601834297180e-02
8.010000000000000000e+02 8.721088171005249023e-01 3.874127197265625000e+01 -9.771720506250858307e-03 -1.499511241912841797e+00 -4.527848660945892334e-01 -2.134240046143531799e-02
8.020000000000000000e+02 1.249959826469421387e+00 4.008828353881835938e+01 2.144799381494522095e-02 -1.453712940216064453e+00 -4.296794831752777100e-01 -3.808310627937316895e-02
8.030000000000000000e+02 9.985878944396972656e+00 2.016533613204956055e+00 -7.908585071563720703e-01 -5.137214064598083496e-01 -3.913739919662475586e-01 7.020041346549987793e-01
8.040000000000000000e+02 9.174240112304687500e+00 1.959187626838684082e+00 -7.145041227340698242e-01 -3.744303584098815918e-01 -3.266803622245788574e-01 6.266925930976867676e-01
8.050000000000000000e+02 8.418973922729492188e+00 1.917711257934570312e+00 -6.845450401306152344e-01 -2.286861538887023926e-01 -2.739693522453308105e-01 5.273354053497314453e-01
8.060000000000000000e+02 7.572280406951904297e+00 2.660772085189819336e+00 -4.956696629524230957e-01 -2.335236668586730957e-01 -2.187580019235610962e-01 4.963784217834472656e-01
8.070000000000000000e+02 6.948327064514160156e+00 1.871222376823425293e+00 -4.520628452301025391e-01 -1.126021817326545715e-01 -1.693994998931884766e-01 3.236147463321685791e-01
8.080000000000000000e+02 4.768539428710937500e+00 1.853363275527954102e+00 -1.994791030883789062e-01 -5.559245869517326355e-02 -7.652147114276885986e-02 1.518265008926391602e-01
8.090000000000000000e+02 4.051843166351318359e+00 1.855149030685424805e+00 -1.440814733505249023e-01 -5.323392897844314575e-02 -5.919461697340011597e-02 1.144533231854438782e-01
8.100000000000000000e+02 3.336016654968261719e+00 1.869083046913146973e+00 -1.007589921355247498e-01 -4.560315981507301331e-02 -4.390864446759223938e-02 8.019684255123138428e-02
8.110000000000000000e+02 1.885679006576538086e+00 1.989143133163452148e+00 -3.452864661812782288e-02 -3.992246836423873901e-02 -2.233533374965190887e-02 2.651347778737545013e-02
8.120000000000000000e+02 1.144265651702880859e+00 2.094389677047729492e+00 -1.264144014567136765e-02 -1.987460628151893616e-02 -9.754814207553863525e-03 5.341072101145982742e-03
8.130000000000000000e+02 1.321489810943603516e+01 6.894723176956176758e-01 -1.316027522087097168e+00 -8.802576065063476562e-01 -6.588855385780334473e-01 1.029261827468872070e+00
8.140000000000000000e+02 1.545412254333496094e+01 1.126050949096679688e+00 -9.477515220642089844e-01 -1.208239674568176270e+00 -6.467973589897155762e-01 1.052467346191406250e+00
8.150000000000000000e+02 1.605478477478027344e+01 -8.895968794822692871e-01 -1.619282126426696777e+00 -1.318064451217651367e+00 -8.812039494514465332e-01 1.330179095268249512e+00
8.160000000000000000e+02 1.801983070373535156e+01 -2.294545173645019531e+00 -1.742052793502807617e+00 -1.642774820327758789e+00 -1.015448331832885742e+00 1.506346702575683594e+00
8.170000000000000000e+02 2.099592590332031250e+01 -5.011372089385986328e+00 -1.690942525863647461e+00 -1.964210629463195801e+00 -1.096545934677124023e+00 1.619636654853820801e+00
8.180000000000000000e+02 2.153509521484375000e+01 -5.613139629364013672e+00 -1.656551480293273926e+00 -1.980256319046020508e+00 -1.091042280197143555e+00 1.611514687538146973e+00
8.190000000000000000e+02 2.253448295593261719e+01 -6.869137287139892578e+00 -1.549696087837219238e+00 -1.962888598442077637e+00 -1.053775429725646973e+00 1.587169170379638672e+00
8.200000000000000000e+02 2.302325820922851562e+01 -7.506134986877441406e+00 -1.476609826087951660e+00 -1.908825635910034180e+00 -1.015630602836608887e+00 1.551579952239990234e+00
8.210000000000000000e+02 2.348115921020507812e+01 -8.164484977722167969e+00 -1.417331099510192871e+00 -1.841177344322204590e+00 -9.775525331497192383e-01 1.509744882583618164e+00
8.220000000000000000e+02 2.432139205932617188e+01 -9.517462730407714844e+00 -1.268973708152770996e+00 -1.646096467971801758e+00 -8.745210170745849609e-01 1.429039120674133301e+00
8.230000000000000000e+02 2.577659606933593750e+01 -1.222462558746337891e+01 -9.713376760482788086e-01 -1.037158846855163574e+00 -6.025489568710327148e-01 1.243086457252502441e+00
8.240000000000000000e+02 2.641080093383789062e+01 -1.181635856628417969e+01 -1.065850377082824707e+00 -8.324106335639953613e-01 -5.694783329963684082e-01 1.277735829353332520e+00
8.250000000000000000e+02 2.643741607666015625e+01 -1.357705593109130859e+01 -8.202984929084777832e-01 -7.273153662681579590e-01 -4.642841517925262451e-01 1.072160124778747559e+00
8.260000000000000000e+02 2.676766395568847656e+01 -1.425841999053955078e+01 -7.824761867523193359e-01 -5.605962276458740234e-01 -4.029217362403869629e-01 1.008695244789123535e+00
8.270000000000000000e+02 2.737612915039062500e+01 -1.565458583831787109e+01 -8.530802130699157715e-01 -3.661744296550750732e-01 -3.657763898372650146e-01 7.712269425392150879e-01
8.280000000000000000e+02 3.033896064758300781e+01 -1.738035392761230469e+01 -1.558061957359313965e+00 -1.292106062173843384e-01 -5.061817765235900879e-01 5.745360255241394043e-01
8.290000000000000000e+02 4.018200302124023438e+01 -1.940538597106933594e+01 -2.368619441986083984e+00 -6.509321928024291992e-01 -9.058654904365539551e-01 1.242000460624694824e+00
8.300000000000000000e+02 4.057667160034179688e+01 -1.867218399047851562e+01 -3.058004379272460938e+00 -2.858581021428108215e-02 -9.259770512580871582e-01 1.093839168548583984e+00
8.310000000000000000e+02 4.180093383789062500e+01 -1.997190475463867188e+01 -2.044622898101806641e+00 3.011643588542938232e-01 -5.230375528335571289e-01 6.513043642044067383e-01
8.320000000000000000e+02 4.536191177368164062e+01 -1.843192100524902344e+01 -2.348525047302246094e+00 5.318107604980468750e-01 -5.450142621994018555e-01 1.633719950914382935e-01
8.330000000000000000e+02 4.545833587646484375e+01 -1.901037597656250000e+01 -2.781615972518920898e+00 3.541184961795806885e-01 -7.282491922378540039e-01 1.215180307626724243e-01
8.340000000000000000e+02 4.768439483642578125e+01 -1.855552673339843750e+01 -2.282419204711914062e+00 2.589504420757293701e-01 -6.070406436920166016e-01 -7.012726664543151855e-01
8.350000000000000000e+02 4.885688781738281250e+01 -1.835047149658203125e+01 -1.361193537712097168e+00 4.247135818004608154e-01 -2.809439599514007568e-01 -1.532515048980712891e+00
8.360000000000000000e+02 5.036857604980468750e+01 -1.817507934570312500e+01 7.456895709037780762e-01 2.337215662002563477e+00 9.248715639114379883e-01 -4.287374019622802734e+00
8.370000000000000000e+02 5.110154724121093750e+01 -1.799604606628417969e+01 9.341738224029541016e-01 5.698428153991699219e+00 1.989780545234680176e+00 -6.444453716278076172e+00
8.380000000000000000e+02 5.209754180908203125e+01 -1.783415031433105469e+01 -1.484886646270751953e+00 1.247598266601562500e+01 3.297328710556030273e+00 -5.447935581207275391e+00
8.390000000000000000e+02 5.242232131958007812e+01 -2.121467399597167969e+01 -1.010792970657348633e+00 1.285943889617919922e+01 3.554593801498413086e+00 1.296855807304382324e+00
8.400000000000000000e+02 5.074634933471679688e+01 -2.144295310974121094e+01 5.681073665618896484e-01 3.566077947616577148e+00 1.240255594253540039e+00 2.434290409088134766e+00
8.410000000000000000e+02 4.996331787109375000e+01 -2.157697486877441406e+01 3.767659366130828857e-01 1.639320611953735352e+00 6.048259735107421875e-01 1.387922763824462891e+00
8.420000000000000000e+02 5.016043472290039062e+01 -2.157125282287597656e+01 4.925552606582641602e-01 2.058499813079833984e+00 7.653164863586425781e-01 1.618799567222595215e+00
8.430000000000000000e+02 4.969958877563476562e+01 -2.208686637878417969e+01 2.829106748104095459e-01 1.743796229362487793e+00 6.080120801925659180e-01 1.218376994132995605e+00
8.440000000000000000e+02 4.637014770507812500e+01 -2.255503463745117188e+01 -2.862174212932586670e-01 -1.139230839908123016e-02 -8.928292244672775269e-02 -4.444717168807983398e-01
8.450000000000000000e+02 4.706357574462890625e+01 -2.234858512878417969e+01 -3.136409223079681396e-01 9.405073523521423340e-02 -6.587705761194229126e-02 -3.060121536254882812e-01
8.460000000000000000e+02 4.498797988891601562e+01 -2.298152732849121094e+01 -1.630168408155441284e-01 -1.796627789735794067e-01 -1.028038859367370605e-01 -5.558407902717590332e-01
8.470000000000000000e+02 4.267940139770507812e+01 -2.398251342773437500e+01 1.038999576121568680e-02 -6.246924996376037598e-01 -1.842907518148422241e-01 -2.991456091403961182e-01
8.480000000000000000e+02 7.078034210205078125e+01 -2.990222740173339844e+01 1.222625732421875000e+00 6.784235477447509766e+00 2.402058362960815430e+00 2.694494724273681641e+00
8.490000000000000000e+02 6.907876586914062500e+01 -3.202602386474609375e+01 -1.381577104330062866e-01 1.371320366859436035e+00 3.699488043785095215e-01 6.091335415840148926e-01
8.500000000000000000e+02 6.691607666015625000e+01 -3.472597885131835938e+01 -1.384174704551696777e+00 2.578312456607818604e-01 -3.379030525684356689e-01 -6.187475472688674927e-02
8.510000000000000000e+02 6.407142639160156250e+01 -3.499694824218750000e+01 -1.876153826713562012e+00 -8.111820369958877563e-02 -5.871816277503967285e-01 -4.850046634674072266e-01
8.520000000000000000e+02 5.740502929687500000e+01 -2.549840927124023438e+01 1.405710577964782715e-01 3.239020586013793945e+00 1.013877511024475098e+00 6.752783656120300293e-01
8.530000000000000000e+02 5.957598114013671875e+01 -2.460263633728027344e+01 1.993012428283691406e-01 1.698634028434753418e-01 1.107493937015533447e-01 1.337178200483322144e-01
8.540000000000000000e+02 6.391936111450195312e+01 3.670079803466796875e+01 -6.336202025413513184e-01 -3.214662969112396240e-01 -2.865259647369384766e-01 3.910051882266998291e-01
8.550000000000000000e+02 6.470429992675781250e+01 3.433093261718750000e+01 -1.761326789855957031e+00 -7.431402802467346191e-01 -7.513400912284851074e-01 1.035893559455871582e+00
8.560000000000000000e+02 6.853005218505859375e+01 2.980422210693359375e+01 6.746336817741394043e-02 2.977123498916625977e+00 9.133760929107666016e-01 -5.882592797279357910e-01
8.570000000000000000e+02 6.956306457519531250e+01 2.703620529174804688e+01 2.532556056976318359e-01 6.365123271942138672e+00 1.985513687133789062e+00 -7.981250882148742676e-01
8.580000000000000000e+02 6.991068267822265625e+01 2.275300598144531250e+01 7.042550295591354370e-02 8.453656196594238281e+00 2.557224512100219727e+00 1.057894248515367508e-02
8.590000000000000000e+02 6.991998291015625000e+01 1.860766792297363281e+01 5.077892448753118515e-03 8.924536705017089844e+00 2.678884506225585938e+00 1.404535323381423950e-01
8.600000000000000000e+02 6.990535736083984375e+01 1.442782974243164062e+01 2.255466580390930176e-01 1.006063556671142578e+01 3.085854768753051758e+00 4.824735224246978760e-01
8.610000000000000000e+02 6.981050109863281250e+01 1.304753208160400391e+01 5.483572557568550110e-02 9.018039703369140625e+00 2.721862554550170898e+00 6.504008173942565918e-01
8.620000000000000000e+02 7.136483764648437500e+01 4.832302093505859375e+00 2.309918105602264404e-01 1.184258365631103516e+01 3.622072458267211914e+00 2.973916232585906982e-01
8.630000000000000000e+02 7.002970123291015625e+01 4.434483647346496582e-01 7.739173173904418945e-01 1.338628005981445312e+01 4.248059272766113281e+00 2.076462507247924805e+00
8.640000000000000000e+02 6.879415893554687500e+01 -3.664366722106933594e+00 9.151223897933959961e-01 8.755988121032714844e+00 2.901333093643188477e+00 2.607409954071044922e+00
8.650000000000000000e+02 6.829048919677734375e+01 -4.987687587738037109e+00 9.825488328933715820e-01 7.515411853790283203e+00 2.549388170242309570e+00 2.514076232910156250e+00
8.660000000000000000e+02 6.993641662597656250e+01 -7.119954109191894531e+00 3.123072385787963867e-01 6.872732162475585938e+00 2.155511856079101562e+00 9.879533648490905762e-01
8.670000000000000000e+02 6.405355072021484375e+01 -1.241082286834716797e+01 1.620248675346374512e+00 2.280310153961181641e+00 1.170167684555053711e+00 1.792115449905395508e+00
8.680000000000000000e+02 6.188185882568359375e+01 -1.424981307983398438e+01 1.778545141220092773e+00 1.156239748001098633e+00 8.804354667663574219e-01 1.481547474861145020e+00
8.690000000000000000e+02 5.797621536254882812e+01 -1.629627037048339844e+01 -2.147670269012451172e+00 5.112413167953491211e-01 -4.909286499023437500e-01 5.249611735343933105e-01
8.700000000000000000e+02 5.004122543334960938e+01 -7.400020122528076172e+00 7.975853681564331055e-01 6.646737098693847656e+00 2.233296632766723633e+00 -2.293474435806274414e+00
8.710000000000000000e+02 4.965501785278320312e+01 -6.053664684295654297e+00 7.357088327407836914e-01 6.283324718475341797e+00 2.105710029602050781e+00 -2.204672336578369141e+00
8.720000000000000000e+02 4.756279373168945312e+01 -3.644394874572753906e+00 7.944558858871459961e-01 4.963551044464111328e+00 1.727401971817016602e+00 -2.210108280181884766e+00
8.730000000000000000e+02 4.776263427734375000e+01 -8.642867803573608398e-01 8.630502820014953613e-01 4.748006343841552734e+00 1.683316946029663086e+00 -2.183086633682250977e+00
8.740000000000000000e+02 4.716366577148437500e+01 3.762290775775909424e-01 1.110302925109863281e+00 4.804514408111572266e+00 1.774445176124572754e+00 -2.331604242324829102e+00
8.750000000000000000e+02 4.654017257690429688e+01 1.611998915672302246e+00 1.160617828369140625e+00 4.844235897064208984e+00 1.801456212997436523e+00 -2.423023223876953125e+00
8.760000000000000000e+02 4.590276336669921875e+01 2.841193675994873047e+00 1.249405503273010254e+00 4.816248893737792969e+00 1.819696307182312012e+00 -2.518520116806030273e+00
8.770000000000000000e+02 4.330039978027343750e+01 7.762991905212402344e+00 1.365442991256713867e+00 7.181468963623046875e+00 2.564073562622070312e+00 -2.966105222702026367e+00
8.780000000000000000e+02 4.218531036376953125e+01 1.189686298370361328e+01 3.803576529026031494e-01 8.462996482849121094e+00 2.653006076812744141e+00 -4.593357741832733154e-01
8.790000000000000000e+02 4.222470474243164062e+01 1.481708145141601562e+01 1.690351963043212891e-01 6.739274501800537109e+00 2.072492837905883789e+00 3.776732981204986572e-01
8.800000000000000000e+02 4.275533676147460938e+01 1.768400192260742188e+01 3.334769308567047119e-01 5.664865493774414062e+00 1.799502730369567871e+00 1.062665224075317383e+00
8.810000000000000000e+02 4.402188110351562500e+01 2.177120399475097656e+01 5.561926960945129395e-01 4.167710781097412109e+00 1.417171120643615723e+00 1.322307467460632324e+00
8.820000000000000000e+02 4.655456542968750000e+01 2.695658493041992188e+01 6.256783008575439453e-01 2.160172700881958008e+00 8.357553482055664062e-01 1.075293779373168945e+00
8.830000000000000000e+02 4.829864883422851562e+01 2.917951202392578125e+01 5.304740667343139648e-01 1.276227116584777832e+00 5.420103669166564941e-01 7.709983587265014648e-01
8.840000000000000000e+02 5.015593719482421875e+01 3.119297218322753906e+01 3.023746609687805176e-01 6.659252643585205078e-01 2.904899716377258301e-01 4.116349220275878906e-01
8.850000000000000000e+02 5.607879257202148438e+01 3.526087570190429688e+01 -7.391158938407897949e-01 -1.752751916646957397e-01 -2.743173241615295410e-01 -1.595462858676910400e-01
8.860000000000000000e+02 4.912313842773437500e+01 -2.184370803833007812e+01 -1.862713717855513096e-03 8.618230819702148438e-01 2.579881250858306885e-01 5.749219059944152832e-01
8.870000000000000000e+02 4.990610504150390625e+01 -2.182287406921386719e+01 3.651602566242218018e-01 1.940701127052307129e+00 6.917583942413330078e-01 1.381303429603576660e+00
8.880000000000000000e+02 5.217517089843750000e+01 -2.125988388061523438e+01 -5.971521139144897461e-01 1.132088661193847656e+01 3.217120409011840820e+00 2.058860778808593750e+00
8.890000000000000000e+02 5.094384002685546875e+01 -2.144111442565917969e+01 6.093241572380065918e-01 4.174976825714111328e+00 1.435290217399597168e+00 2.752996683120727539e+00
8.900000000000000000e+02 5.174880218505859375e+01 -2.131208610534667969e+01 -1.257198899984359741e-01 8.388158798217773438e+00 2.478731870651245117e+00 3.109392166137695312e+00
8.910000000000000000e+02 5.135261154174804688e+01 -2.134955596923828125e+01 3.631707131862640381e-01 6.081196308135986328e+00 1.933310031890869141e+00 3.256937265396118164e+00
8.920000000000000000e+02 5.115502929687500000e+01 -2.140686225891113281e+01 5.327617526054382324e-01 5.103459358215332031e+00 1.690866351127624512e+00 3.055073976516723633e+00
8.930000000000000000e+02 5.146761322021484375e+01 -2.162800407409667969e+01 -3.627008944749832153e-02 6.990176200866699219e+00 2.086171865463256836e+00 2.941998243331909180e+00
8.940000000000000000e+02 4.911781692504882812e+01 -1.832246780395507812e+01 -1.027374505996704102e+00 6.977481245994567871e-01 -9.888792037963867188e-02 -1.870346546173095703e+00
8.950000000000000000e+02 5.130813980102539062e+01 -1.793304061889648438e+01 5.372552871704101562e-01 7.132825851440429688e+00 2.301024198532104492e+00 -7.010499477386474609e+00
8.960000000000000000e+02 5.153223037719726562e+01 -1.793963432312011719e+01 2.987654209136962891e-01 8.588665008544921875e+00 2.666229009628295898e+00 -7.038259983062744141e+00
8.970000000000000000e+02 4.931140136718750000e+01 -1.792025184631347656e+01 -4.176497161388397217e-01 1.317476391792297363e+00 2.699480056762695312e-01 -2.499521493911743164e+00
8.980000000000000000e+02 5.092403030395507812e+01 -1.806752777099609375e+01 1.182101726531982422e+00 4.233058929443359375e+00 1.624548196792602539e+00 -6.122988224029541016e+00
8.990000000000000000e+02 4.980913162231445312e+01 -1.796205711364746094e+01 2.836831212043762207e-01 1.534233808517456055e+00 5.453751087188720703e-01 -3.367054224014282227e+00
9.000000000000000000e+02 5.054720306396484375e+01 -1.815511322021484375e+01 1.077311754226684570e+00 2.681421756744384766e+00 1.127620100975036621e+00 -5.015839576721191406e+00
9.010000000000000000e+02 5.073201751708984375e+01 -1.810012626647949219e+01 1.323298573493957520e+00 3.436158418655395508e+00 1.427837133407592773e+00 -5.506563186645507812e+00
9.020000000000000000e+02 4.838214492797851562e+01 -1.842736434936523438e+01 -1.811203122138977051e+00 3.633955717086791992e-01 -4.343422651290893555e-01 -1.152194976806640625e+00
9.030000000000000000e+02 4.158011627197265625e+01 -1.911818695068359375e+01 -2.494627952575683594e+00 3.994611501693725586e-01 -6.285500526428222656e-01 9.365680217742919922e-01
9.040000000000000000e+02 4.319272613525390625e+01 -1.956339073181152344e+01 -2.521470308303833008e+00 5.695671439170837402e-01 -5.855709314346313477e-01 5.070750117301940918e-01
9.050000000000000000e+02 3.929390335083007812e+01 -1.889118957519531250e+01 -3.342436790466308594e+00 -1.183664917945861816e+00 -1.357830524444580078e+00 1.655115604400634766e+00
9.060000000000000000e+02 1.630423545837402344e+01 -5.605218410491943359e+00 -2.030893665505573153e-04 -1.316342386417090893e-04 -1.004170844680629671e-04 -1.157383958343416452e-04
9.070000000000000000e+02 1.575897598266601562e+01 -5.184122562408447266e+00 2.151044609490782022e-04 1.252307702088728547e-04 1.021005664370022714e-04 1.260255230590701103e-04
9.080000000000000000e+02 1.405793762207031250e+01 -4.006000995635986328e+00 -2.328877017134800553e-04 -1.148411829490214586e-04 -1.043186639435589314e-04 -1.046526012942194939e-04
9.090000000000000000e+02 1.587000656127929688e+01 -6.098859310150146484e+00 2.175072004320099950e-04 1.289231440750882030e-04 1.039291018969379365e-04 1.158734303317032754e-04
9.100000000000000000e+02 1.535549545288085938e+01 -5.682013988494873047e+00 -2.552543301135301590e-04 -1.016029564198106527e-04 -1.070571888703852892e-04 -1.365860953228548169e-04
9.110000000000000000e+02 1.826974105834960938e+01 -7.506860733032226562e+00 -2.061318955384194851e-04 -6.744126585545018315e-05 -8.207194332499057055e-05 -6.485239282483235002e-05
9.120000000000000000e+02 1.675563621520996094e+01 -1.073231220245361328e+01 3.502376202959567308e-04 2.326230751350522041e-04 1.748581998981535435e-04 1.883173354144673795e-05
9.130000000000000000e+02 1.367008495330810547e+01 -4.598276138305664062e+00 3.019606519956141710e-04 8.854069164954125881e-05 1.171503972727805376e-04 8.385677938349545002e-05
9.140000000000000000e+02 1.153703022003173828e+01 -2.662654161453247070e+00 -1.271714281756430864e-04 -2.032065385719761252e-04 -9.911339293466880918e-05 -9.308991138823330402e-05
9.150000000000000000e+02 1.307886600494384766e+01 -4.267012119293212891e+00 -2.649384550750255585e-04 -1.214118819916620851e-04 -1.159051025751978159e-04 -5.874234921066090465e-05
9.160000000000000000e+02 1.153450489044189453e+01 -4.246080398559570312e+00 2.272457786602899432e-04 1.882897049654275179e-04 1.246606407221406698e-04 2.860626409528777003e-05
9.170000000000000000e+02 1.922319412231445312e+01 -1.028317165374755859e+01 1.296895643463358283e-04 1.884648227132856846e-04 9.544631757307797670e-05 6.712707545375451446e-05
9.180000000000000000e+02 1.912011909484863281e+01 -8.590462684631347656e+00 -1.368058001389726996e-04 -7.402796472888439894e-05 -6.325013237074017525e-05 -9.601963392924517393e-05
9.190000000000000000e+02 1.953110313415527344e+01 -9.166189193725585938e+00 1.055017783073708415e-04 1.136379360104911029e-04 6.574191502295434475e-05 8.070718467934057117e-05
9.200000000000000000e+02 1.757199478149414062e+01 -1.105964660644531250e+01 -1.894593333418015391e-05 -2.582448069006204605e-04 -8.315722516272217035e-05 -2.170771767850965261e-04
9.210000000000000000e+02 2.034761238098144531e+01 -1.144375610351562500e+01 2.251888363389298320e-04 2.852428406185936183e-05 7.611393812112510204e-05 3.203935420970083214e-06
9.220000000000000000e+02 1.970301818847656250e+01 -1.092518329620361328e+01 -1.701774017419666052e-04 -2.213700063293799758e-04 -1.174642238765954971e-04 4.994570554117672145e-05
9.230000000000000000e+02 4.524534606933593750e+01 -2.374851799011230469e+01 3.525668755173683167e-02 -6.853885203599929810e-02 -9.984648786485195160e-03 -4.994701743125915527e-01
9.240000000000000000e+02 4.353233718872070312e+01 -2.355535125732421875e+01 -5.148052796721458435e-02 -3.972553908824920654e-01 -1.346207708120346069e-01 -4.963122904300689697e-01
9.250000000000000000e+02 4.665600967407226562e+01 -2.322934913635253906e+01 3.181470185518264771e-02 2.111043632030487061e-01 7.287572324275970459e-02 -2.928714752197265625e-01
9.260000000000000000e+02 4.390705490112304688e+01 -2.601278686523437500e+01 6.960337609052658081e-02 -5.422270298004150391e-01 -1.417870819568634033e-01 -4.006001055240631104e-01
9.270000000000000000e+02 2.153821945190429688e+01 -1.351419639587402344e+01 4.361783794593065977e-05 -1.255592796951532364e-04 -2.458243397995829582e-05 -3.165297675877809525e-05
9.280000000000000000e+02 4.732107543945312500e+01 -2.295095252990722656e+01 2.132426388561725616e-02 3.690184354782104492e-01 1.171028092503547668e-01 -1.384486854076385498e-01
9.290000000000000000e+02 4.823445129394531250e+01 -2.325737762451171875e+01 2.239606529474258423e-01 1.047989606857299805e+00 3.815850615501403809e-01 3.176572918891906738e-01
9.300000000000000000e+02 4.845571136474609375e+01 -2.200239944458007812e+01 -1.393125951290130615e-01 4.610128402709960938e-01 9.651007503271102905e-02 1.634496748447418213e-01
9.310000000000000000e+02 8.822608947753906250e+00 3.712765693664550781e+00 -4.282205998897552490e-01 -4.928101599216461182e-01 -2.763092219829559326e-01 6.959957480430603027e-01
9.320000000000000000e+02 8.300823211669921875e+00 2.738542556762695312e+00 -5.256006717681884766e-01 -3.285895287990570068e-01 -2.562570571899414062e-01 5.825382471084594727e-01
9.330000000000000000e+02 1.602736115455627441e+00 7.842544555664062500e+00 -9.619591757655143738e-03 -4.319172203540802002e-01 -1.324610412120819092e-01 1.730280220508575439e-01
9.340000000000000000e+02 5.491290092468261719e+00 1.855588555335998535e+00 -2.696827352046966553e-01 -7.073896378278732300e-02 -1.021265089511871338e-01 2.006526142358779907e-01
9.350000000000000000e+02 9.056915283203125000e+00 2.856471061706542969e+00 -5.804149508476257324e-01 -4.329325258731842041e-01 -3.040042519569396973e-01 6.678867936134338379e-01
9.360000000000000000e+02 7.680473804473876953e+00 1.889118671417236328e+00 -5.559218525886535645e-01 -1.397457569837570190e-01 -2.087002843618392944e-01 3.947410583496093750e-01
9.370000000000000000e+02 6.855118274688720703e+00 2.613688230514526367e+00 -4.120407700538635254e-01 -1.733484864234924316e-01 -1.756167709827423096e-01 3.971211612224578857e-01
9.380000000000000000e+02 8.115060806274414062e+00 3.540310859680175781e+00 -4.358493387699127197e-01 -3.847726583480834961e-01 -2.461865991353988647e-01 6.137306690216064453e-01
9.390000000000000000e+02 1.871942281723022461e+00 4.121337890625000000e+00 -4.082311689853668213e-02 -1.385781019926071167e-01 -5.382036790251731873e-02 1.066029593348503113e-01
9.400000000000000000e+02 4.692440509796142578e+00 3.332977533340454102e+00 -1.972505450248718262e-01 -1.607832163572311401e-01 -1.074101254343986511e-01 2.560677230358123779e-01
9.410000000000000000e+02 1.339068770408630371e+00 3.277838468551635742e+00 -2.768173813819885254e-02 -7.228282839059829712e-02 -2.998936921358108521e-02 4.982699453830718994e-02
9.420000000000000000e+02 2.615532875061035156e+00 1.910646319389343262e+00 -6.459631025791168213e-02 -4.504950344562530518e-02 -3.289374709129333496e-02 5.270270258188247681e-02
9.430000000000000000e+02 2.610736083984375000e+01 -1.289965534210205078e+01 -8.772611021995544434e-01 -9.048075079917907715e-01 -5.346205830574035645e-01 1.170270800590515137e+00
9.440000000000000000e+02 2.676429748535156250e+01 -1.249285507202148438e+01 -1.022138833999633789e+00 -7.088625431060791016e-01 -5.193004608154296875e-01 1.242862939834594727e+00
9.450000000000000000e+02 2.709930419921875000e+01 -1.495126724243164062e+01 -7.978038191795349121e-01 -4.878190159797668457e-01 -3.856868445873260498e-01 8.893795609474182129e-01
9.460000000000000000e+02 2.605441284179687500e+01 -1.114022636413574219e+01 -1.127496004104614258e+00 -9.574936032295227051e-01 -6.254968643188476562e-01 1.309441447257995605e+00
9.470000000000000000e+02 2.510776138305664062e+01 -1.087428569793701172e+01 -1.116113424301147461e+00 -1.347159028053283691e+00 -7.389817237854003906e-01 1.319341778755187988e+00
9.480000000000000000e+02 2.805553054809570312e+01 -1.160224723815917969e+01 -1.130332827568054199e+00 -4.419720470905303955e-01 -4.716914594173431396e-01 1.295344471931457520e+00
9.490000000000000000e+02 2.711661148071289062e+01 -1.317355442047119141e+01 -9.747642874717712402e-01 -5.987442731857299805e-01 -4.720525741577148438e-01 1.202737450599670410e+00
9.500000000000000000e+02 2.568578720092773438e+01 -1.046224498748779297e+01 -1.182476043701171875e+00 -1.077896356582641602e+00 -6.781117320060729980e-01 1.325261354446411133e+00
9.510000000000000000e+02 3.087198257446289062e+01 -1.637865447998046875e+01 -1.636675357818603516e+00 -7.900114357471466064e-02 -5.147029161453247070e-01 7.591930031776428223e-01
9.520000000000000000e+02 2.782545089721679688e+01 -1.457165622711181641e+01 -9.595841169357299805e-01 -4.282546937465667725e-01 -4.163516461849212646e-01 1.023480415344238281e+00
9.530000000000000000e+02 4.695190048217773438e+01 -1.869428825378417969e+01 -2.587402582168579102e+00 2.644125819206237793e-01 -6.968969702720642090e-01 -3.581780791282653809e-01
9.540000000000000000e+02 4.682477951049804688e+01 -1.812869453430175781e+01 -1.935956478118896484e+00 4.943041205406188965e-01 -4.324957132339477539e-01 -3.835365772247314453e-01
9.550000000000000000e+02 4.816484832763671875e+01 -1.786697578430175781e+01 -1.223242402076721191e+00 7.625719308853149414e-01 -1.382011622190475464e-01 -1.324267745018005371e+00
9.560000000000000000e+02 4.752334213256835938e+01 -1.798895263671875000e+01 -1.603209018707275391e+00 6.051951646804809570e-01 -2.994041740894317627e-01 -8.091797232627868652e-01
9.570000000000000000e+02 4.610040283203125000e+01 -1.827818489074707031e+01 -2.187844753265380859e+00 4.882944524288177490e-01 -5.098651051521301270e-01 -7.160807400941848755e-02
9.580000000000000000e+02 5.737716674804687500e+01 -2.418567085266113281e+01 2.503111064434051514e-01 3.129596471786499023e+00 1.013972282409667969e+00 1.710266321897506714e-01
9.590000000000000000e+02 5.457930374145507812e+01 -1.764522552490234375e+01 5.449473857879638672e-01 4.935257434844970703e+00 1.644061565399169922e+00 2.983272671699523926e-01
9.600000000000000000e+02 5.373731994628906250e+01 -1.779538345336914062e+01 7.430584430694580078e-01 7.960676193237304688e+00 2.611120462417602539e+00 -3.538808822631835938e-01
9.610000000000000000e+02 5.199994277954101562e+01 -1.287825107574462891e+01 2.005910396575927734e+00 9.090866088867187500e+00 3.329032897949218750e+00 -3.664806604385375977e+00
9.620000000000000000e+02 4.455192947387695312e+01 -1.796780776977539062e+01 -2.134702444076538086e+00 7.364263534545898438e-01 -4.194827973842620850e-01 3.234349489212036133e-01
9.630000000000000000e+02 4.395144653320312500e+01 -1.938218307495117188e+01 -2.690973520278930664e+00 5.308219194412231445e-01 -6.480454802513122559e-01 3.914768397808074951e-01
9.640000000000000000e+02 4.385781097412109375e+01 -1.870377159118652344e+01 -2.486792802810668945e+00 6.689768433570861816e-01 -5.453448295593261719e-01 4.857530295848846436e-01
9.650000000000000000e+02 4.308155441284179688e+01 -1.881821823120117188e+01 -2.515561103820800781e+00 7.012720704078674316e-01 -5.442867279052734375e-01 6.122596263885498047e-01
9.660000000000000000e+02 4.227156448364257812e+01 -1.731990623474121094e+01 -2.318817377090454102e+00 7.242414951324462891e-01 -4.783727526664733887e-01 4.537253975868225098e-01
9.670000000000000000e+02 2.529370689392089844e+01 -9.780556678771972656e+00 -1.241104125976562500e+00 -1.215588927268981934e+00 -7.370079159736633301e-01 1.344256281852722168e+00
9.680000000000000000e+02 2.473217391967773438e+01 -1.019607448577880859e+01 -1.184529542922973633e+00 -1.497792959213256836e+00 -8.046967387199401855e-01 1.376725196838378906e+00
9.690000000000000000e+02 2.488373374938964844e+01 -9.099316596984863281e+00 -1.290834069252014160e+00 -1.327497005462646484e+00 -7.854992747306823730e-01 1.361135601997375488e+00
9.700000000000000000e+02 2.446206283569335938e+01 -8.419588088989257812e+00 -1.343428373336791992e+00 -1.438870429992675781e+00 -8.346896171569824219e-01 1.373833775520324707e+00
9.710000000000000000e+02 2.402029418945312500e+01 -7.739713191986083984e+00 -1.383667945861816406e+00 -1.526387691497802734e+00 -8.730167150497436523e-01 1.388120532035827637e+00
9.720000000000000000e+02 2.306474113464355469e+01 -6.413434505462646484e+00 -1.457554340362548828e+00 -1.661261439323425293e+00 -9.356446862220764160e-01 1.408189892768859863e+00
9.730000000000000000e+02 2.147880363464355469e+01 -4.524899005889892578e+00 -1.520243287086486816e+00 -1.749078869819641113e+00 -9.807966351509094238e-01 1.409667730331420898e+00
9.740000000000000000e+02 2.256142997741699219e+01 -5.772478103637695312e+00 -1.486829161643981934e+00 -1.708376526832580566e+00 -9.585617184638977051e-01 1.410472273826599121e+00
9.750000000000000000e+02 2.359161567687988281e+01 -5.943754196166992188e+00 -1.357442021369934082e+00 -1.409456610679626465e+00 -8.300696015357971191e-01 1.257008075714111328e+00
9.760000000000000000e+02 1.685832977294921875e+01 2.429538220167160034e-01 -1.063624382019042969e+00 -1.354516386985778809e+00 -7.254422307014465332e-01 1.114795446395874023e+00
9.770000000000000000e+02 1.243921089172363281e+01 1.044239163398742676e+00 -1.236361742019653320e+00 -7.764660716056823730e-01 -6.038483381271362305e-01 9.375444054603576660e-01
9.780000000000000000e+02 1.466446876525878906e+01 -8.001834899187088013e-02 -1.496132493019104004e+00 -1.090639591217041016e+00 -7.760316133499145508e-01 1.197293281555175781e+00
9.790000000000000000e+02 1.536183452606201172e+01 -4.811557233333587646e-01 -1.564731717109680176e+00 -1.205852031707763672e+00 -8.311751484870910645e-01 1.264281392097473145e+00
9.800000000000000000e+02 2.042760086059570312e+01 -4.437994480133056641e+00 -1.733124613761901855e+00 -1.934924483299255371e+00 -1.100414752960205078e+00 1.622060537338256836e+00
9.810000000000000000e+02 1.865820693969726562e+01 -2.786956310272216797e+00 -1.752301812171936035e+00 -1.730764389038085938e+00 -1.044919848442077637e+00 1.540054559707641602e+00
9.820000000000000000e+02 2.031834220886230469e+01 -3.360283851623535156e+00 -1.519902825355529785e+00 -1.726534962654113770e+00 -9.739313721656799316e-01 1.390462756156921387e+00
9.830000000000000000e+02 2.077684211730957031e+01 -2.831786870956420898e+00 -1.304319143295288086e+00 -1.574161887168884277e+00 -8.635442852973937988e-01 1.212245225906372070e+00
9.840000000000000000e+02 2.203423881530761719e+01 -5.140785694122314453e+00 -1.503682374954223633e+00 -1.734015345573425293e+00 -9.713093042373657227e-01 1.412491559982299805e+00
9.850000000000000000e+02 1.844731521606445312e+01 -1.752811670303344727e+00 -1.456489801406860352e+00 -1.584956884384155273e+00 -9.124340415000915527e-01 1.329271912574768066e+00
9.860000000000000000e+02 1.779730415344238281e+01 -1.261410117149353027e+00 -1.421105623245239258e+00 -1.515392184257507324e+00 -8.809493184089660645e-01 1.296921372413635254e+00
9.870000000000000000e+02 1.672722816467285156e+01 -1.333906412124633789e+00 -1.675967931747436523e+00 -1.422786116600036621e+00 -9.296262264251708984e-01 1.393500685691833496e+00
9.880000000000000000e+02 1.971253585815429688e+01 -2.801809310913085938e+00 -1.507822871208190918e+00 -1.692411661148071289e+00 -9.600703716278076172e-01 1.375607609748840332e+00
9.890000000000000000e+02 6.012648582458496094e+00 -1.904416084289550781e+00 2.154146495740860701e-04 1.322700336459092796e-05 6.859249697299674153e-05 1.622070121811702847e-04
9.900000000000000000e+02 7.508749008178710938e+00 -2.702822685241699219e+00 -1.848373067332431674e-04 -1.366202486678957939e-04 -9.643726662034168839e-05 -1.516147895017638803e-04
9.910000000000000000e+02 6.713268280029296875e+00 -2.712074518203735352e+00 2.091523783747106791e-04 1.039611379383131862e-04 9.393405343871563673e-05 2.099666453432291746e-04
9.920000000000000000e+02 5.824301242828369141e+00 -3.564382791519165039e+00 2.752622822299599648e-04 8.560092828702181578e-05 1.082589660654775798e-04 2.926201268564909697e-04
9.930000000000000000e+02 1.687066078186035156e+00 -9.192395210266113281e+00 -7.468054536730051041e-04 1.249527485924772918e-05 -2.202930627390742302e-04 -3.031770211237017065e-05
9.940000000000000000e+02 1.987155675888061523e+00 -2.055828094482421875e+00 -1.797516888473182917e-04 -1.095271509257145226e-04 -8.678364974912256002e-05 1.042897201841697097e-04
9.950000000000000000e+02 5.654402971267700195e-01 -6.430989265441894531e+00 6.033588433638215065e-04 -1.949680881807580590e-05 1.751586096361279488e-04 5.510701157618314028e-05
9.960000000000000000e+02 6.183960437774658203e-01 -4.963521480560302734e+00 -4.906688118353486061e-04 -3.260798393966979347e-06 -1.481788785895332694e-04 -7.052247383398935199e-05
9.970000000000000000e+02 5.499854683876037598e-01 -3.519347429275512695e+00 4.264159651938825846e-04 -3.262339669163338840e-05 1.181377665488980711e-04 1.300856238231062889e-04
9.980000000000000000e+02 1.206970882415771484e+01 2.162397623062133789e+00 -8.385821580886840820e-01 -8.223984241485595703e-01 -4.982941746711730957e-01 8.862363696098327637e-01
9.990000000000000000e+02 1.358826732635498047e+01 1.338368296623229980e+00 -1.056807279586791992e+00 -9.727632403373718262e-01 -6.088711619377136230e-01 1.000259399414062500e+00
1.000000000000000000e+03 1.433291530609130859e+01 9.368700385093688965e-01 -1.129646897315979004e+00 -1.071540951728820801e+00 -6.603563427925109863e-01 1.068354249000549316e+00
1.001000000000000000e+03 1.175575923919677734e+01 -5.165702819824218750e+00 2.996916882693767548e-04 1.704025344224646688e-04 1.410282711731269956e-04 -5.593982132268138230e-05
1.002000000000000000e+03 1.050436115264892578e+01 -3.064173698425292969e+00 -1.549465378047898412e-04 -1.981753448490053415e-04 -1.059365604305639863e-04 -6.614843732677400112e-05
1.003000000000000000e+03 4.225453567504882812e+01 -2.562354469299316406e+01 -5.406630411744117737e-02 -1.213297128677368164e+00 -3.802090585231781006e-01 -1.528359949588775635e-01
1.004000000000000000e+03 4.200815582275390625e+01 -2.428112411499023438e+01 1.229126285761594772e-02 -7.664753198623657227e-01 -2.262552231550216675e-01 -4.984346404671669006e-02
1.005000000000000000e+03 4.235012817382812500e+01 -2.700224494934082031e+01 6.231178715825080872e-02 -1.535536885261535645e+00 -4.419675171375274658e-01 -1.162478849291801453e-01
1.006000000000000000e+03 5.632807540893554688e+01 -3.211429214477539062e+01 2.057907581329345703e+00 9.466467857360839844e+00 3.457312583923339844e+00 -3.179595470428466797e+00
1.007000000000000000e+03 6.950679779052734375e+01 -2.173206901550292969e+01 9.181550890207290649e-02 2.423689842224121094e+00 7.546516060829162598e-01 -1.592568039894104004e+00
1.008000000000000000e+03 6.528681945800781250e+01 -2.086711883544921875e+01 -8.729259967803955078e-01 4.851423501968383789e-01 -1.163351014256477356e-01 4.987545609474182129e-01
1.009000000000000000e+03 6.036771392822265625e+01 -2.298296928405761719e+01 6.984853744506835938e-01 2.026795446872711182e-01 2.703494727611541748e-01 4.745615720748901367e-01
1.010000000000000000e+03 5.601839065551757812e+01 -2.928980636596679688e+01 1.042263865470886230e+00 1.158091640472412109e+01 3.786954164505004883e+00 1.648650407791137695e+00
1.011000000000000000e+03 7.109229278564453125e+01 -2.290246772766113281e+01 1.555088758468627930e+00 7.992470741271972656e+00 2.864267826080322266e+00 -3.071964740753173828e+00
1.012000000000000000e+03 7.170136260986328125e+01 -2.401959419250488281e+01 1.866792798042297363e+00 1.265150165557861328e+01 4.355488300323486328e+00 -2.386264562606811523e+00
1.013000000000000000e+03 7.725064849853515625e+01 -2.495989799499511719e+01 4.519739151000976562e-01 7.052100181579589844e+00 2.251222133636474609e+00 1.158531531691551208e-01
1.014000000000000000e+03 7.153794097900390625e+01 -3.056914520263671875e+01 -3.660563379526138306e-02 7.655938625335693359e+00 2.285799980163574219e+00 9.078009724617004395e-01
1.015000000000000000e+03 3.280274963378906250e+01 -1.785569000244140625e+01 -2.242593050003051758e+00 9.632311761379241943e-03 -6.698882579803466797e-01 3.587667346000671387e-01
1.016000000000000000e+03 5.714925003051757812e+01 -2.228609466552734375e+01 1.572283744812011719e+00 2.672898292541503906e+00 1.273554682731628418e+00 -2.707961201667785645e-01
1.017000000000000000e+03 7.177479553222656250e+01 -2.745041656494140625e+01 6.960148215293884277e-01 1.308836364746093750e+01 4.135313510894775391e+00 1.083299875259399414e+00
1.018000000000000000e+03 7.339315032958984375e+01 -2.720219421386718750e+01 1.415122985839843750e+00 9.766495704650878906e+00 3.354485511779785156e+00 -4.266022443771362305e-01
1.019000000000000000e+03 4.217685317993164062e+01 -1.808889007568359375e+01 -2.488729000091552734e+00 6.687294840812683105e-01 -5.459998250007629395e-01 6.023026108741760254e-01
1.020000000000000000e+03 5.583838272094726562e+01 -2.665396308898925781e+01 -5.167268514633178711e-01 7.138204097747802734e+00 1.986443161964416504e+00 4.852796196937561035e-01
1.021000000000000000e+03 7.174700927734375000e+01 -2.104630279541015625e+01 -9.645790457725524902e-01 7.730536937713623047e+00 2.029787302017211914e+00 -1.440110921859741211e+00
1.022000000000000000e+03 7.226972961425781250e+01 -2.941887664794921875e+01 5.913023352622985840e-01 9.128941535949707031e+00 2.916073083877563477e+00 2.593140602111816406e-01
1.023000000000000000e+03 5.482932281494140625e+01 -3.122057151794433594e+01 2.185678958892822266e+00 8.194621086120605469e+00 3.114090204238891602e+00 -1.168042719364166260e-01
1.024000000000000000e+03 3.549017715454101562e+01 -1.692037200927734375e+01 -3.041162490844726562e+00 -2.272447794675827026e-01 -9.805222153663635254e-01 9.177947640419006348e-01
1.025000000000000000e+03 3.675511169433593750e+01 -1.803886795043945312e+01 -4.822564125061035156e+00 -3.137699365615844727e-01 -1.540900230407714844e+00 8.239269256591796875e-01
1.026000000000000000e+03 2.855391502380371094e+01 -1.618955612182617188e+01 -1.198022365570068359e+00 -3.192282319068908691e-01 -4.551751911640167236e-01 7.156955599784851074e-01
1.027000000000000000e+03 3.409218978881835938e+01 -1.791702461242675781e+01 -2.913583040237426758e+00 -9.327906183898448944e-03 -8.768733143806457520e-01 3.259172737598419189e-01
1.028000000000000000e+03 6.711003875732421875e+01 -3.356171035766601562e+01 -1.738812446594238281e+00 -1.234814301133155823e-01 -5.586881637573242188e-01 -4.711797833442687988e-01
1.029000000000000000e+03 6.808579254150390625e+01 -3.453707885742187500e+01 -8.227021098136901855e-01 1.434424638748168945e+00 1.835167557001113892e-01 5.074396729469299316e-01
1.030000000000000000e+03 3.190125274658203125e+01 -1.662798500061035156e+01 -1.897042393684387207e+00 -1.135575398802757263e-02 -5.725194215774536133e-01 7.509511113166809082e-01
1.031000000000000000e+03 6.246781921386718750e+01 -3.534526062011718750e+01 -1.598062753677368164e+00 -1.075966507196426392e-01 -5.116978287696838379e-01 -4.434161484241485596e-01
1.032000000000000000e+03 6.456195831298828125e+01 -3.692423629760742188e+01 -3.836007416248321533e-01 -2.699109725654125214e-02 -1.231775507330894470e-01 -2.253372371196746826e-01
1.033000000000000000e+03 5.558986663818359375e+01 -2.415098381042480469e+01 -4.497487843036651611e-01 6.056929588317871094e+00 1.682154297828674316e+00 -3.256428539752960205e-01
1.034000000000000000e+03 6.046157073974609375e+01 -3.868777465820312500e+01 -3.192980960011482239e-02 1.064489960670471191e+00 3.097680509090423584e-01 -7.874151468276977539e-01
1.035000000000000000e+03 6.462063598632812500e+01 -4.000536346435546875e+01 6.045777201652526855e-01 5.922814011573791504e-01 3.590577244758605957e-01 -1.082173958420753479e-01
1.036000000000000000e+03 5.662521362304687500e+01 -3.583194732666015625e+01 -7.024657726287841797e-01 4.147906303405761719e+00 1.033632159233093262e+00 -1.170925378799438477e+00
1.037000000000000000e+03 7.583502960205078125e+01 -2.999627304077148438e+01 1.780149489641189575e-01 8.040964126586914062e+00 2.465693712234497070e+00 -1.093037009239196777e+00
1.038000000000000000e+03 7.265962219238281250e+01 -2.516307067871093750e+01 1.559541106224060059e+00 1.184220790863037109e+01 4.020524978637695312e+00 -9.291946291923522949e-01
1.039000000000000000e+03 5.831333160400390625e+01 -2.398559188842773438e+01 6.027746200561523438e-01 2.038496255874633789e+00 7.923812866210937500e-01 4.942921996116638184e-01
1.040000000000000000e+03 5.726635742187500000e+01 -2.314283752441406250e+01 1.051260232925415039e+00 2.996655464172363281e+00 1.214374661445617676e+00 -4.125887155532836914e-02
1.041000000000000000e+03 6.139669799804687500e+01 -1.583098506927490234e+01 7.553207874298095703e-01 1.164803385734558105e+00 5.760372877120971680e-01 1.268147349357604980e+00
1.042000000000000000e+03 7.071246337890625000e+01 -3.168463897705078125e+01 -4.018065631389617920e-01 5.124255180358886719e+00 1.416734576225280762e+00 1.161540746688842773e+00
1.043000000000000000e+03 5.700739669799804688e+01 4.076827621459960938e+01 -2.223564833402633667e-01 -3.220230340957641602e-01 -1.633138507604598999e-01 1.280162930488586426e-01
1.044000000000000000e+03 8.531616210937500000e+00 -2.824757003784179688e+01 5.202117026783525944e-04 -7.285862229764461517e-04 -6.251235754461959004e-05 1.033406122587621212e-03
1.045000000000000000e+03 5.501701736450195312e+01 -1.601635169982910156e+01 -7.377614498138427734e+00 -5.829499363899230957e-01 -2.388169288635253906e+00 2.473819732666015625e+00
1.046000000000000000e+03 5.383674240112304688e+01 -1.512817478179931641e+01 -2.528788566589355469e+00 2.118847131729125977e+00 -1.229824200272560120e-01 6.434725224971771240e-02
1.047000000000000000e+03 4.156124496459960938e+01 -3.037796020507812500e+01 -7.393904924392700195e-01 -1.347705483436584473e+00 -6.261287927627563477e-01 -7.193526625633239746e-01
1.048000000000000000e+03 4.274170303344726562e+01 -2.960328102111816406e+01 -5.108843445777893066e-01 -1.221915125846862793e+00 -5.198398232460021973e-01 -2.862255871295928955e-01
1.049000000000000000e+03 4.345614242553710938e+01 -2.798732185363769531e+01 -2.357068806886672974e-01 -6.308553218841552734e-01 -2.599686682224273682e-01 -3.181678354740142822e-01
1.050000000000000000e+03 9.813049316406250000e+00 -1.472950839996337891e+01 1.119344495236873627e-03 -1.871303684310987592e-04 2.796642365865409374e-04 5.964363226667046547e-04
1.051000000000000000e+03 5.793322753906250000e+01 -1.733994674682617188e+01 -1.378988385200500488e+00 1.128426268696784973e-01 -3.798437118530273438e-01 2.452891111373901367e+00
1.052000000000000000e+03 5.644961929321289062e+01 -1.638611793518066406e+01 -7.149661540985107422e+00 -1.036801218986511230e+00 -2.455938816070556641e+00 1.782584667205810547e+00
1.053000000000000000e+03 3.930376434326171875e+01 -3.185585212707519531e+01 -1.023558497428894043e+00 -4.231475293636322021e-01 -4.340118169784545898e-01 -5.139435529708862305e-01
1.054000000000000000e+03 5.631406784057617188e+01 3.805306243896484375e+01 -6.492767930030822754e-01 -9.557521343231201172e-02 -2.234556078910827637e-01 2.571348249912261963e-01
1.055000000000000000e+03 1.185359096527099609e+01 -3.140426063537597656e+01 3.475307894404977560e-04 -1.697866828180849552e-03 -4.051008145324885845e-04 -1.272657886147499084e-03
1.056000000000000000e+03 9.435259819030761719e+00 -2.699882888793945312e+01 -4.573219339363276958e-04 -7.441089837811887264e-05 -1.595198555151000619e-04 -9.979425230994820595e-04
1.057000000000000000e+03 6.069562530517578125e+01 -1.504068183898925781e+01 1.562371015548706055e+00 9.244117140769958496e-01 7.460348010063171387e-01 1.077405214309692383e+00
1.058000000000000000e+03 2.437383079528808594e+01 -3.242356491088867188e+01 -7.469947449862957001e-03 -2.077451936202123761e-04 -2.303307875990867615e-03 -6.600087508559226990e-03
1.059000000000000000e+03 4.214082717895507812e+01 1.335713005065917969e+01 1.850266307592391968e-01 7.318680763244628906e+00 2.251112222671508789e+00 9.786205738782882690e-02
1.060000000000000000e+03 4.089447784423828125e+01 1.174005508422851562e+01 1.032346725463867188e+00 6.689071178436279297e+00 2.316425323486328125e+00 -1.023336172103881836e+00
1.061000000000000000e+03 3.194509124755859375e+01 -3.223781967163085938e+01 -7.777138054370880127e-02 2.101856283843517303e-02 -1.702584512531757355e-02 1.641031168401241302e-02
1.062000000000000000e+03 1.665991592407226562e+01 -3.285883712768554688e+01 9.684605174697935581e-05 1.626637415029108524e-03 5.170450313016772270e-04 -1.342021394520998001e-03
1.063000000000000000e+03 6.696920776367187500e+01 3.443465805053710938e+01 -9.632229804992675781e-01 1.315785408020019531e+00 1.057687252759933472e-01 1.017641201615333557e-01
1.064000000000000000e+03 3.614546966552734375e+01 -3.517577362060546875e+01 -9.961763024330139160e-02 -1.840160489082336426e-01 -8.509010076522827148e-02 -2.060412913560867310e-01
1.065000000000000000e+03 4.002985763549804688e+01 1.867984580993652344e+01 4.616835415363311768e-01 4.436609745025634766e+00 1.469488024711608887e+00 9.210348129272460938e-02
1.066000000000000000e+03 4.099187850952148438e+01 1.663823890686035156e+01 4.872285127639770508e-01 5.322012901306152344e+00 1.742772459983825684e+00 2.156973779201507568e-01
1.067000000000000000e+03 7.022175598144531250e+01 6.155261993408203125e+00 2.050326019525527954e-01 1.298301506042480469e+01 3.956414222717285156e+00 -1.340878307819366455e-01
1.068000000000000000e+03 7.442693328857421875e+01 8.575026512145996094e+00 4.666506778448820114e-03 8.609901428222656250e+00 2.584370613098144531e+00 7.819087505340576172e-01
1.069000000000000000e+03 7.384418010711669922e+00 -2.254659080505371094e+01 -1.807607710361480713e-03 9.465636685490608215e-05 -5.138854030519723892e-04 -1.346086937701329589e-04
1.070000000000000000e+03 1.722102355957031250e+01 -8.348088264465332031e+00 -3.628818376455456018e-04 2.198629408667329699e-05 -1.022686628857627511e-04 -5.904732347516983282e-07
1.071000000000000000e+03 7.938378143310546875e+01 -3.466297912597656250e+01 -7.887424528598785400e-02 9.018856048583984375e+00 2.681994438171386719e+00 -1.682963967323303223e-01
1.072000000000000000e+03 7.682982635498046875e+01 -2.875937271118164062e+01 3.242196738719940186e-01 7.600133895874023438e+00 2.377305984497070312e+00 -8.512886166572570801e-01
1.073000000000000000e+03 7.933153533935546875e+01 -2.765884208679199219e+01 3.309615328907966614e-02 6.195448875427246094e+00 1.868563532829284668e+00 -2.333052456378936768e-01
1.074000000000000000e+03 7.929705810546875000e+01 3.593348312377929688e+01 -3.358630836009979248e-02 1.132428264617919922e+01 3.387208938598632812e+00 -3.927131369709968567e-02
1.075000000000000000e+03 7.944596862792968750e+01 -2.082108306884765625e+01 -2.045040391385555267e-02 6.876316070556640625e+00 2.056759595870971680e+00 1.631399691104888916e-01
1.076000000000000000e+03 7.550016021728515625e+01 -2.279029083251953125e+01 2.639002799987792969e-01 7.844371318817138672e+00 2.432481527328491211e+00 4.920701086521148682e-01
1.077000000000000000e+03 7.818286895751953125e+01 -2.587287139892578125e+01 3.459598124027252197e-01 6.676760673522949219e+00 2.106816053390502930e+00 -1.305876076221466064e-01
1.078000000000000000e+03 7.822895050048828125e+01 -2.465135955810546875e+01 1.580224037170410156e-01 6.646658897399902344e+00 2.041404485702514648e+00 2.250461727380752563e-01
1.079000000000000000e+03 7.935931396484375000e+01 -3.049174690246582031e+01 3.624675050377845764e-02 7.365284442901611328e+00 2.220459461212158203e+00 -3.460279405117034912e-01
1.080000000000000000e+03 7.818552398681640625e+01 -3.433796310424804688e+01 -9.046542644500732422e-02 8.446083068847656250e+00 2.506685495376586914e+00 -4.685098230838775635e-01
1.081000000000000000e+03 7.818193817138671875e+01 -3.301331710815429688e+01 -1.465829908847808838e-01 8.216176033020019531e+00 2.420877933502197266e+00 -6.050089001655578613e-01
1.082000000000000000e+03 7.607105255126953125e+01 -3.763209152221679688e+01 -3.545436859130859375e-01 8.049663543701171875e+00 2.308536052703857422e+00 -2.541014850139617920e-01
1.083000000000000000e+03 7.742816162109375000e+01 -3.807744598388671875e+01 -1.721585541963577271e-01 8.492076873779296875e+00 2.495975494384765625e+00 5.779253691434860229e-02
1.084000000000000000e+03 7.661505126953125000e+01 -3.906271362304687500e+01 -2.055397033691406250e-01 8.376585006713867188e+00 2.451313495635986328e+00 -5.551528185606002808e-02
1.085000000000000000e+03 7.798309326171875000e+01 -4.163098526000976562e+01 2.623364627361297607e-01 8.862876892089843750e+00 2.737563848495483398e+00 7.396909594535827637e-02
1.086000000000000000e+03 7.821571350097656250e+01 1.386998748779296875e+01 -2.640775032341480255e-02 7.217107295989990234e+00 2.157209873199462891e+00 3.224437832832336426e-01
1.087000000000000000e+03 7.939719390869140625e+01 1.531122303009033203e+01 -7.966752164065837860e-03 7.145277500152587891e+00 2.141193389892578125e+00 1.262477338314056396e-01
1.088000000000000000e+03 7.803208160400390625e+01 2.099695587158203125e+01 4.301468282938003540e-02 8.185591697692871094e+00 2.468581914901733398e+00 3.871273100376129150e-01
1.089000000000000000e+03 7.935457611083984375e+01 2.234088897705078125e+01 2.188857644796371460e-02 8.439900398254394531e+00 2.538536548614501953e+00 1.738506108522415161e-01
1.090000000000000000e+03 7.796830749511718750e+01 3.101947402954101562e+01 -7.651250809431076050e-02 9.805654525756835938e+00 2.918742656707763672e+00 4.309097528457641602e-01
1.091000000000000000e+03 7.936930084228515625e+01 2.796029281616210938e+01 1.132549019530415535e-03 9.940153121948242188e+00 2.982385635375976562e+00 2.158213406801223755e-01
1.092000000000000000e+03 7.816220092773437500e+01 2.530455207824707031e+01 1.777924597263336182e-02 8.900821685791015625e+00 2.675580263137817383e+00 4.918070435523986816e-01
1.093000000000000000e+03 7.811569976806640625e+01 2.388135147094726562e+01 4.646838828921318054e-02 8.638355255126953125e+00 2.605447053909301758e+00 4.462442994117736816e-01
1.094000000000000000e+03 7.701387023925781250e+01 1.516493606567382812e+01 -3.196005150675773621e-02 7.686729907989501953e+00 2.296431064605712891e+00 4.262060225009918213e-01
1.095000000000000000e+03 7.819852447509765625e+01 1.525804519653320312e+01 7.462290232069790363e-04 7.411008834838867188e+00 2.223526477813720703e+00 3.181434869766235352e-01
1.096000000000000000e+03 7.816315460205078125e+01 1.666402626037597656e+01 -5.376799963414669037e-03 7.601426601409912109e+00 2.278814792633056641e+00 3.036866486072540283e-01
1.097000000000000000e+03 7.821854400634765625e+01 1.248456573486328125e+01 -3.209608048200607300e-02 7.023491859436035156e+00 2.097418785095214844e+00 3.723741173744201660e-01
1.098000000000000000e+03 7.254280853271484375e+01 9.177614212036132812e+00 -1.653716564178466797e-01 9.500235557556152344e+00 2.800459146499633789e+00 6.742084622383117676e-01
1.099000000000000000e+03 7.817759704589843750e+01 8.343909263610839844e+00 9.997923858463764191e-03 6.310492038726806641e+00 1.896146893501281738e+00 4.560352265834808350e-01
1.100000000000000000e+03 7.939720916748046875e+01 9.745548248291015625e+00 -7.549176225438714027e-04 5.938766002655029297e+00 1.781403422355651855e+00 1.763807833194732666e-01
1.101000000000000000e+03 7.944396209716796875e+01 -1.945433235168457031e+01 -1.485407445579767227e-02 7.239259243011474609e+00 2.167321681976318359e+00 1.185991093516349792e-01
1.102000000000000000e+03 7.819572448730468750e+01 -2.328401374816894531e+01 1.104987561702728271e-01 6.750556468963623047e+00 2.058316469192504883e+00 3.994739055633544922e-01
1.103000000000000000e+03 7.939049530029296875e+01 -1.394958972930908203e+01 -8.993054740130901337e-03 7.456413745880126953e+00 2.234226226806640625e+00 -6.816454231739044189e-02
1.104000000000000000e+03 7.936885833740234375e+01 -6.997535228729248047e+00 -1.347583904862403870e-02 6.076352596282958984e+00 1.818863034248352051e+00 -1.647368371486663818e-01
1.105000000000000000e+03 7.819385528564453125e+01 6.609754264354705811e-02 9.792251884937286377e-02 5.496435642242431641e+00 1.678307414054870605e+00 -1.499609947204589844e-01
1.106000000000000000e+03 7.941281127929687500e+01 1.415252208709716797e+00 1.798428036272525787e-02 4.428211688995361328e+00 1.333858847618103027e+00 -7.909918203949928284e-03
1.107000000000000000e+03 7.695586395263671875e+01 6.938478469848632812e+00 8.162245899438858032e-02 6.878285884857177734e+00 2.087972402572631836e+00 6.044384837150573730e-01
1.108000000000000000e+03 7.804678344726562500e+01 2.953398132324218750e+01 -3.715894371271133423e-02 9.633382797241210938e+00 2.878867149353027344e+00 4.860219657421112061e-01
1.109000000000000000e+03 7.762166595458984375e+01 3.664247512817382812e+01 -1.733147501945495605e-01 1.019542598724365234e+01 3.006633281707763672e+00 5.838675051927566528e-02
1.110000000000000000e+03 7.643596649169921875e+01 3.636079025268554688e+01 -2.255717366933822632e-01 9.019353866577148438e+00 2.638134479522705078e+00 2.571450769901275635e-01
1.111000000000000000e+03 7.819244384765625000e+01 9.721613883972167969e+00 -1.080198027193546295e-02 6.560799598693847656e+00 1.964999318122863770e+00 4.516424238681793213e-01
1.112000000000000000e+03 7.247912597656250000e+01 4.936935901641845703e+00 5.012618899345397949e-01 1.046406650543212891e+01 3.289598464965820312e+00 5.278913378715515137e-01
1.113000000000000000e+03 7.824914550781250000e+01 1.461103081703186035e+00 1.209260821342468262e-01 5.434707164764404297e+00 1.666689991950988770e+00 -1.210828684270381927e-02
1.114000000000000000e+03 7.700939941406250000e+01 1.364663690328598022e-01 2.490391135215759277e-01 6.352005481719970703e+00 1.980313301086425781e+00 -1.626512557268142700e-01
1.115000000000000000e+03 7.812454986572265625e+01 -1.354827165603637695e+00 8.646368980407714844e-02 5.625065326690673828e+00 1.713458776473999023e+00 -2.766431868076324463e-01
1.116000000000000000e+03 7.936080932617187500e+01 -2.788062810897827148e+00 2.269993536174297333e-02 5.036284446716308594e+00 1.517695307731628418e+00 -1.465429216623306274e-01
1.117000000000000000e+03 7.812808227539062500e+01 -8.478954315185546875e+00 -3.200363367795944214e-02 6.543120861053466797e+00 1.953335165977478027e+00 -3.910502791404724121e-01
1.118000000000000000e+03 7.807797241210937500e+01 -5.677002429962158203e+00 -7.126073818653821945e-03 6.158122539520263672e+00 1.845298886299133301e+00 -4.240348637104034424e-01
1.119000000000000000e+03 7.937847900390625000e+01 -9.785129547119140625e+00 -1.690808311104774475e-02 6.741923332214355469e+00 2.017504453659057617e+00 -1.417233943939208984e-01
1.120000000000000000e+03 7.819869232177734375e+01 -1.535559463500976562e+01 -7.914952188730239868e-02 7.300899982452392578e+00 2.166525125503540039e+00 -8.243831992149353027e-02
1.121000000000000000e+03 7.815398406982421875e+01 -1.263008117675781250e+01 -4.386283829808235168e-02 7.070169448852539062e+00 2.107892036437988281e+00 -2.549473941326141357e-01
1.122000000000000000e+03 7.941703796386718750e+01 -1.670764732360839844e+01 -1.995976269245147705e-02 7.585103511810302734e+00 2.269543170928955078e+00 1.408462319523096085e-02
1.123000000000000000e+03 7.715525817871093750e+01 -2.173231124877929688e+01 -6.113710254430770874e-02 7.252187252044677734e+00 2.157315015792846680e+00 5.751850008964538574e-01
1.124000000000000000e+03 7.831807708740234375e+01 -1.935794830322265625e+01 -9.414803981781005859e-02 7.233547210693359375e+00 2.141819715499877930e+00 3.011864125728607178e-01
1.125000000000000000e+03 1.027103042602539062e+01 -1.737034034729003906e+01 2.285672351717948914e-03 1.902922813314944506e-04 7.427893579006195068e-04 -1.088886347133666277e-04
1.126000000000000000e+03 8.439893722534179688e+00 -1.838817214965820312e+01 1.892608474008738995e-03 -9.434693492949008942e-05 5.394784384407103062e-04 -6.067372669349424541e-05
1.127000000000000000e+03 2.652228927612304688e+01 -3.341540145874023438e+01 -2.578307315707206726e-02 -8.156520314514636993e-03 -1.018187776207923889e-02 -1.795990392565727234e-02
1.128000000000000000e+03 3.787703704833984375e+01 -3.359704208374023438e+01 -4.830684065818786621e-01 -1.771364808082580566e-01 -1.980614662170410156e-01 -2.738407552242279053e-01
1.129000000000000000e+03 8.706048011779785156e+00 -1.722556304931640625e+01 -1.930656027980148792e-03 -4.376729775685817003e-04 -7.104987162165343761e-04 -9.345014404971152544e-05
1.130000000000000000e+03 3.968838500976562500e+01 -3.402819061279296875e+01 -1.225924789905548096e-01 -3.355748653411865234e-01 -1.374502032995223999e-01 -1.998206973075866699e-01
1.131000000000000000e+03 3.966064453125000000e+01 -3.274549102783203125e+01 -4.576706886291503906e-01 -4.287140667438507080e-01 -2.659154236316680908e-01 -2.963793277740478516e-01
1.132000000000000000e+03 7.105474853515625000e+01 1.313341808319091797e+01 -1.600325405597686768e-01 9.023488044738769531e+00 2.659036636352539062e+00 -2.067976072430610657e-02
1.133000000000000000e+03 2.950938224792480469e+01 -3.185643577575683594e+01 -3.946409001946449280e-02 1.162098906934261322e-02 -8.352930657565593719e-03 5.491277202963829041e-03
1.134000000000000000e+03 7.317312240600585938e+00 -2.414671325683593750e+01 2.291697543114423752e-03 -7.998382352525368333e-05 6.635141326114535332e-04 -4.045167952426709235e-05
1.135000000000000000e+03 2.809304618835449219e+01 -3.181695938110351562e+01 -3.251965716481208801e-02 -7.121816743165254593e-04 -9.969551116228103638e-03 -4.523587413132190704e-03
1.136000000000000000e+03 2.132030487060546875e+01 -3.310050964355468750e+01 -3.136770566925406456e-03 -2.814362989738583565e-03 -1.785340020433068275e-03 -6.189930252730846405e-03
1.137000000000000000e+03 9.677345275878906250e+00 -2.926731109619140625e+01 5.963789299130439758e-04 -6.640016799792647362e-04 -2.028681956289801747e-05 -1.274552429094910622e-03
1.138000000000000000e+03 2.813813591003417969e+01 -3.345666122436523438e+01 -4.280856251716613770e-02 6.012716796249151230e-03 -1.103875320404767990e-02 -2.371007949113845825e-02
1.139000000000000000e+03 1.495814418792724609e+01 -3.290827178955078125e+01 4.550870507955551147e-03 -2.435816451907157898e-03 6.345162400975823402e-04 -6.474939436884596944e-05
1.140000000000000000e+03 4.483817672729492188e+01 -2.670096969604492188e+01 6.273575127124786377e-02 5.449980869889259338e-02 3.517067059874534607e-02 -3.270848393440246582e-01
1.141000000000000000e+03 1.974320411682128906e+01 -3.303437423706054688e+01 1.263729878701269627e-03 -5.024459678679704666e-04 2.283851936226710677e-04 -2.681977814063429832e-03
1.142000000000000000e+03 4.316577529907226562e+01 -2.512839317321777344e+01 2.240742556750774384e-02 -7.240890860557556152e-01 -2.105044871568679810e-01 -3.948032259941101074e-01
1.143000000000000000e+03 5.224283981323242188e+01 -1.482239341735839844e+01 -1.852482080459594727e+00 7.573246479034423828e+00 1.716229438781738281e+00 -2.230671882629394531e+00
1.144000000000000000e+03 5.207963180541992188e+01 3.341259384155273438e+01 -1.803839802742004395e-01 2.784937024116516113e-01 2.943291701376438141e-02 9.523463249206542969e-02
1.145000000000000000e+03 6.570452880859375000e+01 3.576457977294921875e+01 -7.347822189331054688e-01 4.693787097930908203e-01 -7.962105423212051392e-02 1.420974135398864746e-01
1.146000000000000000e+03 7.100428771972656250e+01 2.408331298828125000e+01 2.666736841201782227e-01 7.889981269836425781e+00 2.446996450424194336e+00 6.772954016923904419e-02
1.147000000000000000e+03 7.095758056640625000e+01 2.557041740417480469e+01 3.101872503757476807e-01 7.397073745727539062e+00 2.312178373336791992e+00 3.710057586431503296e-02
1.148000000000000000e+03 6.973296356201171875e+01 1.168381595611572266e+01 -4.107854962348937988e-01 7.918169498443603516e+00 2.252215147018432617e+00 1.320242285728454590e-01
1.149000000000000000e+03 4.593416213989257812e+01 3.580512851476669312e-02 8.908234238624572754e-01 4.682374000549316406e+00 1.671959161758422852e+00 -2.209902286529541016e+00
1.150000000000000000e+03 6.649448394775390625e+01 -8.865058898925781250e+00 1.020010113716125488e+00 4.390699386596679688e+00 1.623212814331054688e+00 1.934216380119323730e+00
1.151000000000000000e+03 7.046066284179687500e+01 2.885566139221191406e+01 -1.322479099035263062e-01 5.758898735046386719e+00 1.687995195388793945e+00 8.508405834436416626e-02
1.152000000000000000e+03 6.300834274291992188e+01 -1.338367748260498047e+01 1.910189867019653320e+00 1.674219131469726562e+00 1.075322747230529785e+00 1.586108088493347168e+00
1.153000000000000000e+03 6.488961029052734375e+01 -1.319705486297607422e+01 1.397436141967773438e+00 2.459995985031127930e+00 1.157229661941528320e+00 1.308690667152404785e+00
1.154000000000000000e+03 4.059829711914062500e+01 1.503509140014648438e+01 5.536637902259826660e-01 5.755480289459228516e+00 1.892743229866027832e+00 -9.927263110876083374e-02
1.155000000000000000e+03 4.616199111938476562e+01 2.930855560302734375e+01 1.689626127481460571e-01 1.966157317161560059e+00 6.405360102653503418e-01 6.176234483718872070e-01
1.156000000000000000e+03 4.333623886108398438e+01 2.374205017089843750e+01 4.162846803665161133e-01 3.473816633224487305e+00 1.167030453681945801e+00 8.447859287261962891e-01
1.157000000000000000e+03 4.729949188232421875e+01 3.029345321655273438e+01 1.154806837439537048e-01 1.616544961929321289e+00 5.196077227592468262e-01 6.102914214134216309e-01
1.158000000000000000e+03 4.393268966674804688e+01 2.514279365539550781e+01 3.379829227924346924e-01 3.083037376403808594e+00 1.026306152343750000e+00 8.470537662506103516e-01
1.159000000000000000e+03 6.877142333984375000e+01 3.169373130798339844e+01 -8.702638745307922363e-01 3.118722915649414062e+00 6.745377182960510254e-01 -7.115020602941513062e-02
1.160000000000000000e+03 6.792919921875000000e+01 3.305308532714843750e+01 -9.706089496612548828e-01 2.008772850036621094e+00 3.114491701126098633e-01 -3.409109637141227722e-02
1.161000000000000000e+03 4.859689712524414062e+01 -1.023458862304687500e+01 1.210553646087646484e+00 5.202536582946777344e+00 1.923927068710327148e+00 -2.393293857574462891e+00
1.162000000000000000e+03 4.355760955810546875e+01 2.042692565917968750e+01 4.265309274196624756e-01 4.565335273742675781e+00 1.497559785842895508e+00 1.255679965019226074e+00
1.163000000000000000e+03 4.923657226562500000e+01 -4.729876995086669922e+00 7.404686808586120605e-01 5.859076499938964844e+00 1.979863524436950684e+00 -2.106487274169921875e+00
1.164000000000000000e+03 6.236655807495117188e+01 -2.086865425109863281e+01 1.720183938741683960e-01 4.658396542072296143e-01 1.913574188947677612e-01 1.045792579650878906e+00
1.165000000000000000e+03 7.105782318115234375e+01 1.179572200775146484e+01 -5.895493030548095703e-01 9.439168930053710938e+00 2.654885768890380859e+00 8.379400521516799927e-02
1.166000000000000000e+03 6.256499481201171875e+01 -1.500857830047607422e+01 1.416350007057189941e+00 1.366342425346374512e+00 8.348076939582824707e-01 1.252234578132629395e+00
1.167000000000000000e+03 4.056669998168945312e+01 1.335835456848144531e+01 6.388881206512451172e-01 6.181026935577392578e+00 2.045974493026733398e+00 -5.710490345954895020e-01
1.168000000000000000e+03 7.035937500000000000e+01 -2.666389703750610352e+00 5.810270905494689941e-01 9.642893791198730469e+00 3.067176103591918945e+00 1.557812571525573730e+00
1.169000000000000000e+03 7.024980163574218750e+01 3.327787399291992188e+00 1.495996564626693726e-01 1.345609474182128906e+01 4.081708431243896484e+00 3.699624836444854736e-01
1.170000000000000000e+03 4.166259002685546875e+01 5.780380725860595703e+00 1.122871637344360352e+00 5.605740547180175781e+00 2.018583536148071289e+00 -1.738916039466857910e+00
1.171000000000000000e+03 4.800832748413085938e+01 -4.912672042846679688e+00 8.068872690200805664e-01 5.199556827545166016e+00 1.801933169364929199e+00 -2.233105897903442383e+00
1.172000000000000000e+03 4.830212020874023438e+01 -2.130640029907226562e+00 7.735897302627563477e-01 5.017269134521484375e+00 1.737257719039916992e+00 -2.076339960098266602e+00
1.173000000000000000e+03 7.090357971191406250e+01 2.720060348510742188e+01 1.150188297033309937e-01 6.664436817169189453e+00 2.033836841583251953e+00 1.025794595479965210e-01
1.174000000000000000e+03 6.988914489746093750e+01 -4.029943943023681641e+00 5.563490390777587891e-01 8.642978668212890625e+00 2.759798288345336914e+00 1.648926854133605957e+00
1.175000000000000000e+03 4.531794738769531250e+01 1.248651504516601562e+00 1.022446274757385254e+00 4.695762634277343750e+00 1.715462684631347656e+00 -2.304678916931152344e+00
1.176000000000000000e+03 4.523648834228515625e+01 4.054056644439697266e+00 1.429085373878479004e+00 5.039885520935058594e+00 1.940691351890563965e+00 -2.708458900451660156e+00
1.177000000000000000e+03 4.524562072753906250e+01 2.802551651000976562e+01 2.263074964284896851e-01 2.258842229843139648e+00 7.455449104309082031e-01 7.039974331855773926e-01
1.178000000000000000e+03 6.020758438110351562e+01 -1.669635772705078125e+01 1.151207312941551208e-01 9.843228459358215332e-01 3.298330903053283691e-01 1.542818903923034668e+00
1.179000000000000000e+03 4.652086257934570312e+01 -1.175120472908020020e+00 8.177267313003540039e-01 4.752044200897216797e+00 1.670931220054626465e+00 -2.222366094589233398e+00
1.180000000000000000e+03 6.883930206298828125e+01 -6.732082366943359375e+00 5.014851689338684082e-01 6.735379695892333984e+00 2.171059608459472656e+00 1.603489875793457031e+00
1.181000000000000000e+03 4.732154464721679688e+01 -9.888998031616210938e+00 1.097493290901184082e+00 4.169432163238525391e+00 1.580077528953552246e+00 -2.159702062606811523e+00
1.182000000000000000e+03 6.824015808105468750e+01 -8.078445434570312500e+00 6.047279238700866699e-01 5.760889530181884766e+00 1.909685254096984863e+00 1.546836018562316895e+00
1.183000000000000000e+03 7.023243713378906250e+01 4.746977806091308594e+00 2.931247651576995850e-02 1.279403209686279297e+01 3.847003459930419922e+00 1.449873149394989014e-01
1.184000000000000000e+03 7.124725341796875000e+01 9.067027091979980469e+00 -9.437588602304458618e-02 1.009101867675781250e+01 2.998992681503295898e+00 3.399353325366973877e-01
1.185000000000000000e+03 7.112789916992187500e+01 1.044838619232177734e+01 -6.236770153045654297e-01 9.564503669738769531e+00 2.682248115539550781e+00 2.796586751937866211e-01
1.186000000000000000e+03 4.182666015625000000e+01 1.959452438354492188e+01 3.414458930492401123e-01 4.678030490875244141e+00 1.505842924118041992e+00 6.861663460731506348e-01
1.187000000000000000e+03 6.698583221435546875e+01 -1.292455291748046875e+01 8.989039063453674316e-01 3.506650924682617188e+00 1.321666479110717773e+00 8.063025474548339844e-01
1.188000000000000000e+03 4.969880294799804688e+01 -1.099156188964843750e+01 1.206907391548156738e+00 6.161350250244140625e+00 2.210477352142333984e+00 -2.708128452301025391e+00
1.189000000000000000e+03 5.144353103637695312e+01 -1.154805660247802734e+01 1.149980425834655762e+00 8.669221878051757812e+00 2.945760726928710938e+00 -3.245394468307495117e+00
1.190000000000000000e+03 4.974127960205078125e+01 3.306283950805664062e+01 -1.377644538879394531e-01 8.513129949569702148e-01 2.140645682811737061e-01 2.983687520027160645e-01
1.191000000000000000e+03 6.938557434082031250e+01 -5.384802818298339844e+00 5.496997833251953125e-01 7.619533061981201172e+00 2.450769901275634766e+00 1.605860114097595215e+00
1.192000000000000000e+03 4.455450057983398438e+01 2.658214759826660156e+01 3.163317739963531494e-01 2.655438661575317383e+00 8.915311098098754883e-01 7.899436354637145996e-01
1.193000000000000000e+03 4.171056365966796875e+01 8.798174858093261719e+00 1.321805596351623535e+00 7.087429046630859375e+00 2.522770404815673828e+00 -1.621292471885681152e+00
1.194000000000000000e+03 4.223391342163085938e+01 7.439790248870849609e+00 1.275059938430786133e+00 6.738195896148681641e+00 2.403976917266845703e+00 -2.127908706665039062e+00
1.195000000000000000e+03 4.341719436645507812e+01 4.890964031219482422e+00 1.212821722030639648e+00 5.629096508026123047e+00 2.052575588226318359e+00 -2.333435773849487305e+00
1.196000000000000000e+03 4.280788803100585938e+01 6.141244411468505859e+00 1.298454403877258301e+00 5.991757869720458984e+00 2.187063694000244141e+00 -2.297151803970336914e+00
1.197000000000000000e+03 4.839693450927734375e+01 3.103685379028320312e+01 1.417892128229141235e-01 1.226910114288330078e+00 4.106097817420959473e-01 5.094368457794189453e-01
1.198000000000000000e+03 6.991620635986328125e+01 2.136938476562500000e+01 6.361701991409063339e-03 8.465860366821289062e+00 2.541666746139526367e+00 1.087255328893661499e-01
1.199000000000000000e+03 7.105014801025390625e+01 2.268026924133300781e+01 1.720968037843704224e-01 8.202021598815917969e+00 2.512235641479492188e+00 1.277166008949279785e-01
1.200000000000000000e+03 4.348081970214843750e+01 2.065848112106323242e+00 8.911160230636596680e-01 4.735326290130615234e+00 1.687932729721069336e+00 -2.077790498733520508e+00
1.201000000000000000e+03 7.826690673828125000e+01 2.841775655746459961e+00 9.418232738971710205e-02 5.478609561920166016e+00 1.671837568283081055e+00 1.403962224721908569e-01
1.202000000000000000e+03 6.991793060302734375e+01 1.999191284179687500e+01 8.126069791615009308e-03 8.676672935485839844e+00 2.605439662933349609e+00 1.253508478403091431e-01
1.203000000000000000e+03 7.107894897460937500e+01 2.132790946960449219e+01 6.153048574924468994e-02 8.448578834533691406e+00 2.553032875061035156e+00 2.272328734397888184e-01
1.204000000000000000e+03 7.583650207519531250e+01 1.503833770751953125e+01 -2.769294567406177521e-02 7.969178199768066406e+00 2.382445573806762695e+00 5.172991752624511719e-01
1.205000000000000000e+03 7.106591033935546875e+01 1.863609695434570312e+01 3.369731828570365906e-02 8.771937370300292969e+00 2.641690492630004883e+00 3.375641703605651855e-01
1.206000000000000000e+03 1.381065249443054199e+00 -4.005984115600585938e+01 3.394057508558034897e-03 1.392717938870191574e-03 1.436032704077661037e-03 5.747014656662940979e-04
1.207000000000000000e+03 7.161538600921630859e-01 3.740190124511718750e+01 1.469732914119958878e-02 -1.541040182113647461e+00 -4.579028785228729248e-01 -2.247374318540096283e-02
1.208000000000000000e+03 7.259098291397094727e-01 3.462838363647460938e+01 3.471992444247007370e-03 -1.593282461166381836e+00 -4.769431352615356445e-01 -1.114368811249732971e-02
1.209000000000000000e+03 7.388244271278381348e-01 3.322346878051757812e+01 2.429324900731444359e-03 -1.608684420585632324e+00 -4.818765223026275635e-01 -5.276783369481563568e-03
1.210000000000000000e+03 6.958581209182739258e-01 2.754865264892578125e+01 3.676195861771702766e-03 -1.618695497512817383e+00 -4.845057725906372070e-01 3.407006734050810337e-04
1.211000000000000000e+03 6.825605630874633789e-01 2.613235473632812500e+01 -2.121278812410309911e-04 -1.612781763076782227e+00 -4.838981628417968750e-01 4.426584579050540924e-03
1.212000000000000000e+03 7.713163495063781738e-01 -3.597073745727539062e+01 -2.792953047901391983e-03 5.795526667498052120e-04 -6.640201318077743053e-04 -6.375872180797159672e-04
1.213000000000000000e+03 2.037135362625122070e+00 -3.296339035034179688e+01 3.119833534583449364e-03 2.088031760649755597e-04 9.985909564420580864e-04 8.051205659285187721e-04
1.214000000000000000e+03 3.381876707077026367e+00 2.566627883911132812e+01 2.274670824408531189e-02 -1.298802971839904785e+00 -3.828168809413909912e-01 3.316079825162887573e-02
1.215000000000000000e+03 3.269480943679809570e+00 2.424073028564453125e+01 2.681940607726573944e-02 -1.294947743415832520e+00 -3.804384768009185791e-01 4.994594305753707886e-02
1.216000000000000000e+03 2.225141048431396484e+00 3.448628997802734375e+01 9.637614712119102478e-03 -1.442479014396667480e+00 -4.298524260520935059e-01 -1.402128580957651138e-02
1.217000000000000000e+03 2.260863304138183594e+00 3.307310867309570312e+01 6.693968549370765686e-03 -1.431721329689025879e+00 -4.275082051753997803e-01 -1.033202558755874634e-02
1.218000000000000000e+03 3.240997791290283203e+00 3.914360427856445312e+01 2.266320632770657539e-03 -1.392307996749877930e+00 -4.170124828815460205e-01 -1.968041248619556427e-02
1.219000000000000000e+03 1.958481192588806152e+00 -2.883292961120605469e+01 -2.137388102710247040e-03 -3.548753375071100891e-05 -6.518626469187438488e-04 -4.266393953002989292e-04
1.220000000000000000e+03 2.406987190246582031e+00 -3.686628723144531250e+01 -2.117648487910628319e-03 -2.565191061876248568e-05 -6.429901113733649254e-04 -1.131050288677215576e-03
1.221000000000000000e+03 1.794206738471984863e+00 -1.623303222656250000e+01 1.015919609926640987e-03 1.131055905716493726e-04 3.387075557839125395e-04 1.667857432039454579e-04
1.222000000000000000e+03 3.108480930328369141e+00 -2.156677818298339844e+01 -1.785608124919235706e-03 5.063382559455931187e-05 -5.204922636039555073e-04 -1.990834571188315749e-04
1.223000000000000000e+03 6.163819432258605957e-01 2.048358535766601562e+01 8.343789959326386452e-04 -1.489907979965209961e+00 -4.467220902442932129e-01 2.409563213586807251e-02
1.224000000000000000e+03 6.074236035346984863e-01 1.907701492309570312e+01 4.534239880740642548e-03 -1.425666213035583496e+00 -4.263395667076110840e-01 2.970503456890583038e-02
1.225000000000000000e+03 5.892521142959594727e-01 1.486320590972900391e+01 6.729636806994676590e-04 -1.139318585395812988e+00 -3.415936827659606934e-01 4.960742592811584473e-02
1.226000000000000000e+03 5.783637166023254395e-01 1.345736598968505859e+01 4.006613977253437042e-03 -1.010918140411376953e+00 -3.020734488964080811e-01 5.479406565427780151e-02
1.227000000000000000e+03 5.292169451713562012e-01 7.850804328918457031e+00 -1.544106402434408665e-03 -3.857309818267822266e-01 -1.161825284361839294e-01 5.864031985402107239e-02
1.228000000000000000e+03 3.685553312301635742e+00 -3.901191329956054688e+01 -2.551206387579441071e-03 1.612248132005333900e-03 -2.816874475684016943e-04 -3.398748813197016716e-04
1.229000000000000000e+03 3.933707714080810547e+00 -3.522715377807617188e+01 -3.844210878014564514e-03 -1.401652552885934711e-04 -1.195312826894223690e-03 1.115351216867566109e-03
1.230000000000000000e+03 2.163679122924804688e+00 -3.430272293090820312e+01 -3.258579177781939507e-03 6.141584017314016819e-04 -7.933262386359274387e-04 1.838184834923595190e-04
1.231000000000000000e+03 1.966832160949707031e+00 -3.160254478454589844e+01 -2.634130883961915970e-03 3.085878561250865459e-04 -6.976629374548792839e-04 -2.965375024359673262e-04
1.232000000000000000e+03 1.976448655128479004e+00 -2.742370605468750000e+01 2.004816196858882904e-03 1.678312692092731595e-04 6.517942529171705246e-04 4.755838017445057631e-04
1.233000000000000000e+03 1.989160895347595215e+00 -2.600095748901367188e+01 -1.769341179169714451e-03 -1.065836913767270744e-04 -5.627774517051875591e-04 -3.600373747758567333e-04
1.234000000000000000e+03 3.254438877105712891e+00 -2.294441032409667969e+01 1.593516673892736435e-03 1.794211420929059386e-04 5.318813491612672806e-04 1.718576968414708972e-04
1.235000000000000000e+03 1.786391973495483398e+00 -1.900631141662597656e+01 1.355567481368780136e-03 2.971445246657822281e-05 4.155845672357827425e-04 2.629390219226479530e-04
1.236000000000000000e+03 5.905291438102722168e-01 -1.911615371704101562e+01 -1.303052762523293495e-03 -2.528400545998010784e-05 -3.985010262113064528e-04 -1.683190348558127880e-04
1.237000000000000000e+03 3.015851259231567383e+00 -1.891256332397460938e+01 -1.336858607828617096e-03 -7.917661423562094569e-05 -4.248105688020586967e-04 -4.448762047104537487e-04
1.238000000000000000e+03 3.025395870208740234e+00 -1.332797718048095703e+01 -9.148913086391985416e-04 -1.142970795626752079e-04 -3.087565128225833178e-04 -5.821635932079516351e-05
1.239000000000000000e+03 5.903559327125549316e-01 -1.207089805603027344e+01 7.757024723105132580e-04 1.997257822949904948e-05 2.387025015195831656e-04 3.006113001902122051e-05
1.240000000000000000e+03 1.774006962776184082e+00 -1.199727439880371094e+01 -8.306882809847593307e-04 -2.079909972962923348e-05 -2.554462116677314043e-04 -2.676876829355023801e-05
1.241000000000000000e+03 1.674614071846008301e+00 -6.443348407745361328e+00 -6.780133116990327835e-04 1.053572395903756842e-05 -2.002432738663628697e-04 -2.499622723917127587e-06
1.242000000000000000e+03 2.949070930480957031e+00 -2.945011138916015625e+00 1.197316305479034781e-04 1.926389668369665742e-04 9.371118358103558421e-05 -2.090452762786298990e-04
1.243000000000000000e+03 3.137242794036865234e+00 -4.202198028564453125e+00 5.749035044573247433e-04 1.290520503971492872e-05 1.763426116667687893e-04 1.383609342155978084e-04
1.244000000000000000e+03 1.526618123054504395e+00 -3.014830827713012695e+00 1.390873803757131100e-04 9.486512863077223301e-05 7.018574979156255722e-05 -9.855025564320385456e-05
1.245000000000000000e+03 5.439599752426147461e-01 5.011766433715820312e+00 -4.884293768554925919e-03 -1.091733500361442566e-01 -3.421729058027267456e-02 4.137051105499267578e-02
1.246000000000000000e+03 6.582142353057861328e+00 4.102599143981933594e+00 -2.871642708778381348e-01 -3.174578845500946045e-01 -1.813866496086120605e-01 4.878091812133789062e-01
1.247000000000000000e+03 1.664248585700988770e+00 1.058392810821533203e+01 3.920624032616615295e-03 -7.003340721130371094e-01 -2.089240401983261108e-01 1.801857948303222656e-01
1.248000000000000000e+03 5.528085827827453613e-01 1.064941501617431641e+01 2.097117248922586441e-03 -7.116242051124572754e-01 -2.128581255674362183e-01 6.213422119617462158e-02
1.249000000000000000e+03 1.733400106430053711e+00 1.335018157958984375e+01 1.065973658114671707e-02 -9.464699625968933105e-01 -2.807430624961853027e-01 1.604003310203552246e-01
1.250000000000000000e+03 1.802914738655090332e+00 1.889597702026367188e+01 1.160527672618627548e-02 -1.294505476951599121e+00 -3.848700523376464844e-01 8.980951458215713501e-02
1.251000000000000000e+03 1.984975695610046387e+00 2.448773193359375000e+01 9.100167080760002136e-03 -1.437594175338745117e+00 -4.285481870174407959e-01 2.977688051760196686e-02
1.252000000000000000e+03 1.990189552307128906e+01 -1.225008201599121094e+01 -2.293606667080894113e-04 -1.773920084815472364e-04 -1.220258054672740400e-04 -1.022496508085168898e-04
1.253000000000000000e+03 1.307033252716064453e+01 -1.312294387817382812e+01 3.807865723501890898e-04 5.399790825322270393e-04 2.762296935543417931e-04 -1.677494583418592811e-04
1.254000000000000000e+03 5.538870239257812500e+01 -3.829545593261718750e+01 -9.562725424766540527e-01 3.867404937744140625e+00 8.733397126197814941e-01 -4.003974795341491699e-01
1.255000000000000000e+03 5.834044265747070312e+01 -3.420099258422851562e+01 9.762468934059143066e-01 2.207202196121215820e+00 9.550347328186035156e-01 -1.378275752067565918e+00
1.256000000000000000e+03 1.096980953216552734e+01 -1.439402866363525391e+01 -2.627336070872843266e-04 -8.621818415122106671e-05 -1.046855395543389022e-04 -6.069215014576911926e-04
1.257000000000000000e+03 5.091146469116210938e+01 -1.780217552185058594e+01 8.303987383842468262e-01 4.993506431579589844e+00 1.747171521186828613e+00 -6.054597377777099609e+00
1.258000000000000000e+03 5.172649765014648438e+01 -1.790545272827148438e+01 -3.881352841854095459e-01 1.047418689727783203e+01 3.025815725326538086e+00 -7.300436973571777344e+00
1.259000000000000000e+03 5.045169448852539062e+01 -1.209886646270751953e+01 1.682260155677795410e+00 6.729034900665283203e+00 2.523388624191284180e+00 -2.906181573867797852e+00
1.260000000000000000e+03 4.991707992553710938e+01 -1.755470085144042969e+01 -4.609810933470726013e-02 2.697355270385742188e+00 7.953771948814392090e-01 -3.926944494247436523e+00
1.261000000000000000e+03 5.109692001342773438e+01 -1.538329887390136719e+01 -1.958444476127624512e+00 7.245836734771728516e+00 1.586217641830444336e+00 -3.204011201858520508e+00
1.262000000000000000e+03 5.065835952758789062e+01 -1.781112098693847656e+01 6.339732408523559570e-01 3.969484806060791016e+00 1.381037354469299316e+00 -5.571091175079345703e+00
1.263000000000000000e+03 5.093010711669921875e+01 -1.742293167114257812e+01 -3.822970092296600342e-01 5.916091442108154297e+00 1.660138368606567383e+00 -5.805418968200683594e+00
1.264000000000000000e+03 4.995186614990234375e+01 -1.819806671142578125e+01 1.471104472875595093e-01 1.319287896156311035e+00 4.399195015430450439e-01 -3.264768838882446289e+00
1.265000000000000000e+03 5.135536193847656250e+01 -2.218201255798339844e+01 -2.989522218704223633e-01 6.277935981750488281e+00 1.793695211410522461e+00 2.319866895675659180e+00
1.266000000000000000e+03 5.130128860473632812e+01 -1.752172470092773438e+01 -3.848680853843688965e-01 7.474743843078613281e+00 2.126962661743164062e+00 -6.204083919525146484e+00
1.267000000000000000e+03 5.165901184082031250e+01 -1.624655723571777344e+01 -2.538837671279907227e+00 8.484064102172851562e+00 1.783567786216735840e+00 -4.242793083190917969e+00
1.268000000000000000e+03 5.342151260375976562e+01 -2.103397560119628906e+01 1.524390101432800293e+00 1.160747337341308594e+01 3.939559221267700195e+00 -2.943596839904785156e+00
1.269000000000000000e+03 4.956988906860351562e+01 -2.171445465087890625e+01 1.466056406497955322e-01 1.122022628784179688e+00 3.805884718894958496e-01 9.121859073638916016e-01
1.270000000000000000e+03 5.014805603027343750e+01 -2.190633583068847656e+01 3.713224530220031738e-01 2.367236375808715820e+00 8.215676546096801758e-01 1.669236540794372559e+00
1.271000000000000000e+03 5.092980957031250000e+01 -2.182325172424316406e+01 2.847707271575927734e-01 4.594665527343750000e+00 1.463830828666687012e+00 2.549390792846679688e+00
1.272000000000000000e+03 4.862757492065429688e+01 -2.251285171508789062e+01 1.170576065778732300e-01 9.440371990203857422e-01 3.183284401893615723e-01 4.317001700401306152e-01
1.273000000000000000e+03 1.619664382934570312e+01 -9.890539169311523438e+00 -2.479906834196299314e-04 -5.953256913926452398e-05 -9.225698158843442798e-05 4.639496546587906778e-05
1.274000000000000000e+03 1.677060317993164062e+01 -7.961049556732177734e+00 2.421053650323301554e-04 1.300844014622271061e-04 1.116569328587502241e-04 -5.894722926313988864e-05
1.275000000000000000e+03 1.358927631378173828e+01 -6.091311454772949219e+00 -3.783277643378823996e-04 -3.717930667335167527e-05 -1.246521132998168468e-04 -2.681418554857373238e-04
1.276000000000000000e+03 1.846524238586425781e+01 -1.076176261901855469e+01 -2.628214715514332056e-04 -9.423545634490437806e-06 -8.167351188603788614e-05 -7.586522406199947000e-05
1.277000000000000000e+03 1.682231903076171875e+01 -7.008905887603759766e+00 1.859712065197527409e-04 1.453294680686667562e-04 9.939019946614280343e-05 3.287484651082195342e-05
1.278000000000000000e+03 1.881821632385253906e+01 -9.632100105285644531e+00 -1.578677911311388016e-04 -7.697023102082312107e-05 -7.045140228001400828e-05 -9.371052874485030770e-05
1.279000000000000000e+03 5.246286010742187500e+01 -1.753754997253417969e+01 -1.913803219795227051e+00 1.255937767028808594e+01 3.193672418594360352e+00 -4.090102195739746094e+00
1.280000000000000000e+03 5.467639923095703125e+01 -1.680803680419921875e+01 -3.239524841308593750e+00 2.693404197692871094e+00 -1.638361662626266479e-01 4.400612711906433105e-01
1.281000000000000000e+03 4.595964050292968750e+01 -2.355707740783691406e+01 5.492989346385002136e-02 6.049269810318946838e-02 3.462677821516990662e-02 -4.186168015003204346e-01
1.282000000000000000e+03 4.762726974487304688e+01 -2.351917457580566406e+01 2.161921113729476929e-01 7.402346730232238770e-01 2.869280278682708740e-01 6.326112151145935059e-02
1.283000000000000000e+03 4.231090927124023438e+01 -1.893859291076660156e+01 -2.605147838592529297e+00 6.436560153961181641e-01 -5.884475708007812500e-01 6.872662305831909180e-01
1.284000000000000000e+03 1.496728992462158203e+01 -6.165594577789306641e+00 3.057532594539225101e-04 8.490215259371325374e-05 1.171966214315034449e-04 1.470409915782511234e-04
1.285000000000000000e+03 1.481302547454833984e+01 -5.295818805694580078e+00 2.791730512399226427e-04 8.806934056337922812e-05 1.101727175409905612e-04 1.274147653020918369e-04
1.286000000000000000e+03 1.444871044158935547e+01 -5.817606449127197266e+00 -3.257380158174782991e-04 -7.235205703182145953e-05 -1.194270225823856890e-04 -1.435312442481517792e-04
1.287000000000000000e+03 1.772318267822265625e+01 -7.934402942657470703e+00 2.587945200502872467e-04 3.623325392254628241e-05 8.850833546603098512e-05 4.449087646207772195e-05
1.288000000000000000e+03 1.121061992645263672e+01 -3.321950912475585938e+00 1.644961594138294458e-04 1.945916155818849802e-04 1.077263295883312821e-04 5.772049917140975595e-05
1.289000000000000000e+03 1.270625972747802734e+01 -4.883591175079345703e+00 3.221525403205305338e-04 1.036424509948119521e-04 1.277385017601773143e-04 3.949120582547038794e-06
1.290000000000000000e+03 1.186666107177734375e+01 -3.620403528213500977e+00 -1.863306388258934021e-04 -2.008271985687315464e-04 -1.161473483080044389e-04 -5.726765812141820788e-05
1.291000000000000000e+03 1.092012310028076172e+01 -3.972927331924438477e+00 -2.112862566718831658e-04 -1.837589807109907269e-04 -1.185135697596706450e-04 -5.227952351560816169e-05
1.292000000000000000e+03 1.776004600524902344e+01 -9.353774070739746094e+00 -7.568459841422736645e-05 -5.397935819928534329e-05 -3.889918662025593221e-05 8.553367479180451483e-06
1.293000000000000000e+03 1.845494842529296875e+01 -9.012212753295898438e+00 1.806537329684942961e-04 2.113018308591563255e-05 6.053517427062615752e-05 7.657686364836990833e-05
1.294000000000000000e+03 1.752678489685058594e+01 -8.776361465454101562e+00 1.877792237792164087e-04 -6.052734897821210325e-05 3.817556353169493377e-05 8.717032324057072401e-05
1.295000000000000000e+03 1.599800586700439453e+01 -1.122621440887451172e+01 -2.849004522431641817e-04 1.140266031143255532e-04 -5.126215182826854289e-05 1.848195970524102449e-04
1.296000000000000000e+03 8.109155654907226562e+00 -4.270187854766845703e+00 1.722935267025604844e-04 1.783321058610454202e-04 1.051876897690817714e-04 1.474495220463722944e-04
1.297000000000000000e+03 9.445765495300292969e+00 -4.296322822570800781e+00 2.595800324343144894e-04 1.368806697428226471e-04 1.189382091979496181e-04 6.738111096638021991e-06
1.298000000000000000e+03 4.460713577270507812e+01 -2.397464752197265625e+01 2.276788279414176941e-02 -2.454694658517837524e-01 -6.681047379970550537e-02 -5.544308423995971680e-01
1.299000000000000000e+03 4.583243942260742188e+01 -2.492147827148437500e+01 2.112955003976821899e-01 2.579875290393829346e-01 1.407849043607711792e-01 -3.359882235527038574e-01
1.300000000000000000e+03 4.458850479125976562e+01 -2.521330451965332031e+01 1.029825732111930847e-01 -2.108905464410781860e-01 -3.237239271402359009e-02 -4.769767820835113525e-01
1.301000000000000000e+03 4.743054199218750000e+01 -2.438183021545410156e+01 2.960374653339385986e-01 9.420136809349060059e-01 3.714153468608856201e-01 4.374074190855026245e-02
1.302000000000000000e+03 4.701472473144531250e+01 -2.384235000610351562e+01 2.053559273481369019e-01 5.238875150680541992e-01 2.187730371952056885e-01 -1.332754939794540405e-01
1.303000000000000000e+03 5.433918952941894531e+00 2.574764966964721680e+00 -2.700156867504119873e-01 -1.176759228110313416e-01 -1.163074821233749390e-01 2.604032754898071289e-01
1.304000000000000000e+03 2.919414997100830078e+00 3.379599809646606445e+00 -8.517988026142120361e-02 -1.248147860169410706e-01 -6.299839913845062256e-02 1.279273927211761475e-01
1.305000000000000000e+03 2.656514167785644531e+00 4.315289497375488281e+00 -7.199375331401824951e-02 -1.899833977222442627e-01 -7.859314233064651489e-02 1.736055165529251099e-01
1.306000000000000000e+03 3.398575544357299805e+00 2.597642421722412109e+00 -1.191830933094024658e-01 -8.827254176139831543e-02 -6.223668903112411499e-02 1.246237382292747498e-01
1.307000000000000000e+03 4.060634613037109375e+00 2.579594612121582031e+00 -1.624556630849838257e-01 -9.234304726123809814e-02 -7.643961906433105469e-02 1.650475859642028809e-01
1.308000000000000000e+03 5.367991924285888672e+00 3.301832199096679688e+00 -2.557305991649627686e-01 -1.863723248243331909e-01 -1.326308697462081909e-01 3.269468247890472412e-01
1.309000000000000000e+03 6.050708293914794922e+00 3.316415309906005859e+00 -3.077172636985778809e-01 -2.038758248090744019e-01 -1.534779220819473267e-01 3.830108344554901123e-01
1.310000000000000000e+03 6.143237590789794922e+00 2.586161136627197266e+00 -3.433592021465301514e-01 -1.463745385408401489e-01 -1.469201147556304932e-01 3.326624631881713867e-01
1.311000000000000000e+03 7.422228336334228516e+00 3.426471710205078125e+00 -3.920826017856597900e-01 -3.112745285034179688e-01 -2.110071331262588501e-01 5.336510539054870605e-01
1.312000000000000000e+03 6.734158039093017578e+00 3.358015298843383789e+00 -3.638042807579040527e-01 -2.481946945190429688e-01 -1.835996955633163452e-01 4.604470431804656982e-01
1.313000000000000000e+03 2.059108257293701172e+00 2.906856060028076172e+00 -5.753339454531669617e-02 -7.939578592777252197e-02 -4.107875376939773560e-02 7.393171638250350952e-02
1.314000000000000000e+03 9.881500244140625000e+00 3.029401779174804688e+00 -5.741143226623535156e-01 -5.807966589927673340e-01 -3.464733064174652100e-01 7.594469189643859863e-01
1.315000000000000000e+03 4.960255813598632812e+01 -2.339538955688476562e+01 2.002644985914230347e-01 2.645673036575317383e+00 8.537812829017639160e-01 1.094415307044982910e+00
1.316000000000000000e+03 4.925434112548828125e+01 -2.232714080810546875e+01 2.224126160144805908e-01 1.425447583198547363e+00 4.943580329418182373e-01 8.436474800109863281e-01
1.317000000000000000e+03 2.626661872863769531e+01 -1.002256011962890625e+01 -1.210786938667297363e+00 -8.637683987617492676e-01 -6.223666071891784668e-01 1.307063817977905273e+00
1.318000000000000000e+03 2.746856498718261719e+01 -1.386282730102539062e+01 -9.369169473648071289e-01 -5.287156701087951660e-01 -4.396897852420806885e-01 1.121882796287536621e+00
1.319000000000000000e+03 2.703701400756835938e+01 -1.138291835784912109e+01 -1.131460189819335938e+00 -6.590424180030822754e-01 -5.371507406234741211e-01 1.302767753601074219e+00
1.320000000000000000e+03 2.665712547302246094e+01 -1.070372104644775391e+01 -1.165689706802368164e+00 -7.560709118843078613e-01 -5.765281915664672852e-01 1.305842876434326172e+00
1.321000000000000000e+03 2.778696060180664062e+01 -1.274495220184326172e+01 -1.068152308464050293e+00 -4.956803321838378906e-01 -4.691497981548309326e-01 1.252870082855224609e+00
1.322000000000000000e+03 2.941086959838867188e+01 -1.545185089111328125e+01 -1.286197185516357422e+00 -2.484594881534576416e-01 -4.603970050811767578e-01 9.003333449363708496e-01
1.323000000000000000e+03 3.062663269042968750e+01 -1.511733818054199219e+01 -1.462259531021118164e+00 -1.318155229091644287e-01 -4.782225191593170166e-01 9.996817111968994141e-01
1.324000000000000000e+03 4.667910385131835938e+01 -1.753368186950683594e+01 -1.431319713592529297e+00 7.824763059616088867e-01 -1.946530342102050781e-01 -4.590450823307037354e-01
1.325000000000000000e+03 4.461577224731445312e+01 -1.857618904113769531e+01 -2.448874711990356445e+00 6.021925210952758789e-01 -5.540046095848083496e-01 3.499092161655426025e-01
1.326000000000000000e+03 4.314145278930664062e+01 -1.669497871398925781e+01 -1.823218464851379395e+00 9.071023464202880859e-01 -2.748348116874694824e-01 2.546859979629516602e-01
1.327000000000000000e+03 4.527374267578125000e+01 -1.785619926452636719e+01 -1.965749025344848633e+00 6.991721987724304199e-01 -3.799730539321899414e-01 1.311019361019134521e-01
1.328000000000000000e+03 4.042037963867187500e+01 -1.641525077819824219e+01 -2.183752536773681641e+00 2.201597243547439575e-01 -5.890778899192810059e-01 3.517680764198303223e-01
1.329000000000000000e+03 4.131462097167968750e+01 -1.825215530395507812e+01 -2.848576068878173828e+00 5.084125995635986328e-01 -7.020490765571594238e-01 6.421666145324707031e-01
1.330000000000000000e+03 4.340663528442382812e+01 -2.697623062133789062e+01 -6.897430121898651123e-02 -8.634372949600219727e-01 -2.797234654426574707e-01 -4.425773918628692627e-01
1.331000000000000000e+03 2.501472473144531250e+01 -7.976026535034179688e+00 -1.307534933090209961e+00 -1.165890216827392578e+00 -7.420275807380676270e-01 1.284600257873535156e+00
1.332000000000000000e+03 2.411878967285156250e+01 -5.457893848419189453e+00 -1.240210056304931641e+00 -1.176679015159606934e+00 -7.250667214393615723e-01 1.125896334648132324e+00
1.333000000000000000e+03 2.307670974731445312e+01 -5.290213584899902344e+00 -1.357494354248046875e+00 -1.462320089340209961e+00 -8.459442853927612305e-01 1.248306155204772949e+00
1.334000000000000000e+03 1.645294952392578125e+01 -3.267983496189117432e-01 -1.327600359916687012e+00 -1.345954775810241699e+00 -8.020665645599365234e-01 1.216335177421569824e+00
1.335000000000000000e+03 1.399564075469970703e+01 1.980537772178649902e+00 -8.045241236686706543e-01 -1.053386926651000977e+00 -5.573733448982238770e-01 9.698601365089416504e-01
1.336000000000000000e+03 1.713335037231445312e+01 -7.842774987220764160e-01 -1.378460764884948730e+00 -1.435559988021850586e+00 -8.442062139511108398e-01 1.264434337615966797e+00
1.337000000000000000e+03 1.657089042663574219e+01 1.278117179870605469e+00 -7.799621224403381348e-01 -1.286437749862670898e+00 -6.199199557304382324e-01 9.997320175170898438e-01
1.338000000000000000e+03 1.282977008819580078e+01 1.738323569297790527e+00 -9.481790065765380859e-01 -8.953863382339477539e-01 -5.530695915222167969e-01 9.341090917587280273e-01
1.339000000000000000e+03 1.908652687072753906e+01 -2.264123439788818359e+00 -1.487486004829406738e+00 -1.645925998687744141e+00 -9.400236010551452637e-01 1.352144360542297363e+00
1.340000000000000000e+03 2.090510940551757812e+01 -3.932962179183959961e+00 -1.522009253501892090e+00 -1.741643309593200684e+00 -9.790957570075988770e-01 1.403174281120300293e+00
1.341000000000000000e+03 2.137864875793457031e+01 -3.414766311645507812e+00 -1.327404260635375977e+00 -1.569488644599914551e+00 -8.690678477287292480e-01 1.221067428588867188e+00
1.342000000000000000e+03 2.196466445922851562e+01 -4.019965171813964844e+00 -1.342269897460937500e+00 -1.545329809188842773e+00 -8.662799596786499023e-01 1.230221271514892578e+00
1.343000000000000000e+03 1.887446975708007812e+01 -1.201306104660034180e+00 -1.203597784042358398e+00 -1.518128514289855957e+00 -8.165178894996643066e-01 1.173502922058105469e+00
1.344000000000000000e+03 1.821629714965820312e+01 -7.021508812904357910e-01 -1.160762786865234375e+00 -1.472730517387390137e+00 -7.900480031967163086e-01 1.159161210060119629e+00
1.345000000000000000e+03 1.754332542419433594e+01 -2.209965735673904419e-01 -1.116302490234375000e+00 -1.417590022087097168e+00 -7.601677179336547852e-01 1.135539889335632324e+00
1.346000000000000000e+03 1.121570491790771484e+01 -4.845765590667724609e+00 -2.422914549242705107e-04 -2.074581716442480683e-04 -1.349248923361301422e-04 -1.964279726962558925e-05
1.347000000000000000e+03 5.914244174957275391e+00 -2.723557949066162109e+00 -2.489297185093164444e-04 -4.773309410666115582e-05 -8.899884414859116077e-05 -2.253671409562230110e-04
1.348000000000000000e+03 6.628280639648437500e+00 -3.535000801086425781e+00 -1.985380222322419286e-04 -1.319762232014909387e-04 -9.915427654050290585e-05 -2.434314810670912266e-04
1.349000000000000000e+03 4.350931644439697266e+00 -2.709448337554931641e+00 -4.240656562615185976e-04 1.158028244390152395e-04 -9.247884736396372318e-05 -1.696774561423808336e-04
1.350000000000000000e+03 7.416936397552490234e+00 -3.504324436187744141e+00 1.673757651587948203e-04 1.653867220738902688e-04 9.982874325942248106e-05 1.924664102261886001e-04
1.351000000000000000e+03 3.873897314071655273e+00 -7.762692928314208984e+00 6.003953749313950539e-04 2.792373197735287249e-05 1.884957309812307358e-04 1.461864885641261935e-04
1.352000000000000000e+03 5.120953559875488281e+00 -2.724482536315917969e+00 3.237687342334538698e-04 -2.470553590683266521e-05 8.971896022558212280e-05 2.219859015895053744e-04
1.353000000000000000e+03 2.248719453811645508e+00 -3.751801013946533203e+00 -4.411398840602487326e-04 -1.273264933843165636e-04 -1.705399190541356802e-04 1.337754365522414446e-04
1.354000000000000000e+03 1.790070176124572754e+00 -5.038187503814697266e+00 5.964378942735493183e-04 9.043003956321626902e-05 2.060603728750720620e-04 -7.582287071272730827e-05
1.355000000000000000e+03 4.598432922363281250e+01 -1.770385169982910156e+01 -1.725207448005676270e+00 6.893110275268554688e-01 -3.107689321041107178e-01 -1.195117905735969543e-01
1.356000000000000000e+03 1.253875255584716797e+01 2.851905345916748047e+00 -6.230574846267700195e-01 -9.063273072242736816e-01 -4.588154256343841553e-01 8.833922743797302246e-01
1.357000000000000000e+03 1.188153934478759766e+01 3.311649322509765625e+00 -5.262382030487060547e-01 -8.575240969657897949e-01 -4.151286780834197998e-01 8.643083572387695312e-01
1.358000000000000000e+03 1.129872703552246094e+01 2.672255754470825195e+00 -6.861317157745361328e-01 -7.503735423088073730e-01 -4.309515655040740967e-01 8.307754993438720703e-01
1.359000000000000000e+03 9.778179168701171875e+00 -2.870431900024414062e+00 1.695890969131141901e-04 2.103761798935011029e-04 1.139895830419845879e-04 7.975237531354650855e-05
1.360000000000000000e+03 2.456187438964843750e+01 -7.290977954864501953e+00 -1.333754420280456543e+00 -1.260383605957031250e+00 -7.782413959503173828e-01 1.274963974952697754e+00
1.361000000000000000e+03 2.408608818054199219e+01 -6.610939502716064453e+00 -1.345876693725585938e+00 -1.336295604705810547e+00 -8.046516776084899902e-01 1.266289949417114258e+00
1.362000000000000000e+03 2.253364181518554688e+01 -4.647589683532714844e+00 -1.355951547622680664e+00 -1.512795805931091309e+00 -8.606241941452026367e-01 1.238369226455688477e+00
1.363000000000000000e+03 2.015664863586425781e+01 -2.266971588134765625e+00 -1.277092695236206055e+00 -1.570895671844482422e+00 -8.543965220451354980e-01 1.199625015258789062e+00
1.364000000000000000e+03 1.952078819274902344e+01 -1.722054362297058105e+00 -1.241218328475952148e+00 -1.550315022468566895e+00 -8.374600410461425781e-01 1.189189553260803223e+00
1.365000000000000000e+03 1.472991085052490234e+01 1.553453445434570312e+00 -8.871065378189086914e-01 -1.126782894134521484e+00 -6.041668057441711426e-01 1.011443138122558594e+00
1.366000000000000000e+03 8.900385856628417969e+00 -3.520595788955688477e+00 1.849210821092128754e-04 1.932984159793704748e-04 1.134658523369580507e-04 1.015701636788435280e-04
1.367000000000000000e+03 5.475664901733398438e+01 -1.839681243896484375e+01 2.769949674606323242e+00 3.305929899215698242e+00 1.822763919830322266e+00 -2.587048709392547607e-01
1.368000000000000000e+03 5.718631744384765625e+01 -1.944617271423339844e+01 2.535977125167846680e+00 4.745924770832061768e-01 9.031708836555480957e-01 1.202857732772827148e+00
1.369000000000000000e+03 5.537413024902343750e+01 -1.742422485351562500e+01 -8.925632238388061523e-01 -6.312731504440307617e-01 -4.571509063243865967e-01 6.340167522430419922e-01
1.370000000000000000e+03 5.488152694702148438e+01 -1.953325653076171875e+01 5.249709129333496094e+00 3.619256019592285156e+00 2.660689592361450195e+00 -9.264677762985229492e-01
1.371000000000000000e+03 1.134346771240234375e+01 -1.283831405639648438e+01 1.757242425810545683e-04 3.791131894104182720e-05 6.409066554624587297e-05 -3.563032369129359722e-04
1.372000000000000000e+03 8.745997428894042969e+00 -1.608000564575195312e+01 1.534484326839447021e-03 2.856262144632637501e-04 5.460331449285149574e-04 -2.310225318069569767e-05
1.373000000000000000e+03 7.227743530273437500e+01 1.326617336273193359e+01 -1.955030262470245361e-01 8.954568862915039062e+00 2.627719879150390625e+00 3.131538033485412598e-01
1.374000000000000000e+03 3.003406143188476562e+01 -1.597874641418457031e+01 -1.417488336563110352e+00 -1.796906739473342896e-01 -4.791536927223205566e-01 8.186511993408203125e-01
1.375000000000000000e+03 3.303538894653320312e+01 -1.675051498413085938e+01 -2.234857082366943359e+00 2.472635358572006226e-03 -6.697153449058532715e-01 7.683188319206237793e-01
1.376000000000000000e+03 3.214738464355468750e+01 -1.558654212951660156e+01 -1.774714469909667969e+00 -5.019319429993629456e-02 -5.474722981452941895e-01 9.606568813323974609e-01
1.377000000000000000e+03 2.957316970825195312e+01 -1.428190708160400391e+01 -1.228416919708251953e+00 -2.576965093612670898e-01 -4.458340406417846680e-01 1.091852188110351562e+00
1.378000000000000000e+03 2.498292732238769531e+01 -3.364937973022460938e+01 -1.907852478325366974e-02 -2.583197318017482758e-03 -6.498516537249088287e-03 -1.552415732294321060e-02
1.379000000000000000e+03 3.423459243774414062e+01 -1.682719802856445312e+01 -2.576947212219238281e+00 -8.290927112102508545e-02 -7.979569435119628906e-01 8.045755028724670410e-01
1.380000000000000000e+03 3.004874801635742188e+01 -3.451831436157226562e+01 -6.053714454174041748e-02 -8.650753647089004517e-03 -2.075636945664882660e-02 -6.925685703754425049e-02
1.381000000000000000e+03 3.202398681640625000e+01 -3.593231201171875000e+01 -6.762816011905670166e-02 -3.869158029556274414e-02 -3.189592435956001282e-02 -1.273227185010910034e-01
1.382000000000000000e+03 4.470256423950195312e+01 -3.015809774398803711e+00 7.406973838806152344e-01 4.113245487213134766e+00 1.456182837486267090e+00 -2.012489318847656250e+00
1.383000000000000000e+03 6.155744552612304688e+01 -2.239997100830078125e+01 3.637031018733978271e-01 1.754980832338333130e-01 1.617603600025177002e-01 5.616850852966308594e-01
1.384000000000000000e+03 4.472368621826171875e+01 -3.275413215160369873e-01 8.204159140586853027e-01 4.480515480041503906e+00 1.590279340744018555e+00 -2.124119997024536133e+00
1.385000000000000000e+03 4.468717193603515625e+01 2.459343433380126953e+00 1.049133300781250000e+00 4.898469448089599609e+00 1.784280896186828613e+00 -2.377765178680419922e+00
1.386000000000000000e+03 4.886636734008789062e+01 -8.921821594238281250e+00 1.140288233757019043e+00 5.616171360015869141e+00 2.026937723159790039e+00 -2.519470214843750000e+00
1.387000000000000000e+03 4.800009155273437500e+01 -1.131131553649902344e+01 1.114802598953247070e+00 4.348705768585205078e+00 1.639052510261535645e+00 -2.225752830505371094e+00
1.388000000000000000e+03 2.967139816284179688e+01 -3.321906280517578125e+01 -8.525666594505310059e-02 5.963754374533891678e-03 -2.378787286579608917e-02 -2.996110543608665466e-02
1.389000000000000000e+03 2.866796493530273438e+01 -3.496886444091796875e+01 -2.862359955906867981e-02 -1.349241938441991806e-02 -1.263480540364980698e-02 -4.345857352018356323e-02
1.390000000000000000e+03 4.829801917076110840e-01 3.566375017166137695e+00 -1.021294947713613510e-02 -2.661122940480709076e-02 -1.104725338518619537e-02 2.283195033669471741e-02
1.391000000000000000e+03 7.703231048583984375e+01 1.105836868286132812e+01 -8.405604213476181030e-02 7.345259666442871094e+00 2.178361177444458008e+00 5.783947706222534180e-01
1.392000000000000000e+03 4.869857788085937500e+01 -7.531063079833984375e+00 9.375507235527038574e-01 5.719751358032226562e+00 1.997190594673156738e+00 -2.412273883819580078e+00
1.393000000000000000e+03 4.747780609130859375e+01 -8.764502525329589844e+00 1.060229301452636719e+00 4.516294002532958984e+00 1.672956943511962891e+00 -2.229571104049682617e+00
1.394000000000000000e+03 4.319515991210937500e+01 2.732379722595214844e+01 6.527810543775558472e-02 2.723315954208374023e+00 8.365782499313354492e-01 4.664507508277893066e-01
1.395000000000000000e+03 5.928426361083984375e+01 -2.354842376708984375e+01 8.999707102775573730e-01 7.299285531044006348e-01 4.889698028564453125e-01 5.656895041465759277e-01
1.396000000000000000e+03 4.285544586181640625e+01 3.281262397766113281e+00 9.356642365455627441e-01 5.013379573822021484e+00 1.784713149070739746e+00 -1.987055540084838867e+00
1.397000000000000000e+03 6.666674804687500000e+01 -2.042203712463378906e+01 -6.737046837806701660e-01 1.663993895053863525e-01 -1.521915793418884277e-01 2.940418720245361328e-01
1.398000000000000000e+03 6.374440383911132812e+01 -1.416102409362792969e+01 1.405188679695129395e+00 1.825956940650939941e+00 9.693436622619628906e-01 1.346034407615661621e+00
1.399000000000000000e+03 4.680258560180664062e+01 -5.094982624053955078e+00 8.582698106765747070e-01 4.624392509460449219e+00 1.644798636436462402e+00 -2.215034008026123047e+00
1.400000000000000000e+03 3.460638427734375000e+01 -1.443107891082763672e+01 -1.601325154304504395e+00 -1.824170649051666260e-01 -5.351226329803466797e-01 1.106613874435424805e+00
1.401000000000000000e+03 3.436861038208007812e+01 -1.563235855102539062e+01 -2.107381582260131836e+00 -1.439701765775680542e-01 -6.754055023193359375e-01 1.060294508934020996e+00
1.402000000000000000e+03 3.319484329223632812e+01 -1.559040451049804688e+01 -1.919912695884704590e+00 -7.014870643615722656e-02 -5.970184206962585449e-01 1.021407127380371094e+00
1.403000000000000000e+03 7.246695709228515625e+01 6.316591262817382812e+00 4.013033807277679443e-01 1.014113044738769531e+01 3.162730216979980469e+00 5.162395238876342773e-01
1.404000000000000000e+03 4.692418670654296875e+01 -2.479060554504394531e+01 2.775818407535552979e-01 7.685835957527160645e-01 3.138496279716491699e-01 -1.001948714256286621e-01
1.405000000000000000e+03 6.303148746490478516e+00 -3.048121833801269531e+01 -1.176801379187963903e-04 -5.747960531152784824e-04 -2.077428507618606091e-04 3.009831516465055756e-06
1.406000000000000000e+03 1.065366172790527344e+01 -3.279765701293945312e+01 4.698165226727724075e-03 -2.489963953848928213e-04 1.334750675596296787e-03 2.875224687159061432e-03
1.407000000000000000e+03 4.715929031372070312e+01 -6.323826789855957031e+00 9.100743532180786133e-01 4.723773479461669922e+00 1.690154314041137695e+00 -2.269694805145263672e+00
1.408000000000000000e+03 7.585100555419921875e+01 2.565805625915527344e+01 7.561473548412322998e-02 8.370309829711914062e+00 2.533777475357055664e+00 7.513409256935119629e-01
1.409000000000000000e+03 7.141052246093750000e+01 3.389230251312255859e+00 4.655842781066894531e-01 1.187363147735595703e+01 3.701764583587646484e+00 7.751861214637756348e-01
1.410000000000000000e+03 7.807653045654296875e+01 -3.562289428710937500e+01 -2.528273463249206543e-01 8.584976196289062500e+00 2.499644517898559570e+00 -2.666553556919097900e-01
1.411000000000000000e+03 7.336915588378906250e+01 -3.811150741577148438e+01 -3.687093853950500488e-01 5.870617866516113281e+00 1.650572538375854492e+00 -2.661381661891937256e-02
1.412000000000000000e+03 7.686171722412109375e+01 1.801939582824707031e+01 2.001219056546688080e-02 7.950754165649414062e+00 2.391229867935180664e+00 4.489406943321228027e-01
1.413000000000000000e+03 7.795793914794921875e+01 3.520324325561523438e+01 -1.546232849359512329e-01 1.025152969360351562e+01 3.029072046279907227e+00 1.394840031862258911e-01
1.414000000000000000e+03 7.654698944091796875e+01 3.294754791259765625e+01 -2.064273357391357422e-01 9.105405807495117188e+00 2.669693708419799805e+00 3.926355838775634766e-01
1.415000000000000000e+03 7.639341735839843750e+01 -2.375631523132324219e+01 4.634367525577545166e-01 7.542000293731689453e+00 2.401631116867065430e+00 4.640224277973175049e-01
1.416000000000000000e+03 7.799095916748046875e+01 -2.875306129455566406e+01 1.693644523620605469e-01 7.155905246734619141e+00 2.197581052780151367e+00 -7.501404881477355957e-01
1.417000000000000000e+03 7.829904174804687500e+01 -2.194770240783691406e+01 -1.405748073011636734e-02 6.896434307098388672e+00 2.064713001251220703e+00 4.576924145221710205e-01
1.418000000000000000e+03 7.795356750488281250e+01 -2.720166587829589844e+01 2.860354483127593994e-01 6.868161678314208984e+00 2.146259069442749023e+00 -4.402560889720916748e-01
1.419000000000000000e+03 7.655555725097656250e+01 -3.631488418579101562e+01 -4.490016698837280273e-01 7.936307430267333984e+00 2.246191740036010742e+00 -2.992930412292480469e-01
1.420000000000000000e+03 7.639263916015625000e+01 -2.556482887268066406e+01 8.057156801223754883e-01 7.595479965209960938e+00 2.520358800888061523e+00 -1.332684904336929321e-01
1.421000000000000000e+03 7.706607055664062500e+01 -3.412086868286132812e+01 -3.721488714218139648e-01 8.157205581665039062e+00 2.335516929626464844e+00 -6.057137846946716309e-01
1.422000000000000000e+03 7.576757049560546875e+01 -3.252598953247070312e+01 -4.128144979476928711e-01 7.877285003662109375e+00 2.239341020584106445e+00 -8.749496340751647949e-01
1.423000000000000000e+03 7.805895233154296875e+01 2.244333839416503906e+01 2.064544148743152618e-02 8.403678894042968750e+00 2.527297258377075195e+00 4.246280491352081299e-01
1.424000000000000000e+03 7.673549652099609375e+01 1.952116966247558594e+01 6.623066961765289307e-02 8.069190025329589844e+00 2.440626382827758789e+00 4.980342984199523926e-01
1.425000000000000000e+03 7.688805389404296875e+01 2.405610847473144531e+01 6.067903339862823486e-02 8.477288246154785156e+00 2.561390399932861328e+00 6.276609301567077637e-01
1.426000000000000000e+03 7.667233276367187500e+01 2.106105613708496094e+01 5.242890492081642151e-02 8.203696250915527344e+00 2.476837635040283203e+00 5.426259040832519531e-01
1.427000000000000000e+03 7.704510498046875000e+01 1.242148971557617188e+01 -7.862538844347000122e-02 7.438362121582031250e+00 2.207921028137207031e+00 4.983560442924499512e-01
1.428000000000000000e+03 7.703932189941406250e+01 1.378878307342529297e+01 -4.409819468855857849e-02 7.569649219512939453e+00 2.257665395736694336e+00 4.758894443511962891e-01
1.429000000000000000e+03 7.214211273193359375e+01 2.396749114990234375e+01 2.826273441314697266e-01 7.832346916198730469e+00 2.434492349624633789e+00 3.410182893276214600e-01
1.430000000000000000e+03 7.817154693603515625e+01 2.671283721923828125e+01 1.720248162746429443e-02 9.177603721618652344e+00 2.758441925048828125e+00 4.986970722675323486e-01
1.431000000000000000e+03 7.586590576171875000e+01 1.367906475067138672e+01 -1.005384102463722229e-01 7.925111293792724609e+00 2.347371816635131836e+00 5.154280066490173340e-01
1.432000000000000000e+03 7.831626129150390625e+01 -2.066364669799804688e+01 -7.045366615056991577e-02 7.066186428070068359e+00 2.098719835281372070e+00 4.098935723304748535e-01
1.433000000000000000e+03 7.704580688476562500e+01 -2.284416770935058594e+01 1.756447255611419678e-01 7.220652103424072266e+00 2.218888998031616211e+00 5.532234907150268555e-01
1.434000000000000000e+03 7.693862152099609375e+01 2.819867134094238281e+01 -2.815814502537250519e-02 8.938386917114257812e+00 2.673068761825561523e+00 6.750531792640686035e-01
1.435000000000000000e+03 7.714138031005859375e+01 -1.802610206604003906e+01 -2.370411455631256104e-01 7.255203723907470703e+00 2.105448722839355469e+00 1.577794700860977173e-01
1.436000000000000000e+03 7.712248992919921875e+01 -2.053303909301757812e+01 -1.613790988922119141e-01 7.307318210601806641e+00 2.143781661987304688e+00 5.026009678840637207e-01
1.437000000000000000e+03 7.564231109619140625e+01 -8.831604957580566406e+00 -7.666884362697601318e-02 6.745403289794921875e+00 2.000620365142822266e+00 -5.167592167854309082e-01
1.438000000000000000e+03 7.694203186035156250e+01 -1.408877658843994141e+01 -1.473902463912963867e-01 7.015083312988281250e+00 2.060307979583740234e+00 -2.701894044876098633e-01
1.439000000000000000e+03 7.413234710693359375e+01 -4.846069812774658203e+00 1.061754152178764343e-01 7.456169605255126953e+00 2.268703460693359375e+00 -3.330078423023223877e-01
1.440000000000000000e+03 7.683474731445312500e+01 -7.233950614929199219e+00 -3.700666502118110657e-02 6.603783607482910156e+00 1.970033168792724609e+00 -5.303004980087280273e-01
1.441000000000000000e+03 7.821471405029296875e+01 5.590554714202880859e+00 6.137088686227798462e-02 5.812672138214111328e+00 1.762212872505187988e+00 3.553557693958282471e-01
1.442000000000000000e+03 7.703025817871093750e+01 5.557408809661865234e+00 1.657817065715789795e-01 6.691236019134521484e+00 2.057105302810668945e+00 5.034837722778320312e-01
1.443000000000000000e+03 7.552519989013671875e+01 2.946301078796386719e+01 -1.425692290067672729e-01 8.423271179199218750e+00 2.484210729598999023e+00 7.315115332603454590e-01
1.444000000000000000e+03 7.818386077880859375e+01 6.969379425048828125e+00 4.101747646927833557e-02 6.061100006103515625e+00 1.830635190010070801e+00 4.260244667530059814e-01
1.445000000000000000e+03 7.568341827392578125e+01 6.869781017303466797e+00 1.689489483833312988e-01 7.745204925537109375e+00 2.374246120452880859e+00 7.283235788345336914e-01
1.446000000000000000e+03 7.676899719238281250e+01 -2.818982839584350586e+00 1.241800487041473389e-01 6.495327949523925781e+00 1.985852360725402832e+00 -4.406606256961822510e-01
1.447000000000000000e+03 7.690699005126953125e+01 -1.000309467315673828e+01 -7.151931524276733398e-02 6.737389564514160156e+00 1.999760985374450684e+00 -4.753216803073883057e-01
1.448000000000000000e+03 7.706002807617187500e+01 -1.674583625793457031e+01 -2.255227863788604736e-01 7.213199615478515625e+00 2.096302986145019531e+00 1.162571739405393600e-02
1.449000000000000000e+03 7.659091949462890625e+01 3.477131271362304688e+01 -2.291617095470428467e-01 9.129537582397460938e+00 2.670112848281860352e+00 2.713243365287780762e-01
1.450000000000000000e+03 7.654706573486328125e+01 3.114953422546386719e+01 -1.641186475753784180e-01 9.006680488586425781e+00 2.652768611907958984e+00 5.428022146224975586e-01
1.451000000000000000e+03 7.695932006835937500e+01 1.656898689270019531e+01 1.803347282111644745e-02 7.808972358703613281e+00 2.348101615905761719e+00 4.446275532245635986e-01
1.452000000000000000e+03 7.699597167968750000e+01 9.687799453735351562e+00 -3.484255820512771606e-02 7.201805114746093750e+00 2.150088787078857422e+00 6.423770785331726074e-01
1.453000000000000000e+03 7.817005920410156250e+01 -1.399938774108886719e+01 -7.267652451992034912e-02 7.203945159912109375e+00 2.139380693435668945e+00 -1.900993287563323975e-01
1.454000000000000000e+03 7.698573303222656250e+01 -1.542838382720947266e+01 -2.021327614784240723e-01 7.119027137756347656e+00 2.075068235397338867e+00 -1.617980599403381348e-01
1.455000000000000000e+03 7.810498809814453125e+01 -7.085608005523681641e+00 -2.085460117086768150e-03 6.351762771606445312e+00 1.904903173446655273e+00 -4.112567901611328125e-01
1.456000000000000000e+03 7.688188934326171875e+01 -8.623241424560546875e+00 -3.718157857656478882e-02 6.663055419921875000e+00 1.987762093544006348e+00 -5.014138221740722656e-01
1.457000000000000000e+03 7.687225341796875000e+01 -1.308199048042297363e+00 1.769809573888778687e-01 6.436707496643066406e+00 1.984106540679931641e+00 -3.167600035667419434e-01
1.458000000000000000e+03 7.858010101318359375e+01 3.399331665039062500e+01 -7.650069892406463623e-02 1.054460048675537109e+01 3.140429973602294922e+00 2.000978887081146240e-01
1.459000000000000000e+03 7.711943054199218750e+01 1.514633655548095703e+00 2.504872977733612061e-01 6.320902824401855469e+00 1.971417069435119629e+00 4.018633812665939331e-02
1.460000000000000000e+03 7.605995941162109375e+01 2.847260951995849609e+00 3.339910507202148438e-01 7.170470714569091797e+00 2.251338481903076172e+00 2.698597311973571777e-01
1.461000000000000000e+03 7.710449218750000000e+01 4.198589324951171875e+00 1.772349178791046143e-01 6.492324829101562500e+00 2.000868082046508789e+00 3.678033649921417236e-01
1.462000000000000000e+03 7.678096008300781250e+01 -5.817547798156738281e+00 1.600690744817256927e-02 6.569094181060791016e+00 1.975530385971069336e+00 -5.281349420547485352e-01
1.463000000000000000e+03 7.674139404296875000e+01 -4.339982509613037109e+00 4.049455747008323669e-02 6.541251182556152344e+00 1.974523663520812988e+00 -5.119805932044982910e-01
1.464000000000000000e+03 7.691467285156250000e+01 -1.136918354034423828e+01 -7.682128250598907471e-02 6.817942142486572266e+00 2.022336244583129883e+00 -4.189903438091278076e-01
1.465000000000000000e+03 7.692292022705078125e+01 -1.273354721069335938e+01 -1.175337657332420349e-01 6.911975383758544922e+00 2.038332462310791016e+00 -3.698508739471435547e-01
1.466000000000000000e+03 7.107550811767578125e+01 1.588660812377929688e+01 1.238607466220855713e-01 9.163284301757812500e+00 2.786143302917480469e+00 4.737794995307922363e-01
1.467000000000000000e+03 7.147515869140625000e+01 1.838360190391540527e+00 9.328961968421936035e-01 1.136948490142822266e+01 3.690714359283447266e+00 8.824744820594787598e-01
1.468000000000000000e+03 7.127240753173828125e+01 2.334970533847808838e-01 9.058949351310729980e-01 1.108651542663574219e+01 3.597723007202148438e+00 8.772882819175720215e-01
1.469000000000000000e+03 7.107338714599609375e+01 1.999002647399902344e+01 2.679182775318622589e-02 8.577176094055175781e+00 2.581190347671508789e+00 2.961859405040740967e-01
1.470000000000000000e+03 7.107087707519531250e+01 1.726376914978027344e+01 2.749861404299736023e-02 8.948946952819824219e+00 2.692933559417724609e+00 3.572168946266174316e-01
1.471000000000000000e+03 7.231756591796875000e+01 2.127890586853027344e+01 1.339536160230636597e-01 8.294178009033203125e+00 2.528439521789550781e+00 3.791257739067077637e-01
1.472000000000000000e+03 7.426165008544921875e+01 1.901114845275878906e+01 1.005055382847785950e-01 8.270535469055175781e+00 2.511312246322631836e+00 5.716533064842224121e-01
1.473000000000000000e+03 7.226176452636718750e+01 1.996844673156738281e+01 6.762643903493881226e-02 8.469447135925292969e+00 2.561121940612792969e+00 4.330923557281494141e-01
1.474000000000000000e+03 6.758611297607421875e+01 -9.441415786743164062e+00 6.666105389595031738e-01 4.895332813262939453e+00 1.668583035469055176e+00 1.445651531219482422e+00
1.475000000000000000e+03 4.410750198364257812e+01 8.646172285079956055e-01 8.333278894424438477e-01 4.586736679077148438e+00 1.626019477844238281e+00 -2.095436573028564453e+00
1.476000000000000000e+03 4.291865539550781250e+01 4.518705308437347412e-01 7.590441107749938965e-01 4.292150020599365234e+00 1.515358209609985352e+00 -1.857087135314941406e+00
1.477000000000000000e+03 6.913909912109375000e+01 3.377674484252929688e+01 -8.747794032096862793e-01 3.542699813842773438e+00 8.003761172294616699e-01 -1.027600839734077454e-01
1.478000000000000000e+03 2.140131187438964844e+01 -3.486470413208007812e+01 -2.139114076271653175e-03 -4.914979916065931320e-03 -2.116228220984339714e-03 -6.691509857773780823e-03
1.479000000000000000e+03 4.170774459838867188e+00 -1.611163330078125000e+01 1.136707374826073647e-03 2.859035157598555088e-04 4.267832555342465639e-04 1.610523322597146034e-04
1.480000000000000000e+03 1.821046447753906250e+01 -3.289046859741210938e+01 1.413968391716480255e-03 -2.236072672531008720e-03 -2.466312726028263569e-04 4.966434207744896412e-04
1.481000000000000000e+03 1.956187629699707031e+01 -3.460510253906250000e+01 -3.352812957018613815e-03 -5.225342698395252228e-03 -2.573446836322546005e-03 -3.422982292249798775e-03
1.482000000000000000e+03 3.487784385681152344e+00 3.593869018554687500e+01 1.453338563442230225e-02 -1.299289226531982422e+00 -3.854267597198486328e-01 -6.740523967891931534e-03
1.483000000000000000e+03 2.082980394363403320e+00 2.733308982849121094e+01 6.607702933251857758e-03 -1.455234289169311523e+00 -4.345879852771759033e-01 7.210068870335817337e-03
1.484000000000000000e+03 3.567119121551513672e+00 3.000185775756835938e+01 6.070498842746019363e-03 -1.293632507324218750e+00 -3.862685859203338623e-01 -8.449181914329528809e-03
1.485000000000000000e+03 6.404900074005126953e+00 2.982474136352539062e+01 3.144959360361099243e-02 -9.859284162521362305e-01 -2.863436639308929443e-01 -4.963439423590898514e-03
1.486000000000000000e+03 3.672243356704711914e+00 3.145456314086914062e+01 3.301364136859774590e-03 -1.269883394241333008e+00 -3.799746334552764893e-01 -1.640201359987258911e-02
1.487000000000000000e+03 2.039857864379882812e+00 2.590782356262207031e+01 1.095210667699575424e-02 -1.449460506439208984e+00 -4.315525293350219727e-01 1.730977371335029602e-02
1.488000000000000000e+03 3.462274551391601562e+00 2.711339950561523438e+01 2.195588126778602600e-02 -1.301712512969970703e+00 -3.839269876480102539e-01 1.694594137370586395e-02
1.489000000000000000e+03 3.515470743179321289e+00 2.856224250793457031e+01 1.462885364890098572e-02 -1.299823403358459473e+00 -3.855583667755126953e-01 7.685251766815781593e-04
1.490000000000000000e+03 2.020900487899780273e+00 3.712241363525390625e+01 -7.441349327564239502e-03 -1.434627532958984375e+00 -4.326206743717193604e-01 -2.400848083198070526e-02
1.491000000000000000e+03 3.877917289733886719e+00 3.449083709716796875e+01 1.828883215785026550e-02 -1.228522539138793945e+00 -3.630701303482055664e-01 -1.969559304416179657e-02
1.492000000000000000e+03 3.926810979843139648e+00 3.296143341064453125e+01 8.709192276000976562e-03 -1.234171986579895020e+00 -3.676388263702392578e-01 -1.520694419741630554e-02
1.493000000000000000e+03 3.309761762619018555e+00 -3.267814254760742188e+01 -2.886132569983601570e-03 4.146934079471975565e-04 -7.414317224174737930e-04 -5.131352809257805347e-04
1.494000000000000000e+03 1.947115659713745117e+00 -3.022666549682617188e+01 2.498760353773832321e-03 2.248991950182244182e-04 8.170978398993611336e-04 7.217868696898221970e-04
1.495000000000000000e+03 3.233353137969970703e+00 -2.872020912170410156e+01 2.315103542059659958e-03 1.622537529328837991e-04 7.432071724906563759e-04 5.977305117994546890e-04
1.496000000000000000e+03 7.245078086853027344e+00 -2.759119224548339844e+01 2.215151675045490265e-03 3.651552833616733551e-04 7.740920409560203552e-04 -5.905633443035185337e-04
1.497000000000000000e+03 1.865815997123718262e+00 2.167723274230957031e+01 1.108001824468374252e-02 -1.390699625015258789e+00 -4.138858914375305176e-01 5.703208222985267639e-02
1.498000000000000000e+03 3.146917581558227539e+00 2.284062385559082031e+01 2.770774252712726593e-02 -1.285858035087585449e+00 -3.774451017379760742e-01 6.998535990715026855e-02
1.499000000000000000e+03 2.888966798782348633e+00 -1.049561595916748047e+01 -8.038511732593178749e-04 7.158290372899500653e-06 -2.390078734606504440e-04 -7.466470560757443309e-05
1.500000000000000000e+03 1.805148363113403320e+00 -1.482235908508300781e+01 -9.515554993413388729e-04 -7.425242074532434344e-05 -3.077423607464879751e-04 -1.067947596311569214e-04
1.501000000000000000e+03 1.823362469673156738e+00 2.028497886657714844e+01 1.463479641824960709e-02 -1.349157094955444336e+00 -4.003567099571228027e-01 7.263024896383285522e-02
1.502000000000000000e+03 3.042829751968383789e+00 2.146338272094726562e+01 3.184758871793746948e-02 -1.265249967575073242e+00 -3.700207173824310303e-01 9.198191761970520020e-02
1.503000000000000000e+03 2.839818954467773438e+00 1.191339588165283203e+01 2.191769704222679138e-02 -8.060030937194824219e-01 -2.352256178855895996e-01 2.675334811210632324e-01
1.504000000000000000e+03 2.945745468139648438e+00 1.738645935058593750e+01 3.286222741007804871e-02 -1.132883429527282715e+00 -3.300063312053680420e-01 1.681392043828964233e-01
1.505000000000000000e+03 1.857984900474548340e+00 -2.175611305236816406e+01 1.574901398271322250e-03 3.394873783690854907e-05 4.826550139114260674e-04 1.979155640583485365e-04
1.506000000000000000e+03 3.011471748352050781e+00 -1.755788993835449219e+01 1.120157889090478420e-03 2.272690035169944167e-04 4.042280488647520542e-04 2.547095355112105608e-04
1.507000000000000000e+03 2.967040538787841797e+00 -1.190523624420166016e+01 8.725348743610084057e-04 2.791721999528817832e-05 2.701356424950063229e-04 5.718061220250092447e-05
1.508000000000000000e+03 1.659006118774414062e+00 -7.816214561462402344e+00 6.988192908465862274e-04 -8.464223355986177921e-06 2.071065246127545834e-04 3.990681943832896650e-05
1.509000000000000000e+03 5.758273601531982422e+00 -4.438868522644042969e+00 -2.620519662741571665e-04 -1.338360307272523642e-04 -1.187664020108059049e-04 -3.361553535796701908e-04
1.510000000000000000e+03 2.718379259109497070e+00 5.298373222351074219e+00 -6.495873630046844482e-02 -2.606602311134338379e-01 -9.768568724393844604e-02 2.135962843894958496e-01
1.511000000000000000e+03 2.701015949249267578e+00 7.858853816986083984e+00 -1.507658232003450394e-02 -4.740088880062103271e-01 -1.467256397008895874e-01 2.725163400173187256e-01
1.512000000000000000e+03 1.757855653762817383e+00 1.474360752105712891e+01 1.534100063145160675e-02 -1.053069829940795898e+00 -3.113186359405517578e-01 1.439206600189208984e-01
1.513000000000000000e+03 2.931790590286254883e+00 1.602859878540039062e+01 3.632729873061180115e-02 -1.067081093788146973e+00 -3.092261552810668945e-01 1.951376944780349731e-01
1.514000000000000000e+03 2.740668296813964844e+00 9.195024490356445312e+00 -1.302396878600120544e-03 -5.876231193542480469e-01 -1.766776442527770996e-01 2.821376323699951172e-01
1.515000000000000000e+03 2.761761665344238281e+00 -7.795946121215820312e+00 -6.726410938426852226e-04 1.121465970754798036e-06 -2.014558849623426795e-04 -5.919323666603304446e-05
1.516000000000000000e+03 1.930447101593017578e+00 -2.315382385253906250e+01 -1.608666032552719116e-03 -7.958291098475456238e-05 -5.064746947027742863e-04 -2.099558914778754115e-04
1.517000000000000000e+03 2.313733577728271484e+00 -3.560203170776367188e+01 2.504604868590831757e-03 1.914734602905809879e-03 1.325801829807460308e-03 7.293370435945689678e-04
1.518000000000000000e+03 2.814166545867919922e+00 -9.123868942260742188e+00 7.345066405832767487e-04 9.720002935864613391e-07 2.206436038250103593e-04 8.319376502186059952e-05
1.519000000000000000e+03 2.999748945236206055e+00 -1.616500282287597656e+01 -1.077692257240414619e-03 -1.484342938056215644e-04 -3.678379580378532410e-04 -1.819095050450414419e-04
1.520000000000000000e+03 3.025089740753173828e+00 -1.474969959259033203e+01 9.806458838284015656e-04 1.645184529479593039e-04 3.435492981225252151e-04 1.392895355820655823e-04
1.521000000000000000e+03 3.554269313812255859e+00 -3.392716598510742188e+01 3.849201137199997902e-03 4.473747685551643372e-05 1.168181654065847397e-03 1.377902925014495850e-03
1.522000000000000000e+03 5.476029872894287109e+00 -3.112645912170410156e+01 3.626486519351601601e-03 5.194063996896147728e-04 1.243767910636961460e-03 -2.793731400743126869e-04
1.523000000000000000e+03 4.592293739318847656e+00 -2.728738594055175781e+01 2.073873300105333328e-03 2.100879792124032974e-04 6.851883954368531704e-04 4.627298330888152122e-04
1.524000000000000000e+03 4.672337055206298828e+00 -2.580216217041015625e+01 -1.716911792755126953e-03 -2.730848500505089760e-04 -5.969990161247551441e-04 -2.442973491270095110e-04
1.525000000000000000e+03 3.325493574142456055e+00 -2.440140342712402344e+01 -1.597281545400619507e-03 -1.851173292379826307e-04 -5.347196711227297783e-04 -2.701539779081940651e-04
1.526000000000000000e+03 6.038756847381591797e+00 -1.798302650451660156e+01 1.016687834635376930e-03 -2.992769004777073860e-04 2.152232773369178176e-04 -5.234408890828490257e-04
1.527000000000000000e+03 2.788705825805664062e+00 1.055333423614501953e+01 1.516379136592149734e-02 -7.005004286766052246e-01 -2.056009918451309204e-01 2.788859009742736816e-01
1.528000000000000000e+03 2.883016586303710938e+00 1.328058910369873047e+01 3.140396252274513245e-02 -9.024717211723327637e-01 -2.613203227519989014e-01 2.477220892906188965e-01
1.529000000000000000e+03 4.056950569152832031e+00 1.598338985443115234e+01 6.188390403985977173e-02 -1.007839560508728027e+00 -2.837867140769958496e-01 2.506000995635986328e-01
1.530000000000000000e+03 6.933287048339843750e+01 -8.504640579223632812e+00 3.017939329147338867e-01 6.134360790252685547e+00 1.930846452713012695e+00 1.015159606933593750e+00
1.531000000000000000e+03 7.562474060058593750e+01 -1.212019562721252441e+00 3.272098302841186523e-01 7.220348834991455078e+00 2.264267683029174805e+00 -2.572352290153503418e-01
1.532000000000000000e+03 7.080943298339843750e+01 -1.268263936042785645e+00 6.209852099418640137e-01 1.062453079223632812e+01 3.373654603958129883e+00 1.272070169448852539e+00
1.533000000000000000e+03 2.731328773498535156e+01 -3.607596206665039062e+01 -2.417261712253093719e-02 -1.735309697687625885e-02 -1.245771441608667374e-02 -4.147480055689811707e-02
1.534000000000000000e+03 4.268570327758789062e+01 2.578624153137207031e+01 1.933732926845550537e-01 3.045380830764770508e+00 9.716262817382812500e-01 5.154080986976623535e-01
1.535000000000000000e+03 4.140137863159179688e+01 1.815006256103515625e+01 4.035570621490478516e-01 5.118022918701171875e+00 1.656473994255065918e+00 4.190361201763153076e-01
1.536000000000000000e+03 4.278793716430664062e+01 2.236605262756347656e+01 4.179773330688476562e-01 3.855584144592285156e+00 1.282068490982055664e+00 8.658099770545959473e-01
1.537000000000000000e+03 4.047066497802734375e+01 2.017615890502929688e+01 3.929201960563659668e-01 4.239784717559814453e+00 1.389811396598815918e+00 2.488892674446105957e-01
1.538000000000000000e+03 5.211753368377685547e+00 -2.044747161865234375e+01 5.854611517861485481e-04 -8.484040881739929318e-05 1.501862279837951064e-04 -3.248295979574322701e-04
1.539000000000000000e+03 4.365083312988281250e+01 2.915636825561523438e+01 -7.861586660146713257e-02 2.411658287048339844e+00 6.999127268791198730e-01 3.744086921215057373e-01
1.540000000000000000e+03 4.367701339721679688e+01 3.296745300292968750e+01 -4.451342523097991943e-01 2.090882301330566406e+00 4.937244057655334473e-01 1.826319247484207153e-01
1.541000000000000000e+03 7.047659301757812500e+01 -5.746669769287109375e+00 2.647738158702850342e-01 7.671699523925781250e+00 2.380941867828369141e+00 9.547044634819030762e-01
1.542000000000000000e+03 4.097789001464843750e+01 2.159210968017578125e+01 3.297809660434722900e-01 3.916233301162719727e+00 1.273804306983947754e+00 3.975334167480468750e-01
1.543000000000000000e+03 2.893101692199707031e+01 -1.482014179229736328e+01 -1.151719570159912109e+00 -3.333332240581512451e-01 -4.455158412456512451e-01 9.988940954208374023e-01
1.544000000000000000e+03 2.818632698059082031e+01 -1.532466602325439453e+01 -9.936664104461669922e-01 -3.785292804241180420e-01 -4.116587042808532715e-01 8.970913887023925781e-01
1.545000000000000000e+03 5.423162460327148438e+00 -3.004255485534667969e+01 -2.598969032987952232e-03 7.028810214251279831e-04 -5.688263918273150921e-04 3.680943336803466082e-04
1.546000000000000000e+03 6.961551666259765625e+01 3.033444404602050781e+01 -5.772410631179809570e-01 4.407080650329589844e+00 1.148951888084411621e+00 -5.130697041749954224e-02
1.547000000000000000e+03 7.132637786865234375e+01 7.664062500000000000e+00 3.576092422008514404e-01 1.057984733581542969e+01 3.281236886978149414e+00 2.236491739749908447e-01
1.548000000000000000e+03 7.567636871337890625e+01 8.300651550292968750e+00 5.006140470504760742e-02 7.856225967407226562e+00 2.371886253356933594e+00 7.861008048057556152e-01
1.549000000000000000e+03 6.895163726806640625e+01 -3.372779464721679688e+01 -9.237422943115234375e-01 2.165090322494506836e+00 3.724044263362884521e-01 6.392480134963989258e-01
1.550000000000000000e+03 7.384980773925781250e+01 -3.348668289184570312e+01 -7.975033521652221680e-01 7.192051887512207031e+00 1.918364524841308594e+00 -4.497343897819519043e-01
1.551000000000000000e+03 7.223576354980468750e+01 2.261105537414550781e+01 1.881594061851501465e-01 8.132077217102050781e+00 2.496071100234985352e+00 3.588425517082214355e-01
1.552000000000000000e+03 7.345465087890625000e+01 2.265277671813964844e+01 2.032890915870666504e-01 8.081995010375976562e+00 2.485585212707519531e+00 5.349864363670349121e-01
1.553000000000000000e+03 4.185612106323242188e+01 2.766280937194824219e+01 -1.111366599798202515e-02 2.785707235336303711e+00 8.323780298233032227e-01 2.764913439750671387e-01
1.554000000000000000e+03 4.110804748535156250e+01 7.093412876129150391e+00 1.276417255401611328e+00 5.783220291137695312e+00 2.117891311645507812e+00 -1.462870478630065918e+00
1.555000000000000000e+03 7.104005432128906250e+01 -7.462149143218994141e+00 9.891200065612792969e-02 7.008223056793212891e+00 2.132140636444091797e+00 4.954807758331298828e-01
1.556000000000000000e+03 6.306819915771484375e+01 -1.920568275451660156e+01 2.370723336935043335e-01 8.036344051361083984e-01 3.122120201587677002e-01 1.333758711814880371e+00
1.557000000000000000e+03 1.514371109008789062e+01 -3.482220840454101562e+01 -4.939395934343338013e-03 -9.781810513231903315e-05 -1.511164242401719093e-03 -5.248302477411925793e-04
1.558000000000000000e+03 4.613523101806640625e+01 3.363151168823242188e+01 -4.031465053558349609e-01 1.725236058235168457e+00 3.966268897056579590e-01 3.091136217117309570e-01
1.559000000000000000e+03 5.081285858154296875e+01 3.614423370361328125e+01 -4.230534136295318604e-01 7.654952406883239746e-01 1.027325540781021118e-01 2.376321852207183838e-01
1.560000000000000000e+03 4.815335464477539062e+01 3.357695770263671875e+01 -3.427352607250213623e-01 1.319850206375122070e+00 2.931344807147979736e-01 3.058585524559020996e-01
1.561000000000000000e+03 5.553624343872070312e+01 -2.777032852172851562e+01 1.104053482413291931e-01 8.026991844177246094e+00 2.441219091415405273e+00 3.340072631835937500e-01
1.562000000000000000e+03 4.150839233398437500e+01 2.298007583618164062e+01 3.040503263473510742e-01 3.614113569259643555e+00 1.175449132919311523e+00 4.651900529861450195e-01
1.563000000000000000e+03 6.594784545898437500e+01 -1.206929779052734375e+01 1.121822834014892578e+00 3.202829599380493164e+00 1.297395825386047363e+00 1.364825844764709473e+00
1.564000000000000000e+03 6.869401550292968750e+01 -9.943079948425292969e+00 4.793775677680969238e-01 5.304569244384765625e+00 1.735184073448181152e+00 9.831196665763854980e-01
1.565000000000000000e+03 7.471056938171386719e+00 -1.607079124450683594e+01 -1.287111081182956696e-03 -5.285101360641419888e-04 -5.446863942779600620e-04 5.267928645480424166e-05
1.566000000000000000e+03 6.412553405761718750e+01 -1.750527572631835938e+01 5.496624708175659180e-01 1.293752789497375488e+00 5.530245900154113770e-01 1.081785798072814941e+00
1.567000000000000000e+03 5.529594421386718750e+01 -3.266489791870117188e+01 1.081135869026184082e+00 7.791883468627929688e+00 2.661905765533447266e+00 -3.028511703014373779e-01
1.568000000000000000e+03 5.727776718139648438e+01 -3.747560119628906250e+01 -7.840064764022827148e-01 3.342271089553833008e+00 7.674793601036071777e-01 -1.172226071357727051e+00
1.569000000000000000e+03 7.541065216064453125e+01 -3.366353225708007812e+01 -5.942696332931518555e-01 7.784669399261474609e+00 2.157119989395141602e+00 -6.722269058227539062e-01
1.570000000000000000e+03 5.555122375488281250e+01 -2.234974098205566406e+01 1.028575181961059570e+00 5.193091392517089844e+00 1.866499900817871094e+00 -1.207430362701416016e+00
1.571000000000000000e+03 5.235822677612304688e+01 -2.222670364379882812e+01 -1.027687549591064453e+00 9.276365280151367188e+00 2.474603414535522461e+00 1.011522650718688965e+00
1.572000000000000000e+03 3.903963470458984375e+01 1.292419052124023438e+01 1.081563115119934082e+00 5.104421138763427734e+00 1.855795264244079590e+00 -7.819433212280273438e-01
1.573000000000000000e+03 6.811676025390625000e+01 -2.015290069580078125e+01 -2.078482508659362793e-01 1.059348702430725098e+00 2.554501593112945557e-01 -1.001322627067565918e+00
1.574000000000000000e+03 1.206030368804931641e+01 -3.407703781127929688e+01 -3.188097383826971054e-03 -7.849256508052349091e-04 -1.191906863823533058e-03 -1.634158310480415821e-03
1.575000000000000000e+03 7.215291595458984375e+01 2.540118789672851562e+01 2.684167921543121338e-01 7.477429866790771484e+00 2.323754072189331055e+00 4.001920521259307861e-01
1.576000000000000000e+03 7.228798675537109375e+01 2.695414543151855469e+01 9.749606251716613770e-02 7.129621505737304688e+00 2.168135166168212891e+00 5.142744183540344238e-01
1.577000000000000000e+03 4.009240722656250000e+01 9.892012596130371094e+00 1.465419769287109375e+00 5.724590778350830078e+00 2.157003164291381836e+00 -1.101719856262207031e+00
1.578000000000000000e+03 7.257198333740234375e+01 7.724400997161865234e+00 1.897611916065216064e-01 9.729588508605957031e+00 2.975804805755615234e+00 5.999955534934997559e-01
1.579000000000000000e+03 1.326662063598632812e+01 -3.577852249145507812e+01 3.819231176748871803e-03 -3.072249237447977066e-04 1.053601852618157864e-03 2.306188456714153290e-03
1.580000000000000000e+03 1.674838066101074219e+01 -3.429029083251953125e+01 3.283686470240354538e-03 -8.578829001635313034e-04 7.277411059476435184e-04 1.709724543616175652e-03
1.581000000000000000e+03 7.146421813964843750e+01 -3.415367126464843750e+01 -9.323543310165405273e-01 5.370795249938964844e+00 1.331532359123229980e+00 5.923630595207214355e-01
1.582000000000000000e+03 5.424879074096679688e+01 -3.010482215881347656e+01 2.111805438995361328e+00 7.699625492095947266e+00 2.943429231643676758e+00 -2.261975109577178955e-01
1.583000000000000000e+03 3.011518955230712891e+00 -2.024341583251953125e+01 1.673779566772282124e-03 -1.502169179730117321e-04 4.570688179228454828e-04 3.882489108946174383e-04
1.584000000000000000e+03 1.748667907714843750e+01 -3.540871810913085938e+01 -6.168800406157970428e-03 -3.700369736179709435e-03 -2.960751065984368324e-03 -3.141997149214148521e-03
1.585000000000000000e+03 5.778239059448242188e+01 -2.080016326904296875e+01 2.090101480484008789e+00 1.053118824958801270e+00 9.429661035537719727e-01 7.185891270637512207e-01
1.586000000000000000e+03 4.356045532226562500e+01 -3.085544776916503906e+01 -1.918183714151382446e-01 -7.638800144195556641e-02 -8.046191185712814331e-02 1.968655586242675781e-01
1.587000000000000000e+03 4.394074249267578125e+01 -2.898011589050292969e+01 -2.150783538818359375e-01 -1.551152765750885010e-01 -1.110580861568450928e-01 -4.957241192460060120e-02
1.588000000000000000e+03 6.639109802246093750e+01 -1.913497161865234375e+01 2.316098064184188843e-01 9.317629337310791016e-01 3.490118384361267090e-01 1.954428404569625854e-01
1.589000000000000000e+03 6.158756637573242188e+01 4.041519927978515625e+01 9.241615980863571167e-02 -3.384257555007934570e-01 -7.380288094282150269e-02 1.144504249095916748e-01
1.590000000000000000e+03 7.700685119628906250e+01 -3.142994117736816406e+01 -1.400369703769683838e-01 7.877848625183105469e+00 2.321343421936035156e+00 -9.725987911224365234e-01
1.591000000000000000e+03 7.226515960693359375e+01 1.461215019226074219e+01 -3.714098362252116203e-03 8.797824859619140625e+00 2.638233184814453125e+00 3.032912909984588623e-01
1.592000000000000000e+03 7.107305145263671875e+01 1.450032234191894531e+01 2.407571226358413696e-01 8.917597770690917969e+00 2.747506380081176758e+00 3.684706687927246094e-01
1.593000000000000000e+03 6.122878265380859375e+01 -1.747058486938476562e+01 3.628370463848114014e-01 1.048535943031311035e+00 4.234118759632110596e-01 1.717761635780334473e+00
1.594000000000000000e+03 4.090097427368164062e+01 -1.935267448425292969e+01 -2.298072576522827148e+00 7.570348680019378662e-02 -6.667107343673706055e-01 9.237154722213745117e-01
1.595000000000000000e+03 3.767691421508789062e+01 -3.526909255981445312e+01 -3.936303034424781799e-02 -2.498668879270553589e-01 -8.676897734403610229e-02 -2.242929786443710327e-01
1.596000000000000000e+03 7.564633178710937500e+01 -2.617079734802246094e+01 1.033169865608215332e+00 7.912231922149658203e+00 2.683620452880859375e+00 -3.253088593482971191e-01
1.597000000000000000e+03 4.189509582519531250e+01 -3.565283584594726562e+01 1.832388937473297119e-01 1.728657633066177368e-01 1.068313941359519958e-01 2.646260559558868408e-01
1.598000000000000000e+03 4.148778533935546875e+01 -3.380676651000976562e+01 5.548667535185813904e-02 -2.600347399711608887e-01 -6.136442348361015320e-02 1.189215332269668579e-01
1.599000000000000000e+03 7.407900238037109375e+01 -1.991620826721191406e+01 -6.715746521949768066e-01 7.548680305480957031e+00 2.063131570816040039e+00 -5.265700817108154297e-02
1.600000000000000000e+03 7.292819976806640625e+01 2.838653373718261719e+01 -1.247332319617271423e-01 7.142704963684082031e+00 2.105391502380371094e+00 6.521094441413879395e-01
1.601000000000000000e+03 7.492385864257812500e+01 3.330653381347656250e+01 -3.982179462909698486e-01 8.075386047363281250e+00 2.303150415420532227e+00 3.768074810504913330e-01
1.602000000000000000e+03 4.235478210449218750e+01 -3.166690826416015625e+01 -1.337348073720932007e-01 -5.413239598274230957e-01 -2.025176286697387695e-01 8.942000567913055420e-02
1.603000000000000000e+03 5.296579360961914062e+01 3.595110321044921875e+01 -4.817118644714355469e-01 3.819725215435028076e-01 -2.992180734872817993e-02 1.867337711155414581e-02
1.604000000000000000e+03 5.123423385620117188e+01 3.838290023803710938e+01 -5.134565830230712891e-01 6.714056730270385742e-01 4.738472402095794678e-02 1.351147890090942383e-01
1.605000000000000000e+03 3.675210189819335938e+01 -3.663683319091796875e+01 6.486247479915618896e-02 -2.295937538146972656e-01 -4.941938444972038269e-02 -1.708667427301406860e-01
1.606000000000000000e+03 1.784759330749511719e+01 -1.203432750701904297e+01 -1.082643066183663905e-04 -8.119947597151622176e-05 -5.683913332177326083e-05 1.068667261279188097e-04
1.607000000000000000e+03 1.897221183776855469e+01 -1.159674263000488281e+01 2.732563007157295942e-04 2.708676038309931755e-04 1.632371713640168309e-04 4.516596163739450276e-05
1.608000000000000000e+03 4.058591842651367188e+01 8.464572906494140625e+00 1.437146306037902832e+00 5.870365619659423828e+00 2.192253589630126953e+00 -1.274356484413146973e+00
1.609000000000000000e+03 3.936155700683593750e+01 -1.688410949707031250e+01 -2.636584997177124023e+00 -3.457441627979278564e-01 -8.946987390518188477e-01 4.728541374206542969e-01
1.610000000000000000e+03 3.681521987915039062e+01 -1.478301143646240234e+01 -1.615638375282287598e+00 -3.368192315101623535e-01 -5.857372879981994629e-01 8.342431783676147461e-01
1.611000000000000000e+03 5.120981979370117188e+01 -1.445064067840576172e+01 -5.884061455726623535e-01 7.089735507965087891e+00 1.950398802757263184e+00 -2.401702165603637695e+00
1.612000000000000000e+03 3.993158340454101562e+01 -1.793798255920410156e+01 -3.233866691589355469e+00 -1.243628934025764465e-01 -1.007468938827514648e+00 7.136919498443603516e-01
1.613000000000000000e+03 1.644706344604492188e+01 -1.227328300476074219e+01 1.512210146756842732e-04 -5.140873690834268928e-05 2.994368333020247519e-05 -5.552436778089031577e-05
1.614000000000000000e+03 5.646577453613281250e+01 -1.726828002929687500e+01 -1.848663210868835449e+00 -1.102878451347351074e+00 -8.854625225067138672e-01 2.221604585647583008e+00
1.615000000000000000e+03 5.616857528686523438e+01 -1.914851379394531250e+01 3.283975362777709961e+00 8.602608442306518555e-01 1.243270874023437500e+00 7.695012092590332031e-01
1.616000000000000000e+03 5.417184448242187500e+01 -2.851270675659179688e+01 7.902947068214416504e-01 7.147598743438720703e+00 2.381367921829223633e+00 -4.450291991233825684e-01
1.617000000000000000e+03 9.709578514099121094e+00 -3.150134658813476562e+01 -1.926999422721564770e-03 -1.693423371762037277e-03 -1.086126780137419701e-03 -4.508515121415257454e-04
1.618000000000000000e+03 8.565065383911132812e+00 -1.488735675811767578e+01 -1.361715956591069698e-03 1.241547724930569530e-04 -3.712683683261275291e-04 -1.948662538779899478e-04
1.619000000000000000e+03 1.505149364471435547e+01 -1.248774814605712891e+01 2.033143537119030952e-04 2.606215712148696184e-04 1.391807745676487684e-04 1.021762218442745507e-04
1.620000000000000000e+03 1.376502037048339844e+01 -1.218275451660156250e+01 -4.374797572381794453e-04 -5.953608197160065174e-04 -3.098521847277879715e-04 1.802783372113481164e-04
1.621000000000000000e+03 3.288886308670043945e+00 -2.731539916992187500e+01 -1.913261483423411846e-03 -1.020773634081706405e-04 -6.046016351319849491e-04 -4.113545583095401525e-04
1.622000000000000000e+03 7.395715713500976562e+00 -2.586227416992187500e+01 -2.415074035525321960e-03 -5.828496068716049194e-04 -8.993771043606102467e-04 3.994738217443227768e-04
1.623000000000000000e+03 6.278831481933593750e+01 -2.187019920349121094e+01 -4.813886433839797974e-02 2.736456394195556641e-01 6.765203177928924561e-02 5.605995059013366699e-01
1.624000000000000000e+03 6.492792510986328125e+01 -1.969475364685058594e+01 -1.090197861194610596e-01 6.059691309928894043e-01 1.490848064422607422e-01 9.352648258209228516e-01
1.625000000000000000e+03 7.335608673095703125e+01 -2.151828575134277344e+01 -3.152025938034057617e-01 8.036450386047363281e+00 2.316374301910400391e+00 -4.135557636618614197e-02
1.626000000000000000e+03 7.370197296142578125e+01 -2.428812026977539062e+01 1.570559263229370117e+00 8.920489311218261719e+00 3.147314548492431641e+00 -2.162654846906661987e-01
1.627000000000000000e+03 6.802637577056884766e+00 -2.914392280578613281e+01 -3.912730026058852673e-04 -4.774641129188239574e-04 -2.606211346574127674e-04 8.083056309260427952e-04
1.628000000000000000e+03 6.711598968505859375e+01 3.726921463012695312e+01 -1.058340370655059814e-01 1.799316763877868652e+00 5.080448389053344727e-01 -1.188929304480552673e-01
1.629000000000000000e+03 6.506504058837890625e+01 3.922801971435546875e+01 1.277167648077011108e-01 5.073412060737609863e-01 1.905173957347869873e-01 5.102360621094703674e-02
1.630000000000000000e+03 6.833500671386718750e+01 3.543348312377929688e+01 -6.496856808662414551e-01 2.693658351898193359e+00 6.131917834281921387e-01 -2.488822489976882935e-01
1.631000000000000000e+03 5.122926712036132812e+00 -4.038473892211914062e+01 1.872341847047209740e-03 -3.725129354279488325e-04 4.499486822169274092e-04 8.525873417966067791e-04
1.632000000000000000e+03 5.260506439208984375e+01 -3.331384658813476562e+01 5.311287045478820801e-01 4.963521957397460938e+00 1.648395180702209473e+00 9.408004283905029297e-01
1.633000000000000000e+03 5.433042907714843750e+01 -3.467869949340820312e+01 -3.330576419830322266e-01 5.572678565979003906e+00 1.571886301040649414e+00 3.703781664371490479e-01
1.634000000000000000e+03 5.292340087890625000e+01 -2.260835266113281250e+01 -1.018684387207031250e+00 9.099159240722656250e+00 2.424142599105834961e+00 3.866893425583839417e-02
1.635000000000000000e+03 5.177112197875976562e+01 -1.675695610046386719e+01 -2.140049695968627930e+00 8.967427253723144531e+00 2.048213243484497070e+00 -4.900747299194335938e+00
1.636000000000000000e+03 5.209280395507812500e+01 -1.717794799804687500e+01 -2.173810243606567383e+00 1.021846866607666016e+01 2.413397550582885742e+00 -5.288428306579589844e+00
1.637000000000000000e+03 5.170326232910156250e+01 -2.194290161132812500e+01 -5.087213516235351562e-01 7.753354072570800781e+00 2.173389673233032227e+00 2.342089653015136719e+00
1.638000000000000000e+03 5.196044540405273438e+01 -2.238964462280273438e+01 -8.789140582084655762e-01 8.159603118896484375e+00 2.184206724166870117e+00 1.732483983039855957e+00
1.639000000000000000e+03 5.192453002929687500e+01 -2.162989044189453125e+01 -6.450611352920532227e-01 9.223038673400878906e+00 2.573393344879150391e+00 2.330169439315795898e+00
1.640000000000000000e+03 5.345563125610351562e+01 -2.148406791687011719e+01 9.769484400749206543e-02 1.080426311492919922e+01 3.270587444305419922e+00 -1.656013369560241699e+00
1.641000000000000000e+03 5.300965881347656250e+01 -2.155858421325683594e+01 -2.378704547882080078e-01 1.073563861846923828e+01 3.149330377578735352e+00 -8.489070534706115723e-01
1.642000000000000000e+03 4.943788909912109375e+01 -2.285393905639648438e+01 2.722128033638000488e-01 2.043217182159423828e+00 6.946290135383605957e-01 1.040791749954223633e+00
1.643000000000000000e+03 4.904497146606445312e+01 -1.756705474853515625e+01 -5.342699885368347168e-01 1.403576850891113281e+00 2.607920765876770020e-01 -2.311161279678344727e+00
1.644000000000000000e+03 5.068077468872070312e+01 -2.171739006042480469e+01 4.379159510135650635e-01 3.644947767257690430e+00 1.224859118461608887e+00 2.270476102828979492e+00
1.645000000000000000e+03 5.294787597656250000e+01 -1.687762641906738281e+01 -3.343199491500854492e+00 9.423579216003417969e+00 1.824113845825195312e+00 -2.838342905044555664e+00
1.646000000000000000e+03 5.385839080810546875e+01 -2.134365081787109375e+01 1.792772531509399414e+00 9.455430030822753906e+00 3.374460935592651367e+00 -3.060371398925781250e+00
1.647000000000000000e+03 1.544333744049072266e+01 -6.560529232025146484e+00 -2.426244755042716861e-04 -1.035885361488908529e-04 -1.038639020407572389e-04 -1.366353390039876103e-04
1.648000000000000000e+03 1.500226306915283203e+01 -1.148477077484130859e+01 -1.087100172298960388e-04 -1.026310710585676134e-04 -6.340233085211366415e-05 -2.742278447840362787e-04
1.649000000000000000e+03 1.329910087585449219e+01 -5.204905509948730469e+00 -3.781658888328820467e-04 -4.320065272622741759e-05 -1.264099701074883342e-04 -6.175298767630010843e-05
1.650000000000000000e+03 1.460927391052246094e+01 -6.646220684051513672e+00 -3.750637406483292580e-04 -5.774937380920164287e-05 -1.298439310630783439e-04 -2.070656919386237860e-04
1.651000000000000000e+03 1.212160873413085938e+01 -4.556274890899658203e+00 -2.579980064183473587e-04 -1.682498404989019036e-04 -1.278743584407493472e-04 -8.167026862793136388e-06
1.652000000000000000e+03 1.027109527587890625e+01 -3.756115436553955078e+00 2.174105757148936391e-04 1.808537635952234268e-04 1.194793003378435969e-04 5.186039197724312544e-05
1.653000000000000000e+03 1.735763549804687500e+01 -1.031127262115478516e+01 -3.099445530097000301e-05 -7.606199505971744657e-05 -3.211693547200411558e-05 2.370918082306161523e-04
1.654000000000000000e+03 5.023507690429687500e+01 -1.453944396972656250e+01 -2.169415503740310669e-01 5.907979011535644531e+00 1.707311153411865234e+00 -2.605415821075439453e+00
1.655000000000000000e+03 5.281732177734375000e+01 -2.336460113525390625e+01 -1.099125981330871582e+00 8.031893730163574219e+00 2.079830169677734375e+00 2.279534488916397095e-01
1.656000000000000000e+03 1.191182422637939453e+01 -6.135015487670898438e+00 4.774982226081192493e-04 1.466767753299791366e-05 1.476497709518298507e-04 -1.370730315102264285e-04
1.657000000000000000e+03 4.539125823974609375e+01 -2.582111549377441406e+01 1.873257905244827271e-01 2.321766763925552368e-01 1.258507370948791504e-01 -3.104666471481323242e-01
1.658000000000000000e+03 4.705507278442382812e+01 -2.563208580017089844e+01 2.723514139652252197e-01 1.092894434928894043e+00 4.095737338066101074e-01 -3.548762202262878418e-02
1.659000000000000000e+03 4.302655029296875000e+01 -1.808567047119140625e+01 -2.384780883789062500e+00 7.792233228683471680e-01 -4.816673099994659424e-01 5.442150235176086426e-01
1.660000000000000000e+03 4.380862808227539062e+01 -1.804048156738281250e+01 -2.256295442581176758e+00 7.691975831985473633e-01 -4.461293220520019531e-01 4.666867554187774658e-01
1.661000000000000000e+03 1.728293037414550781e+01 -7.471084594726562500e+00 -2.383610844844952226e-04 -8.447374420939013362e-05 -9.685044642537832260e-05 -6.382754236256005242e-06
1.662000000000000000e+03 1.628123474121093750e+01 -8.547014236450195312e+00 -2.690483524929732084e-04 -2.151051594410091639e-04 -1.452460564905777574e-04 3.784902219194918871e-05
1.663000000000000000e+03 1.412324905395507812e+01 -6.346632957458496094e+00 3.227154084015637636e-04 9.008590131998062134e-05 1.238403929164633155e-04 8.424062980338931084e-05
1.664000000000000000e+03 1.631501388549804688e+01 -7.499402999877929688e+00 -1.643224386498332024e-04 -1.851045963121578097e-04 -1.048281046678312123e-04 -1.420557964593172073e-05
1.665000000000000000e+03 1.809117126464843750e+01 -1.002221775054931641e+01 1.907119149109348655e-04 -4.527848795987665653e-05 4.363002881291322410e-05 -5.822796447318978608e-05
1.666000000000000000e+03 1.698558998107910156e+01 -9.580328941345214844e+00 -3.488485526759177446e-05 1.188331807497888803e-04 2.518449764465913177e-05 -5.955764208920300007e-05
1.667000000000000000e+03 9.177481651306152344e+00 4.811399459838867188e+00 -2.862012386322021484e-01 -6.091755628585815430e-01 -2.686130404472351074e-01 7.286967039108276367e-01
1.668000000000000000e+03 8.523483276367187500e+00 4.522842884063720703e+00 -3.166419863700866699e-01 -5.221999287605285645e-01 -2.516525685787200928e-01 6.791384220123291016e-01
1.669000000000000000e+03 4.638435745239257812e+01 -2.426336288452148438e+01 2.209600359201431274e-01 3.468334972858428955e-01 1.703380644321441650e-01 -2.717173099517822266e-01
1.670000000000000000e+03 7.878023624420166016e+00 4.323502063751220703e+00 -3.224837779998779297e-01 -4.437294602394104004e-01 -2.298639714717864990e-01 6.277651190757751465e-01
1.671000000000000000e+03 5.928675651550292969e+00 4.050752639770507812e+00 -2.648453712463378906e-01 -2.686623930931091309e-01 -1.600523442029953003e-01 4.228802025318145752e-01
1.672000000000000000e+03 5.304969310760498047e+00 4.000617980957031250e+00 -2.306545674800872803e-01 -2.351147532463073730e-01 -1.397307962179183960e-01 3.655961155891418457e-01
1.673000000000000000e+03 3.809458732604980469e+00 5.357176780700683594e+00 -1.071925833821296692e-01 -3.038844764232635498e-01 -1.233231201767921448e-01 3.057428896427154541e-01
1.674000000000000000e+03 4.039300441741943359e+00 3.350031852722167969e+00 -1.666053533554077148e-01 -1.399761289358139038e-01 -9.197444468736648560e-02 2.147757112979888916e-01
1.675000000000000000e+03 5.066431999206542969e+00 4.649864196777343750e+00 -1.869086474180221558e-01 -2.869254648685455322e-01 -1.421502381563186646e-01 3.782328963279724121e-01
1.676000000000000000e+03 3.445481300354003906e+00 3.296045780181884766e+00 -1.255533546209335327e-01 -1.379604190587997437e-01 -7.905413210391998291e-02 1.757254749536514282e-01
1.677000000000000000e+03 4.883816909790039062e+01 -2.303865814208984375e+01 2.486329078674316406e-01 1.441149711608886719e+00 5.069347620010375977e-01 6.390006542205810547e-01
1.678000000000000000e+03 1.625913023948669434e+00 5.142123222351074219e+00 -2.683388814330101013e-02 -1.961063146591186523e-01 -6.688205897808074951e-02 1.201293021440505981e-01
1.679000000000000000e+03 2.868697547912597656e+01 -1.111576938629150391e+01 -1.122697114944458008e+00 -3.231600821018218994e-01 -4.337571561336517334e-01 1.273544907569885254e+00
1.680000000000000000e+03 2.845408439636230469e+01 -1.228684043884277344e+01 -1.122213959693908691e+00 -3.819653689861297607e-01 -4.512538313865661621e-01 1.272891044616699219e+00
1.681000000000000000e+03 2.815710258483886719e+01 -1.343434333801269531e+01 -1.067978382110595703e+00 -4.216836988925933838e-01 -4.468986093997955322e-01 1.191657423973083496e+00
1.682000000000000000e+03 2.911405372619628906e+01 -1.180521488189697266e+01 -1.134920835494995117e+00 -2.792133390903472900e-01 -4.242402315139770508e-01 1.274851322174072266e+00
1.683000000000000000e+03 2.992438316345214844e+01 -1.321387863159179688e+01 -1.224961161613464355e+00 -2.124400287866592407e-01 -4.312203526496887207e-01 1.215059041976928711e+00
1.684000000000000000e+03 5.397204208374023438e+01 -2.582892990112304688e+01 -7.964285612106323242e-01 7.062300205230712891e+00 1.879761457443237305e+00 -2.322824150323867798e-01
1.685000000000000000e+03 4.735139083862304688e+01 -1.736040306091308594e+01 -1.112194776535034180e+00 9.842158555984497070e-01 -3.839366510510444641e-02 -9.034643769264221191e-01
1.686000000000000000e+03 2.852927207946777344e+01 -1.412891197204589844e+01 -1.069884777069091797e+00 -3.807882368564605713e-01 -4.352018833160400391e-01 1.117137312889099121e+00
1.687000000000000000e+03 3.220019149780273438e+01 -1.458330917358398438e+01 -1.585742712020874023e+00 -8.040565997362136841e-02 -4.998445212841033936e-01 1.121992588043212891e+00
1.688000000000000000e+03 4.451568984985351562e+01 -1.738475608825683594e+01 -1.827241301536560059e+00 8.573333621025085449e-01 -2.909724116325378418e-01 2.301666438579559326e-01
1.689000000000000000e+03 1.616331863403320312e+01 6.910381317138671875e-01 -1.011079430580139160e+00 -1.281518101692199707e+00 -6.877792477607727051e-01 1.082165002822875977e+00
1.690000000000000000e+03 1.628248977661132812e+01 2.323758602142333984e+00 -5.269654989242553711e-01 -1.226250529289245605e+00 -5.259647965431213379e-01 9.093017578125000000e-01
1.691000000000000000e+03 2.544486236572265625e+01 -8.657620429992675781e+00 -1.282328605651855469e+00 -1.074366807937622070e+00 -7.070086002349853516e-01 1.292610645294189453e+00
1.692000000000000000e+03 2.556472587585449219e+01 -7.511391639709472656e+00 -1.251920580863952637e+00 -9.396048188209533691e-01 -6.574576497077941895e-01 1.196465134620666504e+00
1.693000000000000000e+03 8.177710533142089844e+00 -3.493580579757690430e+00 -1.646573655307292938e-04 -1.822185149649158120e-04 -1.040627612383104861e-04 -1.423544454155489802e-04
1.694000000000000000e+03 1.065953350067138672e+01 -4.593979835510253906e+00 2.880632819142192602e-04 1.447341201128438115e-04 1.298392162425443530e-04 7.877843017922714353e-05
1.695000000000000000e+03 2.465023422241210938e+01 -4.956813335418701172e+00 -1.118054151535034180e+00 -9.736719727516174316e-01 -6.275178194046020508e-01 1.007805466651916504e+00
1.696000000000000000e+03 1.726768493652343750e+01 8.260325789451599121e-01 -8.329271674156188965e-01 -1.337671399116516113e+00 -6.511795520782470703e-01 1.011001110076904297e+00
1.697000000000000000e+03 4.381227874755859375e+01 -1.739585304260253906e+01 -2.001066446304321289e+00 8.613485097885131836e-01 -3.419153690338134766e-01 3.493066132068634033e-01
1.698000000000000000e+03 2.233821296691894531e+01 -2.322791814804077148e+00 -9.567797183990478516e-01 -1.239941954612731934e+00 -6.590164899826049805e-01 9.272759556770324707e-01
1.699000000000000000e+03 2.123877143859863281e+01 -2.283087015151977539e+00 -1.102013945579528809e+00 -1.430019259452819824e+00 -7.596099972724914551e-01 1.055304408073425293e+00
1.700000000000000000e+03 2.185473442077636719e+01 -2.878422737121582031e+00 -1.137656927108764648e+00 -1.398610115051269531e+00 -7.608801126480102539e-01 1.065252661705017090e+00
1.701000000000000000e+03 1.930425643920898438e+01 -6.296331882476806641e-01 -9.713703989982604980e-01 -1.437071919441223145e+00 -7.225326895713806152e-01 1.038435578346252441e+00
1.702000000000000000e+03 2.586141967773437500e+01 -9.339191436767578125e+00 -1.245303988456726074e+00 -9.652586579322814941e-01 -6.631687879562377930e-01 1.299680829048156738e+00
1.703000000000000000e+03 5.015172004699707031e+00 -3.569837808609008789e+00 -3.912644169759005308e-04 -1.290464570047333837e-05 -1.212507195305079222e-04 -2.830786106642335653e-04
1.704000000000000000e+03 8.119748115539550781e+00 -5.069776535034179688e+00 -2.367504202993586659e-04 -1.389285462209954858e-04 -1.127036885009147227e-04 -7.329796790145337582e-05
1.705000000000000000e+03 7.365065097808837891e+00 -4.312285423278808594e+00 -1.363444607704877853e-04 -1.859730691649019718e-04 -9.669525752542540431e-05 -1.802907645469531417e-04
1.706000000000000000e+03 4.032599449157714844e+00 -4.405607223510742188e+00 -5.330208223313093185e-04 -1.091696049115853384e-05 -1.631813356652855873e-04 -2.399595687165856361e-04
1.707000000000000000e+03 3.489065408706665039e+00 -3.379530429840087891e+00 -7.178098894655704498e-04 1.397777814418077469e-04 -1.734096294967457652e-04 -7.733409438515082002e-05
1.708000000000000000e+03 3.836172103881835938e+00 -6.544522762298583984e+00 -5.247025401331484318e-04 -3.834159360849298537e-05 -1.689132332103326917e-04 -1.559115480631589890e-04
1.709000000000000000e+03 2.865171194076538086e+00 -5.279185771942138672e+00 -4.908010596409440041e-04 -9.334804053651168942e-05 -1.752447278704494238e-04 -7.699771958868950605e-05
1.710000000000000000e+03 4.797031402587890625e+01 -2.405710792541503906e+01 2.871368825435638428e-01 1.213868260383605957e+00 4.503015577793121338e-01 2.379222363233566284e-01
1.711000000000000000e+03 4.584229278564453125e+01 -1.713857269287109375e+01 -1.368323206901550293e+00 8.971892595291137695e-01 -1.413401812314987183e-01 -1.975743621587753296e-01
1.712000000000000000e+03 4.518330001831054688e+01 -1.730501747131347656e+01 -1.623677372932434082e+00 8.499359488487243652e-01 -2.321224212646484375e-01 5.187607929110527039e-02
1.713000000000000000e+03 2.765475082397460938e+01 -1.092113590240478516e+01 -1.145339965820312500e+00 -5.089387893676757812e-01 -4.962836205959320068e-01 1.294144034385681152e+00
1.714000000000000000e+03 2.725256156921386719e+01 -1.024075317382812500e+01 -1.174586892127990723e+00 -5.878915786743164062e-01 -5.287435650825500488e-01 1.286525726318359375e+00
1.715000000000000000e+03 5.501861953735351562e+01 -2.064141082763671875e+01 3.669807195663452148e+00 4.961835384368896484e+00 2.589492797851562500e+00 -2.148509979248046875e+00
1.716000000000000000e+03 5.360111618041992188e+01 -2.194323921203613281e+01 -5.068486928939819336e-02 9.639897346496582031e+00 2.876763582229614258e+00 -1.529383301734924316e+00
1.717000000000000000e+03 1.299128532409667969e+01 3.551145792007446289e+00 -4.317613542079925537e-01 -9.760718345642089844e-01 -4.223499596118927002e-01 8.779177069664001465e-01
1.718000000000000000e+03 1.325885963439941406e+01 2.410234212875366211e+00 -7.235769629478454590e-01 -9.763259887695312500e-01 -5.099709033966064453e-01 9.267523288726806641e-01
1.719000000000000000e+03 4.799065780639648438e+01 -1.720357894897460938e+01 -7.661853432655334473e-01 1.305372595787048340e+00 1.617561727762222290e-01 -1.467260003089904785e+00
1.720000000000000000e+03 4.649778747558593750e+01 -1.693399238586425781e+01 -1.070405125617980957e+00 1.052811741828918457e+00 -5.278016440570354462e-03 -5.365451574325561523e-01
1.721000000000000000e+03 2.684500503540039062e+01 -9.559387207031250000e+00 -1.195725440979003906e+00 -6.706023216247558594e-01 -5.598983168601989746e-01 1.266817450523376465e+00
1.722000000000000000e+03 2.642944908142089844e+01 -8.877564430236816406e+00 -1.222304463386535645e+00 -7.622243165969848633e-01 -5.953586697578430176e-01 1.246462583541870117e+00
1.723000000000000000e+03 1.070385837554931641e+01 3.431692361831665039e+00 -5.070814490318298340e-01 -7.096629738807678223e-01 -3.650233149528503418e-01 8.073285818099975586e-01
1.724000000000000000e+03 2.510359954833984375e+01 -6.822227001190185547e+00 -1.253514409065246582e+00 -1.021213412284851074e+00 -6.824183464050292969e-01 1.171496629714965820e+00
1.725000000000000000e+03 2.462106895446777344e+01 -6.135403156280517578e+00 -1.253011345863342285e+00 -1.106708049774169922e+00 -7.079157829284667969e-01 1.147625327110290527e+00
1.726000000000000000e+03 8.779560089111328125e+00 -4.972954750061035156e+00 2.877854785765521228e-05 1.007566170301288366e-04 3.886055128532461822e-05 5.293760477798059583e-05
1.727000000000000000e+03 2.359149932861328125e+01 -4.791412830352783203e+00 -1.225940465927124023e+00 -1.248049974441528320e+00 -7.421971559524536133e-01 1.105835437774658203e+00
1.728000000000000000e+03 2.303504943847656250e+01 -4.136294841766357422e+00 -1.199800014495849609e+00 -1.305740714073181152e+00 -7.516622543334960938e-01 1.089985966682434082e+00
1.729000000000000000e+03 1.767986679077148438e+01 1.429117798805236816e+00 -6.196722388267517090e-01 -1.305309176445007324e+00 -5.774944424629211426e-01 9.188767671585083008e-01
1.730000000000000000e+03 1.863689613342285156e+01 -1.250330060720443726e-01 -9.274077415466308594e-01 -1.415394663810729980e+00 -7.028406858444213867e-01 1.030143737792968750e+00
1.731000000000000000e+03 1.795658302307128906e+01 3.597491383552551270e-01 -8.786169886589050293e-01 -1.381844401359558105e+00 -6.781383752822875977e-01 1.024737119674682617e+00
1.732000000000000000e+03 1.586330699920654297e+01 1.722281336784362793e+00 -7.286041975021362305e-01 -1.225301623344421387e+00 -5.861717462539672852e-01 9.785921573638916016e-01
1.733000000000000000e+03 1.514726734161376953e+01 2.166558265686035156e+00 -6.634107828140258789e-01 -1.164826393127441406e+00 -5.484711527824401855e-01 9.572269916534423828e-01
1.734000000000000000e+03 2.060643959045410156e+01 -1.708729624748229980e+00 -1.059640288352966309e+00 -1.443447470664978027e+00 -7.509263157844543457e-01 1.049376368522644043e+00
1.735000000000000000e+03 1.996028518676757812e+01 -1.156686782836914062e+00 -1.017468452453613281e+00 -1.448445200920104980e+00 -7.397741079330444336e-01 1.041927337646484375e+00
1.736000000000000000e+03 1.442842483520507812e+01 2.617882251739501953e+00 -5.972208380699157715e-01 -1.098766088485717773e+00 -5.087960958480834961e-01 9.304164052009582520e-01
1.737000000000000000e+03 1.029359912872314453e+01 4.349345684051513672e+00 -3.486712872982025146e-01 -7.027441263198852539e-01 -3.154246211051940918e-01 7.876272201538085938e-01
1.738000000000000000e+03 9.548445701599121094e+00 3.965836763381958008e+00 -3.969461917877197266e-01 -6.002845764160156250e-01 -2.991692423820495605e-01 7.449788451194763184e-01
1.739000000000000000e+03 5.527988815307617188e+01 -1.887497711181640625e+01 3.744339466094970703e+00 2.306437730789184570e+00 1.815233230590820312e+00 1.647430807352066040e-01
1.740000000000000000e+03 3.127388381958007812e+01 -1.546185016632080078e+01 -1.626933336257934570e+00 -8.354177325963973999e-02 -5.131425261497497559e-01 9.592549204826354980e-01
1.741000000000000000e+03 1.147867393493652344e+01 3.969861268997192383e+00 -3.977662026882171631e-01 -8.348023295402526855e-01 -3.697705566883087158e-01 8.414704203605651855e-01
1.742000000000000000e+03 3.304347229003906250e+01 -1.453712463378906250e+01 -1.625723838806152344e+00 -9.008186310529708862e-02 -5.147417187690734863e-01 1.113199949264526367e+00
1.743000000000000000e+03 6.788256835937500000e+01 -1.882014274597167969e+01 1.252831667661666870e-01 1.940920591354370117e+00 6.198611259460449219e-01 -5.339928865432739258e-01
1.744000000000000000e+03 6.001955413818359375e+01 -2.200370979309082031e+01 1.051962852478027344e+00 4.237760305404663086e-01 4.427216351032257080e-01 8.863374590873718262e-01
1.745000000000000000e+03 1.272602558135986328e+01 -1.144706344604492188e+01 2.516681561246514320e-04 7.455646409653127193e-04 2.991698274854570627e-04 -3.434605969232507050e-05
1.746000000000000000e+03 8.261809349060058594e+00 -1.370424938201904297e+01 1.131932134740054607e-03 -1.825062354328110814e-04 2.848277799785137177e-04 4.020568740088492632e-04
1.747000000000000000e+03 3.005859947204589844e+01 -1.471103858947753906e+01 -1.334463596343994141e+00 -2.009442299604415894e-01 -4.606223404407501221e-01 1.035804152488708496e+00
1.748000000000000000e+03 6.359595108032226562e+01 -2.026557350158691406e+01 -9.114445000886917114e-02 6.148880720138549805e-01 1.571230888366699219e-01 9.428848028182983398e-01
1.749000000000000000e+03 6.447041320800781250e+01 -1.505794906616210938e+01 1.146757245063781738e+00 1.905371665954589844e+00 9.156386852264404297e-01 1.043100237846374512e+00
1.750000000000000000e+03 4.303275299072265625e+01 -2.284565687179565430e+00 6.765643954277038574e-01 3.785372495651245117e+00 1.338581085205078125e+00 -1.752180337905883789e+00
1.751000000000000000e+03 4.563940429687500000e+01 -5.290521144866943359e+00 8.364645838737487793e-01 4.105606555938720703e+00 1.482621312141418457e+00 -2.101948022842407227e+00
1.752000000000000000e+03 5.573988342285156250e+01 -2.573935508728027344e+01 -7.547646760940551758e-01 6.430861473083496094e+00 1.702829003334045410e+00 3.943402469158172607e-01
1.753000000000000000e+03 5.646589279174804688e+01 -2.418135261535644531e+01 7.176002860069274902e-02 4.500876903533935547e+00 1.371791124343872070e+00 8.384949713945388794e-02
1.754000000000000000e+03 4.167145538330078125e+01 2.951445579528808594e+01 -2.329777926206588745e-01 2.533381700515747070e+00 6.901211738586425781e-01 1.501970738172531128e-01
1.755000000000000000e+03 4.477639389038085938e+01 3.080744552612304688e+01 -2.039021253585815430e-01 2.121091365814208984e+00 5.751567482948303223e-01 3.783309459686279297e-01
1.756000000000000000e+03 4.520649337768554688e+01 -4.150971889495849609e+00 7.917733788490295410e-01 4.118700504302978516e+00 1.473142147064208984e+00 -2.062170982360839844e+00
1.757000000000000000e+03 4.636429595947265625e+01 -3.884814977645874023e+00 7.855940461158752441e-01 4.535523414611816406e+00 1.596335291862487793e+00 -2.198695898056030273e+00
1.758000000000000000e+03 4.410973739624023438e+01 -4.453101634979248047e+00 7.519029378890991211e-01 3.688904762268066406e+00 1.332242250442504883e+00 -1.867609143257141113e+00
1.759000000000000000e+03 5.351583099365234375e+01 -2.936231803894042969e+01 1.323078513145446777e+00 6.476664543151855469e+00 2.339922904968261719e+00 -2.462774366140365601e-01
1.760000000000000000e+03 5.460769653320312500e+01 -2.755387496948242188e+01 4.987819120287895203e-02 7.676296710968017578e+00 2.317852497100830078e+00 -3.494736254215240479e-01
1.761000000000000000e+03 4.354335784912109375e+01 -7.229402065277099609e-01 7.199654579162597656e-01 4.209660530090332031e+00 1.478887796401977539e+00 -1.908253312110900879e+00
1.762000000000000000e+03 4.887907791137695312e+01 -1.191164398193359375e+01 1.334414839744567871e+00 4.813200473785400391e+00 1.844284534454345703e+00 -2.329177141189575195e+00
1.763000000000000000e+03 4.224482345581054688e+01 4.517206192016601562e+00 1.047552704811096191e+00 5.219370365142822266e+00 1.880076885223388672e+00 -1.886647939682006836e+00
1.764000000000000000e+03 1.040822887420654297e+01 -1.325111675262451172e+01 4.354889679234474897e-04 -5.115877138450741768e-05 1.152990589616820216e-04 6.553293205797672272e-04
1.765000000000000000e+03 4.485770034790039062e+01 -2.829785537719726562e+01 -1.481246948242187500e-02 2.064492106437683105e-01 5.749101936817169189e-02 -9.613677859306335449e-02
1.766000000000000000e+03 7.230320739746093750e+01 1.193940448760986328e+01 -4.176194369792938232e-01 9.114902496337890625e+00 2.609184980392456055e+00 2.901607155799865723e-01
1.767000000000000000e+03 4.310983657836914062e+01 3.562153244018554688e+01 -6.545428037643432617e-01 2.041612148284912109e+00 4.161208271980285645e-01 8.529192209243774414e-02
1.768000000000000000e+03 7.473153686523437500e+01 5.262355327606201172e+00 4.094922244548797607e-01 8.297889709472656250e+00 2.612214565277099609e+00 6.325253248214721680e-01
1.769000000000000000e+03 7.255847930908203125e+01 3.545716524124145508e+00 6.261461377143859863e-01 1.045720481872558594e+01 3.325005292892456055e+00 6.392959952354431152e-01
1.770000000000000000e+03 6.803340148925781250e+01 -1.746601676940917969e+01 3.216541707515716553e-01 2.575173139572143555e+00 8.690481781959533691e-01 -4.059439301490783691e-01
1.771000000000000000e+03 7.197866058349609375e+01 -1.611936759948730469e+01 -3.847472965717315674e-01 5.692331314086914062e+00 1.592275142669677734e+00 -6.998329758644104004e-01
1.772000000000000000e+03 3.780463027954101562e+01 -1.475218391418457031e+01 -1.502793550491333008e+00 -2.886207103729248047e-01 -5.374242663383483887e-01 6.099223494529724121e-01
1.773000000000000000e+03 3.813676452636718750e+01 -1.709763908386230469e+01 -2.958078145980834961e+00 -8.601593971252441406e-01 -1.145471215248107910e+00 8.045091032981872559e-01
1.774000000000000000e+03 7.470132446289062500e+01 1.222914886474609375e+01 -2.077975571155548096e-01 8.332766532897949219e+00 2.437490701675415039e+00 5.770882964134216309e-01
1.775000000000000000e+03 7.585218811035156250e+01 2.623085975646972656e-01 4.060339629650115967e-01 7.190142154693603516e+00 2.278852939605712891e+00 -8.973421156406402588e-02
1.776000000000000000e+03 7.605406951904296875e+01 1.582231521606445312e+00 4.129087328910827637e-01 7.124641895294189453e+00 2.261265277862548828e+00 9.806125611066818237e-02
1.777000000000000000e+03 7.360205078125000000e+01 5.067894935607910156e+00 4.711474776268005371e-01 9.339594841003417969e+00 2.943222761154174805e+00 6.429143548011779785e-01
1.778000000000000000e+03 7.498530578613281250e+01 2.763050079345703125e+00 5.224082469940185547e-01 7.986114978790283203e+00 2.552556991577148438e+00 3.293555080890655518e-01
1.779000000000000000e+03 7.714498138427734375e+01 2.859858274459838867e+00 2.230568677186965942e-01 6.372453689575195312e+00 1.978653192520141602e+00 2.067204266786575317e-01
1.780000000000000000e+03 7.273123931884765625e+01 2.083585262298583984e+00 8.090233802795410156e-01 9.990066528320312500e+00 3.239727020263671875e+00 5.681521892547607422e-01
1.781000000000000000e+03 7.586602783203125000e+01 5.455690383911132812e+00 2.582469880580902100e-01 7.493164062500000000e+00 2.325423240661621094e+00 6.141334772109985352e-01
1.782000000000000000e+03 7.694765472412109375e+01 8.315335273742675781e+00 3.568198904395103455e-02 7.048298835754394531e+00 2.125194311141967773e+00 6.474878787994384766e-01
1.783000000000000000e+03 7.453762817382812500e+01 6.556768894195556641e+00 2.411955446004867554e-01 8.485274314880371094e+00 2.617940902709960938e+00 7.507379055023193359e-01
1.784000000000000000e+03 7.582729339599609375e+01 9.670801162719726562e+00 -9.608513861894607544e-02 7.858589172363281250e+00 2.328751087188720703e+00 7.230733036994934082e-01
1.785000000000000000e+03 7.554815673828125000e+01 -7.459835529327392578e+00 -3.341829404234886169e-02 6.814072132110595703e+00 2.034196138381958008e+00 -5.173884034156799316e-01
1.786000000000000000e+03 7.251641845703125000e+01 -3.408135890960693359e+00 2.982285916805267334e-01 8.466235160827636719e+00 2.629339218139648438e+00 1.735222041606903076e-01
1.787000000000000000e+03 7.587525177001953125e+01 1.100811004638671875e+01 -1.406700462102890015e-01 7.819796562194824219e+00 2.303737878799438477e+00 6.371480822563171387e-01
1.788000000000000000e+03 7.546682739257812500e+01 -6.040789604187011719e+00 -9.792839409783482552e-04 6.897589206695556641e+00 2.068983078002929688e+00 -5.197857618331909180e-01
1.789000000000000000e+03 7.418116760253906250e+01 -2.614413261413574219e+00 3.109284937381744385e-01 7.796096801757812500e+00 2.432107448577880859e+00 -2.377434223890304565e-01
1.790000000000000000e+03 7.538939666748046875e+01 -4.491322517395019531e+00 9.910222887992858887e-02 7.046340465545654297e+00 2.143632650375366211e+00 -4.589728713035583496e-01
1.791000000000000000e+03 7.327805328369140625e+01 1.868665695190429688e+01 6.716048717498779297e-02 8.444133758544921875e+00 2.553388118743896484e+00 5.289064645767211914e-01
1.792000000000000000e+03 7.342546081542968750e+01 1.609995079040527344e+01 3.083352930843830109e-02 8.488883972167968750e+00 2.555915355682373047e+00 4.717885255813598633e-01
1.793000000000000000e+03 7.347388458251953125e+01 1.982113647460937500e+01 8.923263102769851685e-02 8.327084541320800781e+00 2.524894952774047852e+00 5.152273774147033691e-01
1.794000000000000000e+03 7.570325469970703125e+01 -1.421565914154052734e+01 -2.507152259349822998e-01 6.831469058990478516e+00 1.974226117134094238e+00 -3.649133145809173584e-01
1.795000000000000000e+03 7.041989135742187500e+01 -8.852825164794921875e+00 1.881649643182754517e-01 6.310946464538574219e+00 1.949733495712280273e+00 5.547477006912231445e-01
1.796000000000000000e+03 7.568402099609375000e+01 -1.018504619598388672e+01 -8.808031678199768066e-02 6.704632759094238281e+00 1.984965801239013672e+00 -4.843815267086029053e-01
1.797000000000000000e+03 7.568800354003906250e+01 -1.286830711364746094e+01 -1.700296401977539062e-01 6.751595020294189453e+00 1.974469661712646484e+00 -4.241945743560791016e-01
1.798000000000000000e+03 7.568910980224609375e+01 -1.152311420440673828e+01 -1.239402443170547485e-01 6.706804275512695312e+00 1.974859118461608887e+00 -4.771177470684051514e-01
1.799000000000000000e+03 7.586129760742187500e+01 -1.685861587524414062e+01 -3.975813388824462891e-01 7.113256454467773438e+00 2.014702558517456055e+00 -1.013899892568588257e-01
1.800000000000000000e+03 7.667077636718750000e+01 -2.677503967285156250e+01 6.164442896842956543e-01 7.521221160888671875e+00 2.441299676895141602e+00 -4.852605164051055908e-01
1.801000000000000000e+03 7.391356658935546875e+01 -2.253664398193359375e+01 1.555617153644561768e-01 8.566885948181152344e+00 2.616734266281127930e+00 2.536432147026062012e-01
1.802000000000000000e+03 7.718751525878906250e+01 -1.928529167175292969e+01 -2.485344707965850830e-01 7.308987617492675781e+00 2.118135929107666016e+00 3.423988521099090576e-01
1.803000000000000000e+03 7.544232177734375000e+01 -2.119671058654785156e+01 -2.437925785779953003e-01 7.689343452453613281e+00 2.233665227890014648e+00 4.466629028320312500e-01
1.804000000000000000e+03 7.575930786132812500e+01 -1.555423736572265625e+01 -3.191440999507904053e-01 6.953754901885986328e+00 1.990383148193359375e+00 -2.396367192268371582e-01
1.805000000000000000e+03 7.515181732177734375e+01 -1.945566940307617188e+01 -5.561205148696899414e-01 7.544448375701904297e+00 2.096498250961303711e+00 2.062059342861175537e-01
1.806000000000000000e+03 7.325147247314453125e+01 -1.593217849731445312e+01 -4.761800169944763184e-01 6.341881752014160156e+00 1.759710550308227539e+00 -5.709704160690307617e-01
1.807000000000000000e+03 7.509468078613281250e+01 -2.706492805480957031e+01 1.078006148338317871e+00 8.458290100097656250e+00 2.860888957977294922e+00 -5.425802469253540039e-01
1.808000000000000000e+03 7.468733215332031250e+01 -2.527581977844238281e+01 1.366952419281005859e+00 8.828669548034667969e+00 3.058686494827270508e+00 -2.293094545602798462e-01
1.809000000000000000e+03 7.552161407470703125e+01 -2.448965454101562500e+01 9.314734935760498047e-01 7.843126296997070312e+00 2.632380008697509766e+00 2.451225817203521729e-01
1.810000000000000000e+03 7.497734832763671875e+01 3.642236328125000000e+01 -2.979544997215270996e-01 7.909069061279296875e+00 2.283334255218505859e+00 6.264504045248031616e-02
1.811000000000000000e+03 7.050019073486328125e+01 3.426153182983398438e+01 -8.191491961479187012e-01 4.807412147521972656e+00 1.196478843688964844e+00 -1.339205503463745117e-01
1.812000000000000000e+03 7.425754547119140625e+01 2.337620544433593750e+01 1.846179664134979248e-01 8.068722724914550781e+00 2.476002216339111328e+00 6.378854513168334961e-01
1.813000000000000000e+03 7.323966979980468750e+01 2.383285522460937500e+01 2.361518144607543945e-01 7.914565563201904297e+00 2.445215225219726562e+00 5.463449358940124512e-01
1.814000000000000000e+03 7.471386718750000000e+01 2.593184280395507812e+01 1.192249506711959839e-01 8.077299118041992188e+00 2.458957195281982422e+00 7.556480765342712402e-01
1.815000000000000000e+03 7.701033782958984375e+01 2.684063911437988281e+01 7.710903882980346680e-03 8.792342185974121094e+00 2.640015840530395508e+00 7.044610381126403809e-01
1.816000000000000000e+03 7.453712463378906250e+01 2.467968368530273438e+01 1.408205479383468628e-01 8.074717521667480469e+00 2.464661359786987305e+00 7.296792268753051758e-01
1.817000000000000000e+03 7.406903076171875000e+01 -3.146328926086425781e+01 -4.465183615684509277e-01 7.899293422698974609e+00 2.235832691192626953e+00 -8.256590366363525391e-01
1.818000000000000000e+03 7.696838378906250000e+01 -3.009170913696289062e+01 8.223970234394073486e-02 7.629878997802734375e+00 2.313635587692260742e+00 -1.067803382873535156e+00
1.819000000000000000e+03 7.548037719726562500e+01 -3.558241653442382812e+01 -5.459384918212890625e-01 7.712161540985107422e+00 2.149866819381713867e+00 -3.978126049041748047e-01
1.820000000000000000e+03 7.699521636962890625e+01 -3.521819305419921875e+01 -2.672370076179504395e-01 8.202692985534667969e+00 2.380636692047119141e+00 -4.536696374416351318e-01
1.821000000000000000e+03 7.678005218505859375e+01 2.959096145629882812e+01 -1.033483743667602539e-01 8.990896224975585938e+00 2.666264295578002930e+00 6.427332758903503418e-01
1.822000000000000000e+03 7.590401458740234375e+01 2.693641471862792969e+01 6.697212159633636475e-02 8.416991233825683594e+00 2.545188903808593750e+00 7.668125033378601074e-01
1.823000000000000000e+03 4.698189163208007812e+01 -1.090837001800537109e+01 1.064748883247375488e+00 3.728926897048950195e+00 1.438102722167968750e+00 -1.902978658676147461e+00
1.824000000000000000e+03 7.696736145019531250e+01 -3.281800460815429688e+01 -2.454780787229537964e-01 8.000227928161621094e+00 2.326424837112426758e+00 -8.564272522926330566e-01
1.825000000000000000e+03 7.586468505859375000e+01 -3.122784614562988281e+01 -2.468493431806564331e-01 7.909858703613281250e+00 2.298902988433837891e+00 -1.114543914794921875e+00
1.826000000000000000e+03 7.393788909912109375e+01 3.056368255615234375e+01 -3.950783312320709229e-01 7.450203418731689453e+00 2.116537570953369141e+00 6.075674891471862793e-01
1.827000000000000000e+03 6.573925018310546875e+01 -1.412141895294189453e+01 1.053018569946289062e+00 2.513587951660156250e+00 1.069981932640075684e+00 9.202223420143127441e-01
1.828000000000000000e+03 7.326692962646484375e+01 8.184489011764526367e-01 8.147823810577392578e-01 9.263446807861328125e+00 3.023468732833862305e+00 3.527752459049224854e-01
1.829000000000000000e+03 7.221658325195312500e+01 1.732890892028808594e+01 6.844319403171539307e-02 8.714877128601074219e+00 2.634995937347412109e+00 5.028418898582458496e-01
1.830000000000000000e+03 7.220217895507812500e+01 1.866612625122070312e+01 4.984401166439056396e-02 8.576288223266601562e+00 2.587839603424072266e+00 4.526143372058868408e-01
1.831000000000000000e+03 5.871088027954101562e+01 -1.875028610229492188e+01 6.598693728446960449e-01 2.160347700119018555e-01 2.627712488174438477e-01 2.411598443984985352e+00
1.832000000000000000e+03 5.928120422363281250e+01 -1.769047164916992188e+01 -1.774693727493286133e-01 8.330666422843933105e-01 1.966791749000549316e-01 2.018372297286987305e+00
1.833000000000000000e+03 4.797686767578125000e+01 3.212832260131835938e+01 -1.270822584629058838e-01 1.370806097984313965e+00 3.731171488761901855e-01 4.159908592700958252e-01
1.834000000000000000e+03 4.740225219726562500e+01 -7.559485435485839844e+00 1.047733545303344727e+00 4.665143489837646484e+00 1.713863134384155273e+00 -2.294926404953002930e+00
1.835000000000000000e+03 4.613653945922851562e+01 -9.679119110107421875e+00 9.654805660247802734e-01 3.506814241409301758e+00 1.341688513755798340e+00 -1.860622763633728027e+00
1.836000000000000000e+03 4.268057346343994141e+00 -1.470813751220703125e+01 -1.089213648810982704e-03 -2.100889687426388264e-04 -3.897907736245542765e-04 -7.221037230920046568e-05
1.837000000000000000e+03 4.148428440093994141e+00 2.124863052368164062e+01 4.955330118536949158e-02 -1.162106394767761230e+00 -3.337659239768981934e-01 1.195133402943611145e-01
1.838000000000000000e+03 6.363379478454589844e+00 -2.086992454528808594e+01 -1.562320278026163578e-03 2.283039357280358672e-04 -4.002049099653959274e-04 2.553627709858119488e-04
1.839000000000000000e+03 4.304018020629882812e+00 -1.887217903137207031e+01 1.308979582972824574e-03 1.260789722437039018e-04 4.305175680201500654e-04 4.018402541987597942e-04
1.840000000000000000e+03 5.901281356811523438e+00 -2.736830711364746094e+01 -1.603321870788931847e-03 -3.870167129207402468e-04 -5.971015780232846737e-04 -2.476740046404302120e-04
1.841000000000000000e+03 4.657165527343750000e+00 -2.265031051635742188e+01 -1.658881315961480141e-03 -1.653669314691796899e-04 -5.472744815051555634e-04 -2.134560490958392620e-04
1.842000000000000000e+03 7.421355247497558594e+00 -1.714661216735839844e+01 1.456389436498284340e-03 4.536652122624218464e-04 5.730164120905101299e-04 -1.533043687231838703e-04
1.843000000000000000e+03 5.590216159820556641e+00 -1.910137176513671875e+01 -1.023272634483873844e-03 -6.416399992303922772e-05 -3.262309764977544546e-04 1.105071714846417308e-04
1.844000000000000000e+03 6.038716793060302734e+00 -2.417417526245117188e+01 -1.940770191140472889e-03 -1.909363199956715107e-04 -6.395119125954806805e-04 2.462755073793232441e-04
1.845000000000000000e+03 3.327902317047119141e+00 -2.587184906005859375e+01 1.781680504791438580e-03 2.385188417974859476e-04 6.060597952455282211e-04 3.890116931870579720e-04
1.846000000000000000e+03 5.669150829315185547e+00 -2.880399703979492188e+01 2.512168837711215019e-03 -2.724356600083410740e-04 6.719200173392891884e-04 4.769996739923954010e-04
1.847000000000000000e+03 2.972362279891967773e+00 2.010371017456054688e+01 2.874119766056537628e-02 -1.234417796134948730e+00 -3.617029786109924316e-01 1.142854318022727966e-01
1.848000000000000000e+03 4.315795898437500000e+00 2.257233047485351562e+01 5.326741933822631836e-02 -1.168749332427978516e+00 -3.346445858478546143e-01 9.538363665342330933e-02
1.849000000000000000e+03 4.720633983612060547e+00 2.539335441589355469e+01 4.380866140127182007e-02 -1.160653114318847656e+00 -3.350533545017242432e-01 4.647089168429374695e-02
1.850000000000000000e+03 4.970436573028564453e+00 2.985093116760253906e+01 1.749111525714397430e-02 -1.147215723991394043e+00 -3.389173746109008789e-01 -9.170363657176494598e-03
1.851000000000000000e+03 4.052512168884277344e+00 1.731734848022460938e+01 6.091419234871864319e-02 -1.060188055038452148e+00 -2.997821867465972900e-01 2.136653661727905273e-01
1.852000000000000000e+03 4.040223121643066406e+00 1.863825225830078125e+01 5.586557835340499878e-02 -1.105401277542114258e+00 -3.148607015609741211e-01 1.810247898101806641e-01
1.853000000000000000e+03 2.948080062866210938e+00 1.874591445922851562e+01 3.412332385778427124e-02 -1.189867854118347168e+00 -3.467233777046203613e-01 1.395767927169799805e-01
1.854000000000000000e+03 4.056540012359619141e+00 1.994666862487792969e+01 5.615213885903358459e-02 -1.141669869422912598e+00 -3.256553113460540771e-01 1.480662524700164795e-01
1.855000000000000000e+03 2.910452842712402344e+00 1.466088867187500000e+01 3.210959210991859436e-02 -9.907547235488891602e-01 -2.875935435295104980e-01 2.226625978946685791e-01
1.856000000000000000e+03 4.040431976318359375e+00 1.325912284851074219e+01 5.326530709862709045e-02 -8.746947646141052246e-01 -2.464288324117660522e-01 3.193809688091278076e-01
1.857000000000000000e+03 4.055221080780029297e+00 1.462697124481201172e+01 6.154333427548408508e-02 -9.447466135025024414e-01 -2.649609744548797607e-01 2.869603633880615234e-01
1.858000000000000000e+03 5.805076599121093750e+00 2.355848312377929688e+01 7.989813387393951416e-02 -1.044670701026916504e+00 -2.894317805767059326e-01 8.692774176597595215e-02
1.859000000000000000e+03 4.835330486297607422e+00 2.689796638488769531e+01 3.931152820587158203e-02 -1.151000022888183594e+00 -3.335065543651580811e-01 2.389385551214218140e-02
1.860000000000000000e+03 4.533349990844726562e+00 2.394629669189453125e+01 4.767367988824844360e-02 -1.167803883552551270e+00 -3.360390663146972656e-01 6.939703971147537231e-02
1.861000000000000000e+03 4.054212093353271484e+00 -1.038522052764892578e+01 7.617492228746414185e-04 1.948218596226070076e-05 2.343694359296932817e-04 1.722933375276625156e-04
1.862000000000000000e+03 3.954591989517211914e+00 -9.040507316589355469e+00 -6.880221189931035042e-04 -1.921881448652129620e-05 -2.121722791343927383e-04 -1.488519774284213781e-04
1.863000000000000000e+03 4.298421382904052734e+00 -1.324344062805175781e+01 1.005020807497203350e-03 7.912849832791835070e-05 3.252447640988975763e-04 8.674367563799023628e-05
1.864000000000000000e+03 5.485023021697998047e+00 3.249161911010742188e+01 6.408757995814085007e-03 -1.072678208351135254e+00 -3.198808133602142334e-01 -2.153554745018482208e-02
1.865000000000000000e+03 6.227990627288818359e+00 3.634064865112304688e+01 -7.290245033800601959e-03 -9.904156327247619629e-01 -2.993117570877075195e-01 -1.438719406723976135e-02
1.866000000000000000e+03 5.176112174987792969e+00 1.192606258392333984e+01 6.950134038925170898e-02 -7.968224287033081055e-01 -2.181963324546813965e-01 4.088776409626007080e-01
1.867000000000000000e+03 3.189502000808715820e+00 -3.008507919311523438e+01 -2.195234410464763641e-03 -5.299830263538751751e-06 -6.601603236049413681e-04 -3.329495084472000599e-04
1.868000000000000000e+03 4.361548900604248047e+00 -3.001001548767089844e+01 2.813294529914855957e-03 -1.585278369020670652e-05 8.392325253225862980e-04 4.732419911306351423e-04
1.869000000000000000e+03 4.169624328613281250e+00 -1.178964519500732422e+01 -8.868085569702088833e-04 -8.138964631143608131e-07 -2.662867482285946608e-04 -1.624872384127229452e-04
1.870000000000000000e+03 3.993465662002563477e+00 1.190666389465332031e+01 4.495703056454658508e-02 -7.965843677520751953e-01 -2.254882007837295532e-01 3.462075591087341309e-01
1.871000000000000000e+03 4.847416877746582031e+00 -5.435658931732177734e+00 -4.225444863550364971e-04 -7.067770638968795538e-05 -1.479666680097579956e-04 -3.190655261278152466e-04
1.872000000000000000e+03 4.916862487792968750e+00 2.839756393432617188e+01 3.083151578903198242e-02 -1.148906707763671875e+00 -3.354225456714630127e-01 7.437138818204402924e-03
1.873000000000000000e+03 6.883170604705810547e+00 3.372529602050781250e+01 1.095542591065168381e-02 -9.063447117805480957e-01 -2.686167955398559570e-01 -3.514654189348220825e-02
1.874000000000000000e+03 5.441777706146240234e+00 3.501847076416015625e+01 9.688159450888633728e-03 -1.059346437454223633e+00 -3.148974776268005371e-01 -1.469339989125728607e-02
1.875000000000000000e+03 5.021456241607666016e+00 3.122708129882812500e+01 6.578762549906969070e-03 -1.146297693252563477e+00 -3.419156968593597412e-01 -1.474228315055370331e-02
1.876000000000000000e+03 4.760348796844482422e+00 -3.333720779418945312e+01 -2.102155238389968872e-03 -1.866755483206361532e-04 -6.866492331027984619e-04 -1.302462304010987282e-03
1.877000000000000000e+03 4.366405963897705078e+00 -3.122857284545898438e+01 -2.035682555288076401e-03 -3.680232330225408077e-04 -7.211117190308868885e-04 -1.463029548176564276e-05
1.878000000000000000e+03 3.205233573913574219e+00 -3.140003776550292969e+01 2.806915668770670891e-03 2.307962713530287147e-04 9.113135747611522675e-04 1.111369347199797630e-03
1.879000000000000000e+03 3.859433174133300781e+00 9.203296661376953125e+00 4.387843422591686249e-03 -6.113207340240478516e-01 -1.820798814296722412e-01 3.703046441078186035e-01
1.880000000000000000e+03 3.889608383178710938e+01 9.447824478149414062e+00 1.481324076652526855e+00 4.761598587036132812e+00 1.872876882553100586e+00 -9.689093232154846191e-01
1.881000000000000000e+03 3.883397102355957031e+00 -5.412428379058837891e+00 5.168560892343521118e-04 4.255619933246634901e-05 1.678236876614391804e-04 2.054378273896872997e-04
1.882000000000000000e+03 2.761523485183715820e+00 -6.505764484405517578e+00 5.815636832267045975e-04 4.587801595334894955e-05 1.882325159385800362e-04 4.151416214881464839e-05
1.883000000000000000e+03 3.837577104568481445e+00 -3.670420455932617188e+01 1.210618764162063599e-03 1.396822859533131123e-03 7.822324987500905991e-04 -1.580914686201140285e-04
1.884000000000000000e+03 5.474576950073242188e+00 -3.433436203002929688e+01 2.669300418347120285e-03 6.004259339533746243e-04 9.809178300201892853e-04 1.512374961748719215e-03
1.885000000000000000e+03 3.678986740112304688e+01 -1.590084552764892578e+01 -2.174048662185668945e+00 -5.818810462951660156e-01 -8.267789483070373535e-01 9.169264435768127441e-01
1.886000000000000000e+03 7.287769317626953125e+01 -2.039436149597167969e+01 -9.104629755020141602e-01 7.722371578216552734e+00 2.043572664260864258e+00 -3.377213776111602783e-01
1.887000000000000000e+03 7.244668579101562500e+01 -2.605997323989868164e-01 7.604225277900695801e-01 9.650032997131347656e+00 3.123136758804321289e+00 4.393717944622039795e-01
1.888000000000000000e+03 6.982825469970703125e+01 3.230563735961914062e+01 -9.491032361984252930e-01 4.311118602752685547e+00 1.008604645729064941e+00 -5.345208197832107544e-02
1.889000000000000000e+03 1.577769660949707031e+01 -7.987174987792968750e+00 2.042395353782922029e-04 1.677171094343066216e-04 1.115869963541626930e-04 1.325046468991786242e-05
1.890000000000000000e+03 4.105857849121093750e+01 4.122314929962158203e+00 9.412221908569335938e-01 4.807250022888183594e+00 1.724541664123535156e+00 -1.497453451156616211e+00
1.891000000000000000e+03 4.229197692871093750e+01 1.650402665138244629e+00 7.720601558685302734e-01 4.465364456176757812e+00 1.571227312088012695e+00 -1.749311208724975586e+00
1.892000000000000000e+03 7.096752929687500000e+01 -4.376318454742431641e+00 3.343039453029632568e-01 8.378184318542480469e+00 2.613746404647827148e+00 8.696093559265136719e-01
1.893000000000000000e+03 7.372045135498046875e+01 2.121391677856445312e+01 1.302740573883056641e-01 8.235037803649902344e+00 2.509593486785888672e+00 5.431845784187316895e-01
1.894000000000000000e+03 7.335142517089843750e+01 -9.401162147521972656e+00 -7.008697837591171265e-02 6.659058094024658203e+00 1.976691365242004395e+00 -3.223359882831573486e-01
1.895000000000000000e+03 7.144172668457031250e+01 -3.021082878112792969e+00 3.954600095748901367e-01 9.089453697204589844e+00 2.845474004745483398e+00 7.683025598526000977e-01
1.896000000000000000e+03 7.191049957275390625e+01 -1.662486672401428223e+00 6.284535527229309082e-01 9.581098556518554688e+00 3.062865495681762695e+00 5.288378000259399414e-01
1.897000000000000000e+03 7.277001953125000000e+01 -6.369749069213867188e+00 2.942219935357570648e-02 7.400400638580322266e+00 2.228946924209594727e+00 -2.801018208265304565e-02
1.898000000000000000e+03 6.799881744384765625e+01 -1.149189186096191406e+01 6.104868054389953613e-01 4.433794498443603516e+00 1.513284325599670410e+00 8.492372632026672363e-01
1.899000000000000000e+03 7.100156402587890625e+01 -1.050810813903808594e+01 1.220347434282302856e-01 5.942006587982177734e+00 1.819212436676025391e+00 1.782445460557937622e-01
1.900000000000000000e+03 4.957181167602539062e+01 -1.269263935089111328e+01 1.019567012786865234e+00 5.320399761199951172e+00 1.901990056037902832e+00 -2.203701257705688477e+00
1.901000000000000000e+03 3.612989044189453125e+01 2.102066802978515625e+01 4.674359261989593506e-01 2.980256319046020508e+00 1.034307718276977539e+00 -4.767343401908874512e-01
1.902000000000000000e+03 3.955719375610351562e+01 1.714635276794433594e+01 5.537697076797485352e-01 4.733932495117187500e+00 1.586310625076293945e+00 -1.341939568519592285e-01
1.903000000000000000e+03 3.768883895874023438e+01 1.215208911895751953e+01 1.297614216804504395e+00 4.151674270629882812e+00 1.634786605834960938e+00 -8.502815365791320801e-01
1.904000000000000000e+03 7.158201599121093750e+01 -6.076377391815185547e+00 1.675038337707519531e-01 7.532190799713134766e+00 2.309908390045166016e+00 4.138218760490417480e-01
1.905000000000000000e+03 6.595211029052734375e+01 -3.661051177978515625e+01 -2.794961035251617432e-01 4.765431284904479980e-01 5.911410599946975708e-02 6.587358564138412476e-02
1.906000000000000000e+03 6.332637786865234375e+00 -1.706087303161621094e+01 -8.497797534801065922e-04 -7.468389230780303478e-04 -4.789856029674410820e-04 3.171208663843572140e-04
1.907000000000000000e+03 6.983867645263671875e+01 -1.029805374145507812e+01 2.461086362600326538e-01 5.647662639617919922e+00 1.768131494522094727e+00 5.455963611602783203e-01
1.908000000000000000e+03 6.019690513610839844e+00 -2.580531120300292969e+01 1.754975877702236176e-03 5.422034300863742828e-04 6.891537923365831375e-04 -5.081394556327722967e-05
1.909000000000000000e+03 5.810363006591796875e+01 -2.292311668395996094e+01 1.207083106040954590e+00 1.747099518775939941e+00 8.862547874450683594e-01 2.615374326705932617e-01
1.910000000000000000e+03 3.901296234130859375e+01 2.084125900268554688e+01 3.748170435428619385e-01 3.714422225952148438e+00 1.226771831512451172e+00 -6.222738325595855713e-02
1.911000000000000000e+03 3.819761276245117188e+01 1.775017547607421875e+01 6.339938044548034668e-01 4.041609287261962891e+00 1.402680993080139160e+00 -3.988775312900543213e-01
1.912000000000000000e+03 7.190680503845214844e+00 -1.824549484252929688e+01 -1.689088647253811359e-03 1.101919333450496197e-04 -4.736690025310963392e-04 7.787528011249378324e-05
1.913000000000000000e+03 7.317720031738281250e+01 -3.035674858093261719e+01 -4.958924278616905212e-02 8.384618759155273438e+00 2.500508785247802734e+00 -5.033217072486877441e-01
1.914000000000000000e+03 7.487160491943359375e+01 2.703119468688964844e+01 4.187357425689697266e-02 8.086647033691406250e+00 2.438556194305419922e+00 7.841772437095642090e-01
1.915000000000000000e+03 7.572257995605468750e+01 4.056132507324218750e+01 2.093288116157054901e-02 9.050621986389160156e+00 2.721466302871704102e+00 3.087690770626068115e-01
1.916000000000000000e+03 7.505635070800781250e+01 3.834308624267578125e+01 -2.001641094684600830e-01 8.148221969604492188e+00 2.384417295455932617e+00 1.214926093816757202e-01
1.917000000000000000e+03 5.327897262573242188e+01 -3.082441711425781250e+01 1.853016734123229980e+00 5.847699642181396484e+00 2.310214996337890625e+00 3.281621038913726807e-01
1.918000000000000000e+03 5.272826766967773438e+01 -3.003327941894531250e+01 1.617444038391113281e+00 5.681105613708496094e+00 2.189564943313598633e+00 7.181906839832663536e-04
1.919000000000000000e+03 4.563025665283203125e+01 -2.756422424316406250e+01 1.724712103605270386e-01 6.173422336578369141e-01 2.369440346956253052e-01 -6.639735400676727295e-02
1.920000000000000000e+03 4.420960235595703125e+01 -2.746491622924804688e+01 -4.281645640730857849e-02 -1.007223874330520630e-01 -4.306165501475334167e-02 -2.207449674606323242e-01
1.921000000000000000e+03 5.899187469482421875e+01 -2.251221275329589844e+01 1.148326516151428223e+00 1.001068592071533203e+00 6.448185443878173828e-01 6.682135462760925293e-01
1.922000000000000000e+03 5.570964050292968750e+01 -1.999549865722656250e+01 4.036635398864746094e+00 2.438181638717651367e+00 1.942445039749145508e+00 -7.083913683891296387e-01
1.923000000000000000e+03 4.072886657714843750e+01 2.504683494567871094e+01 1.440992355346679688e-01 3.166358947753906250e+00 9.931374192237854004e-01 2.159500569105148315e-01
1.924000000000000000e+03 4.207003021240234375e+01 2.437374305725097656e+01 2.365450561046600342e-01 3.343979120254516602e+00 1.074157238006591797e+00 5.135761499404907227e-01
1.925000000000000000e+03 6.219496154785156250e+01 -1.660949707031250000e+01 6.409524679183959961e-01 1.225756168365478516e+00 5.600125789642333984e-01 1.406356453895568848e+00
1.926000000000000000e+03 6.122293090820312500e+01 -1.907076072692871094e+01 5.067676305770874023e-01 7.069765925407409668e-01 3.641232550144195557e-01 1.710413813591003418e+00
1.927000000000000000e+03 3.665134429931640625e+01 1.530017471313476562e+01 9.537332653999328613e-01 3.653680324554443359e+00 1.382224082946777344e+00 -6.674156785011291504e-01
1.928000000000000000e+03 7.354994201660156250e+01 2.636865234375000000e+01 1.090339124202728271e-01 7.686295509338378906e+00 2.338598728179931641e+00 7.342865467071533203e-01
1.929000000000000000e+03 3.833106231689453125e+01 1.083176422119140625e+01 1.424144864082336426e+00 4.517764568328857422e+00 1.782572746276855469e+00 -8.730654716491699219e-01
1.930000000000000000e+03 3.700690078735351562e+01 1.832145309448242188e+01 6.837359666824340820e-01 3.569598913192749023e+00 1.276000499725341797e+00 -4.779677093029022217e-01
1.931000000000000000e+03 6.833211517333984375e+01 -1.518557643890380859e+01 4.685231149196624756e-01 3.569577217102050781e+00 1.211430072784423828e+00 -8.527030795812606812e-02
1.932000000000000000e+03 6.923369598388671875e+01 -1.346493244171142578e+01 3.661481738090515137e-01 4.491556167602539062e+00 1.457311272621154785e+00 1.173616647720336914e-01
1.933000000000000000e+03 7.085086059570312500e+01 3.280974197387695312e+01 -8.245729804039001465e-01 5.168595790863037109e+00 1.303206920623779297e+00 1.767909713089466095e-02
1.934000000000000000e+03 7.458836364746093750e+01 -2.815021705627441406e+01 8.861864209175109863e-01 8.470744132995605469e+00 2.807079315185546875e+00 -7.573419213294982910e-01
1.935000000000000000e+03 7.397005462646484375e+01 -2.929970169067382812e+01 5.239185690879821777e-01 8.515368461608886719e+00 2.711786031723022461e+00 -9.331462383270263672e-01
1.936000000000000000e+03 6.382293319702148438e+01 -1.660418891906738281e+01 7.734321951866149902e-01 1.542387604713439941e+00 6.947458982467651367e-01 1.132409811019897461e+00
1.937000000000000000e+03 7.148757171630859375e+01 -3.244017028808593750e+01 -8.886417150497436523e-01 6.137229442596435547e+00 1.574576258659362793e+00 5.874459147453308105e-01
1.938000000000000000e+03 7.458638763427734375e+01 -3.458583450317382812e+01 -6.715611815452575684e-01 7.299624919891357422e+00 1.988419055938720703e+00 -5.102829337120056152e-01
1.939000000000000000e+03 1.767088127136230469e+01 -3.795629882812500000e+01 -7.091467268764972687e-03 -5.651258397847414017e-03 -3.822817699983716011e-03 -5.489571020007133484e-03
1.940000000000000000e+03 1.894028091430664062e+01 -3.622629547119140625e+01 1.419077860191464424e-03 -1.821409678086638451e-03 -1.206995220854878426e-04 -3.372565552126616240e-04
1.941000000000000000e+03 6.074959564208984375e+01 -2.054405403137207031e+01 7.032145857810974121e-01 4.486887156963348389e-01 3.455709815025329590e-01 1.461278557777404785e+00
1.942000000000000000e+03 5.445740509033203125e+01 3.617891693115234375e+01 -6.387546658515930176e-01 5.229516327381134033e-02 -1.759378612041473389e-01 2.438773959875106812e-02
1.943000000000000000e+03 5.381076812744140625e+01 3.756939697265625000e+01 -4.141989052295684814e-01 2.392480671405792236e-01 -5.248524993658065796e-02 1.371466070413589478e-01
1.944000000000000000e+03 6.909282684326171875e+01 -3.582735443115234375e+01 -6.176608800888061523e-01 2.611672401428222656e+00 5.982034206390380859e-01 6.850062012672424316e-01
1.945000000000000000e+03 3.796297073364257812e+01 -1.588786792755126953e+01 -2.076814174652099609e+00 -4.657996594905853271e-01 -7.627841830253601074e-01 6.734074950218200684e-01
1.946000000000000000e+03 3.555978393554687500e+01 -1.255770397186279297e+01 -9.290664792060852051e-01 3.748104721307754517e-02 -2.674756348133087158e-01 8.186972141265869141e-01
1.947000000000000000e+03 7.173615264892578125e+01 2.965723037719726562e+01 -4.175988733768463135e-01 6.394601821899414062e+00 1.793100953102111816e+00 4.448258280754089355e-01
1.948000000000000000e+03 6.075553417205810547e+00 -2.249619102478027344e+01 1.885785488411784172e-03 3.291089342383202165e-06 5.667229997925460339e-04 -1.613073254702612758e-04
1.949000000000000000e+03 6.821051788330078125e+01 4.104056167602539062e+01 2.050324380397796631e-01 2.400804281234741211e+00 7.817510366439819336e-01 -4.439825564622879028e-02
1.950000000000000000e+03 8.913050651550292969e+00 -3.044944763183593750e+01 1.961869653314352036e-03 -6.029941141605377197e-04 4.076626210007816553e-04 2.776412060484290123e-03
1.951000000000000000e+03 8.475514411926269531e+00 -3.179239463806152344e+01 1.155882608145475388e-03 1.584277837537229061e-03 8.220481104217469692e-04 -2.005299553275108337e-03
1.952000000000000000e+03 7.375032424926757812e+00 -1.496860027313232422e+01 1.149791292846202850e-03 8.701562910573557019e-05 3.710420860443264246e-04 2.051790797850117087e-04
1.953000000000000000e+03 4.271600723266601562e+00 -1.748788642883300781e+01 -1.171929994598031044e-03 -3.757690719794481993e-04 -4.643097345251590014e-04 -2.783446107059717178e-04
1.954000000000000000e+03 5.218128204345703125e+01 4.106382369995117188e+01 -5.268259644508361816e-01 5.498785972595214844e-01 6.915793288499116898e-03 5.042535811662673950e-02
1.955000000000000000e+03 7.515892028808593750e+01 3.489171981811523438e+01 -2.647043168544769287e-01 8.193966865539550781e+00 2.378778934478759766e+00 2.025816291570663452e-01
1.956000000000000000e+03 6.171613693237304688e+01 -4.118762207031250000e+01 4.013812243938446045e-01 8.064371347427368164e-01 3.623454868793487549e-01 -2.071982026100158691e-01
1.957000000000000000e+03 7.855517387390136719e+00 -3.349227523803710938e+01 1.988843549042940140e-03 -1.355054904706776142e-03 1.901366194942966104e-04 2.722580451518297195e-03
1.958000000000000000e+03 3.866215133666992188e+01 1.922341918945312500e+01 5.031465888023376465e-01 3.976493835449218750e+00 1.343892097473144531e+00 -1.975030601024627686e-01
1.959000000000000000e+03 7.234268188476562500e+01 -3.140376472473144531e+01 -5.676063299179077148e-01 7.392821311950683594e+00 2.047564506530761719e+00 3.213439881801605225e-02
1.960000000000000000e+03 7.237281799316406250e+01 1.059793567657470703e+01 -4.513268172740936279e-01 9.463679313659667969e+00 2.703705787658691406e+00 4.811494350433349609e-01
1.961000000000000000e+03 5.480736923217773438e+01 -2.664077568054199219e+01 -5.461685657501220703e-01 7.328316688537597656e+00 2.034644365310668945e+00 -1.477089822292327881e-01
1.962000000000000000e+03 5.024261856079101562e+01 -1.772332763671875000e+01 3.780540525913238525e-01 2.985529661178588867e+00 1.009075164794921875e+00 -4.465632438659667969e+00
1.963000000000000000e+03 4.867267227172851562e+01 -1.785532951354980469e+01 -8.779297471046447754e-01 8.498207330703735352e-01 -8.432706817984580994e-03 -1.733385801315307617e+00
1.964000000000000000e+03 5.261118316650390625e+01 -2.166448020935058594e+01 -9.391633868217468262e-01 1.134153556823730469e+01 3.120711565017700195e+00 9.549134224653244019e-02
1.965000000000000000e+03 5.094089889526367188e+01 -2.227001953125000000e+01 3.985470626503229141e-03 4.919735908508300781e+00 1.477116346359252930e+00 2.224225759506225586e+00
1.966000000000000000e+03 5.316532135009765625e+01 -2.203023147583007812e+01 -6.585888862609863281e-01 1.005399894714355469e+01 2.818623065948486328e+00 -6.339416503906250000e-01
1.967000000000000000e+03 5.000465774536132812e+01 -2.276398086547851562e+01 2.173842340707778931e-01 2.850319147109985352e+00 9.203110337257385254e-01 1.470475077629089355e+00
1.968000000000000000e+03 5.244443511962890625e+01 -1.699964714050292969e+01 -2.843145847320556641e+00 1.101848316192626953e+01 2.452601194381713867e+00 -3.712677240371704102e+00
1.969000000000000000e+03 5.188118743896484375e+01 -1.560811042785644531e+01 -2.981968402862548828e+00 7.951803207397460938e+00 1.490950465202331543e+00 -3.260089397430419922e+00
1.970000000000000000e+03 5.049651718139648438e+01 -2.229028320312500000e+01 1.967957317829132080e-01 3.620936632156372070e+00 1.145319700241088867e+00 1.958140850067138672e+00
1.971000000000000000e+03 1.365312480926513672e+01 -6.680638790130615234e+00 -1.303481694776564837e-04 3.950559039367362857e-05 -2.725277590798214078e-05 3.698671935126185417e-04
1.972000000000000000e+03 1.295369338989257812e+01 -5.862212657928466797e+00 4.769097140524536371e-04 -1.008693652693182230e-05 1.400468318024650216e-04 1.649805744818877429e-05
1.973000000000000000e+03 1.088983917236328125e+01 -5.386008262634277344e+00 1.869204425020143390e-04 2.585526381153613329e-04 1.336419227300211787e-04 -1.121943023463245481e-05
1.974000000000000000e+03 1.255112075805664062e+01 -6.510598659515380859e+00 -5.748938419856131077e-04 7.880838529672473669e-05 -1.488256384618580341e-04 1.242946746060624719e-04
1.975000000000000000e+03 5.394990158081054688e+01 -2.656519699096679688e+01 -4.634415507316589355e-01 7.207142829895019531e+00 2.023110389709472656e+00 -3.784599006175994873e-01
1.976000000000000000e+03 5.557218170166015625e+01 -2.497189712524414062e+01 -6.085556745529174805e-01 6.251321315765380859e+00 1.692829728126525879e+00 -1.449775993824005127e-01
1.977000000000000000e+03 5.466969299316406250e+01 -2.168038368225097656e+01 1.707236647605895996e+00 6.869038105010986328e+00 2.572882413864135742e+00 -2.270701885223388672e+00
1.978000000000000000e+03 4.635542678833007812e+01 -2.848599243164062500e+01 2.082449197769165039e-01 1.129187703132629395e+00 4.012297689914703369e-01 1.389837563037872314e-01
1.979000000000000000e+03 4.650027465820312500e+01 -2.535205459594726562e+01 2.860948145389556885e-01 6.708768010139465332e-01 2.870914638042449951e-01 -1.614907979965209961e-01
1.980000000000000000e+03 1.394168376922607422e+01 -7.322069168090820312e+00 1.063306481228210032e-04 -1.472501899115741253e-04 -1.227586471941322088e-05 -3.013668174389749765e-04
1.981000000000000000e+03 1.502962207794189453e+01 -6.965210914611816406e+00 2.037451049545779824e-04 8.861631067702546716e-05 8.770842396188527346e-05 1.375429710606113076e-04
1.982000000000000000e+03 1.486807250976562500e+01 -9.527043342590332031e+00 -1.753794349497184157e-04 -7.153506157919764519e-05 -7.407434895867481828e-05 2.391385351074859500e-04
1.983000000000000000e+03 1.232759761810302734e+01 -5.511206626892089844e+00 -3.837843833025544882e-04 -8.204736514016985893e-05 -1.397495216224342585e-04 5.466915172291919589e-05
1.984000000000000000e+03 1.690295600891113281e+01 -8.873959541320800781e+00 2.283356297994032502e-04 1.551523164380341768e-04 1.150463867816142738e-04 5.667866571457125247e-05
1.985000000000000000e+03 1.588092041015625000e+01 -7.018374919891357422e+00 1.767217472661286592e-04 1.629397447686642408e-04 1.018984476104378700e-04 9.274299372918903828e-05
1.986000000000000000e+03 5.545045852661132812e+01 -2.142607879638671875e+01 2.468042612075805664e+00 4.622359752655029297e+00 2.127120733261108398e+00 -1.548256635665893555e+00
1.987000000000000000e+03 1.134124660491943359e+01 -5.753574848175048828e+00 -3.133385034743696451e-04 -1.603616110514849424e-04 -1.421100314473733306e-04 1.662673894315958023e-04
1.988000000000000000e+03 4.823885345458984375e+01 -2.534277725219726562e+01 3.102984130382537842e-01 1.915499448776245117e+00 6.677393317222595215e-01 3.225082457065582275e-01
1.989000000000000000e+03 4.780551910400390625e+01 -1.464446830749511719e+01 1.179834902286529541e-01 2.987971305847167969e+00 9.317864775657653809e-01 -1.746917366981506348e+00
1.990000000000000000e+03 1.044141769409179688e+01 -5.173918247222900391e+00 -3.427474293857812881e-04 -8.085664012469351292e-05 -1.270812208531424403e-04 -2.313001896254718304e-04
1.991000000000000000e+03 4.784886932373046875e+01 -2.487335014343261719e+01 3.066280186176300049e-01 1.435314297676086426e+00 5.225827097892761230e-01 1.954267770051956177e-01
1.992000000000000000e+03 4.851974487304687500e+01 -2.379032325744628906e+01 2.862780690193176270e-01 1.554250717163085938e+00 5.521586537361145020e-01 4.869276285171508789e-01
1.993000000000000000e+03 5.757772445678710938e+00 4.787682056427001953e+00 -1.999179571866989136e-01 -3.374175131320953369e-01 -1.612006425857543945e-01 4.434723258018493652e-01
1.994000000000000000e+03 3.258835554122924805e+00 3.944887161254882812e+00 -1.042287945747375488e-01 -1.849408149719238281e-01 -8.675087988376617432e-02 1.971554458141326904e-01
1.995000000000000000e+03 4.690526008605957031e+00 4.128369331359863281e+00 -1.794164627790451050e-01 -2.393332570791244507e-01 -1.256249099969863892e-01 3.207100927829742432e-01
1.996000000000000000e+03 7.880994319915771484e+00 5.931227684020996094e+00 -1.686866581439971924e-01 -5.619160532951354980e-01 -2.191808223724365234e-01 6.390979290008544922e-01
1.997000000000000000e+03 6.412581920623779297e+00 4.835186004638671875e+00 -2.339008003473281860e-01 -3.758557140827178955e-01 -1.829269528388977051e-01 5.101190209388732910e-01
1.998000000000000000e+03 8.193520545959472656e+00 5.269371032714843750e+00 -2.312303334474563599e-01 -5.440750122070312500e-01 -2.325915992259979248e-01 6.657406687736511230e-01
1.999000000000000000e+03 2.784107017517089844e+01 -9.753630638122558594e+00 -1.141080856323242188e+00 -4.359809458255767822e-01 -4.731185138225555420e-01 1.242576599121093750e+00
2.000000000000000000e+03 7.234255313873291016e+00 4.187183856964111328e+00 -3.240040540695190430e-01 -3.699008226394653320e-01 -2.081714719533920288e-01 5.599253177642822266e-01
2.001000000000000000e+03 3.935924053192138672e+00 4.239830017089843750e+00 -1.355184763669967651e-01 -2.161325365304946899e-01 -1.054953038692474365e-01 2.607254683971405029e-01
2.002000000000000000e+03 2.884381484985351562e+01 -1.297469329833984375e+01 -1.134928226470947266e+00 -3.373000621795654297e-01 -4.416684806346893311e-01 1.241327881813049316e+00
2.003000000000000000e+03 3.066430664062500000e+01 -1.277977371215820312e+01 -1.208463907241821289e+00 -1.438864618539810181e-01 -4.057050943374633789e-01 1.213499784469604492e+00
2.004000000000000000e+03 2.921840095520019531e+01 -1.365253829956054688e+01 -1.179655432701110840e+00 -2.975270450115203857e-01 -4.431547224521636963e-01 1.161911487579345703e+00
2.005000000000000000e+03 8.796445846557617188e+00 -4.253168106079101562e+00 -1.571629982208833098e-04 -1.906146644614636898e-04 -1.043332958943210542e-04 -9.187545947497710586e-05
2.006000000000000000e+03 9.764868736267089844e+00 -5.765772819519042969e+00 -6.818084511905908585e-04 5.609911022474989295e-05 -1.877127942861989141e-04 -6.007283445796929300e-05
2.007000000000000000e+03 1.602689361572265625e+01 3.385694742202758789e+00 -3.036009967327117920e-01 -1.170197725296020508e+00 -4.421396255493164062e-01 8.367857933044433594e-01
2.008000000000000000e+03 2.600440025329589844e+01 -8.196023941040039062e+00 -1.237047195434570312e+00 -8.473268747329711914e-01 -6.253122091293334961e-01 1.221444606781005859e+00
2.009000000000000000e+03 7.367554664611816406e+00 -5.119510650634765625e+00 4.813783743884414434e-05 2.486119046807289124e-04 8.902492118068039417e-05 1.279577991226688027e-04
2.010000000000000000e+03 4.908464908599853516e+00 -4.462192058563232422e+00 4.219159018248319626e-04 5.268367749522440135e-05 1.423798676114529371e-04 3.272134927101433277e-04
2.011000000000000000e+03 2.245404815673828125e+01 -3.496605873107910156e+00 -1.172958254814147949e+00 -1.361101508140563965e+00 -7.602179050445556641e-01 1.075476765632629395e+00
2.012000000000000000e+03 2.170882797241210938e+01 -1.712592601776123047e+00 -9.062415957450866699e-01 -1.282097578048706055e+00 -6.565017700195312500e-01 9.195871353149414062e-01
2.013000000000000000e+03 2.611565780639648438e+01 -7.030209064483642578e+00 -1.168303966522216797e+00 -7.331522703170776367e-01 -5.704368948936462402e-01 1.109300851821899414e+00
2.014000000000000000e+03 4.388274765014648438e+01 -1.674893379211425781e+01 -1.632707118988037109e+00 9.561020731925964355e-01 -2.029815167188644409e-01 1.797775328159332275e-01
2.015000000000000000e+03 4.143938064575195312e+01 -1.600034713745117188e+01 -1.774487972259521484e+00 5.673213601112365723e-01 -3.621499836444854736e-01 2.070580720901489258e-01
2.016000000000000000e+03 6.577246189117431641e+00 -4.378137111663818359e+00 1.442266657250002027e-04 1.947700657183304429e-04 1.016990208881907165e-04 2.728027757257223129e-04
2.017000000000000000e+03 5.748122692108154297e+00 -5.370742321014404297e+00 2.424280246486887336e-04 1.622031704755499959e-04 1.213893629028461874e-04 3.826215106528252363e-04
2.018000000000000000e+03 5.294586181640625000e+01 -2.399642944335937500e+01 -1.142490983009338379e+00 7.443963527679443359e+00 1.890441775321960449e+00 2.142262160778045654e-01
2.019000000000000000e+03 4.453289031982421875e+01 -1.683175849914550781e+01 -1.531215786933898926e+00 9.611573815345764160e-01 -1.710175126791000366e-01 9.848134219646453857e-02
2.020000000000000000e+03 5.481571197509765625e+01 -2.581594085693359375e+01 -8.088947534561157227e-01 7.208881378173828125e+00 1.919996023178100586e+00 -1.671296805143356323e-01
2.021000000000000000e+03 4.482546615600585938e+01 -1.640338706970214844e+01 -1.204983830451965332e+00 1.058763146400451660e+00 -4.386620596051216125e-02 -8.463837951421737671e-02
2.022000000000000000e+03 4.306176376342773438e+01 -1.738410186767578125e+01 -2.134973764419555664e+00 8.277091383934020996e-01 -3.921793699264526367e-01 4.330749213695526123e-01
2.023000000000000000e+03 1.370891475677490234e+01 3.077825307846069336e+00 -5.154210329055786133e-01 -1.039261341094970703e+00 -4.664047360420227051e-01 9.013958573341369629e-01
2.024000000000000000e+03 3.106049537658691406e+01 -1.366005802154541016e+01 -1.340349793434143066e+00 -1.251372694969177246e-01 -4.396461248397827148e-01 1.176032423973083496e+00
2.025000000000000000e+03 5.642568969726562500e+01 -2.321886444091796875e+01 5.489798188209533691e-01 4.278293132781982422e+00 1.448181867599487305e+00 -3.860645890235900879e-01
2.026000000000000000e+03 5.557988357543945312e+01 -2.326510047912597656e+01 2.383145689964294434e-01 5.590845108032226562e+00 1.748747944831848145e+00 -6.911903619766235352e-01
2.027000000000000000e+03 9.897371292114257812e+00 -5.072296142578125000e+00 5.356115289032459259e-04 -7.259439007611945271e-05 1.389051467413082719e-04 4.698969496530480683e-05
2.028000000000000000e+03 1.006810951232910156e+01 -4.418163299560546875e+00 -3.246376290917396545e-04 -1.024262091959826648e-04 -1.281191507587209344e-04 -4.247959441272541881e-05
2.029000000000000000e+03 2.516059112548828125e+01 -5.644055843353271484e+00 -1.140437841415405273e+00 -8.930057287216186523e-01 -6.100330948829650879e-01 1.039125800132751465e+00
2.030000000000000000e+03 2.699630737304687500e+01 -8.397855758666992188e+00 -1.164801716804504395e+00 -5.766982436180114746e-01 -5.224499702453613281e-01 1.181093573570251465e+00
2.031000000000000000e+03 1.906043815612792969e+01 4.775565862655639648e-01 -7.101833224296569824e-01 -1.343866229057312012e+00 -6.162148714065551758e-01 9.169755578041076660e-01
2.032000000000000000e+03 2.295051765441894531e+01 -2.955610990524291992e+00 -1.001567125320434570e+00 -1.181292295455932617e+00 -6.548578143119812012e-01 9.413766860961914062e-01
2.033000000000000000e+03 1.973911857604980469e+01 -3.229672089219093323e-02 -7.593615055084228516e-01 -1.348122000694274902e+00 -6.322450637817382812e-01 9.131060242652893066e-01
2.034000000000000000e+03 1.837274551391601562e+01 9.639130234718322754e-01 -6.666234731674194336e-01 -1.329728960990905762e+00 -5.989057421684265137e-01 9.169201850891113281e-01
2.035000000000000000e+03 4.715783691406250000e+01 -1.671628952026367188e+01 -7.304515242576599121e-01 1.352200746536254883e+00 1.865247786045074463e-01 -9.726954698562622070e-01
2.036000000000000000e+03 4.626099777221679688e+01 -1.634599685668945312e+01 -7.960706353187561035e-01 1.279135942459106445e+00 1.449196040630340576e-01 -5.979022383689880371e-01
2.037000000000000000e+03 2.826197052001953125e+01 -1.043269634246826172e+01 -1.133987784385681152e+00 -3.752020001411437988e-01 -4.527569413185119629e-01 1.266241312026977539e+00
2.038000000000000000e+03 2.742076301574707031e+01 -9.076051712036132812e+00 -1.158552289009094238e+00 -5.052953958511352539e-01 -4.991543292999267578e-01 1.215305566787719727e+00
2.039000000000000000e+03 1.346105194091796875e+01 4.258641719818115234e+00 -2.826383411884307861e-01 -1.018138408660888672e+00 -3.902330100536346436e-01 8.526499867439270020e-01
2.040000000000000000e+03 2.564789390563964844e+01 -6.336400985717773438e+00 -1.160827517509460449e+00 -8.173015117645263672e-01 -5.934386849403381348e-01 1.073494672775268555e+00
2.041000000000000000e+03 5.003831100463867188e+01 -1.360583019256591797e+01 4.002293646335601807e-01 5.759719371795654297e+00 1.847984552383422852e+00 -2.371117115020751953e+00
2.042000000000000000e+03 1.418133735656738281e+01 3.739080429077148438e+00 -3.444035649299621582e-01 -1.072215557098388672e+00 -4.249857366085052490e-01 8.694573640823364258e-01
2.043000000000000000e+03 2.411074447631835938e+01 -4.276977062225341797e+00 -1.082929849624633789e+00 -1.045724749565124512e+00 -6.385963559150695801e-01 9.813681840896606445e-01
2.044000000000000000e+03 2.354269218444824219e+01 -3.608452558517456055e+00 -1.046748638153076172e+00 -1.120084643363952637e+00 -6.500499844551086426e-01 9.585325717926025391e-01
2.045000000000000000e+03 9.847498893737792969e+00 5.214207172393798828e+00 -2.307547479867935181e-01 -6.998906135559082031e-01 -2.791936099529266357e-01 7.611946463584899902e-01
2.046000000000000000e+03 2.040683364868164062e+01 -5.663024783134460449e-01 -8.063696026802062988e-01 -1.337332725524902344e+00 -6.431106925010681152e-01 9.137088656425476074e-01
2.047000000000000000e+03 4.932453918457031250e+01 -2.409170532226562500e+01 1.932178586721420288e-01 2.598523855209350586e+00 8.375225067138671875e-01 8.323378562927246094e-01
2.048000000000000000e+03 5.093091964721679688e+01 -2.270912170410156250e+01 -1.866983473300933838e-01 5.013987541198730469e+00 1.448186755180358887e+00 1.944115042686462402e+00
2.049000000000000000e+03 5.380103302001953125e+01 -2.732294654846191406e+01 4.593500867486000061e-03 6.816408634185791016e+00 2.046300649642944336e+00 -3.982410430908203125e-01
2.050000000000000000e+03 1.558099460601806641e+01 2.777026891708374023e+00 -4.741402268409729004e-01 -1.176180362701416016e+00 -4.950961768627166748e-01 8.975001573562622070e-01
2.051000000000000000e+03 1.488233757019042969e+01 3.248737812042236328e+00 -4.094933867454528809e-01 -1.125968813896179199e+00 -4.606386721134185791e-01 8.833465576171875000e-01
2.052000000000000000e+03 5.758349227905273438e+01 -1.842246246337890625e+01 1.121413588523864746e+00 -2.855776846408843994e-01 2.507507503032684326e-01 2.297747135162353516e+00
2.053000000000000000e+03 5.644330215454101562e+01 -1.824031639099121094e+01 1.497283816337585449e+00 -2.156267128884792328e-02 4.427163600921630859e-01 1.756882548332214355e+00
2.054000000000000000e+03 3.133598327636718750e+01 -1.458401203155517578e+01 -1.494307518005371094e+00 -1.097692176699638367e-01 -4.812230169773101807e-01 1.088008761405944824e+00
2.055000000000000000e+03 4.745620346069335938e+01 -1.219528102874755859e+01 9.611920118331909180e-01 3.596639156341552734e+00 1.367349386215209961e+00 -1.840126037597656250e+00
2.056000000000000000e+03 4.943582916259765625e+01 -1.552737331390380859e+01 -3.235178291797637939e-01 4.323631763458251953e+00 1.200034141540527344e+00 -2.773844957351684570e+00
2.057000000000000000e+03 7.472013092041015625e+01 1.093888282775878906e+01 -1.896353513002395630e-01 8.386305809020996094e+00 2.459001302719116211e+00 6.965884566307067871e-01
2.058000000000000000e+03 3.321759033203125000e+01 -1.320337772369384766e+01 -1.274823069572448730e+00 -5.458866804838180542e-02 -3.988235294818878174e-01 1.124143123626708984e+00
2.059000000000000000e+03 2.953336334228515625e+01 -1.250324153900146484e+01 -1.159524083137512207e+00 -2.465927749872207642e-01 -4.218350648880004883e-01 1.245532751083374023e+00
2.060000000000000000e+03 3.905803298950195312e+01 -1.569994258880615234e+01 -1.912290215492248535e+00 -2.989412248134613037e-01 -6.633694171905517578e-01 4.336643517017364502e-01
2.061000000000000000e+03 4.087431335449218750e+01 -1.735853767395019531e+01 -2.494943141937255859e+00 3.192721307277679443e-01 -6.527013182640075684e-01 4.668867886066436768e-01
2.062000000000000000e+03 1.225073814392089844e+01 4.000866413116455078e+00 -3.711828589439392090e-01 -9.083817005157470703e-01 -3.838693797588348389e-01 8.522258400917053223e-01
2.063000000000000000e+03 7.353302764892578125e+01 6.313221454620361328e+00 3.958926200866699219e-01 9.347218513488769531e+00 2.922933340072631836e+00 6.836454272270202637e-01
2.064000000000000000e+03 1.261718559265136719e+01 -8.146621704101562500e+00 4.964060499332845211e-04 5.515470547834411263e-05 1.654682273510843515e-04 6.013623715261928737e-05
2.065000000000000000e+03 1.136975097656250000e+01 -1.151178359985351562e+01 3.644142416305840015e-04 4.851277917623519897e-04 2.548626216594129801e-04 8.439723751507699490e-05
2.066000000000000000e+03 4.443257141113281250e+01 -3.211712646484375000e+01 9.606177359819412231e-02 4.729629755020141602e-01 1.707074195146560669e-01 4.798345267772674561e-01
2.067000000000000000e+03 4.465707397460937500e+01 -3.004687690734863281e+01 -1.439110040664672852e-01 2.795876264572143555e-01 4.070299118757247925e-02 2.122167050838470459e-01
2.068000000000000000e+03 8.765991210937500000e+00 5.573840618133544922e+00 -1.967018693685531616e-01 -6.177064180374145508e-01 -2.443224787712097168e-01 7.005718350410461426e-01
2.069000000000000000e+03 3.872941589355468750e+01 3.186085462570190430e+00 8.610339164733886719e-01 3.696729898452758789e+00 1.367329120635986328e+00 -9.597121477127075195e-01
2.070000000000000000e+03 3.941619491577148438e+01 8.061869621276855469e+00 1.426785349845886230e+00 4.905836582183837891e+00 1.899786591529846191e+00 -1.008181810379028320e+00
2.071000000000000000e+03 4.414457702636718750e+01 -1.876971721649169922e+00 7.343840599060058594e-01 4.147375583648681641e+00 1.464527845382690430e+00 -1.978108644485473633e+00
2.072000000000000000e+03 4.308556747436523438e+01 -4.799857139587402344e+00 7.163253426551818848e-01 3.290625810623168945e+00 1.202085375785827637e+00 -1.650430560111999512e+00
2.073000000000000000e+03 4.240232086181640625e+01 -1.664243316650390625e+01 -1.894293665885925293e+00 7.664919495582580566e-01 -3.383405208587646484e-01 2.943100035190582275e-01
2.074000000000000000e+03 3.481548690795898438e+01 -1.337210559844970703e+01 -1.234217643737792969e+00 -1.077409014105796814e-01 -4.025875926017761230e-01 1.008569598197937012e+00
2.075000000000000000e+03 3.372981262207031250e+01 -1.397321128845214844e+01 -1.521317601203918457e+00 -1.067601144313812256e-01 -4.884233474731445312e-01 1.123219609260559082e+00
2.076000000000000000e+03 5.165928649902343750e+01 -3.194549560546875000e+01 9.837118983268737793e-01 4.346259593963623047e+00 1.598991394042968750e+00 8.776983022689819336e-01
2.077000000000000000e+03 5.637572097778320312e+01 -2.228877258300781250e+01 1.527499318122863770e+00 3.837138414382934570e+00 1.609391331672668457e+00 -7.199481725692749023e-01
2.078000000000000000e+03 1.177616596221923828e+01 -1.078322410583496094e+01 -4.079793579876422882e-04 -5.674028070643544197e-04 -2.926146553363651037e-04 -1.428558898624032736e-04
2.079000000000000000e+03 2.686674833297729492e+00 6.552693367004394531e+00 -4.143404215574264526e-02 -3.614930212497711182e-01 -1.208781152963638306e-01 2.516545951366424561e-01
2.080000000000000000e+03 3.710115051269531250e+01 1.023078727722167969e+01 1.453501582145690918e+00 3.741343736648559570e+00 1.558453559875488281e+00 -8.187311887741088867e-01
2.081000000000000000e+03 4.558778381347656250e+01 -2.924109649658203125e+01 8.821412920951843262e-02 8.129232525825500488e-01 2.703412175178527832e-01 1.715299636125564575e-01
2.082000000000000000e+03 4.160608291625976562e+01 -4.229385852813720703e+00 6.202949285507202148e-01 2.961006879806518555e+00 1.074390530586242676e+00 -1.361726641654968262e+00
2.083000000000000000e+03 5.959449768066406250e+01 -2.100774383544921875e+01 1.322730541229248047e+00 4.615650773048400879e-01 5.352886915206909180e-01 1.273322701454162598e+00
2.084000000000000000e+03 4.166967391967773438e+01 2.876074552536010742e+00 8.607091903686523438e-01 4.586015701293945312e+00 1.634017467498779297e+00 -1.642145514488220215e+00
2.085000000000000000e+03 4.112947082519531250e+01 1.210387110710144043e+00 7.394859790802001953e-01 4.030862331390380859e+00 1.431104421615600586e+00 -1.474162817001342773e+00
2.086000000000000000e+03 6.489094543457031250e+01 -1.606991386413574219e+01 8.372873663902282715e-01 1.794606685638427734e+00 7.895681858062744141e-01 9.108060002326965332e-01
2.087000000000000000e+03 4.486678695678710938e+01 -6.561256408691406250e+00 8.426372408866882324e-01 3.550810575485229492e+00 1.318034410476684570e+00 -1.892563462257385254e+00
2.088000000000000000e+03 4.597610855102539062e+01 -6.437237262725830078e+00 9.327433109283447266e-01 4.053391456604003906e+00 1.495840430259704590e+00 -2.105515003204345703e+00
2.089000000000000000e+03 7.336466979980468750e+01 1.743669891357421875e+01 9.522932022809982300e-02 8.426486968994140625e+00 2.556514978408813477e+00 5.352920293807983398e-01
2.090000000000000000e+03 6.552683353424072266e+00 -3.278165054321289062e+01 -1.240881625562906265e-03 6.151616689749062061e-04 -1.877159666037186980e-04 7.253119838424026966e-05
2.091000000000000000e+03 3.725938796997070312e+01 -1.391317653656005859e+01 -1.210712075233459473e+00 -1.359181702136993408e-01 -4.039890766143798828e-01 6.554777622222900391e-01
2.092000000000000000e+03 6.933225250244140625e+01 -1.187422180175781250e+01 3.863161802291870117e-01 4.928785324096679688e+00 1.594530463218688965e+00 4.238450229167938232e-01
2.093000000000000000e+03 6.664246368408203125e+01 -1.505864334106445312e+01 8.620216250419616699e-01 2.594400644302368164e+00 1.036926746368408203e+00 5.080394148826599121e-01
2.094000000000000000e+03 4.500265884399414062e+01 -9.532948493957519531e+00 8.381184339523315430e-01 2.936899900436401367e+00 1.132505536079406738e+00 -1.634341239929199219e+00
2.095000000000000000e+03 8.993566513061523438e+00 -1.237938404083251953e+01 8.421766688115894794e-04 -5.023257108405232430e-05 2.375832264078781009e-04 5.182047025300562382e-04
2.096000000000000000e+03 9.375638008117675781e+00 -1.352253532409667969e+01 -9.435778483748435974e-04 8.946196612669155002e-05 -2.562347508501261473e-04 -5.675952415913343430e-04
2.097000000000000000e+03 7.522238922119140625e+01 3.085835456848144531e+01 -2.774311006069183350e-01 8.293172836303710938e+00 2.404722690582275391e+00 6.559272408485412598e-01
2.098000000000000000e+03 4.240822219848632812e+01 -1.157471776008605957e+00 6.784822940826416016e-01 3.842892408370971680e+00 1.356412410736083984e+00 -1.682101964950561523e+00
2.099000000000000000e+03 7.541807556152343750e+01 2.282998275756835938e+01 1.190044283866882324e-01 8.221928596496582031e+00 2.502279996871948242e+00 6.595567464828491211e-01
2.100000000000000000e+03 4.047438430786132812e+01 5.391741752624511719e+00 1.106569170951843262e+00 4.892478942871093750e+00 1.799714446067810059e+00 -1.296608328819274902e+00
2.101000000000000000e+03 4.175861358642578125e+01 4.317596089094877243e-03 6.723845005035400391e-01 3.959835529327392578e+00 1.389665961265563965e+00 -1.574002027511596680e+00
2.102000000000000000e+03 7.578762817382812500e+01 2.818277168273925781e+01 -1.047758087515830994e-01 8.418200492858886719e+00 2.494027376174926758e+00 8.012568354606628418e-01
2.103000000000000000e+03 7.471353149414062500e+01 2.802320671081542969e+01 -2.727633900940418243e-02 7.976771831512451172e+00 2.384848594665527344e+00 8.097633123397827148e-01
2.104000000000000000e+03 7.598191833496093750e+01 4.127282142639160156e+00 3.394376337528228760e-01 7.309094429016113281e+00 2.294559478759765625e+00 4.426828026771545410e-01
2.105000000000000000e+03 7.569923400878906250e+01 2.430928802490234375e+01 1.252485960721969604e-01 8.278376579284667969e+00 2.521087408065795898e+00 6.996614336967468262e-01
2.106000000000000000e+03 7.522832489013671875e+01 2.113586235046386719e+01 1.246196180582046509e-01 8.186978340148925781e+00 2.493479490280151367e+00 5.956776738166809082e-01
2.107000000000000000e+03 7.464830780029296875e+01 -2.351274681091308594e+01 6.189244389533996582e-01 8.312488555908203125e+00 2.679424047470092773e+00 5.011734962463378906e-01
2.108000000000000000e+03 7.592459106445312500e+01 -2.024136161804199219e+01 -3.354511559009552002e-01 7.510485649108886719e+00 2.152510404586791992e+00 4.407641291618347168e-01
2.109000000000000000e+03 7.479608154296875000e+01 -2.193665885925292969e+01 -2.592092938721179962e-02 7.972023963928222656e+00 2.383830785751342773e+00 5.352140069007873535e-01
2.110000000000000000e+03 7.445343780517578125e+01 -1.436679363250732422e+01 -3.042344748973846436e-01 6.582326412200927734e+00 1.883427619934082031e+00 -4.415564835071563721e-01
2.111000000000000000e+03 7.587854003906250000e+01 1.233729743957519531e+01 -1.201803311705589294e-01 7.898086547851562500e+00 2.333371877670288086e+00 6.030008792877197266e-01
2.112000000000000000e+03 7.577524566650390625e+01 1.642640686035156250e+01 -4.061513580381870270e-03 8.030905723571777344e+00 2.408053398132324219e+00 4.903110265731811523e-01
2.113000000000000000e+03 7.421677398681640625e+01 -7.781400680541992188e+00 -4.571629688143730164e-02 6.930836200714111328e+00 2.065536022186279297e+00 -3.869639337062835693e-01
2.114000000000000000e+03 7.473487091064453125e+01 9.712006568908691406e+00 -1.593155860900878906e-01 8.299376487731933594e+00 2.442018270492553711e+00 7.446045279502868652e-01
2.115000000000000000e+03 7.371081542968750000e+01 9.492877006530761719e+00 -1.476404368877410889e-01 9.001081466674804688e+00 2.656032323837280273e+00 7.450182437896728516e-01
2.116000000000000000e+03 7.485740661621093750e+01 3.983058214187622070e+00 4.585536122322082520e-01 8.164252281188964844e+00 2.586841821670532227e+00 4.996250569820404053e-01
2.117000000000000000e+03 7.544963836669921875e+01 -2.838524341583251953e+00 1.909306943416595459e-01 7.179815769195556641e+00 2.211223840713500977e+00 -3.812759816646575928e-01
2.118000000000000000e+03 7.357788085937500000e+01 -3.869431018829345703e+00 1.904729604721069336e-01 7.844448566436767578e+00 2.410476446151733398e+00 -1.641027778387069702e-01
2.119000000000000000e+03 7.565563201904296875e+01 1.786577606201171875e+01 5.996907874941825867e-02 8.088070869445800781e+00 2.444411993026733398e+00 5.338855385780334473e-01
2.120000000000000000e+03 7.540124511718750000e+01 1.941220664978027344e+01 6.337416172027587891e-02 8.181419372558593750e+00 2.473438024520874023e+00 5.509236454963684082e-01
2.121000000000000000e+03 7.448303985595703125e+01 -1.039304256439208984e+01 -1.032344400882720947e-01 6.620512962341308594e+00 1.955183506011962891e+00 -4.596911668777465820e-01
2.122000000000000000e+03 7.446615600585937500e+01 -1.168838119506835938e+01 -1.365393400192260742e-01 6.560196876525878906e+00 1.927097201347351074e+00 -4.456228315830230713e-01
2.123000000000000000e+03 7.599020385742187500e+01 -1.809298896789550781e+01 -4.067262411117553711e-01 7.268449306488037109e+00 2.058516979217529297e+00 1.279712915420532227e-01
2.124000000000000000e+03 7.028626251220703125e+01 -1.898433876037597656e+01 -5.986294746398925781e-01 4.703216552734375000e+00 1.231376171112060547e+00 -1.448719263076782227e+00
2.125000000000000000e+03 7.446450805664062500e+01 -1.183155298233032227e+00 4.285856783390045166e-01 7.895402908325195312e+00 2.497196674346923828e+00 -1.256984621286392212e-01
2.126000000000000000e+03 7.508558654785156250e+01 1.653117418289184570e+00 4.770337343215942383e-01 7.803193092346191406e+00 2.484068155288696289e+00 1.989465206861495972e-01
2.127000000000000000e+03 7.420796966552734375e+01 1.433624982833862305e+00 6.922441124916076660e-01 8.570891380310058594e+00 2.778940677642822266e+00 2.542621791362762451e-01
2.128000000000000000e+03 7.468133544921875000e+01 1.355033969879150391e+01 -1.301582455635070801e-01 8.306969642639160156e+00 2.453043460845947266e+00 5.435724258422851562e-01
2.129000000000000000e+03 7.345433044433593750e+01 -9.299154877662658691e-01 5.773324370384216309e-01 8.610833168029785156e+00 2.756449460983276367e+00 7.415781170129776001e-02
2.130000000000000000e+03 7.443985748291015625e+01 -9.100603103637695312e+00 -7.241516560316085815e-02 6.717978954315185547e+00 1.993669033050537109e+00 -4.201247990131378174e-01
2.131000000000000000e+03 7.241368103027343750e+01 -9.421518325805664062e+00 -9.163682349026203156e-03 6.564538478851318359e+00 1.966612458229064941e+00 -6.787087768316268921e-02
2.132000000000000000e+03 7.319710540771484375e+01 -1.452344989776611328e+01 -2.934040725231170654e-01 6.190901279449462891e+00 1.769249200820922852e+00 -5.071361660957336426e-01
2.133000000000000000e+03 7.473750305175781250e+01 -3.267347717285156250e+01 -5.862109065055847168e-01 7.688033580780029297e+00 2.130546808242797852e+00 -8.217875361442565918e-01
2.134000000000000000e+03 7.197447967529296875e+01 3.431805038452148438e+01 -6.486344337463378906e-01 5.925721168518066406e+00 1.583126068115234375e+00 -2.195957675576210022e-02
2.135000000000000000e+03 7.114286041259765625e+01 -1.985843276977539062e+01 -7.925249338150024414e-01 5.720117092132568359e+00 1.478277683258056641e+00 -1.495017766952514648e+00
2.136000000000000000e+03 7.439990997314453125e+01 -2.103600502014160156e+01 -4.650808274745941162e-01 7.977782249450683594e+00 2.253810405731201172e+00 3.180950582027435303e-01
2.137000000000000000e+03 4.591814041137695312e+01 -1.064632987976074219e+01 8.860456347465515137e-01 3.123739957809448242e+00 1.202935695648193359e+00 -1.712290525436401367e+00
2.138000000000000000e+03 3.627017593383789062e+01 1.737793159484863281e+01 7.886626720428466797e-01 3.354774713516235352e+00 1.243031263351440430e+00 -5.802999138832092285e-01
2.139000000000000000e+03 7.224493408203125000e+01 1.597535610198974609e+01 1.413910835981369019e-01 8.665928840637207031e+00 2.642195940017700195e+00 4.675015807151794434e-01
2.140000000000000000e+03 3.992894363403320312e+01 6.704414844512939453e+00 1.264024972915649414e+00 4.985547542572021484e+00 1.874871730804443359e+00 -1.155808806419372559e+00
2.141000000000000000e+03 4.467890739440917969e+00 -2.869285392761230469e+01 -2.128696767613291740e-03 7.908038969617336988e-05 -6.148848915472626686e-04 -2.880940446630120277e-04
2.142000000000000000e+03 7.471732330322265625e+01 -3.689201736450195312e+01 -4.826795160770416260e-01 7.020746707916259766e+00 1.961420178413391113e+00 -3.124145865440368652e-01
2.143000000000000000e+03 7.618148803710937500e+01 -3.453232955932617188e+01 -4.448155462741851807e-01 7.796181201934814453e+00 2.205409765243530273e+00 -5.909479260444641113e-01
2.144000000000000000e+03 5.374847888946533203e+00 -1.162971210479736328e+01 7.542690145783126354e-04 4.643805732484906912e-05 2.402121172053739429e-04 2.977465337608009577e-04
2.145000000000000000e+03 5.228377819061279297e+00 -1.026106071472167969e+01 -6.848326884210109711e-04 -6.030483928043395281e-05 -2.235412539448589087e-04 -2.551745274104177952e-04
2.146000000000000000e+03 6.083091259002685547e+00 2.508418846130371094e+01 7.085375487804412842e-02 -1.025099396705627441e+00 -2.862736880779266357e-01 5.734677985310554504e-02
2.147000000000000000e+03 6.329013824462890625e+00 -1.606908988952636719e+01 7.232452626340091228e-04 8.213843102566897869e-04 4.633888602256774902e-04 -1.680756031419150531e-05
2.148000000000000000e+03 5.358424186706542969e+00 -1.490787315368652344e+01 6.916563143022358418e-04 5.812810268253087997e-04 3.818811965174973011e-04 -1.753882243065163493e-04
2.149000000000000000e+03 5.373703956604003906e+00 -1.723236274719238281e+01 5.768181872554123402e-04 9.536740253679454327e-04 4.591476463247090578e-04 3.131945850327610970e-04
2.150000000000000000e+03 4.694397449493408203e+00 -2.425242042541503906e+01 1.706902403384447098e-03 2.401455567451193929e-04 5.841144011355936527e-04 1.941780501510947943e-04
2.151000000000000000e+03 5.088732242584228516e+00 1.858358192443847656e+01 8.430560678243637085e-02 -1.036667346954345703e+00 -2.857085168361663818e-01 2.094926089048385620e-01
2.152000000000000000e+03 5.125403404235839844e+00 1.731348609924316406e+01 9.072672575712203979e-02 -1.003888130187988281e+00 -2.739484310150146484e-01 2.487717270851135254e-01
2.153000000000000000e+03 6.176255702972412109e+00 2.670947647094726562e+01 6.047181412577629089e-02 -1.016486167907714844e+00 -2.868042886257171631e-01 2.743351086974143982e-02
2.154000000000000000e+03 5.199000835418701172e+00 1.466052722930908203e+01 9.369874000549316406e-02 -9.122338294982910156e-01 -2.455605268478393555e-01 3.359293639659881592e-01
2.155000000000000000e+03 7.123996734619140625e+00 -1.385986137390136719e+01 -1.163435867056250572e-03 1.870519045041874051e-04 -2.929151814896613359e-04 -3.331693587824702263e-04
2.156000000000000000e+03 6.294085502624511719e+00 3.133815002441406250e+01 1.205640845000743866e-02 -9.944204688072204590e-01 -2.947092354297637939e-01 -1.905880682170391083e-02
2.157000000000000000e+03 5.425931930541992188e+00 2.223255348205566406e+01 7.357137650251388550e-02 -1.072850227355957031e+00 -2.997836470603942871e-01 1.154051125049591064e-01
2.158000000000000000e+03 5.191713809967041016e+00 2.101295852661132812e+01 7.903037965297698975e-02 -1.078232884407043457e+00 -2.997607290744781494e-01 1.416910141706466675e-01
2.159000000000000000e+03 4.435640811920166016e+00 -3.236449432373046875e+01 2.462592441588640213e-03 4.303343885112553835e-04 8.678780868649482727e-04 1.706151873804628849e-03
2.160000000000000000e+03 7.255591392517089844e+00 -3.120536804199218750e+01 2.248298842459917068e-03 -1.507389592006802559e-03 2.222727925982326269e-04 1.735169091261923313e-03
2.161000000000000000e+03 6.310839176177978516e+00 2.827178001403808594e+01 4.552340134978294373e-02 -9.951571226119995117e-01 -2.848901152610778809e-01 5.970834288746118546e-03
2.162000000000000000e+03 3.924601793289184570e+00 1.055633544921875000e+01 2.452119067311286926e-02 -7.086721658706665039e-01 -2.052453011274337769e-01 3.643963336944580078e-01
2.163000000000000000e+03 5.054776668548583984e+00 1.056686973571777344e+01 4.842409864068031311e-02 -7.246221899986267090e-01 -2.028594315052032471e-01 4.371280074119567871e-01
2.164000000000000000e+03 6.806915760040283203e+00 -1.271599864959716797e+01 9.383688447996973991e-04 -7.125800038920715451e-05 2.601332671474665403e-04 2.726760285440832376e-04
2.165000000000000000e+03 4.969691753387451172e+00 9.206399917602539062e+00 3.649325575679540634e-03 -6.339115500450134277e-01 -1.890786588191986084e-01 4.491136074066162109e-01
2.166000000000000000e+03 3.802184820175170898e+00 7.885178565979003906e+00 -2.867497131228446960e-02 -5.099793672561645508e-01 -1.615962982177734375e-01 3.631050884723663330e-01
2.167000000000000000e+03 5.937155151367187500e+01 -2.002466201782226562e+01 1.177117586135864258e+00 4.166902005672454834e-01 4.781423509120941162e-01 1.720245957374572754e+00
2.168000000000000000e+03 6.035615921020507812e+01 -1.832874107360839844e+01 4.532427191734313965e-01 7.789368629455566406e-01 3.696538805961608887e-01 1.946453928947448730e+00
2.169000000000000000e+03 4.504492187500000000e+01 -7.592381477355957031e+00 8.881824016571044922e-01 3.396457195281982422e+00 1.285391807556152344e+00 -1.847857594490051270e+00
2.170000000000000000e+03 4.875817775726318359e+00 -6.514607429504394531e+00 4.726601764559745789e-04 2.854517333616968244e-05 1.503616076661273837e-04 2.887185546569526196e-04
2.171000000000000000e+03 4.376728820800781250e+01 -1.031075000762939453e+01 5.764119029045104980e-01 2.241093635559082031e+00 8.452516794204711914e-01 -1.224613070487976074e+00
2.172000000000000000e+03 4.991315364837646484e+00 -7.688428878784179688e+00 -5.359094939194619656e-04 -2.636810495459940284e-05 -1.686832838458940387e-04 -2.342456718906760216e-04
2.173000000000000000e+03 6.109121322631835938e+00 -7.524499416351318359e+00 3.320148389320820570e-04 4.806500874110497534e-05 1.140239546657539904e-04 4.207476158626377583e-04
2.174000000000000000e+03 7.305882263183593750e+01 -4.988683223724365234e+00 1.465168595314025879e-01 7.745968341827392578e+00 2.367745399475097656e+00 -5.567134171724319458e-02
2.175000000000000000e+03 7.346154785156250000e+01 1.474772548675537109e+01 -2.427813597023487091e-02 8.525115966796875000e+00 2.550251245498657227e+00 4.680826365947723389e-01
2.176000000000000000e+03 4.659215164184570312e+01 -1.181991195678710938e+01 8.211353421211242676e-01 3.202397346496582031e+00 1.207059860229492188e+00 -1.689712643623352051e+00
2.177000000000000000e+03 7.305305480957031250e+01 -8.413743972778320312e+00 -3.387757390737533569e-02 6.854613304138183594e+00 2.046220779418945312e+00 -1.783007085323333740e-01
2.178000000000000000e+03 1.454367160797119141e+01 -7.183912277221679688e+00 1.889453778858296573e-05 5.442694236990064383e-05 2.199644404754508287e-05 1.594675850355997682e-04
2.179000000000000000e+03 6.324023437500000000e+01 -1.580345630645751953e+01 9.335305690765380859e-01 1.475077271461486816e+00 7.225823402404785156e-01 1.184621930122375488e+00
2.180000000000000000e+03 6.224947357177734375e+01 -1.826775550842285156e+01 4.619956612586975098e-01 9.319295883178710938e-01 4.181775748729705811e-01 1.539871573448181152e+00
2.181000000000000000e+03 7.490876007080078125e+01 -3.047188377380371094e+01 1.461817231029272079e-02 8.027746200561523438e+00 2.412709474563598633e+00 -1.020011544227600098e+00
2.182000000000000000e+03 7.330805206298828125e+01 -1.056988811492919922e+01 -8.051349222660064697e-02 6.488514423370361328e+00 1.922400236129760742e+00 -3.210494816303253174e-01
2.183000000000000000e+03 6.587055206298828125e+01 -1.793619346618652344e+01 4.536055326461791992e-01 1.450676679611206055e+00 5.712846517562866211e-01 4.728000760078430176e-01
2.184000000000000000e+03 7.203040313720703125e+01 -4.705316066741943359e+00 1.737099736928939819e-01 8.058326721191406250e+00 2.469610929489135742e+00 3.223699629306793213e-01
2.185000000000000000e+03 7.410210418701171875e+01 -6.340390205383300781e+00 7.317191455513238907e-03 7.160662174224853516e+00 2.150393962860107422e+00 -3.508186042308807373e-01
2.186000000000000000e+03 7.411574554443359375e+01 -1.015013903379440308e-01 5.646684169769287109e-01 8.271755218505859375e+00 2.650927305221557617e+00 5.442512780427932739e-02
2.187000000000000000e+03 6.187029647827148438e+01 -1.993027877807617188e+01 4.152136743068695068e-01 5.957763195037841797e-01 3.032969832420349121e-01 1.359518766403198242e+00
2.188000000000000000e+03 6.117110443115234375e+01 -2.145744705200195312e+01 6.567452549934387207e-01 2.750527262687683105e-01 2.795394062995910645e-01 9.935460686683654785e-01
2.189000000000000000e+03 7.215255737304687500e+01 -1.061339950561523438e+01 -3.306288272142410278e-02 6.263297080993652344e+00 1.869070291519165039e+00 -1.287270486354827881e-01
2.190000000000000000e+03 7.214379882812500000e+01 3.621345138549804688e+01 -4.372356534004211426e-01 5.909258365631103516e+00 1.641606807708740234e+00 -5.327770486474037170e-02
2.191000000000000000e+03 7.348371887207031250e+01 1.341076660156250000e+01 -1.896481215953826904e-01 8.640293121337890625e+00 2.535193443298339844e+00 4.037027657032012939e-01
2.192000000000000000e+03 4.153227996826171875e+01 2.632925987243652344e+01 4.146607220172882080e-02 2.961842536926269531e+00 9.009925723075866699e-01 2.951123118400573730e-01
2.193000000000000000e+03 3.786479949951171875e+01 2.802013778686523438e+01 -1.602443158626556396e-01 2.633559703826904297e+00 7.419946193695068359e-01 -2.030890434980392456e-01
2.194000000000000000e+03 7.226476287841796875e+01 3.858324813842773438e+01 -1.157884746789932251e-01 5.848287582397460938e+00 1.719749808311462402e+00 -3.508673235774040222e-02
2.195000000000000000e+03 6.812748718261718750e+01 -3.874364852905273438e+01 1.832011640071868896e-01 2.025367736816406250e+00 6.625707149505615234e-01 4.084629118442535400e-01
2.196000000000000000e+03 7.245313262939453125e+01 -3.635396194458007812e+01 -6.327268481254577637e-01 5.617729187011718750e+00 1.495500683784484863e+00 2.508736252784729004e-01
2.197000000000000000e+03 7.874992847442626953e+00 -2.973560714721679688e+01 -1.327415375271812081e-04 7.788724615238606930e-04 1.938392670126631856e-04 -1.457043457776308060e-03
2.198000000000000000e+03 7.335457611083984375e+01 2.508269119262695312e+01 2.133764773607254028e-01 7.740205764770507812e+00 2.386074781417846680e+00 6.343875527381896973e-01
2.199000000000000000e+03 7.063020324707031250e+01 -1.334730148315429688e+01 9.927913546562194824e-02 5.254943847656250000e+00 1.606266856193542480e+00 -1.360687464475631714e-01
2.200000000000000000e+03 3.877535247802734375e+01 -1.330507278442382812e+01 -8.750880956649780273e-01 1.636277139186859131e-01 -2.134381234645843506e-01 2.884537279605865479e-01
2.201000000000000000e+03 7.394345855712890625e+01 2.744869804382324219e+01 3.737651556730270386e-02 7.769052982330322266e+00 2.341928720474243164e+00 7.625671625137329102e-01
2.202000000000000000e+03 6.779898166656494141e+00 -3.823891448974609375e+01 -2.433619229122996330e-03 1.683386508375406265e-03 -2.250698307761922479e-04 -4.329784424044191837e-04
2.203000000000000000e+03 9.597056388854980469e+00 -3.691139984130859375e+01 -8.574250387027859688e-04 5.412673926912248135e-04 -9.484729525865986943e-05 -6.379038095474243164e-04
2.204000000000000000e+03 6.312793254852294922e+00 -1.505958938598632812e+01 -7.566136773675680161e-04 -4.559594672173261642e-04 -3.637719200924038887e-04 -3.096105065196752548e-04
2.205000000000000000e+03 7.417754364013671875e+01 2.917253303527832031e+01 -2.579138278961181641e-01 7.642278671264648438e+00 2.215309619903564453e+00 7.614022493362426758e-01
2.206000000000000000e+03 3.870438385009765625e+01 3.127851104736328125e+01 -4.138976335525512695e-01 2.446793079376220703e+00 6.098686456680297852e-01 -1.194018870592117310e-01
2.207000000000000000e+03 7.301464843750000000e+01 -2.136991262435913086e+00 4.829328954219818115e-01 8.660436630249023438e+00 2.743010997772216797e+00 9.819459170103073120e-02
2.208000000000000000e+03 3.771409988403320312e+01 8.941411972045898438e+00 1.460828065872192383e+00 3.983232975006103516e+00 1.633218288421630859e+00 -8.051457405090332031e-01
2.209000000000000000e+03 4.733826446533203125e+01 4.119511413574218750e+01 -6.957272291183471680e-01 1.395933508872985840e+00 2.100618630647659302e-01 3.687569871544837952e-02
2.210000000000000000e+03 4.648445510864257812e+01 3.594434356689453125e+01 -5.701791048049926758e-01 1.562208890914916992e+00 2.976089417934417725e-01 2.147647738456726074e-01
2.211000000000000000e+03 7.190069580078125000e+01 3.284841156005859375e+01 -7.355762720108032227e-01 6.045841217041015625e+00 1.593079447746276855e+00 1.627819985151290894e-01
2.212000000000000000e+03 7.149389648437500000e+01 3.177849960327148438e+01 -7.463361024856567383e-01 5.847065925598144531e+00 1.530218958854675293e+00 1.972779482603073120e-01
2.213000000000000000e+03 4.956640625000000000e+01 -1.791459846496582031e+01 -1.693170219659805298e-01 1.555806517601013184e+00 4.159468412399291992e-01 -3.014150857925415039e+00
2.214000000000000000e+03 5.097031784057617188e+01 -1.686040115356445312e+01 -1.068809270858764648e+00 6.768382549285888672e+00 1.709871888160705566e+00 -5.098521709442138672e+00
2.215000000000000000e+03 4.946174621582031250e+01 -1.709304618835449219e+01 -3.062195479869842529e-01 2.759502410888671875e+00 7.359848618507385254e-01 -3.193485260009765625e+00
2.216000000000000000e+03 4.906849288940429688e+01 -2.356990242004394531e+01 2.668586671352386475e-01 2.023258686065673828e+00 6.870352029800415039e-01 7.865937948226928711e-01
2.217000000000000000e+03 5.145056152343750000e+01 -1.707312583923339844e+01 -1.665302872657775879e+00 8.216591835021972656e+00 1.965386748313903809e+00 -5.567335605621337891e+00
2.218000000000000000e+03 5.028321456909179688e+01 -1.538908958435058594e+01 -9.216098189353942871e-01 5.906759738922119141e+00 1.495545029640197754e+00 -3.108269691467285156e+00
2.219000000000000000e+03 4.832813262939453125e+01 -2.456942558288574219e+01 3.011912703514099121e-01 1.722373962402343750e+00 6.070695519447326660e-01 3.827533423900604248e-01
2.220000000000000000e+03 5.010655212402343750e+01 -2.327104187011718750e+01 9.799841791391372681e-02 3.364669084548950195e+00 1.038800239562988281e+00 1.374636173248291016e+00
2.221000000000000000e+03 5.225271987915039062e+01 -2.172850799560546875e+01 -9.718559980392456055e-01 1.011397171020507812e+01 2.742634773254394531e+00 1.683434486389160156e+00
2.222000000000000000e+03 4.890282058715820312e+01 -1.708193397521972656e+01 -3.832046687602996826e-01 1.980470061302185059e+00 4.791795909404754639e-01 -2.384990215301513672e+00
2.223000000000000000e+03 5.157825851440429688e+01 -2.262477684020996094e+01 -5.808665156364440918e-01 6.690630912780761719e+00 1.832929253578186035e+00 1.883544921875000000e+00
2.224000000000000000e+03 5.056570434570312500e+01 -2.317550086975097656e+01 -1.224039644002914429e-01 4.268840789794921875e+00 1.243931055068969727e+00 1.601846575736999512e+00
2.225000000000000000e+03 1.074316024780273438e+01 -1.030655765533447266e+01 5.746216047555208206e-04 4.038704500999301672e-04 2.935476077254861593e-04 2.254979917779564857e-04
2.226000000000000000e+03 1.324469280242919922e+01 -1.059935188293457031e+01 -3.615995228756219149e-04 -4.512376908678561449e-04 -2.438511728541925550e-04 1.089090364985167980e-04
2.227000000000000000e+03 2.250499725341796875e+01 7.479709386825561523e-01 -3.078368306159973145e-01 -9.205470681190490723e-01 -3.685151636600494385e-01 5.859020352363586426e-01
2.228000000000000000e+03 1.213823318481445312e+01 -7.148323535919189453e+00 5.762637592852115631e-04 -8.781843462202232331e-06 1.702445733826607466e-04 -1.296648115385323763e-04
2.229000000000000000e+03 8.722401618957519531e+00 -1.124506855010986328e+01 -7.582479156553745270e-04 -9.778229286894202232e-05 -2.568090858403593302e-04 -3.897309070453047752e-04
2.230000000000000000e+03 5.182897186279296875e+01 -2.305327224731445312e+01 -8.612778782844543457e-01 7.136718273162841797e+00 1.882632136344909668e+00 1.435314297676086426e+00
2.231000000000000000e+03 4.741219711303710938e+01 -2.522422790527343750e+01 3.219095766544342041e-01 1.212769865989685059e+00 4.604038298130035400e-01 6.880537420511245728e-02
2.232000000000000000e+03 5.317106246948242188e+01 -2.587054824829101562e+01 -6.799972653388977051e-01 6.880380630493164062e+00 1.860114932060241699e+00 -1.969925016164779663e-01
2.233000000000000000e+03 4.893259048461914062e+00 7.888105869293212891e+00 -3.207349777221679688e-02 -5.462347269058227539e-01 -1.734924763441085815e-01 4.416186511516571045e-01
2.234000000000000000e+03 7.346651077270507812e+00 5.799468040466308594e+00 -1.816045343875885010e-01 -5.119183659553527832e-01 -2.080568671226501465e-01 6.130442619323730469e-01
2.235000000000000000e+03 4.854056167602539062e+01 -1.641505050659179688e+01 -2.947833240032196045e-01 2.389647483825683594e+00 6.284592151641845703e-01 -2.186630964279174805e+00
2.236000000000000000e+03 5.343646240234375000e+01 -2.806568336486816406e+01 4.515990018844604492e-01 6.563143253326416016e+00 2.104422569274902344e+00 -2.999159097671508789e-01
2.237000000000000000e+03 3.021980094909667969e+01 -1.201628208160400391e+01 -1.147097945213317871e+00 -1.561552286148071289e-01 -3.909759521484375000e-01 1.240573287010192871e+00
2.238000000000000000e+03 7.027688026428222656e+00 4.923289775848388672e+00 -2.395902425050735474e-01 -4.287902414798736572e-01 -2.005141377449035645e-01 5.700787901878356934e-01
2.239000000000000000e+03 2.976070594787597656e+01 -1.130189609527587891e+01 -1.100176692008972168e+00 -1.828516572713851929e-01 -3.849085271358489990e-01 1.240599513053894043e+00
2.240000000000000000e+03 7.614414691925048828e+00 5.070540428161621094e+00 -2.493535429239273071e-01 -4.805583655834197998e-01 -2.189735770225524902e-01 6.195530891418457031e-01
2.241000000000000000e+03 2.930403327941894531e+01 -1.060673427581787109e+01 -1.091971516609191895e+00 -2.100450396537780762e-01 -3.906049430370330811e-01 1.236086368560791016e+00
2.242000000000000000e+03 6.826920986175537109e+00 5.620524406433105469e+00 -1.871892064809799194e-01 -4.757450520992279053e-01 -1.988802850246429443e-01 5.740713477134704590e-01
2.243000000000000000e+03 5.041510009765625000e+01 -1.687277030944824219e+01 -6.027477383613586426e-01 4.843180179595947266e+00 1.272129774093627930e+00 -4.627940177917480469e+00
2.244000000000000000e+03 4.924510955810546875e+01 -1.391320133209228516e+01 3.891007006168365479e-01 4.716536045074462891e+00 1.531690955162048340e+00 -2.240537166595458984e+00
2.245000000000000000e+03 2.885827064514160156e+01 -9.923497200012207031e+00 -1.081854104995727539e+00 -2.511278390884399414e-01 -3.998945653438568115e-01 1.213414549827575684e+00
2.246000000000000000e+03 5.217054367065429688e+01 -2.932547378540039062e+01 1.047711849212646484e+00 5.229381084442138672e+00 1.883127927780151367e+00 -4.609115794301033020e-02
2.247000000000000000e+03 3.022773170471191406e+01 -1.395449066162109375e+01 -1.319657564163208008e+00 -1.865160912275314331e-01 -4.518520832061767578e-01 1.134919166564941406e+00
2.248000000000000000e+03 4.741677474975585938e+01 -2.596919250488281250e+01 3.600030243396759033e-01 1.445164561271667480e+00 5.415502786636352539e-01 1.278180927038192749e-01
2.249000000000000000e+03 6.705869197845458984e+00 -6.146785259246826172e+00 -1.480869977967813611e-04 2.868935116566717625e-04 4.164195343037135899e-05 3.050657396670430899e-04
2.250000000000000000e+03 7.065262794494628906e+00 -7.079646587371826172e+00 3.826182219199836254e-04 -1.172823831439018250e-04 7.960075163282454014e-05 -2.785137330647557974e-04
2.251000000000000000e+03 1.042290878295898438e+01 -5.753294467926025391e+00 6.137422315077856183e-05 -3.988399112131446600e-05 6.447068699344526976e-06 2.647941000759601593e-04
2.252000000000000000e+03 6.584463596343994141e+00 -5.247114181518554688e+00 -2.525057607272174209e-05 -2.646821958478540182e-04 -8.697983139427378774e-05 -2.925776352640241385e-04
2.253000000000000000e+03 5.844965457916259766e+00 -6.388564109802246094e+00 -2.196660643676295877e-04 -1.399533066432923079e-04 -1.078858113032765687e-04 -4.181864787824451923e-04
2.254000000000000000e+03 1.698300170898437500e+01 1.879209160804748535e+00 -5.772125124931335449e-01 -1.268862247467041016e+00 -5.538223981857299805e-01 9.134434461593627930e-01
2.255000000000000000e+03 1.647751998901367188e+01 3.988347291946411133e+00 -1.523727625608444214e-01 -1.148759007453918457e+00 -3.903395533561706543e-01 7.700432538986206055e-01
2.256000000000000000e+03 4.484664154052734375e+01 -1.046322631835937500e+01 7.346228361129760742e-01 2.671488523483276367e+00 1.021833419799804688e+00 -1.433084845542907715e+00
2.257000000000000000e+03 4.325607299804687500e+01 -1.600002861022949219e+01 -1.386627197265625000e+00 9.767079949378967285e-01 -1.229757592082023621e-01 9.646458178758621216e-02
2.258000000000000000e+03 5.473316574096679688e+01 -2.330733489990234375e+01 -3.811039030551910400e-01 6.926076889038085938e+00 1.963491916656494141e+00 -9.128816723823547363e-01
2.259000000000000000e+03 1.739749526977539062e+01 2.501065969467163086e+00 -3.881454169750213623e-01 -1.238363027572631836e+00 -4.879525303840637207e-01 8.349331021308898926e-01
2.260000000000000000e+03 2.667122077941894531e+01 -6.532012939453125000e+00 -1.072095632553100586e+00 -5.531383156776428223e-01 -4.875701665878295898e-01 1.021798968315124512e+00
2.261000000000000000e+03 2.518959426879882812e+01 -4.440647125244140625e+00 -9.818137288093566895e-01 -7.802332639694213867e-01 -5.286141037940979004e-01 9.005182385444641113e-01
2.262000000000000000e+03 4.242170333862304688e+01 -1.585776901245117188e+01 -1.554360151290893555e+00 8.475663661956787109e-01 -2.120381295680999756e-01 1.487876772880554199e-01
2.263000000000000000e+03 1.670776367187500000e+01 2.935700893402099609e+00 -3.502223193645477295e-01 -1.207276701927185059e+00 -4.672496914863586426e-01 8.351690769195556641e-01
2.264000000000000000e+03 2.283143806457519531e+01 -1.748658776283264160e+00 -7.777649760246276855e-01 -1.080164432525634766e+00 -5.573788285255432129e-01 8.067060112953186035e-01
2.265000000000000000e+03 2.106413841247558594e+01 -1.126445889472961426e+00 -8.577229976654052734e-01 -1.318119525909423828e+00 -6.527527570724487305e-01 9.137583971023559570e-01
2.266000000000000000e+03 8.075766563415527344e+00 -5.847426891326904297e+00 4.660977283492684364e-04 1.750468945829197764e-04 1.923433883348479867e-04 -2.960528036055620760e-05
2.267000000000000000e+03 8.326649665832519531e+00 6.205253124237060547e+00 -1.360810101032257080e-01 -6.223790645599365234e-01 -2.275380343198776245e-01 6.747543811798095703e-01
2.268000000000000000e+03 2.756317901611328125e+01 -7.898623466491699219e+00 -1.091910362243652344e+00 -4.140289723873138428e-01 -4.517817795276641846e-01 1.107925653457641602e+00
2.269000000000000000e+03 2.842413902282714844e+01 -9.247949600219726562e+00 -1.089914202690124512e+00 -2.975431978702545166e-01 -4.162372052669525146e-01 1.185057520866394043e+00
2.270000000000000000e+03 4.508074569702148438e+01 -1.680472373962402344e+01 -1.366487026214599609e+00 9.705306291580200195e-01 -1.187869310379028320e-01 -3.000206686556339264e-02
2.271000000000000000e+03 4.357403945922851562e+01 -1.529508590698242188e+01 -9.974054694175720215e-01 1.147717952728271484e+00 4.509373754262924194e-02 -1.085963472723960876e-01
2.272000000000000000e+03 1.480366325378417969e+01 -7.783567428588867188e+00 1.499358913861215115e-04 -1.383686776534887031e-05 4.082970554009079933e-05 -1.030217972584068775e-04
2.273000000000000000e+03 5.782239913940429688e+01 -2.207424354553222656e+01 1.674979686737060547e+00 1.723030805587768555e+00 1.019403100013732910e+00 3.059669733047485352e-01
2.274000000000000000e+03 4.413441085815429688e+01 -1.565006256103515625e+01 -9.879015684127807617e-01 1.162104725837707520e+00 5.226094275712966919e-02 -1.452389806509017944e-01
2.275000000000000000e+03 5.640206146240234375e+01 -2.135012435913085938e+01 2.380236387252807617e+00 2.935898780822753906e+00 1.594840526580810547e+00 -7.129162549972534180e-01
2.276000000000000000e+03 4.010447311401367188e+01 -1.541213989257812500e+01 -1.715386748313903809e+00 1.414012312889099121e-01 -4.721956551074981689e-01 2.196691632270812988e-01
2.277000000000000000e+03 4.169233322143554688e+01 -1.687290573120117188e+01 -2.200631856918334961e+00 6.205707192420959473e-01 -4.740183353424072266e-01 3.610003888607025146e-01
2.278000000000000000e+03 3.003108406066894531e+01 -8.855022430419921875e+00 -9.168390631675720215e-01 -1.292675267904996872e-02 -2.789297401905059814e-01 1.061504721641540527e+00
2.279000000000000000e+03 2.620006179809570312e+01 -5.835638523101806641e+00 -1.047758936882019043e+00 -6.250281929969787598e-01 -5.018361210823059082e-01 9.778943061828613281e-01
2.280000000000000000e+03 1.541480445861816406e+01 -1.032198143005371094e+01 2.619162842165678740e-04 -2.821429006871767342e-05 7.011059642536565661e-05 -2.360284561291337013e-04
2.281000000000000000e+03 1.809378814697265625e+01 2.058136701583862305e+00 -4.296855926513671875e-01 -1.255792856216430664e+00 -5.056435465812683105e-01 8.273161053657531738e-01
2.282000000000000000e+03 1.879217720031738281e+01 1.595534563064575195e+00 -4.679167270660400391e-01 -1.264124512672424316e+00 -5.196123719215393066e-01 8.199599981307983398e-01
2.283000000000000000e+03 2.345695114135742188e+01 -2.397700071334838867e+00 -8.358711004257202148e-01 -1.015839219093322754e+00 -5.555131435394287109e-01 8.206617236137390137e-01
2.284000000000000000e+03 2.463954162597656250e+01 -3.747479915618896484e+00 -9.399665594100952148e-01 -8.631747364997863770e-01 -5.409423708915710449e-01 8.678550720214843750e-01
2.285000000000000000e+03 2.218910026550292969e+01 -1.121994614601135254e+00 -7.216283082962036133e-01 -1.140983581542968750e+00 -5.587835907936096191e-01 7.969324588775634766e-01
2.286000000000000000e+03 4.691645812988281250e+01 -1.608369827270507812e+01 -5.235100984573364258e-01 1.624721050262451172e+00 3.303633034229278564e-01 -9.992720484733581543e-01
2.287000000000000000e+03 4.685980606079101562e+01 -1.458339118957519531e+01 6.377539783716201782e-02 2.405714511871337891e+00 7.408469915390014648e-01 -1.273869991302490234e+00
2.288000000000000000e+03 1.402118110656738281e+01 4.949155807495117188e+00 -1.371978372335433960e-01 -1.038329958915710449e+00 -3.526583313941955566e-01 8.075920343399047852e-01
2.289000000000000000e+03 3.140900230407714844e+01 -1.223464202880859375e+01 -1.160909175872802734e+00 -7.120616734027862549e-02 -3.696345984935760498e-01 1.195569038391113281e+00
2.290000000000000000e+03 1.469998168945312500e+01 4.390926837921142578e+00 -1.921647489070892334e-01 -1.086797714233398438e+00 -3.836887478828430176e-01 8.207700252532958984e-01
2.291000000000000000e+03 4.820133972167968750e+01 -1.272794628143310547e+01 7.777429223060607910e-01 4.068920612335205078e+00 1.453999042510986328e+00 -1.947743535041809082e+00
2.292000000000000000e+03 5.416259384155273438e+01 -2.247083282470703125e+01 -1.652016676962375641e-02 8.054970741271972656e+00 2.411535024642944336e+00 -1.469687581062316895e+00
2.293000000000000000e+03 5.330422210693359375e+01 -2.249466323852539062e+01 -8.270325660705566406e-01 9.209480285644531250e+00 2.514734506607055664e+00 -5.466353893280029297e-01
2.294000000000000000e+03 2.656342315673828125e+01 -7.717622280120849609e+00 -1.173029780387878418e+00 -6.567698717117309570e-01 -5.489398837089538574e-01 1.146386265754699707e+00
2.295000000000000000e+03 7.731697559356689453e+00 -6.480848312377929688e+00 -5.282373167574405670e-04 -2.796144144667778164e-06 -1.593100314494222403e-04 2.427644067211076617e-04
2.296000000000000000e+03 1.308781909942626953e+01 -6.944997310638427734e+00 4.424855869729071856e-04 -9.940986637957394123e-05 1.029227205435745418e-04 -2.852756297215819359e-04
2.297000000000000000e+03 1.110892295837402344e+01 4.847786426544189453e+00 -2.625558674335479736e-01 -8.146829605102539062e-01 -3.231716454029083252e-01 8.107162714004516602e-01
2.298000000000000000e+03 1.267026805877685547e+01 4.803496360778808594e+00 -2.200002372264862061e-01 -9.517461061477661133e-01 -3.515239059925079346e-01 8.324519991874694824e-01
2.299000000000000000e+03 5.102912139892578125e+01 -1.616965484619140625e+01 -1.853365063667297363e+00 6.980207443237304688e+00 1.538052797317504883e+00 -4.372089385986328125e+00
2.300000000000000000e+03 4.454266357421875000e+01 -5.511148452758789062e+00 8.199326992034912109e-01 3.633407831192016602e+00 1.336002111434936523e+00 -1.897892355918884277e+00
2.301000000000000000e+03 4.508000183105468750e+01 -8.582735061645507812e+00 8.665337562561035156e-01 3.211063861846923828e+00 1.223279237747192383e+00 -1.746233820915222168e+00
2.302000000000000000e+03 5.670815277099609375e+01 -2.040487480163574219e+01 3.110896587371826172e+00 1.618726849555969238e+00 1.418887138366699219e+00 -1.031462568789720535e-02
2.303000000000000000e+03 4.759400939941406250e+01 -1.336030960083007812e+01 5.675306320190429688e-01 3.365425586700439453e+00 1.179886937141418457e+00 -1.781558752059936523e+00
2.304000000000000000e+03 7.364658355712890625e+01 -1.865951919555664062e+01 -7.664973735809326172e-01 7.120262145996093750e+00 1.906129360198974609e+00 -2.974088490009307861e-01
2.305000000000000000e+03 6.949983215332031250e+01 -1.626367378234863281e+01 1.255300492048263550e-01 3.976393938064575195e+00 1.230577230453491211e+00 -6.187855601310729980e-01
2.306000000000000000e+03 5.401551437377929688e+01 -2.317988395690917969e+01 -6.640396118164062500e-01 7.840146541595458984e+00 2.152832031250000000e+00 -8.010358810424804688e-01
2.307000000000000000e+03 5.475963211059570312e+01 -2.501413917541503906e+01 -9.354319572448730469e-01 6.883594989776611328e+00 1.784448862075805664e+00 -1.569881886243820190e-01
2.308000000000000000e+03 4.769985961914062500e+01 -2.643386077880859375e+01 3.654692471027374268e-01 1.724545955657958984e+00 6.270045638084411621e-01 1.475207209587097168e-01
2.309000000000000000e+03 4.360195922851562500e+01 -3.380360126495361328e+00 7.207918763160705566e-01 3.737332820892333984e+00 1.337437391281127930e+00 -1.829071521759033203e+00
2.310000000000000000e+03 4.353046798706054688e+01 -5.768781185150146484e+00 7.443861961364746094e-01 3.226436138153076172e+00 1.191246628761291504e+00 -1.669975519180297852e+00
2.311000000000000000e+03 4.062183380126953125e+01 -4.879847466945648193e-01 6.426399350166320801e-01 3.505498886108398438e+00 1.244441628456115723e+00 -1.305584311485290527e+00
2.312000000000000000e+03 4.256948089599609375e+01 -3.786603450775146484e+00 6.619257926940917969e-01 3.347160100936889648e+00 1.202725768089294434e+00 -1.594913482666015625e+00
2.313000000000000000e+03 1.411010551452636719e+01 -1.127698135375976562e+01 4.913366283290088177e-04 3.364440926816314459e-04 2.483342250343412161e-04 -1.744159235386177897e-04
2.314000000000000000e+03 1.463734054565429688e+01 -1.071022796630859375e+01 -3.146331582684069872e-04 1.632475868973415345e-05 -8.949252514867112041e-05 3.464088658802211285e-04
2.315000000000000000e+03 5.727708435058593750e+01 -2.156306266784667969e+01 2.201777696609497070e+00 1.912475228309631348e+00 1.234275937080383301e+00 -7.515317294746637344e-03
2.316000000000000000e+03 5.856590652465820312e+01 -2.152693748474121094e+01 1.671480655670166016e+00 9.041477441787719727e-01 7.726885080337524414e-01 7.895603179931640625e-01
2.317000000000000000e+03 4.796945095062255859e+00 6.658259868621826172e+00 -8.397360146045684814e-02 -4.503226578235626221e-01 -1.602888703346252441e-01 4.253108501434326172e-01
2.318000000000000000e+03 3.768218278884887695e+00 6.613187313079833984e+00 -6.043596565723419189e-02 -4.109456539154052734e-01 -1.414144933223724365e-01 3.403050899505615234e-01
2.319000000000000000e+03 1.566577625274658203e+01 -9.100029945373535156e+00 2.823130053002387285e-04 9.016400872496888041e-05 1.117431093007326126e-04 -1.253581722266972065e-04
2.320000000000000000e+03 4.623690032958984375e+01 -2.614365386962890625e+01 2.391846776008605957e-01 6.714432239532470703e-01 2.731883525848388672e-01 -1.614679694175720215e-01
2.321000000000000000e+03 1.332968044281005859e+01 5.558157920837402344e+00 -7.366804778575897217e-02 -9.887171387672424316e-01 -3.187155425548553467e-01 7.914658784866333008e-01
2.322000000000000000e+03 1.192000579833984375e+01 5.506381511688232422e+00 -1.480263620615005493e-01 -8.971988558769226074e-01 -3.135675787925720215e-01 8.056026697158813477e-01
2.323000000000000000e+03 4.213161468505859375e+01 -5.202946662902832031e+00 6.371280550956726074e-01 2.902446269989013672e+00 1.061872363090515137e+00 -1.408947110176086426e+00
2.324000000000000000e+03 3.986985015869140625e+01 -1.436257839202880859e+01 -1.156097412109375000e+00 2.166066020727157593e-01 -2.818472385406494141e-01 1.660159379243850708e-01
2.325000000000000000e+03 3.882198715209960938e+01 -1.451602268218994141e+01 -1.343018531799316406e+00 -5.589779466390609741e-02 -4.196749031543731689e-01 4.055972397327423096e-01
2.326000000000000000e+03 3.655759811401367188e+01 -1.317416381835937500e+01 -1.022791862487792969e+00 -5.326467007398605347e-02 -3.228169679641723633e-01 7.318949103355407715e-01
2.327000000000000000e+03 5.071904754638671875e+01 -2.361425399780273438e+01 -2.206889092922210693e-01 4.579188823699951172e+00 1.307549953460693359e+00 1.357144355773925781e+00
2.328000000000000000e+03 4.882455062866210938e+01 -2.431040191650390625e+01 2.652571499347686768e-01 2.103863239288330078e+00 7.107360959053039551e-01 5.996874570846557617e-01
2.329000000000000000e+03 5.967645263671875000e+01 -1.914650344848632812e+01 8.073033690452575684e-01 5.808054804801940918e-01 4.164326488971710205e-01 1.960350632667541504e+00
2.330000000000000000e+03 3.998184204101562500e+01 7.553443312644958496e-01 6.625956892967224121e-01 3.622295379638671875e+00 1.285467386245727539e+00 -1.194148302078247070e+00
2.331000000000000000e+03 3.101651573181152344e+01 -1.018362236022949219e+01 -9.502598643302917480e-01 1.918954588472843170e-02 -2.793211042881011963e-01 1.113159537315368652e+00
2.332000000000000000e+03 4.199407196044921875e+01 -2.732011318206787109e+00 6.497892737388610840e-01 3.403085231781005859e+00 1.215862274169921875e+00 -1.531973123550415039e+00
2.333000000000000000e+03 4.553737640380859375e+01 -3.113752937316894531e+01 1.273922771215438843e-01 9.590225219726562500e-01 3.259244561195373535e-01 5.084757208824157715e-01
2.334000000000000000e+03 4.238953399658203125e+01 -1.387339305877685547e+01 -6.229614615440368652e-01 1.055583715438842773e+00 1.297866851091384888e-01 -2.614947259426116943e-01
2.335000000000000000e+03 3.822921371459960938e+01 7.605772495269775391e+00 1.372138261795043945e+00 4.141329765319824219e+00 1.654040336608886719e+00 -8.716881871223449707e-01
2.336000000000000000e+03 3.987199401855468750e+01 3.688917636871337891e+00 9.184320569038391113e-01 4.210546016693115234e+00 1.538693428039550781e+00 -1.168110132217407227e+00
2.337000000000000000e+03 5.469205379486083984e+00 -3.230527114868164062e+01 -6.326671573333442211e-04 -1.859399781096726656e-04 -2.455821377225220203e-04 1.217149430885910988e-03
2.338000000000000000e+03 6.686852264404296875e+01 -1.695730209350585938e+01 5.685222148895263672e-01 2.122552394866943359e+00 8.073223233222961426e-01 1.672188639640808105e-01
2.339000000000000000e+03 6.783142089843750000e+01 -1.401991939544677734e+01 6.200810074806213379e-01 3.675404071807861328e+00 1.288645505905151367e+00 3.489781618118286133e-01
2.340000000000000000e+03 4.318984222412109375e+01 -1.405443477630615234e+01 -5.497250556945800781e-01 1.262355566024780273e+00 2.137891501188278198e-01 -3.514115512371063232e-01
2.341000000000000000e+03 9.122468948364257812e+00 2.774257087707519531e+01 8.844762295484542847e-02 -7.323145270347595215e-01 -1.931600719690322876e-01 -1.309442240744829178e-02
2.342000000000000000e+03 1.018147277832031250e+01 3.181873130798339844e+01 2.841812558472156525e-02 -5.954152941703796387e-01 -1.700991541147232056e-01 -6.496948003768920898e-02
2.343000000000000000e+03 7.483842468261718750e+01 -1.830614471435546875e+01 -6.099586486816406250e-01 7.242896080017089844e+00 1.989881277084350586e+00 -9.123013168573379517e-02
2.344000000000000000e+03 7.465350341796875000e+01 1.489469146728515625e+01 -6.324245035648345947e-02 8.261606216430664062e+00 2.459509134292602539e+00 4.821490347385406494e-01
2.345000000000000000e+03 7.460293579101562500e+01 1.625903511047363281e+01 3.602215275168418884e-02 8.234597206115722656e+00 2.481185913085937500e+00 5.329732894897460938e-01
2.346000000000000000e+03 7.450504302978515625e+01 1.763721275329589844e+01 4.314306005835533142e-02 8.264270782470703125e+00 2.492224216461181641e+00 5.286307334899902344e-01
2.347000000000000000e+03 7.389234924316406250e+01 2.518492937088012695e+00 6.216485500335693359e-01 8.896877288818359375e+00 2.855557680130004883e+00 4.131111502647399902e-01
2.348000000000000000e+03 7.350895690917968750e+01 1.209280681610107422e+01 -3.048910796642303467e-01 8.833474159240722656e+00 2.558574914932250977e+00 5.235962271690368652e-01
2.349000000000000000e+03 7.355841827392578125e+01 1.078858184814453125e+01 -3.047457933425903320e-01 8.903959274291992188e+00 2.579763889312744141e+00 6.361827254295349121e-01
2.350000000000000000e+03 7.484358978271484375e+01 6.497257947921752930e-01 6.131236553192138672e-01 7.943620681762695312e+00 2.567023277282714844e+00 2.765245176851749420e-02
2.351000000000000000e+03 7.451583099365234375e+01 -1.572856426239013672e+01 -4.482238590717315674e-01 6.745272636413574219e+00 1.889114618301391602e+00 -3.870201408863067627e-01
2.352000000000000000e+03 7.337976837158203125e+01 -1.732872390747070312e+01 -6.967725753784179688e-01 6.725155353546142578e+00 1.808514833450317383e+00 -5.302592515945434570e-01
2.353000000000000000e+03 7.217414855957031250e+01 -7.803879737854003906e+00 2.973870187997817993e-02 6.956815242767333984e+00 2.095966100692749023e+00 5.754253640770912170e-02
2.354000000000000000e+03 7.068458557128906250e+01 -1.477644538879394531e+01 -3.016429720446467400e-03 5.000350475311279297e+00 1.499200224876403809e+00 -4.156738817691802979e-01
2.355000000000000000e+03 7.463972473144531250e+01 -1.705512619018554688e+01 -5.396919846534729004e-01 6.961463451385498047e+00 1.926531434059143066e+00 -2.380703091621398926e-01
2.356000000000000000e+03 7.823268890380859375e+00 2.040229225158691406e+01 1.631746441125869751e-01 -8.879623413085937500e-01 -2.174362987279891968e-01 1.842705905437469482e-01
2.357000000000000000e+03 6.919552612304687500e+01 -1.875071907043457031e+01 -1.019891723990440369e-01 2.995491981506347656e+00 8.680508732795715332e-01 -1.226661443710327148e+00
2.358000000000000000e+03 4.170217514038085938e+00 -2.015325164794921875e+01 -1.557597308419644833e-03 2.464175922796130180e-04 -3.933538973797112703e-04 -5.236716824583709240e-04
2.359000000000000000e+03 4.363058090209960938e+00 -2.129213714599609375e+01 1.837072428315877914e-03 -9.884400787996128201e-05 5.214685224927961826e-04 6.213510059751570225e-04
2.360000000000000000e+03 7.668885707855224609e+00 -1.133965587615966797e+01 8.656207355670630932e-04 -1.060286558640655130e-05 2.565053582657128572e-04 3.110404068138450384e-04
2.361000000000000000e+03 7.381131744384765625e+01 7.470458984375000000e+00 1.476459205150604248e-01 8.960322380065917969e+00 2.732390403747558594e+00 7.884771823883056641e-01
2.362000000000000000e+03 7.295676422119140625e+01 -3.434304428100585938e+01 -8.854610919952392578e-01 6.478309154510498047e+00 1.677854418754577637e+00 -2.156692929565906525e-02
2.363000000000000000e+03 6.306274032592773438e+01 -1.735589790344238281e+01 5.649690032005310059e-01 1.156842470169067383e+00 5.165434479713439941e-01 1.344978928565979004e+00
2.364000000000000000e+03 6.188901424407958984e+00 1.738434410095214844e+01 1.261783689260482788e-01 -9.518703222274780273e-01 -2.477075755596160889e-01 2.732098400592803955e-01
2.365000000000000000e+03 5.155920982360839844e+00 1.601086807250976562e+01 9.589295834302902222e-02 -9.615660905838012695e-01 -2.597019374370574951e-01 2.909249663352966309e-01
2.366000000000000000e+03 6.239467144012451172e+00 1.611584472656250000e+01 1.295847594738006592e-01 -9.236494302749633789e-01 -2.382194101810455322e-01 3.165028691291809082e-01
2.367000000000000000e+03 6.310584068298339844e+00 -8.812346458435058594e+00 -6.043519242666661739e-04 -9.715397027321159840e-05 -2.104517770931124687e-04 -3.471776435617357492e-04
2.368000000000000000e+03 5.116968631744384766e+00 -8.939243316650390625e+00 6.030888180248439312e-04 6.779879913665354252e-05 2.012662880588322878e-04 2.339657075935974717e-04
2.369000000000000000e+03 6.329978466033935547e+00 1.478219795227050781e+01 1.342128515243530273e-01 -8.884267807006835938e-01 -2.262641787528991699e-01 3.673306405544281006e-01
2.370000000000000000e+03 5.231665134429931641e+00 1.328633403778076172e+01 8.589741587638854980e-02 -8.547915816307067871e-01 -2.306682616472244263e-01 3.780191838741302490e-01
2.371000000000000000e+03 5.077336311340332031e+00 1.981951141357421875e+01 8.172289282083511353e-02 -1.063200116157531738e+00 -2.944431602954864502e-01 1.760456562042236328e-01
2.372000000000000000e+03 3.584680557250976562e+01 1.856695175170898438e+01 6.918328404426574707e-01 3.135352611541748047e+00 1.148155689239501953e+00 -5.947920083999633789e-01
2.373000000000000000e+03 6.009636402130126953e+00 -1.413055515289306641e+01 6.267168209888041019e-04 -1.612722116988152266e-04 1.396333827869966626e-04 6.305552087724208832e-04
2.374000000000000000e+03 5.258827686309814453e+00 -1.608071517944335938e+01 -8.686299552209675312e-04 -7.007569656707346439e-04 -4.708160704467445612e-04 -1.021236530505120754e-04
2.375000000000000000e+03 7.701157093048095703e+00 2.812033462524414062e+01 6.493972241878509521e-02 -8.649317622184753418e-01 -2.399976104497909546e-01 -1.847932697273790836e-03
2.376000000000000000e+03 4.564511871337890625e+01 -1.156492519378662109e+01 7.427815198898315430e-01 2.759872198104858398e+00 1.050796151161193848e+00 -1.428548455238342285e+00
2.377000000000000000e+03 4.804057598114013672e+00 5.516401767730712891e+00 -1.368610858917236328e-01 -3.523197472095489502e-01 -1.467542499303817749e-01 3.941571116447448730e-01
2.378000000000000000e+03 6.002683639526367188e+00 7.821839332580566406e+00 -4.059068858623504639e-02 -5.841274261474609375e-01 -1.874154359102249146e-01 5.224611759185791016e-01
2.379000000000000000e+03 1.079368782043457031e+01 -1.197206878662109375e+01 9.572846465744078159e-05 2.841326931957155466e-05 3.724252019310370088e-05 4.344730696175247431e-04
2.380000000000000000e+03 6.492904186248779297e+00 1.335865116119384766e+01 1.254207342863082886e-01 -8.434803485870361328e-01 -2.154178768396377563e-01 4.223898053169250488e-01
2.381000000000000000e+03 5.589241504669189453e+00 -1.300928306579589844e+01 -7.903700461611151695e-04 -5.387053897720761597e-05 -2.532721555326133966e-04 -2.798560017254203558e-04
2.382000000000000000e+03 7.936203002929687500e+00 -1.253931236267089844e+01 -9.882051963359117508e-04 7.812797412043437362e-05 -2.730231499299407005e-04 -3.555482253432273865e-04
2.383000000000000000e+03 6.060851573944091797e+00 9.197502136230468750e+00 2.115998789668083191e-02 -6.684148311614990234e-01 -1.941764652729034424e-01 5.141662359237670898e-01
2.384000000000000000e+03 7.011581897735595703e+00 9.395137786865234375e+00 4.192487895488739014e-02 -7.049239277839660645e-01 -1.988997161388397217e-01 5.539641380310058594e-01
2.385000000000000000e+03 3.640534973144531250e+01 1.147102451324462891e+01 1.369174838066101074e+00 3.502827882766723633e+00 1.461600780487060547e+00 -7.982031106948852539e-01
2.386000000000000000e+03 3.691182327270507812e+01 1.332133483886718750e+01 1.213918089866638184e+00 3.906916856765747070e+00 1.536250472068786621e+00 -8.183311820030212402e-01
2.387000000000000000e+03 3.251518249511718750e+01 -1.379245662689208984e+01 -1.392091631889343262e+00 -7.514466345310211182e-02 -4.401708841323852539e-01 1.158275604248046875e+00
2.388000000000000000e+03 7.071307373046875000e+01 -1.192001247406005859e+01 1.109248250722885132e-01 5.538424015045166016e+00 1.694804668426513672e+00 1.983743906021118164e-02
2.389000000000000000e+03 7.384024810791015625e+01 3.554960632324218750e+01 -3.804873228073120117e-01 7.192962169647216797e+00 2.043742418289184570e+00 1.348179876804351807e-01
2.390000000000000000e+03 7.147106933593750000e+01 -9.148800849914550781e+00 4.703531786799430847e-02 6.456165313720703125e+00 1.950960159301757812e+00 1.847406178712844849e-01
2.391000000000000000e+03 3.735521316528320312e+01 1.962133407592773438e+01 5.401101112365722656e-01 3.522128343582153320e+00 1.218671560287475586e+00 -3.999484479427337646e-01
2.392000000000000000e+03 3.616666793823242188e+01 1.981982803344726562e+01 5.840252041816711426e-01 3.106768608093261719e+00 1.107238173484802246e+00 -5.026023387908935547e-01
2.393000000000000000e+03 7.323863220214843750e+01 -1.182972812652587891e+01 -1.217673271894454956e-01 6.319878578186035156e+00 1.859433412551879883e+00 -3.795494139194488525e-01
2.394000000000000000e+03 3.821596908569335938e+01 2.519021415710449219e+01 5.576588585972785950e-02 2.933963298797607422e+00 8.969187736511230469e-01 -1.600475460290908813e-01
2.395000000000000000e+03 4.016260147094726562e+01 2.360119247436523438e+01 1.971023827791213989e-01 3.341126441955566406e+00 1.061468601226806641e+00 1.699725091457366943e-01
2.396000000000000000e+03 7.193199157714843750e+01 -1.325947284698486328e+01 -8.325970917940139771e-02 5.774957180023193359e+00 1.707509279251098633e+00 -3.456413745880126953e-01
2.397000000000000000e+03 6.582237243652343750e+01 -3.824695587158203125e+01 2.001045942306518555e-01 6.869465112686157227e-01 2.661153376102447510e-01 2.199586033821105957e-01
2.398000000000000000e+03 4.386018753051757812e+01 -6.702268600463867188e+00 7.821074724197387695e-01 3.122848987579345703e+00 1.171486973762512207e+00 -1.669469833374023438e+00
2.399000000000000000e+03 4.293767166137695312e+01 -8.336661338806152344e+00 6.317467689514160156e-01 2.416540384292602539e+00 9.144861102104187012e-01 -1.278026461601257324e+00
2.400000000000000000e+03 5.108667373657226562e+01 -3.121512031555175781e+01 9.537901282310485840e-01 4.151838779449462891e+00 1.531688690185546875e+00 6.758908033370971680e-01
2.401000000000000000e+03 4.881175231933593750e+01 -2.813899993896484375e+01 4.637090861797332764e-01 2.717209339141845703e+00 9.542755484580993652e-01 2.758635878562927246e-01
2.402000000000000000e+03 3.715746688842773438e+01 2.292780876159667969e+01 2.545986473560333252e-01 3.026709079742431641e+00 9.843923449516296387e-01 -2.951319217681884766e-01
2.403000000000000000e+03 3.961495971679687500e+01 2.226631355285644531e+01 2.946629822254180908e-01 3.572192907333374023e+00 1.160056710243225098e+00 5.168328434228897095e-02
2.404000000000000000e+03 4.103766632080078125e+01 3.200569152832031250e+01 -4.467683136463165283e-01 2.375777721405029297e+00 5.787028074264526367e-01 3.516003862023353577e-02
2.405000000000000000e+03 7.444556427001953125e+01 -1.301362895965576172e+01 -2.054613530635833740e-01 6.524229049682617188e+00 1.895630240440368652e+00 -4.615163803100585938e-01
2.406000000000000000e+03 9.264658927917480469e+00 -3.435863113403320312e+01 -2.510591642931103706e-03 6.419919664040207863e-04 -5.605798796750605106e-04 -8.366264519281685352e-04
2.407000000000000000e+03 6.780448150634765625e+01 -4.121992874145507812e+01 5.214329957962036133e-01 1.845629572868347168e+00 7.101187705993652344e-01 1.624951660633087158e-01
2.408000000000000000e+03 5.216897583007812500e+01 -2.284832954406738281e+01 -1.007881879806518555e+00 7.903380870819091797e+00 2.068649768829345703e+00 1.068255901336669922e+00
2.409000000000000000e+03 5.393478012084960938e+01 -2.509273338317871094e+01 -9.530283808708190918e-01 7.229763984680175781e+00 1.883020758628845215e+00 -2.731911838054656982e-01
2.410000000000000000e+03 5.470109558105468750e+01 -2.418152618408203125e+01 -6.811936497688293457e-01 6.908042907714843750e+00 1.868054866790771484e+00 -5.109059214591979980e-01
2.411000000000000000e+03 5.252897262573242188e+01 -2.269565391540527344e+01 -1.091785669326782227e+00 8.575728416442871094e+00 2.245182752609252930e+00 6.863414645195007324e-01
2.412000000000000000e+03 5.126137161254882812e+01 -2.288749694824218750e+01 -4.403065741062164307e-01 5.829971790313720703e+00 1.616899609565734863e+00 1.848424315452575684e+00
2.413000000000000000e+03 5.149411392211914062e+01 -2.327411079406738281e+01 -6.477888226509094238e-01 6.255026817321777344e+00 1.682171463966369629e+00 1.499654531478881836e+00
2.414000000000000000e+03 4.964204406738281250e+01 -1.628634262084960938e+01 -5.133619308471679688e-01 4.028194904327392578e+00 1.054449915885925293e+00 -3.301275730133056641e+00
2.415000000000000000e+03 1.146811294555664062e+01 -6.765286445617675781e+00 -5.452437326312065125e-04 -1.823336788220331073e-05 -1.690431381575763226e-04 1.366927026538178325e-04
2.416000000000000000e+03 1.081401824951171875e+01 -6.305244922637939453e+00 4.493071173783391714e-04 6.690822920063510537e-05 1.548645959701389074e-04 -2.532204380258917809e-04
2.417000000000000000e+03 4.960279083251953125e+01 -2.459364509582519531e+01 1.118209660053253174e-01 3.106359481811523438e+00 9.654541015625000000e-01 8.004237413406372070e-01
2.418000000000000000e+03 4.957480239868164062e+01 -1.753285598754882812e+01 -2.433103024959564209e-01 2.263053894042968750e+00 6.059230566024780273e-01 -3.240126848220825195e+00
2.419000000000000000e+03 4.901102828979492188e+01 -2.552493286132812500e+01 2.303645908832550049e-01 2.664354562759399414e+00 8.684157729148864746e-01 5.057721138000488281e-01
2.420000000000000000e+03 4.783491134643554688e+01 -1.651355171203613281e+01 -4.831520318984985352e-01 1.834202289581298828e+00 4.053150713443756104e-01 -1.517334342002868652e+00
2.421000000000000000e+03 3.089799118041992188e+01 -1.147481822967529297e+01 -1.076625108718872070e+00 -7.562768459320068359e-02 -3.456758558750152588e-01 1.194989442825317383e+00
2.422000000000000000e+03 9.901589393615722656e+00 -7.682385444641113281e+00 6.868207710795104504e-04 9.774899808689951897e-05 2.353709423914551735e-04 1.259056589333340526e-04
2.423000000000000000e+03 2.990840721130371094e+01 -1.007520389556884766e+01 -1.019458770751953125e+00 -1.035282164812088013e-01 -3.368960916996002197e-01 1.172736525535583496e+00
2.424000000000000000e+03 7.076026916503906250e+00 6.595488548278808594e+00 -1.132626011967658997e-01 -5.541416406631469727e-01 -2.002212852239608765e-01 5.863788127899169922e-01
2.425000000000000000e+03 5.758653640747070312e+00 6.600412368774414062e+00 -1.027253344655036926e-01 -4.870356321334838867e-01 -1.769282966852188110e-01 5.011032223701477051e-01
2.426000000000000000e+03 4.658052444458007812e+01 -1.546932888031005859e+01 -3.378657102584838867e-01 1.773170232772827148e+00 4.305913746356964111e-01 -9.541192054748535156e-01
2.427000000000000000e+03 7.784485816955566406e+00 6.551919460296630859e+00 -1.032043397426605225e-01 -6.060003042221069336e-01 -2.127613872289657593e-01 6.352654099464416504e-01
2.428000000000000000e+03 5.017765426635742188e+01 -2.764631652832031250e+01 3.619428277015686035e-01 3.763675451278686523e+00 1.237685441970825195e+00 2.513577938079833984e-01
2.429000000000000000e+03 4.816267013549804688e+01 -2.784105110168457031e+01 4.406860768795013428e-01 2.271461725234985352e+00 8.136443495750427246e-01 2.520535290241241455e-01
2.430000000000000000e+03 4.852752685546875000e+01 -1.563173866271972656e+01 -1.761903315782546997e-01 3.041017770767211914e+00 8.594481945037841797e-01 -2.163954734802246094e+00
2.431000000000000000e+03 1.341579341888427734e+01 -8.198330879211425781e+00 -1.257670082850381732e-04 -1.601508556632325053e-04 -8.577536209486424923e-05 -2.731636632233858109e-04
2.432000000000000000e+03 5.034009933471679688e+01 -1.615898513793945312e+01 -1.090959787368774414e+00 5.600833892822265625e+00 1.352962255477905273e+00 -3.895752191543579102e+00
2.433000000000000000e+03 5.267131423950195312e+01 -2.307595443725585938e+01 -1.115482211112976074e+00 8.311522483825683594e+00 2.158812046051025391e+00 4.578278064727783203e-01
2.434000000000000000e+03 9.336614608764648438e+00 6.011367797851562500e+00 -1.449281573295593262e-01 -6.897753477096557617e-01 -2.504110336303710938e-01 7.282791733741760254e-01
2.435000000000000000e+03 7.429944515228271484e+00 -5.878201484680175781e+00 1.589037856319919229e-04 -3.056303830817341805e-04 -4.401797923492267728e-05 -9.477954881731420755e-05
2.436000000000000000e+03 7.485996723175048828e+00 -8.872637748718261719e+00 8.542002178728580475e-04 4.157791408943012357e-05 2.687334490474313498e-04 1.733266981318593025e-04
2.437000000000000000e+03 5.478913497924804688e+01 -2.244537734985351562e+01 6.035650968551635742e-01 6.728045463562011719e+00 2.199483156204223633e+00 -1.515679597854614258e+00
2.438000000000000000e+03 1.029998970031738281e+01 -6.941052436828613281e+00 -5.933411885052919388e-04 -1.021256030071526766e-04 -2.086400490952655673e-04 6.790710904169827700e-05
2.439000000000000000e+03 1.275756835937500000e+01 -7.449851989746093750e+00 -5.053591448813676834e-04 -3.783076317631639540e-05 -1.629569742362946272e-04 2.640711318235844374e-05
2.440000000000000000e+03 2.712369155883789062e+01 -7.219438076019287109e+00 -1.082738399505615234e+00 -4.786143302917480469e-01 -4.684058129787445068e-01 1.065373659133911133e+00
2.441000000000000000e+03 4.641508483886718750e+01 -2.705301284790039062e+01 2.577233612537384033e-01 9.462054967880249023e-01 3.611786365509033203e-01 -3.804843500256538391e-02
2.442000000000000000e+03 4.719803237915039062e+01 -2.929224967956542969e+01 3.484894335269927979e-01 1.695559024810791016e+00 6.132145524024963379e-01 3.472391664981842041e-01
2.443000000000000000e+03 4.936204910278320312e+01 -1.470553779602050781e+01 -7.546284049749374390e-02 4.625821590423583984e+00 1.365107655525207520e+00 -2.435388326644897461e+00
2.444000000000000000e+03 1.644225692749023438e+01 5.032634735107421875e+00 2.548765018582344055e-02 -1.090103745460510254e+00 -3.193848431110382080e-01 7.065247297286987305e-01
2.445000000000000000e+03 2.570846557617187500e+01 -5.137908458709716797e+00 -1.022137522697448730e+00 -7.043247222900390625e-01 -5.179386734962463379e-01 9.371193051338195801e-01
2.446000000000000000e+03 4.493708038330078125e+01 -1.479785251617431641e+01 -4.083842933177947998e-01 1.562093019485473633e+00 3.461126387119293213e-01 -5.829300284385681152e-01
2.447000000000000000e+03 4.465209960937500000e+01 -1.138382053375244141e+01 5.555133819580078125e-01 2.341315269470214844e+00 8.690485954284667969e-01 -1.251241326332092285e+00
2.448000000000000000e+03 2.397716140747070312e+01 -1.823029160499572754e+00 -6.682402491569519043e-01 -8.490442037582397461e-01 -4.551853239536285400e-01 7.129498720169067383e-01
2.449000000000000000e+03 4.981147003173828125e+01 -2.390975761413574219e+01 9.256748855113983154e-02 3.168781518936157227e+00 9.784047603607177734e-01 1.052309274673461914e+00
2.450000000000000000e+03 1.587230587005615234e+01 4.477138042449951172e+00 -1.047968640923500061e-01 -1.113982677459716797e+00 -3.656338453292846680e-01 7.715513706207275391e-01
2.451000000000000000e+03 1.536093235015869141e+01 3.870828390121459961e+00 -2.484326064586639404e-01 -1.130644798278808594e+00 -4.137232005596160889e-01 8.314313888549804688e-01
2.452000000000000000e+03 2.745674514770507812e+01 -3.534723997116088867e+00 -6.039042472839355469e-01 -1.751899868249893188e-01 -2.337282747030258179e-01 6.514889597892761230e-01
2.453000000000000000e+03 2.626923751831054688e+01 -4.617063045501708984e+00 -8.878172039985656738e-01 -5.217488408088684082e-01 -4.228698015213012695e-01 8.398239612579345703e-01
2.454000000000000000e+03 2.017917633056640625e+01 5.932176113128662109e-01 -5.587887167930603027e-01 -1.248290181159973145e+00 -5.421236753463745117e-01 8.023679256439208984e-01
2.455000000000000000e+03 1.713104057312011719e+01 3.562730550765991211e+00 -1.889977902173995972e-01 -1.178781032562255859e+00 -4.103336632251739502e-01 7.673953771591186523e-01
2.456000000000000000e+03 4.500893783569335938e+01 -1.563402271270751953e+01 -8.157297372817993164e-01 1.283003091812133789e+00 1.401820182800292969e-01 -3.372868895530700684e-01
2.457000000000000000e+03 4.538110351562500000e+01 -1.244108676910400391e+01 4.527069628238677979e-01 2.392585515975952148e+00 8.535877466201782227e-01 -1.214230179786682129e+00
2.458000000000000000e+03 2.857173347473144531e+01 -8.058565139770507812e+00 -1.006539106369018555e+00 -2.080307304859161377e-01 -3.643709421157836914e-01 1.069867491722106934e+00
2.459000000000000000e+03 2.813441848754882812e+01 -7.384927272796630859e+00 -9.935538768768310547e-01 -2.581787407398223877e-01 -3.755197823047637939e-01 1.026648402214050293e+00
2.460000000000000000e+03 2.799530410766601562e+01 -8.574590682983398438e+00 -1.087808489799499512e+00 -3.516611456871032715e-01 -4.318408966064453125e-01 1.148025870323181152e+00
2.461000000000000000e+03 2.944699478149414062e+01 -9.396974563598632812e+00 -1.016636490821838379e+00 -1.293243616819381714e-01 -3.437882661819458008e-01 1.147071957588195801e+00
2.462000000000000000e+03 1.537405395507812500e+01 -7.446954727172851562e+00 -1.729551586322486401e-04 -1.126195202232338488e-04 -8.567240001866593957e-05 -4.772231841343455017e-05
2.463000000000000000e+03 2.406100654602050781e+01 -3.064975738525390625e+00 -8.875628709793090820e-01 -9.384989142417907715e-01 -5.478185415267944336e-01 8.422359824180603027e-01
2.464000000000000000e+03 2.333754920959472656e+01 -1.157392024993896484e+00 -6.066223978996276855e-01 -9.291352629661560059e-01 -4.607272744178771973e-01 6.963918805122375488e-01
2.465000000000000000e+03 2.200940895080566406e+01 1.039453595876693726e-01 -4.829422235488891602e-01 -1.057399034500122070e+00 -4.621023535728454590e-01 6.852452158927917480e-01
2.466000000000000000e+03 2.574254226684570312e+01 -3.909734249114990234e+00 -8.446449637413024902e-01 -6.030001044273376465e-01 -4.342935085296630859e-01 7.987874150276184082e-01
2.467000000000000000e+03 2.518310165405273438e+01 -3.203417062759399414e+00 -7.877373099327087402e-01 -6.832405328750610352e-01 -4.412933290004730225e-01 7.647876739501953125e-01
2.468000000000000000e+03 4.781914901733398438e+01 -2.565419197082519531e+01 3.187009096145629883e-01 1.670806884765625000e+00 5.968523621559143066e-01 1.809456050395965576e-01
2.469000000000000000e+03 4.693389129638671875e+01 -2.614670372009277344e+01 3.178898990154266357e-01 1.178766489028930664e+00 4.489969015121459961e-01 -7.893321104347705841e-03
2.470000000000000000e+03 2.723612213134765625e+01 -6.017995834350585938e+00 -9.550993442535400391e-01 -3.794115185737609863e-01 -4.003532528877258301e-01 9.309048056602478027e-01
2.471000000000000000e+03 5.317953491210937500e+01 -2.653127288818359375e+01 -3.580903410911560059e-01 6.537478923797607422e+00 1.853816509246826172e+00 -2.225308567285537720e-01
2.472000000000000000e+03 3.975993728637695312e+01 -1.327382278442382812e+01 -7.867013812065124512e-01 4.161308109760284424e-01 -1.111711710691452026e-01 8.446323126554489136e-02
2.473000000000000000e+03 1.516725349426269531e+01 -8.416695594787597656e+00 -2.156564296456053853e-04 -3.788645699387416244e-05 -7.606286817463114858e-05 8.442020771326497197e-05
2.474000000000000000e+03 5.356826019287109375e+01 -2.375236511230468750e+01 -1.022492885589599609e+00 7.666644573211669922e+00 1.993245482444763184e+00 -2.965886890888214111e-01
2.475000000000000000e+03 2.268111991882324219e+01 -5.134817361831665039e-01 -5.420025587081909180e-01 -9.951658248901367188e-01 -4.611505270004272461e-01 6.881874799728393555e-01
2.476000000000000000e+03 2.319117355346679688e+01 1.121722608804702759e-01 -3.724684417247772217e-01 -8.541685938835144043e-01 -3.679910898208618164e-01 5.870715379714965820e-01
2.477000000000000000e+03 1.921528816223144531e+01 2.259833335876464844e+00 -2.876150012016296387e-01 -1.187978267669677734e+00 -4.426780045032501221e-01 7.256179451942443848e-01
2.478000000000000000e+03 1.415177631378173828e+01 -8.033556938171386719e+00 -1.335186098003759980e-04 1.759672013577073812e-04 1.273457564821001142e-05 1.953384344233199954e-04
2.479000000000000000e+03 7.713885307312011719e+00 1.374281597137451172e+01 1.703858077526092529e-01 -8.391104340553283691e-01 -2.006173878908157349e-01 4.373174309730529785e-01
2.480000000000000000e+03 7.271737575531005859e+00 1.752661132812500000e+01 1.601846367120742798e-01 -9.046896696090698242e-01 -2.233515083789825439e-01 2.837188243865966797e-01
2.481000000000000000e+03 1.465685844421386719e+01 5.621705532073974609e+00 3.098205197602510452e-03 -1.046136975288391113e+00 -3.129116594791412354e-01 7.537216544151306152e-01
2.482000000000000000e+03 4.617214202880859375e+01 -1.484135913848876953e+01 -1.668584644794464111e-01 1.927258372306823730e+00 5.281199812889099121e-01 -9.741351604461669922e-01
2.483000000000000000e+03 4.594398117065429688e+01 -1.577328586578369141e+01 -6.121568679809570312e-01 1.484084248542785645e+00 2.615782022476196289e-01 -6.400083899497985840e-01
2.484000000000000000e+03 1.948852157592773438e+01 1.108474135398864746e+00 -5.132150650024414062e-01 -1.262890815734863281e+00 -5.328317880630493164e-01 8.093997240066528320e-01
2.485000000000000000e+03 1.781025886535644531e+01 3.150433778762817383e+00 -2.211717069149017334e-01 -1.189407825469970703e+00 -4.231738746166229248e-01 7.558882236480712891e-01
2.486000000000000000e+03 8.563201904296875000e+00 -9.093059539794921875e+00 -7.609371095895767212e-04 -1.125108974520117044e-04 -2.620343875605612993e-04 -2.331309660803526640e-04
2.487000000000000000e+03 8.004519462585449219e+00 7.236830234527587891e+00 -5.990684032440185547e-02 -6.537266969680786133e-01 -2.140900641679763794e-01 6.476960778236389160e-01
2.488000000000000000e+03 4.261091613769531250e+01 -6.096852302551269531e+00 6.837063431739807129e-01 2.852633237838745117e+00 1.060901880264282227e+00 -1.444921135902404785e+00
2.489000000000000000e+03 4.867938613891601562e+01 -2.505919456481933594e+01 2.713680565357208252e-01 2.225155353546142578e+00 7.489570379257202148e-01 4.679181575775146484e-01
2.490000000000000000e+03 5.286721038818359375e+01 -2.873259544372558594e+01 8.155867457389831543e-01 6.016521930694580078e+00 2.049632549285888672e+00 -2.609542012214660645e-01
2.491000000000000000e+03 5.286394882202148438e+01 -2.766648101806640625e+01 1.991528272628784180e-01 6.158439159393310547e+00 1.907277703285217285e+00 -2.686416506767272949e-01
2.492000000000000000e+03 3.492474746704101562e+01 -1.250402736663818359e+01 -9.894971251487731934e-01 2.729455474764108658e-03 -2.960303127765655518e-01 9.215865731239318848e-01
2.493000000000000000e+03 3.156310272216796875e+01 -1.086046695709228516e+01 -9.912788867950439453e-01 2.107751928269863129e-02 -2.910604178905487061e-01 1.121396303176879883e+00
2.494000000000000000e+03 6.523040008544921875e+01 -1.700681114196777344e+01 6.792750954627990723e-01 1.548491120338439941e+00 6.683298349380493164e-01 7.339920997619628906e-01
2.495000000000000000e+03 3.192737388610839844e+01 -1.306584072113037109e+01 -1.279071092605590820e+00 -8.179592341184616089e-02 -4.082601070404052734e-01 1.172819852828979492e+00
2.496000000000000000e+03 3.273239898681640625e+01 -1.235843467712402344e+01 -1.146635770797729492e+00 -1.570891961455345154e-02 -3.487034142017364502e-01 1.131902694702148438e+00
2.497000000000000000e+03 1.354471015930175781e+01 -9.058323860168457031e+00 8.314641308970749378e-05 9.591520210960879922e-05 5.371848601498641074e-05 1.845609513111412525e-04
2.498000000000000000e+03 3.616987609863281250e+01 -1.231184005737304688e+01 -8.602058291435241699e-01 1.076539903879165649e-01 -2.257655560970306396e-01 7.147263884544372559e-01
2.499000000000000000e+03 3.705664825439453125e+01 7.171390056610107422e+00 1.322603940963745117e+00 3.482420444488525391e+00 1.441507339477539062e+00 -7.114621996879577637e-01
2.500000000000000000e+03 4.134772109985351562e+01 -1.638427734375000000e+00 6.121985912322998047e-01 3.468748569488525391e+00 1.224284172058105469e+00 -1.429429769515991211e+00
2.501000000000000000e+03 4.038923645019531250e+01 -2.183878660202026367e+00 5.827925801277160645e-01 3.092413187026977539e+00 1.102561712265014648e+00 -1.200820803642272949e+00
2.502000000000000000e+03 4.645570755004882812e+01 -3.018131637573242188e+01 1.889548599720001221e-01 1.366796731948852539e+00 4.667254686355590820e-01 4.162336885929107666e-01
2.503000000000000000e+03 1.265977668762207031e+01 6.257519721984863281e+00 -1.295864582061767578e-02 -9.449681043624877930e-01 -2.873780131340026855e-01 7.699393033981323242e-01
2.504000000000000000e+03 3.890716171264648438e+01 4.861168861389160156e-01 6.557682156562805176e-01 3.212241888046264648e+00 1.160403013229370117e+00 -9.786508679389953613e-01
2.505000000000000000e+03 4.115129852294921875e+01 -1.507680034637451172e+01 -1.377408266067504883e+00 5.761549472808837891e-01 -2.403759807348251343e-01 8.786971122026443481e-02
2.506000000000000000e+03 7.067298126220703125e+01 -1.769462966918945312e+01 -4.200025498867034912e-01 4.895054340362548828e+00 1.342515468597412109e+00 -1.117339372634887695e+00
2.507000000000000000e+03 9.939289093017578125e+00 6.566308021545410156e+00 -7.704564929008483887e-02 -7.554681301116943359e-01 -2.497541308403015137e-01 7.357488274574279785e-01
2.508000000000000000e+03 1.054885959625244141e+01 5.734019279479980469e+00 -1.514298021793365479e-01 -7.814805507659912109e-01 -2.798731029033660889e-01 7.763479948043823242e-01
2.509000000000000000e+03 4.399021911621093750e+01 -8.502113342285156250e+00 7.618751525878906250e-01 2.746658086776733398e+00 1.052559971809387207e+00 -1.517139673233032227e+00
2.510000000000000000e+03 4.200170516967773438e+01 -1.458378410339355469e+01 -1.044844746589660645e+00 8.493026494979858398e-01 -5.866264924407005310e-02 -6.745852530002593994e-02
2.511000000000000000e+03 3.885909652709960938e+01 -1.214916515350341797e+01 -5.128118395805358887e-01 4.852775633335113525e-01 -8.260284550487995148e-03 1.605885326862335205e-01
2.512000000000000000e+03 3.940824127197265625e+01 1.998687148094177246e+00 7.739714980125427246e-01 3.691506624221801758e+00 1.339643478393554688e+00 -1.080105543136596680e+00
2.513000000000000000e+03 6.891547203063964844e+00 2.284372138977050781e+01 1.069986447691917419e-01 -9.569312334060668945e-01 -2.549797892570495605e-01 1.041549295186996460e-01
2.514000000000000000e+03 8.569954872131347656e+00 2.521963310241699219e+01 1.158534213900566101e-01 -8.117123842239379883e-01 -2.087576985359191895e-01 4.373317956924438477e-02
2.515000000000000000e+03 6.552065372467041016e+00 -1.146276950836181641e+01 -7.878083270043134689e-04 -4.206164885545149446e-05 -2.489610051270574331e-04 -2.750412095338106155e-04
2.516000000000000000e+03 7.203851318359375000e+01 -1.764358520507812500e+01 -6.491269469261169434e-01 5.996387958526611328e+00 1.604178309440612793e+00 -9.170510768890380859e-01
2.517000000000000000e+03 9.105344772338867188e+00 -7.298112869262695312e+00 -8.777487091720104218e-04 9.519297600490972400e-05 -2.347667323192581534e-04 -7.030678534647449851e-05
2.518000000000000000e+03 6.389118671417236328e+00 -1.015427970886230469e+01 7.508156704716384411e-04 4.012705539935268462e-05 2.372828312218189240e-04 3.315456269774585962e-04
2.519000000000000000e+03 3.885935974121093750e+01 2.731547927856445312e+01 -1.035553663969039917e-01 2.770206928253173828e+00 7.999954819679260254e-01 -1.123477146029472351e-01
2.520000000000000000e+03 3.553101730346679688e+01 2.243859672546386719e+01 3.557603955268859863e-01 2.773545742034912109e+00 9.387918710708618164e-01 -4.768854379653930664e-01
2.521000000000000000e+03 7.309130191802978516e+00 1.628720664978027344e+01 1.714622378349304199e-01 -8.890395164489746094e-01 -2.152731865644454956e-01 3.304525911808013916e-01
2.522000000000000000e+03 7.145903587341308594e+00 1.877396392822265625e+01 1.564012318849563599e-01 -9.203952550888061523e-01 -2.291982173919677734e-01 2.405173331499099731e-01
2.523000000000000000e+03 3.839265823364257812e+01 1.532518863677978516e+00 7.176468372344970703e-01 3.279852628707885742e+00 1.199249863624572754e+00 -8.983049988746643066e-01
2.524000000000000000e+03 3.869931030273437500e+01 6.260830879211425781e+00 1.240369558334350586e+00 4.208630561828613281e+00 1.634700059890747070e+00 -9.063175320625305176e-01
2.525000000000000000e+03 6.116766929626464844e+00 1.861176109313964844e+01 1.164038926362991333e-01 -9.815213680267333984e-01 -2.595352530479431152e-01 2.296235412359237671e-01
2.526000000000000000e+03 3.963788223266601562e+01 -1.155828356742858887e+00 5.665628910064697266e-01 3.103961706161499023e+00 1.101157307624816895e+00 -1.083245515823364258e+00
2.527000000000000000e+03 6.592421722412109375e+01 -1.616768074035644531e+01 7.575008273124694824e-01 2.048678874969482422e+00 8.418539166450500488e-01 6.054134964942932129e-01
2.528000000000000000e+03 4.910493469238281250e+01 -3.401435470581054688e+01 2.346088737249374390e-01 2.993907690048217773e+00 9.685549736022949219e-01 9.619379043579101562e-01
2.529000000000000000e+03 9.709321022033691406e+00 -1.116903400421142578e+01 6.127763190306723118e-04 1.956489140866324306e-04 2.425275597488507628e-04 4.968683351762592793e-04
2.530000000000000000e+03 6.945542907714843750e+01 -1.491138362884521484e+01 2.443952709436416626e-01 4.283894538879394531e+00 1.358486890792846680e+00 -2.423645108938217163e-01
2.531000000000000000e+03 6.838835906982421875e+01 -1.625699234008789062e+01 3.692654371261596680e-01 3.289527177810668945e+00 1.097637772560119629e+00 -2.964037060737609863e-01
2.532000000000000000e+03 7.080591201782226562e+00 7.610428333282470703e+00 -4.194177687168121338e-02 -6.200244426727294922e-01 -1.985898613929748535e-01 5.864119529724121094e-01
2.533000000000000000e+03 7.199452972412109375e+01 -1.190894317626953125e+01 -2.384694665670394897e-02 5.991720199584960938e+00 1.790362000465393066e+00 -1.916401237249374390e-01
2.534000000000000000e+03 9.246086120605468750e+00 7.315526962280273438e+00 -3.101057372987270355e-02 -7.301100492477416992e-01 -2.283361852169036865e-01 6.959046721458435059e-01
2.535000000000000000e+03 6.410640716552734375e+00 1.191308403015136719e+01 1.080097854137420654e-01 -7.980145812034606934e-01 -2.070014327764511108e-01 4.638980329036712646e-01
2.536000000000000000e+03 7.308153533935546875e+01 3.242251968383789062e+01 -5.574933290481567383e-01 6.879311084747314453e+00 1.896545410156250000e+00 3.414716720581054688e-01
2.537000000000000000e+03 7.342252349853515625e+01 3.391727066040039062e+01 -5.374271869659423828e-01 6.871216297149658203e+00 1.900136709213256836e+00 2.658600807189941406e-01
2.538000000000000000e+03 7.956473350524902344e+00 2.983728599548339844e+01 4.596688598394393921e-02 -8.109064698219299316e-01 -2.294818758964538574e-01 -2.720013074576854706e-02
2.539000000000000000e+03 1.155218315124511719e+01 2.856755447387695312e+01 1.078501790761947632e-01 -5.081359744071960449e-01 -1.200857311487197876e-01 -4.590034857392311096e-02
2.540000000000000000e+03 5.116133499145507812e+01 -3.305727005004882812e+01 5.643914341926574707e-01 4.130424499511718750e+00 1.408444762229919434e+00 9.203374981880187988e-01
2.541000000000000000e+03 5.255103302001953125e+01 -3.485585021972656250e+01 -1.069484204053878784e-01 4.786240577697753906e+00 1.403787612915039062e+00 7.966445088386535645e-01
2.542000000000000000e+03 5.190785598754882812e+01 -3.061340713500976562e+01 1.361562967300415039e+00 4.721187591552734375e+00 1.824825167655944824e+00 4.781040251255035400e-01
2.543000000000000000e+03 1.060146808624267578e+01 -1.117237377166748047e+01 -5.512859206646680832e-04 -3.611335996538400650e-04 -2.737258619163185358e-04 -4.384869534987956285e-04
2.544000000000000000e+03 1.151550388336181641e+01 -8.629426002502441406e+00 4.801147151738405228e-04 2.858228690456598997e-04 2.297812752658501267e-04 -3.204024687875062227e-05
2.545000000000000000e+03 7.569711208343505859e+00 1.152402687072753906e+01 1.297364085912704468e-01 -7.936289906501770020e-01 -1.991677731275558472e-01 5.132408738136291504e-01
2.546000000000000000e+03 3.450876235961914062e+01 1.906120109558105469e+01 6.979779601097106934e-01 2.727046251296997070e+00 1.027507305145263672e+00 -6.233234405517578125e-01
2.547000000000000000e+03 3.524865341186523438e+01 1.636280441284179688e+01 9.183537364006042480e-01 3.066359758377075195e+00 1.195414066314697266e+00 -6.811161041259765625e-01
2.548000000000000000e+03 4.400919723510742188e+01 -7.611477375030517578e+00 7.671812772750854492e-01 2.973034620285034180e+00 1.122064828872680664e+00 -1.609313488006591797e+00
2.549000000000000000e+03 3.569429397583007812e+01 1.276029586791992188e+01 1.271329522132873535e+00 3.209262609481811523e+00 1.344177603721618652e+00 -7.639415264129638672e-01
2.550000000000000000e+03 7.235402679443359375e+01 -1.911071205139160156e+01 -9.487760066986083984e-01 6.796728134155273438e+00 1.754385709762573242e+00 -9.025611877441406250e-01
2.551000000000000000e+03 7.447056770324707031e+00 2.657342338562011719e+01 8.047392964363098145e-02 -8.980799913406372070e-01 -2.452818155288696289e-01 2.233615517616271973e-02
2.552000000000000000e+03 3.749333572387695312e+01 2.117983245849609375e+01 4.064734876155853271e-01 3.324250936508178711e+00 1.119217276573181152e+00 -3.011074066162109375e-01
2.553000000000000000e+03 7.319640350341796875e+01 -1.314977359771728516e+01 -1.756791174411773682e-01 6.224098205566406250e+00 1.814525723457336426e+00 -4.200696051120758057e-01
2.554000000000000000e+03 3.925806427001953125e+01 -7.891378402709960938e+00 2.307918965816497803e-01 1.481071114540100098e+00 5.135589241981506348e-01 -4.563113749027252197e-01
2.555000000000000000e+03 4.389215087890625000e+01 -9.394127845764160156e+00 6.873496770858764648e-01 2.522813320159912109e+00 9.630488753318786621e-01 -1.370260596275329590e+00
2.556000000000000000e+03 8.275649070739746094e+00 3.561462020874023438e+01 -7.739739492535591125e-03 -7.328226566314697266e-01 -2.221687287092208862e-01 -3.780737891793251038e-02
2.557000000000000000e+03 3.516717529296875000e+01 1.075240993499755859e+01 1.384768724441528320e+00 2.935092926025390625e+00 1.295958518981933594e+00 -7.321999073028564453e-01
2.558000000000000000e+03 3.595362854003906250e+01 9.585463523864746094e+00 1.408022284507751465e+00 3.206204652786254883e+00 1.384268045425415039e+00 -7.198429107666015625e-01
2.559000000000000000e+03 6.584545135498046875e+00 -3.535092163085937500e+01 -2.353345975279808044e-03 1.140630338340997696e-03 -3.638147318270057440e-04 -5.687245866283774376e-04
2.560000000000000000e+03 2.099693679809570312e+01 -3.684760665893554688e+01 -3.176232334226369858e-03 -1.299288775771856308e-02 -4.850736353546380997e-03 -9.218616411089897156e-03
2.561000000000000000e+03 1.175789928436279297e+01 -3.881296157836914062e+01 1.476895180530846119e-03 -1.395313767716288567e-03 2.447442420816514641e-05 -2.879749808926135302e-04
2.562000000000000000e+03 1.138792324066162109e+01 -3.680276107788085938e+01 -3.560059471055865288e-03 -4.878528416156768799e-04 -1.214373623952269554e-03 6.360636907629668713e-04
2.563000000000000000e+03 5.402449035644531250e+01 -3.312725067138671875e+01 7.562912106513977051e-01 6.081961154937744141e+00 2.051475763320922852e+00 5.562622547149658203e-01
2.564000000000000000e+03 7.191812133789062500e+01 -4.120104217529296875e+01 5.868323892354965210e-02 4.755808830261230469e+00 1.444347620010375977e+00 6.472238898277282715e-02
2.565000000000000000e+03 7.073734283447265625e+01 -3.660449600219726562e+01 -6.564381122589111328e-01 4.115692615509033203e+00 1.037776350975036621e+00 6.131709814071655273e-01
2.566000000000000000e+03 1.808111572265625000e+01 -3.424619674682617188e+01 9.397976100444793701e-04 1.197460296680219471e-04 3.178630722686648369e-04 -2.348498906940221786e-03
2.567000000000000000e+03 8.993343353271484375e+00 -3.891076660156250000e+01 -1.197239151224493980e-03 -9.891036897897720337e-04 -6.559028406627476215e-04 2.346516819670796394e-03
2.568000000000000000e+03 6.034996986389160156e+00 3.821057510375976562e+01 -3.235779004171490669e-03 -9.883356690406799316e-01 -2.974714338779449463e-01 -5.055002868175506592e-03
2.569000000000000000e+03 3.993828964233398438e+01 3.468954849243164062e+01 -6.187378168106079102e-01 2.230478286743164062e+00 4.835221469402313232e-01 -5.379762873053550720e-02
2.570000000000000000e+03 4.701839447021484375e+01 3.854611206054687500e+01 -6.601811051368713379e-01 1.463689565658569336e+00 2.410525232553482056e-01 1.279143542051315308e-01
2.571000000000000000e+03 2.555428314208984375e+01 -3.723371124267578125e+01 5.520517588593065739e-04 -2.751108817756175995e-02 -8.087710477411746979e-03 -3.279456123709678650e-02
2.572000000000000000e+03 2.901723670959472656e+01 -3.763978958129882812e+01 2.092422917485237122e-02 -5.096504837274551392e-02 -9.012246504426002502e-03 -5.767916142940521240e-02
2.573000000000000000e+03 2.333745574951171875e+01 -3.450833129882812500e+01 -4.840315785259008408e-03 -6.683060899376869202e-03 -3.457013051956892014e-03 -1.305922958999872208e-02
2.574000000000000000e+03 5.005668640136718750e+01 -2.440438652038574219e+01 -2.291300147771835327e-02 3.663586378097534180e+00 1.092202067375183105e+00 9.677822589874267578e-01
2.575000000000000000e+03 5.049388885498046875e+01 -2.422368812561035156e+01 -1.735226809978485107e-01 4.243511199951171875e+00 1.220996499061584473e+00 1.080517292022705078e+00
2.576000000000000000e+03 1.443521690368652344e+01 -8.768070220947265625e+00 9.921520540956407785e-05 3.134757662337506190e-06 3.070498860324732959e-05 -1.486150576965883374e-04
2.577000000000000000e+03 5.207633972167968750e+01 -2.346681785583496094e+01 -9.431540966033935547e-01 7.080638885498046875e+00 1.841245412826538086e+00 9.533296227455139160e-01
2.578000000000000000e+03 5.313601303100585938e+01 -2.714780807495117188e+01 -9.803384542465209961e-02 6.572016239166259766e+00 1.942194700241088867e+00 -2.528577744960784912e-01
2.579000000000000000e+03 5.314074707031250000e+01 -2.520162582397460938e+01 -9.145232439041137695e-01 6.935349464416503906e+00 1.806247830390930176e+00 -3.685945272445678711e-02
2.580000000000000000e+03 3.039511680603027344e+01 -1.076468563079833984e+01 -1.048322439193725586e+00 -8.051587641239166260e-02 -3.386514782905578613e-01 1.190621256828308105e+00
2.581000000000000000e+03 3.050110244750976562e+01 -9.519166946411132812e+00 -9.370590448379516602e-01 9.352571330964565277e-03 -2.783119380474090576e-01 1.094448208808898926e+00
2.582000000000000000e+03 4.816352462768554688e+01 -2.609964179992675781e+01 3.538342118263244629e-01 2.047541856765747070e+00 7.204128503799438477e-01 2.745710313320159912e-01
2.583000000000000000e+03 1.110266494750976562e+01 -9.438838958740234375e+00 -5.873638438060879707e-04 -3.007683262694627047e-04 -2.664396597538143396e-04 -1.373586273984983563e-04
2.584000000000000000e+03 1.181929397583007812e+01 -7.856440544128417969e+00 -5.445146816782653332e-04 -1.201815539388917387e-04 -1.994088670471683145e-04 6.360784755088388920e-05
2.585000000000000000e+03 9.509696960449218750e+00 -6.514294147491455078e+00 7.464511436410248280e-04 1.365948151033080649e-06 2.243451308459043503e-04 2.756917820079252124e-05
2.586000000000000000e+03 5.154053115844726562e+01 -2.433913230895996094e+01 -6.684087514877319336e-01 5.856850624084472656e+00 1.556532621383666992e+00 8.922818303108215332e-01
2.587000000000000000e+03 4.851564788818359375e+01 -1.479097652435302734e+01 1.164960414171218872e-01 3.514118671417236328e+00 1.089184403419494629e+00 -2.075599670410156250e+00
2.588000000000000000e+03 4.765681076049804688e+01 -1.579517841339111328e+01 -2.301709055900573730e-01 2.184930801391601562e+00 5.864279270172119141e-01 -1.509743332862854004e+00
2.589000000000000000e+03 8.740643501281738281e+00 6.703564643859863281e+00 -8.927986025810241699e-02 -6.741001605987548828e-01 -2.290140092372894287e-01 6.887627243995666504e-01
2.590000000000000000e+03 3.220466232299804688e+01 -1.017456626892089844e+01 -8.542203903198242188e-01 1.203651577234268188e-01 -2.201565653085708618e-01 1.021955609321594238e+00
2.591000000000000000e+03 2.959102439880371094e+01 -8.195067405700683594e+00 -9.164767265319824219e-01 -3.372905403375625610e-02 -2.850617468357086182e-01 1.023388504981994629e+00
2.592000000000000000e+03 2.769061660766601562e+01 -6.705211162567138672e+00 -9.807837009429931641e-01 -3.184685409069061279e-01 -3.897756636142730713e-01 9.794187545776367188e-01
2.593000000000000000e+03 2.734721565246582031e+01 -4.794874668121337891e+00 -7.943802475929260254e-01 -2.781026959419250488e-01 -3.217448890209197998e-01 7.897896766662597656e-01
2.594000000000000000e+03 4.713898086547851562e+01 -2.675822830200195312e+01 3.512434363365173340e-01 1.377111196517944336e+00 5.185064077377319336e-01 8.857870846986770630e-02
2.595000000000000000e+03 4.855461502075195312e+01 -1.397656726837158203e+01 3.157116174697875977e-01 3.987281322479248047e+00 1.290897846221923828e+00 -2.009823560714721680e+00
2.596000000000000000e+03 5.194393539428710938e+01 -2.750919151306152344e+01 1.554809808731079102e-01 5.484495639801025391e+00 1.691992998123168945e+00 -4.537203907966613770e-02
2.597000000000000000e+03 4.277179718017578125e+01 -1.497184753417968750e+01 -1.029906392097473145e+00 9.936463236808776855e-01 -1.087801251560449600e-02 -9.125939756631851196e-02
2.598000000000000000e+03 5.233027267456054688e+01 -2.813684463500976562e+01 4.815487861633300781e-01 5.591521739959716797e+00 1.821921110153198242e+00 -1.431354731321334839e-01
2.599000000000000000e+03 4.944363784790039062e+01 -2.528333282470703125e+01 1.613120287656784058e-01 3.058789491653442383e+00 9.660304188728332520e-01 6.079940795898437500e-01
2.600000000000000000e+03 2.871448898315429688e+01 -6.861844539642333984e+00 -8.856942057609558105e-01 -1.109331622719764709e-01 -2.989881932735443115e-01 9.373401999473571777e-01
2.601000000000000000e+03 1.595641517639160156e+01 5.647558212280273438e+00 8.048535883426666260e-02 -1.061996340751647949e+00 -2.944532930850982666e-01 6.929100155830383301e-01
2.602000000000000000e+03 1.251103401184082031e+01 -9.019835472106933594e+00 -4.938487545587122440e-04 -1.515758631285279989e-04 -1.936273765750229359e-04 -1.620711736904922873e-05
2.603000000000000000e+03 2.900584793090820312e+01 -8.727305412292480469e+00 -1.005589842796325684e+00 -1.668569147586822510e-01 -3.517340421676635742e-01 1.110723495483398438e+00
2.604000000000000000e+03 1.821608924865722656e+01 3.843206167221069336e+00 -6.218899786472320557e-02 -1.126612663269042969e+00 -3.566404879093170166e-01 6.781630516052246094e-01
2.605000000000000000e+03 4.412800216674804688e+01 -1.410197448730468750e+01 -3.756375014781951904e-01 1.475616574287414551e+00 3.299936950206756592e-01 -4.938727617263793945e-01
2.606000000000000000e+03 2.631527709960937500e+01 -3.364230155944824219e+00 -6.953846216201782227e-01 -4.260215461254119873e-01 -3.364218473434448242e-01 7.038919925689697266e-01
2.607000000000000000e+03 2.441170883178710938e+01 7.337816804647445679e-02 -2.743973433971405029e-01 -6.199699044227600098e-01 -2.683101594448089600e-01 5.017934441566467285e-01
2.608000000000000000e+03 2.459387016296386719e+01 -2.506078481674194336e+00 -7.313511967658996582e-01 -7.700561881065368652e-01 -4.504222273826599121e-01 7.343971133232116699e-01
2.609000000000000000e+03 2.451625633239746094e+01 -1.232519745826721191e+00 -5.054895877838134766e-01 -6.901755928993225098e-01 -3.586995601654052734e-01 6.116410493850708008e-01
2.610000000000000000e+03 1.992299842834472656e+01 1.769245266914367676e+00 -3.261033296585083008e-01 -1.170504808425903320e+00 -4.489824175834655762e-01 7.117940187454223633e-01
2.611000000000000000e+03 1.528157901763916016e+01 5.030335426330566406e+00 -5.505615845322608948e-02 -1.085396289825439453e+00 -3.421357274055480957e-01 7.635160684585571289e-01
2.612000000000000000e+03 2.386196517944335938e+01 -5.496336817741394043e-01 -4.368539452552795410e-01 -7.725899219512939453e-01 -3.628331720829010010e-01 5.966519117355346680e-01
2.613000000000000000e+03 2.574600410461425781e+01 -2.645497560501098633e+00 -6.371483802795410156e-01 -5.136907100677490234e-01 -3.452517092227935791e-01 6.652812957763671875e-01
2.614000000000000000e+03 2.514598655700683594e+01 -1.932628750801086426e+00 -5.707328319549560547e-01 -5.986468791961669922e-01 -3.508138954639434814e-01 6.361328363418579102e-01
2.615000000000000000e+03 1.105664253234863281e+01 -7.437152862548828125e+00 5.503744469024240971e-04 1.353409170405939221e-04 2.057146048173308372e-04 -6.379688420565798879e-05
2.616000000000000000e+03 2.036816215515136719e+01 2.458966255187988281e+00 -1.550820171833038330e-01 -1.072695732116699219e+00 -3.683333098888397217e-01 6.176913380622863770e-01
2.617000000000000000e+03 4.790686798095703125e+01 -1.397873973846435547e+01 4.201858639717102051e-01 3.403534412384033203e+00 1.147116065025329590e+00 -1.870527029037475586e+00
2.618000000000000000e+03 9.961521148681640625e+00 -1.220028495788574219e+01 -5.224595661275088787e-04 -9.419005800737068057e-05 -1.849948748713359237e-04 -5.928906030021607876e-04
2.619000000000000000e+03 9.653726577758789062e+00 -1.013633823394775391e+01 -5.261778132990002632e-04 -3.379675035830587149e-04 -2.592435921542346478e-04 -3.845286846626549959e-04
2.620000000000000000e+03 2.302623367309570312e+01 1.407918930053710938e+00 -1.444535851478576660e-01 -7.847079038619995117e-01 -2.787484526634216309e-01 4.917196333408355713e-01
2.621000000000000000e+03 2.132339859008789062e+01 6.910043954849243164e-01 -4.245709478855133057e-01 -1.104382753372192383e+00 -4.586861133575439453e-01 6.898835897445678711e-01
2.622000000000000000e+03 4.553010559082031250e+01 -1.520202350616455078e+01 -4.876595139503479004e-01 1.594233393669128418e+00 3.319721817970275879e-01 -6.153633594512939453e-01
2.623000000000000000e+03 4.599951934814453125e+01 -1.339496803283691406e+01 2.695205509662628174e-01 2.401171445846557617e+00 8.012076020240783691e-01 -1.180334091186523438e+00
2.624000000000000000e+03 1.533813476562500000e+01 6.271636486053466797e+00 1.198493465781211853e-01 -1.028117060661315918e+00 -2.724803090095520020e-01 6.889168620109558105e-01
2.625000000000000000e+03 4.852423095703125000e+01 -3.186587905883789062e+01 4.632884562015533447e-01 2.581734180450439453e+00 9.135068058967590332e-01 7.734203338623046875e-01
2.626000000000000000e+03 5.140160369873046875e+01 -2.989089584350585938e+01 1.110432267189025879e+00 4.478149414062500000e+00 1.676574468612670898e+00 2.151246666908264160e-01
2.627000000000000000e+03 4.069964981079101562e+01 -1.316375923156738281e+01 -6.348471641540527344e-01 6.623730063438415527e-01 8.257751353085041046e-03 -1.041350886225700378e-01
2.628000000000000000e+03 4.699087142944335938e+01 -1.291866397857666016e+01 5.899478793144226074e-01 3.103133916854858398e+00 1.107924580574035645e+00 -1.581583619117736816e+00
2.629000000000000000e+03 4.738463973999023438e+01 -1.425140285491943359e+01 2.458265870809555054e-01 2.771380186080932617e+00 9.051620364189147949e-01 -1.528842210769653320e+00
2.630000000000000000e+03 4.179696655273437500e+01 -6.559718132019042969e+00 5.884045958518981934e-01 2.478350877761840820e+00 9.200266599655151367e-01 -1.208505153656005859e+00
2.631000000000000000e+03 5.234099197387695312e+01 -2.472553253173828125e+01 -9.210546612739562988e-01 6.665235519409179688e+00 1.723254203796386719e+00 4.339393973350524902e-01
2.632000000000000000e+03 4.819827651977539062e+01 -2.997684860229492188e+01 4.858388006687164307e-01 2.366255044937133789e+00 8.556281924247741699e-01 4.716136157512664795e-01
2.633000000000000000e+03 4.103390884399414062e+01 -3.214116573333740234e+00 5.793976187705993652e-01 3.034503698348999023e+00 1.084170341491699219e+00 -1.289352774620056152e+00
2.634000000000000000e+03 4.125095748901367188e+01 -5.664076805114746094e+00 5.674796104431152344e-01 2.517844438552856445e+00 9.255972504615783691e-01 -1.162916779518127441e+00
2.635000000000000000e+03 2.915574455261230469e+01 -7.533120155334472656e+00 -9.008291363716125488e-01 -6.895218044519424438e-02 -2.909343838691711426e-01 9.839200973510742188e-01
2.636000000000000000e+03 1.402385616302490234e+01 6.254404067993164062e+00 5.051430687308311462e-02 -1.004211544990539551e+00 -2.861091494560241699e-01 7.401137351989746094e-01
2.637000000000000000e+03 3.398020172119140625e+01 -1.308735084533691406e+01 -1.225676894187927246e+00 -7.554893195629119873e-02 -3.903677463531494141e-01 1.089561700820922852e+00
2.638000000000000000e+03 1.222066593170166016e+01 -9.942162513732910156e+00 5.348509876057505608e-04 3.412432270124554634e-04 2.628282527439296246e-04 6.403578299796208739e-05
2.639000000000000000e+03 1.398285675048828125e+01 -9.949587821960449219e+00 2.061215782305225730e-04 1.243525766767561436e-04 9.914224938256666064e-05 -3.006336337421089411e-04
2.640000000000000000e+03 4.014428329467773438e+01 -3.712516307830810547e+00 5.320759415626525879e-01 2.679239511489868164e+00 9.633946418762207031e-01 -1.056875348091125488e+00
2.641000000000000000e+03 4.624164199829101562e+01 -1.263364505767822266e+01 6.152384281158447266e-01 2.734433889389038086e+00 1.004901766777038574e+00 -1.389866948127746582e+00
2.642000000000000000e+03 7.193983459472656250e+01 -1.466221523284912109e+01 -1.882161498069763184e-01 5.693838119506835938e+00 1.651686549186706543e+00 -4.960366189479827881e-01
2.643000000000000000e+03 4.542088317871093750e+01 -3.338882446289062500e+01 1.762960404157638550e-01 1.129026651382446289e+00 3.915967941284179688e-01 6.477991342544555664e-01
2.644000000000000000e+03 3.877549362182617188e+01 -4.355488717555999756e-01 5.906087756156921387e-01 3.024277925491333008e+00 1.084465980529785156e+00 -9.144553542137145996e-01
2.645000000000000000e+03 3.803623962402343750e+01 -1.203812885284423828e+01 -5.710875391960144043e-01 3.443962931632995605e-01 -6.800736486911773682e-02 3.043082952499389648e-01
2.646000000000000000e+03 3.784120178222656250e+01 -1.306478977203369141e+01 -8.867771029472351074e-01 1.000554561614990234e-01 -2.360164821147918701e-01 4.761473834514617920e-01
2.647000000000000000e+03 3.809617614746093750e+01 -2.496842622756958008e+00 4.327183663845062256e-01 2.388074636459350586e+00 8.462378978729248047e-01 -6.985427737236022949e-01
2.648000000000000000e+03 2.062713241577148438e+01 1.246341466903686523e+00 -3.742275238037109375e-01 -1.144534587860107422e+00 -4.556286633014678955e-01 6.982258558273315430e-01
2.649000000000000000e+03 3.884577560424804688e+01 -1.106854724884033203e+01 -2.656797766685485840e-01 6.974861621856689453e-01 1.295419186353683472e-01 2.476905100047588348e-02
2.650000000000000000e+03 3.583103179931640625e+01 -1.152552509307861328e+01 -7.086198925971984863e-01 2.063925564289093018e-01 -1.506682038307189941e-01 6.879203319549560547e-01
2.651000000000000000e+03 6.936004638671875000e+01 -1.756191062927246094e+01 -7.406511809676885605e-03 3.541032791137695312e+00 1.060087919235229492e+00 -9.472762942314147949e-01
2.652000000000000000e+03 3.872823715209960938e+01 -3.304475784301757812e+00 4.604313075542449951e-01 2.380370855331420898e+00 8.522406220436096191e-01 -7.704394459724426270e-01
2.653000000000000000e+03 7.601326942443847656e+00 8.576175689697265625e+00 1.946724206209182739e-02 -6.913388371467590332e-01 -2.015614807605743408e-01 5.950797796249389648e-01
2.654000000000000000e+03 1.127038478851318359e+01 6.373525619506835938e+00 -5.624591559171676636e-02 -8.486095666885375977e-01 -2.714566588401794434e-01 7.673829793930053711e-01
2.655000000000000000e+03 8.834104537963867188e+00 1.005086135864257812e+01 1.214711964130401611e-01 -7.824070453643798828e-01 -1.982807666063308716e-01 6.019674539566040039e-01
2.656000000000000000e+03 3.660720062255859375e+01 8.422935485839843750e+00 1.410275220870971680e+00 3.399245738983154297e+00 1.442856192588806152e+00 -7.244451642036437988e-01
2.657000000000000000e+03 3.453388595581054688e+01 4.000829219818115234e+00 9.394615292549133301e-01 2.279293775558471680e+00 9.656265974044799805e-01 -3.817755281925201416e-01
2.658000000000000000e+03 4.083909606933593750e+01 -1.415055274963378906e+01 -1.003923058509826660e+00 5.742174983024597168e-01 -1.289116889238357544e-01 -2.217837236821651459e-02
2.659000000000000000e+03 3.346453475952148438e+01 -1.156407737731933594e+01 -9.462126493453979492e-01 5.771017447113990784e-02 -2.665507495403289795e-01 1.021788001060485840e+00
2.660000000000000000e+03 7.809935092926025391e+00 -7.774288654327392578e+00 -9.988253004848957062e-04 1.263268059119582176e-04 -2.617495483718812466e-04 6.251079321373254061e-05
2.661000000000000000e+03 7.507614612579345703e+00 -1.011897182464599609e+01 -8.531692437827587128e-04 -3.824714804068207741e-05 -2.674249117262661457e-04 -2.620104933157563210e-04
2.662000000000000000e+03 4.517904663085937500e+01 -1.329792976379394531e+01 1.805807203054428101e-01 2.061933279037475586e+00 6.727542281150817871e-01 -9.590200185775756836e-01
2.663000000000000000e+03 4.160774230957031250e+01 -1.003207683563232422e+01 2.805714607238769531e-01 1.561465620994567871e+00 5.526111125946044922e-01 -7.345018982887268066e-01
2.664000000000000000e+03 4.277915954589843750e+01 -9.206241607666015625e+00 5.632126331329345703e-01 2.153800964355468750e+00 8.151040673255920410e-01 -1.148286938667297363e+00
2.665000000000000000e+03 4.310139083862304688e+01 -7.579855442047119141e+00 6.788944005966186523e-01 2.634649515151977539e+00 9.940631985664367676e-01 -1.410501241683959961e+00
2.666000000000000000e+03 1.018827533721923828e+01 2.457937431335449219e+01 1.591177731752395630e-01 -6.902939677238464355e-01 -1.593528538942337036e-01 4.152279719710350037e-02
2.667000000000000000e+03 1.055240440368652344e+01 2.685167503356933594e+01 1.375578641891479492e-01 -6.176514625549316406e-01 -1.440280675888061523e-01 -1.770241186022758484e-02
2.668000000000000000e+03 1.059162616729736328e+01 7.236470699310302734e+00 2.231295453384518623e-03 -8.120204210281372070e-01 -2.429367452859878540e-01 7.294316887855529785e-01
2.669000000000000000e+03 3.807902526855468750e+01 -1.157855510711669922e+00 5.158606767654418945e-01 2.657258272171020508e+00 9.519356489181518555e-01 -7.675895690917968750e-01
2.670000000000000000e+03 3.737022399902343750e+01 5.787676811218261719e+00 1.166624307632446289e+00 3.517717599868774414e+00 1.405302524566650391e+00 -7.487074136734008789e-01
2.671000000000000000e+03 7.029467105865478516e+00 1.041707992553710938e+01 7.812304794788360596e-02 -7.438956499099731445e-01 -1.997317671775817871e-01 5.255586504936218262e-01
2.672000000000000000e+03 8.431757926940917969e+00 1.767747497558593750e+01 2.081242352724075317e-01 -8.516041040420532227e-01 -1.930439770221710205e-01 2.872232496738433838e-01
2.673000000000000000e+03 9.573920249938964844e+00 -8.407938003540039062e+00 -7.962963427416980267e-04 -2.683003913261927664e-05 -2.469379105605185032e-04 -3.529651148710399866e-04
2.674000000000000000e+03 8.371232032775878906e+00 1.642509841918945312e+01 2.130275368690490723e-01 -8.512532711029052734e-01 -1.914677172899246216e-01 3.331333994865417480e-01
2.675000000000000000e+03 8.452563285827636719e+00 2.216061782836914062e+01 1.639848798513412476e-01 -8.421177864074707031e-01 -2.034398764371871948e-01 1.265401989221572876e-01
2.676000000000000000e+03 6.196237087249755859e+00 2.071505165100097656e+01 1.101489439606666565e-01 -9.981301426887512207e-01 -2.663943767547607422e-01 1.624502092599868774e-01
2.677000000000000000e+03 8.202991485595703125e+00 1.904675674438476562e+01 1.923270523548126221e-01 -8.649758100509643555e-01 -2.017946243286132812e-01 2.313985228538513184e-01
2.678000000000000000e+03 7.675797939300537109e+00 9.981306076049804688e+00 8.518433570861816406e-02 -7.522116899490356445e-01 -2.001082003116607666e-01 5.680299997329711914e-01
2.679000000000000000e+03 1.130502796173095703e+01 8.011749267578125000e+00 1.014576852321624756e-01 -8.578125834465026855e-01 -2.269064784049987793e-01 7.021195888519287109e-01
2.680000000000000000e+03 7.461991310119628906e+00 2.171773719787597656e+01 1.387146562337875366e-01 -9.102033972740173340e-01 -2.314466238021850586e-01 1.404665112495422363e-01
2.681000000000000000e+03 3.652556610107421875e+01 2.470861625671386719e+01 1.206884086132049561e-01 2.767345428466796875e+00 8.664101362228393555e-01 -3.397523760795593262e-01
2.682000000000000000e+03 3.770874023437500000e+01 2.666786193847656250e+01 -5.472503975033760071e-02 2.737782001495361328e+00 8.049170374870300293e-01 -2.166191637516021729e-01
2.683000000000000000e+03 9.163732528686523438e+00 1.598931217193603516e+01 2.445286512374877930e-01 -8.267287611961364746e-01 -1.746600270271301270e-01 3.543712198734283447e-01
2.684000000000000000e+03 9.690436363220214844e+00 2.950485992431640625e+01 7.231425493955612183e-02 -6.768529415130615234e-01 -1.813616156578063965e-01 -4.224321246147155762e-02
2.685000000000000000e+03 3.432295608520507812e+01 1.210525608062744141e+01 1.312205553054809570e+00 2.701678991317749023e+00 1.204165339469909668e+00 -7.346219420433044434e-01
2.686000000000000000e+03 8.290115356445312500e+00 1.072910022735595703e+01 1.408265531063079834e-01 -7.878806591033935547e-01 -1.941162347793579102e-01 5.610792636871337891e-01
2.687000000000000000e+03 3.428664779663085938e+01 1.490916252136230469e+01 1.093434572219848633e+00 2.741747140884399414e+00 1.150554537773132324e+00 -7.311191558837890625e-01
2.688000000000000000e+03 3.576049804687500000e+01 1.408657360076904297e+01 1.146827697753906250e+00 3.306469678878784180e+00 1.335989236831665039e+00 -7.642897963523864746e-01
2.689000000000000000e+03 3.515436172485351562e+01 2.035758018493652344e+01 5.541736483573913574e-01 2.816881179809570312e+00 1.011316418647766113e+00 -5.676001310348510742e-01
2.690000000000000000e+03 3.873785018920898438e+01 2.350966835021972656e+01 2.020706236362457275e-01 3.229616403579711914e+00 1.029506087303161621e+00 -1.006703525781631470e-01
2.691000000000000000e+03 3.973981857299804688e+01 -1.217057418823242188e+01 -4.238069653511047363e-01 6.135517358779907227e-01 5.692342668771743774e-02 -3.628280758857727051e-02
2.692000000000000000e+03 3.613888931274414062e+01 2.653590774536132812e+01 -2.964863553643226624e-02 2.583046436309814453e+00 7.660193443298339844e-01 -3.287797868251800537e-01
2.693000000000000000e+03 8.615474700927734375e+00 2.639667510986328125e+01 1.104068160057067871e-01 -7.971701622009277344e-01 -2.060289978981018066e-01 1.900387741625308990e-02
2.694000000000000000e+03 4.309680557250976562e+01 -3.306904220581054688e+01 4.285109788179397583e-02 1.075064241886138916e-01 4.510725662112236023e-02 3.140784204006195068e-01
2.695000000000000000e+03 5.020654678344726562e+01 -3.647171783447265625e+01 -2.982198596000671387e-01 3.495797395706176758e+00 9.592732191085815430e-01 8.554065823554992676e-01
2.696000000000000000e+03 3.400523757934570312e+01 9.817973136901855469e+00 1.340838074684143066e+00 2.447579860687255859e+00 1.136525392532348633e+00 -6.346238851547241211e-01
2.697000000000000000e+03 3.376126861572265625e+01 1.755099487304687500e+01 8.423169255256652832e-01 2.577575445175170898e+00 1.025967717170715332e+00 -6.872724890708923340e-01
2.698000000000000000e+03 1.843346977233886719e+01 -4.125221252441406250e+01 -3.161177271977066994e-03 -8.396222256124019623e-03 -3.467219881713390350e-03 -6.547723896801471710e-03
2.699000000000000000e+03 9.008074760437011719e+00 2.398656654357910156e+01 1.459717899560928345e-01 -7.899982929229736328e-01 -1.932079493999481201e-01 6.660920381546020508e-02
2.700000000000000000e+03 1.148138999938964844e+01 2.530837440490722656e+01 1.845574080944061279e-01 -5.640035271644592285e-01 -1.138338297605514526e-01 5.181069485843181610e-03
2.701000000000000000e+03 2.308169364929199219e+01 -3.940642929077148438e+01 9.547628462314605713e-03 -3.071531839668750763e-02 -6.350306794047355652e-03 -9.112128056585788727e-03
2.702000000000000000e+03 3.201115036010742188e+01 -4.104660034179687500e+01 1.461124122142791748e-01 -1.208830326795578003e-01 7.568812929093837738e-03 -3.357401117682456970e-02
2.703000000000000000e+03 3.469694519042968750e+01 -3.772206115722656250e+01 1.092342957854270935e-01 -1.468692570924758911e-01 -1.129048969596624374e-02 -1.385092139244079590e-01
2.704000000000000000e+03 7.499075317382812500e+01 -4.027816009521484375e+01 -7.043099403381347656e-02 7.134571552276611328e+00 2.119242191314697266e+00 -1.894670426845550537e-01
2.705000000000000000e+03 1.237141227722167969e+01 3.745747756958007812e+01 -5.677938088774681091e-02 -2.835871875286102295e-01 -1.021099761128425598e-01 -6.127164885401725769e-02
2.706000000000000000e+03 2.733988761901855469e+01 -4.130625152587890625e+01 4.491357132792472839e-02 -7.610438019037246704e-02 -9.357241913676261902e-03 -2.126307971775531769e-02
2.707000000000000000e+03 5.074113845825195312e+01 -3.461022567749023438e+01 7.970518618822097778e-02 3.770091056823730469e+00 1.154938817024230957e+00 1.017971396446228027e+00
2.708000000000000000e+03 3.831028747558593750e+01 -4.131216812133789062e+01 3.161766231060028076e-01 -1.894176192581653595e-02 8.917045593261718750e-02 -5.833838135004043579e-02
2.709000000000000000e+03 8.082418441772460938e+00 -4.126482772827148438e+01 -1.288903178647160530e-03 6.303540430963039398e-04 -1.975647319341078401e-04 -1.361697213724255562e-03
2.710000000000000000e+03 4.251226043701171875e+01 4.110280227661132812e+01 -8.025361299514770508e-01 1.970621585845947266e+00 3.504256308078765869e-01 1.806506142020225525e-02
2.711000000000000000e+03 8.095888137817382812e+00 4.101583862304687500e+01 -3.205001354217529297e-02 -7.875136137008666992e-01 -2.458690851926803589e-01 -3.898614086210727692e-03
2.712000000000000000e+03 5.736767196655273438e+01 -4.135189056396484375e+01 -6.412220001220703125e-01 2.728246688842773438e+00 6.261074542999267578e-01 -2.642695903778076172e-01
2.713000000000000000e+03 5.033103942871093750e+01 -2.490014457702636719e+01 -1.037419512867927551e-01 4.072457790374755859e+00 1.190614700317382812e+00 8.164814114570617676e-01
2.714000000000000000e+03 4.919725799560546875e+01 -2.662812614440917969e+01 3.027862906455993652e-01 3.023487567901611328e+00 9.978821277618408203e-01 3.583036661148071289e-01
2.715000000000000000e+03 5.173720550537109375e+01 -2.370233726501464844e+01 -8.369593620300292969e-01 6.520178318023681641e+00 1.704965710639953613e+00 1.166675567626953125e+00
2.716000000000000000e+03 5.113001632690429688e+01 -2.346390151977539062e+01 -4.558617770671844482e-01 5.390257358551025391e+00 1.480318665504455566e+00 1.493771076202392578e+00
2.717000000000000000e+03 5.354413604736328125e+01 -2.288274574279785156e+01 -8.384427428245544434e-01 8.491096496582031250e+00 2.295796155929565430e+00 -6.109321713447570801e-01
2.718000000000000000e+03 3.107279205322265625e+01 -8.948287963867187500e+00 -8.229224681854248047e-01 1.259476244449615479e-01 -2.090924531221389771e-01 9.944030046463012695e-01
2.719000000000000000e+03 4.728667449951171875e+01 -1.514250183105468750e+01 -7.503724843263626099e-02 2.384550333023071289e+00 6.928539276123046875e-01 -1.436006903648376465e+00
2.720000000000000000e+03 4.858897781372070312e+01 -2.579529380798339844e+01 2.916445434093475342e-01 2.345019817352294922e+00 7.909993529319763184e-01 3.695326447486877441e-01
2.721000000000000000e+03 4.864659118652343750e+01 -2.895461463928222656e+01 5.283426046371459961e-01 2.632408142089843750e+00 9.482252597808837891e-01 3.813865482807159424e-01
2.722000000000000000e+03 3.971780395507812500e+01 -1.107515430450439453e+01 -1.642937660217285156e-01 8.860165476799011230e-01 2.165168374776840210e-01 -1.552379727363586426e-01
2.723000000000000000e+03 2.108904266357421875e+01 1.923040986061096191e+00 -1.979118883609771729e-01 -1.031013011932373047e+00 -3.686774671077728271e-01 6.031485795974731445e-01
2.724000000000000000e+03 4.700675582885742188e+01 -2.786618423461914062e+01 3.321320712566375732e-01 1.436381340026855469e+00 5.305540561676025391e-01 1.494937986135482788e-01
2.725000000000000000e+03 1.068121528625488281e+01 -8.151696205139160156e+00 -4.904742236249148846e-04 -3.100687463302165270e-04 -2.401628880761563778e-04 -5.655133281834423542e-05
2.726000000000000000e+03 5.238494491577148438e+01 -2.594545364379882812e+01 -5.045416951179504395e-01 6.146059036254882812e+00 1.692455172538757324e+00 8.515714108943939209e-02
2.727000000000000000e+03 5.303725051879882812e+01 -2.455265808105468750e+01 -1.025939583778381348e+00 7.215744018554687500e+00 1.856941342353820801e+00 7.561802119016647339e-02
2.728000000000000000e+03 2.781612586975097656e+01 -5.494908809661865234e+00 -8.358097076416015625e-01 -2.180732190608978271e-01 -3.161648809909820557e-01 8.384883403778076172e-01
2.729000000000000000e+03 3.019202041625976562e+01 -7.653975486755371094e+00 -8.027305006980895996e-01 9.041173756122589111e-02 -2.136956304311752319e-01 9.271404743194580078e-01
2.730000000000000000e+03 4.971585083007812500e+01 -2.572877120971679688e+01 1.223752424120903015e-01 3.355980157852172852e+00 1.043506622314453125e+00 5.850011706352233887e-01
2.731000000000000000e+03 5.383848953247070312e+01 -2.434919357299804688e+01 -1.046654105186462402e+00 7.404614925384521484e+00 1.907388329505920410e+00 -2.837260961532592773e-01
2.732000000000000000e+03 5.107261276245117188e+01 -2.512763404846191406e+01 -3.615738153457641602e-01 5.101262092590332031e+00 1.421906471252441406e+00 6.514186263084411621e-01
2.733000000000000000e+03 4.709567642211914062e+01 -1.379896926879882812e+01 3.303298354148864746e-01 2.783955574035644531e+00 9.342855811119079590e-01 -1.488582611083984375e+00
2.734000000000000000e+03 9.027138710021972656e+00 8.699489593505859375e+00 6.384835392236709595e-02 -7.591865658760070801e-01 -2.086014598608016968e-01 6.459203362464904785e-01
2.735000000000000000e+03 2.826807022094726562e+01 -6.182165145874023438e+00 -8.593211174011230469e-01 -1.593211740255355835e-01 -3.055926859378814697e-01 8.878641128540039062e-01
2.736000000000000000e+03 4.507893753051757812e+01 -1.412483978271484375e+01 -1.639039665460586548e-01 1.791055917739868164e+00 4.881455898284912109e-01 -7.547508478164672852e-01
2.737000000000000000e+03 1.861004066467285156e+01 4.589150428771972656e+00 8.673039823770523071e-02 -1.054921030998229980e+00 -2.904571890830993652e-01 5.987704396247863770e-01
2.738000000000000000e+03 1.713358306884765625e+01 5.203655242919921875e+00 8.960061520338058472e-02 -1.074702382087707520e+00 -2.955305278301239014e-01 6.545403003692626953e-01
2.739000000000000000e+03 3.213108444213867188e+01 -1.157980155944824219e+01 -1.033529400825500488e+00 1.167111680842936039e-03 -3.097087144851684570e-01 1.126990795135498047e+00
2.740000000000000000e+03 1.892348289489746094e+01 3.421243906021118164e+00 -8.671490848064422607e-02 -1.119247198104858398e+00 -3.617886304855346680e-01 6.570004820823669434e-01
2.741000000000000000e+03 2.566963386535644531e+01 -9.277554228901863098e-03 -1.849166601896286011e-01 -3.603230416774749756e-01 -1.635719090700149536e-01 4.275743365287780762e-01
2.742000000000000000e+03 2.691381263732910156e+01 -2.804316520690917969e+00 -5.460314750671386719e-01 -2.544877529144287109e-01 -2.401557713747024536e-01 6.064305901527404785e-01
2.743000000000000000e+03 2.684953880310058594e+01 -4.082400798797607422e+00 -7.535941004753112793e-01 -3.491995930671691895e-01 -3.308381140232086182e-01 7.432364225387573242e-01
2.744000000000000000e+03 1.658608055114746094e+01 6.282283306121826172e+00 1.855755895376205444e-01 -1.028577446937561035e+00 -2.529005408287048340e-01 6.300756931304931641e-01
2.745000000000000000e+03 2.795849037170410156e+01 -4.255938053131103516e+00 -6.635447740554809570e-01 -1.091124191880226135e-01 -2.317971587181091309e-01 6.942067146301269531e-01
2.746000000000000000e+03 2.861682319641113281e+01 -3.699446916580200195e+00 -5.071462392807006836e-01 6.751219183206558228e-02 -1.318902224302291870e-01 5.980357527732849121e-01
2.747000000000000000e+03 1.934258460998535156e+01 4.162338733673095703e+00 6.870595365762710571e-02 -1.031942367553710938e+00 -2.889709174633026123e-01 5.752842426300048828e-01
2.748000000000000000e+03 4.350646591186523438e+01 -1.218557739257812500e+01 1.456799656152725220e-01 1.713370561599731445e+00 5.577151179313659668e-01 -8.105762600898742676e-01
2.749000000000000000e+03 2.507841491699218750e+01 -6.280148029327392578e-01 -3.424760699272155762e-01 -5.241337418556213379e-01 -2.599829435348510742e-01 5.185505747795104980e-01
2.750000000000000000e+03 2.948025131225585938e+01 -5.128481388092041016e+00 -5.971781015396118164e-01 1.555064767599105835e-01 -1.325014829635620117e-01 6.945942640304565430e-01
2.751000000000000000e+03 2.633425331115722656e+01 -2.072625398635864258e+00 -4.804833233356475830e-01 -3.379119634628295898e-01 -2.455185800790786743e-01 5.722174048423767090e-01
2.752000000000000000e+03 2.180233192443847656e+01 1.352565884590148926e+00 -2.518720328807830811e-01 -9.833173155784606934e-01 -3.705568015575408936e-01 5.906832814216613770e-01
2.753000000000000000e+03 4.105064010620117188e+01 -7.170979976654052734e+00 4.872886240482330322e-01 2.103939533233642578e+00 7.773684859275817871e-01 -9.510083198547363281e-01
2.754000000000000000e+03 4.071274948120117188e+01 -4.692220687866210938e+00 5.341760516166687012e-01 2.601565122604370117e+00 9.407223463058471680e-01 -1.115700483322143555e+00
2.755000000000000000e+03 5.255409240722656250e+01 -2.720668220520019531e+01 1.879848539829254150e-02 5.904112339019775391e+00 1.776873230934143066e+00 -1.286588758230209351e-01
2.756000000000000000e+03 5.101450347900390625e+01 -2.597166252136230469e+01 -1.441754847764968872e-01 4.788321971893310547e+00 1.393243908882141113e+00 3.863935768604278564e-01
2.757000000000000000e+03 4.593700027465820312e+01 -1.414321231842041016e+01 3.367553278803825378e-02 2.091440916061401367e+00 6.375349760055541992e-01 -1.001705527305603027e+00
2.758000000000000000e+03 4.445563125610351562e+01 -1.229877853393554688e+01 3.337264060974121094e-01 2.046131849288940430e+00 7.139574885368347168e-01 -9.834249019622802734e-01
2.759000000000000000e+03 7.072052001953125000e+01 -1.622302246093750000e+01 -1.685519665479660034e-01 4.936524868011474609e+00 1.430391907691955566e+00 -7.314848303794860840e-01
2.760000000000000000e+03 2.372873306274414062e+01 7.538781762123107910e-01 -2.056214660406112671e-01 -7.030747532844543457e-01 -2.726088464260101318e-01 4.933920502662658691e-01
2.761000000000000000e+03 8.276565551757812500e+00 9.331070899963378906e+00 8.152006566524505615e-02 -7.529112696647644043e-01 -2.014173567295074463e-01 6.052290797233581543e-01
2.762000000000000000e+03 1.725500869750976562e+01 6.768226146697998047e+00 2.973878979682922363e-01 -9.714592099189758301e-01 -2.022213935852050781e-01 5.514129996299743652e-01
2.763000000000000000e+03 1.732166290283203125e+01 5.984076023101806641e+00 2.009884119033813477e-01 -1.018554329872131348e+00 -2.452697604894638062e-01 5.975494980812072754e-01
2.764000000000000000e+03 3.473821258544921875e+01 -1.134823226928710938e+01 -7.716727256774902344e-01 1.782298088073730469e-01 -1.780328750610351562e-01 8.282421231269836426e-01
2.765000000000000000e+03 4.167011642456054688e+01 -1.390529537200927734e+01 -8.064102530479431152e-01 8.284896016120910645e-01 6.623818073421716690e-03 -1.499713063240051270e-01
2.766000000000000000e+03 4.163563919067382812e+01 -8.928517341613769531e+00 4.263628125190734863e-01 1.865928888320922852e+00 6.876875162124633789e-01 -8.865932226181030273e-01
2.767000000000000000e+03 3.487333679199218750e+01 -9.905798912048339844e+00 -5.301737189292907715e-01 3.959133028984069824e-01 -4.027812182903289795e-02 6.544836759567260742e-01
2.768000000000000000e+03 3.540237808227539062e+01 -1.075333881378173828e+01 -6.191403865814208984e-01 3.140166699886322021e-01 -9.153711050748825073e-02 6.708480715751647949e-01
2.769000000000000000e+03 2.930382728576660156e+01 -6.332854270935058594e+00 -7.593859434127807617e-01 3.839591890573501587e-02 -2.162970155477523804e-01 8.405426144599914551e-01
2.770000000000000000e+03 3.348085784912109375e+01 -1.002008724212646484e+01 -7.103504538536071777e-01 2.317376285791397095e-01 -1.435838341712951660e-01 8.697726726531982422e-01
2.771000000000000000e+03 5.089604949951171875e+01 -2.917121887207031250e+01 8.156780004501342773e-01 4.209970474243164062e+00 1.507694602012634277e+00 2.202060967683792114e-01
2.772000000000000000e+03 4.920586776733398438e+01 -3.067616462707519531e+01 6.757036447525024414e-01 2.914193868637084961e+00 1.076969265937805176e+00 6.657030582427978516e-01
2.773000000000000000e+03 4.666019821166992188e+01 -1.351561832427978516e+01 3.981322050094604492e-01 2.646197795867919922e+00 9.132989645004272461e-01 -1.375217080116271973e+00
2.774000000000000000e+03 4.946372985839843750e+01 -2.804514884948730469e+01 4.143878817558288574e-01 3.230797290802001953e+00 1.093555569648742676e+00 2.836543917655944824e-01
2.775000000000000000e+03 2.083056831359863281e+01 3.170968294143676758e+00 7.665356155484914780e-03 -9.638785123825073242e-01 -2.868639528751373291e-01 5.304021835327148438e-01
2.776000000000000000e+03 3.952347946166992188e+01 -2.761409282684326172e+00 5.043348073959350586e-01 2.724286317825317383e+00 9.685863256454467773e-01 -9.701766371726989746e-01
2.777000000000000000e+03 4.744236373901367188e+01 -3.106182098388671875e+01 3.873695433139801025e-01 1.944363117218017578e+00 6.995198130607604980e-01 6.609821915626525879e-01
2.778000000000000000e+03 4.654973983764648438e+01 -3.219560623168945312e+01 2.401664406061172485e-01 1.580595374107360840e+00 5.462285280227661133e-01 6.998538970947265625e-01
2.779000000000000000e+03 1.025966262817382812e+01 -8.860086441040039062e+00 5.149509524926543236e-04 2.054322685580700636e-04 2.161149604944512248e-04 1.533676113467663527e-04
2.780000000000000000e+03 4.238120651245117188e+01 -7.259801864624023438e+00 6.256285905838012695e-01 2.496894359588623047e+00 9.367569088935852051e-01 -1.263201236724853516e+00
2.781000000000000000e+03 5.049715042114257812e+01 -2.841490554809570312e+01 5.502969622611999512e-01 4.114627361297607422e+00 1.399477362632751465e+00 2.033129185438156128e-01
2.782000000000000000e+03 1.340066146850585938e+01 6.946799278259277344e+00 9.452037513256072998e-02 -9.623920321464538574e-01 -2.603614926338195801e-01 7.260230779647827148e-01
2.783000000000000000e+03 1.474892044067382812e+01 6.917223930358886719e+00 1.610674858093261719e-01 -9.982213377952575684e-01 -2.511461675167083740e-01 6.837775111198425293e-01
2.784000000000000000e+03 3.676699447631835938e+01 -3.307124614715576172e+00 3.033710122108459473e-01 1.893241763114929199e+00 6.589838266372680664e-01 -3.757844865322113037e-01
2.785000000000000000e+03 3.805530548095703125e+01 1.549361348152160645e-01 5.889288187026977539e-01 2.884577274322509766e+00 1.042051792144775391e+00 -7.835895419120788574e-01
2.786000000000000000e+03 3.681368255615234375e+01 -2.510397195816040039e+00 3.549323678016662598e-01 2.033451795578002930e+00 7.165152430534362793e-01 -4.523927867412567139e-01
2.787000000000000000e+03 3.413105392456054688e+01 -1.069252204895019531e+01 -7.473508715629577637e-01 2.118801176548004150e-01 -1.606412231922149658e-01 8.530567288398742676e-01
2.788000000000000000e+03 3.526260757446289062e+01 -1.191225624084472656e+01 -8.556068539619445801e-01 1.317054927349090576e-01 -2.171704173088073730e-01 7.986661195755004883e-01
2.789000000000000000e+03 4.771613693237304688e+01 -3.318051528930664062e+01 2.926214039325714111e-01 2.195491313934326172e+00 7.464337944984436035e-01 8.815068006515502930e-01
2.790000000000000000e+03 3.747069168090820312e+01 9.644976854324340820e-01 6.572221517562866211e-01 2.839548110961914062e+00 1.049031138420104980e+00 -6.949785351753234863e-01
2.791000000000000000e+03 3.794355010986328125e+01 4.420778274536132812e+00 1.030403137207031250e+00 3.565077781677246094e+00 1.378644347190856934e+00 -7.969229817390441895e-01
2.792000000000000000e+03 1.004563140869140625e+01 1.038335132598876953e+01 1.838328540325164795e-01 -8.211030960083007812e-01 -1.911810785531997681e-01 6.023079156875610352e-01
2.793000000000000000e+03 9.619224548339843750e+00 1.506147193908691406e+01 2.678716182708740234e-01 -8.176949620246887207e-01 -1.649470031261444092e-01 3.929480910301208496e-01
2.794000000000000000e+03 4.160087585449218750e+01 -1.304655551910400391e+01 -4.769305884838104248e-01 9.424473047256469727e-01 1.396550089120864868e-01 -2.744360566139221191e-01
2.795000000000000000e+03 4.248489379882812500e+01 -1.303111076354980469e+01 -3.141732513904571533e-01 1.213135838508605957e+00 2.696887850761413574e-01 -4.426790475845336914e-01
2.796000000000000000e+03 9.652379989624023438e+00 1.798691177368164062e+01 2.559925615787506104e-01 -7.981568574905395508e-01 -1.626492887735366821e-01 2.690692245960235596e-01
2.797000000000000000e+03 8.915841102600097656e+00 2.079780578613281250e+01 1.990375518798828125e-01 -8.190952539443969727e-01 -1.860173195600509644e-01 1.665992289781570435e-01
2.798000000000000000e+03 1.049883079528808594e+01 1.556910896301269531e+01 3.085991442203521729e-01 -7.893241643905639648e-01 -1.442175060510635376e-01 3.624085783958435059e-01
2.799000000000000000e+03 1.121092414855957031e+01 1.711148834228515625e+01 3.322525620460510254e-01 -7.393599748611450195e-01 -1.221322193741798401e-01 2.818967998027801514e-01
2.800000000000000000e+03 6.477581977844238281e+00 2.177230262756347656e+01 1.050767302513122559e-01 -9.921789765357971191e-01 -2.661306560039520264e-01 1.389618366956710815e-01
2.801000000000000000e+03 9.542137145996093750e+00 2.264543724060058594e+01 1.861207932233810425e-01 -7.656323313713073730e-01 -1.738534569740295410e-01 1.031125485897064209e-01
2.802000000000000000e+03 4.267972946166992188e+01 -1.016304874420166016e+01 4.155140817165374756e-01 1.910191893577575684e+00 6.977118253707885742e-01 -9.663908481597900391e-01
2.803000000000000000e+03 8.426144599914550781e+00 1.262438774108886719e+01 1.865504533052444458e-01 -8.216773867607116699e-01 -1.905380785465240479e-01 4.909905195236206055e-01
2.804000000000000000e+03 1.069695186614990234e+01 2.316816902160644531e+01 2.132871299982070923e-01 -6.589702367782592773e-01 -1.337049454450607300e-01 7.059508562088012695e-02
2.805000000000000000e+03 3.319054794311523438e+01 1.347344970703125000e+01 1.207899212837219238e+00 2.327827930450439453e+00 1.060718178749084473e+00 -7.098790407180786133e-01
2.806000000000000000e+03 4.190164566040039062e+01 -7.956200599670410156e+00 5.196645259857177734e-01 2.153836727142333984e+00 8.020503520965576172e-01 -1.071106672286987305e+00
2.807000000000000000e+03 8.582629203796386719e+00 -1.013886642456054688e+01 7.432429119944572449e-04 1.278245763387531042e-04 2.613202377688139677e-04 2.693156129680573940e-04
2.808000000000000000e+03 5.000890731811523438e+01 -2.978125572204589844e+01 7.853154540061950684e-01 3.535536050796508789e+00 1.296255469322204590e+00 3.983335793018341064e-01
2.809000000000000000e+03 5.166688919067382812e+01 -2.863786697387695312e+01 6.882869601249694824e-01 5.002507686614990234e+00 1.707238435745239258e+00 -2.228819765150547028e-02
2.810000000000000000e+03 1.302692317962646484e+01 2.355015182495117188e+01 2.761177122592926025e-01 -4.806715250015258789e-01 -6.136614084243774414e-02 1.061614975333213806e-02
2.811000000000000000e+03 1.302778053283691406e+01 2.544637870788574219e+01 2.099353969097137451e-01 -4.215310215950012207e-01 -6.347868591547012329e-02 -3.468319773674011230e-02
2.812000000000000000e+03 3.229013061523437500e+01 1.868364906311035156e+01 7.631231546401977539e-01 2.111554622650146484e+00 8.624032735824584961e-01 -6.647385358810424805e-01
2.813000000000000000e+03 3.594935607910156250e+01 6.917260169982910156e+00 1.270856857299804688e+00 3.045355558395385742e+00 1.294863700866699219e+00 -6.298146247863769531e-01
2.814000000000000000e+03 3.678255462646484375e+01 1.820856213569641113e+00 7.263753414154052734e-01 2.751850128173828125e+00 1.043467640876770020e+00 -6.061368584632873535e-01
2.815000000000000000e+03 3.494059371948242188e+01 8.823791503906250000e+00 1.359996080398559570e+00 2.748872041702270508e+00 1.232660412788391113e+00 -6.521658897399902344e-01
2.816000000000000000e+03 3.410691452026367188e+01 2.643899536132812500e+01 3.075219132006168365e-02 2.318595647811889648e+00 7.048043608665466309e-01 -4.559019505977630615e-01
2.817000000000000000e+03 3.414818191528320312e+01 2.156465721130371094e+01 4.815978407859802246e-01 2.541787862777709961e+00 9.070156812667846680e-01 -5.814546942710876465e-01
2.818000000000000000e+03 3.635365676879882812e+01 2.841931152343750000e+01 -1.785327643156051636e-01 2.489524602890014648e+00 6.932975649833679199e-01 -2.950830459594726562e-01
2.819000000000000000e+03 1.249197387695312500e+01 3.078989791870117188e+01 7.066302001476287842e-02 -3.671560585498809814e-01 -8.894791454076766968e-02 -8.667914569377899170e-02
2.820000000000000000e+03 5.253723144531250000e+01 -3.673570632934570312e+01 -6.662626266479492188e-01 4.365267276763916016e+00 1.109701395034790039e+00 5.852890014648437500e-01
2.821000000000000000e+03 1.105161666870117188e+01 3.452449035644531250e+01 -2.769976621493697166e-03 -4.734329581260681152e-01 -1.428608894348144531e-01 -7.687919586896896362e-02
2.822000000000000000e+03 2.998083305358886719e+01 -3.588651657104492188e+01 -3.661172837018966675e-02 -4.134977981448173523e-02 -2.338845282793045044e-02 -8.587930351495742798e-02
2.823000000000000000e+03 5.470965957641601562e+01 -3.642007827758789062e+01 -8.784471154212951660e-01 4.961763858795166016e+00 1.224994897842407227e+00 -1.261696219444274902e-01
2.824000000000000000e+03 1.221820640563964844e+01 -4.122583007812500000e+01 -3.622605698183178902e-03 -8.558733388781547546e-04 -1.343543757684528828e-03 2.728605875745415688e-03
2.825000000000000000e+03 5.260730743408203125e+01 -2.353367042541503906e+01 -1.130825042724609375e+00 7.702768802642822266e+00 1.971583247184753418e+00 4.922990500926971436e-01
2.826000000000000000e+03 5.305816650390625000e+01 -2.325829505920410156e+01 -1.106885790824890137e+00 8.151412010192871094e+00 2.113357782363891602e+00 1.199582964181900024e-01
2.827000000000000000e+03 4.661386108398437500e+01 -1.404813861846923828e+01 1.450677812099456787e-01 2.443328857421875000e+00 7.765189409255981445e-01 -1.284517526626586914e+00
2.828000000000000000e+03 5.241880416870117188e+01 -2.529566955566406250e+01 -7.376375198364257812e-01 6.492380619049072266e+00 1.726422905921936035e+00 1.898170858621597290e-01
2.829000000000000000e+03 5.014189147949218750e+01 -2.560406875610351562e+01 2.233669906854629517e-02 3.889890909194946289e+00 1.173668265342712402e+00 5.750011205673217773e-01
2.830000000000000000e+03 3.159206962585449219e+01 -8.392575263977050781e+00 -7.279663085937500000e-01 2.280020117759704590e-01 -1.499892771244049072e-01 8.940292596817016602e-01
2.831000000000000000e+03 3.161470794677734375e+01 -9.556944847106933594e+00 -8.404810428619384766e-01 1.267784237861633301e-01 -2.141107916831970215e-01 1.009920120239257812e+00
2.832000000000000000e+03 4.849994659423828125e+01 -2.652403450012207031e+01 3.470055162906646729e-01 2.368033885955810547e+00 8.145118355751037598e-01 2.921109497547149658e-01
2.833000000000000000e+03 4.853840255737304688e+01 -2.730537796020507812e+01 3.536755740642547607e-01 2.479649543762207031e+00 8.499975204467773438e-01 2.702558040618896484e-01
2.834000000000000000e+03 5.093659591674804688e+01 -2.718511772155761719e+01 1.290893703699111938e-01 4.670636653900146484e+00 1.439917922019958496e+00 2.040069401264190674e-01
2.835000000000000000e+03 4.890913009643554688e+01 -2.622328758239746094e+01 2.963205277919769287e-01 2.709909915924072266e+00 9.018691182136535645e-01 3.808246850967407227e-01
2.836000000000000000e+03 4.337225723266601562e+01 -1.312024116516113281e+01 -1.435409784317016602e-01 1.492374777793884277e+00 4.046501517295837402e-01 -5.700215101242065430e-01
2.837000000000000000e+03 5.187848281860351562e+01 -2.511367988586425781e+01 -6.094257831573486328e-01 5.920867919921875000e+00 1.593432664871215820e+00 4.750043749809265137e-01
2.838000000000000000e+03 3.085707473754882812e+01 -7.108332157135009766e+00 -6.737788915634155273e-01 2.426812201738357544e-01 -1.293292939662933350e-01 8.153000473976135254e-01
2.839000000000000000e+03 3.061247444152832031e+01 -8.309443473815917969e+00 -8.189755082130432129e-01 1.141994819045066833e-01 -2.114328145980834961e-01 9.671759009361267090e-01
2.840000000000000000e+03 5.113542938232421875e+01 -2.445920372009277344e+01 -4.598881900310516357e-01 5.215673446655273438e+00 1.426735520362854004e+00 9.490447044372558594e-01
2.841000000000000000e+03 2.842079353332519531e+01 -4.962529182434082031e+00 -6.980604529380798340e-01 -5.266639217734336853e-02 -2.252180576324462891e-01 7.417914271354675293e-01
2.842000000000000000e+03 2.934480094909667969e+01 -3.110981941223144531e+00 -3.474784195423126221e-01 2.654480040073394775e-01 -2.460912801325321198e-02 4.860215187072753906e-01
2.843000000000000000e+03 2.975330924987792969e+01 -6.999504089355468750e+00 -7.857413887977600098e-01 7.453168183565139771e-02 -2.133629173040390015e-01 8.854073286056518555e-01
2.844000000000000000e+03 3.036360740661621094e+01 -6.454480171203613281e+00 -6.533520817756652832e-01 2.130823135375976562e-01 -1.320809274911880493e-01 7.747415900230407715e-01
2.845000000000000000e+03 2.907539367675781250e+01 -4.421256542205810547e+00 -5.694627165794372559e-01 1.127191409468650818e-01 -1.370230615139007568e-01 6.421638727188110352e-01
2.846000000000000000e+03 4.158946228027343750e+01 -1.209324550628662109e+01 -1.638473272323608398e-01 1.102737069129943848e+00 2.816669046878814697e-01 -4.278529286384582520e-01
2.847000000000000000e+03 5.162853622436523438e+01 -2.609961128234863281e+01 -3.138822317123413086e-01 5.492823600769042969e+00 1.553682446479797363e+00 2.872905433177947998e-01
2.848000000000000000e+03 2.156977462768554688e+01 2.617779493331909180e+00 -3.731719031929969788e-02 -9.152423739433288574e-01 -2.857678532600402832e-01 5.116699934005737305e-01
2.849000000000000000e+03 1.964384841918945312e+01 2.959266901016235352e+00 -1.157011836767196655e-01 -1.099345445632934570e+00 -3.645139932632446289e-01 6.373020410537719727e-01
2.850000000000000000e+03 1.901053047180175781e+01 5.383058547973632812e+00 2.273157536983489990e-01 -9.682211279869079590e-01 -2.222716063261032104e-01 5.240578651428222656e-01
2.851000000000000000e+03 1.820187377929687500e+01 5.789562225341796875e+00 2.298698425292968750e-01 -1.002340197563171387e+00 -2.317411005496978760e-01 5.539527535438537598e-01
2.852000000000000000e+03 2.810267639160156250e+01 -2.965583086013793945e+00 -4.519400596618652344e-01 2.751033054664731026e-03 -1.347566992044448853e-01 5.498950481414794922e-01
2.853000000000000000e+03 4.427709579467773438e+01 -1.321150112152099609e+01 -9.129153564572334290e-03 1.737820506095886230e+00 5.186074376106262207e-01 -7.562640905380249023e-01
2.854000000000000000e+03 2.008507347106933594e+01 3.688275575637817383e+00 4.075214639306068420e-02 -1.006007790565490723e+00 -2.895767092704772949e-01 5.502725243568420410e-01
2.855000000000000000e+03 2.054884147644042969e+01 4.440769195556640625e+00 1.883348077535629272e-01 -9.004735350608825684e-01 -2.136416137218475342e-01 4.684614539146423340e-01
2.856000000000000000e+03 2.230294227600097656e+01 2.030403375625610352e+00 -8.527284860610961914e-02 -8.525078892707824707e-01 -2.813342213630676270e-01 4.989258646965026855e-01
2.857000000000000000e+03 3.333721923828125000e+01 -8.599245071411132812e+00 -5.429843068122863770e-01 4.157733619213104248e-01 -3.816328197717666626e-02 7.222232222557067871e-01
2.858000000000000000e+03 2.499411201477050781e+01 7.105883359909057617e-01 -1.134986802935600281e-01 -4.550425708293914795e-01 -1.705623716115951538e-01 4.125006496906280518e-01
2.859000000000000000e+03 2.572212982177734375e+01 -1.345018267631530762e+00 -4.137050211429595947e-01 -4.325820207595825195e-01 -2.538861036300659180e-01 5.406514406204223633e-01
2.860000000000000000e+03 8.741637229919433594e+00 -8.141358375549316406e+00 9.427979821339249611e-04 -7.214787910925224423e-05 2.611950330901890993e-04 2.118036500178277493e-04
2.861000000000000000e+03 1.867653465270996094e+01 6.660392761230468750e+00 3.562867939472198486e-01 -9.116915464401245117e-01 -1.666214317083358765e-01 4.796514809131622314e-01
2.862000000000000000e+03 5.145819473266601562e+01 -2.554675865173339844e+01 -4.314185380935668945e-01 5.463856220245361328e+00 1.509731292724609375e+00 4.976138770580291748e-01
2.863000000000000000e+03 2.632610130310058594e+01 -7.418490052223205566e-01 -2.543028891086578369e-01 -2.566064298152923584e-01 -1.532727926969528198e-01 4.510141015052795410e-01
2.864000000000000000e+03 2.754491615295410156e+01 -2.224196910858154297e+00 -3.905998468399047852e-01 -7.309904694557189941e-02 -1.391096711158752441e-01 5.129128098487854004e-01
2.865000000000000000e+03 3.885994338989257812e+01 -6.889131069183349609e+00 2.665342688560485840e-01 1.641131520271301270e+00 5.722997188568115234e-01 -4.851420521736145020e-01
2.866000000000000000e+03 3.909475326538085938e+01 -5.568861007690429688e+00 3.524240255355834961e-01 1.989197373390197754e+00 7.024863958358764648e-01 -6.650475859642028809e-01
2.867000000000000000e+03 4.065265655517578125e+01 -1.213081073760986328e+01 -3.151131272315979004e-01 8.635038137435913086e-01 1.645172089338302612e-01 -2.230407744646072388e-01
2.868000000000000000e+03 3.673797607421875000e+01 -1.200805282592773438e+01 -7.284874916076660156e-01 1.558533608913421631e-01 -1.717902421951293945e-01 5.878460407257080078e-01
2.869000000000000000e+03 9.832049369812011719e+00 8.020069122314453125e+00 4.208471998572349548e-02 -7.829421162605285645e-01 -2.222572267055511475e-01 6.896328330039978027e-01
2.870000000000000000e+03 1.200590515136718750e+01 7.079094409942626953e+00 4.455792531371116638e-02 -9.004852771759033203e-01 -2.567782104015350342e-01 7.428979277610778809e-01
2.871000000000000000e+03 1.416933631896972656e+01 7.600225448608398438e+00 1.999377012252807617e-01 -9.646747708320617676e-01 -2.294211238622665405e-01 6.669229865074157715e-01
2.872000000000000000e+03 3.046869277954101562e+01 -5.309615612030029297e+00 -5.164842009544372559e-01 3.121443092823028564e-01 -6.130195781588554382e-02 6.434980630874633789e-01
2.873000000000000000e+03 3.745854187011718750e+01 -3.023305892944335938e+00 3.912470042705535889e-01 2.119740962982177734e+00 7.532963752746582031e-01 -5.347426533699035645e-01
2.874000000000000000e+03 4.363484573364257812e+01 -1.124520111083984375e+01 3.986907303333282471e-01 1.993133187294006348e+00 7.175471782684326172e-01 -1.007773637771606445e+00
2.875000000000000000e+03 3.733935165405273438e+01 -4.752307534217834473e-01 5.522530078887939453e-01 2.570072650909423828e+00 9.366977214813232422e-01 -6.350572109222412109e-01
2.876000000000000000e+03 3.210939788818359375e+01 -3.281337499618530273e+00 -9.127488732337951660e-02 8.300717473030090332e-01 2.216390669345855713e-01 2.655447423458099365e-01
2.877000000000000000e+03 8.746140480041503906e+00 1.441234588623046875e+01 2.219839543104171753e-01 -8.371370434761047363e-01 -1.845459342002868652e-01 4.226142764091491699e-01
2.878000000000000000e+03 3.721461868286132812e+01 -1.108050632476806641e+01 -4.592426419258117676e-01 3.975853621959686279e-01 -1.849718391895294189e-02 3.723488748073577881e-01
2.879000000000000000e+03 3.713049697875976562e+01 -1.260177230834960938e+01 -8.416610360145568848e-01 9.538324922323226929e-02 -2.238833457231521606e-01 5.587964653968811035e-01
2.880000000000000000e+03 8.347210884094238281e+00 -6.926545619964599609e+00 8.215854177251458168e-04 -8.194863767130300403e-05 2.218910376541316509e-04 -1.915580360218882561e-04
2.881000000000000000e+03 4.961648559570312500e+01 -2.888964653015136719e+01 6.178675889968872070e-01 3.247407913208007812e+00 1.159582734107971191e+00 3.312681913375854492e-01
2.882000000000000000e+03 9.496299743652343750e+00 1.189774417877197266e+01 2.127543091773986816e-01 -8.159482479095458984e-01 -1.809581816196441650e-01 5.338245630264282227e-01
2.883000000000000000e+03 3.931224060058593750e+01 -4.196850299835205078e+00 4.410519003868103027e-01 2.352410316467285156e+00 8.380386233329772949e-01 -8.339519500732421875e-01
2.884000000000000000e+03 3.281752395629882812e+01 -1.083957290649414062e+01 -9.014246463775634766e-01 1.103158965706825256e-01 -2.373326271772384644e-01 1.019209742546081543e+00
2.885000000000000000e+03 1.278205680847167969e+01 7.743540763854980469e+00 1.419296264648437500e-01 -9.247796535491943359e-01 -2.348549962043762207e-01 7.001926302909851074e-01
2.886000000000000000e+03 5.126063537597656250e+01 -2.792877769470214844e+01 4.034150540828704834e-01 4.724339962005615234e+00 1.538326501846313477e+00 9.227156639099121094e-02
2.887000000000000000e+03 3.663765335083007812e+01 2.648726999759674072e-01 5.624558925628662109e-01 2.474364280700683594e+00 9.110460281372070312e-01 -5.475106239318847656e-01
2.888000000000000000e+03 4.807017135620117188e+01 -2.690575218200683594e+01 3.765582442283630371e-01 2.101184844970703125e+00 7.433229088783264160e-01 2.295420467853546143e-01
2.889000000000000000e+03 3.787279510498046875e+01 -1.009131050109863281e+01 -2.050734460353851318e-01 7.273983955383300781e-01 1.566974818706512451e-01 1.083162575960159302e-01
2.890000000000000000e+03 9.585711479187011719e+00 9.492892265319824219e+00 1.253563016653060913e-01 -7.962846755981445312e-01 -2.012785077095031738e-01 6.285890340805053711e-01
2.891000000000000000e+03 4.043599319458007812e+01 -6.143321514129638672e+00 4.523948729038238525e-01 2.179342269897460938e+00 7.895211577415466309e-01 -9.148785471916198730e-01
2.892000000000000000e+03 3.415670776367187500e+01 7.874494552612304688e+00 1.266742587089538574e+00 2.408409118652343750e+00 1.102545499801635742e+00 -5.609893798828125000e-01
2.893000000000000000e+03 3.770313262939453125e+01 2.565003395080566406e+00 8.204487562179565430e-01 3.217671632766723633e+00 1.211436152458190918e+00 -7.647066116333007812e-01
2.894000000000000000e+03 4.019258117675781250e+01 -7.646269321441650391e+00 3.500981926918029785e-01 1.784553289413452148e+00 6.403954029083251953e-01 -7.115197181701660156e-01
2.895000000000000000e+03 1.001703166961669922e+01 1.426303958892822266e+01 2.791894376277923584e-01 -8.147672414779663086e-01 -1.606733500957489014e-01 4.250710308551788330e-01
2.896000000000000000e+03 1.007592296600341797e+01 1.667521476745605469e+01 2.828850150108337402e-01 -7.924771308898925781e-01 -1.528776437044143677e-01 3.196604549884796143e-01
2.897000000000000000e+03 1.048490142822265625e+01 1.985585975646972656e+01 2.625968456268310547e-01 -7.294993400573730469e-01 -1.400707364082336426e-01 1.845972388982772827e-01
2.898000000000000000e+03 9.316574096679687500e+00 1.940756797790527344e+01 2.252262532711029053e-01 -8.033887147903442383e-01 -1.734487414360046387e-01 2.161028683185577393e-01
2.899000000000000000e+03 3.965396881103515625e+01 -9.997434616088867188e+00 3.803626075387001038e-02 1.102430224418640137e+00 3.421399295330047607e-01 -2.914900779724121094e-01
2.900000000000000000e+03 3.500342941284179688e+01 7.168406009674072266e+00 1.270799160003662109e+00 2.663972139358520508e+00 1.180431365966796875e+00 -5.818430781364440918e-01
2.901000000000000000e+03 3.565085220336914062e+01 7.913000106811523438e+00 1.340854167938232422e+00 2.995402336120605469e+00 1.300876975059509277e+00 -6.344056725502014160e-01
2.902000000000000000e+03 9.135347366333007812e+00 1.088527870178222656e+01 1.727197766304016113e-01 -8.054037690162658691e-01 -1.898051947355270386e-01 5.713400840759277344e-01
2.903000000000000000e+03 9.546921730041503906e+00 -9.193032264709472656e+00 4.824349307455122471e-04 9.592989954398944974e-05 1.735094410832971334e-04 3.093226405326277018e-04
2.904000000000000000e+03 3.279185104370117188e+01 1.607652473449707031e+01 9.982681274414062500e-01 2.233829259872436523e+00 9.696291685104370117e-01 -7.010475993156433105e-01
2.905000000000000000e+03 3.368589019775390625e+01 4.800247192382812500e+00 9.659204483032226562e-01 2.000216245651245117e+00 8.898410201072692871e-01 -3.837347328662872314e-01
2.906000000000000000e+03 3.587459945678710938e+01 5.622899532318115234e+00 1.133099675178527832e+00 2.858829736709594727e+00 1.197578787803649902e+00 -5.741285085678100586e-01
2.907000000000000000e+03 3.204513549804687500e+01 1.224767303466796875e+01 1.238485813140869141e+00 1.901607871055603027e+00 9.420281052589416504e-01 -6.270775794982910156e-01
2.908000000000000000e+03 1.183244514465332031e+01 2.364156150817871094e+01 2.299417257308959961e-01 -5.610788464546203613e-01 -9.934112429618835449e-02 3.889917582273483276e-02
2.909000000000000000e+03 1.459158420562744141e+01 2.121075248718261719e+01 3.780225217342376709e-01 -4.157629609107971191e-01 -1.132212672382593155e-02 3.025371208786964417e-02
2.910000000000000000e+03 2.899967575073242188e+01 1.711995506286621094e+01 9.005161523818969727e-01 1.343405723571777344e+00 6.731765866279602051e-01 -5.988496541976928711e-01
2.911000000000000000e+03 2.934429168701171875e+01 2.481478118896484375e+01 2.955585122108459473e-01 1.588190793991088867e+00 5.651247501373291016e-01 -5.600455999374389648e-01
2.912000000000000000e+03 1.121368980407714844e+01 2.176536369323730469e+01 2.608016431331634521e-01 -6.486617922782897949e-01 -1.163580417633056641e-01 1.070418804883956909e-01
2.913000000000000000e+03 4.820486450195312500e+01 -3.569112014770507812e+01 -1.644027046859264374e-02 2.564693212509155273e+00 7.644758820533752441e-01 9.057900309562683105e-01
2.914000000000000000e+03 1.564815711975097656e+01 3.552280044555664062e+01 -5.413088202476501465e-02 4.756857827305793762e-02 -1.968691125512123108e-03 -9.876777976751327515e-02
2.915000000000000000e+03 1.376507282257080078e+01 3.311322021484375000e+01 7.301801349967718124e-03 -2.198265045881271362e-01 -6.375741213560104370e-02 -9.667860716581344604e-02
2.916000000000000000e+03 3.260140228271484375e+01 -8.125628471374511719e+00 -5.842509269714355469e-01 3.977336287498474121e-01 -5.595517903566360474e-02 7.504413127899169922e-01
2.917000000000000000e+03 3.280977630615234375e+01 -9.414876937866210938e+00 -7.059357166290283203e-01 2.655024528503417969e-01 -1.321299821138381958e-01 8.786130547523498535e-01
2.918000000000000000e+03 5.053520965576171875e+01 -2.651387977600097656e+01 4.974281042814254761e-02 4.273489475250244141e+00 1.296969652175903320e+00 3.746781051158905029e-01
2.919000000000000000e+03 5.169250869750976562e+01 -2.681313514709472656e+01 -4.669481515884399414e-02 5.289931774139404297e+00 1.572971105575561523e+00 1.238269209861755371e-01
2.920000000000000000e+03 5.204114151000976562e+01 -2.419280624389648438e+01 -8.835671544075012207e-01 6.619683742523193359e+00 1.720834970474243164e+00 6.918535232543945312e-01
2.921000000000000000e+03 4.908744812011718750e+01 -2.758633804321289062e+01 3.962854146957397461e-01 2.963083267211914062e+00 1.007810592651367188e+00 3.169314861297607422e-01
2.922000000000000000e+03 2.207335853576660156e+01 3.325267314910888672e+00 1.165624037384986877e-01 -7.894747853279113770e-01 -2.018737047910690308e-01 4.251159727573394775e-01
2.923000000000000000e+03 2.821145439147949219e+01 -1.612696409225463867e+00 -2.337911576032638550e-01 1.131262630224227905e-01 -3.619947284460067749e-02 4.135874211788177490e-01
2.924000000000000000e+03 3.122188568115234375e+01 -7.807370185852050781e+00 -6.933342218399047852e-01 2.425025701522827148e-01 -1.352495104074478149e-01 8.603890538215637207e-01
2.925000000000000000e+03 3.216708755493164062e+01 -6.958535194396972656e+00 -5.042868256568908691e-01 4.587403833866119385e-01 -1.366393640637397766e-02 6.731208562850952148e-01
2.926000000000000000e+03 4.254658126831054688e+01 -1.210855865478515625e+01 -6.498898845165967941e-03 1.420407414436340332e+00 4.241725504398345947e-01 -6.134343743324279785e-01
2.927000000000000000e+03 2.429966163635253906e+01 1.410037517547607422e+00 -4.853659123182296753e-02 -5.516560673713684082e-01 -1.800578087568283081e-01 4.033560454845428467e-01
2.928000000000000000e+03 2.357592964172363281e+01 2.082308053970336914e+00 1.525103952735662460e-02 -6.374887824058532715e-01 -1.866713166236877441e-01 4.034656882286071777e-01
2.929000000000000000e+03 4.990903091430664062e+01 -2.695601844787597656e+01 2.362478971481323242e-01 3.635323524475097656e+00 1.161471486091613770e+00 3.132876455783843994e-01
2.930000000000000000e+03 3.216349411010742188e+01 -8.873400688171386719e+00 -7.107670307159423828e-01 2.463112026453018188e-01 -1.393367499113082886e-01 8.944168686866760254e-01
2.931000000000000000e+03 3.616733551025390625e+01 -6.154283046722412109e+00 3.649497404694557190e-02 1.219209194183349609e+00 3.767112791538238525e-01 -1.046161167323589325e-02
2.932000000000000000e+03 2.879487419128417969e+01 -2.360734462738037109e+00 -2.932344079017639160e-01 1.954271793365478516e-01 -2.934216707944869995e-02 4.482800066471099854e-01
2.933000000000000000e+03 3.095561408996582031e+01 -5.859925746917724609e+00 -5.390973687171936035e-01 3.497407436370849609e-01 -5.680698156356811523e-02 6.710023283958435059e-01
2.934000000000000000e+03 2.989767646789550781e+01 -5.807916164398193359e+00 -6.416117548942565918e-01 1.920914798974990845e-01 -1.348560750484466553e-01 7.376800775527954102e-01
2.935000000000000000e+03 3.852322387695312500e+01 -4.646353244781494141e+00 3.726341128349304199e-01 2.051165819168090820e+00 7.271400094032287598e-01 -6.257002949714660645e-01
2.936000000000000000e+03 3.700035476684570312e+01 -1.018704891204833984e+01 -3.413839936256408691e-01 5.786675214767456055e-01 7.118505984544754028e-02 3.144447207450866699e-01
2.937000000000000000e+03 1.978072166442871094e+01 4.937591552734375000e+00 2.098568677902221680e-01 -9.418380856513977051e-01 -2.195943742990493774e-01 4.927087128162384033e-01
2.938000000000000000e+03 1.947500228881835938e+01 6.215545177459716797e+00 3.463195860385894775e-01 -8.740561604499816895e-01 -1.583209633827209473e-01 4.438072741031646729e-01
2.939000000000000000e+03 3.016578674316406250e+01 -4.664186477661132812e+00 -4.665966331958770752e-01 3.252088725566864014e-01 -4.241632670164108276e-02 5.874394774436950684e-01
2.940000000000000000e+03 2.282799530029296875e+01 2.721574306488037109e+00 6.779637187719345093e-02 -7.219875454902648926e-01 -1.962573528289794922e-01 4.107702374458312988e-01
2.941000000000000000e+03 1.997101783752441406e+01 7.108258724212646484e+00 4.724787473678588867e-01 -7.484859228134155273e-01 -8.280216157436370850e-02 3.533202409744262695e-01
2.942000000000000000e+03 3.415040206909179688e+01 -9.151440620422363281e+00 -5.223847031593322754e-01 4.330106079578399658e-01 -2.681223489344120026e-02 6.699349284172058105e-01
2.943000000000000000e+03 3.964556121826171875e+01 -6.559854030609130859e+00 3.773897290229797363e-01 1.906743645668029785e+00 6.852400302886962891e-01 -6.992242336273193359e-01
2.944000000000000000e+03 3.719510269165039062e+01 -4.195296764373779297e+00 2.821811139583587646e-01 1.808787465095520020e+00 6.272905468940734863e-01 -3.871019780635833740e-01
2.945000000000000000e+03 2.629365730285644531e+01 6.234907507896423340e-01 -2.726352214813232422e-02 -1.820980161428451538e-01 -6.280846148729324341e-02 3.428107798099517822e-01
2.946000000000000000e+03 2.561517143249511719e+01 1.361739039421081543e+00 4.066049680113792419e-02 -2.904800772666931152e-01 -7.494587451219558716e-02 3.242337405681610107e-01
2.947000000000000000e+03 2.759933280944824219e+01 -8.679809570312500000e-01 -1.664692759513854980e-01 2.260972373187541962e-02 -4.315786808729171753e-02 3.861065506935119629e-01
2.948000000000000000e+03 2.695205688476562500e+01 -1.481653690338134766e+00 -3.255716264247894287e-01 -1.631579995155334473e-01 -1.466188877820968628e-01 4.774774610996246338e-01
2.949000000000000000e+03 3.148751068115234375e+01 -6.464310646057128906e+00 -5.326649546623229980e-01 3.998908400535583496e-01 -3.983223438262939453e-02 6.928797364234924316e-01
2.950000000000000000e+03 1.360094070434570312e+01 8.357544898986816406e+00 2.325470000505447388e-01 -9.267039299011230469e-01 -2.082470804452896118e-01 6.487234234809875488e-01
2.951000000000000000e+03 1.443025970458984375e+01 8.966383934020996094e+00 3.233590126037597656e-01 -9.165258407592773438e-01 -1.779500544071197510e-01 5.873953700065612793e-01
2.952000000000000000e+03 1.633738136291503906e+01 8.214797973632812500e+00 3.626607358455657959e-01 -9.233890175819396973e-01 -1.682184785604476929e-01 5.360955595970153809e-01
2.953000000000000000e+03 1.551193428039550781e+01 7.567389488220214844e+00 2.682279348373413086e-01 -9.708153009414672852e-01 -2.107762098312377930e-01 6.113730669021606445e-01
2.954000000000000000e+03 4.260877227783203125e+01 -1.114416313171386719e+01 2.340632975101470947e-01 1.626811861991882324e+00 5.582625269889831543e-01 -8.011358976364135742e-01
2.955000000000000000e+03 3.797098541259765625e+01 -3.788672208786010742e+00 3.633892536163330078e-01 2.108156681060791016e+00 7.414637804031372070e-01 -5.889021158218383789e-01
2.956000000000000000e+03 3.651094436645507812e+01 -5.269861698150634766e+00 1.533168703317642212e-01 1.482046246528625488e+00 4.906089305877685547e-01 -1.764081269502639771e-01
2.957000000000000000e+03 4.059692382812500000e+01 -9.975618362426757812e+00 1.538757085800170898e-01 1.335648655891418457e+00 4.468573033809661865e-01 -5.037981271743774414e-01
2.958000000000000000e+03 3.648418807983398438e+01 -1.123309993743896484e+01 -5.941302776336669922e-01 3.002281188964843750e-01 -8.817065507173538208e-02 5.525478720664978027e-01
2.959000000000000000e+03 3.661664581298828125e+01 -1.193433642387390137e+00 4.523420929908752441e-01 2.240573883056640625e+00 8.078747987747192383e-01 -4.861496388912200928e-01
2.960000000000000000e+03 3.738673400878906250e+01 -1.820633888244628906e+00 4.374653398990631104e-01 2.319039583206176758e+00 8.269515037536621094e-01 -5.843567848205566406e-01
2.961000000000000000e+03 1.058573627471923828e+01 1.379106903076171875e+01 3.043089509010314941e-01 -8.096140623092651367e-01 -1.515915244817733765e-01 4.412135481834411621e-01
2.962000000000000000e+03 4.159770202636718750e+01 -1.108417224884033203e+01 8.930160850286483765e-02 1.342253684997558594e+00 4.294666051864624023e-01 -5.755297541618347168e-01
2.963000000000000000e+03 3.836880111694335938e+01 -5.947126865386962891e+00 2.830660939216613770e-01 1.730287194252014160e+00 6.040059924125671387e-01 -4.806936085224151611e-01
2.964000000000000000e+03 1.004092025756835938e+01 2.125746345520019531e+01 2.314045727252960205e-01 -7.406463623046875000e-01 -1.527725309133529663e-01 1.454050242900848389e-01
2.965000000000000000e+03 1.392905426025390625e+01 9.745068550109863281e+00 3.442143797874450684e-01 -8.820233345031738281e-01 -1.613426953554153442e-01 5.675448775291442871e-01
2.966000000000000000e+03 1.046136474609375000e+01 8.843353271484375000e+00 1.235220506787300110e-01 -8.232735395431518555e-01 -2.099254429340362549e-01 6.648580431938171387e-01
2.967000000000000000e+03 3.616290664672851562e+01 -1.038001632690429688e+01 -4.644259214401245117e-01 4.191017746925354004e-01 -1.359724253416061401e-02 5.061976313591003418e-01
2.968000000000000000e+03 4.977169036865234375e+01 -3.252379226684570312e+01 5.293816328048706055e-01 3.274996280670166016e+00 1.141313433647155762e+00 9.491750597953796387e-01
2.969000000000000000e+03 5.017324066162109375e+01 -3.130177116394042969e+01 8.556213378906250000e-01 3.548717975616455078e+00 1.321301817893981934e+00 6.916155219078063965e-01
2.970000000000000000e+03 3.592708587646484375e+01 1.019023299217224121e+00 6.276003718376159668e-01 2.327761888504028320e+00 8.866087198257446289e-01 -4.690590500831604004e-01
2.971000000000000000e+03 1.680751228332519531e+01 7.496339321136474609e+00 3.366879224777221680e-01 -9.417635798454284668e-01 -1.815226972103118896e-01 5.397188663482666016e-01
2.972000000000000000e+03 3.601330566406250000e+01 2.629934072494506836e+00 7.975606322288513184e-01 2.544112920761108398e+00 1.002502083778381348e+00 -5.262895822525024414e-01
2.973000000000000000e+03 1.171163463592529297e+01 2.034607315063476562e+01 2.996478080749511719e-01 -6.496300697326660156e-01 -1.049946844577789307e-01 1.457351148128509521e-01
2.974000000000000000e+03 1.086327743530273438e+01 1.845532798767089844e+01 3.014051616191864014e-01 -7.315399050712585449e-01 -1.290404200553894043e-01 2.327593863010406494e-01
2.975000000000000000e+03 3.445307922363281250e+01 6.045740127563476562e+00 1.114448785781860352e+00 2.351608991622924805e+00 1.039817333221435547e+00 -4.762810766696929932e-01
2.976000000000000000e+03 3.316846847534179688e+01 8.633327484130859375e+00 1.262300014495849609e+00 2.041626214981079102e+00 9.911778569221496582e-01 -5.159239172935485840e-01
2.977000000000000000e+03 3.196277809143066406e+01 8.998009681701660156e+00 1.214023470878601074e+00 1.734623670578002930e+00 8.845941424369812012e-01 -4.787442982196807861e-01
2.978000000000000000e+03 4.063148498535156250e+01 -1.106737709045410156e+01 -3.680067136883735657e-02 1.064355969429016113e+00 3.082665801048278809e-01 -3.722320497035980225e-01
2.979000000000000000e+03 1.010266208648681641e+01 1.290127849578857422e+01 2.645411491394042969e-01 -8.199405670166015625e-01 -1.666198223829269409e-01 4.862278401851654053e-01
2.980000000000000000e+03 1.156188488006591797e+01 1.468787956237792969e+01 3.528510332107543945e-01 -7.717676162719726562e-01 -1.256749778985977173e-01 3.802467882633209229e-01
2.981000000000000000e+03 3.175166130065917969e+01 1.463961887359619141e+01 1.106509685516357422e+00 1.917272448539733887e+00 9.071346521377563477e-01 -6.712701916694641113e-01
2.982000000000000000e+03 3.116513061523437500e+01 1.120925426483154297e+01 1.229275703430175781e+00 1.615987420082092285e+00 8.535789251327514648e-01 -5.517178773880004883e-01
2.983000000000000000e+03 3.349634552001953125e+01 6.844361305236816406e+00 1.137503147125244141e+00 2.031472206115722656e+00 9.506926536560058594e-01 -4.489931762218475342e-01
2.984000000000000000e+03 1.241515254974365234e+01 2.235663795471191406e+01 2.851810157299041748e-01 -5.484676957130432129e-01 -7.898600399494171143e-02 6.079582124948501587e-02
2.985000000000000000e+03 1.105897808074951172e+01 1.244941520690917969e+01 2.973407208919525146e-01 -8.179122805595397949e-01 -1.561714708805084229e-01 5.031064152717590332e-01
2.986000000000000000e+03 3.269444656372070312e+01 7.455849647521972656e+00 1.149255514144897461e+00 1.840821981430053711e+00 8.970232605934143066e-01 -4.236746430397033691e-01
2.987000000000000000e+03 3.568509674072265625e+01 4.294999122619628906e+00 9.763069152832031250e-01 2.694472551345825195e+00 1.101233839988708496e+00 -5.427681803703308105e-01
2.988000000000000000e+03 3.138304328918457031e+01 1.720816040039062500e+01 9.056504964828491211e-01 1.882616758346557617e+00 8.364802002906799316e-01 -6.672031879425048828e-01
2.989000000000000000e+03 4.691075134277343750e+01 -3.759654617309570312e+01 -1.313553452491760254e-01 2.196619510650634766e+00 6.195791959762573242e-01 6.603254079818725586e-01
2.990000000000000000e+03 4.944883728027343750e+01 -3.863928985595703125e+01 -5.060992836952209473e-01 3.068612337112426758e+00 7.687538862228393555e-01 6.282496452331542969e-01
2.991000000000000000e+03 1.525044345855712891e+01 2.648959350585937500e+01 2.170217335224151611e-01 -1.947576850652694702e-01 6.679210346192121506e-03 -9.883962571620941162e-02
2.992000000000000000e+03 1.778709220886230469e+01 2.960952186584472656e+01 1.181728616356849670e-01 2.111703455448150635e-01 9.880296140909194946e-02 -1.996244788169860840e-01
2.993000000000000000e+03 3.472383880615234375e+01 2.420520210266113281e+01 2.005386799573898315e-01 2.507523059844970703e+00 8.124185204505920410e-01 -4.651027321815490723e-01
2.994000000000000000e+03 3.288201904296875000e+01 2.327120018005371094e+01 3.504460453987121582e-01 2.212194204330444336e+00 7.687920928001403809e-01 -5.857204198837280273e-01
2.995000000000000000e+03 3.560498428344726562e+01 3.134033393859863281e+01 -3.759419918060302734e-01 2.278565645217895508e+00 5.707870721817016602e-01 -2.657769918441772461e-01
2.996000000000000000e+03 3.439648437500000000e+01 2.896582412719726562e+01 -1.821714341640472412e-01 2.240813493728637695e+00 6.175925731658935547e-01 -3.836128711700439453e-01
2.997000000000000000e+03 1.449907398223876953e+01 2.319410133361816406e+01 3.203452527523040771e-01 -3.572834134101867676e-01 -1.108144875615835190e-02 -2.177407033741474152e-02
2.998000000000000000e+03 2.272944259643554688e+01 -4.147837448120117188e+01 5.162081681191921234e-03 -2.004932425916194916e-02 -4.466172773391008377e-03 5.549586378037929535e-03
2.999000000000000000e+03 2.259884452819824219e+01 4.044747829437255859e+00 2.567260861396789551e-01 -6.654936075210571289e-01 -1.226302683353424072e-01 3.398499190807342529e-01
3.000000000000000000e+03 2.761529350280761719e+01 5.131573677062988281e-01 5.387394502758979797e-02 1.113893613219261169e-01 4.957899078726768494e-02 2.778369188308715820e-01
3.001000000000000000e+03 2.695275497436523438e+01 1.267386078834533691e+00 1.270495653152465820e-01 -3.275708528235554695e-03 3.713215515017509460e-02 2.541326284408569336e-01
3.002000000000000000e+03 2.985335350036621094e+01 -3.882252931594848633e+00 -4.047434329986572266e-01 3.148852586746215820e-01 -2.695745974779129028e-02 5.320174098014831543e-01
3.003000000000000000e+03 3.012352752685546875e+01 -2.457742214202880859e+00 -1.826511472463607788e-01 4.738093316555023193e-01 8.734744787216186523e-02 3.711047768592834473e-01
3.004000000000000000e+03 3.268861007690429688e+01 -4.738875389099121094e+00 -1.930702924728393555e-01 7.996281981468200684e-01 1.819673776626586914e-01 3.713324964046478271e-01
3.005000000000000000e+03 3.770420455932617188e+01 -6.292568683624267578e+00 1.756244301795959473e-01 1.526447057723999023e+00 5.106214284896850586e-01 -2.960690855979919434e-01
3.006000000000000000e+03 3.776372528076171875e+01 -5.069293022155761719e+00 2.677504420280456543e-01 1.780608773231506348e+00 6.145077943801879883e-01 -4.255836904048919678e-01
3.007000000000000000e+03 3.086962890625000000e+01 -4.691334724426269531e+00 -4.046450257301330566e-01 4.505493044853210449e-01 1.377128530293703079e-02 5.359217524528503418e-01
3.008000000000000000e+03 2.695730209350585938e+01 -1.224718391895294189e-01 -1.011220663785934448e-01 -7.911716401576995850e-02 -5.407176911830902100e-02 3.595755100250244141e-01
3.009000000000000000e+03 2.490568161010742188e+01 2.080886840820312500e+00 1.063819900155067444e-01 -3.850106000900268555e-01 -8.358857780694961548e-02 3.161101043224334717e-01
3.010000000000000000e+03 2.026511383056640625e+01 5.756377220153808594e+00 3.411120176315307617e-01 -8.376892805099487305e-01 -1.489731818437576294e-01 4.127455055713653564e-01
3.011000000000000000e+03 2.131554031372070312e+01 3.898262023925781250e+00 1.541056782007217407e-01 -8.504195809364318848e-01 -2.088941633701324463e-01 4.443199336528778076e-01
3.012000000000000000e+03 2.337648200988769531e+01 3.427305221557617188e+00 2.169495373964309692e-01 -5.811471939086914062e-01 -1.092593073844909668e-01 3.285148739814758301e-01
3.013000000000000000e+03 2.104309463500976562e+01 5.213231563568115234e+00 3.207494616508483887e-01 -7.857683897018432617e-01 -1.395056694746017456e-01 3.854901492595672607e-01
3.014000000000000000e+03 2.952635955810546875e+01 -1.705335617065429688e+00 -1.259657591581344604e-01 3.973260223865509033e-01 8.140808343887329102e-02 3.402597010135650635e-01
3.015000000000000000e+03 1.580121898651123047e+01 8.916481018066406250e+00 3.913697898387908936e-01 -8.990178108215332031e-01 -1.522944122552871704e-01 5.265407562255859375e-01
3.016000000000000000e+03 3.254650878906250000e+01 -6.216409683227539062e+00 -3.756276369094848633e-01 5.971148610115051270e-01 6.644615530967712402e-02 5.426288843154907227e-01
3.017000000000000000e+03 3.151517677307128906e+01 -5.198292732238769531e+00 -3.785701990127563477e-01 5.383626818656921387e-01 4.793773964047431946e-02 5.342505574226379395e-01
3.018000000000000000e+03 1.801089286804199219e+01 7.237433910369873047e+00 3.609552085399627686e-01 -9.225639104843139648e-01 -1.684826165437698364e-01 4.833157062530517578e-01
3.019000000000000000e+03 1.296259307861328125e+01 1.239901447296142578e+01 3.916651010513305664e-01 -8.087903857231140137e-01 -1.251375973224639893e-01 4.669038355350494385e-01
3.020000000000000000e+03 3.540482711791992188e+01 -2.916179895401000977e+00 2.378210276365280151e-01 1.628273248672485352e+00 5.598282814025878906e-01 -1.941098868846893311e-01
3.021000000000000000e+03 3.485389328002929688e+01 -7.139590263366699219e+00 -2.102738469839096069e-01 8.249057531356811523e-01 1.843895763158798218e-01 3.334572911262512207e-01
3.022000000000000000e+03 1.090097522735595703e+01 9.796888351440429688e+00 1.952680945396423340e-01 -8.411089181900024414e-01 -1.937522441148757935e-01 6.278209686279296875e-01
3.023000000000000000e+03 1.216091537475585938e+01 8.686092376708984375e+00 1.887340098619461060e-01 -8.863599896430969238e-01 -2.092877924442291260e-01 6.668255925178527832e-01
3.024000000000000000e+03 1.922847366333007812e+01 7.474961757659912109e+00 4.549701213836669922e-01 -8.026287555694580078e-01 -1.042975932359695435e-01 3.898007571697235107e-01
3.025000000000000000e+03 2.890907287597656250e+01 -9.572460055351257324e-01 -6.680329889059066772e-02 3.094767630100250244e-01 7.280203700065612793e-02 3.091555535793304443e-01
3.026000000000000000e+03 3.201970672607421875e+01 -5.783239841461181641e+00 -3.878611028194427490e-01 5.732443332672119141e-01 5.561496689915657043e-02 5.449441671371459961e-01
3.027000000000000000e+03 3.750312042236328125e+01 -8.236572265625000000e+00 -4.090433940291404724e-03 1.051232457160949707e+00 3.141425848007202148e-01 -3.027128614485263824e-02
3.028000000000000000e+03 3.859928131103515625e+01 -9.046479225158691406e+00 3.350694850087165833e-02 1.087405681610107422e+00 3.362737894058227539e-01 -1.753398030996322632e-01
3.029000000000000000e+03 3.675965118408203125e+01 -9.266405105590820312e+00 -2.149479985237121582e-01 7.286014556884765625e-01 1.540960371494293213e-01 2.416433691978454590e-01
3.030000000000000000e+03 4.052281188964843750e+01 -8.819867134094238281e+00 3.057896494865417480e-01 1.586077213287353516e+00 5.675600171089172363e-01 -6.500647068023681641e-01
3.031000000000000000e+03 3.952133560180664062e+01 -8.934424400329589844e+00 1.482284516096115112e-01 1.322955608367919922e+00 4.413552284240722656e-01 -3.890011906623840332e-01
3.032000000000000000e+03 3.134217643737792969e+01 -3.935981273651123047e+00 -2.533958852291107178e-01 5.947120785713195801e-01 1.023948639631271362e-01 4.218603372573852539e-01
3.033000000000000000e+03 3.461465072631835938e+01 -8.166612625122070312e+00 -3.495297729969024658e-01 6.219524145126342773e-01 8.172679692506790161e-02 4.996339678764343262e-01
3.034000000000000000e+03 3.577735900878906250e+01 -9.434052467346191406e+00 -3.754649162292480469e-01 5.676335096359252930e-01 5.765058100223541260e-02 4.609986841678619385e-01
3.035000000000000000e+03 3.513481521606445312e+01 2.189402729272842407e-01 5.028547644615173340e-01 2.000337123870849609e+00 7.509576082229614258e-01 -3.501979410648345947e-01
3.036000000000000000e+03 1.056235790252685547e+01 1.135504245758056641e+01 2.541978657245635986e-01 -8.306660652160644531e-01 -1.729404479265213013e-01 5.570570826530456543e-01
3.037000000000000000e+03 3.519488143920898438e+01 3.277291297912597656e+00 8.411232829093933105e-01 2.406274795532226562e+00 9.742193818092346191e-01 -4.827857613563537598e-01
3.038000000000000000e+03 3.685148239135742188e+01 3.608422756195068359e+00 9.209037423133850098e-01 3.037903308868408203e+00 1.187642097473144531e+00 -6.516893506050109863e-01
3.039000000000000000e+03 1.511174106597900391e+01 1.578236961364746094e+01 5.102278590202331543e-01 -5.898267030715942383e-01 -2.387965284287929535e-02 2.150212377309799194e-01
3.040000000000000000e+03 1.428347778320312500e+01 1.512205982208251953e+01 4.819445610046386719e-01 -6.651410460472106934e-01 -5.495894327759742737e-02 2.812587022781372070e-01
3.041000000000000000e+03 3.808581161499023438e+01 -7.158840179443359375e+00 1.605520099401473999e-01 1.395946621894836426e+00 4.669495820999145508e-01 -2.757830321788787842e-01
3.042000000000000000e+03 3.295090866088867188e+01 -7.324215412139892578e+00 -4.485887885093688965e-01 5.192878246307373047e-01 2.120971120893955231e-02 6.282406449317932129e-01
3.043000000000000000e+03 3.443511581420898438e+01 2.419987201690673828e+00 7.241641879081726074e-01 2.097362041473388672e+00 8.464578986167907715e-01 -3.322330713272094727e-01
3.044000000000000000e+03 3.875333404541015625e+01 -1.003896713256835938e+01 -9.304679185152053833e-02 9.159856438636779785e-01 2.468816637992858887e-01 -8.138123154640197754e-02
3.045000000000000000e+03 3.168737030029296875e+01 7.712613582611083984e+00 1.134652376174926758e+00 1.582167506217956543e+00 8.150459527969360352e-01 -3.944533467292785645e-01
3.046000000000000000e+03 3.189703941345214844e+01 1.027931594848632812e+01 1.246307969093322754e+00 1.788155555725097656e+00 9.103390574455261230e-01 -5.414870381355285645e-01
3.047000000000000000e+03 1.254912567138671875e+01 1.464349746704101562e+01 4.038853645324707031e-01 -7.443136572837829590e-01 -1.021284833550453186e-01 3.607484400272369385e-01
3.048000000000000000e+03 1.138029289245605469e+01 1.358522033691406250e+01 3.428179323673248291e-01 -7.984561324119567871e-01 -1.366914659738540649e-01 4.379254281520843506e-01
3.049000000000000000e+03 3.245262908935546875e+01 5.231616973876953125e+00 9.542105793952941895e-01 1.656766295433044434e+00 7.832930684089660645e-01 -3.129499554634094238e-01
3.050000000000000000e+03 3.518651962280273438e+01 1.742364645004272461e+00 6.711853146553039551e-01 2.209494352340698242e+00 8.642038702964782715e-01 -4.287649095058441162e-01
3.051000000000000000e+03 3.258438110351562500e+01 6.395617485046386719e+00 1.072405457496643066e+00 1.752006769180297852e+00 8.473236560821533203e-01 -3.706260919570922852e-01
3.052000000000000000e+03 2.892567825317382812e+01 1.818259716033935547e+00 3.372207880020141602e-01 4.866499900817871094e-01 2.471612393856048584e-01 9.760405868291854858e-02
3.053000000000000000e+03 1.149059867858886719e+01 1.585652256011962891e+01 3.484279513359069824e-01 -7.526498436927795410e-01 -1.212665587663650513e-01 3.348064720630645752e-01
3.054000000000000000e+03 3.078469848632812500e+01 1.020450878143310547e+01 1.180019140243530273e+00 1.411852002143859863e+00 7.775613665580749512e-01 -4.704469740390777588e-01
3.055000000000000000e+03 3.028866577148437500e+01 1.573913574218750000e+01 1.014929533004760742e+00 1.570476412773132324e+00 7.756217718124389648e-01 -6.362594962120056152e-01
3.056000000000000000e+03 3.074827003479003906e+01 1.321987915039062500e+01 1.162986993789672852e+00 1.599431037902832031e+00 8.287253975868225098e-01 -6.043334603309631348e-01
3.057000000000000000e+03 1.329112720489501953e+01 1.919865989685058594e+01 3.923715054988861084e-01 -5.712722539901733398e-01 -5.367022007703781128e-02 1.463730186223983765e-01
3.058000000000000000e+03 1.206953620910644531e+01 1.887024879455566406e+01 3.418484628200531006e-01 -6.565085053443908691e-01 -9.439800679683685303e-02 1.916227489709854126e-01
3.059000000000000000e+03 3.015556716918945312e+01 1.837849998474121094e+01 8.087643980979919434e-01 1.625333070755004883e+00 7.302292585372924805e-01 -6.501004099845886230e-01
3.060000000000000000e+03 2.930273818969726562e+01 1.405443954467773438e+01 1.080141544342041016e+00 1.266578435897827148e+00 7.040159702301025391e-01 -5.588816404342651367e-01
3.061000000000000000e+03 3.096713447570800781e+01 1.967948150634765625e+01 7.058989405632019043e-01 1.829540133476257324e+00 7.606317400932312012e-01 -6.599599123001098633e-01
3.062000000000000000e+03 2.788006973266601562e+01 1.836740303039550781e+01 8.061792254447937012e-01 1.182760596275329590e+00 5.966819524765014648e-01 -5.599921941757202148e-01
3.063000000000000000e+03 1.303959846496582031e+01 2.090293693542480469e+01 3.320843279361724854e-01 -5.406701564788818359e-01 -6.257575005292892456e-02 8.983163535594940186e-02
3.064000000000000000e+03 3.737974166870117188e+01 3.327369308471679688e+01 -5.295103192329406738e-01 2.300596237182617188e+00 5.313257575035095215e-01 -1.743362098932266235e-01
3.065000000000000000e+03 3.526610183715820312e+01 3.545409774780273438e+01 -5.821788907051086426e-01 2.137185096740722656e+00 4.665018320083618164e-01 -1.837514638900756836e-01
3.066000000000000000e+03 3.300652313232421875e+01 2.244125604629516602e+00 6.419112682342529297e-01 1.594380974769592285e+00 6.708876490592956543e-01 -1.987747997045516968e-01
3.067000000000000000e+03 3.094244194030761719e+01 -1.730780243873596191e+00 -6.514912005513906479e-03 7.199785709381103516e-01 2.140390872955322266e-01 2.304518073797225952e-01
3.068000000000000000e+03 2.415389442443847656e+01 2.772048473358154297e+00 1.622780561447143555e-01 -4.879084825515747070e-01 -9.768912941217422485e-02 3.185672760009765625e-01
3.069000000000000000e+03 2.158562088012695312e+01 5.981561183929443359e+00 4.528835415840148926e-01 -6.613880991935729980e-01 -6.255136430263519287e-02 3.004455566406250000e-01
3.070000000000000000e+03 2.475037765502929688e+01 3.477257251739501953e+00 3.102536499500274658e-01 -3.263652026653289795e-01 -4.833464510738849640e-03 2.392197102308273315e-01
3.071000000000000000e+03 3.719974136352539062e+01 -5.536129474639892578e+00 1.906263232231140137e-01 1.566244482994079590e+00 5.270612239837646484e-01 -2.726423144340515137e-01
3.072000000000000000e+03 3.189343643188476562e+01 -7.739931583404541016e+00 -6.238385438919067383e-01 3.407604396343231201e-01 -8.492342382669448853e-02 7.926291227340698242e-01
3.073000000000000000e+03 3.027525711059570312e+01 -9.978826045989990234e-01 4.384488239884376526e-02 6.304371356964111328e-01 2.022846043109893799e-01 2.263169735670089722e-01
3.074000000000000000e+03 3.633104324340820312e+01 -4.471686363220214844e+00 1.852140724658966064e-01 1.595707774162292480e+00 5.342765450477600098e-01 -2.086422741413116455e-01
3.075000000000000000e+03 3.566664505004882812e+01 -7.406798362731933594e+00 -1.474847048521041870e-01 9.248283505439758301e-01 2.332030981779098511e-01 2.301355004310607910e-01
3.076000000000000000e+03 1.265335750579833984e+01 1.016179370880126953e+01 2.979039549827575684e-01 -8.702061176300048828e-01 -1.716906428337097168e-01 5.878410935401916504e-01
3.077000000000000000e+03 1.224061679840087891e+01 1.117491626739501953e+01 3.158823847770690918e-01 -8.402429223060607910e-01 -1.573081612586975098e-01 5.423087477684020996e-01
3.078000000000000000e+03 3.346892166137695312e+01 -5.612540245056152344e+00 -1.976742595434188843e-01 8.296502828598022461e-01 1.895928084850311279e-01 3.521358072757720947e-01
3.079000000000000000e+03 2.081134414672851562e+01 6.666788101196289062e+00 4.706769287586212158e-01 -7.103733420372009277e-01 -7.190892845392227173e-02 3.141010105609893799e-01
3.080000000000000000e+03 2.182286071777343750e+01 4.634706020355224609e+00 2.927959561347961426e-01 -7.259041666984558105e-01 -1.299324631690979004e-01 3.599421679973602295e-01
3.081000000000000000e+03 2.235154533386230469e+01 5.372138023376464844e+00 4.142708182334899902e-01 -6.062117218971252441e-01 -5.758227407932281494e-02 2.818340063095092773e-01
3.082000000000000000e+03 2.627678108215332031e+01 2.026631593704223633e+00 1.913145631551742554e-01 -1.033973991870880127e-01 2.637515030801296234e-02 2.371640056371688843e-01
3.083000000000000000e+03 2.554236030578613281e+01 2.768447399139404297e+00 2.466670870780944824e-01 -2.173898220062255859e-01 8.783180266618728638e-03 2.323658913373947144e-01
3.084000000000000000e+03 3.153145027160644531e+01 -2.513915777206420898e+00 -4.165968298912048340e-02 7.814548611640930176e-01 2.219385504722595215e-01 2.486801594495773315e-01
3.085000000000000000e+03 3.069445419311523438e+01 -3.236430883407592773e+00 -2.366654872894287109e-01 5.316185951232910156e-01 8.848593384027481079e-02 4.022307395935058594e-01
3.086000000000000000e+03 2.393909835815429688e+01 4.149875164031982422e+00 3.548199236392974854e-01 -4.406544268131256104e-01 -2.575035020709037781e-02 2.453778535127639771e-01
3.087000000000000000e+03 2.313934326171875000e+01 4.784733772277832031e+00 3.858062028884887695e-01 -5.310469865798950195e-01 -4.357223212718963623e-02 2.592313289642333984e-01
3.088000000000000000e+03 3.540223312377929688e+01 -4.702801704406738281e+00 7.870295643806457520e-02 1.315886378288269043e+00 4.183768033981323242e-01 -1.308300998061895370e-02
3.089000000000000000e+03 2.962931632995605469e+01 -2.485690265893936157e-01 8.833372592926025391e-02 5.124347209930419922e-01 1.802305430173873901e-01 2.092239409685134888e-01
3.090000000000000000e+03 3.446137619018554688e+01 -4.792797565460205078e+00 -2.455369010567665100e-02 1.121073246002197266e+00 3.289558589458465576e-01 1.315285563468933105e-01
3.091000000000000000e+03 3.259657669067382812e+01 -3.986546516418457031e+00 -1.196935921907424927e-01 8.547120690345764160e-01 2.205055356025695801e-01 2.929922342300415039e-01
3.092000000000000000e+03 1.994920158386230469e+01 8.081556320190429688e+00 5.584975481033325195e-01 -6.999044418334960938e-01 -4.242205619812011719e-02 3.054916858673095703e-01
3.093000000000000000e+03 1.727872467041015625e+01 8.861175537109375000e+00 4.671773314476013184e-01 -8.465079665184020996e-01 -1.137991920113563538e-01 4.405756294727325439e-01
3.094000000000000000e+03 2.828892326354980469e+01 1.163958668708801270e+00 2.056502103805541992e-01 3.171336650848388672e-01 1.568351536989212036e-01 1.801555603742599487e-01
3.095000000000000000e+03 1.595714473724365234e+01 1.509965896606445312e+01 5.569004416465759277e-01 -5.719460248947143555e-01 -4.513664636760950089e-03 2.071703672409057617e-01
3.096000000000000000e+03 1.353169441223144531e+01 1.060642719268798828e+01 3.612022399902343750e-01 -8.511819839477539062e-01 -1.469939351081848145e-01 5.352688431739807129e-01
3.097000000000000000e+03 3.592514419555664062e+01 -2.035376071929931641e+00 3.476197719573974609e-01 1.888505816459655762e+00 6.708376407623291016e-01 -3.123055100440979004e-01
3.098000000000000000e+03 1.307803153991699219e+01 9.216791152954101562e+00 2.721996307373046875e-01 -8.971806764602661133e-01 -1.874943226575851440e-01 6.208211779594421387e-01
3.099000000000000000e+03 1.852249336242675781e+01 8.007747650146484375e+00 4.568189978599548340e-01 -8.337996602058410645e-01 -1.130942031741142273e-01 4.112678170204162598e-01
3.100000000000000000e+03 1.766610527038574219e+01 8.013674736022949219e+00 4.255855381488800049e-01 -8.738311529159545898e-01 -1.344736963510513306e-01 4.671624600887298584e-01
3.101000000000000000e+03 3.838008117675781250e+01 -8.084736824035644531e+00 1.030219420790672302e-01 1.265106916427612305e+00 4.104386568069458008e-01 -2.344055771827697754e-01
3.102000000000000000e+03 3.373997497558593750e+01 -7.722214698791503906e+00 -4.123853743076324463e-01 5.667505860328674316e-01 4.630956426262855530e-02 5.735840797424316406e-01
3.103000000000000000e+03 3.559567260742187500e+01 -8.389805793762207031e+00 -2.633198797702789307e-01 7.135959863662719727e-01 1.350828260183334351e-01 3.676730692386627197e-01
3.104000000000000000e+03 3.277839279174804688e+01 -2.726484775543212891e+00 2.924662455916404724e-02 1.019126057624816895e+00 3.145118057727813721e-01 1.585451662540435791e-01
3.105000000000000000e+03 1.442903518676757812e+01 1.102542781829833984e+01 4.321435689926147461e-01 -8.224891424179077148e-01 -1.171036735177040100e-01 4.764814376831054688e-01
3.106000000000000000e+03 1.205742359161376953e+01 1.229579067230224609e+01 3.440397381782531738e-01 -8.180630207061767578e-01 -1.422069817781448364e-01 4.950052797794342041e-01
3.107000000000000000e+03 3.658358383178710938e+01 -8.341173171997070312e+00 -1.324068009853363037e-01 8.826626539230346680e-01 2.250767648220062256e-01 1.696191281080245972e-01
3.108000000000000000e+03 3.439530563354492188e+01 9.093122482299804688e-01 5.422948002815246582e-01 1.877999901771545410e+00 7.260884046554565430e-01 -2.688157558441162109e-01
3.109000000000000000e+03 1.224925613403320312e+01 1.345009708404541016e+01 3.732468485832214355e-01 -7.846403717994689941e-01 -1.234180554747581482e-01 4.280017614364624023e-01
3.110000000000000000e+03 3.371752548217773438e+01 3.087563037872314453e+00 7.757205367088317871e-01 1.867613792419433594e+00 7.930002808570861816e-01 -2.909331023693084717e-01
3.111000000000000000e+03 3.148924446105957031e+01 6.540705680847167969e+00 1.021907210350036621e+00 1.429476499557495117e+00 7.354151010513305664e-01 -3.186957240104675293e-01
3.112000000000000000e+03 1.258785820007324219e+01 1.599973678588867188e+01 3.972431719303131104e-01 -7.052524089813232422e-01 -9.240277111530303955e-02 2.973926067352294922e-01
3.113000000000000000e+03 1.354263877868652344e+01 1.423103046417236328e+01 4.405313730239868164e-01 -7.264661788940429688e-01 -8.578044921159744263e-02 3.519171774387359619e-01
3.114000000000000000e+03 2.824645042419433594e+01 1.057874393463134766e+01 1.070085644721984863e+00 8.116880059242248535e-01 5.645321011543273926e-01 -3.495916724205017090e-01
3.115000000000000000e+03 2.954857063293457031e+01 9.159203529357910156e+00 1.073152542114257812e+00 1.036259651184082031e+00 6.328236460685729980e-01 -3.533285260200500488e-01
3.116000000000000000e+03 1.345214843750000000e+01 1.767789840698242188e+01 4.114553034305572510e-01 -6.127284765243530273e-01 -6.038194149732589722e-02 2.015768587589263916e-01
3.117000000000000000e+03 1.470897960662841797e+01 1.025580596923828125e+01 4.068404436111450195e-01 -8.579757213592529297e-01 -1.353405714035034180e-01 5.088517665863037109e-01
3.118000000000000000e+03 3.293484115600585938e+01 3.672911882400512695e+00 8.000559210777282715e-01 1.652202129364013672e+00 7.356774210929870605e-01 -2.682668566703796387e-01
3.119000000000000000e+03 2.792838287353515625e+01 2.184952545166015625e+01 5.370983481407165527e-01 1.301940917968750000e+00 5.517117977142333984e-01 -5.701946616172790527e-01
3.120000000000000000e+03 2.827624511718750000e+01 1.987867736816406250e+01 6.890457868576049805e-01 1.308114409446716309e+00 5.991480946540832520e-01 -5.867751836776733398e-01
3.121000000000000000e+03 3.045625114440917969e+01 6.711194038391113281e+00 9.875462651252746582e-01 1.157408356666564941e+00 6.434863805770874023e-01 -2.705695331096649170e-01
3.122000000000000000e+03 3.072007369995117188e+01 9.060273170471191406e+00 1.136515498161315918e+00 1.351022005081176758e+00 7.462612986564636230e-01 -4.160726070404052734e-01
3.123000000000000000e+03 2.960992431640625000e+01 1.044096374511718750e+01 1.137449622154235840e+00 1.149020433425903320e+00 6.859410405158996582e-01 -4.241487681865692139e-01
3.124000000000000000e+03 2.997916603088378906e+01 1.180282592773437500e+01 1.173117995262145996e+00 1.312628030776977539e+00 7.457238435745239258e-01 -5.075216889381408691e-01
3.125000000000000000e+03 3.433749008178710938e+01 -5.815369129180908203e+00 -1.257266104221343994e-01 9.461305141448974609e-01 2.461211681365966797e-01 2.497424781322479248e-01
3.126000000000000000e+03 3.404866027832031250e+01 -6.788257122039794922e+00 -2.615758776664733887e-01 7.416759729385375977e-01 1.440300196409225464e-01 4.194180965423583984e-01
3.127000000000000000e+03 3.649127960205078125e+01 -7.470443248748779297e+00 -4.903912544250488281e-02 1.016376256942749023e+00 2.902011573314666748e-01 8.195719122886657715e-02
3.128000000000000000e+03 1.914927864074707031e+01 8.915064811706542969e+00 5.748795866966247559e-01 -7.215085625648498535e-01 -4.398870095610618591e-02 3.190771043300628662e-01
3.129000000000000000e+03 1.663927268981933594e+01 9.634198188781738281e+00 4.789687097072601318e-01 -8.234160542488098145e-01 -1.033342033624649048e-01 4.375603795051574707e-01
3.130000000000000000e+03 3.299794006347656250e+01 -1.719776153564453125e+00 1.957988142967224121e-01 1.214931368827819824e+00 4.232190549373626709e-01 3.685355186462402344e-02
3.131000000000000000e+03 2.254899215698242188e+01 7.972494602203369141e+00 6.754273176193237305e-01 -3.853180110454559326e-01 8.703280240297317505e-02 1.271757781505584717e-01
3.132000000000000000e+03 2.620056152343750000e+01 3.483038902282714844e+00 3.953174650669097900e-01 -2.805626392364501953e-02 1.101783663034439087e-01 1.525894403457641602e-01
3.133000000000000000e+03 1.138175106048583984e+01 1.066088962554931641e+01 2.656332552433013916e-01 -8.415416479110717773e-01 -1.727725118398666382e-01 5.770882964134216309e-01
3.134000000000000000e+03 2.450245094299316406e+01 4.881872177124023438e+00 4.797517955303192139e-01 -2.908634543418884277e-01 5.666650459170341492e-02 1.690593808889389038e-01
3.135000000000000000e+03 2.368775939941406250e+01 5.589717388153076172e+00 5.098085403442382812e-01 -3.980050384998321533e-01 3.354104980826377869e-02 1.770632416009902954e-01
3.136000000000000000e+03 2.698559951782226562e+01 2.709805488586425781e+00 3.262451589107513428e-01 8.117791265249252319e-02 1.222269162535667419e-01 1.505559682846069336e-01
3.137000000000000000e+03 3.023044967651367188e+01 2.225923538208007812e+00 4.754586219787597656e-01 8.455407619476318359e-01 3.962998092174530029e-01 -5.643068347126245499e-03
3.138000000000000000e+03 3.266654586791992188e+01 -5.500852584838867188e+00 -2.842662632465362549e-01 6.990739703178405762e-01 1.244423091411590576e-01 4.398775100708007812e-01
3.139000000000000000e+03 3.326183700561523438e+01 -6.479969978332519531e+00 -3.304288685321807861e-01 6.670211553573608398e-01 1.009776815772056580e-01 4.911866784095764160e-01
3.140000000000000000e+03 3.349468612670898438e+01 -2.973928213119506836e+00 6.189256533980369568e-02 1.160846710205078125e+00 3.668217957019805908e-01 9.366010129451751709e-02
3.141000000000000000e+03 1.177418136596679688e+01 9.720900535583496094e+00 2.332656383514404297e-01 -8.618884682655334473e-01 -1.885868459939956665e-01 6.220102906227111816e-01
3.142000000000000000e+03 3.526985549926757812e+01 -3.769553661346435547e+00 1.306304335594177246e-01 1.420953989028930664e+00 4.654753208160400391e-01 -7.539467513561248779e-02
3.143000000000000000e+03 3.508553314208984375e+01 -1.304814934730529785e+00 3.453280031681060791e-01 1.781252741813659668e+00 6.379742622375488281e-01 -2.476979643106460571e-01
3.144000000000000000e+03 2.686056900024414062e+01 4.253158569335937500e+00 5.380914807319641113e-01 1.651501357555389404e-01 2.109724730253219604e-01 6.307920068502426147e-02
3.145000000000000000e+03 3.367099380493164062e+01 1.186874434351921082e-01 4.184170365333557129e-01 1.588429093360900879e+00 6.020538210868835449e-01 -1.623833179473876953e-01
3.146000000000000000e+03 3.438571929931640625e+01 -5.360354781150817871e-01 3.905859887599945068e-01 1.696641683578491211e+00 6.261683106422424316e-01 -1.932993382215499878e-01
3.147000000000000000e+03 2.952991294860839844e+01 7.962821960449218750e+00 1.036617279052734375e+00 9.628790616989135742e-01 5.998489260673522949e-01 -2.920969426631927490e-01
3.148000000000000000e+03 3.096711349487304688e+01 4.329410552978515625e+00 7.893022894859313965e-01 1.168372273445129395e+00 5.873023867607116699e-01 -1.798497885465621948e-01
3.149000000000000000e+03 2.897194480895996094e+01 4.673665761947631836e-01 1.466548889875411987e-01 4.093471467494964600e-01 1.668006032705307007e-01 1.913455426692962646e-01
3.150000000000000000e+03 2.997929000854492188e+01 4.574969291687011719e+00 7.694925665855407715e-01 9.086843132972717285e-01 5.034530758857727051e-01 -1.383419185876846313e-01
3.151000000000000000e+03 3.198524665832519531e+01 4.064939975738525391e+00 8.113763928413391113e-01 1.442679524421691895e+00 6.762167811393737793e-01 -2.241408377885818481e-01
3.152000000000000000e+03 3.363070678710937500e+01 1.565656185150146484e+00 5.958626866340637207e-01 1.707227587699890137e+00 6.909270882606506348e-01 -2.237820774316787720e-01
3.153000000000000000e+03 1.307270812988281250e+01 1.325964927673339844e+01 4.084155559539794922e-01 -7.752223610877990723e-01 -1.100420430302619934e-01 4.161278009414672852e-01
3.154000000000000000e+03 1.369374084472656250e+01 1.275957489013671875e+01 4.368661046028137207e-01 -7.730635404586791992e-01 -1.008592247962951660e-01 4.201045930385589600e-01
3.155000000000000000e+03 1.821504402160644531e+01 9.655792236328125000e+00 5.545814037322998047e-01 -7.443895339965820312e-01 -5.694242566823959351e-02 3.450001180171966553e-01
3.156000000000000000e+03 2.764565277099609375e+01 1.914095163345336914e+00 2.745256721973419189e-01 2.009165883064270020e-01 1.426326781511306763e-01 1.742170006036758423e-01
3.157000000000000000e+03 2.969594383239746094e+01 1.253283143043518066e+00 3.081138432025909424e-01 6.345416307449340820e-01 2.827966213226318359e-01 8.973363786935806274e-02
3.158000000000000000e+03 1.803474998474121094e+01 1.299115371704101562e+01 6.493388414382934570e-01 -5.558820366859436035e-01 2.803703956305980682e-02 1.988481432199478149e-01
3.159000000000000000e+03 2.701989173889160156e+01 1.949813842773437500e+01 6.959251761436462402e-01 1.051082968711853027e+00 5.241024494171142578e-01 -5.279732346534729004e-01
3.160000000000000000e+03 2.089159584045410156e+01 9.703658103942871094e+00 6.867810487747192383e-01 -4.884748756885528564e-01 5.949184671044349670e-02 1.621726453304290771e-01
3.161000000000000000e+03 2.158033561706542969e+01 7.454965591430664062e+00 5.724184513092041016e-01 -5.730879306793212891e-01 -2.008330193348228931e-04 2.353519797325134277e-01
3.162000000000000000e+03 3.769264984130859375e+01 -9.150813102722167969e+00 -9.471916407346725464e-02 9.051550626754760742e-01 2.431307733058929443e-01 3.865885362029075623e-02
3.163000000000000000e+03 1.691407966613769531e+01 1.885979080200195312e+01 5.185632705688476562e-01 -3.136697709560394287e-01 6.146805360913276672e-02 1.896464079618453979e-02
3.164000000000000000e+03 1.368978786468505859e+01 1.626997375488281250e+01 4.441300630569458008e-01 -6.500711441040039062e-01 -6.178233027458190918e-02 2.540383338928222656e-01
3.165000000000000000e+03 1.712532997131347656e+01 2.234982872009277344e+01 4.052659869194030762e-01 -1.324235349893569946e-01 8.185274153947830200e-02 -9.886450320482254028e-02
3.166000000000000000e+03 1.453527832031250000e+01 1.933380699157714844e+01 4.362602829933166504e-01 -4.946286380290985107e-01 -1.751051098108291626e-02 9.947432577610015869e-02
3.167000000000000000e+03 1.556115818023681641e+01 1.661318397521972656e+01 5.164061784744262695e-01 -5.317256450653076172e-01 -4.595844075083732605e-03 1.661316603422164917e-01
3.168000000000000000e+03 2.851415634155273438e+01 7.980463981628417969e+00 9.816665053367614746e-01 7.283805608749389648e-01 5.130141377449035645e-01 -2.482592314481735229e-01
3.169000000000000000e+03 2.852790641784667969e+01 1.225266647338867188e+01 1.105524182319641113e+00 9.697631001472473145e-01 6.225861907005310059e-01 -4.415376186370849609e-01
3.170000000000000000e+03 2.472315025329589844e+01 1.255134582519531250e+01 9.396656155586242676e-01 2.517313361167907715e-01 3.574190735816955566e-01 -2.197341173887252808e-01
3.171000000000000000e+03 3.176044654846191406e+01 2.572817611694335938e+01 1.511896848678588867e-01 1.970828533172607422e+00 6.366054415702819824e-01 -5.372933745384216309e-01
3.172000000000000000e+03 2.505780792236328125e+01 5.608332157135009766e+00 5.720335245132446289e-01 -1.495583653450012207e-01 1.267425417900085449e-01 9.839686751365661621e-02
3.173000000000000000e+03 2.534428787231445312e+01 4.199547290802001953e+00 4.449447989463806152e-01 -1.711134761571884155e-01 8.214939385652542114e-02 1.589634567499160767e-01
3.174000000000000000e+03 3.039039611816406250e+01 5.134786367416381836e-01 2.673884630203247070e-01 7.607208490371704102e-01 3.084327876567840576e-01 9.857202321290969849e-02
3.175000000000000000e+03 3.168454551696777344e+01 -9.267002940177917480e-01 1.679622977972030640e-01 9.554930329322814941e-01 3.370366096496582031e-01 1.044034361839294434e-01
3.176000000000000000e+03 3.233163452148437500e+01 -2.067613363265991211e+00 6.298077106475830078e-02 9.853764772415161133e-01 3.145071566104888916e-01 1.453543603420257568e-01
3.177000000000000000e+03 2.287382125854492188e+01 6.127508640289306641e+00 5.381937623023986816e-01 -4.661372900009155273e-01 2.161694504320621490e-02 2.079175114631652832e-01
3.178000000000000000e+03 3.292384719848632812e+01 6.960262060165405273e-01 4.483936131000518799e-01 1.441143631935119629e+00 5.668611526489257812e-01 -1.159879192709922791e-01
3.179000000000000000e+03 3.099892234802246094e+01 -2.788908183574676514e-01 1.951338797807693481e-01 8.429818749427795410e-01 3.114347159862518311e-01 1.071323379874229431e-01
3.180000000000000000e+03 1.320582866668701172e+01 1.151279640197753906e+01 3.785365521907806396e-01 -8.295361995697021484e-01 -1.352998912334442139e-01 5.006101727485656738e-01
3.181000000000000000e+03 1.743784523010253906e+01 1.043671035766601562e+01 5.545023679733276367e-01 -7.442921400070190430e-01 -5.693691596388816833e-02 3.542333543300628662e-01
3.182000000000000000e+03 3.514852905273437500e+01 -6.204495906829833984e+00 -7.474434375762939453e-02 1.037179827690124512e+00 2.887306213378906250e-01 1.840598285198211670e-01
3.183000000000000000e+03 3.442420959472656250e+01 -3.789436101913452148e+00 7.408455759286880493e-02 1.279579401016235352e+00 4.060992002487182617e-01 2.431057021021842957e-02
3.184000000000000000e+03 3.422254180908203125e+01 -1.925570249557495117e+00 2.550705373287200928e-01 1.480018258094787598e+00 5.205266475677490234e-01 -9.291474521160125732e-02
3.185000000000000000e+03 2.219422531127929688e+01 6.659652233123779297e+00 5.286465883255004883e-01 -5.532623529434204102e-01 -7.384725846350193024e-03 2.215370088815689087e-01
3.186000000000000000e+03 2.479011917114257812e+01 6.963621616363525391e+00 7.099658846855163574e-01 -9.978914260864257812e-02 1.830530166625976562e-01 4.048113152384757996e-02
3.187000000000000000e+03 3.354084777832031250e+01 -4.725961685180664062e+00 -1.178527101874351501e-01 9.370290040969848633e-01 2.457529008388519287e-01 2.558680176734924316e-01
3.188000000000000000e+03 2.429352569580078125e+01 6.270865440368652344e+00 5.970962643623352051e-01 -2.501724660396575928e-01 1.040771454572677612e-01 1.120971962809562683e-01
3.189000000000000000e+03 3.238643646240234375e+01 2.748198509216308594e+00 6.638712882995605469e-01 1.452054500579833984e+00 6.347777247428894043e-01 -1.884882301092147827e-01
3.190000000000000000e+03 2.779720497131347656e+01 3.421671867370605469e+00 4.837055206298828125e-01 3.260328173637390137e-01 2.429215013980865479e-01 5.813941359519958496e-02
3.191000000000000000e+03 2.590374565124511719e+01 4.950169563293457031e+00 5.625246763229370117e-01 -7.649625651538372040e-03 1.664625257253646851e-01 8.407726883888244629e-02
3.192000000000000000e+03 3.241290664672851562e+01 -1.333410024642944336e+00 1.701994091272354126e-01 1.072067975997924805e+00 3.726802170276641846e-01 6.667046993970870972e-02
3.193000000000000000e+03 1.736283683776855469e+01 1.203248500823974609e+01 6.046777367591857910e-01 -6.562385559082031250e-01 -1.546824630349874496e-02 2.784503400325775146e-01
3.194000000000000000e+03 1.523851299285888672e+01 9.603754997253417969e+00 4.015896916389465332e-01 -8.752899765968322754e-01 -1.421100944280624390e-01 5.193841457366943359e-01
3.195000000000000000e+03 1.597303009033203125e+01 1.033170986175537109e+01 4.787317812442779541e-01 -8.115053772926330566e-01 -9.983208030462265015e-02 4.389528036117553711e-01
3.196000000000000000e+03 1.505089473724365234e+01 1.260618495941162109e+01 5.026369690895080566e-01 -7.409558892250061035e-01 -7.149568200111389160e-02 3.732956647872924805e-01
3.197000000000000000e+03 1.902261734008789062e+01 1.062262535095214844e+01 6.418753266334533691e-01 -6.286385655403137207e-01 3.971033729612827301e-03 2.445790916681289673e-01
3.198000000000000000e+03 1.661784934997558594e+01 1.622581863403320312e+01 5.659579634666442871e-01 -4.733375310897827148e-01 2.778612263500690460e-02 1.296405196189880371e-01
3.199000000000000000e+03 2.946027183532714844e+01 6.840787887573242188e+00 9.537078142166137695e-01 8.985917568206787109e-01 5.556898713111877441e-01 -2.336128503084182739e-01
3.200000000000000000e+03 1.436502838134765625e+01 1.346122741699218750e+01 4.803857505321502686e-01 -7.255936264991760254e-01 -7.356236875057220459e-02 3.583205640316009521e-01
3.201000000000000000e+03 1.577376651763916016e+01 1.917213058471679688e+01 4.782695770263671875e-01 -4.170758426189422607e-01 1.835812628269195557e-02 6.199658289551734924e-02
3.202000000000000000e+03 1.416309356689453125e+01 1.193717288970947266e+01 4.412211775779724121e-01 -7.935459613800048828e-01 -1.056974232196807861e-01 4.429197907447814941e-01
3.203000000000000000e+03 2.955958175659179688e+01 3.578842163085937500e+00 6.101371049880981445e-01 7.372722625732421875e-01 4.042228162288665771e-01 -4.785117134451866150e-02
3.204000000000000000e+03 2.842569351196289062e+01 5.934250831604003906e+00 8.047655820846557617e-01 5.866028666496276855e-01 4.174105525016784668e-01 -1.280992180109024048e-01
3.205000000000000000e+03 3.026720428466796875e+01 5.615991592407226562e+00 8.768932819366455078e-01 1.056863546371459961e+00 5.801270604133605957e-01 -2.034705132246017456e-01
3.206000000000000000e+03 2.211493492126464844e+01 1.001458168029785156e+01 7.589386701583862305e-01 -3.326033353805541992e-01 1.279005855321884155e-01 6.487608700990676880e-02
3.207000000000000000e+03 2.585689353942871094e+01 1.852868461608886719e+01 7.638552188873291016e-01 8.015779256820678711e-01 4.696299433708190918e-01 -4.750244915485382080e-01
3.208000000000000000e+03 1.614251136779785156e+01 2.079332923889160156e+01 4.342727661132812500e-01 -2.947762906551361084e-01 4.184894636273384094e-02 -1.605648919939994812e-02
3.209000000000000000e+03 1.655802154541015625e+01 1.270276737213134766e+01 5.777370929718017578e-01 -6.542149782180786133e-01 -2.294336631894111633e-02 2.907358407974243164e-01
3.210000000000000000e+03 2.675801277160644531e+01 1.512888336181640625e+01 9.551284909248352051e-01 7.675065398216247559e-01 5.167905092239379883e-01 -4.466316401958465576e-01
3.211000000000000000e+03 1.861103057861328125e+01 2.336116600036621094e+01 3.817050457000732422e-01 7.262815535068511963e-02 1.362999677658081055e-01 -1.751853674650192261e-01
3.212000000000000000e+03 2.740116119384765625e+01 8.923606872558593750e+00 9.867392182350158691e-01 5.572666525840759277e-01 4.632017612457275391e-01 -2.370833754539489746e-01
3.213000000000000000e+03 2.707855033874511719e+01 1.286595153808593750e+01 1.043953418731689453e+00 7.275577187538146973e-01 5.314533114433288574e-01 -3.896296918392181396e-01
3.214000000000000000e+03 2.582473754882812500e+01 2.664913749694824219e+01 2.176271229982376099e-01 1.096318125724792480e+00 3.941835463047027588e-01 -4.642383456230163574e-01
3.215000000000000000e+03 3.166452217102050781e+01 3.624321520328521729e-01 3.192693889141082764e-01 1.062685728073120117e+00 4.145865440368652344e-01 1.509413402527570724e-02
3.216000000000000000e+03 2.927080917358398438e+01 2.618503808975219727e+00 4.673885405063629150e-01 6.057074069976806641e-01 3.219287693500518799e-01 2.758820913732051849e-02
3.217000000000000000e+03 2.557781410217285156e+01 6.395032882690429688e+00 6.866524815559387207e-01 1.263326313346624374e-02 2.097857296466827393e-01 1.962103508412837982e-02
3.218000000000000000e+03 3.338936996459960938e+01 -2.293857097625732422e+00 1.440318822860717773e-01 1.240749120712280273e+00 4.154343008995056152e-01 3.922287374734878540e-02
3.219000000000000000e+03 3.210462951660156250e+01 1.070487260818481445e+00 4.551419615745544434e-01 1.262157678604125977e+00 5.151898860931396484e-01 -8.091368526220321655e-02
3.220000000000000000e+03 2.639463996887207031e+01 5.761969089508056641e+00 6.668546199798583984e-01 1.333580464124679565e-01 2.400638014078140259e-01 1.010769419372081757e-02
3.221000000000000000e+03 3.365632247924804688e+01 -1.185046792030334473e+00 2.718677222728729248e-01 1.447916507720947266e+00 5.159353017807006836e-01 -7.297664135694503784e-02
3.222000000000000000e+03 1.818955802917480469e+01 1.134568119049072266e+01 6.298425197601318359e-01 -6.422392129898071289e-01 -3.719003638252615929e-03 2.652071416378021240e-01
3.223000000000000000e+03 3.122800254821777344e+01 1.038430809974670410e+00 3.831412494182586670e-01 9.948699474334716797e-01 4.134033620357513428e-01 -1.861310796812176704e-03
3.224000000000000000e+03 2.612924766540527344e+01 7.285690784454345703e+00 8.063982725143432617e-01 1.805768311023712158e-01 2.960925400257110596e-01 -6.074084714055061340e-02
3.225000000000000000e+03 2.394451332092285156e+01 7.190727233886718750e+00 6.794750094413757324e-01 -2.497152984142303467e-01 1.289279162883758545e-01 8.421310037374496460e-02
3.226000000000000000e+03 3.348514556884765625e+01 -3.815530300140380859e+00 -1.314436923712491989e-02 1.064569115638732910e+00 3.154274225234985352e-01 1.747603714466094971e-01
3.227000000000000000e+03 3.444583129882812500e+01 -2.824931144714355469e+00 1.725987941026687622e-01 1.437186002731323242e+00 4.829354286193847656e-01 -5.440884456038475037e-02
3.228000000000000000e+03 2.586137390136718750e+01 1.132701683044433594e+01 9.853789806365966797e-01 3.759126365184783936e-01 4.083874821662902832e-01 -2.438296973705291748e-01
3.229000000000000000e+03 2.300051307678222656e+01 7.058899879455566406e+00 6.144252419471740723e-01 -3.940175175666809082e-01 6.612230837345123291e-02 1.404248625040054321e-01
3.230000000000000000e+03 1.987421417236328125e+01 9.898406982421875000e+00 6.485438346862792969e-01 -5.882702469825744629e-01 1.808208785951137543e-02 2.255265712738037109e-01
3.231000000000000000e+03 1.582741928100585938e+01 1.344605255126953125e+01 5.514590740203857422e-01 -6.651402711868286133e-01 -3.410436958074569702e-02 2.965370416641235352e-01
3.232000000000000000e+03 1.582401561737060547e+01 1.182743835449218750e+01 5.246400237083435059e-01 -7.468925118446350098e-01 -6.667575985193252563e-02 3.754197061061859131e-01
3.233000000000000000e+03 1.525883007049560547e+01 1.094380283355712891e+01 4.658161699771881104e-01 -8.060836791992187500e-01 -1.020802482962608337e-01 4.447953701019287109e-01
3.234000000000000000e+03 3.153721237182617188e+01 3.019073486328125000e+00 6.597554683685302734e-01 1.238617539405822754e+00 5.695118904113769531e-01 -1.467865109443664551e-01
3.235000000000000000e+03 3.121899795532226562e+01 1.990681886672973633e+00 5.028674602508544922e-01 1.050325393676757812e+00 4.659578502178192139e-01 -5.538200959563255310e-02
3.236000000000000000e+03 1.861261749267578125e+01 1.408428955078125000e+01 6.801699399948120117e-01 -4.305948317050933838e-01 7.487253844738006592e-02 1.119237765669822693e-01
3.237000000000000000e+03 2.932128906250000000e+01 5.802461147308349609e+00 8.371381163597106934e-01 8.136524558067321777e-01 4.952371716499328613e-01 -1.710361540317535400e-01
3.238000000000000000e+03 2.383762168884277344e+01 1.384006309509277344e+01 8.801754117012023926e-01 1.884426027536392212e-01 3.205853998661041260e-01 -2.163243591785430908e-01
3.239000000000000000e+03 2.064398574829101562e+01 1.076618671417236328e+01 7.253199219703674316e-01 -4.331485033035278320e-01 8.765141665935516357e-02 1.262841820716857910e-01
3.240000000000000000e+03 2.687545967102050781e+01 6.572900295257568359e+00 7.859223484992980957e-01 3.146740794181823730e-01 3.301789164543151855e-01 -7.458171993494033813e-02
3.241000000000000000e+03 2.136823463439941406e+01 1.722067832946777344e+01 7.184816002845764160e-01 8.086726814508438110e-02 2.398046553134918213e-01 -1.899725943803787231e-01
3.242000000000000000e+03 3.219092178344726562e+01 1.913802862167358398e+00 5.628857016563415527e-01 1.337870955467224121e+00 5.702270269393920898e-01 -1.217418089509010315e-01
3.243000000000000000e+03 1.732025337219238281e+01 1.995034980773925781e+01 5.070286393165588379e-01 -2.087006419897079468e-01 8.949839323759078979e-02 -4.871061816811561584e-02
3.244000000000000000e+03 1.566973018646240234e+01 1.778115081787109375e+01 5.066981911659240723e-01 -4.789170622825622559e-01 8.334332145750522614e-03 1.153301373124122620e-01
3.245000000000000000e+03 1.825787925720214844e+01 2.089134979248046875e+01 4.974672794342041016e-01 -7.274644076824188232e-02 1.274162530899047852e-01 -1.183674111962318420e-01
3.246000000000000000e+03 2.842388534545898438e+01 9.159803390502929688e+00 1.032095909118652344e+00 7.606798410415649414e-01 5.378327369689941406e-01 -2.918449044227600098e-01
3.247000000000000000e+03 2.754411697387695312e+01 7.914956092834472656e+00 9.264392852783203125e-01 5.154623389244079590e-01 4.325704872608184814e-01 -1.836061924695968628e-01
3.248000000000000000e+03 2.347689056396484375e+01 1.019297981262207031e+01 8.448839783668518066e-01 -9.551288187503814697e-02 2.248113155364990234e-01 -3.997241705656051636e-02
3.249000000000000000e+03 2.578447723388671875e+01 1.617602920532226562e+01 9.059581160545349121e-01 6.540142297744750977e-01 4.679916799068450928e-01 -4.165521860122680664e-01
3.250000000000000000e+03 2.587001609802246094e+01 1.384608078002929688e+01 9.693366289138793945e-01 5.338324904441833496e-01 4.509507417678833008e-01 -3.546469509601593018e-01
3.251000000000000000e+03 2.910445785522460938e+01 4.862879276275634766e+00 7.494371533393859863e-01 7.334979772567749023e-01 4.448805451393127441e-01 -1.014795079827308655e-01
3.252000000000000000e+03 1.663818740844726562e+01 1.427223110198974609e+01 5.954817533493041992e-01 -5.670032501220703125e-01 8.543562144041061401e-03 2.118975967168807983e-01
3.253000000000000000e+03 2.828287124633789062e+01 2.757907676696777344e+01 8.903115242719650269e-02 1.466037750244140625e+00 4.665206968784332275e-01 -4.945391118526458740e-01
3.254000000000000000e+03 3.070929908752441406e+01 2.832819175720214844e+01 -2.756384760141372681e-02 1.806687235832214355e+00 5.337370038032531738e-01 -4.734804332256317139e-01
3.255000000000000000e+03 2.634286880493164062e+01 2.108306503295898438e+01 5.954293012619018555e-01 9.929855465888977051e-01 4.765244424343109131e-01 -5.155927538871765137e-01
3.256000000000000000e+03 2.492543792724609375e+01 1.993372154235839844e+01 6.466524600982666016e-01 7.230007052421569824e-01 4.108959436416625977e-01 -4.353998303413391113e-01
3.257000000000000000e+03 2.717554664611816406e+01 2.408341026306152344e+01 3.833476603031158447e-01 1.224986791610717773e+00 4.825003445148468018e-01 -5.387970209121704102e-01
3.258000000000000000e+03 2.277813529968261719e+01 2.291868972778320312e+01 4.594270586967468262e-01 5.256977081298828125e-01 2.955374419689178467e-01 -3.657481670379638672e-01
3.259000000000000000e+03 3.231853103637695312e+01 -1.275173872709274292e-01 3.036342263221740723e-01 1.182416439056396484e+00 4.458152055740356445e-01 -1.222509890794754028e-02
3.260000000000000000e+03 2.218536186218261719e+01 8.861958503723144531e+00 7.302525639533996582e-01 -3.666108846664428711e-01 1.090925037860870361e-01 1.111052036285400391e-01
3.261000000000000000e+03 2.584257698059082031e+01 9.055637359619140625e+00 8.950669765472412109e-01 2.199101895093917847e-01 3.344931602478027344e-01 -1.303549408912658691e-01
3.262000000000000000e+03 1.985523986816406250e+01 1.162392902374267578e+01 7.101868391036987305e-01 -4.627133905887603760e-01 7.424202561378479004e-02 1.393869519233703613e-01
3.263000000000000000e+03 3.058641815185546875e+01 3.283541917800903320e+00 6.476522088050842285e-01 1.003301501274108887e+00 4.952861368656158447e-01 -9.417099505662918091e-02
3.264000000000000000e+03 2.421016502380371094e+01 8.424106597900390625e+00 7.703574299812316895e-01 -1.329580098390579224e-01 1.912198215723037720e-01 4.156509414315223694e-03
3.265000000000000000e+03 2.758336067199707031e+01 6.091165065765380859e+00 7.823308110237121582e-01 4.225860238075256348e-01 3.614750504493713379e-01 -8.714447170495986938e-02
3.266000000000000000e+03 2.732299995422363281e+01 5.169828891754150391e+00 6.634819507598876953e-01 3.280838727951049805e-01 2.974697649478912354e-01 -1.554167829453945160e-02
3.267000000000000000e+03 1.921915626525878906e+01 1.539597511291503906e+01 6.950088143348693848e-01 -2.840707004070281982e-01 1.232814416289329529e-01 7.363825570791959763e-03
3.268000000000000000e+03 1.794404029846191406e+01 1.591300296783447266e+01 6.338626146316528320e-01 -3.747396469116210938e-01 7.773689180612564087e-02 6.537989526987075806e-02
3.269000000000000000e+03 1.760309791564941406e+01 1.453426456451416016e+01 6.326090693473815918e-01 -4.916553497314453125e-01 4.228612035512924194e-02 1.489152610301971436e-01
3.270000000000000000e+03 2.050140762329101562e+01 1.270402908325195312e+01 7.635366916656494141e-01 -3.340282738208770752e-01 1.288525164127349854e-01 5.139096453785896301e-02
3.271000000000000000e+03 2.860912513732910156e+01 4.102857112884521484e+00 6.192670464515686035e-01 5.349921584129333496e-01 3.462777733802795410e-01 -2.525819279253482819e-02
3.272000000000000000e+03 1.815885162353515625e+01 1.750510025024414062e+01 5.990988016128540039e-01 -2.607858777046203613e-01 1.014938801527023315e-01 -7.488736417144536972e-03
3.273000000000000000e+03 2.360440254211425781e+01 1.853916549682617188e+01 7.288656234741210938e-01 4.211220145225524902e-01 3.449963033199310303e-01 -3.452246487140655518e-01
3.274000000000000000e+03 1.666207313537597656e+01 1.115143394470214844e+01 5.471506118774414062e-01 -7.401493191719055176e-01 -5.789961293339729309e-02 3.631453514099121094e-01
3.275000000000000000e+03 2.213671302795410156e+01 1.422184658050537109e+01 8.189566731452941895e-01 -4.051605612039566040e-02 2.335321903228759766e-01 -1.220315620303153992e-01
3.276000000000000000e+03 2.521477890014648438e+01 7.943492412567138672e+00 7.999646067619323730e-01 3.977572917938232422e-02 2.519221007823944092e-01 -3.449767827987670898e-02
3.277000000000000000e+03 2.686236763000488281e+01 1.011412143707275391e+01 1.006792664527893066e+00 5.163737535476684570e-01 4.569499492645263672e-01 -2.594641149044036865e-01
3.278000000000000000e+03 2.668174743652343750e+01 8.239280700683593750e+00 8.998326063156127930e-01 3.764235973358154297e-01 3.828768432140350342e-01 -1.477097570896148682e-01
3.279000000000000000e+03 3.235353851318359375e+01 3.002066993713378906e+01 -1.894428879022598267e-01 2.012849569320678711e+00 5.470220446586608887e-01 -4.124184846878051758e-01
3.280000000000000000e+03 2.103387260437011719e+01 1.879253387451171875e+01 6.604398488998413086e-01 1.107467561960220337e-01 2.313559800386428833e-01 -2.156943082809448242e-01
3.281000000000000000e+03 2.398085784912109375e+01 2.492506790161132812e+01 3.334617614746093750e-01 7.977159023284912109e-01 3.393533229827880859e-01 -4.183802604675292969e-01
3.282000000000000000e+03 2.319340515136718750e+01 8.797902107238769531e+00 7.613984942436218262e-01 -2.454251050949096680e-01 1.547920107841491699e-01 4.720879346132278442e-02
3.283000000000000000e+03 2.185844230651855469e+01 1.129373931884765625e+01 7.940428853034973145e-01 -2.829934656620025635e-01 1.533148288726806641e-01 2.754551172256469727e-02
3.284000000000000000e+03 2.273844337463378906e+01 1.304363346099853516e+01 8.669978380203247070e-01 -3.305289894342422485e-02 2.501834928989410400e-01 -1.192908957600593567e-01
3.285000000000000000e+03 2.474541473388671875e+01 1.734040451049804688e+01 8.236160278320312500e-01 5.420129895210266113e-01 4.096887111663818359e-01 -3.898926973342895508e-01
3.286000000000000000e+03 2.301922225952148438e+01 1.489038848876953125e+01 8.389121890068054199e-01 1.313272416591644287e-01 2.910718321800231934e-01 -1.979323923587799072e-01
3.287000000000000000e+03 2.103294754028320312e+01 1.579395484924316406e+01 7.649891376495361328e-01 -5.893688648939132690e-02 2.118156701326370239e-01 -1.163307279348373413e-01
3.288000000000000000e+03 1.722900199890136719e+01 1.354725551605224609e+01 6.267369389533996582e-01 -5.802893638610839844e-01 1.393426861613988876e-02 2.147623151540756226e-01
3.289000000000000000e+03 2.479220199584960938e+01 9.858878135681152344e+00 8.874849081039428711e-01 7.849141210317611694e-02 2.897928953170776367e-01 -1.053363382816314697e-01
3.290000000000000000e+03 2.482848930358886719e+01 1.496228885650634766e+01 8.995309472084045410e-01 4.128309488296508789e-01 3.937085866928100586e-01 -3.198181986808776855e-01
3.291000000000000000e+03 2.393314933776855469e+01 2.146409988403320312e+01 5.524900555610656738e-01 6.307979226112365723e-01 3.549863994121551514e-01 -3.970702886581420898e-01
3.292000000000000000e+03 1.904331970214843750e+01 1.947646713256835938e+01 5.786799192428588867e-01 -7.524174451828002930e-02 1.510314494371414185e-01 -1.205738782882690430e-01
3.293000000000000000e+03 2.265819931030273438e+01 1.694714164733886719e+01 7.639343738555908203e-01 1.996812224388122559e-01 2.890846729278564453e-01 -2.457464933395385742e-01
3.294000000000000000e+03 2.149078750610351562e+01 2.386547470092773438e+01 4.148804247379302979e-01 4.338156580924987793e-01 2.546088099479675293e-01 -3.220253586769104004e-01
3.295000000000000000e+03 2.064620018005371094e+01 2.260596275329589844e+01 4.491179883480072021e-01 2.676623165607452393e-01 2.150340974330902100e-01 -2.606223821640014648e-01
3.296000000000000000e+03 2.157659721374511719e+01 2.140542602539062500e+01 5.304222106933593750e-01 3.072722554206848145e-01 2.513083517551422119e-01 -2.876241803169250488e-01
3.297000000000000000e+03 2.028499984741210938e+01 1.456846904754638672e+01 7.610597014427185059e-01 -2.124090492725372314e-01 1.645952016115188599e-01 -3.439432382583618164e-02
3.298000000000000000e+03 2.331573486328125000e+01 1.170545673370361328e+01 8.855302333831787109e-01 -2.772822417318820953e-02 2.573406100273132324e-01 -1.041395664215087891e-01
3.299000000000000000e+03 2.380070686340332031e+01 1.604774093627929688e+01 8.401816487312316895e-01 3.180645406246185303e-01 3.474738597869873047e-01 -2.846182584762573242e-01
3.300000000000000000e+03 2.253361320495605469e+01 1.994286155700683594e+01 6.286016702651977539e-01 3.529110550880432129e-01 2.944538295269012451e-01 -3.136879503726959229e-01
3.301000000000000000e+03 2.012942695617675781e+01 1.661601066589355469e+01 6.942831873893737793e-01 -1.269653737545013428e-01 1.701953560113906860e-01 -8.828414976596832275e-02
3.302000000000000000e+03 2.028740692138671875e+01 2.029733467102050781e+01 5.698657035827636719e-01 1.056434363126754761e-01 2.026527374982833862e-01 -2.094048857688903809e-01
3.303000000000000000e+03 1.955791664123535156e+01 1.342277336120605469e+01 7.208934426307678223e-01 -3.884180784225463867e-01 9.974259883165359497e-02 8.007397502660751343e-02
3.304000000000000000e+03 1.955009269714355469e+01 1.797059059143066406e+01 6.370643973350524902e-01 -1.151773780584335327e-01 1.565660983324050903e-01 -9.659096598625183105e-02
3.305000000000000000e+03 1.820639419555664062e+01 2.512304306030273438e+01 2.973239719867706299e-01 8.290760219097137451e-02 1.140694767236709595e-01 -1.893003135919570923e-01
3.306000000000000000e+03 2.011988639831542969e+01 2.392647171020507812e+01 3.901218771934509277e-01 2.805645465850830078e-01 2.012059241533279419e-01 -2.559283673763275146e-01
3.307000000000000000e+03 2.115673446655273438e+01 1.366712474822998047e+01 8.017323613166809082e-01 -1.690787971019744873e-01 1.897960603237152100e-01 -5.507073923945426941e-02
3.308000000000000000e+03 2.437048912048339844e+01 2.993571281433105469e+01 2.840369939804077148e-02 9.729566574096679688e-01 3.004080951213836670e-01 -3.722685575485229492e-01
3.309000000000000000e+03 1.992353630065917969e+01 2.570353889465332031e+01 2.790212929248809814e-01 3.044850528240203857e-01 1.750519126653671265e-01 -2.483945339918136597e-01
3.310000000000000000e+03 1.764052772521972656e+01 2.671060371398925781e+01 2.128790169954299927e-01 9.794619679450988770e-02 9.324756264686584473e-02 -1.831847131252288818e-01
3.311000000000000000e+03 2.209376716613769531e+01 1.544501590728759766e+01 8.017294406890869141e-01 2.076790668070316315e-02 2.467491924762725830e-01 -1.553573012351989746e-01
3.312000000000000000e+03 2.354181289672851562e+01 3.376493453979492188e+01 -1.513511687517166138e-01 9.380434751510620117e-01 2.360077053308486938e-01 -2.537744641304016113e-01
3.313000000000000000e+03 2.012052154541015625e+01 3.368244552612304688e+01 -6.796124577522277832e-02 5.521554946899414062e-01 1.452582776546478271e-01 -2.183401286602020264e-01
3.314000000000000000e+03 1.924861526489257812e+01 2.773764228820800781e+01 1.785328239202499390e-01 2.692353427410125732e-01 1.343304514884948730e-01 -2.323302626609802246e-01
3.315000000000000000e+03 3.017366600036621094e+01 3.078741073608398438e+01 -1.863784790039062500e-01 1.709573268890380859e+00 4.569584429264068604e-01 -4.044601619243621826e-01
3.316000000000000000e+03 1.958186340332031250e+01 3.120081520080566406e+01 3.773726150393486023e-02 4.668911099433898926e-01 1.513885110616683960e-01 -2.427061498165130615e-01
3.317000000000000000e+03 1.629348373413085938e+01 2.809746551513671875e+01 1.587783694267272949e-01 -1.173888240009546280e-02 4.411184787750244141e-02 -1.373561173677444458e-01
3.318000000000000000e+03 4.513885498046875000e+01 -3.613688659667968750e+01 1.228825077414512634e-01 1.278313159942626953e+00 4.203586876392364502e-01 5.729497671127319336e-01
3.319000000000000000e+03 7.236946105957031250e+01 4.119244384765625000e+01 8.695261925458908081e-02 5.876368522644042969e+00 1.788996338844299316e+00 -1.302266307175159454e-02
3.320000000000000000e+03 3.068319129943847656e+01 3.368798065185546875e+01 -3.470773100852966309e-01 1.783545136451721191e+00 4.309403300285339355e-01 -3.228985369205474854e-01
3.321000000000000000e+03 1.886366462707519531e+01 3.706068038940429688e+01 -1.352512538433074951e-01 4.312607944011688232e-01 8.880286663770675659e-02 -1.254519522190093994e-01
3.322000000000000000e+03 2.722434997558593750e+01 3.398389434814453125e+01 -2.700535655021667480e-01 1.400426983833312988e+00 3.391120433807373047e-01 -2.980077564716339111e-01
3.323000000000000000e+03 4.824941635131835938e+01 -4.114751815795898438e+01 -4.667600393295288086e-01 2.644558429718017578e+00 6.533395648002624512e-01 2.156160920858383179e-01
3.324000000000000000e+03 2.307812309265136719e+01 3.743595504760742188e+01 -2.579450011253356934e-01 9.398797154426574707e-01 2.045804113149642944e-01 -1.414457410573959351e-01
3.325000000000000000e+03 1.674056434631347656e+01 2.538355827331542969e+01 2.737887799739837646e-01 -5.573342740535736084e-02 6.541660428047180176e-02 -1.333390921354293823e-01
3.326000000000000000e+03 2.737995910644531250e+01 3.744155883789062500e+01 -3.919944763183593750e-01 1.427685260772705078e+00 3.107072412967681885e-01 -1.794359833002090454e-01
3.327000000000000000e+03 3.177655601501464844e+01 3.699752807617187500e+01 -5.462414622306823730e-01 1.873981952667236328e+00 3.983221352100372314e-01 -1.942087411880493164e-01
3.328000000000000000e+03 4.501532745361328125e+01 -3.981207656860351562e+01 -1.171313319355249405e-02 1.505532026290893555e+00 4.481456875801086426e-01 2.612749934196472168e-01
3.329000000000000000e+03 4.198976898193359375e+01 -4.130586242675781250e+01 2.065383940935134888e-01 7.514822483062744141e-01 2.874062061309814453e-01 1.037101820111274719e-01
3.330000000000000000e+03 2.192674446105957031e+01 -1.262720870971679688e+01 2.026594884227961302e-04 3.149447729811072350e-05 7.024619117146357894e-05 1.175914730993099511e-04
3.331000000000000000e+03 9.211270332336425781e+00 -1.932561278343200684e+00 6.827161269029602408e-05 2.231833932455629110e-04 8.743650687392801046e-05 7.020724297035485506e-05
3.332000000000000000e+03 4.935070037841796875e+01 -1.829804420471191406e+01 -7.607284784317016602e-01 7.476411461830139160e-01 -3.926203586161136627e-03 -2.175003290176391602e+00
3.333000000000000000e+03 4.903034973144531250e+01 -1.791270828247070312e+01 -6.654976010322570801e-01 1.046764135360717773e+00 1.143799573183059692e-01 -2.129645109176635742e+00
3.334000000000000000e+03 4.956673431396484375e+01 -1.827509498596191406e+01 -4.465167522430419922e-01 8.671892285346984863e-01 1.262017339468002319e-01 -2.485215663909912109e+00
3.335000000000000000e+03 4.976456832885742188e+01 -1.826260375976562500e+01 -3.571318387985229492e-01 1.037630200386047363e+00 2.041495144367218018e-01 -2.782454252243041992e+00
3.336000000000000000e+03 5.016187667846679688e+01 -1.814926910400390625e+01 4.306305646896362305e-01 1.713630557060241699e+00 6.432783603668212891e-01 -3.753286600112915039e+00
3.337000000000000000e+03 5.045306396484375000e+01 -1.794158554077148438e+01 7.206066250801086426e-01 3.176510095596313477e+00 1.169134974479675293e+00 -4.913283348083496094e+00
3.338000000000000000e+03 5.158836364746093750e+01 -1.766926002502441406e+01 -8.840089440345764160e-01 9.626446723937988281e+00 2.622731447219848633e+00 -6.635752201080322266e+00
3.339000000000000000e+03 5.180825042724609375e+01 -1.742727279663085938e+01 -1.510652899742126465e+00 9.813072204589843750e+00 2.490725755691528320e+00 -5.507920265197753906e+00
3.340000000000000000e+03 5.154843139648437500e+01 -2.134055900573730469e+01 4.981531575322151184e-02 7.427486896514892578e+00 2.243190526962280273e+00 3.248563766479492188e+00
3.341000000000000000e+03 5.056610107421875000e+01 -2.147340965270996094e+01 5.625485181808471680e-01 2.781244993209838867e+00 1.003138065338134766e+00 2.054153442382812500e+00
3.342000000000000000e+03 5.037184524536132812e+01 -2.153730010986328125e+01 5.161429047584533691e-01 2.343558073043823242e+00 8.579102754592895508e-01 1.882952094078063965e+00
3.343000000000000000e+03 4.978297805786132812e+01 -2.161840248107910156e+01 2.652024328708648682e-01 1.511892080307006836e+00 5.331283807754516602e-01 1.066371798515319824e+00
3.344000000000000000e+03 7.287947082519531250e+01 -2.829089164733886719e+01 1.131248474121093750e+00 1.001825332641601562e+01 3.344850540161132812e+00 -1.542914509773254395e-01
3.345000000000000000e+03 1.558566284179687500e+01 -3.997459793090820312e+01 4.522481933236122131e-03 -4.588356241583824158e-03 -1.976233761524781585e-05 8.265397627837955952e-04
3.346000000000000000e+03 2.076976013183593750e+01 -1.339192199707031250e+01 1.246406027348712087e-04 3.922715841326862574e-04 1.550736633362248540e-04 2.403112557658459991e-05
3.347000000000000000e+03 5.005022811889648438e+01 -2.229146957397460938e+01 3.197897970676422119e-01 2.559447526931762695e+00 8.637712001800537109e-01 1.551885485649108887e+00
3.348000000000000000e+03 5.255312347412109375e+01 -1.613074874877929688e+01 -3.645202636718750000e+00 9.133008003234863281e+00 1.646341681480407715e+00 -2.958765983581542969e+00
3.349000000000000000e+03 6.820168495178222656e+00 -1.945149612426757812e+01 1.586595783010125160e-03 -2.201871247962117195e-04 4.099225916434079409e-04 -1.652870851103216410e-04
3.350000000000000000e+03 4.663927459716796875e+01 -3.460772323608398438e+01 1.518276780843734741e-01 1.849022269248962402e+00 6.002549529075622559e-01 8.164322376251220703e-01
3.351000000000000000e+03 5.054649353027343750e+01 3.442929458618164062e+01 -3.467400372028350830e-01 7.245252132415771484e-01 1.133355647325515747e-01 2.658456265926361084e-01
3.352000000000000000e+03 5.599198150634765625e+01 3.642949295043945312e+01 -7.766564488410949707e-01 -1.733827590942382812e-02 -2.381984293460845947e-01 -1.926393434405326843e-02
3.353000000000000000e+03 5.044950103759765625e+01 -2.188343429565429688e+01 4.288775920867919922e-01 3.121894121170043945e+00 1.065231561660766602e+00 2.003774404525756836e+00
3.354000000000000000e+03 5.214207839965820312e+01 -1.650634384155273438e+01 -3.079065799713134766e+00 9.268307685852050781e+00 1.856772661209106445e+00 -4.057192325592041016e+00
3.355000000000000000e+03 4.104372787475585938e+01 -3.236847686767578125e+01 -3.002448081970214844e-01 -6.302950382232666016e-01 -2.791619598865509033e-01 -2.555031180381774902e-01
3.356000000000000000e+03 2.375456571578979492e+00 3.639111518859863281e+00 -6.990813463926315308e-02 -1.098774299025535583e-01 -5.393566936254501343e-02 1.120631992816925049e-01
3.357000000000000000e+03 5.122446060180664062e+01 -2.177384567260742188e+01 9.192644059658050537e-02 5.815448760986328125e+00 1.772212624549865723e+00 2.737139225006103516e+00
3.358000000000000000e+03 5.053232955932617188e+01 -1.744024085998535156e+01 -3.661528695374727249e-03 4.400198936462402344e+00 1.318961143493652344e+00 -4.974004745483398438e+00
3.359000000000000000e+03 3.558100128173828125e+01 -1.578984642028808594e+01 -2.233924865722656250e+00 -3.879997134208679199e-01 -7.865774035453796387e-01 1.098320484161376953e+00
3.360000000000000000e+03 3.123462677001953125e+00 3.721490859985351562e+01 1.186914555728435516e-02 -1.367050647735595703e+00 -4.065544605255126953e-01 -3.923943638801574707e-02
3.361000000000000000e+03 1.452811527252197266e+01 2.947638320922851562e+01 1.156052500009536743e-01 -1.930697411298751831e-01 -2.323934808373451233e-02 -1.057298332452774048e-01
3.362000000000000000e+03 5.276353836059570312e+01 -2.213407325744628906e+01 -9.669493436813354492e-01 9.852015495300292969e+00 2.665519952774047852e+00 1.684323996305465698e-01
3.363000000000000000e+03 3.102768325805664062e+01 -3.295574569702148438e+01 -1.107865497469902039e-01 7.393614389002323151e-03 -3.101788088679313660e-02 -1.534557435661554337e-03
3.364000000000000000e+03 5.408749008178710938e+01 -2.185009384155273438e+01 7.484657764434814453e-01 8.462938308715820312e+00 2.763421058654785156e+00 -2.086903810501098633e+00
3.365000000000000000e+03 2.437748908996582031e+01 -3.589543533325195312e+01 -1.632418483495712280e-02 -9.615450166165828705e-03 -7.781890686601400375e-03 -2.001137286424636841e-02
3.366000000000000000e+03 5.550621795654296875e+01 -1.819622611999511719e+01 1.764868259429931641e+00 5.598142743110656738e-01 6.974048018455505371e-01 8.523522019386291504e-01
3.367000000000000000e+03 7.366458892822265625e+01 -3.555733871459960938e+01 -6.882377266883850098e-01 6.490514755249023438e+00 1.740683078765869141e+00 -1.624110341072082520e-01
3.368000000000000000e+03 4.393803024291992188e+01 -3.459036636352539062e+01 2.150361537933349609e-01 6.247170567512512207e-01 2.519259750843048096e-01 5.286599993705749512e-01
3.369000000000000000e+03 4.929898452758789062e+01 -1.758603286743164062e+01 -4.185989797115325928e-01 1.858742594718933105e+00 4.320430755615234375e-01 -2.758423805236816406e+00
3.370000000000000000e+03 5.049774169921875000e+01 -2.273556709289550781e+01 9.664712101221084595e-02 3.964517831802368164e+00 1.218349456787109375e+00 1.819580078125000000e+00
3.371000000000000000e+03 1.056729507446289062e+01 -3.541058349609375000e+01 3.215401200577616692e-03 -9.867827175185084343e-04 6.685855332762002945e-04 2.662521786987781525e-03
3.372000000000000000e+03 7.065874481201171875e+01 -3.347439575195312500e+01 -9.823201894760131836e-01 4.615018367767333984e+00 1.089809417724609375e+00 8.271944522857666016e-01
3.373000000000000000e+03 7.201722717285156250e+01 -3.502962112426757812e+01 -9.474661350250244141e-01 5.481273651123046875e+00 1.360142230987548828e+00 2.657735645771026611e-01
3.374000000000000000e+03 5.095996856689453125e+01 -2.308161926269531250e+01 -2.658343315124511719e-01 5.040105819702148438e+00 1.432281494140625000e+00 1.654169678688049316e+00
3.375000000000000000e+03 4.806818485260009766e+00 3.629960632324218750e+01 -4.581407178193330765e-03 -1.139904737472534180e+00 -3.433458209037780762e-01 -5.978612694889307022e-03
3.376000000000000000e+03 7.439138031005859375e+01 3.188008880615234375e+01 -3.980178236961364746e-01 7.723984241485595703e+00 2.197789907455444336e+00 5.117844343185424805e-01
3.377000000000000000e+03 7.226148986816406250e+01 -3.330870056152343750e+01 -9.853662848472595215e-01 6.292597770690917969e+00 1.592169404029846191e+00 1.630228906869888306e-01
3.378000000000000000e+03 7.624188995361328125e+01 -2.203642654418945312e+01 1.835542730987071991e-02 7.581708431243896484e+00 2.280019283294677734e+00 6.182202100753784180e-01
3.379000000000000000e+03 9.595467567443847656e+00 -3.604419231414794922e+00 -2.024262794293463230e-04 -1.880724739748984575e-04 -1.171496260212734342e-04 -6.858704728074371815e-05
3.380000000000000000e+03 4.873082351684570312e+01 -1.743116378784179688e+01 -6.168654561042785645e-01 1.334569334983825684e+00 2.153111547231674194e-01 -2.031256437301635742e+00
3.381000000000000000e+03 4.851610946655273438e+01 -1.705827522277832031e+01 -5.175856351852416992e-01 1.580223202705383301e+00 3.187912702560424805e-01 -2.008558273315429688e+00
3.382000000000000000e+03 4.988507461547851562e+01 -1.695824241638183594e+01 -2.826891839504241943e-01 3.593966484069824219e+00 9.933831691741943359e-01 -3.911256313323974609e+00
3.383000000000000000e+03 5.368214797973632812e+01 -2.243236160278320312e+01 -4.528672397136688232e-01 8.852922439575195312e+00 2.520016431808471680e+00 -1.106101512908935547e+00
3.384000000000000000e+03 4.912894058227539062e+01 -1.663504409790039062e+01 -3.126132488250732422e-01 2.828007459640502930e+00 7.546182274818420410e-01 -2.742846965789794922e+00
3.385000000000000000e+03 1.592347812652587891e+01 3.135353469848632812e+01 5.102963373064994812e-02 3.164692595601081848e-02 2.480296790599822998e-02 -1.332575678825378418e-01
3.386000000000000000e+03 7.575627899169921875e+01 -2.875350379943847656e+01 5.210304856300354004e-01 7.909078598022460938e+00 2.529032707214355469e+00 -1.074010848999023438e+00
3.387000000000000000e+03 5.064481735229492188e+01 -3.047690582275390625e+01 9.521939158439636230e-01 3.815265178680419922e+00 1.430237770080566406e+00 5.751150846481323242e-01
3.388000000000000000e+03 6.032305145263671875e+01 -1.972199630737304688e+01 7.815476059913635254e-01 5.741761326789855957e-01 4.067171216011047363e-01 1.663858890533447266e+00
3.389000000000000000e+03 4.918241119384765625e+01 -1.730440330505371094e+01 -3.956809639930725098e-01 2.068661928176879883e+00 5.018942952156066895e-01 -2.661931514739990234e+00
3.390000000000000000e+03 5.027684402465820312e+01 -2.375581169128417969e+01 -6.027083098888397217e-02 3.848194122314453125e+00 1.136376976966857910e+00 1.254575729370117188e+00
3.391000000000000000e+03 7.313305664062500000e+01 -3.239376068115234375e+01 -8.018448948860168457e-01 7.324983596801757812e+00 1.956941604614257812e+00 -3.085289299488067627e-01
3.392000000000000000e+03 4.564931869506835938e+01 -1.659325981140136719e+01 -1.115388035774230957e+00 1.097693562507629395e+00 -5.308337509632110596e-03 -2.751936614513397217e-01
3.393000000000000000e+03 7.260111999511718750e+01 3.097555160522460938e+01 -5.225869417190551758e-01 6.741463184356689453e+00 1.865662932395935059e+00 5.158027410507202148e-01
3.394000000000000000e+03 7.611356353759765625e+01 -1.922317695617675781e+01 -3.743731975555419922e-01 7.330689907073974609e+00 2.086894989013671875e+00 2.704024910926818848e-01
3.395000000000000000e+03 4.884926605224609375e+01 -1.328251647949218750e+01 6.757026910781860352e-01 4.481535911560058594e+00 1.547171592712402344e+00 -2.146816730499267578e+00
3.396000000000000000e+03 3.732481002807617188e+01 -1.191209506988525391e+01 -6.403979063034057617e-01 2.521611452102661133e-01 -1.164710372686386108e-01 4.513643980026245117e-01
3.397000000000000000e+03 4.774637603759765625e+01 -2.851094055175781250e+01 3.863053023815155029e-01 1.964940190315246582e+00 7.053736448287963867e-01 2.704603374004364014e-01
3.398000000000000000e+03 4.757625579833984375e+01 -2.735675239562988281e+01 3.538142442703247070e-01 1.740132331848144531e+00 6.281839609146118164e-01 1.529091298580169678e-01
3.399000000000000000e+03 4.913790512084960938e+01 -2.480896377563476562e+01 2.071059495210647583e-01 2.625463247299194336e+00 8.497707843780517578e-01 6.376317739486694336e-01
3.400000000000000000e+03 5.244324111938476562e+01 -2.661331176757812500e+01 -2.768640220165252686e-01 6.139170646667480469e+00 1.758692026138305664e+00 -6.011166796088218689e-02
3.401000000000000000e+03 6.749962615966796875e+01 -1.586363983154296875e+01 5.574269294738769531e-01 2.931129217147827148e+00 1.046566843986511230e+00 4.544082656502723694e-02
3.402000000000000000e+03 5.091901016235351562e+01 -2.404597663879394531e+01 -3.564326465129852295e-01 4.912483215332031250e+00 1.366815090179443359e+00 1.178134441375732422e+00
3.403000000000000000e+03 5.291835784912109375e+01 -2.362181091308593750e+01 -1.065161585807800293e+00 7.738640785217285156e+00 2.002043724060058594e+00 2.186922281980514526e-01
3.404000000000000000e+03 5.242014312744140625e+01 -2.385389900207519531e+01 -1.053355813026428223e+00 7.306583881378173828e+00 1.875968456268310547e+00 5.420984029769897461e-01
3.405000000000000000e+03 4.070491790771484375e+01 2.719382286071777344e+01 -3.534486517310142517e-02 2.815334081649780273e+00 8.339967727661132812e-01 1.466821879148483276e-01
3.406000000000000000e+03 4.988868331909179688e+01 -2.508513832092285156e+01 3.683574870228767395e-02 3.569216251373291016e+00 1.081815600395202637e+00 7.275060415267944336e-01
3.407000000000000000e+03 4.536951446533203125e+01 -1.608797454833984375e+01 -9.169968366622924805e-01 1.237128853797912598e+00 9.603961557149887085e-02 -3.086592853069305420e-01
3.408000000000000000e+03 3.420090103149414062e+01 -1.215291500091552734e+01 -1.004667758941650391e+00 1.892928220331668854e-02 -2.957215309143066406e-01 9.894259572029113770e-01
3.409000000000000000e+03 5.237000656127929688e+01 -2.323750877380371094e+01 -1.051876902580261230e+00 7.769212722778320312e+00 2.015200614929199219e+00 7.510703206062316895e-01
3.410000000000000000e+03 9.540466308593750000e+00 2.577090835571289062e+01 1.318556815385818481e-01 -7.246328592300415039e-01 -1.778331398963928223e-01 2.553655765950679779e-02
3.411000000000000000e+03 5.299805450439453125e+01 -2.299456596374511719e+01 -1.069088101387023926e+00 8.491670608520507812e+00 2.226774692535400391e+00 2.722109109163284302e-02
3.412000000000000000e+03 5.324485778808593750e+01 -2.345047187805175781e+01 -1.045478582382202148e+00 8.095730781555175781e+00 2.115075588226318359e+00 -1.007890179753303528e-01
3.413000000000000000e+03 5.327993774414062500e+01 -2.314221763610839844e+01 -1.004338026046752930e+00 8.307511329650878906e+00 2.190952062606811523e+00 -2.091754227876663208e-01
3.414000000000000000e+03 1.333476924896240234e+01 -7.500878334045410156e+00 -1.908860895127872936e-06 1.765958295436576009e-04 5.240608879830688238e-05 2.928234753198921680e-04
3.415000000000000000e+03 7.371096801757812500e+01 3.773285150527954102e+00 6.331754922866821289e-01 9.165662765502929688e+00 2.939651489257812500e+00 5.466015934944152832e-01
3.416000000000000000e+03 5.133961868286132812e+01 -2.388384437561035156e+01 -5.781539678573608398e-01 5.758594989776611328e+00 1.554132342338562012e+00 1.160053372383117676e+00
3.417000000000000000e+03 4.885655212402343750e+01 -2.689064979553222656e+01 3.519986867904663086e-01 2.688293457031250000e+00 9.120876193046569824e-01 3.257239162921905518e-01
3.418000000000000000e+03 4.932440567016601562e+01 -2.597206497192382812e+01 1.933557987213134766e-01 3.065917491912841797e+00 9.777820110321044922e-01 4.853812456130981445e-01
3.419000000000000000e+03 4.300243759155273438e+01 -6.873279571533203125e+00 6.974186897277832031e-01 2.795485258102416992e+00 1.047871112823486328e+00 -1.457222700119018555e+00
3.420000000000000000e+03 5.075418090820312500e+01 -2.468571090698242188e+01 -2.755039334297180176e-01 4.649093627929687500e+00 1.312076926231384277e+00 9.054152965545654297e-01
3.421000000000000000e+03 5.061927032470703125e+01 -2.544198226928710938e+01 -1.373430490493774414e-01 4.423890113830566406e+00 1.285964131355285645e+00 6.249046921730041504e-01
3.422000000000000000e+03 3.800972747802734375e+01 -1.105105876922607422e+01 -3.706654906272888184e-01 5.643201470375061035e-01 5.809639021754264832e-02 2.019597738981246948e-01
3.423000000000000000e+03 4.457066726684570312e+01 -1.525100231170654297e+01 -8.114811182022094727e-01 1.292963147163391113e+00 1.444446146488189697e-01 -2.910376489162445068e-01
3.424000000000000000e+03 4.450597381591796875e+01 -1.601303100585937500e+01 -1.124789476394653320e+00 1.099289417266845703e+00 -7.650002837181091309e-03 -1.049658656120300293e-01
3.425000000000000000e+03 5.006135177612304688e+01 -2.608296585083007812e+01 5.676135048270225525e-02 3.792686223983764648e+00 1.154834270477294922e+00 5.012913346290588379e-01
3.426000000000000000e+03 5.635822772979736328e+00 5.612877845764160156e+00 -1.645696759223937988e-01 -3.975587487220764160e-01 -1.686385273933410645e-01 4.710820317268371582e-01
3.427000000000000000e+03 4.393999862670898438e+01 -1.614575576782226562e+01 -1.329131603240966797e+00 1.065474390983581543e+00 -7.909714430570602417e-02 2.129384502768516541e-02
3.428000000000000000e+03 6.475124835968017578e+00 6.244477748870849609e+00 -1.314027756452560425e-01 -5.001372098922729492e-01 -1.894619911909103394e-01 5.524171590805053711e-01
3.429000000000000000e+03 6.296201705932617188e+00 5.559201240539550781e+00 -1.713302880525588989e-01 -4.334230720996856689e-01 -1.814260035753250122e-01 5.155726671218872070e-01
3.430000000000000000e+03 9.338674545288085938e+00 -4.940359592437744141e+00 -3.871192748192697763e-04 -2.049927752523217350e-05 -1.222855644300580025e-04 1.378541055601090193e-04
3.431000000000000000e+03 5.146000289916992188e+01 -2.477464294433593750e+01 -5.757520198822021484e-01 5.671903133392333984e+00 1.528845310211181641e+00 7.520473599433898926e-01
3.432000000000000000e+03 1.850862312316894531e+01 2.719666481018066406e+00 -2.505218386650085449e-01 -1.192762613296508789e+00 -4.329853355884552002e-01 7.418705224990844727e-01
3.433000000000000000e+03 9.103581428527832031e+00 -5.496427059173583984e+00 6.299552042037248611e-04 6.083159678382799029e-05 2.072360366582870483e-04 -1.860130432760342956e-04
3.434000000000000000e+03 4.963731002807617188e+01 -2.641754531860351562e+01 2.064112722873687744e-01 3.403075695037841797e+00 1.082846045494079590e+00 4.237250983715057373e-01
3.435000000000000000e+03 1.944134330749511719e+01 2.175709152221679688e+01 4.819876551628112793e-01 8.736667782068252563e-02 1.708063036203384399e-01 -1.892460286617279053e-01
3.436000000000000000e+03 4.931274032592773438e+01 -2.708948326110839844e+01 3.159464597702026367e-01 3.089095115661621094e+00 1.021512508392333984e+00 3.173226714134216309e-01
3.437000000000000000e+03 4.419475555419921875e+01 -1.481077289581298828e+01 -6.437186002731323242e-01 1.365169286727905273e+00 2.164352238178253174e-01 -3.716540932655334473e-01
3.438000000000000000e+03 8.749491691589355469e+00 -6.141923904418945312e+00 -6.280997768044471741e-04 -1.008232793537899852e-04 -2.186769270338118076e-04 9.212602162733674049e-05
3.439000000000000000e+03 9.308183670043945312e+00 1.354160785675048828e+01 2.406666129827499390e-01 -8.266139030456542969e-01 -1.757841855287551880e-01 4.582400023937225342e-01
3.440000000000000000e+03 1.685325431823730469e+01 1.758005332946777344e+01 5.563039779663085938e-01 -3.920170366764068604e-01 4.928608611226081848e-02 6.689111143350601196e-02
3.441000000000000000e+03 3.060404586791992188e+01 7.869099617004394531e+00 1.091150879859924316e+00 1.259282469749450684e+00 7.051299810409545898e-01 -3.401733040809631348e-01
3.442000000000000000e+03 2.777795028686523438e+01 1.604188156127929688e+01 9.554904103279113770e-01 1.051637768745422363e+00 6.021384596824645996e-01 -5.399299860000610352e-01
3.443000000000000000e+03 3.730422210693359375e+01 -7.365277767181396484e+00 4.811524227261543274e-02 1.200979471206665039e+00 3.747284412384033203e-01 -8.539207279682159424e-02
3.444000000000000000e+03 1.753640556335449219e+01 4.225621223449707031e+00 -4.562589526176452637e-02 -1.128482460975646973e+00 -3.522325158119201660e-01 6.971654891967773438e-01
3.445000000000000000e+03 1.690708923339843750e+01 4.566487789154052734e+00 -3.051920980215072632e-02 -1.123547434806823730e+00 -3.462200164794921875e-01 7.122746109962463379e-01
3.446000000000000000e+03 1.788335800170898438e+01 4.953634738922119141e+00 9.625366330146789551e-02 -1.063845634460449219e+00 -2.902775704860687256e-01 6.237990260124206543e-01
3.447000000000000000e+03 6.873244285583496094e+00 1.996938896179199219e+01 1.348714828491210938e-01 -9.482308030128479004e-01 -2.440077960491180420e-01 1.935942471027374268e-01
3.448000000000000000e+03 8.374340057373046875e+00 1.538366699218750000e+01 2.057781517505645752e-01 -8.476015925407409668e-01 -1.925470232963562012e-01 3.818025887012481689e-01
3.449000000000000000e+03 3.705667495727539062e+01 -6.568620681762695312e+00 9.026537090539932251e-02 1.292541146278381348e+00 4.148419499397277832e-01 -1.162671819329261780e-01
3.450000000000000000e+03 3.641704940795898438e+01 -6.733112812042236328e+00 1.178565248847007751e-02 1.144541740417480469e+00 3.468982279300689697e-01 1.186169497668743134e-02
3.451000000000000000e+03 3.199565315246582031e+01 -4.502662181854248047e+00 -2.442967593669891357e-01 6.674098372459411621e-01 1.269339174032211304e-01 4.119385480880737305e-01
3.452000000000000000e+03 1.071767139434814453e+01 1.462819004058837891e+01 3.183175623416900635e-01 -7.952123284339904785e-01 -1.430684328079223633e-01 3.970792591571807861e-01
3.453000000000000000e+03 1.465565490722656250e+01 1.663312530517578125e+01 4.808902442455291748e-01 -5.844571590423583984e-01 -3.107007779181003571e-02 2.013660967350006104e-01
3.454000000000000000e+03 1.510616493225097656e+01 1.425706672668457031e+01 5.193670988082885742e-01 -6.700068116188049316e-01 -4.519190266728401184e-02 2.942262291908264160e-01
3.455000000000000000e+03 2.156962203979492188e+01 1.255004882812500000e+01 8.170890808105468750e-01 -2.164484411478042603e-01 1.801921874284744263e-01 -2.090714313089847565e-02
3.456000000000000000e+03 3.580736160278320312e+01 -6.630363941192626953e+00 -4.417424649000167847e-02 1.078523993492126465e+00 3.103049099445343018e-01 1.073586717247962952e-01
3.457000000000000000e+03 3.572109222412109375e+01 -5.550780296325683594e+00 3.522884845733642578e-02 1.265261411666870117e+00 3.901470899581909180e-01 1.299149356782436371e-02
3.458000000000000000e+03 2.759164619445800781e+01 6.953242301940917969e+00 8.610572218894958496e-01 4.757811427116394043e-01 4.010514914989471436e-01 -1.439467817544937134e-01
3.459000000000000000e+03 2.851177024841308594e+01 6.920694351196289062e+00 9.118936061859130859e-01 6.716185212135314941e-01 4.750536382198333740e-01 -1.877226829528808594e-01
3.460000000000000000e+03 3.672144699096679688e+01 -5.902100086212158203e+00 9.259635210037231445e-02 1.358762621879577637e+00 4.354076981544494629e-01 -1.259614080190658569e-01
3.461000000000000000e+03 3.586070632934570312e+01 -5.007191300392150879e-01 4.906753301620483398e-01 2.112361431121826172e+00 7.809110283851623535e-01 -4.052498936653137207e-01
3.462000000000000000e+03 1.890744018554687500e+01 1.234229183197021484e+01 6.801093816757202148e-01 -5.173000097274780273e-01 4.884281381964683533e-02 1.723764687776565552e-01
3.463000000000000000e+03 3.601815795898437500e+01 -3.559291124343872070e+00 2.345547974109649658e-01 1.686721086502075195e+00 5.763827562332153320e-01 -2.388484477996826172e-01
3.464000000000000000e+03 2.827245521545410156e+01 4.963655471801757812e+00 6.896421313285827637e-01 4.800891578197479248e-01 3.509193956851959229e-01 -6.387224048376083374e-02
3.465000000000000000e+03 2.839475822448730469e+01 2.516957044601440430e+00 4.099685549736022949e-01 4.160951375961303711e-01 2.478191107511520386e-01 8.383931219577789307e-02
3.466000000000000000e+03 3.300440979003906250e+01 -6.130746006965637207e-01 2.907505035400390625e-01 1.323115587234497070e+00 4.841598272323608398e-01 -4.226659238338470459e-02
3.467000000000000000e+03 1.605741500854492188e+01 -3.611289262771606445e+00 -1.212642382597550750e-04 -1.657374814385548234e-04 -8.610051736468449235e-05 -1.299820723943412304e-04
3.468000000000000000e+03 1.562254238128662109e+01 -4.210125446319580078e+00 1.586625876370817423e-04 1.340153830824419856e-04 8.780338976066559553e-05 1.159806488431058824e-04
3.469000000000000000e+03 1.505074691772460938e+01 -3.785051584243774414e+00 -1.631765335332602262e-04 -1.386084768455475569e-04 -9.053550456883385777e-05 -1.092981474357657135e-04
3.470000000000000000e+03 1.676181221008300781e+01 -5.065579891204833984e+00 1.552347093820571899e-04 1.401326735503971577e-04 8.861022070050239563e-05 1.123486581491306424e-04
3.471000000000000000e+03 1.619318008422851562e+01 -4.636556148529052734e+00 -1.559439406264573336e-04 -1.335401757387444377e-04 -8.684523345436900854e-05 -1.170691248262301087e-04
3.472000000000000000e+03 1.723610115051269531e+01 -4.496263980865478516e+00 -1.333907857770100236e-04 -1.632552448427304626e-04 -8.899380918592214584e-05 -1.331829698756337166e-04
3.473000000000000000e+03 1.546591091156005859e+01 -3.171455383300781250e+00 1.124691334553062916e-04 1.683218870311975479e-04 8.423730469075962901e-05 1.174905337393283844e-04
3.474000000000000000e+03 1.664776039123535156e+01 -4.052479743957519531e+00 1.274050300708040595e-04 1.686975447228178382e-04 8.883077680366113782e-05 1.338841102551668882e-04
3.475000000000000000e+03 1.831977081298828125e+01 -5.492505550384521484e+00 -1.430704869562759995e-04 -1.390194374835118651e-04 -8.462697587674483657e-05 -1.238583208760246634e-04
3.476000000000000000e+03 1.780974006652832031e+01 -6.028855800628662109e+00 1.550031884107738733e-04 1.251779467565938830e-04 8.405433618463575840e-05 9.795679943636059761e-05
3.477000000000000000e+03 1.730055999755859375e+01 -5.529824733734130859e+00 -1.551426685182377696e-04 -1.372093247482553124e-04 -8.770560089033097029e-05 -1.038276823237538338e-04
3.478000000000000000e+03 1.831691551208496094e+01 -6.530111789703369141e+00 -1.637142559047788382e-04 -1.082744493032805622e-04 -8.159661229001358151e-05 -9.217296610586345196e-05
3.479000000000000000e+03 1.882190132141113281e+01 -7.033396244049072266e+00 1.668514159973710775e-04 9.787618182599544525e-05 7.941827789181843400e-05 9.505436901235952973e-05
3.480000000000000000e+03 1.936644935607910156e+01 -6.531159877777099609e+00 -1.505551481386646628e-04 -1.167547525255940855e-04 -8.019297092687338591e-05 -1.165722787845879793e-04
3.481000000000000000e+03 1.779333305358886719e+01 -4.976417064666748047e+00 1.348256919300183654e-04 1.525480329291895032e-04 8.621211600257083774e-05 1.297703420277684927e-04
3.482000000000000000e+03 1.884420585632324219e+01 -6.010818481445312500e+00 1.442833017790690064e-04 1.244986196979880333e-04 8.063457789830863476e-05 1.236624375451356173e-04
3.483000000000000000e+03 2.031454658508300781e+01 -7.659852027893066406e+00 -1.150039825006388128e-04 -9.739019878907129169e-05 -6.371825293172150850e-05 -9.809480980038642883e-05
3.484000000000000000e+03 2.077073287963867188e+01 -8.240385055541992188e+00 9.049942309502512217e-05 7.928891864139586687e-05 5.093650179333053529e-05 7.260326674440875649e-05
3.485000000000000000e+03 1.929654693603515625e+01 -7.565644741058349609e+00 -1.404650247422978282e-04 -9.677163325250148773e-05 -7.117099448805674911e-05 -1.004255391308106482e-04
3.486000000000000000e+03 2.062350273132324219e+01 -9.254287719726562500e+00 1.094428298529237509e-04 1.075577165465801954e-04 6.510016100946813822e-05 3.557104355422779918e-05
3.487000000000000000e+03 2.018299865722656250e+01 -8.690117835998535156e+00 -9.358870011055842042e-05 -1.225614687427878380e-04 -6.484505138359963894e-05 -7.986358832567930222e-05
3.488000000000000000e+03 1.974063491821289062e+01 -8.127175331115722656e+00 1.159744570031762123e-04 1.061262519215233624e-04 6.663021486019715667e-05 9.925237827701494098e-05
3.489000000000000000e+03 2.122505760192871094e+01 -8.822144508361816406e+00 -8.130954665830358863e-05 -5.562730802921578288e-05 -4.108105713385157287e-05 -4.734874164569191635e-05
3.490000000000000000e+03 1.985663604736328125e+01 -7.080731868743896484e+00 1.385016657877713442e-04 1.032198124448768795e-04 7.251644274219870567e-05 1.145886199083179235e-04
3.491000000000000000e+03 2.203341293334960938e+01 -1.005728912353515625e+01 -9.758680243976414204e-05 -2.162184682674705982e-05 -3.576259405235759914e-05 -3.928557998733595014e-05
3.492000000000000000e+03 2.140859222412109375e+01 -1.045394611358642578e+01 1.752905664034187794e-04 5.805838554806541651e-06 5.432892066892236471e-05 1.643801624595653266e-05
3.493000000000000000e+03 2.103163337707519531e+01 -9.842617988586425781e+00 -1.330823288299143314e-04 -5.541730206459760666e-05 -5.654989217873662710e-05 -1.220453395944787189e-05
3.494000000000000000e+03 2.178438568115234375e+01 -1.106581783294677734e+01 -1.818951277527958155e-04 -8.419289770245086402e-06 -5.709432298317551613e-05 -4.048272239742800593e-05
3.495000000000000000e+03 2.215780448913574219e+01 -1.167914867401123047e+01 1.717883715173229575e-04 2.812399725371506065e-05 5.997371044941246510e-05 2.894407407438848168e-05
3.496000000000000000e+03 2.280443191528320312e+01 -1.131808185577392578e+01 -1.387772790621966124e-04 -2.062671592284459621e-05 -4.782119867741130292e-05 -4.954734322382137179e-05
3.497000000000000000e+03 2.164555168151855469e+01 -9.428166389465332031e+00 8.797150076134130359e-05 3.389336416148580611e-05 3.655946056824177504e-05 3.515348726068623364e-05
3.498000000000000000e+03 2.242011070251464844e+01 -1.068695640563964844e+01 1.184003122034482658e-04 2.701794437598437071e-05 4.362547406344674528e-05 3.877540802932344377e-05
3.499000000000000000e+03 2.317674064636230469e+01 -1.199929141998291016e+01 1.349368103547021747e-04 2.580820364528335631e-05 4.822350456379354000e-05 4.878752588410861790e-05
3.500000000000000000e+03 2.284523010253906250e+01 -1.300796508789062500e+01 1.168365779449231923e-04 6.007090632920153439e-06 3.685310002765618265e-05 5.639584196615032852e-05
3.501000000000000000e+03 2.406083297729492188e+01 -1.497063064575195312e+01 -3.680068402900360525e-05 1.191192723126732744e-06 -1.068284745997516438e-05 -5.817174155708926264e-07
3.502000000000000000e+03 2.462505912780761719e+01 -1.485978507995605469e+01 6.412130460375919938e-05 -1.368434141113539226e-06 1.882586184365209192e-05 -1.156977759819710627e-05
3.503000000000000000e+03 2.389264106750488281e+01 -1.346117115020751953e+01 6.736392970196902752e-05 3.334633220219984651e-05 3.021307929884642363e-05 3.572215791791677475e-05
3.504000000000000000e+03 2.353559875488281250e+01 -1.273112678527832031e+01 -1.086785196093842387e-04 -1.985472226806450635e-05 -3.855997420032508671e-05 -5.618852082989178598e-05
3.505000000000000000e+03 2.488323020935058594e+01 -1.545215702056884766e+01 -2.403993858024477959e-05 -4.984639758731645998e-07 -7.361520601989468560e-06 4.103156697965459898e-06
3.506000000000000000e+03 2.424729537963867188e+01 -1.417472362518310547e+01 -6.196495814947411418e-05 -2.724891419347841293e-05 -2.676416079339105636e-05 4.059711045556468889e-06
3.507000000000000000e+03 2.350594520568847656e+01 -1.435108280181884766e+01 7.837337034288793802e-05 9.333487832918763161e-05 5.151247387402690947e-05 3.932990694011095911e-06
3.508000000000000000e+03 2.317678260803222656e+01 -1.368776988983154297e+01 -9.186332317767664790e-05 -5.040978066972456872e-05 -4.268193151801824570e-05 -6.132385897217318416e-05
3.509000000000000000e+03 2.251189041137695312e+01 -1.232635593414306641e+01 -1.418296305928379297e-04 -5.683157723979093134e-06 -4.425383303896524012e-05 -2.919751568697392941e-05
3.510000000000000000e+03 2.456154632568359375e+01 -1.316923522949218750e+01 -4.992954432964324951e-01 -1.487753152847290039e+00 -5.961145758628845215e-01 8.696794509887695312e-01
3.511000000000000000e+03 2.482023620605468750e+01 -1.197365283966064453e+01 -8.777720332145690918e-01 -1.516451954841613770e+00 -7.182672023773193359e-01 1.226130604743957520e+00
3.512000000000000000e+03 2.650333786010742188e+01 -1.565426826477050781e+01 -6.822985410690307617e-01 -4.296823740005493164e-01 -3.335942625999450684e-01 6.628299355506896973e-01
3.513000000000000000e+03 2.385268974304199219e+01 -1.163848972320556641e+01 -7.903235554695129395e-01 -2.245472192764282227e+00 -9.107387065887451172e-01 1.269509673118591309e+00
3.514000000000000000e+03 2.484836769104003906e+01 -1.395820903778076172e+01 -4.129302501678466797e-01 -1.225728034973144531e+00 -4.915975034236907959e-01 6.856251955032348633e-01
3.515000000000000000e+03 2.532261657714843750e+01 -1.399315357208251953e+01 -5.863282084465026855e-01 -9.526031017303466797e-01 -4.616793990135192871e-01 8.387937545776367188e-01
3.516000000000000000e+03 2.568108749389648438e+01 -1.559443092346191406e+01 -2.530843615531921387e-01 -3.101634085178375244e-01 -1.689743399620056152e-01 3.393774628639221191e-01
3.517000000000000000e+03 2.449533462524414062e+01 -1.126426315307617188e+01 -1.014645099639892578e+00 -1.664333105087280273e+00 -8.036934733390808105e-01 1.306676983833312988e+00
3.518000000000000000e+03 2.516623687744140625e+01 -1.270689773559570312e+01 -7.437756061553955078e-01 -1.270621895790100098e+00 -6.043192148208618164e-01 1.086963057518005371e+00
3.519000000000000000e+03 2.556309509277343750e+01 -1.336782169342041016e+01 -7.070148587226867676e-01 -9.916051030158996582e-01 -5.095859766006469727e-01 9.877281188964843750e-01
3.520000000000000000e+03 2.595065307617187500e+01 -1.390986061096191406e+01 -7.283014059066772461e-01 -7.733396887779235840e-01 -4.504923224449157715e-01 9.669747352600097656e-01
3.521000000000000000e+03 2.620536613464355469e+01 -1.446394062042236328e+01 -6.361541152000427246e-01 -6.278066039085388184e-01 -3.791882097721099854e-01 8.882948756217956543e-01
3.522000000000000000e+03 2.637091255187988281e+01 -1.507584285736083984e+01 -6.126748919486999512e-01 -4.703828692436218262e-01 -3.249173164367675781e-01 7.679816484451293945e-01
3.523000000000000000e+03 2.638264656066894531e+01 -1.612632179260253906e+01 -5.547348260879516602e-01 -2.347757071256637573e-01 -2.368531674146652222e-01 3.547998070716857910e-01
3.524000000000000000e+03 2.419656753540039062e+01 -1.239193534851074219e+01 -5.683643221855163574e-01 -1.849605560302734375e+00 -7.253909707069396973e-01 1.051892995834350586e+00
3.525000000000000000e+03 2.512793922424316406e+01 -1.461182594299316406e+01 -2.688894867897033691e-01 -8.299344778060913086e-01 -3.296471834182739258e-01 5.024393200874328613e-01
3.526000000000000000e+03 2.566095924377441406e+01 -1.495156669616699219e+01 -3.761107623577117920e-01 -5.870574116706848145e-01 -2.889504432678222656e-01 5.937294363975524902e-01
3.527000000000000000e+03 2.577541732788085938e+01 -1.432993030548095703e+01 -5.967316627502441406e-01 -7.755198478698730469e-01 -4.116754531860351562e-01 8.694576621055603027e-01
3.528000000000000000e+03 2.269077491760253906e+01 -9.641036033630371094e+00 -1.137254595756530762e+00 -2.614711046218872070e+00 -1.125589728355407715e+00 1.716753602027893066e+00
3.529000000000000000e+03 2.348543930053710938e+01 -1.093805503845214844e+01 -9.767480492591857910e-01 -2.415572881698608398e+00 -1.017696261405944824e+00 1.481853485107421875e+00
3.530000000000000000e+03 2.229273414611816406e+01 -8.991255760192871094e+00 -1.399548768997192383e+00 -2.814949989318847656e+00 -1.264349699020385742e+00 1.894546031951904297e+00
3.531000000000000000e+03 2.308835411071777344e+01 -1.029005146026611328e+01 -1.049668908119201660e+00 -2.461586236953735352e+00 -1.053376555442810059e+00 1.594717383384704590e+00
3.532000000000000000e+03 2.413209533691406250e+01 -1.057697391510009766e+01 -1.088937520980834961e+00 -1.882418036460876465e+00 -8.914067149162292480e-01 1.370954990386962891e+00
3.533000000000000000e+03 2.290665245056152344e+01 -8.576805114746093750e+00 -1.453129410743713379e+00 -2.185606241226196289e+00 -1.091620683670043945e+00 1.657141447067260742e+00
3.534000000000000000e+03 2.331559562683105469e+01 -9.244379997253417969e+00 -1.319693803787231445e+00 -2.146453142166137695e+00 -1.039844036102294922e+00 1.634182095527648926e+00
3.535000000000000000e+03 2.372407913208007812e+01 -9.911190032958984375e+00 -1.150078415870666504e+00 -2.069858074188232422e+00 -9.659808874130249023e-01 1.516181349754333496e+00
3.536000000000000000e+03 2.091797065734863281e+01 -7.169854164123535156e+00 -1.728272199630737305e+00 -2.648533105850219727e+00 -1.313041567802429199e+00 2.122262716293334961e+00
3.537000000000000000e+03 2.044657707214355469e+01 -6.570147991180419922e+00 -2.009179830551147461e+00 -2.719877958297729492e+00 -1.418717384338378906e+00 2.231966495513916016e+00
3.538000000000000000e+03 2.138868331909179688e+01 -7.768980979919433594e+00 -1.656071662902832031e+00 -2.628086090087890625e+00 -1.285247325897216797e+00 2.065265178680419922e+00
3.539000000000000000e+03 2.185866355895996094e+01 -8.367236137390136719e+00 -1.611995100975036621e+00 -2.777480602264404297e+00 -1.316842675209045410e+00 2.031265020370483398e+00
3.540000000000000000e+03 2.246022033691406250e+01 -7.935092449188232422e+00 -1.502079844474792480e+00 -2.298814773559570312e+00 -1.140268445014953613e+00 1.700273871421813965e+00
3.541000000000000000e+03 2.100666618347167969e+01 -6.085235118865966797e+00 -1.850370764732360840e+00 -2.224603176116943359e+00 -1.222492218017578125e+00 1.841137528419494629e+00
3.542000000000000000e+03 2.149188232421875000e+01 -6.702531337738037109e+00 -1.751326084136962891e+00 -2.281945705413818359e+00 -1.209981560707092285e+00 1.895092129707336426e+00
3.543000000000000000e+03 2.197641754150390625e+01 -7.319247722625732422e+00 -1.574644327163696289e+00 -2.351840734481811523e+00 -1.177945494651794434e+00 1.833053827285766602e+00
3.544000000000000000e+03 1.885587120056152344e+01 -4.930348396301269531e+00 -2.215143203735351562e+00 -2.181076526641845703e+00 -1.318865895271301270e+00 2.176715612411499023e+00
3.545000000000000000e+03 1.831238174438476562e+01 -4.393686294555664062e+00 -2.457407951354980469e+00 -2.158767461776733398e+00 -1.384852647781372070e+00 2.193330764770507812e+00
3.546000000000000000e+03 1.939846801757812500e+01 -5.466702461242675781e+00 -2.193646430969238281e+00 -2.251049518585205078e+00 -1.333408832550048828e+00 2.198579788208007812e+00
3.547000000000000000e+03 1.994004440307617188e+01 -6.002428531646728516e+00 -2.214689254760742188e+00 -2.531574964523315430e+00 -1.423879146575927734e+00 2.266006231307983398e+00
3.548000000000000000e+03 2.048459243774414062e+01 -5.500192165374755859e+00 -1.857120513916015625e+00 -2.245550870895385742e+00 -1.230801463127136230e+00 1.844013214111328125e+00
3.549000000000000000e+03 1.880515289306640625e+01 -3.840278863906860352e+00 -2.087553977966308594e+00 -1.895703077316284180e+00 -1.194977164268493652e+00 1.784036397933959961e+00
3.550000000000000000e+03 1.936590194702148438e+01 -4.393997669219970703e+00 -2.065230607986450195e+00 -2.001479148864746094e+00 -1.220012903213500977e+00 1.910976290702819824e+00
3.551000000000000000e+03 1.992575645446777344e+01 -4.947409152984619141e+00 -1.923444271087646484e+00 -2.176454544067382812e+00 -1.229969620704650879e+00 1.933011412620544434e+00
3.552000000000000000e+03 1.695117187500000000e+01 -2.380243301391601562e+00 -2.114619493484497070e+00 -1.480552911758422852e+00 -1.078551769256591797e+00 1.666432380676269531e+00
3.553000000000000000e+03 1.651630020141601562e+01 -2.979079723358154297e+00 -2.401228189468383789e+00 -1.458625197410583496e+00 -1.157956004142761230e+00 1.849243760108947754e+00
3.554000000000000000e+03 1.590384101867675781e+01 -2.523920059204101562e+00 -2.513211965560913086e+00 -1.388750433921813965e+00 -1.170588731765747070e+00 1.778030037879943848e+00
3.555000000000000000e+03 1.712716102600097656e+01 -3.436568260192871094e+00 -2.466581583023071289e+00 -1.566974997520446777e+00 -1.210067033767700195e+00 1.943942189216613770e+00
3.556000000000000000e+03 1.758174324035644531e+01 -2.852491855621337891e+00 -2.065378665924072266e+00 -1.696849465370178223e+00 -1.128668427467346191e+00 1.768655061721801758e+00
3.557000000000000000e+03 1.773609352111816406e+01 -3.896142244338989258e+00 -2.592127799987792969e+00 -1.893618702888488770e+00 -1.345723986625671387e+00 2.107682943344116211e+00
3.558000000000000000e+03 1.821038436889648438e+01 -3.326825857162475586e+00 -2.032841444015502930e+00 -1.850640892982482910e+00 -1.165044665336608887e+00 1.745552301406860352e+00
3.559000000000000000e+03 1.631900405883789062e+01 -1.910323858261108398e+00 -2.044723272323608398e+00 -1.373978614807128906e+00 -1.025610566139221191e+00 1.513348579406738281e+00
3.560000000000000000e+03 1.460399055480957031e+01 -1.730789542198181152e+00 -2.309340476989746094e+00 -9.045593142509460449e-01 -9.641699194908142090e-01 1.427809953689575195e+00
3.561000000000000000e+03 1.394003677368164062e+01 -1.356149435043334961e+00 -2.169540405273437500e+00 -8.130572438240051270e-01 -8.947793245315551758e-01 1.311306476593017578e+00
3.562000000000000000e+03 1.327490711212158203e+01 -9.841976165771484375e-01 -2.157601594924926758e+00 -7.511861324310302734e-01 -8.726363182067871094e-01 1.204687476158142090e+00
3.563000000000000000e+03 1.429506587982177734e+01 -7.068015336990356445e-01 -1.873105645179748535e+00 -9.431696534156799316e-01 -8.448826074600219727e-01 1.262323260307312012e+00
3.564000000000000000e+03 1.497913169860839844e+01 -1.092790365219116211e+00 -1.915979266166687012e+00 -1.122966408729553223e+00 -9.116837382316589355e-01 1.401349663734436035e+00
3.565000000000000000e+03 1.526644039154052734e+01 -2.107936620712280273e+00 -2.516296386718750000e+00 -1.159985303878784180e+00 -1.102884531021118164e+00 1.619374990463256836e+00
3.566000000000000000e+03 1.566169452667236328e+01 -1.481285929679870605e+00 -1.941199302673339844e+00 -1.291773319244384766e+00 -9.698917865753173828e-01 1.443959951400756836e+00
3.567000000000000000e+03 1.360982322692871094e+01 -3.235010504722595215e-01 -1.738780260086059570e+00 -8.604312539100646973e-01 -7.797634601593017578e-01 1.123093485832214355e+00
3.568000000000000000e+03 1.136861705780029297e+01 6.672526597976684570e-01 -1.444235324859619141e+00 -5.212809443473815918e-01 -5.896548628807067871e-01 7.802142500877380371e-01
3.569000000000000000e+03 1.043688488006591797e+01 2.462611943483352661e-01 -1.688248753547668457e+00 -3.686271011829376221e-01 -6.170627474784851074e-01 6.372173428535461426e-01
3.570000000000000000e+03 1.187135696411132812e+01 -3.428127467632293701e-01 -1.824336767196655273e+00 -4.404824376106262207e-01 -6.794457435607910156e-01 8.723146915435791016e-01
3.571000000000000000e+03 1.258574008941650391e+01 -6.459255814552307129e-01 -2.053229093551635742e+00 -5.956639647483825684e-01 -7.946678996086120605e-01 1.044192910194396973e+00
3.572000000000000000e+03 1.288842964172363281e+01 2.964896708726882935e-02 -1.608268499374389648e+00 -7.808306217193603516e-01 -7.167297601699829102e-01 1.034120559692382812e+00
3.573000000000000000e+03 1.060655117034912109e+01 9.770575761795043945e-01 -1.196515321731567383e+00 -4.984192550182342529e-01 -5.084803700447082520e-01 6.402780413627624512e-01
3.574000000000000000e+03 1.212970542907714844e+01 3.511690795421600342e-01 -1.517549276351928711e+00 -6.372864842414855957e-01 -6.464506983757019043e-01 9.536066055297851562e-01
3.575000000000000000e+03 1.115460968017578125e+01 -4.513646289706230164e-02 -1.668529272079467773e+00 -3.699141144752502441e-01 -6.115329861640930176e-01 7.772914767265319824e-01
3.576000000000000000e+03 9.852642059326171875e+00 1.127630591392517090e+00 -1.037528753280639648e+00 -4.073279500007629395e-01 -4.334569871425628662e-01 6.337736248970031738e-01
3.577000000000000000e+03 8.934872627258300781e+00 3.838182985782623291e-01 -9.299096465110778809e-01 -1.770276017487049103e-02 -2.842837274074554443e-01 1.636936366558074951e-01
3.578000000000000000e+03 8.173450469970703125e+00 3.805501461029052734e-01 -6.477771997451782227e-01 -2.689841575920581818e-02 -2.024026811122894287e-01 1.140405833721160889e-01
3.579000000000000000e+03 7.412311553955078125e+00 3.753647208213806152e-01 -4.493653476238250732e-01 -9.218527004122734070e-03 -1.375751644372940063e-01 8.031672984361648560e-02
3.580000000000000000e+03 6.650998592376708984e+00 3.733136355876922607e-01 -3.013409972190856934e-01 -8.786852471530437469e-03 -9.303835779428482056e-02 6.077083572745323181e-02
3.581000000000000000e+03 5.128288269042968750e+00 3.666210770606994629e-01 -1.066630557179450989e-01 -4.873714875429868698e-03 -3.346103057265281677e-02 3.428464382886886597e-02
3.582000000000000000e+03 4.367394924163818359e+00 3.671234846115112305e-01 -4.576219618320465088e-02 -4.571633879095315933e-03 -1.510014850646257401e-02 2.393813803791999817e-02
3.583000000000000000e+03 2.846046209335327148e+00 3.605891168117523193e-01 1.838623732328414917e-02 -5.014266353100538254e-03 4.011591430753469467e-03 7.051091641187667847e-03
3.584000000000000000e+03 2.087270975112915039e+00 3.584179878234863281e-01 2.246542461216449738e-02 -2.554557751864194870e-03 5.973259918391704559e-03 -4.820122558157891035e-04
3.585000000000000000e+03 2.412721395492553711e+00 1.098417997360229492e+00 -2.179995365440845490e-02 -1.923030428588390350e-02 -1.230907719582319260e-02 1.538235042244195938e-02
3.586000000000000000e+03 1.340976357460021973e+00 3.674286305904388428e-01 1.295983046293258667e-02 -2.176235429942607880e-03 3.235078649595379829e-03 -5.625580903142690659e-03
3.587000000000000000e+03 1.683374881744384766e+00 1.107428669929504395e+00 -5.164152011275291443e-03 -1.219899579882621765e-02 -5.208944436162710190e-03 -1.328589161857962608e-03
3.588000000000000000e+03 6.602545380592346191e-01 3.962357640266418457e-01 4.844163544476032257e-03 2.158689079806208611e-03 2.100855810567736626e-03 -3.215131349861621857e-03
3.589000000000000000e+03 3.572900295257568359e-01 9.584811329841613770e-01 -5.216295248828828335e-04 8.003250695765018463e-03 2.244486473500728607e-03 -4.646584391593933105e-03
3.590000000000000000e+03 3.154548645019531250e+00 1.100589156150817871e+00 -5.015110597014427185e-02 -1.921893283724784851e-02 -2.081101201474666595e-02 3.707111999392509460e-02
3.591000000000000000e+03 3.606354475021362305e+00 3.667278885841369629e-01 -3.977916669100522995e-03 -2.719422103837132454e-03 -2.009201562032103539e-03 1.663984358310699463e-02
3.592000000000000000e+03 5.385946273803710938e+00 1.106621026992797852e+00 -2.136363536119461060e-01 -2.560508064925670624e-02 -7.177242636680603027e-02 1.148008108139038086e-01
3.593000000000000000e+03 5.889441967010498047e+00 3.716917037963867188e-01 -1.909295618534088135e-01 -5.936339497566223145e-03 -5.905976891517639160e-02 4.584028571844100952e-02
3.594000000000000000e+03 7.619125843048095703e+00 1.115364670753479004e+00 -5.628783702850341797e-01 -6.868573278188705444e-02 -1.894692331552505493e-01 2.564226686954498291e-01
3.595000000000000000e+03 8.363317489624023438e+00 1.120550155639648438e+00 -7.414650321006774902e-01 -8.126310259103775024e-02 -2.468184381723403931e-01 3.344256877899169922e-01
3.596000000000000000e+03 9.107789993286132812e+00 1.123818278312683105e+00 -9.794270396232604980e-01 -2.094821035861968994e-01 -3.566727340221405029e-01 5.071628689765930176e-01
3.597000000000000000e+03 9.696672439575195312e+00 3.876306116580963135e-01 -1.433937907218933105e+00 -2.068727910518646240e-01 -4.922432303428649902e-01 3.575458526611328125e-01
3.598000000000000000e+03 6.874760627746582031e+00 1.113313674926757812e+00 -4.194501936435699463e-01 -3.897152841091156006e-02 -1.375265121459960938e-01 1.938853114843368530e-01
3.599000000000000000e+03 6.130152225494384766e+00 1.111691713333129883e+00 -3.044044971466064453e-01 -3.490678966045379639e-02 -1.017933860421180725e-01 1.511871069669723511e-01
3.600000000000000000e+03 4.642001152038574219e+00 1.107123494148254395e+00 -1.434192955493927002e-01 -2.353678084909915924e-02 -5.008682236075401306e-02 8.683051913976669312e-02
3.601000000000000000e+03 3.897908926010131836e+00 1.106727957725524902e+00 -9.057370573282241821e-02 -2.020432054996490479e-02 -3.323340788483619690e-02 6.044833362102508545e-02
3.602000000000000000e+03 1.019601225852966309e+00 1.136235833168029785e+00 -7.471356075257062912e-04 -1.762507483363151550e-03 -7.528929272666573524e-04 -9.212113916873931885e-03
3.603000000000000000e+03 1.356510353088378906e+01 -2.044676303863525391e+00 -7.617678784299641848e-05 -1.682260335655882955e-04 -7.332085078814998269e-05 -9.800071711651980877e-05
3.604000000000000000e+03 1.321007442474365234e+01 -2.694024085998535156e+00 1.279270363738760352e-04 1.646240125410258770e-04 8.776531467447057366e-05 9.379282710142433643e-05
3.605000000000000000e+03 1.258673477172851562e+01 -2.342205762863159180e+00 -1.198063255287706852e-04 -1.879589981399476528e-04 -9.232959564542397857e-05 -9.888668137136846781e-05
3.606000000000000000e+03 1.420777034759521484e+01 -2.407426834106445312e+00 9.092997061088681221e-05 1.694031816441565752e-04 7.809994713170453906e-05 1.025779492920264602e-04
3.607000000000000000e+03 1.383262920379638672e+01 -3.045426130294799805e+00 -1.425889204256236553e-04 -1.474141608923673630e-04 -8.700092439539730549e-05 -9.752294135978445411e-05
3.608000000000000000e+03 1.445424365997314453e+01 -3.396085023880004883e+00 1.550760935060679913e-04 1.392546837450936437e-04 8.829923172015696764e-05 1.063632371369749308e-04
3.609000000000000000e+03 1.484949779510498047e+01 -2.769434452056884766e+00 -9.732468606671318412e-05 -1.670825877226889133e-04 -7.932218431960791349e-05 -1.133824625867418945e-04
3.610000000000000000e+03 1.292164993286132812e+01 -1.681509137153625488e+00 7.437420572387054563e-05 1.693851518211886287e-04 7.312780508073046803e-05 9.062064054887741804e-05
3.611000000000000000e+03 1.114702796936035156e+01 -1.674520134925842285e+00 -1.511280570412054658e-04 -1.803058548830449581e-04 -9.943017357727512717e-05 -1.206520537380129099e-04
3.612000000000000000e+03 1.155607700347900391e+01 -1.043098807334899902e+00 7.973905303515493870e-05 1.733220560709014535e-04 7.591833127662539482e-05 8.718564640730619431e-05
3.613000000000000000e+03 1.007052421569824219e+01 -1.379528045654296875e+00 1.568799780216068029e-04 1.203214196721091866e-04 8.316041930811479688e-05 6.030940130585804582e-05
3.614000000000000000e+03 1.091052532196044922e+01 -7.195191383361816406e-01 -6.376449891831725836e-05 -1.852417481131851673e-04 -7.470187119906768203e-05 -9.687202691566199064e-05
3.615000000000000000e+03 1.189208316802978516e+01 -2.005299091339111328e+00 1.047059340635314584e-04 1.692525984253734350e-04 8.218755829147994518e-05 1.074620231520384550e-04
3.616000000000000000e+03 1.224500656127929688e+01 -1.350578069686889648e+00 -6.497909635072574019e-05 -1.560580276418477297e-04 -6.631114229094237089e-05 -9.128259262070059776e-05
3.617000000000000000e+03 1.012131404876708984e+01 -8.739756941795349121e-01 -2.747334365267306566e-04 -1.490137365180999041e-04 -1.271241490030661225e-04 -1.854732836363837123e-04
3.618000000000000000e+03 1.027311420440673828e+01 -4.096257984638214111e-01 7.484615343855693936e-05 1.572449691593647003e-04 6.962733459658920765e-05 8.575219544582068920e-05
3.619000000000000000e+03 1.058933448791503906e+01 -1.247088074684143066e+00 1.793522096704691648e-04 1.479611819377169013e-04 9.819401748245581985e-05 1.824118808144703507e-04
3.620000000000000000e+03 8.909210205078125000e+00 -3.212539851665496826e-01 -2.719693875405937433e-04 1.447689573979005218e-04 -3.816013122559525073e-05 3.745011781575158238e-05
3.621000000000000000e+03 9.317807197570800781e+00 -1.205478549003601074e+00 -8.512321801390498877e-05 -2.655592979863286018e-04 -1.052047518896870315e-04 -2.112524234689772129e-04
3.622000000000000000e+03 9.460213661193847656e+00 -6.912539601325988770e-01 4.334510595072060823e-04 -5.475747093441896141e-05 1.136080754804424942e-04 2.034022763837128878e-04
3.623000000000000000e+03 8.266005516052246094e+00 -6.800254583358764648e-01 4.743328026961535215e-04 1.836681040003895760e-04 1.974002661881968379e-04 2.663243139977566898e-05
3.624000000000000000e+03 7.622209548950195312e+00 -4.054784178733825684e-01 -3.011138178408145905e-04 -2.502982388250529766e-04 -1.654236111789941788e-04 -2.374405303271487355e-04
3.625000000000000000e+03 6.825774669647216797e+00 -3.814763724803924561e-01 1.313266402576118708e-04 1.942080853041261435e-04 9.766041330294683576e-05 1.562656252644956112e-04
3.626000000000000000e+03 6.001619815826416016e+00 -3.739211261272430420e-01 -1.589180901646614075e-04 -1.610643666936084628e-04 -9.599473560228943825e-05 -1.458622573409229517e-04
3.627000000000000000e+03 5.174842834472656250e+00 -3.715220093727111816e-01 1.295806578127667308e-04 1.181419575004838407e-04 7.431678386637941003e-05 1.115499617299064994e-04
3.628000000000000000e+03 4.347759723663330078e+00 -3.725122809410095215e-01 -1.100617955671623349e-04 -7.996497151907533407e-05 -5.700803012587130070e-05 -8.044426067499443889e-05
3.629000000000000000e+03 3.520621299743652344e+00 -3.760701715946197510e-01 8.494435314787551761e-05 5.055356814409606159e-05 4.064937820658087730e-05 5.124886229168623686e-05
3.630000000000000000e+03 2.694509983062744141e+00 -3.805325925350189209e-01 -6.288745498750358820e-05 -2.621068233565893024e-05 -2.672944174264557660e-05 -3.594888403313234448e-05
3.631000000000000000e+03 1.143715500831604004e+00 -3.599454164505004883e-01 -2.209511694672983140e-05 -4.323669782024808228e-05 -1.959954533958807588e-05 1.038631216943031177e-05
3.632000000000000000e+03 4.021799862384796143e-01 -5.506002306938171387e-01 2.513988147256895900e-05 4.500912837102077901e-05 2.104470331687480211e-05 2.648394911375362426e-05
3.633000000000000000e+03 7.210693359375000000e-01 -1.099945425987243652e+00 2.784976386465132236e-04 1.417989915353246033e-05 8.780325879342854023e-05 5.916125155636109412e-05
3.634000000000000000e+03 8.506304740905761719e+00 -1.218084216117858887e+00 -1.094112813007086515e-04 4.911755677312612534e-04 1.145292844739742577e-04 8.909490134101361036e-05
3.635000000000000000e+03 7.803927898406982422e+00 -1.221213579177856445e+00 -3.000864235218614340e-04 -3.541387850418686867e-04 -1.962675596587359905e-04 1.784843880159314722e-05
3.636000000000000000e+03 7.101232528686523438e+00 -1.145478367805480957e+00 3.564074286259710789e-04 1.559494121465831995e-04 1.537070493213832378e-04 1.764732005540281534e-04
3.637000000000000000e+03 6.317089557647705078e+00 -1.121476411819458008e+00 -2.386123378528282046e-04 -1.372534607071429491e-04 -1.127597352024167776e-04 -1.855552109191194177e-04
3.638000000000000000e+03 5.505225658416748047e+00 -1.113921165466308594e+00 2.361642254982143641e-04 7.397403533104807138e-05 9.304148261435329914e-05 1.348216901533305645e-04
3.639000000000000000e+03 4.690740108489990234e+00 -1.111521959304809570e+00 -2.177487476728856564e-04 -4.905110472464002669e-05 -8.003995753824710846e-05 -1.004412843030877411e-04
3.640000000000000000e+03 3.875948190689086914e+00 -1.112512230873107910e+00 1.832844427553936839e-04 4.126800195081159472e-05 6.736573413945734501e-05 8.070940384641289711e-05
3.641000000000000000e+03 3.061101198196411133e+00 -1.116070151329040527e+00 -1.907019759528338909e-04 -3.193957309122197330e-05 -6.679246143903583288e-05 -6.841668073320761323e-05
3.642000000000000000e+03 2.247281074523925781e+00 -1.120532631874084473e+00 1.560666132718324661e-04 7.460630877176299691e-05 6.920187297509983182e-05 3.115174695267342031e-05
3.643000000000000000e+03 1.882497906684875488e+00 -3.807797729969024658e-01 6.643615051871165633e-05 1.332906776951858774e-05 2.392956594121642411e-05 1.177709236799273640e-05
3.644000000000000000e+03 9.580569267272949219e+00 -2.457754313945770264e-01 -2.146557671949267387e-04 -1.762730244081467390e-04 -1.172786360257305205e-04 3.356231900397688150e-05
3.645000000000000000e+03 1.447560310363769531e+00 -1.120779752731323242e+00 -1.227522589033469558e-04 -1.135828933911398053e-04 -7.090054714353755116e-05 -1.002603166853077710e-04
3.646000000000000000e+03 5.203111267089843750e+01 -1.953566169738769531e+01 2.166801261901855469e+01 8.835033416748046875e+00 9.150914192199707031e+00 1.239830780029296875e+01
3.647000000000000000e+03 5.203850936889648438e+01 -1.955366897583007812e+01 1.682499885559082031e+01 2.091784858703613281e+01 1.132285499572753906e+01 1.837019538879394531e+01
3.648000000000000000e+03 5.204927444458007812e+01 -1.956989097595214844e+01 1.430764484405517578e+01 3.103783416748046875e+01 1.360364341735839844e+01 1.915890884399414062e+01
3.649000000000000000e+03 5.206298828125000000e+01 -1.958370780944824219e+01 1.130316162109375000e+01 4.034814071655273438e+01 1.549539089202880859e+01 1.775168228149414062e+01
3.650000000000000000e+03 5.207913208007812500e+01 -1.959458923339843750e+01 9.617236137390136719e+00 4.838629531860351562e+01 1.740106010437011719e+01 1.423995304107666016e+01
3.651000000000000000e+03 5.209708404541015625e+01 -1.960212135314941406e+01 8.454193115234375000e+00 5.421359634399414062e+01 1.880033683776855469e+01 9.300816535949707031e+00
3.652000000000000000e+03 5.211615753173828125e+01 -1.960601234436035156e+01 9.235542297363281250e+00 5.778638076782226562e+01 2.010657691955566406e+01 3.503964185714721680e+00
3.653000000000000000e+03 5.213562774658203125e+01 -1.960611724853515625e+01 1.130389308929443359e+01 5.863154983520507812e+01 2.098063278198242188e+01 -2.416992902755737305e+00
3.654000000000000000e+03 5.215474319458007812e+01 -1.960242843627929688e+01 1.478859043121337891e+01 5.711505889892578125e+01 2.157109451293945312e+01 -7.424602508544921875e+00
3.655000000000000000e+03 5.217277526855468750e+01 -1.959509086608886719e+01 1.944907760620117188e+01 5.380535888671875000e+01 2.197633171081542969e+01 -1.106128597259521484e+01
3.656000000000000000e+03 5.218902969360351562e+01 -1.958438110351562500e+01 2.477514648437500000e+01 4.950667953491210938e+01 2.228454780578613281e+01 -1.287921142578125000e+01
3.657000000000000000e+03 5.220289611816406250e+01 -1.957071304321289062e+01 2.875343513488769531e+01 4.433469390869140625e+01 2.192643928527832031e+01 -1.317214584350585938e+01
3.658000000000000000e+03 5.221383285522460938e+01 -1.955460548400878906e+01 3.330601119995117188e+01 4.123430633544921875e+01 2.236209678649902344e+01 -1.133973598480224609e+01
3.659000000000000000e+03 5.222142410278320312e+01 -1.953667831420898438e+01 3.565330123901367188e+01 3.724501419067382812e+01 2.186949539184570312e+01 -8.732239723205566406e+00
3.660000000000000000e+03 5.222537612915039062e+01 -1.951761627197265625e+01 3.716371154785156250e+01 3.598193359375000000e+01 2.194369316101074219e+01 -5.425995349884033203e+00
3.661000000000000000e+03 5.222554779052734375e+01 -1.949814796447753906e+01 3.717810058593750000e+01 3.579141235351562500e+01 2.189085388183593750e+01 -1.954566359519958496e+00
3.662000000000000000e+03 5.222192382812500000e+01 -1.947902107238769531e+01 3.583214950561523438e+01 3.706398010253906250e+01 2.186883926391601562e+01 1.436882853507995605e+00
3.663000000000000000e+03 5.221464538574218750e+01 -1.946096420288085938e+01 3.353499221801757812e+01 3.946485900878906250e+01 2.189995384216308594e+01 3.857315540313720703e+00
3.664000000000000000e+03 5.220399093627929688e+01 -1.944467163085937500e+01 3.023841476440429688e+01 4.341880035400390625e+01 2.209716415405273438e+01 5.310528755187988281e+00
3.665000000000000000e+03 5.219036483764648438e+01 -1.943076324462890625e+01 2.618650054931640625e+01 4.718496704101562500e+01 2.201144027709960938e+01 5.460224151611328125e+00
3.666000000000000000e+03 5.217429351806640625e+01 -1.941977310180664062e+01 2.252270317077636719e+01 5.165167236328125000e+01 2.225231170654296875e+01 3.725524425506591797e+00
3.667000000000000000e+03 5.215639495849609375e+01 -1.941212272644042969e+01 1.858106422424316406e+01 5.476957321166992188e+01 2.200519180297851562e+01 6.172846555709838867e-01
3.668000000000000000e+03 5.213734436035156250e+01 -1.940810394287109375e+01 1.642269706726074219e+01 5.684708404541015625e+01 2.198093414306640625e+01 -4.029384136199951172e+00
3.669000000000000000e+03 5.211787796020507812e+01 -1.940786933898925781e+01 1.478420543670654297e+01 5.641937637329101562e+01 2.136107444763183594e+01 -9.391527175903320312e+00
3.670000000000000000e+03 5.209873962402343750e+01 -1.941143035888671875e+01 1.578315353393554688e+01 5.404098892211914062e+01 2.094724273681640625e+01 -1.478327560424804688e+01
3.671000000000000000e+03 5.208065795898437500e+01 -1.941864967346191406e+01 1.730023002624511719e+01 4.873570632934570312e+01 1.981078147888183594e+01 -1.964124488830566406e+01
3.672000000000000000e+03 5.206432723999023438e+01 -1.942924880981445312e+01 2.056344413757324219e+01 4.200387573242187500e+01 1.877019500732421875e+01 -2.277998542785644531e+01
3.673000000000000000e+03 5.205037689208984375e+01 -1.944282531738281250e+01 2.386263465881347656e+01 3.337349319458007812e+01 1.717083740234375000e+01 -2.417780113220214844e+01
3.674000000000000000e+03 5.203933334350585938e+01 -1.945885848999023438e+01 2.699899673461914062e+01 2.464512825012207031e+01 1.549323749542236328e+01 -2.331128883361816406e+01
3.675000000000000000e+03 5.203162384033203125e+01 -1.947673416137695312e+01 2.927577590942382812e+01 1.565567302703857422e+01 1.347943401336669922e+01 -2.014719390869140625e+01
3.676000000000000000e+03 5.202754211425781250e+01 -1.949576950073242188e+01 2.975595092773437500e+01 7.979851722717285156e+00 1.132074069976806641e+01 -1.516899490356445312e+01
3.677000000000000000e+03 5.202724075317382812e+01 -1.951523590087890625e+01 2.832979965209960938e+01 2.186568260192871094e+00 9.154910087585449219e+00 -4.865876197814941406e+00
