# el_label, x, y, sXX, sYY, sZZ, sXY
1.000000000000000000e+00 1.664671516418457031e+01 -4.055796146392822266e+00 2.324825487676207558e-07 1.697520019661169499e-06 5.790007548966968898e-07 8.872995636011182796e-07
2.000000000000000000e+00 1.605672454833984375e+01 -3.613803625106811523e+00 -3.163459041388705373e-07 -1.989001475521945395e-06 -6.916042138982447796e-07 -1.068523943104082718e-06
3.000000000000000000e+00 1.505074691772460938e+01 -3.785051584243774414e+00 6.521547675220062956e-07 -3.083011506532784551e-06 -7.292570103345497046e-07 -6.844884978818299714e-07
4.000000000000000000e+00 1.676145553588867188e+01 -5.066381931304931641e+00 -1.437906348655815236e-06 1.962957639989326708e-06 1.575154158217628719e-07 3.978794609338365262e-07
5.000000000000000000e+00 1.619213485717773438e+01 -4.639872550964355469e+00 1.076082753570517525e-06 -2.204725660703843459e-06 -3.385928550869721221e-07 -5.499522899299336132e-07
6.000000000000000000e+00 1.562185287475585938e+01 -4.212639808654785156e+00 -8.119582730614638422e-07 2.526324124119128101e-06 5.143097041582223028e-07 6.696329819533275440e-07
7.000000000000000000e+00 1.723574447631835938e+01 -4.497066020965576172e+00 1.222967416225628767e-08 -1.362351099487568717e-06 -4.050364168506348506e-07 -7.186204129538964480e-07
8.000000000000000000e+00 1.546591091156005859e+01 -3.171455144882202148e+00 4.271206819339568028e-07 2.427483195788227022e-06 8.563811775275098626e-07 1.163743945653550327e-06
9.000000000000000000e+00 1.831977081298828125e+01 -5.492505550384521484e+00 5.834730814058275428e-07 -7.253681815200252458e-07 -4.256853713968666852e-08 -2.241341405806451803e-07
1.000000000000000000e+01 1.780974006652832031e+01 -6.028855800628662109e+00 -2.093499006150523201e-06 1.556137817715352867e-06 -1.612083480040382710e-07 9.849414794871336198e-08
1.100000000000000000e+01 1.730055999755859375e+01 -5.529824733734130859e+00 1.644430199121416081e-06 -1.841577386585413478e-06 -5.914414202834450407e-08 -2.721028522501001135e-07
1.200000000000000000e+01 1.831691551208496094e+01 -6.530111789703369141e+00 2.620214672788279131e-06 -1.387081397297151852e-06 3.699400110690476140e-07 1.060203302927220648e-07
1.300000000000000000e+01 1.882190132141113281e+01 -7.033396244049072266e+00 -3.224453166694729589e-06 1.265767991753818933e-06 -5.876055979570082854e-07 -3.833842470157833304e-07
1.400000000000000000e+01 1.936644935607910156e+01 -6.531159877777099609e+00 1.620623493181483354e-06 -3.893037003876997915e-08 4.745079138501751004e-07 5.741986228713358287e-07
1.500000000000000000e+01 1.779333305358886719e+01 -4.976417064666748047e+00 -1.800107867211409030e-07 1.091270974029612262e-06 2.733780490871140501e-07 4.607532559930405114e-07
1.600000000000000000e+01 1.884420585632324219e+01 -6.010818481445312500e+00 -1.025983237923355773e-06 4.435568428107217187e-07 -1.747279156916192733e-07 -1.771765880675957305e-07
1.700000000000000000e+01 2.031454658508300781e+01 -7.659852027893066406e+00 2.814269237205735408e-06 6.599752850888762623e-07 1.042273424900486134e-06 1.411442212884139735e-06
1.800000000000000000e+01 2.077073287963867188e+01 -8.240385055541992188e+00 -3.211061084584798664e-06 -9.123044151237991173e-07 -1.237009655596921220e-06 -1.873549990705214441e-06
1.900000000000000000e+01 1.929654693603515625e+01 -7.565644741058349609e+00 3.636174369603395462e-06 -1.094583126359793823e-06 7.624773843417642638e-07 5.943901442151400261e-07
2.000000000000000000e+01 2.062350273132324219e+01 -9.254287719726562500e+00 -4.634866400010650977e-06 -1.317174991299907560e-07 -1.429975100109004416e-06 -1.695110768196173012e-06
2.100000000000000000e+01 2.018299865722656250e+01 -8.690117835998535156e+00 4.318837000027997419e-06 -3.723544637068698648e-07 1.183944846161466558e-06 1.323011247222893871e-06
2.200000000000000000e+01 1.974063491821289062e+01 -8.127175331115722656e+00 -3.931341780116781592e-06 7.596678983645688277e-07 -9.515021588413219433e-07 -9.919421017912100069e-07
2.300000000000000000e+01 2.122505760192871094e+01 -8.822144508361816406e+00 3.641914645413635299e-06 1.245627004209381994e-06 1.466262460780853871e-06 2.004912403208436444e-06
2.400000000000000000e+01 1.985663604736328125e+01 -7.080731868743896484e+00 -2.153538162019685842e-06 -2.794086242374760332e-07 -7.298839932445844170e-07 -1.013448013509332668e-06
2.500000000000000000e+01 2.203341293334960938e+01 -1.005728912353515625e+01 3.689157210828852840e-06 1.347002466900448781e-06 1.510847937424841803e-06 2.153687773898127489e-06
2.600000000000000000e+01 2.140859222412109375e+01 -1.045394611358642578e+01 -4.266868472768692300e-06 -8.240766078415617812e-07 -1.527283529867418110e-06 -2.232335646112915128e-06
2.700000000000000000e+01 2.103163337707519531e+01 -9.842617988586425781e+00 4.526250904746120796e-06 5.038560857428819872e-07 1.509032017565914430e-06 1.944344603543868288e-06
2.800000000000000000e+01 2.178438568115234375e+01 -1.106581783294677734e+01 3.684810508275404572e-06 1.323696892541192938e-06 1.502552208876295481e-06 2.224120862592826597e-06
2.900000000000000000e+01 2.215780448913574219e+01 -1.167914867401123047e+01 -3.106890972048859112e-06 -1.517498617431556340e-06 -1.387316842738073319e-06 -1.649218347665737383e-06
3.000000000000000000e+01 2.280443191528320312e+01 -1.131808185577392578e+01 3.218787014702684246e-06 1.108161086449399590e-06 1.298084384870890062e-06 1.631257191547774710e-06
3.100000000000000000e+01 2.164555168151855469e+01 -9.428166389465332031e+00 -3.747674554688273929e-06 -1.193872321891831234e-06 -1.482464085711399093e-06 -2.204971224273322150e-06
3.200000000000000000e+01 2.242011070251464844e+01 -1.068695640563964844e+01 -3.388055347386398353e-06 -1.203770011670712847e-06 -1.377547619085817132e-06 -2.008781393669778481e-06
3.300000000000000000e+01 2.317627334594726562e+01 -1.198854827880859375e+01 -2.922183739428874105e-06 -6.956857987461262383e-07 -1.085360850083816331e-06 -1.210778577842575032e-06
3.400000000000000000e+01 2.249586677551269531e+01 -1.228262519836425781e+01 2.882306489482289180e-06 1.184321831715351436e-06 1.219988462253240868e-06 9.177900892609613948e-07
3.500000000000000000e+01 2.472507476806640625e+01 -1.492280006408691406e+01 -1.193457364934147336e-06 -4.995154156972603232e-08 -3.730226580955786631e-07 -3.844095033400662942e-07
3.600000000000000000e+01 2.432830429077148438e+01 -1.420704555511474609e+01 1.535942374175647274e-06 3.560439836292061955e-07 5.675959187101398129e-07 4.686494605721236439e-07
3.700000000000000000e+01 2.347621726989746094e+01 -1.372449684143066406e+01 6.735000397384283133e-07 1.441030008209054358e-06 6.343590257529285736e-07 3.961754373449366540e-07
3.800000000000000000e+01 2.353110694885253906e+01 -1.271993827819824219e+01 2.512131004550610669e-06 4.059296259129041573e-07 8.754182090342510492e-07 9.408947789779631421e-07
3.900000000000000000e+01 2.444098472595214844e+01 -1.518375492095947266e+01 -4.267948483516192937e-08 3.823308247774548363e-08 -1.333920973678459632e-09 6.932148011173921986e-08
4.000000000000000000e+01 2.503612327575683594e+01 -1.553747558593750000e+01 4.332257788064453052e-07 3.554376704073547444e-08 1.406308598461691872e-07 1.360571246777908527e-07
4.100000000000000000e+01 2.393114471435546875e+01 -1.346158027648925781e+01 -1.955478637682972476e-06 -2.587076721738412743e-07 -6.642558787461894099e-07 -8.100801096588838845e-07
4.200000000000000000e+01 2.295725822448730469e+01 -1.346156215667724609e+01 3.322509201098000631e-06 -1.596746528775838669e-06 5.177288358026999049e-07 -3.907130690095073078e-07
4.300000000000000000e+01 2.310306739807128906e+01 -1.394699954986572266e+01 -1.975903842321713455e-06 -9.502505093905710964e-08 -6.212786161086114589e-07 1.005814880272737355e-07
4.400000000000000000e+01 2.333634757995605469e+01 -1.442708492279052734e+01 7.609036742906027939e-07 1.533281533738772850e-06 6.882555680931545794e-07 1.956743176378950011e-07
4.500000000000000000e+01 2.279407119750976562e+01 -1.289781570434570312e+01 -2.753787384790484793e-06 -3.260157086515391711e-07 -9.239409450856328476e-07 -2.158886900360812433e-07
4.600000000000000000e+01 2.378209495544433594e+01 -1.479918479919433594e+01 1.321318450209219009e-07 -2.100866538512491388e-07 -2.338644300436953927e-08 -2.458454559928213712e-07
4.700000000000000000e+01 2.380115509033203125e+01 -1.430604076385498047e+01 -8.123424777295440435e-07 -7.242170454446750227e-07 -4.609678398992400616e-07 2.025931422622306854e-09
4.800000000000000000e+01 2.481090354919433594e+01 -1.191462898254394531e+01 -7.737005352973937988e-01 -1.232811570167541504e+00 -6.019536256790161133e-01 1.026087999343872070e+00
4.900000000000000000e+01 2.445840454101562500e+01 -1.291014575958251953e+01 -4.572945833206176758e-01 -1.423110008239746094e+00 -5.641213655471801758e-01 8.121086955070495605e-01
5.000000000000000000e+01 2.665409660339355469e+01 -1.626477622985839844e+01 -7.078117132186889648e-01 -2.034299075603485107e-01 -2.733724713325500488e-01 3.563641607761383057e-01
5.100000000000000000e+01 2.664365005493164062e+01 -1.577785682678222656e+01 -5.310184359550476074e-01 -3.533812761306762695e-01 -2.653199136257171631e-01 5.388093590736389160e-01
5.200000000000000000e+01 2.383864784240722656e+01 -1.159224033355712891e+01 -7.107080221176147461e-01 -1.974462270736694336e+00 -8.055511116981506348e-01 1.130037784576416016e+00
5.300000000000000000e+01 2.512674713134765625e+01 -1.258413887023925781e+01 -6.422744393348693848e-01 -1.051348567008972168e+00 -5.080869197845458984e-01 9.148328304290771484e-01
5.400000000000000000e+01 2.508015632629394531e+01 -1.422547531127929688e+01 -3.424764573574066162e-01 -9.154589176177978516e-01 -3.773806095123291016e-01 5.872496962547302246e-01
5.500000000000000000e+01 2.576146316528320312e+01 -1.392042350769042969e+01 -5.261536240577697754e-01 -6.601744294166564941e-01 -3.558984100818634033e-01 7.494840621948242188e-01
5.600000000000000000e+01 2.569825172424316406e+01 -1.550395488739013672e+01 -2.526715397834777832e-01 -3.100853562355041504e-01 -1.688270717859268188e-01 3.582689464092254639e-01
5.700000000000000000e+01 2.449402427673339844e+01 -1.124528026580810547e+01 -9.014869332313537598e-01 -1.356841325759887695e+00 -6.774985194206237793e-01 1.100905895233154297e+00
5.800000000000000000e+01 2.544330024719238281e+01 -1.325331687927246094e+01 -5.804347395896911621e-01 -8.582965135574340820e-01 -4.316193759441375732e-01 8.227180242538452148e-01
5.900000000000000000e+01 2.607990264892578125e+01 -1.458190250396728516e+01 -4.931788742542266846e-01 -4.710474908351898193e-01 -2.892678976058959961e-01 6.996867656707763672e-01
6.000000000000000000e+01 2.639252471923828125e+01 -1.521985816955566406e+01 -5.167390704154968262e-01 -3.926642537117004395e-01 -2.728210091590881348e-01 6.562675237655639648e-01
6.100000000000000000e+01 2.608785629272460938e+01 -1.599215316772460938e+01 -3.993246257305145264e-01 -1.388742625713348389e-01 -1.614596694707870483e-01 3.023726642131805420e-01
6.200000000000000000e+01 2.476847457885742188e+01 -1.356884574890136719e+01 -3.894553482532501221e-01 -1.172896981239318848e+00 -4.687057137489318848e-01 6.988508701324462891e-01
6.300000000000000000e+01 2.539211463928222656e+01 -1.487647628784179688e+01 -2.884324491024017334e-01 -6.276586651802062988e-01 -2.748273313045501709e-01 4.828095138072967529e-01
6.400000000000000000e+01 2.414904594421386719e+01 -1.225111293792724609e+01 -5.270303487777709961e-01 -1.679167985916137695e+00 -6.618595123291015625e-01 9.476357102394104004e-01
6.500000000000000000e+01 2.269077491760253906e+01 -9.641036033630371094e+00 -1.059721350669860840e+00 -2.359215736389160156e+00 -1.025681138038635254e+00 1.571000337600708008e+00
6.600000000000000000e+01 2.348543930053710938e+01 -1.093805503845214844e+01 -8.774401545524597168e-01 -2.123914241790771484e+00 -9.004063606262207031e-01 1.312763929367065430e+00
6.700000000000000000e+01 2.229273414611816406e+01 -8.991255760192871094e+00 -1.330021381378173828e+00 -2.582757949829101562e+00 -1.173833847045898438e+00 1.769180893898010254e+00
6.800000000000000000e+01 2.308835411071777344e+01 -1.029005146026611328e+01 -9.572474360466003418e-01 -2.188095092773437500e+00 -9.436027407646179199e-01 1.435225486755371094e+00
6.900000000000000000e+01 2.413209533691406250e+01 -1.057697391510009766e+01 -9.854563474655151367e-01 -1.547471642494201660e+00 -7.598783969879150391e-01 1.180494785308837891e+00
7.000000000000000000e+01 2.290665245056152344e+01 -8.576805114746093750e+00 -1.420480728149414062e+00 -1.873084783554077148e+00 -9.880696535110473633e-01 1.522988319396972656e+00
7.100000000000000000e+01 2.331559562683105469e+01 -9.244379997253417969e+00 -1.257562637329101562e+00 -1.816228270530700684e+00 -9.221372604370117188e-01 1.472619295120239258e+00
7.200000000000000000e+01 2.372407913208007812e+01 -9.911190032958984375e+00 -1.070674180984497070e+00 -1.729204177856445312e+00 -8.399634957313537598e-01 1.334812402725219727e+00
7.300000000000000000e+01 2.091797065734863281e+01 -7.169854164123535156e+00 -1.750619888305664062e+00 -2.583848714828491211e+00 -1.300340533256530762e+00 2.109297513961791992e+00
7.400000000000000000e+01 2.044657707214355469e+01 -6.570147991180419922e+00 -2.078826904296875000e+00 -2.710177659988403320e+00 -1.436701416969299316e+00 2.267121791839599609e+00
7.500000000000000000e+01 2.138868331909179688e+01 -7.768980979919433594e+00 -1.641063332557678223e+00 -2.508830308914184570e+00 -1.244968175888061523e+00 2.009604454040527344e+00
7.600000000000000000e+01 2.185866355895996094e+01 -8.367236137390136719e+00 -1.564749479293823242e+00 -2.596733808517456055e+00 -1.248444914817810059e+00 1.934262275695800781e+00
7.700000000000000000e+01 2.246022033691406250e+01 -7.935092449188232422e+00 -1.503307223320007324e+00 -2.011301517486572266e+00 -1.054382681846618652e+00 1.596808433532714844e+00
7.800000000000000000e+01 2.100666618347167969e+01 -6.085235118865966797e+00 -1.967235207557678223e+00 -2.068519353866577148e+00 -1.210726380348205566e+00 1.837452054023742676e+00
7.900000000000000000e+01 2.149188232421875000e+01 -6.702531337738037109e+00 -1.824314951896667480e+00 -2.084738016128540039e+00 -1.172715902328491211e+00 1.858062386512756348e+00
8.000000000000000000e+01 2.197641754150390625e+01 -7.319247722625732422e+00 -1.609680414199829102e+00 -2.107830047607421875e+00 -1.115253090858459473e+00 1.759122252464294434e+00
8.100000000000000000e+01 1.885587120056152344e+01 -4.930348396301269531e+00 -2.431922912597656250e+00 -2.315219640731811523e+00 -1.424142837524414062e+00 2.350582599639892578e+00
8.200000000000000000e+01 1.831238174438476562e+01 -4.393686294555664062e+00 -2.749863624572753906e+00 -2.337158203125000000e+00 -1.526106476783752441e+00 2.414199352264404297e+00
8.300000000000000000e+01 1.939846801757812500e+01 -5.466702461242675781e+00 -2.362079381942749023e+00 -2.339721679687500000e+00 -1.410540342330932617e+00 2.327289104461669922e+00
8.400000000000000000e+01 1.994004440307617188e+01 -6.002428531646728516e+00 -2.338063240051269531e+00 -2.575145483016967773e+00 -1.473962545394897461e+00 2.348756551742553711e+00
8.500000000000000000e+01 2.048459243774414062e+01 -5.500192165374755859e+00 -2.012341737747192383e+00 -2.140075206756591797e+00 -1.245725035667419434e+00 1.875659584999084473e+00
8.600000000000000000e+01 1.880515289306640625e+01 -3.840278863906860352e+00 -2.372957944869995117e+00 -1.921435832977294922e+00 -1.288318037986755371e+00 1.912376165390014648e+00
8.700000000000000000e+01 1.936590194702148438e+01 -4.393997669219970703e+00 -2.308932065963745117e+00 -1.992371439933776855e+00 -1.290390968322753906e+00 2.019661903381347656e+00
8.800000000000000000e+01 1.992575645446777344e+01 -4.947409152984619141e+00 -2.117028474807739258e+00 -2.126497983932495117e+00 -1.273057937622070312e+00 2.005402565002441406e+00
8.900000000000000000e+01 1.695117187500000000e+01 -2.380243301391601562e+00 -2.504759073257446289e+00 -1.595120906829833984e+00 -1.229964017868041992e+00 1.878991246223449707e+00
9.000000000000000000e+01 1.651630020141601562e+01 -2.979079723358154297e+00 -2.827977180480957031e+00 -1.667568325996398926e+00 -1.348663687705993652e+00 2.146782159805297852e+00
9.100000000000000000e+01 1.590384101867675781e+01 -2.523920059204101562e+00 -3.007469892501831055e+00 -1.615219116210937500e+00 -1.386806726455688477e+00 2.096976518630981445e+00
9.200000000000000000e+01 1.712716102600097656e+01 -3.436568260192871094e+00 -2.858145236968994141e+00 -1.759408950805664062e+00 -1.385266304016113281e+00 2.218292236328125000e+00
9.300000000000000000e+01 1.758174324035644531e+01 -2.852491855621337891e+00 -2.413483858108520508e+00 -1.799496769905090332e+00 -1.263894200325012207e+00 1.963074088096618652e+00
9.400000000000000000e+01 1.773609352111816406e+01 -3.896142244338989258e+00 -2.952175378799438477e+00 -2.087188959121704102e+00 -1.511809349060058594e+00 2.361315727233886719e+00
9.500000000000000000e+01 1.821038436889648438e+01 -3.326825857162475586e+00 -2.345858335494995117e+00 -1.921063303947448730e+00 -1.280076503753662109e+00 1.902442693710327148e+00
9.600000000000000000e+01 1.631900405883789062e+01 -1.910323858261108398e+00 -2.454681634902954102e+00 -1.506904125213623047e+00 -1.188475728034973145e+00 1.726604104042053223e+00
9.700000000000000000e+01 1.460399055480957031e+01 -1.730789542198181152e+00 -2.845871210098266602e+00 -1.083506107330322266e+00 -1.178813219070434570e+00 1.735135197639465332e+00
9.800000000000000000e+01 1.394003677368164062e+01 -1.356149435043334961e+00 -2.710653066635131836e+00 -9.885033369064331055e-01 -1.109746932983398438e+00 1.616643786430358887e+00
9.900000000000000000e+01 1.327490711212158203e+01 -9.841976165771484375e-01 -2.733572006225585938e+00 -9.269275069236755371e-01 -1.098149776458740234e+00 1.504523515701293945e+00
1.000000000000000000e+02 1.429506587982177734e+01 -7.068015336990356445e-01 -2.329906702041625977e+00 -1.088428735733032227e+00 -1.025500655174255371e+00 1.505055069923400879e+00
1.010000000000000000e+02 1.497913169860839844e+01 -1.092790365219116211e+00 -2.354586601257324219e+00 -1.279255867004394531e+00 -1.090152740478515625e+00 1.650068759918212891e+00
1.020000000000000000e+02 1.526644039154052734e+01 -2.107936620712280273e+00 -3.056069850921630859e+00 -1.369073152542114258e+00 -1.327542901039123535e+00 1.938014984130859375e+00
1.030000000000000000e+02 1.566169452667236328e+01 -1.481285929679870605e+00 -2.359066247940063477e+00 -1.446592926979064941e+00 -1.141697764396667480e+00 1.672496795654296875e+00
1.040000000000000000e+02 1.360982322692871094e+01 -3.235010504722595215e-01 -2.186526536941528320e+00 -1.009033322334289551e+00 -9.586679935455322266e-01 1.351752042770385742e+00
1.050000000000000000e+02 1.136861705780029297e+01 6.672526597976684570e-01 -1.888984799385070801e+00 -6.359713077545166016e-01 -7.574868202209472656e-01 9.715261459350585938e-01
1.060000000000000000e+02 1.043688488006591797e+01 2.462611943483352661e-01 -2.267725467681884766e+00 -4.823402464389801025e-01 -8.250197172164916992e-01 8.346345424652099609e-01
1.070000000000000000e+02 1.187135696411132812e+01 -3.428127467632293701e-01 -2.377146720886230469e+00 -5.563733577728271484e-01 -8.800560235977172852e-01 1.117731928825378418e+00
1.080000000000000000e+02 1.258574008941650391e+01 -6.459255814552307129e-01 -2.637113571166992188e+00 -7.434622049331665039e-01 -1.014172792434692383e+00 1.320304274559020996e+00
1.090000000000000000e+02 1.288842964172363281e+01 2.964896708726882935e-02 -2.046686887741088867e+00 -9.315635561943054199e-01 -8.934751152992248535e-01 1.258906006813049316e+00
1.100000000000000000e+02 1.060655117034912109e+01 9.770575761795043945e-01 -1.579098343849182129e+00 -6.276732087135314941e-01 -6.620314717292785645e-01 7.992060184478759766e-01
1.110000000000000000e+02 1.212970542907714844e+01 3.511690795421600342e-01 -1.954839587211608887e+00 -7.680790424346923828e-01 -8.168755769729614258e-01 1.178980112075805664e+00
1.120000000000000000e+02 1.115460968017578125e+01 -4.513646289706230164e-02 -2.204312086105346680e+00 -4.722852706909179688e-01 -8.029791712760925293e-01 1.010740518569946289e+00
1.130000000000000000e+02 9.832606315612792969e+00 1.131396770477294922e+00 -1.369494915008544922e+00 -5.209904909133911133e-01 -5.671455860137939453e-01 8.075243830680847168e-01
1.140000000000000000e+02 8.916216850280761719e+00 3.932431936264038086e-01 -1.297834038734436035e+00 -2.026646956801414490e-02 -3.954301476478576660e-01 2.182974368333816528e-01
1.150000000000000000e+02 6.686530590057373047e+00 1.133687853813171387e+00 -5.567066669464111328e-01 -4.459659755229949951e-02 -1.803909838199615479e-01 2.526236772537231445e-01
1.160000000000000000e+02 7.365533351898193359e+00 3.937827348709106445e-01 -6.583471894264221191e-01 -9.042387828230857849e-03 -2.002168744802474976e-01 1.124656125903129578e-01
1.170000000000000000e+02 5.113072872161865234e+00 1.133639335632324219e+00 -2.824954688549041748e-01 -3.132681176066398621e-02 -9.414668381214141846e-02 1.525649279356002808e-01
1.180000000000000000e+02 4.263494968414306641e+00 3.934068977832794189e-01 -9.469837695360183716e-02 -5.600157659500837326e-03 -3.008956089615821838e-02 3.671836107969284058e-02
1.190000000000000000e+02 2.752517938613891602e+00 1.133095502853393555e+00 -6.372700631618499756e-02 -2.687956020236015320e-02 -2.718196995556354523e-02 4.430468007922172546e-02
1.200000000000000000e+02 3.487796306610107422e+00 3.931239545345306396e-01 -3.325251117348670959e-02 -6.759229116141796112e-03 -1.200352236628532410e-02 2.387368306517601013e-02
1.210000000000000000e+02 1.937440633773803711e+00 3.930502235889434814e-01 1.574744097888469696e-02 -4.892719909548759460e-03 3.256416413933038712e-03 1.293474575504660606e-03
1.220000000000000000e+02 2.712807416915893555e+00 3.930954933166503906e-01 2.635283628478646278e-03 -5.201039835810661316e-03 -7.697269320487976074e-04 1.175894867628812790e-02
1.230000000000000000e+02 1.179242849349975586e+00 1.132586002349853516e+00 -9.107452817261219025e-03 -9.944839403033256531e-03 -5.715687759220600128e-03 -3.535803174600005150e-03
1.240000000000000000e+02 1.162224054336547852e+00 3.925859630107879639e-01 1.171876396983861923e-02 -1.354899373836815357e-03 3.109159413725137711e-03 -4.977183882147073746e-03
1.250000000000000000e+02 3.932089805603027344e-01 1.131153583526611328e+00 -1.429803902283310890e-03 1.115515362471342087e-02 2.917604986578226089e-03 -5.211442708969116211e-03
1.260000000000000000e+02 3.875360786914825439e-01 3.911535739898681641e-01 3.391809063032269478e-03 3.069557016715407372e-03 1.938409754075109959e-03 -3.228408982977271080e-03
1.270000000000000000e+02 3.538852453231811523e+00 1.133123993873596191e+00 -1.152088046073913574e-01 -2.712616883218288422e-02 -4.270049184560775757e-02 7.667335122823715210e-02
1.280000000000000000e+02 4.325896739959716797e+00 1.133406877517700195e+00 -1.870402097702026367e-01 -3.316997364163398743e-02 -6.606305390596389771e-02 1.140340119600296021e-01
1.290000000000000000e+02 5.039324760437011719e+00 3.936392962932586670e-01 -1.833982169628143311e-01 -8.929671719670295715e-03 -5.769836530089378357e-02 5.117248743772506714e-02
1.300000000000000000e+02 6.590091228485107422e+00 3.936878144741058350e-01 -4.575706124305725098e-01 -1.493477821350097656e-02 -1.417516171932220459e-01 8.703275769948959351e-02
1.310000000000000000e+02 5.899841785430908203e+00 1.133722305297851562e+00 -4.041580259799957275e-01 -4.541260004043579102e-02 -1.348711848258972168e-01 2.007594108581542969e-01
1.320000000000000000e+02 8.140919685363769531e+00 3.937848508358001709e-01 -9.254791736602783203e-01 -3.775490075349807739e-02 -2.889702320098876953e-01 1.556896120309829712e-01
1.330000000000000000e+02 8.260050773620605469e+00 1.133784890174865723e+00 -9.794760942459106445e-01 -9.568520635366439819e-02 -3.225483894348144531e-01 4.256589114665985107e-01
1.340000000000000000e+02 9.046693801879882812e+00 1.133243203163146973e+00 -1.295826673507690430e+00 -2.555756270885467529e-01 -4.654206931591033936e-01 6.479784250259399414e-01
1.350000000000000000e+02 9.690783500671386719e+00 3.913968205451965332e-01 -1.957132220268249512e+00 -2.704759836196899414e-01 -6.682824492454528809e-01 4.703399538993835449e-01
1.360000000000000000e+02 7.473318576812744141e+00 1.133782744407653809e+00 -7.488362789154052734e-01 -8.475007116794586182e-02 -2.500759065151214600e-01 3.336751759052276611e-01
1.370000000000000000e+02 1.965805172920227051e+00 1.133050203323364258e+00 -2.938060648739337921e-02 -2.063604444265365601e-02 -1.500499527901411057e-02 1.568560674786567688e-02
1.380000000000000000e+02 5.814747810363769531e+00 3.937222361564636230e-01 -3.027452528476715088e-01 -6.027828902006149292e-03 -9.263192862272262573e-02 6.685236096382141113e-02
1.390000000000000000e+02 1.356510353088378906e+01 -2.044676303863525391e+00 -5.494389938576205168e-07 -4.056139005115255713e-06 -1.381673428113572299e-06 -1.652474907132273074e-06
1.400000000000000000e+02 1.321007442474365234e+01 -2.694024085998535156e+00 -5.417405759544635657e-07 4.498929229157511145e-06 1.187156613013939932e-06 8.920105187826266047e-07
1.410000000000000000e+02 1.258673477172851562e+01 -2.342205762863159180e+00 3.968155795064376434e-07 -5.253256858850363642e-06 -1.456932409382716287e-06 -7.327504363274783827e-07
1.420000000000000000e+02 1.420777034759521484e+01 -2.407426834106445312e+00 5.088098191663448233e-07 3.424434225962613709e-06 1.179973196485661902e-06 1.505087993791676126e-06
1.430000000000000000e+02 1.383262920379638672e+01 -3.045426130294799805e+00 6.062973625375889242e-07 -3.872687102557392791e-06 -9.799169902180437930e-07 -8.072216246546304319e-07
1.440000000000000000e+02 1.445424365997314453e+01 -3.396085023880004883e+00 -7.762867539895523805e-07 3.344750211908831261e-06 7.705390316914417781e-07 7.790006861796427984e-07
1.450000000000000000e+02 1.484949779510498047e+01 -2.769434452056884766e+00 -3.986102967701299349e-07 -2.881006821553455666e-06 -9.838851156018790789e-07 -1.335466890850511845e-06
1.460000000000000000e+02 1.292164993286132812e+01 -1.681509137153625488e+00 5.851842388437944464e-07 4.991838068235665560e-06 1.673106680755154230e-06 1.786874122444714885e-06
1.470000000000000000e+02 9.441082000732421875e+00 -3.414299964904785156e+00 -2.894915496653993614e-06 4.819283731194445863e-06 5.773104589934519026e-07 -2.584034973551752046e-06
1.480000000000000000e+02 1.160063648223876953e+01 -1.322964859008789062e+01 5.400321970228105783e-05 4.542665192275308073e-05 2.982896148751024157e-05 1.554101072542835027e-05
1.490000000000000000e+02 1.330637836456298828e+01 -1.496084403991699219e+01 -7.358595667028566822e-06 -7.033578731352463365e-05 -2.330831375729758292e-05 3.040914089069701731e-05
1.500000000000000000e+02 1.550074481964111328e+01 -1.386583518981933594e+01 3.126791909835446859e-07 2.904101529566105455e-05 8.806108780845534056e-06 -4.447551418707007542e-06
1.510000000000000000e+02 1.629590225219726562e+01 -1.362304210662841797e+01 -1.933871544679277577e-06 -2.127252082573249936e-05 -6.961917733860900626e-06 2.785729066090425476e-06
1.520000000000000000e+02 1.785103607177734375e+01 -7.018658638000488281e+00 -5.007936124457046390e-06 2.457491518725873902e-06 -7.651334499314543791e-07 -3.497792135931376833e-07
1.530000000000000000e+02 1.633724021911621094e+01 -5.615361213684082031e+00 3.449909399932948872e-06 -2.654738864293904044e-06 2.385511095326364739e-07 2.554186835368454922e-07
1.540000000000000000e+02 1.350769329071044922e+01 -3.649929046630859375e+00 -2.216444727309863083e-06 4.452504981600213796e-06 6.708180535497376695e-07 -4.763311096667166566e-07
1.550000000000000000e+02 1.109400558471679688e+01 -2.453371047973632812e+00 -1.574971861373342108e-06 6.477462648035725579e-06 1.470747292842133902e-06 -5.503755460267711896e-07
1.560000000000000000e+02 1.048732089996337891e+01 -2.221616268157958984e+00 1.097276822292769793e-06 -7.280089903360931203e-06 -1.854843958426499739e-06 6.294123977568233386e-07
1.570000000000000000e+02 3.607479572296142578e+00 -1.868381977081298828e+00 7.763906637592299376e-07 4.134256869292585179e-06 1.473194288337253965e-06 4.171542968833819032e-06
1.580000000000000000e+02 1.062258124351501465e+00 -1.068786716461181641e+01 2.726060665736440569e-05 2.981445959449047223e-06 9.072615284821949899e-06 3.831751200777944177e-06
1.590000000000000000e+02 1.046021103858947754e+00 -1.792852592468261719e+01 -6.537484296131879091e-05 -1.331852854491444305e-05 -2.360801227041520178e-05 -1.361324575555045158e-05
1.600000000000000000e+02 7.970333099365234375e+00 -2.416749382019042969e+01 -4.502110459725372493e-05 5.106205353513360023e-04 1.396798325004056096e-04 -2.133453235728666186e-04
1.610000000000000000e+02 1.148237705230712891e+00 -3.484953308105468750e+01 3.862924586428562179e-06 5.663807387463748455e-04 1.710730866761878133e-04 -2.780651557259261608e-04
1.620000000000000000e+02 1.840246796607971191e+00 -4.001305007934570312e+01 -1.604431017767637968e-04 -1.675481209531426430e-03 -5.507773021236062050e-04 3.293650515843182802e-04
1.630000000000000000e+02 3.659358918666839600e-01 -3.644191360473632812e+01 -3.482497413642704487e-05 7.593011250719428062e-04 2.173428511014208198e-04 -1.333269756287336349e-04
1.640000000000000000e+02 6.028551101684570312e+00 -3.966318130493164062e+01 2.770657418295741081e-03 -7.385418750345706940e-03 -1.384428353048861027e-03 -3.056283574551343918e-03
1.650000000000000000e+02 1.225986099243164062e+01 -3.622926712036132812e+01 1.133605910581536591e-04 -1.743439212441444397e-02 -5.196309182792901993e-03 -1.721448823809623718e-02
1.660000000000000000e+02 1.319736766815185547e+01 -2.997695159912109375e+01 -5.507399328052997589e-03 -2.095171483233571053e-03 -2.280771266669034958e-03 -7.850178517401218414e-04
1.670000000000000000e+02 1.150083160400390625e+01 -2.885775947570800781e+01 3.644133103080093861e-04 1.109186094254255295e-03 4.420797922648489475e-04 -1.626685028895735741e-03
1.680000000000000000e+02 1.055819511413574219e+01 -2.926443672180175781e+01 -1.972119789570569992e-03 -1.469220878789201379e-04 -6.357125239446759224e-04 7.393311825580894947e-04
1.690000000000000000e+02 1.104396820068359375e+01 -2.827286911010742188e+01 1.930247875861823559e-03 1.451842137612402439e-03 1.014627050608396530e-03 -9.550317772664129734e-04
1.700000000000000000e+02 1.002915096282958984e+01 -2.709191131591796875e+01 1.781907631084322929e-03 1.212526229210197926e-03 8.983301813714206219e-04 -8.794786990620195866e-04
1.710000000000000000e+02 9.093607902526855469e+00 -2.576394462585449219e+01 9.210969437845051289e-04 1.032560016028583050e-03 5.860970704816281796e-04 -4.812819242943078279e-04
1.720000000000000000e+02 8.814539909362792969e+00 -2.497176170349121094e+01 -2.758178743533790112e-04 4.848091339226812124e-04 6.269737787079066038e-05 -4.614823265001177788e-04
1.730000000000000000e+02 8.786312103271484375e+00 -2.248935508728027344e+01 4.524370015133172274e-04 4.413598799146711826e-05 1.489718997618183494e-04 -1.388412783853709698e-04
1.740000000000000000e+02 9.363584518432617188e+00 -2.010075187683105469e+01 -2.698446623980998993e-04 -5.411921665654517710e-05 -9.718917135614901781e-05 1.000594638753682375e-04
1.750000000000000000e+02 1.049750518798828125e+01 -1.792626190185546875e+01 1.245634921360760927e-04 7.033613655949011445e-05 5.846988642588257790e-05 -1.075305845006369054e-04
1.760000000000000000e+02 1.138140773773193359e+01 -1.653937911987304688e+01 5.672824408975429833e-05 6.313253106782212853e-05 3.595823000068776309e-05 -6.276653584791347384e-05
1.770000000000000000e+02 1.194988918304443359e+01 -1.592655181884765625e+01 -4.744590114569291472e-05 -6.104352360125631094e-05 -3.254682815168052912e-05 5.138277629157528281e-05
1.780000000000000000e+02 1.177947330474853516e+01 -1.400766181945800781e+01 -6.089100497774779797e-05 -5.897770097362808883e-05 -3.596061287680640817e-05 5.673013674822868779e-06
1.790000000000000000e+02 3.561705648899078369e-01 -9.114844322204589844e+00 -3.282731267972849309e-05 -1.416496616002405062e-06 -1.027314283419400454e-05 -3.222071200070786290e-06
1.800000000000000000e+02 1.605064201354980469e+01 -3.787590408325195312e+01 1.820529997348785400e-02 -3.275013342499732971e-02 -4.363450221717357635e-03 -3.194472938776016235e-02
1.810000000000000000e+02 1.642698097229003906e+01 -3.430190277099609375e+01 -2.739490568637847900e-02 -1.270751375705003738e-02 -1.203072536736726761e-02 -3.364090994000434875e-02
1.820000000000000000e+02 2.271925544738769531e+01 -3.111651611328125000e+01 -1.626006811857223511e-01 -1.653668470680713654e-03 -4.927630722522735596e-02 -1.398415863513946533e-02
1.830000000000000000e+02 1.789440917968750000e+01 -3.117957115173339844e+01 -6.925190985202789307e-02 -4.465043544769287109e-03 -2.211508713662624359e-02 -5.986036267131567001e-03
1.840000000000000000e+02 1.707515716552734375e+01 -3.110474205017089844e+01 -5.447423458099365234e-02 3.785119915846735239e-04 -1.622871682047843933e-02 -1.857229042798280716e-03
1.850000000000000000e+02 2.287995719909667969e+01 -3.842459487915039062e+01 7.091217488050460815e-02 -5.661087855696678162e-02 4.290389362722635269e-03 -8.204313367605209351e-02
1.860000000000000000e+02 2.668674468994140625e+01 -3.136496543884277344e+01 -3.466467857360839844e-01 2.296414691954851151e-03 -1.033051088452339172e-01 6.275733001530170441e-03
1.870000000000000000e+02 2.429664802551269531e+01 -3.114708518981933594e+01 -2.294697910547256470e-01 -5.973602645099163055e-03 -7.063301652669906616e-02 -7.728023454546928406e-03
1.880000000000000000e+02 3.022885894775390625e+01 -3.732892608642578125e+01 1.315587908029556274e-01 5.876484513282775879e-02 5.709709227085113525e-02 -1.310829371213912964e-01
1.890000000000000000e+02 3.129141807556152344e+01 -3.539411163330078125e+01 -1.143039166927337646e-01 4.452160000801086426e-02 -2.093469537794589996e-02 -1.571819037199020386e-01
1.900000000000000000e+02 3.288865280151367188e+01 -3.230419540405273438e+01 -9.537482857704162598e-01 -3.750630468130111694e-02 -2.973763942718505859e-01 1.581122577190399170e-01
1.910000000000000000e+02 3.121738243103027344e+01 -3.268524932861328125e+01 -5.786675810813903809e-01 3.762771561741828918e-02 -1.623119562864303589e-01 -6.280298810452222824e-03
1.920000000000000000e+02 3.681189346313476562e+01 -3.510668945312500000e+01 6.800451129674911499e-02 9.365663528442382812e-01 3.013712763786315918e-01 7.701740860939025879e-01
1.930000000000000000e+02 3.610067749023437500e+01 -3.279500579833984375e+01 -1.227326154708862305e+00 2.959466725587844849e-02 -3.593194186687469482e-01 7.741519808769226074e-02
1.940000000000000000e+02 3.595781326293945312e+01 -3.380241775512695312e+01 -4.006453156471252441e-01 1.599575728178024292e-01 -7.220631837844848633e-02 3.056152760982513428e-01
1.950000000000000000e+02 3.446772384643554688e+01 -3.262915802001953125e+01 -1.319670677185058594e+00 -1.562159974128007889e-02 -4.005876779556274414e-01 1.334185302257537842e-01
1.960000000000000000e+02 4.312102127075195312e+01 -3.827769088745117188e+01 -8.416631817817687988e-01 5.197354316711425781e+00 1.306707262992858887e+00 5.196381807327270508e-01
1.970000000000000000e+02 4.183021545410156250e+01 -3.578770065307617188e+01 -6.695992350578308105e-01 5.304113864898681641e+00 1.390354394912719727e+00 9.749726653099060059e-01
1.980000000000000000e+02 4.138146209716796875e+01 -3.029183578491210938e+01 2.902560949325561523e+00 7.491319656372070312e+00 3.118164062500000000e+00 4.044758796691894531e+00
1.990000000000000000e+02 4.205588912963867188e+01 -3.111388969421386719e+01 7.209786176681518555e-01 8.525330543518066406e+00 2.773892641067504883e+00 1.834741234779357910e+00
2.000000000000000000e+02 4.007077026367187500e+01 -3.142157745361328125e+01 1.866101861000061035e+00 2.490726947784423828e+00 1.307048678398132324e+00 2.089683771133422852e+00
2.010000000000000000e+02 3.934175491333007812e+01 -3.188181686401367188e+01 1.117135643959045410e+00 1.398764252662658691e+00 7.547699809074401855e-01 1.311675548553466797e+00
2.020000000000000000e+02 4.272139739990234375e+01 -4.103690338134765625e+01 -8.538059592247009277e-01 4.797639846801757812e+00 1.183150172233581543e+00 1.822917610406875610e-01
2.030000000000000000e+02 5.328328323364257812e+01 -4.107705688476562500e+01 -6.040092706680297852e-01 4.999194145202636719e+00 1.318555474281311035e+00 -2.211789488792419434e-01
2.040000000000000000e+02 5.374578857421875000e+01 -3.058117866516113281e+01 1.960090041160583496e+00 5.616901874542236328e+00 2.273097515106201172e+00 -7.068266868591308594e-01
2.050000000000000000e+02 5.601329421997070312e+01 -2.976227951049804688e+01 4.797461628913879395e-01 7.374691009521484375e+00 2.356331110000610352e+00 5.861166119575500488e-01
2.060000000000000000e+02 5.653964614868164062e+01 -2.823798942565917969e+01 1.574712038040161133e+00 5.528564453125000000e+00 2.130982875823974609e+00 2.458218097686767578e+00
2.070000000000000000e+02 5.856690597534179688e+01 -2.569679450988769531e+01 3.683150768280029297e+00 2.951913595199584961e+00 1.990519285202026367e+00 3.166088342666625977e+00
2.080000000000000000e+02 5.613486862182617188e+01 -1.640398597717285156e+01 -1.030753898620605469e+01 -1.370885610580444336e+00 -3.503527402877807617e+00 1.832635521888732910e+00
2.090000000000000000e+02 5.767824554443359375e+01 -1.617118644714355469e+01 -6.216443061828613281e+00 -3.403476476669311523e-01 -1.967037200927734375e+00 -5.819341540336608887e-01
2.100000000000000000e+02 5.536285018920898438e+01 -1.667121505737304688e+01 -7.880934715270996094e+00 -2.407033205032348633e+00 -3.086390256881713867e+00 2.135912895202636719e+00
2.110000000000000000e+02 5.376177215576171875e+01 -1.493720722198486328e+01 -3.920234203338623047e+00 -2.869511842727661133e+00 -2.036923885345458984e+00 3.163152933120727539e+00
2.120000000000000000e+02 5.171020126342773438e+01 -1.326957893371582031e+01 -1.856836199760437012e+00 1.089105844497680664e+00 -2.303190976381301880e-01 1.116759300231933594e+00
2.130000000000000000e+02 5.143715667724609375e+01 -1.073487949371337891e+01 -3.197866678237915039e-02 2.436096906661987305e+00 7.212354540824890137e-01 -4.634963572025299072e-01
2.140000000000000000e+02 4.770429992675781250e+01 -1.901982903480529785e+00 5.913203954696655273e-01 5.226351737976074219e+00 1.745301723480224609e+00 -2.030357122421264648e+00
2.150000000000000000e+02 4.359841156005859375e+01 3.085793495178222656e+00 8.147053122520446777e-01 7.185410976409912109e+00 2.400034904479980469e+00 -2.584182024002075195e+00
2.160000000000000000e+02 4.438750839233398438e+01 6.016613006591796875e+00 2.354149818420410156e+00 8.564310073852539062e+00 3.275537967681884766e+00 -4.327262878417968750e+00
2.170000000000000000e+02 4.197771835327148438e+01 1.040982913970947266e+01 1.811789512634277344e+00 1.297285747528076172e+01 4.435394287109375000e+00 -2.088770389556884766e+00
2.180000000000000000e+02 4.269138717651367188e+01 1.533938789367675781e+01 2.810983061790466309e-01 1.155757904052734375e+01 3.551603078842163086e+00 8.814256191253662109e-01
2.190000000000000000e+02 4.293629074096679688e+01 1.693519592285156250e+01 5.609015822410583496e-01 1.043728637695312500e+01 3.299456596374511719e+00 2.048568725585937500e+00
2.200000000000000000e+02 4.331593322753906250e+01 1.849864006042480469e+01 6.335398554801940918e-01 9.042055130004882812e+00 2.902678489685058594e+00 2.167198181152343750e+00
2.210000000000000000e+02 4.453426742553710938e+01 2.233812141418457031e+01 1.112158060073852539e+00 6.899584770202636719e+00 2.403522729873657227e+00 2.570670604705810547e+00
2.220000000000000000e+02 3.929743957519531250e+01 3.069617462158203125e+01 -5.831053853034973145e-01 4.332444190979003906e+00 1.124801635742187500e+00 -6.510166078805923462e-02
2.230000000000000000e+02 2.599959182739257812e+01 3.521809387207031250e+01 -4.969537258148193359e-01 2.513250350952148438e+00 6.048890352249145508e-01 -3.782133758068084717e-01
2.240000000000000000e+02 1.788129806518554688e+01 4.080983352661132812e+01 -2.944264411926269531e-01 1.079499483108520508e+00 2.355218976736068726e-01 -5.175086110830307007e-02
2.250000000000000000e+02 2.276367759704589844e+01 4.059594345092773438e+01 -5.182732939720153809e-01 2.010549306869506836e+00 4.476827681064605713e-01 -1.063970178365707397e-01
2.260000000000000000e+02 1.837849426269531250e+01 3.752196502685546875e+01 -2.735290229320526123e-01 1.134951949119567871e+00 2.584268748760223389e-01 -1.639093756675720215e-01
2.270000000000000000e+02 1.461269950866699219e+01 2.925996208190917969e+01 1.197954863309860229e-01 3.079380691051483154e-01 1.283200681209564209e-01 -2.374296188354492188e-01
2.280000000000000000e+02 1.467293930053710938e+01 2.512304496765136719e+01 3.080979883670806885e-01 1.441732347011566162e-01 1.356813609600067139e-01 -1.854214966297149658e-01
2.290000000000000000e+02 1.437120628356933594e+01 1.668064689636230469e+01 6.241889595985412598e-01 -3.321464359760284424e-01 8.761275559663772583e-02 1.720014065504074097e-01
2.300000000000000000e+02 1.634593772888183594e+01 6.529227256774902344e+00 2.741282284259796143e-01 -8.340858817100524902e-01 -1.679872870445251465e-01 6.436497569084167480e-01
2.310000000000000000e+02 1.080336952209472656e+01 1.807103037834167480e+00 -1.161486387252807617e+00 -7.532497048377990723e-01 -5.744208097457885742e-01 9.559149742126464844e-01
2.320000000000000000e+02 1.390875148773193359e+01 3.115049004554748535e-01 -1.782074570655822754e+00 -1.099044799804687500e+00 -8.643357753753662109e-01 1.294489741325378418e+00
2.330000000000000000e+02 1.490035533905029297e+01 5.509960055351257324e-01 -1.502735972404479980e+00 -1.227900981903076172e+00 -8.191910982131958008e-01 1.263007044792175293e+00
2.340000000000000000e+02 1.560939216613769531e+01 1.553514301776885986e-01 -1.558583855628967285e+00 -1.303412199020385742e+00 -8.585988283157348633e-01 1.305840373039245605e+00
2.350000000000000000e+02 1.668466186523437500e+01 -1.312500596046447754e+00 -2.018943786621093750e+00 -1.484610080718994141e+00 -1.051066160202026367e+00 1.545038580894470215e+00
2.360000000000000000e+02 1.923605155944824219e+01 -3.294592857360839844e+00 -2.032899141311645508e+00 -1.729008316993713379e+00 -1.128572225570678711e+00 1.645902514457702637e+00
2.370000000000000000e+02 1.981884574890136719e+01 -3.852771282196044922e+00 -2.003808259963989258e+00 -1.750119686126708984e+00 -1.126178383827209473e+00 1.657543063163757324e+00
2.380000000000000000e+02 2.200992774963378906e+01 -6.219239711761474609e+00 -1.721028447151184082e+00 -1.669127702713012695e+00 -1.017046809196472168e+00 1.545627832412719727e+00
2.390000000000000000e+02 2.346095657348632812e+01 -5.873945236206054688e+00 -1.495903849601745605e+00 -8.976014256477355957e-01 -7.180516123771667480e-01 1.117549896240234375e+00
2.400000000000000000e+02 2.387954521179199219e+01 -8.823988914489746094e+00 -1.309394121170043945e+00 -1.347178578376770020e+00 -7.969717979431152344e-01 1.293944120407104492e+00
2.410000000000000000e+02 2.572861671447753906e+01 -1.222015666961669922e+01 -8.014940619468688965e-01 -7.380861639976501465e-01 -4.618740677833557129e-01 9.577879905700683594e-01
2.420000000000000000e+02 2.894462776184082031e+01 -1.702888107299804688e+01 -1.136685013771057129e+00 -1.798385530710220337e-01 -3.949570655822753906e-01 5.237005949020385742e-01
2.430000000000000000e+02 2.739650154113769531e+01 -1.640648841857910156e+01 -9.084438681602478027e-01 -2.569682896137237549e-01 -3.496236503124237061e-01 4.880089759826660156e-01
2.440000000000000000e+02 2.735412406921386719e+01 -1.565316104888916016e+01 -6.817187666893005371e-01 -3.095411956310272217e-01 -2.973780035972595215e-01 6.124100089073181152e-01
2.450000000000000000e+02 3.348357391357421875e+01 -1.810500144958496094e+01 -1.645183324813842773e+00 4.513687640428543091e-02 -4.800139069557189941e-01 7.462856173515319824e-02
2.460000000000000000e+02 3.657909011840820312e+01 -1.755741119384765625e+01 2.168775349855422974e-01 5.896448493003845215e-01 2.419567108154296875e-01 -1.197943687438964844e+00
2.470000000000000000e+02 3.604244995117187500e+01 -1.486962795257568359e+01 -4.027386009693145752e-01 2.109374046325683594e+00 5.119906067848205566e-01 -1.454320192337036133e+00
2.480000000000000000e+02 4.005276870727539062e+01 2.692442238330841064e-01 -1.529807299375534058e-01 6.101173877716064453e+00 1.784458041191101074e+00 -1.185163021087646484e+00
2.490000000000000000e+02 4.031675720214843750e+01 4.114775657653808594e+00 6.919265985488891602e-01 7.248209953308105469e+00 2.382040977478027344e+00 -1.371279358863830566e+00
2.500000000000000000e+02 4.058427047729492188e+01 1.027203655242919922e+01 2.058803558349609375e+00 9.973807334899902344e+00 3.609783172607421875e+00 -1.425981044769287109e+00
2.510000000000000000e+02 4.050345993041992188e+01 1.915958213806152344e+01 6.976249814033508301e-01 7.570425033569335938e+00 2.480415105819702148e+00 4.946225285530090332e-01
2.520000000000000000e+02 4.031710815429687500e+01 2.352726745605468750e+01 4.122228026390075684e-01 5.873701572418212891e+00 1.885777235031127930e+00 3.889526724815368652e-01
2.530000000000000000e+02 3.177382278442382812e+01 2.334438133239746094e+01 4.999284446239471436e-01 3.743578195571899414e+00 1.273051977157592773e+00 -8.361723423004150391e-01
2.540000000000000000e+02 3.122431564331054688e+01 2.823037719726562500e+01 -1.089127585291862488e-01 3.492591381072998047e+00 1.015103578567504883e+00 -7.082387208938598633e-01
2.550000000000000000e+02 2.827933883666992188e+01 3.267487716674804688e+01 -4.380467236042022705e-01 2.938184022903442383e+00 7.500411868095397949e-01 -5.293514132499694824e-01
2.560000000000000000e+02 5.895600891113281250e+01 -3.497908401489257812e+01 2.716479599475860596e-01 9.828401207923889160e-01 3.763464391231536865e-01 -1.025513291358947754e+00
2.570000000000000000e+02 5.609514236450195312e+01 -3.178577995300292969e+01 1.868944048881530762e+00 8.115175247192382812e+00 2.995235919952392578e+00 -2.160598993301391602e+00
2.580000000000000000e+02 6.418108367919921875e+01 -3.682999420166015625e+01 4.532367885112762451e-01 3.721143603324890137e-01 2.476053535938262939e-01 2.124159932136535645e-01
2.590000000000000000e+02 6.269388198852539062e+01 -3.466177368164062500e+01 -1.053629636764526367e+00 -4.926969110965728760e-02 -3.308697938919067383e-01 -1.599421948194503784e-01
2.600000000000000000e+02 6.492863464355468750e+01 -3.429517364501953125e+01 -8.157598972320556641e-01 1.070067435503005981e-01 -2.126259356737136841e-01 3.640362294390797615e-03
2.610000000000000000e+02 6.182143402099609375e+01 -3.589040756225585938e+01 4.350523930042982101e-03 1.340731680393218994e-01 4.152710735797882080e-02 -1.936345249414443970e-01
2.620000000000000000e+02 6.006441116333007812e+01 -3.518631744384765625e+01 -1.344987899065017700e-01 6.798174977302551270e-01 1.635956168174743652e-01 -6.804769635200500488e-01
2.630000000000000000e+02 6.801192474365234375e+01 -3.676932907104492188e+01 3.298185765743255615e-01 2.255688667297363281e+00 7.756522297859191895e-01 9.432878494262695312e-01
2.640000000000000000e+02 6.932276916503906250e+01 -3.165774726867675781e+01 1.615454316139221191e+00 3.084413766860961914e+00 1.409960389137268066e+00 2.103519439697265625e+00
2.650000000000000000e+02 6.782997131347656250e+01 -3.394606018066406250e+01 2.031127512454986572e-01 1.596771955490112305e+00 5.399653911590576172e-01 1.016376495361328125e+00
2.660000000000000000e+02 6.805178833007812500e+01 -3.276496505737304688e+01 7.814120054244995117e-01 1.198304772377014160e+00 5.939150452613830566e-01 1.012716293334960938e+00
2.670000000000000000e+02 7.883223724365234375e+01 -3.810072708129882812e+01 -2.566153183579444885e-02 6.999860763549804688e+00 2.092259645462036133e+00 -9.106300026178359985e-02
2.680000000000000000e+02 7.887503814697265625e+01 -3.069730949401855469e+01 4.030747339129447937e-02 5.985174655914306641e+00 1.807644605636596680e+00 -2.418873459100723267e-01
2.690000000000000000e+02 7.964910888671875000e+01 -2.360727691650390625e+01 1.212608534842729568e-03 6.726708412170410156e+00 2.018376350402832031e+00 1.769644618034362793e-01
2.700000000000000000e+02 7.893950653076171875e+01 -1.636582756042480469e+01 -5.126270279288291931e-02 7.954146385192871094e+00 2.370865106582641602e+00 -1.589704304933547974e-01
2.710000000000000000e+02 7.894412994384765625e+01 -9.147162437438964844e+00 3.183956956490874290e-03 6.291865825653076172e+00 1.888514876365661621e+00 -3.288745284080505371e-01
2.720000000000000000e+02 7.894331359863281250e+01 -2.712607860565185547e+00 2.617445774376392365e-02 4.803494453430175781e+00 1.448900699615478516e+00 -2.294784337282180786e-01
2.730000000000000000e+02 7.894264221191406250e+01 4.510558128356933594e+00 3.803388774394989014e-02 4.867802143096923828e+00 1.471750736236572266e+00 2.600030303001403809e-01
2.740000000000000000e+02 7.894734954833984375e+01 1.171408176422119141e+01 -1.318003144115209579e-02 6.886890888214111328e+00 2.062113285064697266e+00 3.496221005916595459e-01
2.750000000000000000e+02 7.893159484863281250e+01 1.891749763488769531e+01 1.041035447269678116e-02 8.545948982238769531e+00 2.566907882690429688e+00 3.068391084671020508e-01
2.760000000000000000e+02 7.894120788574218750e+01 2.613170051574707031e+01 2.694352995604276657e-03 1.041286659240722656e+01 3.124668121337890625e+00 3.922035098075866699e-01
2.770000000000000000e+02 7.890868377685546875e+01 3.243884658813476562e+01 -3.350295126438140869e-02 1.190268516540527344e+01 3.560754776000976562e+00 2.070949673652648926e-01
2.780000000000000000e+02 7.884153747558593750e+01 3.824451446533203125e+01 9.293188340961933136e-03 1.210450267791748047e+01 3.634138822555541992e+00 2.495051734149456024e-02
2.790000000000000000e+02 7.952729034423828125e+01 3.656464385986328125e+01 -8.054570294916629791e-03 1.281995201110839844e+01 3.843569040298461914e+00 3.061876818537712097e-02
2.800000000000000000e+02 6.934721374511718750e+01 3.620348358154296875e+01 -5.491434335708618164e-01 3.453709125518798828e+00 8.713696599006652832e-01 -2.371506243944168091e-01
2.810000000000000000e+02 6.615469360351562500e+01 3.254590606689453125e+01 -1.478823184967041016e+00 -1.028600811958312988e+00 -7.522271871566772461e-01 1.249028444290161133e+00
2.820000000000000000e+02 6.767852020263671875e+01 3.064986991882324219e+01 -6.004528403282165527e-01 2.319072633981704712e-01 -1.105636656284332275e-01 3.057637810707092285e-01
2.830000000000000000e+02 6.853678894042968750e+01 2.926683807373046875e+01 1.090511307120323181e-01 2.511497497558593750e+00 7.861645817756652832e-01 -5.653182268142700195e-01
2.840000000000000000e+02 6.884297180175781250e+01 2.850500869750976562e+01 2.115699201822280884e-01 3.683753728866577148e+00 1.168597102165222168e+00 -7.467551827430725098e-01
2.850000000000000000e+02 6.963549804687500000e+01 2.452784347534179688e+01 1.342690438032150269e-01 7.769775867462158203e+00 2.371213436126708984e+00 -3.845398128032684326e-01
2.860000000000000000e+02 7.964432525634765625e+01 2.207938957214355469e+01 1.049495069310069084e-03 9.410313606262207031e+00 2.823409080505371094e+00 1.530025005340576172e-01
2.870000000000000000e+02 6.183333969116210938e+01 3.525643157958984375e+01 -2.378799915313720703e+00 -4.318505525588989258e-01 -8.431951403617858887e-01 6.308922171592712402e-01
2.880000000000000000e+02 6.026309204101562500e+01 3.549755859375000000e+01 -1.824174880981445312e+00 -4.584855586290359497e-02 -5.610070228576660156e-01 5.553449392318725586e-01
2.890000000000000000e+02 6.268851852416992188e+01 3.517553329467773438e+01 -2.617963790893554688e+00 -6.126528978347778320e-01 -9.691849946975708008e-01 9.827385544776916504e-01
2.900000000000000000e+02 6.356024169921875000e+01 3.486293029785156250e+01 -2.751790761947631836e+00 -9.602349996566772461e-01 -1.113607764244079590e+00 1.287989974021911621e+00
2.910000000000000000e+02 5.706357192993164062e+01 3.558880233764648438e+01 -1.525334596633911133e+00 -1.851311624050140381e-01 -5.131397247314453125e-01 -2.083270102739334106e-01
2.920000000000000000e+02 5.789566040039062500e+01 3.568377685546875000e+01 -1.843876600265502930e+00 -7.054759562015533447e-02 -5.743272900581359863e-01 -5.727157741785049438e-02
2.930000000000000000e+02 5.952026367187500000e+01 3.558915328979492188e+01 -2.189029455184936523e+00 -3.623846173286437988e-01 -7.654241919517517090e-01 5.018211007118225098e-01
2.940000000000000000e+02 5.334743499755859375e+01 3.738212203979492188e+01 -6.969968676567077637e-01 6.598690152168273926e-01 -1.113835535943508148e-02 2.105050683021545410e-01
2.950000000000000000e+02 4.976058197021484375e+01 3.614940643310546875e+01 -7.181448936462402344e-01 1.766282439231872559e+00 3.144412636756896973e-01 3.773492276668548584e-01
2.960000000000000000e+02 4.973830413818359375e+01 3.047710990905761719e+01 6.996742486953735352e-01 1.401725292205810547e+00 6.304198503494262695e-01 9.873101711273193359e-01
2.970000000000000000e+02 5.199038314819335938e+01 3.276145935058593750e+01 3.750009089708328247e-02 4.081914126873016357e-01 1.337074488401412964e-01 2.749105989933013916e-01
2.980000000000000000e+02 5.140441131591796875e+01 3.218233871459960938e+01 2.643024623394012451e-01 5.765403509140014648e-01 2.522528469562530518e-01 4.222582578659057617e-01
2.990000000000000000e+02 5.174577713012695312e+01 3.413234329223632812e+01 -3.745135366916656494e-01 7.930159568786621094e-01 1.255507320165634155e-01 3.201464712619781494e-01
3.000000000000000000e+02 5.543999481201171875e+01 3.503603363037109375e+01 -9.739727973937988281e-01 -2.571267783641815186e-01 -3.693298697471618652e-01 -2.932275533676147461e-01
3.010000000000000000e+02 4.236906814575195312e+01 4.131760025024414062e+01 -1.272447705268859863e+00 3.453381538391113281e+00 6.542801260948181152e-01 2.466757036745548248e-02
3.020000000000000000e+02 4.664186096191406250e+01 2.974188041687011719e+01 2.476355880498886108e-01 3.138193130493164062e+00 1.015748620033264160e+00 1.070872664451599121e+00
3.030000000000000000e+02 4.485007476806640625e+01 2.308396720886230469e+01 1.259261131286621094e+00 6.290281295776367188e+00 2.264862775802612305e+00 2.610691308975219727e+00
3.040000000000000000e+02 4.606444549560546875e+01 2.707124328613281250e+01 8.786343932151794434e-01 3.934127092361450195e+00 1.443828463554382324e+00 1.741243481636047363e+00
3.050000000000000000e+02 4.636346054077148438e+01 2.593402099609375000e+01 1.219027876853942871e+00 4.096702098846435547e+00 1.594718933105468750e+00 2.171094179153442383e+00
3.060000000000000000e+02 4.867263031005859375e+01 2.927221298217773438e+01 8.950215578079223633e-01 1.919101834297180176e+00 8.442370295524597168e-01 1.308614730834960938e+00
3.070000000000000000e+02 4.622129058837890625e+01 2.895715713500976562e+01 3.798267841339111328e-01 3.440197467803955078e+00 1.146007299423217773e+00 1.200180530548095703e+00
3.080000000000000000e+02 3.776710128784179688e+01 3.845155334472656250e+01 -1.194347023963928223e+00 3.797500610351562500e+00 7.809460759162902832e-01 -9.008232504129409790e-02
3.090000000000000000e+02 3.331115722656250000e+01 3.809246444702148438e+01 -1.019878268241882324e+00 3.576235771179199219e+00 7.669072747230529785e-01 -2.072704732418060303e-01
3.100000000000000000e+02 3.733081436157226562e+01 3.064827156066894531e+01 -5.686773061752319336e-01 4.262928485870361328e+00 1.108275413513183594e+00 -2.795113623142242432e-01
3.110000000000000000e+02 3.271004486083984375e+01 4.102998352050781250e+01 -1.068433880805969238e+00 3.514699697494506836e+00 7.338797450065612793e-01 -7.008173316717147827e-02
3.120000000000000000e+02 1.028290939331054688e+01 3.960199356079101562e+01 -1.013718917965888977e-01 -3.283474743366241455e-01 -1.289158016443252563e-01 -3.833467513322830200e-02
3.130000000000000000e+02 7.813948154449462891e+00 3.064476585388183594e+01 4.317535459995269775e-02 -8.113162517547607422e-01 -2.304422706365585327e-01 -8.361703157424926758e-02
3.140000000000000000e+02 6.959077358245849609e+00 2.248629570007324219e+01 1.505912691354751587e-01 -1.030044436454772949e+00 -2.638359367847442627e-01 9.982816874980926514e-02
3.150000000000000000e+02 6.154286861419677734e+00 1.662710762023925781e+01 1.737434566020965576e-01 -1.083511948585510254e+00 -2.729305326938629150e-01 3.458283245563507080e-01
3.160000000000000000e+02 5.706263065338134766e+00 1.010637855529785156e+01 7.823187857866287231e-02 -8.496138453483581543e-01 -2.314145863056182861e-01 6.029900908470153809e-01
3.170000000000000000e+02 5.875971794128417969e+00 1.855573058128356934e+00 -4.293811321258544922e-01 -9.040848910808563232e-02 -1.559368818998336792e-01 3.083147406578063965e-01
3.180000000000000000e+02 1.162278366088867188e+01 1.396818161010742188e+00 -1.386841058731079102e+00 -8.376098275184631348e-01 -6.673352718353271484e-01 1.009718060493469238e+00
3.190000000000000000e+02 1.132796406745910645e+00 3.706395721435546875e+01 -9.421275928616523743e-03 -1.853367209434509277e+00 -5.588365197181701660e-01 -9.352877736091613770e-03
3.200000000000000000e+02 1.822450399398803711e+00 3.627959442138671875e+01 -1.311925589106976986e-03 -1.755083680152893066e+00 -5.269187092781066895e-01 -2.011867798864841461e-02
3.210000000000000000e+02 1.180539846420288086e+00 2.915083694458007812e+01 1.295026740990579128e-03 -1.956590890884399414e+00 -5.865887999534606934e-01 -1.352051924914121628e-02
3.220000000000000000e+02 3.615743219852447510e-01 2.033914756774902344e+01 2.157314680516719818e-03 -2.004667282104492188e+00 -6.007529497146606445e-01 1.415953226387500763e-02
3.230000000000000000e+02 1.071627378463745117e+00 1.540894603729248047e+01 6.860406603664159775e-03 -1.540336608886718750e+00 -4.600428342819213867e-01 1.053932532668113708e-01
3.240000000000000000e+02 3.542747497558593750e-01 6.677639007568359375e+00 -3.081380855292081833e-03 -3.862386643886566162e-01 -1.167960166931152344e-01 5.170462280511856079e-02
3.250000000000000000e+02 1.062047123908996582e+00 8.984623908996582031e+00 -1.223951578140258789e-03 -7.508170008659362793e-01 -2.256122827529907227e-01 1.647717058658599854e-01
3.260000000000000000e+02 4.195500373840332031e+00 2.556628465652465820e+00 -2.344630509614944458e-01 -1.291188746690750122e-01 -1.090745776891708374e-01 2.510824501514434814e-01
3.270000000000000000e+02 3.733473205566406250e+01 -1.821588325500488281e+01 1.064465999603271484e+00 6.513708233833312988e-01 5.147510170936584473e-01 -1.067547559738159180e+00
3.280000000000000000e+02 3.846251678466796875e+01 -1.854653549194335938e+01 3.153787136077880859e+00 2.502152681350708008e+00 1.696781992912292480e+00 -2.730814456939697266e+00
3.290000000000000000e+02 4.076580429077148438e+01 -2.063609886169433594e+01 5.850213050842285156e+00 8.985233306884765625e+00 4.450634002685546875e+00 -6.863980770111083984e+00
3.300000000000000000e+02 5.488333892822265625e+01 -1.604096603393554688e+01 -8.641928672790527344e+00 -2.900317192077636719e+00 -3.462673664093017578e+00 3.727928638458251953e+00
3.310000000000000000e+02 4.300812911987304688e+01 -2.144995498657226562e+01 3.903008222579956055e+00 1.229281520843505859e+01 4.858747005462646484e+00 -2.807399272918701172e+00
3.320000000000000000e+02 4.249345397949218750e+01 -2.225355529785156250e+01 3.970827102661132812e+00 1.680165290832519531e+01 6.231744289398193359e+00 -4.273829460144042969e+00
3.330000000000000000e+02 4.218069076538085938e+01 -2.380714035034179688e+01 4.745109081268310547e-01 1.777017974853515625e+01 5.473407268524169922e+00 -1.575451016426086426e+00
3.340000000000000000e+02 4.192353057861328125e+01 -2.956707763671875000e+01 2.840352296829223633e+00 1.238803386688232422e+01 4.568515777587890625e+00 3.717519044876098633e+00
3.350000000000000000e+02 5.182637405395507812e+01 -3.050612640380859375e+01 2.036442518234252930e+00 5.262292861938476562e+00 2.189620494842529297e+00 -8.952565789222717285e-01
3.360000000000000000e+02 5.270670700073242188e+01 -3.248558807373046875e+01 1.413165926933288574e+00 5.487183094024658203e+00 2.070104837417602539e+00 -6.633709669113159180e-01
3.370000000000000000e+02 1.965305900573730469e+01 -9.089561462402343750e+00 -6.876701718283584341e-06 2.231820417364360765e-06 -1.393464458487869706e-06 -1.311501478085119743e-06
3.380000000000000000e+02 2.005849075317382812e+01 -9.638669967651367188e+00 6.943248536117607728e-06 -1.434675368727766909e-06 1.652571882004849613e-06 1.340159997198497877e-06
3.390000000000000000e+02 2.212655830383300781e+01 -1.307844638824462891e+01 3.959718014812096953e-06 1.382533355354098603e-06 1.602675411049858667e-06 2.055099912467994727e-07
3.400000000000000000e+02 2.024673461914062500e+01 -1.230914783477783203e+01 6.194731668074382469e-06 -2.826256604748778045e-06 1.010542518997681327e-06 3.757120794034563005e-06
3.410000000000000000e+02 6.970603942871093750e+01 1.813850784301757812e+01 5.025306381867267191e-05 9.057557106018066406e+00 2.717282295227050781e+00 1.470755785703659058e-01
3.420000000000000000e+02 7.964689636230468750e+01 1.566430091857910156e+01 -1.274132519029080868e-03 7.710051059722900391e+00 2.312633037567138672e+00 1.248648315668106079e-01
3.430000000000000000e+02 6.970158386230468750e+01 1.654640960693359375e+01 4.044572357088327408e-03 9.555727958679199219e+00 2.867931842803955078e+00 1.685254573822021484e-01
3.440000000000000000e+02 7.023889923095703125e+01 1.249494457244873047e+01 -4.357276856899261475e-01 9.453669548034667969e+00 2.705382585525512695e+00 1.893582940101623535e-01
3.450000000000000000e+02 7.964766693115234375e+01 8.454459190368652344e+00 1.416060957126319408e-03 5.446567535400390625e+00 1.634395122528076172e+00 1.539373993873596191e-01
3.460000000000000000e+02 6.975769042968750000e+01 8.679789543151855469e+00 1.775628030300140381e-01 1.132531261444091797e+01 3.450862646102905273e+00 -1.442163705825805664e+00
3.470000000000000000e+02 6.996379852294921875e+01 7.101810932159423828e+00 4.359475672245025635e-01 1.468732166290283203e+01 4.536980628967285156e+00 -6.409820914268493652e-01
3.480000000000000000e+02 6.998815917968750000e+01 2.300536870956420898e+00 3.642629086971282959e-01 1.627025032043457031e+01 4.990353584289550781e+00 8.409790396690368652e-01
3.490000000000000000e+02 6.895872497558593750e+01 -2.424616098403930664e+00 9.747152328491210938e-01 1.102079391479492188e+01 3.598652839660644531e+00 3.261047840118408203e+00
3.500000000000000000e+02 6.783569335937500000e+01 -5.434416294097900391e+00 1.345301628112792969e+00 8.126505851745605469e+00 2.841542243957519531e+00 3.174674034118652344e+00
3.510000000000000000e+02 6.608129882812500000e+01 -9.042914390563964844e+00 1.576709866523742676e+00 5.362149238586425781e+00 2.081657648086547852e+00 2.814801931381225586e+00
3.520000000000000000e+02 6.623065948486328125e+01 -1.010521507263183594e+01 1.483360171318054199e+00 5.018554210662841797e+00 1.950574398040771484e+00 2.497342824935913086e+00
3.530000000000000000e+02 6.567436981201171875e+01 -9.736385345458984375e+00 1.563848495483398438e+00 4.842209815979003906e+00 1.921817541122436523e+00 2.698928117752075195e+00
3.540000000000000000e+02 6.482196807861328125e+01 -1.216791152954101562e+01 2.016909837722778320e+00 3.753780364990234375e+00 1.731207013130187988e+00 2.345007181167602539e+00
3.550000000000000000e+02 6.544143676757812500e+01 -2.167431449890136719e+01 -1.678452014923095703e+00 6.260174512863159180e-01 -3.157303631305694580e-01 4.428192973136901855e-01
3.560000000000000000e+02 6.269452285766601562e+01 -2.307359313964843750e+01 2.161872863769531250e+00 7.816050648689270020e-01 8.830433487892150879e-01 1.218880057334899902e+00
3.570000000000000000e+02 6.495732879638671875e+01 -2.260594558715820312e+01 -4.964017271995544434e-01 1.974727511405944824e-01 -8.967868983745574951e-02 9.700972586870193481e-02
3.580000000000000000e+02 5.990795516967773438e+01 -1.526635551452636719e+01 -3.695101737976074219e-01 5.000815391540527344e-01 3.917140513658523560e-02 3.223297894001007080e-01
3.590000000000000000e+02 6.479685211181640625e+01 -2.194353866577148438e+01 -9.414905905723571777e-01 6.859478354454040527e-01 -7.666281610727310181e-02 6.855443716049194336e-01
3.600000000000000000e+02 6.879930114746093750e+01 -2.164996719360351562e+01 -5.315017700195312500e+00 -4.510995149612426758e-01 -1.729835152626037598e+00 1.138119101524353027e+00
3.610000000000000000e+02 7.019840240478515625e+01 -2.233256721496582031e+01 -1.168200016021728516e+00 2.228487014770507812e+00 3.180861175060272217e-01 -5.054396986961364746e-01
3.620000000000000000e+02 7.096070098876953125e+01 -2.247600555419921875e+01 -9.908237457275390625e-01 4.919050693511962891e+00 1.178468108177185059e+00 -9.878402352333068848e-01
3.630000000000000000e+02 7.131842803955078125e+01 -2.405459594726562500e+01 1.173721671104431152e+00 1.022403621673583984e+01 3.419327259063720703e+00 -2.300590038299560547e+00
3.640000000000000000e+02 7.157511901855468750e+01 -2.646163177490234375e+01 1.376062333583831787e-01 1.241775321960449219e+01 3.766607761383056641e+00 1.999867409467697144e-01
3.650000000000000000e+02 7.154361724853515625e+01 -2.564944839477539062e+01 2.637380957603454590e-01 1.220074367523193359e+01 3.739344358444213867e+00 -2.782704830169677734e-01
3.660000000000000000e+02 7.157681274414062500e+01 -2.728884315490722656e+01 7.877964377403259277e-01 1.358364391326904297e+01 4.311431884765625000e+00 1.195410132408142090e+00
3.670000000000000000e+02 7.036343383789062500e+01 -3.035240554809570312e+01 2.183862209320068359e+00 6.041950702667236328e+00 2.467743873596191406e+00 3.366221904754638672e+00
3.680000000000000000e+02 7.959262084960937500e+01 -3.404757308959960938e+01 -1.367938984185457230e-02 6.573826789855957031e+00 1.968044281005859375e+00 -1.040852367877960205e-01
3.690000000000000000e+02 5.917597579956054688e+01 -2.516251182556152344e+01 3.812722444534301758e+00 2.699847936630249023e+00 1.953771114349365234e+00 3.174279689788818359e+00
3.700000000000000000e+02 6.187751770019531250e+01 -2.329635047912597656e+01 3.420083045959472656e+00 1.467210412025451660e+00 1.466187953948974609e+00 2.105912685394287109e+00
3.710000000000000000e+02 3.502123057842254639e-01 -1.635468482971191406e+01 8.538393740309402347e-05 -5.070344286650652066e-06 2.409407716186251491e-05 8.233075277530588210e-06
3.720000000000000000e+02 9.372587203979492188e+00 -1.723390960693359375e+01 -3.177601320203393698e-05 2.834144652297254652e-05 -1.030370299304195214e-06 -1.412484925822354853e-05
3.730000000000000000e+02 3.501706719398498535e-01 -2.278401756286621094e+01 9.933169349096715450e-05 4.493963206186890602e-05 4.328139766585081816e-05 2.043742642854340374e-05
3.740000000000000000e+02 3.779948651790618896e-01 -3.003170204162597656e+01 -4.573823844111757353e-07 1.239733654074370861e-03 3.717828658409416676e-04 8.620655717095360160e-05
3.750000000000000000e+02 7.964490509033203125e+01 -2.681267547607421875e+01 2.098674699664115906e-02 5.481251239776611328e+00 1.650671362876892090e+00 7.809327542781829834e-02
3.760000000000000000e+02 6.808163452148437500e+01 -2.070649909973144531e+01 -2.923603057861328125e+00 -4.600118696689605713e-01 -1.015084505081176758e+00 2.156323343515396118e-01
3.770000000000000000e+02 6.796734619140625000e+01 -2.145499420166015625e+01 -6.247895240783691406e+00 -6.025224924087524414e-01 -2.055125236511230469e+00 4.162235856056213379e-01
3.780000000000000000e+02 6.262034988403320312e+01 -1.349204730987548828e+01 2.379652023315429688e+00 2.146500110626220703e+00 1.357845664024353027e+00 2.185006856918334961e+00
3.790000000000000000e+02 7.966175842285156250e+01 -2.040783882141113281e+01 -2.058589830994606018e-02 8.100611686706542969e+00 2.424007892608642578e+00 1.020299494266510010e-01
3.800000000000000000e+02 4.799333953857421875e+01 -2.609319877624511719e+01 2.592328310012817383e+00 6.494212627410888672e+00 2.725962400436401367e+00 -1.605285167694091797e+00
3.810000000000000000e+02 4.316444015502929688e+01 -2.328641700744628906e+01 3.019251823425292969e+00 1.345730590820312500e+01 4.942967414855957031e+00 -3.297152519226074219e+00
3.820000000000000000e+02 5.696825027465820312e+01 -2.753964042663574219e+01 2.078980445861816406e+00 4.303296089172363281e+00 1.914682865142822266e+00 2.690749645233154297e+00
3.830000000000000000e+02 7.964609527587890625e+01 -1.320271873474121094e+01 1.301357988268136978e-03 7.508892536163330078e+00 2.253058195114135742e+00 -1.123428568243980408e-01
3.840000000000000000e+02 7.964685058593750000e+01 -5.984053611755371094e+00 2.059035177808254957e-04 5.158905982971191406e+00 1.547733545303344727e+00 -1.120808199048042297e-01
3.850000000000000000e+02 7.000213623046875000e+01 3.106393098831176758e+00 8.087745308876037598e-02 1.514674377441406250e+01 4.568286418914794922e+00 3.540441989898681641e-01
3.860000000000000000e+02 7.965026855468750000e+01 1.237442493438720703e+00 1.020087860524654388e-02 3.707147598266601562e+00 1.115204572677612305e+00 1.044623088091611862e-02
3.870000000000000000e+02 7.965003967285156250e+01 2.928622627258300781e+01 -7.315942086279392242e-03 1.180037593841552734e+01 3.537918090820312500e+00 1.515124440193176270e-01
3.880000000000000000e+02 2.423747253417968750e+01 3.259218215942382812e+01 -2.404886037111282349e-01 2.109556198120117188e+00 5.607203245162963867e-01 -4.744518399238586426e-01
3.890000000000000000e+02 2.288723373413085938e+01 3.023982238769531250e+01 -2.326040901243686676e-02 1.810037493705749512e+00 5.360331535339355469e-01 -5.290073752403259277e-01
3.900000000000000000e+02 2.593577957153320312e+01 2.151019859313964844e+01 7.499575018882751465e-01 2.100216150283813477e+00 8.550521135330200195e-01 -7.196620702743530273e-01
3.910000000000000000e+02 2.737831497192382812e+01 1.717835426330566406e+01 1.171256542205810547e+00 2.266043186187744141e+00 1.031189918518066406e+00 -7.213837504386901855e-01
3.920000000000000000e+02 2.114168739318847656e+01 8.631217956542968750e+00 7.938493490219116211e-01 9.503620117902755737e-02 2.666656672954559326e-01 1.111833602190017700e-01
3.930000000000000000e+02 2.053062629699707031e+01 7.971831411123275757e-02 -8.145794272422790527e-01 -8.484933972358703613e-01 -4.989218711853027344e-01 7.598348855972290039e-01
3.940000000000000000e+02 2.205358695983886719e+01 6.573677062988281250e-01 -5.168396234512329102e-01 -3.850200772285461426e-01 -2.705579102039337158e-01 5.275935530662536621e-01
3.950000000000000000e+02 2.777307701110839844e+01 2.286702841520309448e-01 -2.441866844892501831e-01 1.510470032691955566e+00 3.798850178718566895e-01 8.885240554809570312e-02
3.960000000000000000e+02 2.703844833374023438e+01 -4.917037010192871094e+00 -1.065038442611694336e+00 7.580662965774536133e-01 -9.209164977073669434e-02 4.687050282955169678e-01
3.970000000000000000e+02 2.597054290771484375e+01 -4.639262676239013672e+00 -1.127125263214111328e+00 3.740008175373077393e-01 -2.259373068809509277e-01 5.767776370048522949e-01
3.980000000000000000e+02 2.626746559143066406e+01 -1.181150245666503906e+01 -8.835673332214355469e-01 -4.735962748527526855e-01 -4.071490764617919922e-01 9.431651234626770020e-01
3.990000000000000000e+02 3.519378662109375000e+01 -1.471383762359619141e+01 -4.311090707778930664e-01 1.630674600601196289e+00 3.598696589469909668e-01 -1.048423171043395996e+00
4.000000000000000000e+02 1.608313369750976562e+01 3.175194358825683594e+01 -8.405893109738826752e-03 6.406961679458618164e-01 1.896870732307434082e-01 -2.723286151885986328e-01
4.010000000000000000e+02 6.824418544769287109e+00 3.129020500183105469e+01 3.192422911524772644e-02 -9.749288558959960938e-01 -2.829013764858245850e-01 -7.811612635850906372e-02
4.020000000000000000e+02 6.793195247650146484e+00 2.614952850341796875e+01 9.642270207405090332e-02 -1.035178303718566895e+00 -2.816266715526580811e-01 -2.746156649664044380e-03
4.030000000000000000e+02 1.248888111114501953e+01 2.681991767883300781e+01 2.043490409851074219e-01 -1.258353292942047119e-01 2.355411276221275330e-02 -1.383281052112579346e-01
4.040000000000000000e+02 3.393062973022460938e+01 1.524726486206054688e+01 1.512239456176757812e+00 4.688418388366699219e+00 1.860197424888610840e+00 -8.926306366920471191e-01
4.050000000000000000e+02 3.217059326171875000e+01 1.340673923492431641e+01 1.590635180473327637e+00 3.825800657272338867e+00 1.624930739402770996e+00 -7.921061515808105469e-01
4.060000000000000000e+02 2.712691879272460938e+01 9.069572091102600098e-01 -1.470941454172134399e-01 1.319267988204956055e+00 3.516521751880645752e-01 9.988811612129211426e-02
4.070000000000000000e+02 3.979074859619140625e+01 3.443392992019653320e+00 5.128489136695861816e-01 6.789873600006103516e+00 2.190816640853881836e+00 -1.184917211532592773e+00
4.080000000000000000e+02 1.150375843048095703e+00 3.077158737182617188e+01 -1.856318092904984951e-03 -1.942557811737060547e+00 -5.833242535591125488e-01 -1.846132986247539520e-02
4.090000000000000000e+02 6.216148376464843750e+00 1.799892044067382812e+01 1.766248941421508789e-01 -1.096873402595520020e+00 -2.760745584964752197e-01 2.818717062473297119e-01
4.100000000000000000e+02 1.374127864837646484e+01 1.970274162292480469e+01 5.209591388702392578e-01 -2.384729385375976562e-01 8.474586158990859985e-02 4.361905530095100403e-02
4.110000000000000000e+02 2.535065650939941406e+01 1.898900222778320312e+01 9.753850102424621582e-01 1.834271907806396484e+00 8.428970575332641602e-01 -6.576879024505615234e-01
4.120000000000000000e+02 4.062267303466796875e+01 1.655903625488281250e+01 8.580134510993957520e-01 8.798082351684570312e+00 2.896828651428222656e+00 2.981874346733093262e-01
4.130000000000000000e+02 3.238032150268554688e+01 1.732673835754394531e+01 1.262862920761108398e+00 4.000469207763671875e+00 1.578999638557434082e+00 -9.015055894851684570e-01
4.140000000000000000e+02 1.107822537422180176e+00 2.345426940917968750e+01 5.073026753962039948e-03 -1.956510305404663086e+00 -5.854312181472778320e-01 1.668606512248516083e-02
4.150000000000000000e+02 7.046809196472167969e+00 8.462772369384765625e+00 3.535928949713706970e-02 -7.739960551261901855e-01 -2.215910255908966064e-01 7.243615984916687012e-01
4.160000000000000000e+02 1.699822425842285156e+01 6.742466449737548828e+00 3.433088362216949463e-01 -7.507381439208984375e-01 -1.222287937998771667e-01 5.710346698760986328e-01
4.170000000000000000e+02 2.304170989990234375e+01 6.609890460968017578e+00 6.691988110542297363e-01 3.721535205841064453e-01 3.124057054519653320e-01 7.869651913642883301e-02
4.180000000000000000e+02 4.041319656372070312e+01 1.208960819244384766e+01 1.489807367324829102e+00 1.001970195770263672e+01 3.452852725982666016e+00 -1.116377472877502441e+00
4.190000000000000000e+02 3.291933822631835938e+01 8.919367790222167969e+00 1.514399290084838867e+00 3.999651432037353516e+00 1.654215216636657715e+00 -5.235339403152465820e-01
4.200000000000000000e+02 1.073511123657226562e+00 1.621298789978027344e+01 8.873230777680873871e-03 -1.611404895782470703e+00 -4.807595014572143555e-01 9.504355490207672119e-02
4.210000000000000000e+02 4.276024627685546875e+01 9.696671485900878906e+00 1.719753742218017578e+00 1.514841270446777344e+01 5.060450077056884766e+00 -3.887262344360351562e+00
4.220000000000000000e+02 4.597561645507812500e+01 3.257787466049194336e+00 1.642412781715393066e+00 6.184560775756835938e+00 2.348092079162597656e+00 -3.212750673294067383e+00
4.230000000000000000e+02 4.670790481567382812e+01 -1.403225779533386230e+00 4.473113715648651123e-01 5.578203201293945312e+00 1.807654380798339844e+00 -2.077246427536010742e+00
4.240000000000000000e+02 4.897853851318359375e+01 -3.171773910522460938e+00 5.305193066596984863e-01 5.063563346862792969e+00 1.678224802017211914e+00 -1.774367928504943848e+00
4.250000000000000000e+02 4.558837890625000000e+01 3.949594020843505859e+00 1.762658238410949707e+00 6.406802654266357422e+00 2.450838327407836914e+00 -3.425525903701782227e+00
4.260000000000000000e+02 4.622932434082031250e+01 -3.910418033599853516e+00 -8.525351434946060181e-02 5.479590415954589844e+00 1.618301033973693848e+00 -1.532793283462524414e+00
4.270000000000000000e+02 4.714311218261718750e+01 -1.049082183837890625e+01 -1.396788001060485840e+00 5.318095684051513672e+00 1.176392316818237305e+00 -2.991476282477378845e-02
4.280000000000000000e+02 5.051660156250000000e+01 -1.012341785430908203e+01 -2.588048279285430908e-01 3.444586277008056641e+00 9.557344317436218262e-01 -3.204762935638427734e-01
4.290000000000000000e+02 3.905148315429687500e+01 -1.900763702392578125e+01 4.386060714721679688e+00 4.064183235168457031e+00 2.535073280334472656e+00 -4.047992706298828125e+00
4.300000000000000000e+02 4.721503067016601562e+01 -8.318728446960449219e+00 -7.437144517898559570e-01 5.148778915405273438e+00 1.321519374847412109e+00 -5.394562482833862305e-01
4.310000000000000000e+02 5.316541671752929688e+01 -1.530920886993408203e+01 -4.039017677307128906e+00 -8.436838388442993164e-01 -1.464810490608215332e+00 2.214508771896362305e+00
4.320000000000000000e+02 2.507526969909667969e+01 -1.086668300628662109e+01 -9.944909811019897461e-01 -9.865760803222656250e-01 -5.943201184272766113e-01 1.065053701400756836e+00
4.330000000000000000e+02 7.623151302337646484e+00 -1.846952199935913086e+00 1.316461180067562964e-06 -6.379378191923024133e-06 -1.518875137662689667e-06 -3.229198171084135538e-07
4.340000000000000000e+02 8.981100082397460938e+00 -2.624901294708251953e+00 -2.261778945467085578e-06 5.309900188876781613e-06 9.144364412350114435e-07 -1.246597093995660543e-06
4.350000000000000000e+02 8.415616035461425781e+00 -1.856477379798889160e+00 -1.457010853300744202e-06 6.504120392492040992e-06 1.514132804913970176e-06 -2.203499178676793235e-07
4.360000000000000000e+02 5.216408729553222656e+00 -1.856292366981506348e+00 -7.984377816683263518e-07 5.547034106712089851e-06 1.424578840669710189e-06 2.826845047820825130e-06
4.370000000000000000e+02 4.412344932556152344e+00 -1.862509250640869141e+00 5.371753886151964252e-08 -4.904850811726646498e-06 -1.455339997846749611e-06 -3.686292302518268116e-06
4.380000000000000000e+02 1.096285939216613770e+00 -6.644732475280761719e+00 -1.723504283290822059e-05 -1.917121835504076444e-06 -5.745649104937911034e-06 -3.969950284954393283e-06
4.390000000000000000e+02 1.108088970184326172e+00 -5.839665889739990234e+00 1.504323427070630714e-05 1.393010165884334128e-06 4.930873274133773521e-06 3.927036686945939437e-06
4.400000000000000000e+02 3.880602717399597168e-01 -2.690512418746948242e+00 -7.858904609747696668e-06 -4.033950631310290191e-07 -2.478690021234797314e-06 -1.610980802979611326e-06
4.410000000000000000e+02 3.980910778045654297e-01 -1.896013736724853516e+00 4.800413080374710262e-06 3.818622928974946262e-07 1.554682626192516182e-06 1.153086486738175154e-06
4.420000000000000000e+02 4.650623798370361328e-01 -4.203001022338867188e+01 -5.554536255658604205e-05 -1.532368245534598827e-03 -4.763740871567279100e-04 7.915356400189921260e-05
4.430000000000000000e+02 5.952216982841491699e-01 -4.115325164794921875e+01 1.135287457145750523e-03 -1.434910460375249386e-03 -8.988691115519031882e-05 -4.019611806143075228e-04
4.440000000000000000e+02 5.921671986579895020e-01 -4.035142135620117188e+01 -1.445571077056229115e-03 -7.101800292730331421e-04 -6.467253551818430424e-04 -8.086209418252110481e-04
4.450000000000000000e+02 4.581086933612823486e-01 -3.879277420043945312e+01 -1.391451369272544980e-04 -2.186221827287226915e-04 -1.073301900760270655e-04 -2.358938509132713079e-04
4.460000000000000000e+02 5.337029695510864258e-01 -3.956802368164062500e+01 5.720674525946378708e-04 -1.177778758574277163e-04 1.362868788419291377e-04 2.719598705880343914e-04
4.470000000000000000e+02 3.723104298114776611e-01 -3.723036193847656250e+01 -6.120788839325541630e-06 4.462925426196306944e-04 1.320515293627977371e-04 -1.844901562435552478e-04
4.480000000000000000e+02 3.720617294311523438e-01 -3.564909744262695312e+01 7.384112450381508097e-06 1.067463424988090992e-03 3.224542597308754921e-04 -1.092983220587484539e-04
4.490000000000000000e+02 3.811749517917633057e-01 -3.485335922241210938e+01 -1.580606294737663120e-05 1.243885024450719357e-03 3.684236726257950068e-04 -9.282676182920113206e-05
4.500000000000000000e+02 3.881415724754333496e-01 -3.405395126342773438e+01 -2.366156695643439889e-05 1.442027976736426353e-03 4.255099338479340076e-04 -5.990218414808623493e-05
4.510000000000000000e+02 3.902952075004577637e-01 -3.325097274780273438e+01 1.645710995035187807e-06 1.496236887760460377e-03 4.493647720664739609e-04 -2.892057818826287985e-05
4.520000000000000000e+02 3.884232044219970703e-01 -3.244633102416992188e+01 -3.796608871198259294e-05 1.563359284773468971e-03 4.576179489959031343e-04 -7.886212216590138269e-08
4.530000000000000000e+02 1.171452760696411133e+00 -3.325206756591796875e+01 -2.335128374397754669e-05 8.556564571335911751e-04 2.496915694791823626e-04 -1.190150214824825525e-04
4.540000000000000000e+02 3.850751817226409912e-01 -3.164233779907226562e+01 5.559511919273063540e-06 1.483658212237060070e-03 4.467653052415698767e-04 4.255019666743464768e-05
4.550000000000000000e+02 3.737123310565948486e-01 -2.922430419921875000e+01 -1.619369072614063043e-06 1.095267012715339661e-03 3.280942910350859165e-04 7.959114736877381802e-05
4.560000000000000000e+02 3.703269362449645996e-01 -2.841831207275390625e+01 -9.745256647875066847e-06 8.697303710505366325e-04 2.579955325927585363e-04 1.004841687972657382e-04
4.570000000000000000e+02 3.678337931632995605e-01 -2.761276054382324219e+01 2.988568303408101201e-05 7.113963365554809570e-04 2.223846095148473978e-04 7.118906069081276655e-05
4.580000000000000000e+02 3.654156029224395752e-01 -2.680778694152832031e+01 -4.531532977125607431e-05 5.039264215156435966e-04 1.375833380734547973e-04 9.367537131765857339e-05
4.590000000000000000e+02 3.621328175067901611e-01 -2.600361061096191406e+01 8.565359894419088960e-05 3.728740848600864410e-04 1.375583087792620063e-04 4.637852180167101324e-05
4.600000000000000000e+02 3.575507998466491699e-01 -2.519947052001953125e+01 -9.440267604077234864e-05 2.349779970245435834e-04 4.217259265715256333e-05 5.646614590659737587e-05
4.610000000000000000e+02 1.090262174606323242e+00 -2.597165489196777344e+01 -7.152005855459719896e-05 2.486671146471053362e-04 5.314411828294396400e-05 2.106303436448797584e-04
4.620000000000000000e+02 3.528024852275848389e-01 -2.439433097839355469e+01 1.136440841946750879e-04 1.507201377535238862e-04 7.930926949484273791e-05 3.634103995864279568e-05
4.630000000000000000e+02 3.517459928989410400e-01 -2.198006820678710938e+01 -9.195920574711635709e-05 -4.055708359373966232e-06 -2.880447391362395138e-05 7.674517291889060289e-06
4.640000000000000000e+02 3.531861901283264160e-01 -2.117678070068359375e+01 1.004135265247896314e-04 -1.784220444278616924e-06 2.958879304060246795e-05 2.467296326358336955e-06
4.650000000000000000e+02 3.533656001091003418e-01 -2.037306976318359375e+01 -1.056293913279660046e-04 -2.045360452029854059e-05 -3.782489875447936356e-05 3.130379809590522200e-06
4.660000000000000000e+02 3.521568775177001953e-01 -1.956916427612304688e+01 1.129506854340434074e-04 -1.482606967329047620e-05 2.943738400063011795e-05 1.297122253163252026e-06
4.670000000000000000e+02 3.505898118019104004e-01 -1.876561164855957031e+01 -1.125878115999512374e-04 -1.882779906736686826e-05 -3.942468174500390887e-05 -6.364329692587489262e-06
4.680000000000000000e+02 1.774788022041320801e+00 -2.030053138732910156e+01 -3.171269781887531281e-05 -6.752636181772686541e-06 -1.153959965449757874e-05 2.986971412610728294e-05
4.690000000000000000e+02 3.495915234088897705e-01 -1.796233940124511719e+01 1.069878780981525779e-04 -1.085215080820489675e-05 2.884071909647900611e-05 7.146243206079816446e-06
4.700000000000000000e+02 3.508518040180206299e-01 -1.555071163177490234e+01 -7.504552922910079360e-05 -1.087649707187665626e-05 -2.577660779934376478e-05 -8.615695151092950255e-06
4.710000000000000000e+02 3.512029945850372314e-01 -1.474734306335449219e+01 6.617129110964015126e-05 -2.049999466180452146e-06 1.923638774314895272e-05 5.616961971099954098e-06
4.720000000000000000e+02 3.516565561294555664e-01 -1.394376945495605469e+01 -5.922247873968444765e-05 -6.602528628718573600e-06 -1.974750193767249584e-05 -5.675457941833883524e-06
4.730000000000000000e+02 3.519926071166992188e-01 -1.313959884643554688e+01 5.324243466020561755e-05 -7.397640047202003188e-07 1.575080204929690808e-05 4.047497441206360236e-06
4.740000000000000000e+02 3.522395789623260498e-01 -1.233507919311523438e+01 -4.833011553273536265e-05 -3.908867256541270763e-06 -1.567169420013669878e-05 -4.327251190261449665e-06
4.750000000000000000e+02 3.526154458522796631e-01 -1.153038883209228516e+01 4.380161408334970474e-05 1.378020186848516460e-07 1.318182512477505952e-05 3.461789674474857748e-06
4.760000000000000000e+02 1.763085246086120605e+00 -1.308282947540283203e+01 1.485162374592619017e-05 8.651666576042771339e-06 7.050986823742277920e-06 3.031466349057154730e-06
4.770000000000000000e+02 3.534376025199890137e-01 -1.072548103332519531e+01 -3.987221862189471722e-05 -2.374963969486998394e-06 -1.267415427719242871e-05 -3.610143494370277040e-06
4.780000000000000000e+02 3.581151068210601807e-01 -8.308964729309082031e+00 2.960387064376845956e-05 6.807138106523780152e-07 9.085375495487824082e-06 3.004972086273483001e-06
4.790000000000000000e+02 3.610540330410003662e-01 -7.503055572509765625e+00 -2.658858102222438902e-05 -9.889143939290079288e-07 -8.273248568002600223e-06 -2.980496446980396286e-06
4.800000000000000000e+02 3.643697798252105713e-01 -6.697660923004150391e+00 2.367628076171968132e-05 6.697036383229715284e-07 7.303795428015291691e-06 2.798965169859002344e-06
4.810000000000000000e+02 3.680166006088256836e-01 -5.893318176269531250e+00 -2.077939825539942831e-05 -7.123256864360882901e-07 -6.447517534979851916e-06 -2.699257493077311665e-06
4.820000000000000000e+02 3.718092441558837891e-01 -5.090285778045654297e+00 1.773587791831232607e-05 5.793095851913676597e-07 5.494556262419791892e-06 2.514753305149497464e-06
4.830000000000000000e+02 3.759733140468597412e-01 -4.288643836975097656e+00 -1.451451771572465077e-05 -5.521127945939952042e-07 -4.519989033724414185e-06 -2.302537041032337584e-06
4.840000000000000000e+02 1.169132232666015625e+00 -2.663837909698486328e+00 6.134677278168965131e-06 1.179303581011481583e-06 2.194194394178339280e-06 3.496625140542164445e-06
4.850000000000000000e+02 7.958736419677734375e+01 -4.206274032592773438e+01 4.369729198515415192e-03 7.373208522796630859e+00 2.213273525238037109e+00 4.781922325491905212e-03
4.860000000000000000e+02 7.953213500976562500e+01 -4.122180557250976562e+01 -7.405448704957962036e-03 7.381951808929443359e+00 2.212363958358764648e+00 4.249944817274808884e-03
4.870000000000000000e+02 7.117554473876953125e+01 -3.850914001464843750e+01 -6.992053240537643433e-02 4.545358180999755859e+00 1.342631340026855469e+00 5.513034462928771973e-01
4.880000000000000000e+02 3.299371719360351562e+01 -3.841840362548828125e+01 3.181554675102233887e-01 3.112819790840148926e-01 1.888312399387359619e-01 3.592054918408393860e-02
4.890000000000000000e+02 1.316995811462402344e+01 -4.109512329101562500e+01 1.863969303667545319e-02 -3.003519400954246521e-02 -3.418650245293974876e-03 -6.229632534086704254e-03
4.900000000000000000e+02 1.599858760833740234e+00 -4.192397308349609375e+01 4.110074660275131464e-04 -8.680826867930591106e-04 -1.371225662296637893e-04 -8.437939104624092579e-04
4.910000000000000000e+02 7.958263397216796875e+01 4.204309844970703125e+01 1.601616479456424713e-02 1.299239063262939453e+01 3.902521848678588867e+00 -1.897339895367622375e-02
4.920000000000000000e+02 7.954487609863281250e+01 4.116711807250976562e+01 -4.435863718390464783e-02 1.302385616302490234e+01 3.893849372863769531e+00 -8.700316771864891052e-03
4.930000000000000000e+02 7.818025207519531250e+01 3.803348541259765625e+01 -3.055128501728177071e-03 1.151696491241455078e+01 3.454173088073730469e+00 -6.604973226785659790e-03
4.940000000000000000e+02 7.966194152832031250e+01 3.972341918945312500e+01 -3.571240976452827454e-02 1.298960971832275391e+01 3.886169195175170898e+00 1.952774077653884888e-02
4.950000000000000000e+02 7.960407257080078125e+01 3.815098190307617188e+01 2.441335935145616531e-03 1.287570476531982422e+01 3.863443851470947266e+00 4.641344398260116577e-02
4.960000000000000000e+02 7.958690643310546875e+01 3.735698699951171875e+01 1.151221897453069687e-02 1.283536529541015625e+01 3.854063272476196289e+00 3.029462136328220367e-02
4.970000000000000000e+02 7.955104064941406250e+01 3.490172576904296875e+01 -9.800047846511006355e-04 1.276886558532714844e+01 3.830365657806396484e+00 4.777318239212036133e-02
4.980000000000000000e+02 7.959271240234375000e+01 3.407698440551757812e+01 -9.922388009727001190e-03 1.272640228271484375e+01 3.814944028854370117e+00 5.846618860960006714e-02
4.990000000000000000e+02 7.961994171142578125e+01 3.326840591430664062e+01 -6.421161349862813950e-03 1.265813732147216797e+01 3.795514822006225586e+00 7.556010782718658447e-02
5.000000000000000000e+02 7.964476013183593750e+01 3.167262268066406250e+01 -4.647788126021623611e-03 1.241596031188964844e+01 3.723393678665161133e+00 1.092123910784721375e-01
5.010000000000000000e+02 7.964900207519531250e+01 3.087847518920898438e+01 -1.033350918442010880e-02 1.224088668823242188e+01 3.669165849685668945e+00 1.271164864301681519e-01
5.020000000000000000e+02 7.894429016113281250e+01 3.009809303283691406e+01 -2.597887255251407623e-02 1.148010253906250000e+01 3.436237096786499023e+00 3.156998455524444580e-01
5.030000000000000000e+02 7.964797973632812500e+01 2.769101905822753906e+01 -2.969045890495181084e-03 1.128091144561767578e+01 3.383382797241210938e+00 1.664740890264511108e-01
5.040000000000000000e+02 7.964710998535156250e+01 2.689034080505371094e+01 4.316374543122947216e-04 1.100578022003173828e+01 3.301863431930541992e+00 1.703435182571411133e-01
5.050000000000000000e+02 7.964671325683593750e+01 2.608886146545410156e+01 7.267564069479703903e-04 1.072807312011718750e+01 3.218640089035034180e+00 1.702970713376998901e-01
5.060000000000000000e+02 7.964649200439453125e+01 2.528737640380859375e+01 9.573919815011322498e-04 1.045094108581542969e+01 3.135569572448730469e+00 1.696864962577819824e-01
5.070000000000000000e+02 7.964585113525390625e+01 2.448594284057617188e+01 2.920474624261260033e-03 1.017834281921386719e+01 3.054378986358642578e+00 1.664366871118545532e-01
5.080000000000000000e+02 7.893821716308593750e+01 2.453177833557128906e+01 8.453438989818096161e-03 9.957655906677246094e+00 2.989832639694213867e+00 3.833483755588531494e-01
5.090000000000000000e+02 7.964459228515625000e+01 2.288179016113281250e+01 4.320112057030200958e-03 9.656750679016113281e+00 2.898321151733398438e+00 1.575563400983810425e-01
5.100000000000000000e+02 7.964426422119140625e+01 2.047712707519531250e+01 2.023188426392152905e-04 8.946778297424316406e+00 2.684094190597534180e+00 1.428656429052352905e-01
5.110000000000000000e+02 7.964405822753906250e+01 1.967471694946289062e+01 4.741865210235118866e-03 8.727736473083496094e+00 2.619743585586547852e+00 1.380474567413330078e-01
5.120000000000000000e+02 7.964422607421875000e+01 1.887240409851074219e+01 -9.587394015397876501e-05 8.515983581542968750e+00 2.554766178131103516e+00 1.342705190181732178e-01
5.130000000000000000e+02 7.964463043212890625e+01 1.807054519653320312e+01 4.171889740973711014e-03 8.310028076171875000e+00 2.494260072708129883e+00 1.304110884666442871e-01
5.140000000000000000e+02 7.893310546875000000e+01 1.811554527282714844e+01 5.165731534361839294e-03 8.367121696472167969e+00 2.511686086654663086e+00 2.991152107715606689e-01
5.150000000000000000e+02 7.964569854736328125e+01 1.646623611450195312e+01 3.135254606604576111e-03 7.909405708312988281e+00 2.373762369155883789e+00 1.256660521030426025e-01
5.160000000000000000e+02 7.964820861816406250e+01 1.406414031982421875e+01 -2.796861575916409492e-03 7.297704696655273438e+00 2.188472270965576172e+00 1.278074085712432861e-01
5.170000000000000000e+02 7.964821624755859375e+01 1.326284313201904297e+01 2.079847909044474363e-04 7.077115058898925781e+00 2.123196840286254883e+00 1.316504180431365967e-01
5.180000000000000000e+02 7.964841461181640625e+01 1.246076297760009766e+01 -3.480140585452318192e-03 6.842729091644287109e+00 2.051774740219116211e+00 1.367781311273574829e-01
5.190000000000000000e+02 7.964877319335937500e+01 1.165941524505615234e+01 -6.655131583102047443e-04 6.591689109802246094e+00 1.977307081222534180e+00 1.425394415855407715e-01
5.200000000000000000e+02 7.964878082275390625e+01 1.085848903656005859e+01 -2.614672295749187469e-03 6.324079036712646484e+00 1.896439313888549805e+00 1.476150304079055786e-01
5.210000000000000000e+02 7.964851379394531250e+01 1.005739784240722656e+01 -4.297787381801754236e-04 6.041213035583496094e+00 1.812234997749328613e+00 1.522515565156936646e-01
5.220000000000000000e+02 7.894641876220703125e+01 1.011673069000244141e+01 -7.829550653696060181e-03 6.433391571044921875e+00 1.927668690681457520e+00 3.831990659236907959e-01
5.230000000000000000e+02 7.964723968505859375e+01 6.852747917175292969e+00 3.964887931942939758e-03 4.858093738555908203e+00 1.458617568016052246e+00 1.419482976198196411e-01
5.240000000000000000e+02 7.964685821533203125e+01 6.050916194915771484e+00 6.809443701058626175e-03 4.586222648620605469e+00 1.377909541130065918e+00 1.302242726087570190e-01
5.250000000000000000e+02 7.964681243896484375e+01 5.248280048370361328e+00 6.707959342747926712e-03 4.340396881103515625e+00 1.304131507873535156e+00 1.157760769128799438e-01
5.260000000000000000e+02 7.964731597900390625e+01 4.445963859558105469e+00 9.127217344939708710e-03 4.127035140991210938e+00 1.240848779678344727e+00 9.804476797580718994e-02
5.270000000000000000e+02 7.964798736572265625e+01 3.643874645233154297e+00 9.114095009863376617e-03 3.953095197677612305e+00 1.188662767410278320e+00 7.782663404941558838e-02
5.280000000000000000e+02 7.894481658935546875e+01 3.708059310913085938e+00 4.323685914278030396e-02 4.716600418090820312e+00 1.427951097488403320e+00 2.079255580902099609e-01
5.290000000000000000e+02 7.964949798583984375e+01 2.039686441421508789e+00 1.007931027561426163e-02 3.740274190902709961e+00 1.125105977058410645e+00 3.375852480530738831e-02
5.300000000000000000e+02 7.965068817138671875e+01 -3.649270832538604736e-01 1.013710722327232361e-02 3.790024518966674805e+00 1.140048503875732422e+00 -3.455376625061035156e-02
5.310000000000000000e+02 7.964998626708984375e+01 -1.167109727859497070e+00 6.845258641988039017e-03 3.901855945587158203e+00 1.172610402107238770e+00 -5.374545231461524963e-02
5.320000000000000000e+02 7.964904785156250000e+01 -1.970171213150024414e+00 8.006286807358264923e-03 4.052863121032714844e+00 1.218260884284973145e+00 -7.108166813850402832e-02
5.330000000000000000e+02 7.964813995361328125e+01 -2.773033142089843750e+00 4.260750953108072281e-03 4.236649036407470703e+00 1.272272944450378418e+00 -8.475217223167419434e-02
5.340000000000000000e+02 7.964724731445312500e+01 -3.575691938400268555e+00 4.674493335187435150e-03 4.445054054260253906e+00 1.334918618202209473e+00 -9.511247277259826660e-02
5.350000000000000000e+02 7.893889617919921875e+01 -3.517914295196533203e+00 1.802365109324455261e-02 4.953562736511230469e+00 1.491475939750671387e+00 -2.593620121479034424e-01
5.360000000000000000e+02 7.964656829833984375e+01 -5.180899620056152344e+00 3.160778665915131569e-03 4.910432338714599609e+00 1.474077939987182617e+00 -1.086374148726463318e-01
5.370000000000000000e+02 7.964812469482421875e+01 -7.587161540985107422e+00 -4.773247346747666597e-04 5.674803733825683594e+00 1.702297925949096680e+00 -1.177158504724502563e-01
5.380000000000000000e+02 7.964787292480468750e+01 -8.389958381652832031e+00 2.259743167087435722e-03 5.939060688018798828e+00 1.782396078109741211e+00 -1.198947206139564514e-01
5.390000000000000000e+02 7.964790344238281250e+01 -9.192562103271484375e+00 -1.575103029608726501e-03 6.204763889312744141e+00 1.860956549644470215e+00 -1.201532185077667236e-01
5.400000000000000000e+02 7.964823913574218750e+01 -9.994503974914550781e+00 2.208255697041749954e-03 6.471175670623779297e+00 1.942015171051025391e+00 -1.210531145334243774e-01
5.410000000000000000e+02 7.964838409423828125e+01 -1.079579734802246094e+01 -2.776249544695019722e-03 6.736767768859863281e+00 2.020197391510009766e+00 -1.197879090905189514e-01
5.420000000000000000e+02 7.894458770751953125e+01 -9.948916435241699219e+00 -1.572286826558411121e-03 6.500720024108886719e+00 1.949744343757629395e+00 -3.283734321594238281e-01
5.430000000000000000e+02 7.964690399169921875e+01 -1.239942932128906250e+01 -4.842250607907772064e-03 7.258946895599365234e+00 2.176231384277343750e+00 -1.160130873322486877e-01
5.440000000000000000e+02 7.964536285400390625e+01 -1.480582046508789062e+01 -1.117930398322641850e-03 7.959900379180908203e+00 2.387634754180908203e+00 -9.316594898700714111e-02
5.450000000000000000e+02 7.964508819580078125e+01 -1.560842132568359375e+01 -1.244103256613016129e-02 8.145783424377441406e+00 2.440002679824829102e+00 -7.684911787509918213e-02
5.460000000000000000e+02 7.964613342285156250e+01 -1.641055107116699219e+01 -4.891909658908843994e-03 8.293598175048828125e+00 2.486611843109130859e+00 -5.766669660806655884e-02
5.470000000000000000e+02 7.964865112304687500e+01 -1.721138763427734375e+01 -1.735693961381912231e-02 8.392314910888671875e+00 2.512487411499023438e+00 -3.134763240814208984e-02
5.480000000000000000e+02 7.965209960937500000e+01 -1.801106071472167969e+01 -7.861735299229621887e-03 8.431744575500488281e+00 2.527164697647094727e+00 -3.013587323948740959e-03
5.490000000000000000e+02 7.895787811279296875e+01 -1.795988082885742188e+01 -6.873527914285659790e-02 8.081974029541015625e+00 2.403971672058105469e+00 -1.241680141538381577e-02
5.500000000000000000e+02 7.965985870361328125e+01 -1.960881805419921875e+01 -9.276576340198516846e-03 8.292603492736816406e+00 2.484997987747192383e+00 6.526405364274978638e-02
5.510000000000000000e+02 7.965544891357421875e+01 -2.200663757324218750e+01 -1.195348612964153290e-02 7.494035720825195312e+00 2.244624614715576172e+00 1.586186140775680542e-01
5.520000000000000000e+02 7.965155029296875000e+01 -2.280691146850585938e+01 -3.022631397470831871e-03 7.118731498718261719e+00 2.134712696075439453e+00 1.753743886947631836e-01
5.530000000000000000e+02 7.219371795654296875e+01 -2.559685516357421875e+01 6.756002902984619141e-01 1.088159370422363281e+01 3.467158079147338867e+00 -1.483661979436874390e-01
5.540000000000000000e+02 7.964822387695312500e+01 -2.440777015686035156e+01 3.603333607316017151e-03 6.340869903564453125e+00 1.903342008590698242e+00 1.716936826705932617e-01
5.550000000000000000e+02 7.964799499511718750e+01 -2.520886039733886719e+01 1.473896950483322144e-02 5.986831188201904297e+00 1.800471067428588867e+00 1.491316109895706177e-01
5.560000000000000000e+02 7.964700317382812500e+01 -2.601069641113281250e+01 1.305501442402601242e-02 5.694055080413818359e+00 1.712133049964904785e+00 1.180568113923072815e-01
5.570000000000000000e+02 7.964018249511718750e+01 -2.841231536865234375e+01 1.996867917478084564e-02 5.331700325012207031e+00 1.605500698089599609e+00 -5.559771787375211716e-03
5.580000000000000000e+02 7.963687133789062500e+01 -2.921133422851562500e+01 1.441818941384553909e-02 5.389146327972412109e+00 1.621069312095642090e+00 -4.275097325444221497e-02
5.590000000000000000e+02 7.963168334960937500e+01 -3.001187133789062500e+01 1.491065323352813721e-02 5.518939018249511719e+00 1.660154819488525391e+00 -7.527772337198257446e-02
5.600000000000000000e+02 7.962513732910156250e+01 -3.081428909301757812e+01 5.994897801429033279e-03 5.701755523681640625e+00 1.712325096130371094e+00 -9.619503468275070190e-02
5.610000000000000000e+02 7.961858367919921875e+01 -3.161911201477050781e+01 7.160827983170747757e-03 5.914737224578857422e+00 1.776569366455078125e+00 -1.104200854897499084e-01
5.620000000000000000e+02 7.885719299316406250e+01 -3.150997543334960938e+01 1.549613382667303085e-02 6.120430946350097656e+00 1.840778112411499023e+00 -2.744049727916717529e-01
5.630000000000000000e+02 7.960671234130859375e+01 -3.323369216918945312e+01 5.290719214826822281e-03 6.363126754760742188e+00 1.910525202751159668e+00 -1.148186773061752319e-01
5.640000000000000000e+02 7.955957794189453125e+01 -3.568147659301757812e+01 -1.915353722870349884e-02 6.908190727233886719e+00 2.066711187362670898e+00 -8.027842640876770020e-02
5.650000000000000000e+02 7.955976867675781250e+01 -3.649222183227539062e+01 1.429627445759251714e-04 7.028496742248535156e+00 2.108591794967651367e+00 -6.286528706550598145e-02
5.660000000000000000e+02 7.957985687255859375e+01 -3.729344177246093750e+01 -1.288007758557796478e-02 7.126779079437255859e+00 2.134169816970825195e+00 -5.130807310342788696e-02
5.670000000000000000e+02 7.960566711425781250e+01 -3.808272171020507812e+01 5.224845372140407562e-03 7.212512493133544922e+00 2.165321111679077148e+00 -4.350559785962104797e-02
5.680000000000000000e+02 7.959938812255859375e+01 -3.885841369628906250e+01 -1.692473143339157104e-02 7.282973766326904297e+00 2.179814815521240234e+00 -3.034772723913192749e-02
5.690000000000000000e+02 7.956057739257812500e+01 -4.042257690429687500e+01 -2.023234404623508453e-02 7.375968933105468750e+00 2.206721067428588867e+00 -1.789419725537300110e-02
5.700000000000000000e+02 4.775672852993011475e-01 4.199699401855468750e+01 -4.816354485228657722e-04 -1.918719887733459473e+00 -5.757604837417602539e-01 -6.358006794471293688e-05
5.710000000000000000e+02 5.863951444625854492e-01 4.110348510742187500e+01 -1.825691014528274536e-02 -1.920861721038818359e+00 -5.817356109619140625e-01 -6.904814392328262329e-03
5.720000000000000000e+02 5.413144111633300781e+00 3.858252334594726562e+01 -3.026920743286609650e-02 -1.106725692749023438e+00 -3.410984575748443604e-01 -6.541933119297027588e-02
5.730000000000000000e+02 2.779751777648925781e+01 4.066268539428710938e+01 -7.755678296089172363e-01 2.813183307647705078e+00 6.112846136093139648e-01 -1.102809160947799683e-01
5.740000000000000000e+02 4.588144302368164062e+01 3.697061157226562500e+01 -9.869179129600524902e-01 2.861356019973754883e+00 5.623314380645751953e-01 3.178339600563049316e-01
5.750000000000000000e+02 6.657908630371093750e+01 3.867441177368164062e+01 2.205004729330539703e-02 1.236194610595703125e+00 3.774734139442443848e-01 2.613267302513122559e-02
5.760000000000000000e+02 7.899452972412109375e+01 3.999709320068359375e+01 -2.002739114686846733e-03 1.217558479309082031e+01 3.652074575424194336e+00 8.342215418815612793e-02
5.770000000000000000e+02 7.856887054443359375e+01 4.192860794067382812e+01 -2.671499364078044891e-02 1.213002586364746094e+01 3.630993366241455078e+00 6.931789964437484741e-02
5.780000000000000000e+02 3.869014084339141846e-01 1.892766356468200684e+00 -4.209758248180150986e-03 1.546962652355432510e-02 3.377960296347737312e-03 4.829432873521000147e-04
5.790000000000000000e+02 1.164588928222656250e+00 1.877408862113952637e+00 -2.125893160700798035e-02 -2.688341960310935974e-02 -1.444270554929971695e-02 1.368405297398567200e-02
5.800000000000000000e+02 1.887639045715332031e+00 2.608494997024536133e+00 -5.894896015524864197e-02 -8.737762272357940674e-02 -4.389797523617744446e-02 7.859861850738525391e-02
5.810000000000000000e+02 3.576976954936981201e-01 4.274922847747802734e+00 -3.612413536757230759e-03 -9.215661138296127319e-02 -2.873070724308490753e-02 3.091393783688545227e-02
5.820000000000000000e+02 1.069299101829528809e+00 4.990509510040283203e+00 -1.569696515798568726e-02 -2.321470230817794800e-01 -7.435319572687149048e-02 1.154256239533424377e-01
5.830000000000000000e+02 3.541027903556823730e-01 5.875307559967041016e+00 -1.429876196198165417e-03 -2.732103765010833740e-01 -8.239208161830902100e-02 4.608072340488433838e-02
5.840000000000000000e+02 3.546120524406433105e-01 8.282080650329589844e+00 -2.198938280344009399e-03 -6.358965635299682617e-01 -1.914286464452743530e-01 5.649273470044136047e-02
5.850000000000000000e+02 3.544832170009613037e-01 9.085138320922851562e+00 2.206243341788649559e-03 -7.658714652061462402e-01 -2.290995568037033081e-01 5.597334727644920349e-02
5.860000000000000000e+02 3.543836772441864014e-01 9.888474464416503906e+00 -1.286185462959110737e-03 -8.956841230392456055e-01 -2.690910995006561279e-01 5.574223771691322327e-02
5.870000000000000000e+02 3.544422686100006104e-01 1.069238853454589844e+01 2.958235330879688263e-03 -1.022565960884094238e+00 -3.058823347091674805e-01 5.335119739174842834e-02
5.880000000000000000e+02 3.547862172126770020e-01 1.149640560150146484e+01 -4.558455548249185085e-04 -1.144914865493774414e+00 -3.436112105846405029e-01 5.128605291247367859e-02
5.890000000000000000e+02 1.062242507934570312e+00 1.139298343658447266e+01 7.696583401411771774e-03 -1.084875702857971191e+00 -3.231537044048309326e-01 1.510509252548217773e-01
5.900000000000000000e+02 3.558496832847595215e-01 1.310398769378662109e+01 9.439144923817366362e-05 -1.370378494262695312e+00 -4.110852479934692383e-01 4.499827325344085693e-02
5.910000000000000000e+02 3.571786284446716309e-01 1.551525211334228516e+01 2.818373963236808777e-03 -1.652347445487976074e+00 -4.948587119579315186e-01 3.414395451545715332e-02
5.920000000000000000e+02 3.576822578907012939e-01 1.631916809082031250e+01 4.823442141059786081e-04 -1.730575084686279297e+00 -5.190278291702270508e-01 3.092757053673267365e-02
5.930000000000000000e+02 3.583089411258697510e-01 1.712309455871582031e+01 2.710714936256408691e-03 -1.800629854202270508e+00 -5.393757224082946777e-01 2.708687260746955872e-02
5.940000000000000000e+02 3.589726686477661133e-01 1.792696762084960938e+01 4.744655452668666840e-04 -1.862989068031311035e+00 -5.587543845176696777e-01 2.395962178707122803e-02
5.950000000000000000e+02 3.597218394279479980e-01 1.873101615905761719e+01 2.510493388399481773e-03 -1.917537212371826172e+00 -5.745080113410949707e-01 2.037646621465682983e-02
5.960000000000000000e+02 3.643363118171691895e-01 2.194757652282714844e+01 1.725157140754163265e-03 -2.064593315124511719e+00 -6.188604235649108887e-01 8.641926571726799011e-03
5.970000000000000000e+02 3.661841154098510742e-01 2.275205612182617188e+01 7.604885613545775414e-04 -2.085384368896484375e+00 -6.253871321678161621e-01 6.065336987376213074e-03
5.980000000000000000e+02 3.685106933116912842e-01 2.355681610107421875e+01 1.267343061044812202e-03 -2.100454568862915039e+00 -6.297561526298522949e-01 3.798500401899218559e-03
5.990000000000000000e+02 3.710800707340240479e-01 2.436173057556152344e+01 6.886809132993221283e-04 -2.110757112503051758e+00 -6.330205202102661133e-01 1.755725126713514328e-03
6.000000000000000000e+02 3.738960027694702148e-01 2.516661453247070312e+01 7.895063026808202267e-04 -2.116732597351074219e+00 -6.347829103469848633e-01 1.641960261622443795e-04
6.010000000000000000e+02 1.116118788719177246e+00 2.426157569885253906e+01 4.430527798831462860e-03 -1.966559886932373047e+00 -5.886387825012207031e-01 1.089961454272270203e-02
6.020000000000000000e+02 3.820137381553649902e-01 2.677847480773925781e+01 6.142203928902745247e-04 -2.118963956832885742e+00 -6.355049610137939453e-01 -2.479152521118521690e-03
6.030000000000000000e+02 3.937767148017883301e-01 2.920454978942871094e+01 1.749205519445240498e-03 -2.099943161010742188e+00 -6.294581890106201172e-01 -6.900793872773647308e-03
6.040000000000000000e+02 3.916094303131103516e-01 3.001115036010742188e+01 -1.809281180612742901e-03 -2.088775634765625000e+00 -6.271755099296569824e-01 -6.574400234967470169e-03
6.050000000000000000e+02 3.847076892852783203e-01 3.081410789489746094e+01 2.607778646051883698e-03 -2.076719284057617188e+00 -6.222334504127502441e-01 -7.721499074250459671e-03
6.060000000000000000e+02 3.765446543693542480e-01 3.161322593688964844e+01 -2.815792337059974670e-03 -2.063317298889160156e+00 -6.198399066925048828e-01 -7.068747654557228088e-03
6.070000000000000000e+02 1.120009422302246094e+00 3.155950927734375000e+01 3.602308686822652817e-03 -1.936740159988403320e+00 -5.799413919448852539e-01 -2.038100920617580414e-02
6.080000000000000000e+02 3.814097940921783447e-01 3.321378707885742188e+01 -3.411678830161690712e-03 -2.035695075988769531e+00 -6.117320060729980469e-01 -6.825068034231662750e-03
6.090000000000000000e+02 3.957790136337280273e-01 3.561178207397460938e+01 4.865745082497596741e-03 -1.996440768241882324e+00 -5.974724888801574707e-01 -6.451053544878959656e-03
6.100000000000000000e+02 3.800347149372100830e-01 3.640908050537109375e+01 -6.138708442449569702e-03 -1.987352728843688965e+00 -5.980474352836608887e-01 -3.569265594705939293e-03
6.110000000000000000e+02 3.818736672401428223e-01 3.720616149902343750e+01 5.623291246592998505e-03 -1.979452371597290039e+00 -5.921487212181091309e-01 -4.961882252246141434e-03
6.120000000000000000e+02 4.066808223724365234e-01 3.799650573730468750e+01 -2.686298219487071037e-03 -1.967805147171020508e+00 -5.911474227905273438e-01 -6.591831799596548080e-03
6.130000000000000000e+02 4.391215741634368896e-01 3.877416992187500000e+01 2.659818157553672791e-03 -1.955147862434387207e+00 -5.857464075088500977e-01 -7.611569017171859741e-03
6.140000000000000000e+02 5.274858474731445312e-01 4.033129119873046875e+01 2.114211209118366241e-02 -1.934627532958984375e+00 -5.740455985069274902e-01 -1.702794991433620453e-02
6.150000000000000000e+02 9.924510002136230469e+00 1.993297219276428223e+00 -1.028372287750244141e+00 -6.163383722305297852e-01 -4.934132099151611328e-01 8.687763810157775879e-01
6.160000000000000000e+02 9.063198089599609375e+00 1.939096689224243164e+00 -9.359953999519348145e-01 -4.394093751907348633e-01 -4.126214385032653809e-01 7.824928760528564453e-01
6.170000000000000000e+02 8.252625465393066406e+00 1.903185963630676270e+00 -8.856720924377441406e-01 -2.537588775157928467e-01 -3.418292999267578125e-01 6.498269438743591309e-01
6.180000000000000000e+02 7.302730083465576172e+00 2.629531145095825195e+00 -6.199526190757751465e-01 -2.561487555503845215e-01 -2.628304064273834229e-01 6.077593564987182617e-01
6.190000000000000000e+02 6.664618015289306641e+00 1.864598512649536133e+00 -5.663810372352600098e-01 -1.258905678987503052e-01 -2.076814919710159302e-01 4.008870422840118408e-01
6.200000000000000000e+02 4.302712917327880859e+00 1.850932836532592773e+00 -2.285641878843307495e-01 -7.015968114137649536e-02 -8.961716294288635254e-02 1.838111728429794312e-01
6.210000000000000000e+02 3.517295598983764648e+00 1.853421926498413086e+00 -1.557971388101577759e-01 -6.894862651824951172e-02 -6.742373108863830566e-02 1.342695653438568115e-01
6.220000000000000000e+02 1.947349071502685547e+00 1.866690158843994141e+00 -5.258925259113311768e-02 -4.998760297894477844e-02 -3.077305667102336884e-02 4.521563276648521423e-02
6.230000000000000000e+02 1.317035770416259766e+01 6.768854856491088867e-01 -1.668922066688537598e+00 -1.006195425987243652e+00 -8.025352358818054199e-01 1.219306349754333496e+00
6.240000000000000000e+02 1.520140552520751953e+01 1.177324414253234863e+00 -1.181288480758666992e+00 -1.229635000228881836e+00 -7.232770323753356934e-01 1.163090467453002930e+00
6.250000000000000000e+02 1.600804519653320312e+01 -8.706061840057373047e-01 -1.970747828483581543e+00 -1.402047395706176758e+00 -1.011838555335998535e+00 1.496620535850524902e+00
6.260000000000000000e+02 1.733629226684570312e+01 -1.788898706436157227e+00 -2.053086519241333008e+00 -1.569285750389099121e+00 -1.086711764335632324e+00 1.601124644279479980e+00
6.270000000000000000e+02 1.862220573425292969e+01 -2.766997814178466797e+00 -2.046752214431762695e+00 -1.693121790885925293e+00 -1.121962189674377441e+00 1.638000369071960449e+00
6.280000000000000000e+02 2.096487808227539062e+01 -4.992947578430175781e+00 -1.873447179794311523e+00 -1.742784619331359863e+00 -1.084869503974914551e+00 1.616700291633605957e+00
6.290000000000000000e+02 2.150446319580078125e+01 -5.594319820404052734e+00 -1.804935574531555176e+00 -1.713661432266235352e+00 -1.055579066276550293e+00 1.578061223030090332e+00
6.300000000000000000e+02 2.299629974365234375e+01 -7.488567352294921875e+00 -1.514583349227905273e+00 -1.534165859222412109e+00 -9.146247506141662598e-01 1.428287982940673828e+00
6.310000000000000000e+02 2.345489883422851562e+01 -8.147706031799316406e+00 -1.418285489082336426e+00 -1.446973919868469238e+00 -8.595778346061706543e-01 1.355236411094665527e+00
6.320000000000000000e+02 2.429517173767089844e+01 -9.502909660339355469e+00 -1.201851963996887207e+00 -1.246318340301513672e+00 -7.344510555267333984e-01 1.220523238182067871e+00
6.330000000000000000e+02 2.540567970275878906e+01 -1.154403209686279297e+01 -8.955828547477722168e-01 -8.498517274856567383e-01 -5.236303806304931641e-01 1.009646654129028320e+00
6.340000000000000000e+02 2.637271499633789062e+01 -1.357189083099365234e+01 -6.487528085708618164e-01 -4.849911034107208252e-01 -3.401231765747070312e-01 8.427026867866516113e-01
6.350000000000000000e+02 2.670141792297363281e+01 -1.425036907196044922e+01 -5.938935875892639160e-01 -4.118994176387786865e-01 -3.017379045486450195e-01 7.944701313972473145e-01
6.360000000000000000e+02 2.704182243347167969e+01 -1.494185543060302734e+01 -5.932492613792419434e-01 -3.475034832954406738e-01 -2.822258174419403076e-01 7.102912068367004395e-01
6.370000000000000000e+02 3.002413749694824219e+01 -1.660450553894042969e+01 -1.054825305938720703e+00 -4.249309375882148743e-02 -3.291955292224884033e-01 4.571695625782012939e-01
6.380000000000000000e+02 2.968085098266601562e+01 -1.733789062500000000e+01 -1.226172685623168945e+00 -1.492780745029449463e-01 -4.126352369785308838e-01 4.735635817050933838e-01
6.390000000000000000e+02 3.117224502563476562e+01 -1.781547927856445312e+01 -1.306904792785644531e+00 -2.848047390580177307e-02 -4.006155729293823242e-01 3.291333615779876709e-01
6.400000000000000000e+02 3.193514823913574219e+01 -1.796172904968261719e+01 -1.416068196296691895e+00 2.610777504742145538e-02 -4.169881343841552734e-01 2.372575104236602783e-01
6.410000000000000000e+02 3.171447944641113281e+01 -1.639056396484375000e+01 -9.928134083747863770e-01 1.707676053047180176e-01 -2.466137409210205078e-01 2.659489214420318604e-01
6.420000000000000000e+02 3.504436874389648438e+01 -1.814720535278320312e+01 -1.635175466537475586e+00 2.942530065774917603e-02 -4.817250669002532959e-01 -4.149684309959411621e-02
6.430000000000000000e+02 3.582814788818359375e+01 -1.816886329650878906e+01 -1.266426086425781250e+00 5.400229990482330322e-02 -3.637271523475646973e-01 -1.431593596935272217e-01
6.440000000000000000e+02 3.659832763671875000e+01 -1.818805694580078125e+01 -5.257701277732849121e-01 1.148959770798683167e-01 -1.232622414827346802e-01 -3.363575637340545654e-01
6.450000000000000000e+02 3.802205657958984375e+01 -1.798880004882812500e+01 1.587204575538635254e+00 2.180742263793945312e+00 1.130384087562561035e+00 -2.217863559722900391e+00
6.460000000000000000e+02 4.019479370117187500e+01 -2.008730316162109375e+01 4.933516979217529297e+00 6.575695514678955078e+00 3.452763795852661133e+00 -5.735642910003662109e+00
6.470000000000000000e+02 4.180164337158203125e+01 -2.179027938842773438e+01 4.871281623840332031e+00 1.868010139465332031e+01 7.065414905548095703e+00 -6.805111408233642578e+00
6.480000000000000000e+02 4.214941024780273438e+01 -2.459004211425781250e+01 3.395012915134429932e-01 1.608563804626464844e+01 4.927541732788085938e+00 -7.891767621040344238e-01
6.490000000000000000e+02 4.220114898681640625e+01 -2.304431152343750000e+01 2.133154392242431641e+00 1.937672615051269531e+01 6.452963829040527344e+00 -3.627604246139526367e+00
6.500000000000000000e+02 4.213583755493164062e+01 -2.695509338378906250e+01 1.662262082099914551e-01 1.383927059173583984e+01 4.201649188995361328e+00 4.044498875737190247e-02
6.510000000000000000e+02 4.218069076538085938e+01 -2.777495193481445312e+01 3.309642672538757324e-01 1.446967887878417969e+01 4.440193176269531250e+00 5.561015009880065918e-01
6.520000000000000000e+02 3.857201766967773438e+01 -3.227170181274414062e+01 3.923347592353820801e-01 7.430784106254577637e-01 3.406239449977874756e-01 7.649551033973693848e-01
6.530000000000000000e+02 3.776666259765625000e+01 -3.256644058227539062e+01 -2.727887630462646484e-01 3.691086173057556152e-01 2.889595367014408112e-02 3.974426984786987305e-01
6.540000000000000000e+02 3.693519973754882812e+01 -3.273460388183593750e+01 -8.250603079795837402e-01 1.198155730962753296e-01 -2.115734219551086426e-01 1.694324463605880737e-01
6.550000000000000000e+02 3.366870498657226562e+01 -3.248066329956054688e+01 -1.162684440612792969e+00 -4.810716956853866577e-02 -3.632374703884124756e-01 1.423879116773605347e-01
6.560000000000000000e+02 3.137895393371582031e+01 -3.188967704772949219e+01 -6.335909366607666016e-01 4.600273445248603821e-03 -1.886972039937973022e-01 1.009442955255508423e-01
6.570000000000000000e+02 2.907427215576171875e+01 -3.153522491455078125e+01 -4.649249911308288574e-01 7.321765646338462830e-03 -1.372809708118438721e-01 2.912696264684200287e-02
6.580000000000000000e+02 2.978983306884765625e+01 -3.243449783325195312e+01 -4.660639166831970215e-01 2.864698693156242371e-02 -1.312250792980194092e-01 -1.540094893425703049e-02
6.590000000000000000e+02 2.748966026306152344e+01 -3.142555427551269531e+01 -3.916481733322143555e-01 1.611842657439410686e-03 -1.170108988881111145e-01 1.125092525035142899e-02
6.600000000000000000e+02 2.588887786865234375e+01 -3.129006385803222656e+01 -2.956431508064270020e-01 1.597575028426945210e-03 -8.821367472410202026e-02 2.663609804585576057e-03
6.610000000000000000e+02 2.509293937683105469e+01 -3.120990562438964844e+01 -2.564794421195983887e-01 8.650128729641437531e-03 -7.434879243373870850e-02 -5.323257762938737869e-03
6.620000000000000000e+02 2.350753021240234375e+01 -3.111583709716796875e+01 -1.910258084535598755e-01 8.856685832142829895e-03 -5.465073511004447937e-02 -8.717927150428295135e-03
6.630000000000000000e+02 2.191939544677734375e+01 -3.113103294372558594e+01 -1.508298069238662720e-01 3.701314795762300491e-03 -4.413854703307151794e-02 -1.708929426968097687e-02
6.640000000000000000e+02 2.111664199829101562e+01 -3.113712692260742188e+01 -1.341331452131271362e-01 -8.277489803731441498e-03 -4.272319003939628601e-02 -1.456625852733850479e-02
6.650000000000000000e+02 1.870604896545410156e+01 -3.118442726135253906e+01 -8.156342059373855591e-02 2.501690061762928963e-03 -2.371851913630962372e-02 -7.334060501307249069e-03
6.660000000000000000e+02 1.605631637573242188e+01 -3.192493247985839844e+01 -3.770871460437774658e-02 9.889227803796529770e-04 -1.101593673229217529e-02 -1.262800116091966629e-02
6.670000000000000000e+02 1.626277542114257812e+01 -3.095567131042480469e+01 -3.899363428354263306e-02 -2.174241701140999794e-03 -1.235036365687847137e-02 -4.091712180525064468e-04
6.680000000000000000e+02 1.546600532531738281e+01 -3.076650619506835938e+01 -2.657591737806797028e-02 1.401472371071577072e-03 -7.552333641797304153e-03 8.410253212787210941e-04
6.690000000000000000e+02 1.468706130981445312e+01 -3.054920196533203125e+01 -1.815201900899410248e-02 -2.223973860964179039e-03 -6.112798117101192474e-03 4.172516637481749058e-04
6.700000000000000000e+02 1.249760913848876953e+01 -2.967360877990722656e+01 -1.849162857979536057e-03 4.512378480285406113e-03 7.989646983332931995e-04 -2.151082735508680344e-04
6.710000000000000000e+02 1.167588710784912109e+01 -2.964198684692382812e+01 -2.770441351458430290e-03 -1.706469454802572727e-03 -1.343073323369026184e-03 -5.788071430288255215e-04
6.720000000000000000e+02 9.524382591247558594e+00 -2.646765899658203125e+01 5.394875770434737206e-04 1.000853255391120911e-03 4.621022380888462067e-04 -1.142517896369099617e-03
6.730000000000000000e+02 8.112460136413574219e+00 -2.511343955993652344e+01 7.813496049493551254e-04 2.561333240009844303e-04 3.112448903266340494e-04 -2.372978342464193702e-04
6.740000000000000000e+02 8.891026496887207031e+00 -2.167356681823730469e+01 -3.465451300144195557e-04 -5.678573143086396158e-05 -1.209992551594041288e-04 9.743517875904217362e-05
6.750000000000000000e+02 9.705222129821777344e+00 -1.935369300842285156e+01 2.233436825918033719e-04 2.851944191206712276e-05 7.555893535027280450e-05 -1.291430671699345112e-04
6.760000000000000000e+02 1.091235637664794922e+01 -1.722197151184082031e+01 -8.501483534928411245e-05 -7.721666770521551371e-05 -4.866945164394564927e-05 8.118843834381550550e-05
6.770000000000000000e+02 1.260858058929443359e+01 -1.541228580474853516e+01 2.008995761570986360e-05 6.334276258712634444e-05 2.502981624274980277e-05 -5.157317355042323470e-05
6.780000000000000000e+02 1.400935649871826172e+01 -1.453677463531494141e+01 5.746746865042950958e-06 5.584449536399915814e-05 1.847737257776316255e-05 -1.628778409212827682e-05
6.790000000000000000e+02 1.473470020294189453e+01 -1.416493225097656250e+01 -6.831019163655582815e-07 -3.931345054297707975e-05 -1.199896541947964579e-05 1.055470966093707830e-05
6.800000000000000000e+02 1.880142784118652344e+01 -8.013313293457031250e+00 -6.342491360555868596e-06 2.754935167104122229e-06 -1.076266926247626543e-06 -5.040051860305538867e-07
6.810000000000000000e+02 2.028306198120117188e+01 -1.104144573211669922e+01 -9.135971595242153853e-06 2.591124712125747465e-06 -1.963453996722819284e-06 -1.711315576358174440e-06
6.820000000000000000e+02 2.117709159851074219e+01 -1.281040382385253906e+01 4.728996827907394618e-06 4.714452643383992836e-06 2.833034841387416236e-06 3.150091060888371430e-06
6.830000000000000000e+02 2.266759300231933594e+01 -1.399163722991943359e+01 4.281392193661304191e-06 -2.299798097737948410e-06 5.944781946709554177e-07 6.642305834247963503e-07
6.840000000000000000e+02 2.279974555969238281e+01 -1.442568397521972656e+01 -1.292529418606136460e-06 -1.098404254662455060e-06 -7.172801019805774558e-07 -1.030384808586859435e-07
6.850000000000000000e+02 2.210082626342773438e+01 -1.417367458343505859e+01 1.824571199904312380e-06 1.216420969285536557e-06 9.122976507569546811e-07 8.879570145836623851e-07
6.860000000000000000e+02 2.245270538330078125e+01 -1.355827617645263672e+01 -5.359618626243900508e-06 1.186847498502174858e-06 -1.251831349691201467e-06 -6.724595777996000834e-07
6.870000000000000000e+02 2.133973121643066406e+01 -1.385498428344726562e+01 -2.589286225429532351e-07 -1.791318368304928299e-06 -6.150741000965354033e-07 -1.610201479707029648e-06
6.880000000000000000e+02 2.152259063720703125e+01 -1.197118282318115234e+01 4.284583610569825396e-06 1.629906819289317355e-06 1.774347197169845458e-06 2.548036491134553216e-06
6.890000000000000000e+02 2.044703674316406250e+01 -1.020089340209960938e+01 -6.970845788600854576e-06 1.057419126482272986e-06 -1.774027964529523160e-06 -1.568034804222406819e-06
6.900000000000000000e+02 2.082088470458984375e+01 -1.077995204925537109e+01 6.740320259268628433e-06 -7.215545565486536361e-07 1.805629722184676211e-06 2.056716539300396107e-06
6.910000000000000000e+02 2.118257904052734375e+01 -1.137065315246582031e+01 -5.857009455212391913e-06 5.049508544630043616e-08 -1.741954292810987681e-06 -2.620265149744227529e-06
6.920000000000000000e+02 1.706302261352539062e+01 -7.918089866638183594e+00 -8.826192242850083858e-06 3.972304966737283394e-06 -1.456166273783310317e-06 -1.011078666124376468e-06
6.930000000000000000e+02 1.685789871215820312e+01 -6.061336517333984375e+00 -3.800377726292936131e-06 2.627735966598265804e-06 -3.517925506457686424e-07 -2.833496921539335744e-07
6.940000000000000000e+02 1.735588073730468750e+01 -6.536090373992919922e+00 4.438078576640691608e-06 -2.505169959476916119e-06 5.798726192551839631e-07 3.059591051624011016e-07
6.950000000000000000e+02 1.543675994873046875e+01 -5.720002651214599609e+00 4.450640972208930179e-06 -3.502088929963065311e-06 2.845656581484945491e-07 5.301484407027601264e-07
6.960000000000000000e+02 1.523715305328369141e+01 -4.780344963073730469e+00 2.641697392391506582e-06 -3.292312385383411311e-06 -1.951845263192808488e-07 2.369695693005269277e-07
6.970000000000000000e+02 1.468124771118164062e+01 -4.373421669006347656e+00 -2.271696985189919360e-06 3.644556954895961098e-06 4.118580250178638380e-07 -2.957307856377155986e-07
6.980000000000000000e+02 1.169589805603027344e+01 -2.697916746139526367e+00 1.805855049497040454e-06 -5.855343715666094795e-06 -1.214846633956767619e-06 7.539354669461317826e-07
6.990000000000000000e+02 1.229810428619384766e+01 -2.983205556869506836e+00 -1.775890837052429561e-06 5.411703114077681676e-06 1.090743694476259407e-06 -7.218578161882760469e-07
7.000000000000000000e+02 1.086996650695800781e+01 -3.099847793579101562e+00 2.655089701875112951e-06 -6.400082384061533958e-06 -1.123497781918558758e-06 1.725737888591538649e-06
7.010000000000000000e+02 9.188175201416015625e+00 -1.885489821434020996e+00 1.476300212743808515e-06 -6.523931006086058915e-06 -1.514289238002675120e-06 1.729341931877570460e-07
7.020000000000000000e+02 6.433879852294921875e+01 3.437533187866210938e+01 -2.535394191741943359e+00 -1.230020999908447266e+00 -1.129624485969543457e+00 1.485797286033630371e+00
7.030000000000000000e+02 6.500859832763671875e+01 3.379030609130859375e+01 -2.103546619415283203e+00 -1.225815892219543457e+00 -9.988087415695190430e-01 1.535086274147033691e+00
7.040000000000000000e+02 6.560694885253906250e+01 3.317468261718750000e+01 -1.821914911270141602e+00 -1.196694850921630859e+00 -9.055829048156738281e-01 1.412356019020080566e+00
7.050000000000000000e+02 6.717666625976562500e+01 3.128142738342285156e+01 -8.974341750144958496e-01 -3.469189107418060303e-01 -3.733059167861938477e-01 6.886031031608581543e-01
7.060000000000000000e+02 6.787488555908203125e+01 3.165660095214843750e+01 -1.034311652183532715e+00 1.131242632865905762e+00 2.907926961779594421e-02 3.051283955574035645e-01
7.070000000000000000e+02 6.814372253417968750e+01 2.998482513427734375e+01 -1.900004893541336060e-01 1.217416405677795410e+00 3.082247674465179443e-01 -1.620606482028961182e-01
7.080000000000000000e+02 6.928280639648437500e+01 2.693175506591796875e+01 2.184997946023941040e-01 5.591932773590087891e+00 1.743129849433898926e+00 -8.666532635688781738e-01
7.090000000000000000e+02 6.944290924072265625e+01 2.613480377197265625e+01 2.177619636058807373e-01 6.577602863311767578e+00 2.038609504699707031e+00 -7.448040843009948730e-01
7.100000000000000000e+02 7.036161804199218750e+01 2.369644165039062500e+01 2.258272320032119751e-01 7.785710334777832031e+00 2.403461217880249023e+00 3.544695302844047546e-02
7.110000000000000000e+02 6.969446563720703125e+01 2.292084121704101562e+01 1.118165627121925354e-02 8.044465065002441406e+00 2.416694164276123047e+00 6.988976895809173584e-02
7.120000000000000000e+02 6.968289947509765625e+01 2.372381401062011719e+01 1.337063759565353394e-01 8.151215553283691406e+00 2.485476493835449219e+00 -1.065949201583862305e-01
7.130000000000000000e+02 7.181758117675781250e+01 2.122628211975097656e+01 8.827979117631912231e-02 8.387929916381835938e+00 2.542862892150878906e+00 5.042283535003662109e-01
7.140000000000000000e+02 6.970072174072265625e+01 2.132398796081542969e+01 4.841560497879981995e-03 8.262044906616210938e+00 2.480066061019897461e+00 1.125874966382980347e-01
7.150000000000000000e+02 6.970376586914062500e+01 1.973255538940429688e+01 2.990786015288904309e-05 8.627197265625000000e+00 2.588168144226074219e+00 1.329444497823715210e-01
7.160000000000000000e+02 6.970212554931640625e+01 2.052779388427734375e+01 7.294415030628442764e-03 8.430812835693359375e+00 2.531432151794433594e+00 1.252383291721343994e-01
7.170000000000000000e+02 6.970486450195312500e+01 1.734225082397460938e+01 8.822047151625156403e-03 9.292471885681152344e+00 2.790388345718383789e+00 1.549989432096481323e-01
7.180000000000000000e+02 6.969525909423828125e+01 1.575011730194091797e+01 2.629118040204048157e-02 9.853719711303710938e+00 2.964003324508666992e+00 1.990770250558853149e-01
7.190000000000000000e+02 6.968542480468750000e+01 1.495372772216796875e+01 3.712679073214530945e-02 1.028193569183349609e+01 3.095718860626220703e+00 2.695478200912475586e-01
7.200000000000000000e+02 6.966392517089843750e+01 1.415481662750244141e+01 3.054149150848388672e-01 1.085904979705810547e+01 3.349339485168457031e+00 6.274802684783935547e-01
7.210000000000000000e+02 6.959139251708984375e+01 1.335862255096435547e+01 2.521303594112396240e-01 9.975801467895507812e+00 3.068379640579223633e+00 1.040367364883422852e+00
7.220000000000000000e+02 6.948931884765625000e+01 1.257309436798095703e+01 -1.904040873050689697e-01 8.329931259155273438e+00 2.441858291625976562e+00 8.006501197814941406e-01
7.230000000000000000e+02 6.943959045410156250e+01 1.179168510437011719e+01 -2.393422126770019531e-01 7.935811042785644531e+00 2.308940649032592773e+00 2.457443773746490479e-01
7.240000000000000000e+02 6.951549530029296875e+01 1.023157024383544922e+01 -1.636596471071243286e-01 8.565019607543945312e+00 2.520407915115356445e+00 -7.896477580070495605e-01
7.250000000000000000e+02 7.028943634033203125e+01 1.019840621948242188e+01 -5.015987157821655273e-01 9.861270904541015625e+00 2.807901620864868164e+00 -1.186533868312835693e-01
7.260000000000000000e+02 6.988000488281250000e+01 7.895718097686767578e+00 4.008308351039886475e-01 1.328944206237792969e+01 4.107081890106201172e+00 -1.361905336380004883e+00
7.270000000000000000e+02 7.000202178955078125e+01 4.707064151763916016e+00 4.105766117572784424e-02 1.419762802124023438e+01 4.271605491638183594e+00 1.461219638586044312e-01
7.280000000000000000e+02 6.999534606933593750e+01 5.504045009613037109e+00 1.169134397059679031e-02 1.394239044189453125e+01 4.186224460601806641e+00 8.536764234304428101e-02
7.290000000000000000e+02 7.068207550048828125e+01 3.050528049468994141e+00 3.834320008754730225e-01 1.411113071441650391e+01 4.348368644714355469e+00 9.026071429252624512e-01
7.300000000000000000e+02 6.993048858642578125e+01 1.492222189903259277e+00 6.824476122856140137e-01 1.671907043457031250e+01 5.220455169677734375e+00 1.818998336791992188e+00
7.310000000000000000e+02 6.963553619384765625e+01 -1.021813005208969116e-01 7.856913208961486816e-01 1.433046722412109375e+01 4.534847736358642578e+00 3.008576631546020508e+00
7.320000000000000000e+02 6.943814086914062500e+01 -8.866721391677856445e-01 1.055091381072998047e+00 1.349622535705566406e+01 4.365395069122314453e+00 3.261554479598999023e+00
7.330000000000000000e+02 6.934343719482421875e+01 -3.441718339920043945e+00 9.658803343772888184e-01 1.015630054473876953e+01 3.336654186248779297e+00 2.633125543594360352e+00
7.340000000000000000e+02 6.870882415771484375e+01 -3.187284231185913086e+00 1.109985589981079102e+00 1.056924343109130859e+01 3.503768682479858398e+00 3.228409051895141602e+00
7.350000000000000000e+02 6.814741516113281250e+01 -4.693824291229248047e+00 1.301988363265991211e+00 8.951823234558105469e+00 3.076143264770507812e+00 3.281960248947143555e+00
7.360000000000000000e+02 6.750847625732421875e+01 -6.167618274688720703e+00 1.355022668838500977e+00 7.377101898193359375e+00 2.619637489318847656e+00 3.067800998687744141e+00
7.370000000000000000e+02 6.682027435302734375e+01 -7.615910530090332031e+00 1.273394107818603516e+00 6.246418476104736328e+00 2.255943775177001953e+00 2.794676542282104492e+00
7.380000000000000000e+02 6.646656799316406250e+01 -8.336609840393066406e+00 1.512056350708007812e+00 6.009210109710693359e+00 2.256379842758178711e+00 2.817413806915283203e+00
7.390000000000000000e+02 6.526040649414062500e+01 -1.042622184753417969e+01 1.744540929794311523e+00 4.691793441772460938e+00 1.930900335311889648e+00 2.752472639083862305e+00
7.400000000000000000e+02 6.481777191162109375e+01 -1.110249328613281250e+01 2.089799880981445312e+00 4.398316860198974609e+00 1.946434974670410156e+00 2.845335483551025391e+00
7.410000000000000000e+02 6.433142089843750000e+01 -1.175251007080078125e+01 2.333826065063476562e+00 3.858006477355957031e+00 1.857549786567687988e+00 2.872390747070312500e+00
7.420000000000000000e+02 6.197766876220703125e+01 -1.399431610107421875e+01 1.977061033248901367e+00 1.647837877273559570e+00 1.087469696998596191e+00 1.826647758483886719e+00
7.430000000000000000e+02 6.130867385864257812e+01 -1.445913887023925781e+01 1.453437209129333496e+00 1.261734843254089355e+00 8.145516514778137207e-01 1.354500293731689453e+00
7.440000000000000000e+02 5.918654632568359375e+01 -1.561570358276367188e+01 -1.759539961814880371e+00 1.078654229640960693e-01 -4.955023527145385742e-01 -1.458556801080703735e-01
7.450000000000000000e+02 5.844562911987304688e+01 -1.592765903472900391e+01 -3.680091381072998047e+00 -3.119057416915893555e-02 -1.113384604454040527e+00 -6.785386204719543457e-01
7.460000000000000000e+02 5.272634124755859375e+01 -1.370393753051757812e+01 -2.032492637634277344e+00 -1.622826099395751953e+00 -1.096595525741577148e+00 1.766040325164794922e+00
7.470000000000000000e+02 5.167709732055664062e+01 -1.150444412231445312e+01 -6.367448717355728149e-02 1.821530818939208984e+00 5.273569226264953613e-01 -1.553576439619064331e-01
7.480000000000000000e+02 5.228511047363281250e+01 -1.301741790771484375e+01 -9.382645487785339355e-01 -4.693991243839263916e-01 -4.222990870475769043e-01 9.658669829368591309e-01
7.490000000000000000e+02 5.076355361938476562e+01 -1.090067577362060547e+01 -3.531958460807800293e-01 2.968585968017578125e+00 7.846170663833618164e-01 -7.268518954515457153e-02
7.500000000000000000e+02 5.071350479125976562e+01 -8.446982383728027344e+00 2.586852312088012695e-01 4.009359836578369141e+00 1.280413508415222168e+00 -9.980217814445495605e-01
7.510000000000000000e+02 5.024128341674804688e+01 -6.931698322296142578e+00 3.803737759590148926e-01 4.475740909576416016e+00 1.456834316253662109e+00 -1.328010201454162598e+00
7.520000000000000000e+02 5.048671722412109375e+01 -7.685503959655761719e+00 2.228066623210906982e-01 4.158261775970458984e+00 1.314320564270019531e+00 -1.143096923828125000e+00
7.530000000000000000e+02 4.998658752441406250e+01 -6.179461002349853516e+00 4.398027360439300537e-01 4.893745422363281250e+00 1.600064396858215332e+00 -1.453306674957275391e+00
7.540000000000000000e+02 4.949639892578125000e+01 -4.668902873992919922e+00 4.406998455524444580e-01 5.046134948730468750e+00 1.646050333976745605e+00 -1.578457951545715332e+00
7.550000000000000000e+02 4.880641174316406250e+01 -4.837100505828857422e+00 3.357569277286529541e-01 5.072920322418212891e+00 1.622603178024291992e+00 -1.490432262420654297e+00
7.560000000000000000e+02 4.924109268188476562e+01 -3.918653011322021484e+00 5.216497778892517090e-01 5.108219146728515625e+00 1.688960671424865723e+00 -1.663659095764160156e+00
7.570000000000000000e+02 4.799425506591796875e+01 -2.628070354461669922e+00 4.813833236694335938e-01 5.224561214447021484e+00 1.711783289909362793e+00 -1.839789986610412598e+00
7.580000000000000000e+02 4.811254501342773438e+01 -9.642453193664550781e-01 7.674281001091003418e-01 4.984656333923339844e+00 1.725625395774841309e+00 -2.120466232299804688e+00
7.590000000000000000e+02 4.778232192993164062e+01 -2.514101266860961914e-01 1.006901264190673828e+00 5.110792160034179688e+00 1.835308074951171875e+00 -2.384928226470947266e+00
7.600000000000000000e+02 4.742752838134765625e+01 4.508233070373535156e-01 1.266997218132019043e+00 5.547708988189697266e+00 2.044411897659301758e+00 -2.635116815567016602e+00
7.610000000000000000e+02 4.707250976562500000e+01 1.156021595001220703e+00 1.308982491493225098e+00 5.854123592376708984e+00 2.148931741714477539e+00 -2.753475666046142578e+00
7.620000000000000000e+02 4.672133636474609375e+01 1.863741755485534668e+00 1.295030117034912109e+00 5.836894989013671875e+00 2.139577627182006836e+00 -2.821036815643310547e+00
7.630000000000000000e+02 4.635628509521484375e+01 2.564256668090820312e+00 1.436455368995666504e+00 5.909372806549072266e+00 2.203748464584350586e+00 -2.996979236602783203e+00
7.640000000000000000e+02 4.478490066528320312e+01 5.322576522827148438e+00 2.258856296539306641e+00 7.581546783447265625e+00 2.952121019363403320e+00 -4.067491054534912109e+00
7.650000000000000000e+02 4.492345809936523438e+01 3.657016038894653320e+00 1.415524125099182129e+00 6.834742069244384766e+00 2.475079774856567383e+00 -3.246049642562866211e+00
7.660000000000000000e+02 4.400962448120117188e+01 6.725716114044189453e+00 2.267136335372924805e+00 9.553920745849609375e+00 3.546317100524902344e+00 -4.427946090698242188e+00
7.670000000000000000e+02 4.333177566528320312e+01 8.186264991760253906e+00 1.860421180725097656e+00 1.102115821838378906e+01 3.864473819732666016e+00 -4.405235767364501953e+00
7.680000000000000000e+02 4.302265167236328125e+01 8.929321289062500000e+00 1.934724450111389160e+00 1.270401954650878906e+01 4.391623497009277344e+00 -4.486101627349853516e+00
7.690000000000000000e+02 4.249350357055664062e+01 1.212080955505371094e+01 2.622908055782318115e-01 1.386617279052734375e+01 4.238539218902587891e+00 -1.392783373594284058e-01
7.700000000000000000e+02 4.251212310791015625e+01 1.293129730224609375e+01 3.057627975940704346e-01 1.300266265869140625e+01 3.992527723312377930e+00 5.008982419967651367e-01
7.710000000000000000e+02 4.185523605346679688e+01 1.378447818756103516e+01 2.343248724937438965e-01 1.139940166473388672e+01 3.490118026733398438e+00 4.460097849369049072e-02
7.720000000000000000e+02 4.278028106689453125e+01 1.614208793640136719e+01 6.248727440834045410e-01 1.171026515960693359e+01 3.700541496276855469e+00 1.571434855461120605e+00
7.730000000000000000e+02 4.352864074707031250e+01 1.927429008483886719e+01 7.327253818511962891e-01 8.525702476501464844e+00 2.777528285980224609e+00 2.276730298995971680e+00
7.740000000000000000e+02 4.399767303466796875e+01 2.081284332275390625e+01 7.935038805007934570e-01 7.664811611175537109e+00 2.537494659423828125e+00 2.322251319885253906e+00
7.750000000000000000e+02 4.425030136108398438e+01 2.157971382141113281e+01 9.759679436683654785e-01 7.410089969635009766e+00 2.515817403793334961e+00 2.457747220993041992e+00
7.760000000000000000e+02 4.557553482055664062e+01 2.452958106994628906e+01 1.194900274276733398e+00 4.936748981475830078e+00 1.839494705200195312e+00 2.386051177978515625e+00
7.770000000000000000e+02 4.595783233642578125e+01 2.523844528198242188e+01 1.238371253013610840e+00 4.573785781860351562e+00 1.743647098541259766e+00 2.286778211593627930e+00
7.780000000000000000e+02 4.720949172973632812e+01 2.731003761291503906e+01 1.228744387626647949e+00 3.415675640106201172e+00 1.393326044082641602e+00 1.943225979804992676e+00
7.790000000000000000e+02 4.766714859008789062e+01 2.798419189453125000e+01 1.255203127861022949e+00 2.908135175704956055e+00 1.249001502990722656e+00 1.806263566017150879e+00
7.800000000000000000e+02 4.816259002685546875e+01 2.863357543945312500e+01 1.066000699996948242e+00 2.299644708633422852e+00 1.009693622589111328e+00 1.561821699142456055e+00
7.810000000000000000e+02 4.849847412109375000e+01 3.063276100158691406e+01 3.716370761394500732e-01 2.133777141571044922e+00 7.516242861747741699e-01 1.012492537498474121e+00
7.820000000000000000e+02 5.028530883789062500e+01 3.104554176330566406e+01 6.015905737876892090e-01 1.107043623924255371e+00 5.125902891159057617e-01 7.850363254547119141e-01
7.830000000000000000e+02 5.257458877563476562e+01 3.345098495483398438e+01 -2.585280537605285645e-01 2.900608181953430176e-01 9.459827095270156860e-03 1.220811903476715088e-01
7.840000000000000000e+02 5.332595443725585938e+01 3.395047378540039062e+01 -4.268319010734558105e-01 1.826985627412796021e-01 -7.324000447988510132e-02 -6.832861807197332382e-03
7.850000000000000000e+02 5.622779083251953125e+01 3.543319702148437500e+01 -1.272345662117004395e+00 -1.217339560389518738e-01 -4.182238876819610596e-01 -3.045471608638763428e-01
7.860000000000000000e+02 7.105242919921875000e+01 -2.332550239562988281e+01 3.933488726615905762e-01 6.306889533996582031e+00 2.010071516036987305e+00 -1.897935986518859863e+00
7.870000000000000000e+02 7.147735595703125000e+01 -2.484365463256835938e+01 6.406963467597961426e-01 1.227518749237060547e+01 3.874765157699584961e+00 -1.247467517852783203e+00
7.880000000000000000e+02 7.145014953613281250e+01 -2.811255836486816406e+01 1.292639136314392090e+00 1.311845397949218750e+01 4.323328018188476562e+00 2.604276657104492188e+00
7.890000000000000000e+02 7.080953979492187500e+01 -2.965428543090820312e+01 2.190840959548950195e+00 8.657810211181640625e+00 3.254595518112182617e+00 3.748282909393310547e+00
7.900000000000000000e+02 6.871912384033203125e+01 -3.225551605224609375e+01 1.295193552970886230e+00 2.051103115081787109e+00 1.003888964653015137e+00 1.569476366043090820e+00
7.910000000000000000e+02 6.662893676757812500e+01 -3.374134445190429688e+01 -1.760285198688507080e-01 3.175570666790008545e-01 4.245856404304504395e-02 2.425399422645568848e-01
7.920000000000000000e+02 6.579867553710937500e+01 -3.412348937988281250e+01 -5.220956802368164062e-01 1.259184032678604126e-01 -1.188531741499900818e-01 1.197629421949386597e-01
7.930000000000000000e+02 6.415180969238281250e+01 -3.431800460815429688e+01 -1.063379883766174316e+00 1.210742164403200150e-02 -3.153817355632781982e-01 -1.134498491883277893e-01
7.940000000000000000e+02 6.345684051513671875e+01 -3.443804550170898438e+01 -1.157355070114135742e+00 1.662586728343740106e-04 -3.471566438674926758e-01 -1.865818500518798828e-01
7.950000000000000000e+02 6.187121200561523438e+01 -3.471825027465820312e+01 -9.227136969566345215e-01 -2.076720632612705231e-02 -2.830442786216735840e-01 -1.262976229190826416e-01
7.960000000000000000e+02 5.820758056640625000e+01 -3.425877761840820312e+01 1.002872705459594727e+00 1.711388945579528809e+00 8.142784833908081055e-01 -1.403420805931091309e+00
7.970000000000000000e+02 5.651138687133789062e+01 -3.243563079833984375e+01 2.256717443466186523e+00 5.529353618621826172e+00 2.335821390151977539e+00 -2.650232553482055664e+00
7.980000000000000000e+02 5.621189880371093750e+01 -2.898669242858886719e+01 1.051467657089233398e+00 7.053311824798583984e+00 2.431433916091918945e+00 1.598562717437744141e+00
7.990000000000000000e+02 5.745421218872070312e+01 -2.688364410400390625e+01 2.566857814788818359e+00 3.710107326507568359e+00 1.883089542388916016e+00 2.899740457534790039e+00
8.000000000000000000e+02 5.868453598022460938e+01 -2.468214035034179688e+01 3.564651727676391602e+00 2.418071746826171875e+00 1.794817090034484863e+00 2.756969213485717773e+00
8.010000000000000000e+02 5.979771041870117188e+01 -2.464053153991699219e+01 4.322187423706054688e+00 2.743772983551025391e+00 2.119788169860839844e+00 3.316040992736816406e+00
8.020000000000000000e+02 6.114751434326171875e+01 -2.373892402648925781e+01 3.976972103118896484e+00 1.646129965782165527e+00 1.686930656433105469e+00 2.647349119186401367e+00
8.030000000000000000e+02 6.425493621826171875e+01 -2.289690780639648438e+01 7.324904948472976685e-02 2.817886173725128174e-01 1.065113022923469543e-01 3.276538550853729248e-01
8.040000000000000000e+02 6.413233184814453125e+01 -2.210925102233886719e+01 -2.380201369524002075e-01 6.186593174934387207e-01 1.141917631030082703e-01 8.911093473434448242e-01
8.050000000000000000e+02 6.636441040039062500e+01 -2.192326736450195312e+01 -2.562322854995727539e+00 -6.669519841670989990e-02 -7.887054085731506348e-01 -5.780119895935058594e-01
8.060000000000000000e+02 6.712222290039062500e+01 -2.157004928588867188e+01 -4.789690017700195312e+00 -3.858397603034973145e-01 -1.552658915519714355e+00 -4.164521396160125732e-01
8.070000000000000000e+02 2.182222175598144531e+01 -1.254594898223876953e+01 -3.423725502216257155e-06 -2.782581077553913929e-06 -1.861891973931051325e-06 -1.382438426844601054e-06
8.080000000000000000e+02 1.963494300842285156e+01 -1.351204395294189453e+01 -1.622546506041544490e-07 -7.025795184745220467e-06 -2.156415121135069057e-06 -2.546563564465031959e-06
8.090000000000000000e+02 2.604981613159179688e+01 -1.289598083496093750e+01 -7.039611339569091797e-01 -6.109136939048767090e-01 -3.944624662399291992e-01 8.933299183845520020e-01
8.100000000000000000e+02 9.875118255615234375e+00 -2.007845163345336914e+00 -1.066802912674802428e-08 7.671502316952683032e-06 2.298250365129206330e-06 -5.744358304582419805e-07
8.110000000000000000e+02 9.643886566162109375e+00 -2.737404823303222656e+00 1.405330294801387936e-06 -6.409587967937113717e-06 -1.501277324678085279e-06 1.830611495279299561e-06
8.120000000000000000e+02 1.026325798034667969e+01 -2.900214433670043945e+00 -2.097454171234858222e-06 6.784323886677157134e-06 1.406060960107424762e-06 -1.943496044987114146e-06
8.130000000000000000e+02 1.146577644348144531e+01 -3.329412698745727539e+00 -2.922060730270459317e-06 6.171601853566244245e-06 9.748623597261030227e-07 -1.507647880316653755e-06
8.140000000000000000e+02 1.579006385803222656e+01 -5.195288181304931641e+00 -2.988384039781522006e-06 2.880117335735121742e-06 -3.247996716027046205e-08 -2.192864059225030360e-07
8.150000000000000000e+02 1.596236133575439453e+01 -6.136613368988037109e+00 -5.008293555874843150e-06 3.326406158521422185e-06 -5.045661737312912010e-07 -4.550020378246699693e-07
8.160000000000000000e+02 1.410597515106201172e+01 -3.997180223464965820e+00 2.329905328224413097e-06 -3.977077540184836835e-06 -4.941516635881271213e-07 3.982638645538827404e-07
8.170000000000000000e+02 1.435565567016601562e+01 -4.927693843841552734e+00 3.610784233387676068e-06 -4.184169938525883481e-06 -1.720156603823852492e-07 8.337220833709579892e-07
8.180000000000000000e+02 1.917236137390136719e+01 -9.424089431762695312e+00 8.526483725290745497e-06 -5.104434876557206735e-06 1.026614654620061629e-06 8.424893280789547134e-07
8.190000000000000000e+02 1.834005737304687500e+01 -7.505751132965087891e+00 5.770802090410143137e-06 -2.528698814785457216e-06 9.726309144753031433e-07 4.119170569083507871e-07
8.200000000000000000e+02 1.322859287261962891e+01 -4.217842102050781250e+00 3.248357415941427462e-06 -4.817313765670405701e-06 -4.706869560777704464e-07 1.204834234158624895e-06
8.210000000000000000e+02 1.290328788757324219e+01 -3.310593605041503906e+00 2.045972223641001619e-06 -5.012401743442751467e-06 -8.899289127839438152e-07 6.673590178252197802e-07
8.220000000000000000e+02 1.264336204528808594e+01 -3.892025947570800781e+00 -3.133728341708774678e-06 5.268745553621556610e-06 6.405052204172534402e-07 -1.288661223952658474e-06
8.230000000000000000e+02 1.205497932434082031e+01 -3.593221902847290039e+00 2.881015234379447065e-06 -5.704232535208575428e-06 -8.469652357234735973e-07 1.476770989938813727e-06
8.240000000000000000e+02 1.348572254180908203e+01 -5.115666866302490234e+00 4.514607098826672882e-06 -5.211896223045187071e-06 -2.091867372655542567e-07 1.517178588983369991e-06
8.250000000000000000e+02 1.791467857360839844e+01 -1.274285793304443359e+01 -1.610304821042518597e-06 -1.808910269573971163e-06 -1.025764504447579384e-06 3.885481419274583459e-06
8.260000000000000000e+02 1.923451995849609375e+01 -8.545744895935058594e+00 6.904059318912914023e-06 -2.753268745436798781e-06 1.245237172042834572e-06 9.345698117613210343e-07
8.270000000000000000e+02 1.711289596557617188e+01 -1.346000671386718750e+01 -1.290937234443845227e-06 1.792063267203047872e-05 4.988908585801254958e-06 -2.174655946873826906e-06
8.280000000000000000e+02 1.879674530029296875e+01 -1.344065761566162109e+01 9.798613831435432076e-08 1.134526519308565184e-05 3.432975290706963278e-06 2.388861730651115067e-06
8.290000000000000000e+02 1.837939071655273438e+01 -8.422484397888183594e+00 7.808529517205897719e-06 -3.786190063692629337e-06 1.206701654155040160e-06 -4.093485017619968858e-07
8.300000000000000000e+02 1.795279502868652344e+01 -1.341066169738769531e+01 1.332688043476082385e-06 -1.527570020698476583e-05 -4.182903467153664678e-06 -1.023734398586384486e-06
8.310000000000000000e+02 2.062841033935546875e+01 -1.158908176422119141e+01 8.302763490064535290e-06 -2.505529664631467313e-06 1.739170102155185305e-06 3.512841885822126642e-06
8.320000000000000000e+02 1.928725433349609375e+01 -1.089437389373779297e+01 -1.064729531208286062e-05 4.805211801794939674e-07 -3.050032319151796401e-06 -1.989189286177861504e-06
8.330000000000000000e+02 2.049705505371093750e+01 -1.361656570434570312e+01 1.254203198186587542e-06 3.794593112615984865e-06 1.514638825028669089e-06 1.768340780472499318e-06
8.340000000000000000e+02 1.866435432434082031e+01 -9.703093528747558594e+00 -8.214247827709186822e-06 9.802651220525149256e-06 4.765211656376777682e-07 3.431507366258301772e-06
8.350000000000000000e+02 2.659281539916992188e+01 -1.248761367797851562e+01 -8.065457344055175781e-01 -3.971113264560699463e-01 -3.610971271991729736e-01 9.057849049568176270e-01
8.360000000000000000e+02 2.593648529052734375e+01 -1.113310241699218750e+01 -9.779248237609863281e-01 -5.676358342170715332e-01 -4.636681973934173584e-01 9.813281893730163574e-01
8.370000000000000000e+02 2.692216682434082031e+01 -1.316212844848632812e+01 -7.214260697364807129e-01 -3.348235785961151123e-01 -3.168748915195465088e-01 8.646810054779052734e-01
8.380000000000000000e+02 2.726652908325195312e+01 -1.383805751800537109e+01 -6.812672615051269531e-01 -2.815783023834228516e-01 -2.888536751270294189e-01 8.033849000930786133e-01
8.390000000000000000e+02 2.558807563781738281e+01 -1.045017528533935547e+01 -1.063458085060119629e+00 -6.583903431892395020e-01 -5.165545344352722168e-01 1.023496031761169434e+00
8.400000000000000000e+02 2.932725143432617188e+01 -1.627106666564941406e+01 -9.921103119850158691e-01 -1.165314093232154846e-01 -3.325925171375274658e-01 5.037419199943542480e-01
8.410000000000000000e+02 5.710551452636718750e+01 -3.300944137573242188e+01 1.850750446319580078e+00 3.170634269714355469e+00 1.506415367126464844e+00 -2.445565223693847656e+00
8.420000000000000000e+02 5.587615203857421875e+01 -3.052745246887207031e+01 6.218224763870239258e-01 8.006127357482910156e+00 2.588385105133056641e+00 -4.323816001415252686e-01
8.430000000000000000e+02 6.072857284545898438e+01 -2.220281600952148438e+01 1.240998744964599609e+00 2.166563987731933594e+00 1.022268772125244141e+00 2.462847232818603516e+00
8.440000000000000000e+02 6.351807403564453125e+01 -2.305762672424316406e+01 6.570234298706054688e-01 9.384471923112869263e-02 2.252604365348815918e-01 5.033037662506103516e-01
8.450000000000000000e+02 5.873702239990234375e+01 3.573169326782226562e+01 -2.243856430053710938e+00 -2.076314240694046021e-01 -7.354463338851928711e-01 1.691521853208541870e-01
8.460000000000000000e+02 6.103766632080078125e+01 3.538816070556640625e+01 -1.953713655471801758e+00 1.108236424624919891e-02 -5.827894210815429688e-01 4.664473831653594971e-01
8.470000000000000000e+02 6.165362548828125000e+01 3.645838546752929688e+01 -1.382938265800476074e+00 -4.486055970191955566e-01 -5.494631528854370117e-01 7.742364406585693359e-01
8.480000000000000000e+02 5.747709274291992188e+01 -1.755470085144042969e+01 -3.711262226104736328e+00 -4.468227326869964600e-01 -1.247425556182861328e+00 2.040938377380371094e+00
8.490000000000000000e+02 5.415312576293945312e+01 3.411832809448242188e+01 -5.292075872421264648e-01 4.069842770695686340e-02 -1.465527564287185669e-01 -1.276673376560211182e-01
8.500000000000000000e+02 5.307341384887695312e+01 3.545412063598632812e+01 -6.307793855667114258e-01 5.673379898071289062e-01 -1.903241127729415894e-02 1.888243407011032104e-01
8.510000000000000000e+02 8.653970718383789062e+00 3.611028671264648438e+00 -5.456059575080871582e-01 -5.578402280807495117e-01 -3.310338556766510010e-01 8.599877357482910156e-01
8.520000000000000000e+02 8.094571113586425781e+00 2.694801092147827148e+00 -6.719605326652526855e-01 -3.684327006340026855e-01 -3.121179640293121338e-01 7.203942537307739258e-01
8.530000000000000000e+02 1.065197706222534180e+00 6.584939479827880859e+00 -7.342901080846786499e-03 -4.198942780494689941e-01 -1.281711608171463013e-01 1.481551080942153931e-01
8.540000000000000000e+02 5.088778972625732422e+00 1.851393818855285645e+00 -3.219159841537475586e-01 -8.500952273607254028e-02 -1.220776513218879700e-01 2.481172680854797363e-01
8.550000000000000000e+02 8.904957771301269531e+00 2.797223329544067383e+00 -7.469282746315002441e-01 -4.955885708332061768e-01 -3.727550506591796875e-01 8.260113596916198730e-01
8.560000000000000000e+02 7.455884456634521484e+00 1.879451394081115723e+00 -7.036310434341430664e-01 -1.577691286802291870e-01 -2.584200501441955566e-01 4.862447082996368408e-01
8.570000000000000000e+02 6.519864559173583984e+00 2.589648723602294922e+00 -5.001451373100280762e-01 -1.954349130392074585e-01 -2.086740136146545410e-01 4.849612414836883545e-01
8.580000000000000000e+02 7.890727996826171875e+00 3.462753057479858398e+00 -5.489305853843688965e-01 -4.298692941665649414e-01 -2.936399579048156738e-01 7.581331133842468262e-01
8.590000000000000000e+02 1.079351186752319336e+00 4.200780391693115234e+00 -2.116511575877666473e-02 -1.578640788793563843e-01 -5.370875820517539978e-02 9.393177181482315063e-02
8.600000000000000000e+02 4.095701217651367188e+00 3.269494771957397461e+00 -2.153427302837371826e-01 -1.895752251148223877e-01 -1.214753836393356323e-01 3.020029067993164062e-01
8.610000000000000000e+02 2.731975078582763672e+00 1.858796119689941406e+00 -9.657607972621917725e-02 -5.912930890917778015e-02 -4.671161621809005737e-02 8.431797474622726440e-02
8.620000000000000000e+02 3.722450435161590576e-01 2.682201385498046875e+00 -5.118694622069597244e-03 3.516473574563860893e-03 -4.806662618648260832e-04 1.038312166929244995e-02
8.630000000000000000e+02 2.520999336242675781e+01 -9.759377479553222656e+00 -1.159426331520080566e+00 -7.690548896789550781e-01 -5.785443782806396484e-01 1.070377349853515625e+00
8.640000000000000000e+02 2.470419311523437500e+01 -1.018531990051269531e+01 -1.086060404777526855e+00 -1.111400127410888672e+00 -6.592381596565246582e-01 1.143438220024108887e+00
8.650000000000000000e+02 2.480646324157714844e+01 -9.065809249877929688e+00 -1.248115897178649902e+00 -8.625655174255371094e-01 -6.332044005393981934e-01 1.119969367980957031e+00
8.660000000000000000e+02 2.438566970825195312e+01 -8.378066062927246094e+00 -1.338992953300476074e+00 -9.680411219596862793e-01 -6.921102404594421387e-01 1.163487911224365234e+00
8.670000000000000000e+02 2.394366264343261719e+01 -7.696214199066162109e+00 -1.417950272560119629e+00 -1.059874057769775391e+00 -7.433472871780395508e-01 1.211379647254943848e+00
8.680000000000000000e+02 5.430708694458007812e+01 -1.552351093292236328e+01 -5.622171401977539062e+00 -3.229304552078247070e+00 -2.655442953109741211e+00 4.053408622741699219e+00
8.690000000000000000e+02 5.458898544311523438e+01 -1.718769645690917969e+01 -4.276663303375244141e+00 -1.612431406974792480e+00 -1.766728401184082031e+00 8.814774751663208008e-01
8.700000000000000000e+02 4.258784484863281250e+01 -3.212451934814453125e+01 8.297477662563323975e-02 7.724442481994628906e+00 2.342225313186645508e+00 8.778306841850280762e-01
8.710000000000000000e+02 4.269160842895507812e+01 -3.033033752441406250e+01 1.426551580429077148e+00 9.709258079528808594e+00 3.340743064880371094e+00 7.646391987800598145e-01
8.720000000000000000e+02 7.108020019531250000e+01 -2.151713752746582031e+01 -2.495528221130371094e+00 5.119297504425048828e+00 7.871307730674743652e-01 -6.698064804077148438e-01
8.730000000000000000e+02 6.890851593017578125e+01 -2.094532966613769531e+01 -3.333333969116210938e+00 1.614921987056732178e-01 -9.515525102615356445e-01 -5.104793310165405273e-01
8.740000000000000000e+02 6.511728668212890625e+01 3.747156906127929688e+01 -3.527133762836456299e-01 5.411655176430940628e-03 -1.041905209422111511e-01 2.313088476657867432e-01
8.750000000000000000e+02 6.676863098144531250e+01 -2.089097404479980469e+01 -3.023057222366333008e+00 1.599747836589813232e-01 -8.589247465133666992e-01 9.897887706756591797e-01
8.760000000000000000e+02 6.045391845703125000e+01 -2.416392135620117188e+01 4.679493427276611328e+00 2.348398447036743164e+00 2.108367443084716797e+00 3.060889482498168945e+00
8.770000000000000000e+02 5.043385314941406250e+01 3.502807998657226562e+01 -5.590031147003173828e-01 1.455453991889953613e+00 2.689352631568908691e-01 4.019818902015686035e-01
8.780000000000000000e+02 6.944940185546875000e+01 1.100942802429199219e+01 -2.519484162330627441e-01 8.041213035583496094e+00 2.336779356002807617e+00 -2.516012489795684814e-01
8.790000000000000000e+02 5.481649398803710938e+01 3.633722305297851562e+01 -8.151408433914184570e-01 1.477835029363632202e-01 -2.002072036266326904e-01 1.564984954893589020e-02
8.800000000000000000e+02 5.323321914672851562e+01 -1.433287906646728516e+01 -2.687261581420898438e+00 -2.250205278396606445e+00 -1.481240034103393555e+00 2.530376672744750977e+00
8.810000000000000000e+02 5.413859558105468750e+01 -1.656247138977050781e+01 -5.154672145843505859e+00 -1.027029395103454590e+00 -1.854510426521301270e+00 9.899629950523376465e-01
8.820000000000000000e+02 4.224074935913085938e+01 1.707599830627441406e+01 6.070415973663330078e-01 9.892189025878906250e+00 3.149769306182861328e+00 1.163895010948181152e+00
8.830000000000000000e+02 4.263928604125976562e+01 1.453677654266357422e+01 -3.089916147291660309e-02 1.092776012420654297e+01 3.269058227539062500e+00 7.147212028503417969e-01
8.840000000000000000e+02 5.194182968139648438e+01 -1.227406215667724609e+01 -3.833531737327575684e-01 8.742730617523193359e-01 1.472759693861007690e-01 2.425634264945983887e-01
8.850000000000000000e+02 4.259125137329101562e+01 1.049557781219482422e+01 1.005491137504577637e+00 1.599278640747070312e+01 5.099483489990234375e+00 -2.290603876113891602e+00
8.860000000000000000e+02 4.238389968872070312e+01 8.751461029052734375e+00 1.637630820274353027e+00 1.205855560302734375e+01 4.108856201171875000e+00 -2.966253757476806641e+00
8.870000000000000000e+02 6.998849487304687500e+01 6.301487922668457031e+00 6.788216531276702881e-02 1.420493125915527344e+01 4.281844139099121094e+00 -1.427943073213100433e-02
8.880000000000000000e+02 6.963201141357421875e+01 9.457715034484863281e+00 1.178238242864608765e-01 9.911146163940429688e+00 3.008691072463989258e+00 -1.222046971321105957e+00
8.890000000000000000e+02 4.251621246337890625e+01 1.130801677703857422e+01 3.749514520168304443e-01 1.482201957702636719e+01 4.559091091156005859e+00 -9.114082455635070801e-01
8.900000000000000000e+02 4.187903213500976562e+01 1.126033782958984375e+01 1.143175125122070312e+00 1.305089378356933594e+01 4.258220672607421875e+00 -1.458017945289611816e+00
8.910000000000000000e+02 6.513798522949218750e+01 3.542572021484375000e+01 -1.315697193145751953e+00 -3.523683845996856689e-01 -5.004196763038635254e-01 5.014076232910156250e-01
8.920000000000000000e+02 6.819824981689453125e+01 3.272106933593750000e+01 -1.184608340263366699e+00 1.957019090652465820e+00 2.317232042551040649e-01 1.820335239171981812e-01
8.930000000000000000e+02 6.833405303955078125e+01 3.096601486206054688e+01 -8.697498440742492676e-01 1.815790772438049316e+00 2.838122844696044922e-01 1.098648384213447571e-01
8.940000000000000000e+02 7.028628540039062500e+01 1.328486919403076172e+01 6.196407228708267212e-02 9.411651611328125000e+00 2.842084646224975586e+00 1.826903522014617920e-01
8.950000000000000000e+02 5.689748764038085938e+01 -1.633168029785156250e+01 -8.584177970886230469e+00 -1.852657943964004517e-01 -2.630833148956298828e+00 -8.535593003034591675e-02
8.960000000000000000e+02 5.791766738891601562e+01 -1.671272087097167969e+01 -4.902742862701416016e+00 1.335596442222595215e-01 -1.430755019187927246e+00 8.245891928672790527e-01
8.970000000000000000e+02 5.266165924072265625e+01 -1.467151260375976562e+01 -3.283485889434814453e+00 -4.709468185901641846e-01 -1.126329779624938965e+00 1.851419568061828613e+00
8.980000000000000000e+02 5.715730667114257812e+01 -1.693695259094238281e+01 -6.072353363037109375e+00 -5.907956957817077637e-01 -1.998944759368896484e+00 1.598727941513061523e+00
8.990000000000000000e+02 7.096366882324218750e+01 1.168411827087402344e+01 -6.746639609336853027e-01 9.688253402709960938e+00 2.704076766967773438e+00 1.631638705730438232e-01
9.000000000000000000e+02 5.118951797485351562e+01 -9.972955703735351562e+00 1.533637791872024536e-01 3.058112382888793945e+00 9.634428620338439941e-01 -7.080529332160949707e-01
9.010000000000000000e+02 5.133099746704101562e+01 -1.248832416534423828e+01 -1.019009351730346680e+00 1.765874147415161133e+00 2.240594476461410522e-01 7.391026616096496582e-01
9.020000000000000000e+02 2.298294067382812500e+01 -6.362332344055175781e+00 -1.568941116333007812e+00 -1.231908440589904785e+00 -8.402548432350158691e-01 1.294735670089721680e+00
9.030000000000000000e+02 2.138829994201660156e+01 -4.473429679870605469e+00 -1.724444031715393066e+00 -1.436327576637268066e+00 -9.482314586639404297e-01 1.379050016403198242e+00
9.040000000000000000e+02 2.250629806518554688e+01 -6.850055217742919922e+00 -1.625826239585876465e+00 -1.618950605392456055e+00 -9.734330773353576660e-01 1.495562314987182617e+00
9.050000000000000000e+02 2.247463035583496094e+01 -5.718323230743408203e+00 -1.631350517272949219e+00 -1.312182068824768066e+00 -8.830597996711730957e-01 1.325421333312988281e+00
9.060000000000000000e+02 2.347473335266113281e+01 -7.022241115570068359e+00 -1.501601696014404297e+00 -1.156335830688476562e+00 -7.973812222480773926e-01 1.255891323089599609e+00
9.070000000000000000e+02 5.764397430419921875e+01 -3.362191390991210938e+01 1.565682411193847656e+00 2.552168846130371094e+00 1.235355377197265625e+00 -1.931054353713989258e+00
9.080000000000000000e+02 6.955370330810546875e+01 2.533142852783203125e+01 1.129227653145790100e-01 7.142930030822753906e+00 2.176755666732788086e+00 -5.637072920799255371e-01
9.090000000000000000e+02 6.908172607421875000e+01 2.772181701660156250e+01 1.763627082109451294e-01 4.586416721343994141e+00 1.428833842277526855e+00 -8.316078782081604004e-01
9.100000000000000000e+02 7.036977386474609375e+01 1.488872909545898438e+01 2.239217758178710938e-01 9.828447341918945312e+00 3.015710830688476562e+00 5.786932706832885742e-01
9.110000000000000000e+02 4.257361602783203125e+01 1.373609066009521484e+01 8.609873801469802856e-02 1.158179473876953125e+01 3.500368118286132812e+00 8.015077114105224609e-01
9.120000000000000000e+02 6.980700683593750000e+01 6.900682449340820312e-01 7.829581499099731445e-01 1.564622116088867188e+01 4.928753852844238281e+00 2.656199455261230469e+00
9.130000000000000000e+02 7.065698242187500000e+01 2.222620725631713867e+00 8.337187170982360840e-01 1.422307968139648438e+01 4.517039775848388672e+00 1.250433564186096191e+00
9.140000000000000000e+02 5.598688888549804688e+01 3.686127090454101562e+01 -8.769985437393188477e-01 -1.865547597408294678e-01 -3.190659880638122559e-01 1.036769077181816101e-01
9.150000000000000000e+02 5.790277481079101562e+01 3.662026977539062500e+01 -1.399043083190917969e+00 -2.781730294227600098e-01 -5.031648278236389160e-01 2.150643616914749146e-01
9.160000000000000000e+02 5.706491851806640625e+01 3.664888000488281250e+01 -1.150239706039428711e+00 -2.120670229196548462e-01 -4.086920320987701416e-01 1.331343352794647217e-01
9.170000000000000000e+02 4.678414535522460938e+01 2.662173652648925781e+01 1.145329236984252930e+00 3.671142578125000000e+00 1.444941520690917969e+00 2.028506994247436523e+00
9.180000000000000000e+02 4.841016006469726562e+01 -1.694650888442993164e+00 7.051086425781250000e-01 5.169909000396728516e+00 1.762505292892456055e+00 -1.993978381156921387e+00
9.190000000000000000e+02 4.740299224853515625e+01 -1.186332941055297852e+00 6.099086999893188477e-01 5.399995326995849609e+00 1.802971243858337402e+00 -2.210117101669311523e+00
9.200000000000000000e+02 6.762428283691406250e+01 -9.021945953369140625e+00 1.130412340164184570e+00 5.974949359893798828e+00 2.131608486175537109e+00 2.077950477600097656e+00
9.210000000000000000e+02 6.741581726074218750e+01 -7.949390888214111328e+00 1.219947338104248047e+00 6.400642395019531250e+00 2.286176919937133789e+00 2.526604175567626953e+00
9.220000000000000000e+02 8.725683212280273438e+00 -2.413939094543457031e+01 6.338599487207829952e-04 1.055010943673551083e-04 2.218083100160583854e-04 -1.443937253498006612e-05
9.230000000000000000e+02 6.949342346191406250e+01 2.866954612731933594e+01 -9.225429594516754150e-02 4.341175079345703125e+00 1.274676203727722168e+00 -2.139076888561248779e-01
9.240000000000000000e+02 4.156312179565429688e+01 -1.952795028686523438e+01 1.846336245536804199e+00 1.048420906066894531e+01 3.699163436889648438e+00 -3.831846952438354492e+00
9.250000000000000000e+02 6.920766448974609375e+01 -1.660004615783691406e+00 1.080994963645935059e+00 1.216855144500732422e+01 3.974863767623901367e+00 3.393044948577880859e+00
9.260000000000000000e+02 7.021996307373046875e+01 1.172338008880615234e+01 -6.250566244125366211e-01 9.160986900329589844e+00 2.560778856277465820e+00 1.988651007413864136e-01
9.270000000000000000e+02 7.030981445312500000e+01 2.451831245422363281e+01 2.437151819467544556e-01 7.548210620880126953e+00 2.337577819824218750e+00 1.992482319474220276e-02
9.280000000000000000e+02 6.532711791992187500e+01 -1.149352264404296875e+01 1.881481051445007324e+00 4.149828433990478516e+00 1.809392929077148438e+00 2.395051240921020508e+00
9.290000000000000000e+02 6.380294799804687500e+01 -1.237109184265136719e+01 2.554009199142456055e+00 3.317160367965698242e+00 1.761350870132446289e+00 2.753162622451782227e+00
9.300000000000000000e+02 6.323151397705078125e+01 -1.295196628570556641e+01 2.564428091049194336e+00 2.696957588195800781e+00 1.578415751457214355e+00 2.547307968139648438e+00
9.310000000000000000e+02 4.974283599853515625e+01 -5.422947406768798828e+00 4.341069757938385010e-01 5.002043247222900391e+00 1.630845069885253906e+00 -1.490319371223449707e+00
9.320000000000000000e+02 4.980550765991210938e+01 -7.830132007598876953e+00 7.086480408906936646e-02 4.415044307708740234e+00 1.345772743225097656e+00 -9.748545289039611816e-01
9.330000000000000000e+02 7.047364044189453125e+01 5.453971028327941895e-01 9.515215158462524414e-01 1.389648723602294922e+01 4.454402923583984375e+00 1.638164997100830078e+00
9.340000000000000000e+02 4.520136642456054688e+01 2.381303024291992188e+01 1.260150551795959473e+00 5.537056446075439453e+00 2.039162158966064453e+00 2.534875631332397461e+00
9.350000000000000000e+02 4.380392074584960938e+01 2.262361526489257812e+01 9.703153371810913086e-01 6.583436965942382812e+00 2.266125679016113281e+00 1.985303044319152832e+00
9.360000000000000000e+02 7.060261535644531250e+01 7.080824375152587891e+00 6.548624038696289062e-01 1.259471130371093750e+01 3.974872112274169922e+00 -2.130941897630691528e-01
9.370000000000000000e+02 7.099158477783203125e+01 1.092692375183105469e+01 -7.011743783950805664e-01 9.874427795410156250e+00 2.751976013183593750e+00 2.957045435905456543e-01
9.380000000000000000e+02 4.906274795532226562e+01 -5.581546306610107422e+00 2.951693236827850342e-01 4.961284160614013672e+00 1.576936125755310059e+00 -1.391318917274475098e+00
9.390000000000000000e+02 4.869792938232421875e+01 -2.431742191314697266e+00 6.807225942611694336e-01 5.175479412078857422e+00 1.756860613822937012e+00 -1.905852437019348145e+00
9.400000000000000000e+02 6.696711730957031250e+01 3.308063507080078125e+01 -1.369953393936157227e+00 4.319372773170471191e-01 -2.814048528671264648e-01 5.681661367416381836e-01
9.410000000000000000e+02 6.666896820068359375e+01 3.191052246093750000e+01 -1.173307895660400391e+00 -7.366145253181457520e-01 -5.729767084121704102e-01 9.809038639068603516e-01
9.420000000000000000e+02 5.083225250244140625e+01 3.162196922302246094e+01 4.392610788345336914e-01 7.945551872253417969e-01 3.701448738574981689e-01 6.069993972778320312e-01
9.430000000000000000e+02 4.793824768066406250e+01 2.991552352905273438e+01 4.855179786682128906e-01 2.470304965972900391e+00 8.867468833923339844e-01 1.203777194023132324e+00
9.440000000000000000e+02 6.586979675292968750e+01 3.462982940673828125e+01 -1.489079356193542480e+00 -4.800278693437576294e-02 -4.611246287822723389e-01 6.034057736396789551e-01
9.450000000000000000e+02 6.061674118041992188e+01 -1.488310527801513672e+01 6.317743062973022461e-01 7.928757667541503906e-01 4.273950159549713135e-01 9.013085365295410156e-01
9.460000000000000000e+02 6.593906402587890625e+01 -1.875849533081054688e+01 -9.833927154541015625e-01 1.576646804809570312e+00 1.779762357473373413e-01 1.684791922569274902e+00
9.470000000000000000e+02 7.022796630859375000e+01 2.534357452392578125e+01 1.991136074066162109e-01 7.181627750396728516e+00 2.214222431182861328e+00 -1.328719109296798706e-01
9.480000000000000000e+02 4.520687866210937500e+01 2.565718078613281250e+01 8.969321250915527344e-01 4.680850505828857422e+00 1.673334717750549316e+00 1.868660330772399902e+00
9.490000000000000000e+02 5.094357299804687500e+01 -9.211467742919921875e+00 1.912222951650619507e-01 3.663771152496337891e+00 1.156497955322265625e+00 -9.003598690032958984e-01
9.500000000000000000e+02 4.961455154418945312e+01 -9.474303245544433594e+00 -3.802540302276611328e-01 4.088896751403808594e+00 1.112592697143554688e+00 -3.539229333400726318e-01
9.510000000000000000e+02 4.209218978881835938e+01 1.625864028930664062e+01 8.185924291610717773e-01 1.009630966186523438e+01 3.274470806121826172e+00 9.666227102279663086e-01
9.520000000000000000e+02 4.190881347656250000e+01 1.460966300964355469e+01 1.888102591037750244e-01 1.106915187835693359e+01 3.377388477325439453e+00 6.213228702545166016e-01
9.530000000000000000e+02 4.376053619384765625e+01 2.004394912719726562e+01 6.976192593574523926e-01 7.918117523193359375e+00 2.584721088409423828e+00 2.291476011276245117e+00
9.540000000000000000e+02 4.281909561157226562e+01 1.946884346008300781e+01 6.332934498786926270e-01 8.231330871582031250e+00 2.659387350082397461e+00 1.745220303535461426e+00
9.550000000000000000e+02 4.365856552124023438e+01 7.450924396514892578e+00 2.047824621200561523e+00 1.031875228881835938e+01 3.709973096847534180e+00 -4.380030632019042969e+00
9.560000000000000000e+02 6.202737045288085938e+01 -1.561886787414550781e+01 -1.306806653738021851e-01 2.183260440826416016e+00 6.157739758491516113e-01 1.687088847160339355e+00
9.570000000000000000e+02 5.132883071899414062e+01 3.339249038696289062e+01 -1.994225382804870605e-01 8.484178185462951660e-01 1.946985870599746704e-01 3.759707808494567871e-01
9.580000000000000000e+02 5.016324615478515625e+01 3.222052001953125000e+01 1.162948906421661377e-01 1.284391641616821289e+00 4.202059805393218994e-01 6.012403368949890137e-01
9.590000000000000000e+02 4.562741851806640625e+01 2.636940574645996094e+01 8.510846495628356934e-01 4.321453571319580078e+00 1.551761388778686523e+00 1.788823366165161133e+00
9.600000000000000000e+02 4.956330871582031250e+01 -7.079702854156494141e+00 1.063763648271560669e-01 4.664758682250976562e+00 1.431340456008911133e+00 -1.067503690719604492e+00
9.610000000000000000e+02 6.844084930419921875e+01 -3.945015668869018555e+00 1.271392822265625000e+00 9.886411666870117188e+00 3.347341299057006836e+00 3.302630424499511719e+00
9.620000000000000000e+02 6.960524749755859375e+01 -2.667523860931396484e+00 7.921025753021240234e-01 1.101663303375244141e+01 3.542620658874511719e+00 2.615257978439331055e+00
9.630000000000000000e+02 6.305517196655273438e+01 -1.401872348785400391e+01 1.522399544715881348e+00 2.466738700866699219e+00 1.196741461753845215e+00 1.978587627410888672e+00
9.640000000000000000e+02 6.418388366699218750e+01 3.616118621826171875e+01 -1.026223063468933105e+00 -6.924909353256225586e-01 -5.156142115592956543e-01 5.153433680534362793e-01
9.650000000000000000e+02 6.292166137695312500e+01 3.668878173828125000e+01 -1.078322172164916992e+00 -7.336959838867187500e-01 -5.436054468154907227e-01 6.533225774765014648e-01
9.660000000000000000e+02 6.985493469238281250e+01 -1.885026812553405762e+00 7.937496304512023926e-01 1.174183082580566406e+01 3.760674238204956055e+00 2.372810363769531250e+00
9.670000000000000000e+02 6.093221664428710938e+01 -1.545458412170410156e+01 -2.293905168771743774e-01 1.509936690330505371e+00 3.841638565063476562e-01 1.216393947601318359e+00
9.680000000000000000e+02 6.664633941650390625e+01 -9.396920204162597656e+00 1.349822282791137695e+00 5.496263504028320312e+00 2.053825616836547852e+00 2.393451452255249023e+00
9.690000000000000000e+02 4.919415283203125000e+01 2.989637756347656250e+01 8.000109195709228516e-01 1.654374718666076660e+00 7.363156676292419434e-01 1.129604101181030273e+00
9.700000000000000000e+02 4.640692520141601562e+01 9.033871293067932129e-01 1.083335995674133301e+00 5.801270484924316406e+00 2.065382003784179688e+00 -2.567558288574218750e+00
9.710000000000000000e+02 4.605254364013671875e+01 1.594623446464538574e+00 1.129273653030395508e+00 6.015731334686279297e+00 2.143501520156860352e+00 -2.780437707901000977e+00
9.720000000000000000e+02 4.708597183227539062e+01 -4.843760132789611816e-01 7.087211012840270996e-01 5.577006816864013672e+00 1.885718464851379395e+00 -2.278820991516113281e+00
9.730000000000000000e+02 6.704208374023437500e+01 -8.676577568054199219e+00 1.316635012626647949e+00 5.865192413330078125e+00 2.154548168182373047e+00 2.423332691192626953e+00
9.740000000000000000e+02 4.182455062866210938e+01 1.295072555541992188e+01 5.909953713417053223e-01 1.176252079010009766e+01 3.706054687500000000e+00 -2.826643586158752441e-01
9.750000000000000000e+02 4.183090972900390625e+01 1.210766220092773438e+01 7.829114198684692383e-01 1.251029300689697266e+01 3.987961292266845703e+00 -6.675091981887817383e-01
9.760000000000000000e+02 6.019461441040039062e+01 -1.583317279815673828e+01 -1.187870740890502930e+00 1.175801753997802734e+00 -3.620679024606943130e-03 9.986222982406616211e-01
9.770000000000000000e+02 4.348516082763671875e+01 4.771759033203125000e+00 1.290381550788879395e+00 8.023289680480957031e+00 2.794101238250732422e+00 -2.983513355255126953e+00
9.780000000000000000e+02 4.931466293334960938e+01 -6.329852581024169922e+00 2.692805230617523193e-01 4.785622596740722656e+00 1.516470909118652344e+00 -1.209139227867126465e+00
9.790000000000000000e+02 4.568609237670898438e+01 2.282526969909667969e+00 1.172265052795410156e+00 6.254796981811523438e+00 2.228118658065795898e+00 -2.897057056427001953e+00
9.800000000000000000e+02 7.011154937744140625e+01 2.617715263366699219e+01 2.029554694890975952e-01 6.548011302947998047e+00 2.025290012359619141e+00 -2.008882910013198853e-01
9.810000000000000000e+02 6.975088500976562500e+01 2.784241676330566406e+01 7.864787243306636810e-03 5.209606647491455078e+00 1.565241456031799316e+00 -2.795105576515197754e-01
9.820000000000000000e+02 7.053683471679687500e+01 7.880132675170898438e+00 4.721258282661437988e-01 1.217088317871093750e+01 3.792902708053588867e+00 -1.002688258886337280e-01
9.830000000000000000e+02 4.444853973388671875e+01 2.417170143127441406e+01 8.897139430046081543e-01 5.663276672363281250e+00 1.965897202491760254e+00 1.952331900596618652e+00
9.840000000000000000e+02 4.410890960693359375e+01 2.340366172790527344e+01 9.572893381118774414e-01 6.105127334594726562e+00 2.118724822998046875e+00 1.957762241363525391e+00
9.850000000000000000e+02 4.352646636962890625e+01 2.183489990234375000e+01 9.079945087432861328e-01 6.973964214324951172e+00 2.364587545394897461e+00 1.975209832191467285e+00
9.860000000000000000e+02 6.777346038818359375e+01 -7.217350482940673828e+00 1.035618662834167480e+00 6.965728282928466797e+00 2.400403976440429688e+00 2.528265714645385742e+00
9.870000000000000000e+02 6.716634368896484375e+01 -6.893052101135253906e+00 1.307466030120849609e+00 6.658854007720947266e+00 2.389896154403686523e+00 2.897934436798095703e+00
9.880000000000000000e+02 4.519019699096679688e+01 4.636996746063232422e+00 1.996034622192382812e+00 6.805465698242187500e+00 2.640450000762939453e+00 -3.721478223800659180e+00
9.890000000000000000e+02 4.453223037719726562e+01 4.347875595092773438e+00 1.498871207237243652e+00 7.359968662261962891e+00 2.657652139663696289e+00 -3.386136770248413086e+00
9.900000000000000000e+02 4.304122543334960938e+01 2.025741386413574219e+01 6.608965992927551270e-01 7.870031356811523438e+00 2.559278488159179688e+00 1.881024003028869629e+00
9.910000000000000000e+02 7.064369201660156250e+01 6.274467945098876953e+00 3.363163471221923828e-01 1.318521308898925781e+01 4.056458950042724609e+00 -1.547278016805648804e-01
9.920000000000000000e+02 4.241677474975585938e+01 1.788021659851074219e+01 5.208134651184082031e-01 9.326338768005371094e+00 2.954145669937133789e+00 1.550559520721435547e+00
9.930000000000000000e+02 4.312236785888671875e+01 1.771839141845703125e+01 5.213406682014465332e-01 9.447645187377929688e+00 2.990695714950561523e+00 2.096046209335327148e+00
9.940000000000000000e+02 5.254446411132812500e+01 -1.565925884246826172e+01 -4.060335636138916016e+00 7.462857961654663086e-01 -9.942148923873901367e-01 1.286974787712097168e+00
9.950000000000000000e+02 5.945209884643554688e+01 -1.616302680969238281e+01 -2.240534305572509766e+00 9.501689076423645020e-01 -3.871095776557922363e-01 7.083479166030883789e-01
9.960000000000000000e+02 4.268055725097656250e+01 7.975400924682617188e+00 1.620849132537841797e+00 1.102044582366943359e+01 3.792388439178466797e+00 -3.501998662948608398e+00
9.970000000000000000e+02 4.327468872070312500e+01 2.104477310180664062e+01 7.946835160255432129e-01 7.387665271759033203e+00 2.454704761505126953e+00 1.986607909202575684e+00
9.980000000000000000e+02 5.155591583251953125e+01 -1.431142520904541016e+01 -2.855474948883056641e+00 1.683780312538146973e+00 -3.515084087848663330e-01 1.215353369712829590e+00
9.990000000000000000e+02 6.906452178955078125e+01 -4.212114810943603516e+00 1.007922053337097168e+00 9.537703514099121094e+00 3.163687705993652344e+00 2.565560579299926758e+00
1.000000000000000000e+03 6.969776916503906250e+01 2.212154388427734375e+01 1.107177883386611938e-02 8.092682838439941406e+00 2.431126356124877930e+00 9.465762972831726074e-02
1.001000000000000000e+03 7.038800811767578125e+01 2.287903404235839844e+01 1.076939254999160767e-01 8.067996025085449219e+00 2.452706813812255859e+00 1.035871505737304688e-01
1.002000000000000000e+03 4.785411071777343750e+01 -4.273672580718994141e+00 2.145662009716033936e-01 5.220137119293212891e+00 1.630410909652709961e+00 -1.549462318420410156e+00
1.003000000000000000e+03 4.414058303833007812e+01 5.044663429260253906e+00 1.656771898269653320e+00 7.947052955627441406e+00 2.881147384643554688e+00 -3.471022844314575195e+00
1.004000000000000000e+03 6.742314147949218750e+01 3.235443496704101562e+01 -1.187646150588989258e+00 6.932892203330993652e-01 -1.483070701360702515e-01 4.854785799980163574e-01
1.005000000000000000e+03 4.827407455444335938e+01 -3.360021829605102539e+00 4.289817810058593750e-01 5.220224380493164062e+00 1.694761872291564941e+00 -1.747587203979492188e+00
1.006000000000000000e+03 7.008889770507812500e+01 -1.089214920997619629e+00 9.091895222663879395e-01 1.240890026092529297e+01 3.995426893234252930e+00 2.289390087127685547e+00
1.007000000000000000e+03 7.029867553710937500e+01 -2.794441878795623779e-01 8.799283504486083984e-01 1.333839893341064453e+01 4.265498161315917969e+00 2.106018304824829102e+00
1.008000000000000000e+03 4.743603515625000000e+01 2.920377922058105469e+01 5.763153433799743652e-01 2.840255022048950195e+00 1.024971127510070801e+00 1.323299646377563477e+00
1.009000000000000000e+03 6.811900329589843750e+01 -6.478234291076660156e+00 1.042681574821472168e+00 7.526427745819091797e+00 2.570732831954956055e+00 2.522997856140136719e+00
1.010000000000000000e+03 6.845045471191406250e+01 -5.731412410736083984e+00 1.028526425361633301e+00 8.188457489013671875e+00 2.765095233917236328e+00 2.582788228988647461e+00
1.011000000000000000e+03 5.102644348144531250e+01 -1.168992805480957031e+01 -6.431713700294494629e-01 2.384458303451538086e+00 5.223860740661621094e-01 2.752645909786224365e-01
1.012000000000000000e+03 7.066742706298828125e+01 5.473656177520751953e+00 1.072583571076393127e-01 1.334707164764404297e+01 4.036299228668212891e+00 1.933236271142959595e-01
1.013000000000000000e+03 7.000350952148437500e+01 3.907984256744384766e+00 2.992952987551689148e-02 1.447337150573730469e+01 4.350990295410156250e+00 2.276992350816726685e-01
1.014000000000000000e+03 5.004159927368164062e+01 -8.585787773132324219e+00 1.026325509883463383e-03 4.094960212707519531e+00 1.228796005249023438e+00 -7.935479879379272461e-01
1.015000000000000000e+03 4.696583175659179688e+01 2.848646545410156250e+01 7.133700847625732422e-01 3.180602073669433594e+00 1.168191671371459961e+00 1.397395133972167969e+00
1.016000000000000000e+03 7.039433288574218750e+01 1.568612194061279297e+01 6.048860400915145874e-02 9.629055023193359375e+00 2.906863212585449219e+00 4.300640225410461426e-01
1.017000000000000000e+03 5.072920989990234375e+01 3.282568359375000000e+01 -3.658097237348556519e-02 1.050277829170227051e+00 3.041090667247772217e-01 4.918525815010070801e-01
1.018000000000000000e+03 7.203129577636718750e+01 4.637062549591064453e+00 4.287756085395812988e-01 1.175853443145751953e+01 3.656193017959594727e+00 6.711596846580505371e-01
1.019000000000000000e+03 7.068754577636718750e+01 3.865615844726562500e+00 1.615431755781173706e-01 1.377334403991699219e+01 4.180466175079345703e+00 5.429635047912597656e-01
1.020000000000000000e+03 7.041936492919921875e+01 1.728186225891113281e+01 1.669025793671607971e-02 9.209372520446777344e+00 2.767818927764892578e+00 3.533136546611785889e-01
1.021000000000000000e+03 7.040013122558593750e+01 2.207304382324218750e+01 3.075475431978702545e-02 8.191538810729980469e+00 2.466688156127929688e+00 2.177091538906097412e-01
1.022000000000000000e+03 6.970539093017578125e+01 1.893598937988281250e+01 7.260863669216632843e-03 8.836815834045410156e+00 2.653223037719726562e+00 1.395501494407653809e-01
1.023000000000000000e+03 7.041175842285156250e+01 2.047386169433593750e+01 1.434260606765747070e-02 8.484625816345214844e+00 2.549690723419189453e+00 2.809839844703674316e-01
1.024000000000000000e+03 7.041618347167968750e+01 1.967937469482421875e+01 1.776951178908348083e-02 8.649910926818847656e+00 2.600304126739501953e+00 3.015514314174652100e-01
1.025000000000000000e+03 7.042205047607421875e+01 1.808049011230468750e+01 1.989987306296825409e-02 9.014033317565917969e+00 2.710180044174194336e+00 3.345295786857604980e-01
1.026000000000000000e+03 7.041065216064453125e+01 1.648403167724609375e+01 4.638772457838058472e-02 9.413286209106445312e+00 2.837902307510375977e+00 3.878545761108398438e-01
1.027000000000000000e+03 8.933383941650390625e+00 -2.674593544006347656e+01 1.467311405576765537e-03 4.485333338379859924e-04 5.747533868998289108e-04 -2.631888783071190119e-04
1.028000000000000000e+03 7.183093261718750000e+01 -2.913138580322265625e+01 1.427241325378417969e+00 9.896579742431640625e+00 3.397146224975585938e+00 1.803082942962646484e+00
1.029000000000000000e+03 7.117512512207031250e+01 -2.890463447570800781e+01 1.656667470932006836e+00 1.097819232940673828e+01 3.790457963943481445e+00 3.507596731185913086e+00
1.030000000000000000e+03 3.863748550415039062e+01 -1.749820518493652344e+01 9.903271794319152832e-01 4.132706642150878906e+00 1.536910176277160645e+00 -3.028176069259643555e+00
1.031000000000000000e+03 1.265092563629150391e+01 -3.169217109680175781e+01 -1.253121718764305115e-02 -1.439578016288578510e-03 -4.191238433122634888e-03 -5.594593938440084457e-03
1.032000000000000000e+03 1.393323040008544922e+01 -3.027871894836425781e+01 -1.067770179361104965e-02 2.622700296342372894e-03 -2.416500588878989220e-03 9.446616168133914471e-04
1.033000000000000000e+03 7.894745635986328125e+01 -2.351207351684570312e+01 2.396416384726762772e-03 6.891010761260986328e+00 2.068022251129150391e+00 4.823645949363708496e-01
1.034000000000000000e+03 7.210684204101562500e+01 -2.478385353088378906e+01 1.100572586059570312e+00 1.001253032684326172e+01 3.333930969238281250e+00 -4.223871231079101562e-01
1.035000000000000000e+03 5.710548019409179688e+01 -3.497682189941406250e+01 2.527589797973632812e-01 3.435005426406860352e+00 1.106329321861267090e+00 -1.546043038368225098e+00
1.036000000000000000e+03 1.663605117797851562e+01 3.432722091674804688e-01 -1.298163175582885742e+00 -1.319561958312988281e+00 -7.853175401687622070e-01 1.194950461387634277e+00
1.037000000000000000e+03 1.239979934692382812e+01 1.028099179267883301e+00 -1.585151076316833496e+00 -8.993289470672607422e-01 -7.453439831733703613e-01 1.118725776672363281e+00
1.038000000000000000e+03 1.461212062835693359e+01 -7.455124706029891968e-02 -1.861445307731628418e+00 -1.202600717544555664e+00 -9.192138314247131348e-01 1.384518027305603027e+00
1.039000000000000000e+03 1.531097316741943359e+01 -4.670791327953338623e-01 -1.925358772277832031e+00 -1.307949900627136230e+00 -9.699926376342773438e-01 1.442671298980712891e+00
1.040000000000000000e+03 3.721083450317382812e+01 -1.755535125732421875e+01 5.023693442344665527e-01 1.391364693641662598e+00 5.681202411651611328e-01 -1.895701646804809570e+00
1.041000000000000000e+03 4.059723663330078125e+01 -1.959844779968261719e+01 3.512431859970092773e+00 8.072768211364746094e+00 3.475559949874877930e+00 -5.099707603454589844e+00
1.042000000000000000e+03 4.132492065429687500e+01 -2.119845771789550781e+01 6.164628505706787109e+00 1.371630382537841797e+01 5.964279651641845703e+00 -8.278484344482421875e+00
1.043000000000000000e+03 5.519755172729492188e+01 -3.202441406250000000e+01 2.051766872406005859e+00 5.677563667297363281e+00 2.318799018859863281e+00 -1.028586626052856445e+00
1.044000000000000000e+03 5.645914459228515625e+01 -3.356067657470703125e+01 9.693120718002319336e-01 4.769207000732421875e+00 1.721555709838867188e+00 -2.051008701324462891e+00
1.045000000000000000e+03 6.953354644775390625e+01 -2.197115516662597656e+01 -2.982732772827148438e+00 8.490852266550064087e-02 -8.693472743034362793e-01 6.909883618354797363e-01
1.046000000000000000e+03 6.605121612548828125e+01 -3.543442153930664062e+01 9.735397249460220337e-02 7.352207303047180176e-01 2.497724145650863647e-01 6.193767189979553223e-01
1.047000000000000000e+03 6.849297332763671875e+01 -3.343851852416992188e+01 3.561574220657348633e-01 2.238351345062255859e+00 7.783526182174682617e-01 1.287201523780822754e+00
1.048000000000000000e+03 6.067229080200195312e+01 -2.317980003356933594e+01 2.941621065139770508e+00 2.117601156234741211e+00 1.517766594886779785e+00 2.498188257217407227e+00
1.049000000000000000e+03 4.297010040283203125e+01 -2.778855705261230469e+01 1.281068682670593262e+00 1.307653045654296875e+01 4.307279586791992188e+00 1.017211675643920898e+00
1.050000000000000000e+03 4.218582153320312500e+01 -2.867823028564453125e+01 1.928003549575805664e+00 1.477545356750488281e+01 5.011037349700927734e+00 2.109299182891845703e+00
1.051000000000000000e+03 5.640675735473632812e+01 -2.717502975463867188e+01 2.164550781250000000e+00 4.302448749542236328e+00 1.940099835395812988e+00 2.164473295211791992e+00
1.052000000000000000e+03 5.798653793334960938e+01 -2.626588630676269531e+01 3.264459848403930664e+00 3.402441263198852539e+00 2.000070333480834961e+00 3.097658872604370117e+00
1.053000000000000000e+03 5.494057083129882812e+01 -3.016864013671875000e+01 1.603897929191589355e+00 6.431527137756347656e+00 2.410627365112304688e+00 -6.733710169792175293e-01
1.054000000000000000e+03 5.552346420288085938e+01 -3.125504493713378906e+01 1.721914410591125488e+00 7.615487098693847656e+00 2.801220417022705078e+00 -1.416400432586669922e+00
1.055000000000000000e+03 7.036893463134765625e+01 -2.138596916198730469e+01 -2.820653915405273438e+00 3.758007764816284180e+00 2.812061607837677002e-01 -1.050886750221252441e+00
1.056000000000000000e+03 6.986271667480468750e+01 -3.101421737670898438e+01 1.828088998794555664e+00 4.201798915863037109e+00 1.808966398239135742e+00 2.690213918685913086e+00
1.057000000000000000e+03 5.523658370971679688e+01 -2.942852401733398438e+01 1.375140070915222168e+00 6.524396419525146484e+00 2.369860887527465820e+00 2.331625223159790039e-01
1.058000000000000000e+03 7.096119689941406250e+01 -3.068934440612792969e+01 1.064528107643127441e+00 7.073309421539306641e+00 2.441351413726806641e+00 2.243958950042724609e+00
1.059000000000000000e+03 5.999809646606445312e+01 -2.364827537536621094e+01 3.188289165496826172e+00 2.316162109375000000e+00 1.651335358619689941e+00 2.520277738571166992e+00
1.060000000000000000e+03 6.736166381835937500e+01 -3.324584960937500000e+01 2.401559948921203613e-01 6.371138691902160645e-01 2.631809413433074951e-01 5.145751833915710449e-01
1.061000000000000000e+03 7.141694641113281250e+01 -2.993018150329589844e+01 1.335335016250610352e+00 8.498660087585449219e+00 2.950198650360107422e+00 2.127881765365600586e+00
1.062000000000000000e+03 6.714807128906250000e+01 -3.478795242309570312e+01 1.139954701066017151e-01 1.243869423866271973e+00 4.073594808578491211e-01 8.371978998184204102e-01
1.063000000000000000e+03 9.087706565856933594e+00 -2.087469291687011719e+01 2.949239860754460096e-04 1.199741109303431585e-05 9.207642142428085208e-05 -1.054276726790703833e-04
1.064000000000000000e+03 5.806293869018554688e+01 -2.524351882934570312e+01 3.318827152252197266e+00 2.719387054443359375e+00 1.811464309692382812e+00 2.625835895538330078e+00
1.065000000000000000e+03 5.933071899414062500e+01 -2.414904212951660156e+01 3.640089988708496094e+00 2.230202674865722656e+00 1.761087894439697266e+00 2.575391769409179688e+00
1.066000000000000000e+03 7.233583068847656250e+01 -2.732787513732910156e+01 1.376782774925231934e+00 1.068801116943359375e+01 3.619438171386718750e+00 1.164460539817810059e+00
1.067000000000000000e+03 5.746926116943359375e+01 -2.584474563598632812e+01 3.114768981933593750e+00 2.985847473144531250e+00 1.830184936523437500e+00 2.517539262771606445e+00
1.068000000000000000e+03 5.691411972045898438e+01 -2.648945426940917969e+01 2.726443529129028320e+00 3.525309085845947266e+00 1.875525832176208496e+00 2.423344373703002930e+00
1.069000000000000000e+03 7.894574737548828125e+01 -2.431125831604003906e+01 2.567267604172229767e-02 6.605528354644775391e+00 1.989360332489013672e+00 4.592836797237396240e-01
1.070000000000000000e+03 6.109306335449218750e+01 -3.483856582641601562e+01 -6.354185342788696289e-01 1.352193951606750488e-01 -1.500597298145294189e-01 -2.345599234104156494e-01
1.071000000000000000e+03 5.687137222290039062e+01 -3.417914581298828125e+01 7.719441056251525879e-01 3.622082471847534180e+00 1.318207979202270508e+00 -1.785731315612792969e+00
1.072000000000000000e+03 6.565779876708984375e+01 -2.227677536010742188e+01 -1.354497432708740234e+00 5.378537625074386597e-02 -3.902136385440826416e-01 -1.928949356079101562e-01
1.073000000000000000e+03 6.166389846801757812e+01 -1.502684497833251953e+01 4.857574105262756348e-01 1.780237078666687012e+00 6.797983646392822266e-01 1.519943118095397949e+00
1.074000000000000000e+03 6.608344268798828125e+01 -2.131118774414062500e+01 -2.818623065948486328e+00 5.878313779830932617e-01 -6.692375540733337402e-01 5.730586647987365723e-01
1.075000000000000000e+03 1.443508625030517578e+01 -1.352183532714843750e+01 -1.055344182532280684e-05 1.961695852514822036e-05 2.719055146371829323e-06 6.287249561864882708e-06
1.076000000000000000e+03 1.367699432373046875e+01 -1.388456249237060547e+01 5.520505510503426194e-06 -2.667096850927919149e-05 -6.345138899632729590e-06 -1.245344355993438512e-05
1.077000000000000000e+03 7.046231842041015625e+01 -3.142662811279296875e+01 9.713019132614135742e-01 5.514739990234375000e+00 1.945812582969665527e+00 2.188600778579711914e+00
1.078000000000000000e+03 6.990281677246093750e+01 -3.216259002685546875e+01 8.177988529205322266e-01 4.212980270385742188e+00 1.509233713150024414e+00 1.835237264633178711e+00
1.079000000000000000e+03 3.962807464599609375e+01 -1.953767204284667969e+01 4.677546501159667969e+00 5.562608718872070312e+00 3.072046518325805664e+00 -4.833409309387207031e+00
1.080000000000000000e+03 3.905398559570312500e+01 -1.803708267211914062e+01 1.466140866279602051e+00 4.791808128356933594e+00 1.877384662628173828e+00 -3.245742559432983398e+00
1.081000000000000000e+03 4.075285339355468750e+01 -3.089174270629882812e+01 2.501536130905151367e+00 4.390998840332031250e+00 2.067760467529296875e+00 3.005715608596801758e+00
1.082000000000000000e+03 4.051668167114257812e+01 -3.233573532104492188e+01 6.329550147056579590e-01 4.157896518707275391e+00 1.437255501747131348e+00 2.103499889373779297e+00
1.083000000000000000e+03 2.272142219543457031e+01 -3.216233825683593750e+01 -1.504555493593215942e-01 6.920721381902694702e-03 -4.306044802069664001e-02 -4.097596928477287292e-02
1.084000000000000000e+03 1.212839984893798828e+01 -1.476356029510498047e+01 4.286601688363589346e-05 -2.312393189640715718e-05 5.922625405219150707e-06 1.454998528060968965e-05
1.085000000000000000e+03 1.141730594635009766e+01 -1.538595771789550781e+01 5.870660061191301793e-06 5.515723023563623428e-05 1.830836663430090994e-05 -2.120522549375891685e-05
1.086000000000000000e+03 3.104285240173339844e+01 -1.617868423461914062e+01 -9.745621085166931152e-01 1.394102275371551514e-01 -2.505455613136291504e-01 3.545194268226623535e-01
1.087000000000000000e+03 3.970815277099609375e+01 -3.289521408081054688e+01 4.359356462955474854e-01 2.745167255401611328e+00 9.543308615684509277e-01 1.755211830139160156e+00
1.088000000000000000e+03 1.054745006561279297e+01 -2.768265151977539062e+01 6.691215094178915024e-04 9.565797518007457256e-04 4.877103783655911684e-04 -1.538385055027902126e-03
1.089000000000000000e+03 4.341977691650390625e+01 -2.255989265441894531e+01 3.441179037094116211e+00 1.250225543975830078e+01 4.783030509948730469e+00 -2.675812959671020508e+00
1.090000000000000000e+03 1.792893218994140625e+01 -7.944586277008056641e+00 -6.920885425643064082e-06 3.116177822448662482e-06 -1.141412326433055568e-06 -1.074522302246805339e-07
1.091000000000000000e+03 2.500638580322265625e+01 -3.219757080078125000e+01 -2.269882708787918091e-01 5.403145682066679001e-03 -6.647554039955139160e-02 -4.352894425392150879e-02
1.092000000000000000e+03 1.867041587829589844e+01 -3.219472503662109375e+01 -7.013119757175445557e-02 -8.415808901190757751e-03 -2.356410212814807892e-02 -2.434810996055603027e-02
1.093000000000000000e+03 3.507803344726562500e+01 -3.362652969360351562e+01 -6.276834607124328613e-01 3.373725339770317078e-02 -1.781838536262512207e-01 5.831374973058700562e-02
1.094000000000000000e+03 2.423703384399414062e+01 -3.202835083007812500e+01 -1.968607157468795776e-01 9.796295315027236938e-03 -5.611932650208473206e-02 -4.494450986385345459e-02
1.095000000000000000e+03 3.346189117431640625e+01 -3.323830795288085938e+01 -7.683156132698059082e-01 -6.216416601091623306e-03 -2.323596030473709106e-01 -3.040776774287223816e-02
1.096000000000000000e+03 4.098948669433593750e+01 -3.324362182617187500e+01 -1.437413040548563004e-02 4.896365642547607422e+00 1.464597463607788086e+00 1.749480962753295898e+00
1.097000000000000000e+03 9.082900047302246094e+00 -1.906044578552246094e+01 -5.053873610449954867e-05 -1.623403113626409322e-05 -2.003182999033015221e-05 8.952934877015650272e-05
1.098000000000000000e+03 1.009367847442626953e+01 -1.863329315185546875e+01 -1.755174162099137902e-04 -8.000330126378685236e-05 -7.665621524211019278e-05 1.189183167298324406e-04
1.099000000000000000e+03 4.212223052978515625e+01 -2.537550735473632812e+01 3.831188008189201355e-02 1.468923282623291016e+01 4.418263435363769531e+00 -3.110402822494506836e-01
1.100000000000000000e+03 4.300413894653320312e+01 -2.400036430358886719e+01 1.631981015205383301e+00 1.507039356231689453e+01 5.010712146759033203e+00 -2.855328559875488281e+00
1.101000000000000000e+03 1.781183815002441406e+01 -3.221865463256835938e+01 -5.766621232032775879e-02 -1.857530209235846996e-03 -1.785712316632270813e-02 -2.027568221092224121e-02
1.102000000000000000e+03 3.267215347290039062e+01 -3.310356903076171875e+01 -7.228650450706481934e-01 4.334180150181055069e-03 -2.155592739582061768e-01 -4.253850132226943970e-02
1.103000000000000000e+03 3.192818260192871094e+01 -3.290274810791015625e+01 -6.658558845520019531e-01 4.367959871888160706e-02 -1.866528987884521484e-01 -2.286650799214839935e-02
1.104000000000000000e+03 3.061628723144531250e+01 -3.173140907287597656e+01 -5.674987435340881348e-01 -3.199332393705844879e-03 -1.712094247341156006e-01 6.544601172208786011e-02
1.105000000000000000e+03 3.290153884887695312e+01 -1.735224151611328125e+01 -1.228646516799926758e+00 1.248375251889228821e-01 -3.311426937580108643e-01 1.534792780876159668e-01
1.106000000000000000e+03 1.951123809814453125e+01 -3.115806770324707031e+01 -9.538007527589797974e-02 -5.553635768592357635e-03 -3.028011322021484375e-02 -1.012125983834266663e-02
1.107000000000000000e+03 2.106146812438964844e+01 -3.203260803222656250e+01 -1.122025847434997559e-01 -8.040941320359706879e-04 -3.390200436115264893e-02 -3.280863165855407715e-02
1.108000000000000000e+03 8.429512023925781250e+00 -2.068879890441894531e+01 -1.022129727061837912e-04 -6.378474063239991665e-05 -4.979931327397935092e-05 2.093456532747950405e-05
1.109000000000000000e+03 3.690485763549804688e+01 -3.384843444824218750e+01 -1.775885224342346191e-01 5.058213472366333008e-01 9.846985340118408203e-02 6.482450962066650391e-01
1.110000000000000000e+03 1.523715305328369141e+01 -1.321493434906005859e+01 6.493518412753473967e-06 -1.617543057363945991e-05 -2.904573648265795782e-06 -8.675425306137185544e-06
1.111000000000000000e+03 1.293645381927490234e+01 -3.088220214843750000e+01 -1.152563374489545822e-02 3.806600812822580338e-03 -2.315709833055734634e-03 -2.446650993078947067e-03
1.112000000000000000e+03 1.086557006835937500e+01 -1.613875007629394531e+01 -1.434422028978588060e-05 -7.908146653790026903e-05 -2.802770541165955365e-05 4.974966577719897032e-05
1.113000000000000000e+03 9.933538436889648438e+00 -1.758634185791015625e+01 -2.247543125122319907e-05 -8.392854942940175533e-05 -3.192119402228854597e-05 7.412946433760225773e-05
1.114000000000000000e+03 4.288904571533203125e+01 -2.474320983886718750e+01 6.814569830894470215e-01 1.464621257781982422e+01 4.598300933837890625e+00 -1.627010703086853027e+00
1.115000000000000000e+03 3.882915115356445312e+01 -3.337660217285156250e+01 2.207552641630172729e-01 1.769082069396972656e+00 5.969511866569519043e-01 1.401816010475158691e+00
1.116000000000000000e+03 3.788112258911132812e+01 -3.371088027954101562e+01 2.573573775589466095e-02 1.025185823440551758e+00 3.152764737606048584e-01 1.031880259513854980e+00
1.117000000000000000e+03 3.213225936889648438e+01 -3.209019851684570312e+01 -7.509920001029968262e-01 -2.462030202150344849e-02 -2.326837033033370972e-01 1.367723941802978516e-01
1.118000000000000000e+03 3.426091003417968750e+01 -1.813013267517089844e+01 -1.716066837310791016e+00 6.594108883291482925e-03 -5.128418207168579102e-01 1.300233998335897923e-03
1.119000000000000000e+03 3.363600921630859375e+01 -1.743446350097656250e+01 -1.231342673301696777e+00 1.044841483235359192e-01 -3.380575776100158691e-01 4.097222909331321716e-02
1.120000000000000000e+03 1.886646270751953125e+01 -1.030571746826171875e+01 7.537332294305087999e-06 -5.760262411058647558e-06 5.331210104486672208e-07 2.122341129506821744e-07
1.121000000000000000e+03 1.608548927307128906e+01 -1.289463233947753906e+01 4.677096058003371581e-06 8.671073373989202082e-06 4.004451056971447542e-06 8.636555321572814137e-06
1.122000000000000000e+03 2.863435745239257812e+01 -1.584659767150878906e+01 -8.484923839569091797e-01 -1.749633699655532837e-01 -3.070367276668548584e-01 5.617175698280334473e-01
1.123000000000000000e+03 2.819548034667968750e+01 -1.665875625610351562e+01 -1.042265772819519043e+00 -2.424667775630950928e-01 -3.854197561740875244e-01 5.394517779350280762e-01
1.124000000000000000e+03 2.186647987365722656e+01 -3.208519363403320312e+01 -1.266508102416992188e-01 -8.156214840710163116e-03 -4.044210910797119141e-02 -3.484609350562095642e-02
1.125000000000000000e+03 1.078537654876708984e+01 -2.989259529113769531e+01 -2.963983919471502304e-03 2.437879098579287529e-03 -1.578314841026440263e-04 -1.740019884891808033e-03
1.126000000000000000e+03 1.224085617065429688e+01 -3.067547798156738281e+01 -9.242597036063671112e-03 -1.446307986043393612e-03 -3.206671448424458504e-03 -1.815525931306183338e-03
1.127000000000000000e+03 4.004220199584960938e+01 -1.908204269409179688e+01 3.293843507766723633e+00 6.330463409423828125e+00 2.887292146682739258e+00 -4.352092266082763672e+00
1.128000000000000000e+03 3.042320060729980469e+01 -1.759922981262207031e+01 -1.278574943542480469e+00 -8.386161178350448608e-02 -4.087309539318084717e-01 4.234161376953125000e-01
1.129000000000000000e+03 3.144328308105468750e+01 -1.708269500732421875e+01 -1.185165524482727051e+00 8.760747313499450684e-02 -3.292674124240875244e-01 3.241893649101257324e-01
1.130000000000000000e+03 2.828913307189941406e+01 -3.147838211059570312e+01 -4.273655116558074951e-01 2.121474128216505051e-03 -1.275732070207595825e-01 1.609362103044986725e-02
1.131000000000000000e+03 3.104543113708496094e+01 -3.344717407226562500e+01 -4.807520508766174316e-01 3.397110477089881897e-02 -1.340342760086059570e-01 -7.995510846376419067e-02
1.132000000000000000e+03 1.022229194641113281e+01 -2.867070198059082031e+01 -2.171167579945176840e-04 -1.154815472546033561e-04 -9.977949230233207345e-05 -5.381171940825879574e-04
1.133000000000000000e+03 8.742694854736328125e+00 -2.331068038940429688e+01 -5.636007408611476421e-04 1.183248386951163411e-04 -1.335827691946178675e-04 4.949539288645610213e-05
1.134000000000000000e+03 1.106793522834777832e+00 -2.758628654479980469e+01 -6.578340253327041864e-05 4.349754308350384235e-04 1.107576026697643101e-04 2.632330870255827904e-04
1.135000000000000000e+03 3.270835113525390625e+01 -1.805160140991210938e+01 -1.550034046173095703e+00 1.244025304913520813e-02 -4.612781405448913574e-01 1.473430246114730835e-01
1.136000000000000000e+03 3.511285781860351562e+01 -1.754756927490234375e+01 -9.416238665580749512e-01 1.335655003786087036e-01 -2.424174994230270386e-01 -2.822800874710083008e-01
1.137000000000000000e+03 9.381444931030273438e+00 -2.742332839965820312e+01 3.527277149260044098e-04 1.643074210733175278e-04 1.551105378894135356e-04 -7.700131391175091267e-04
1.138000000000000000e+03 9.819247245788574219e+00 -2.805704689025878906e+01 1.170104253105819225e-03 3.438063140492886305e-04 4.541731614153832197e-04 -3.408586198929697275e-04
1.139000000000000000e+03 1.366069602966308594e+01 -3.118484497070312500e+01 -1.583463884890079498e-02 -9.372594649903476238e-04 -5.031569860875606537e-03 -4.423187114298343658e-03
1.140000000000000000e+03 1.441613006591796875e+01 -3.147796058654785156e+01 -2.164187841117382050e-02 2.933151088654994965e-03 -5.612618289887905121e-03 -6.206759251654148102e-03
1.141000000000000000e+03 2.984812164306640625e+01 -3.161530303955078125e+01 -5.112330317497253418e-01 3.076509572565555573e-03 -1.524469554424285889e-01 4.795859754085540771e-02
1.142000000000000000e+03 2.027618598937988281e+01 -3.201902008056640625e+01 -9.912906587123870850e-02 -9.739234112203121185e-03 -3.266048803925514221e-02 -2.991049923002719879e-02
1.143000000000000000e+03 4.281222152709960938e+01 -2.548980522155761719e+01 4.026519060134887695e-01 1.423050022125244141e+01 4.389945507049560547e+00 -1.097210168838500977e+00
1.144000000000000000e+03 4.350221252441406250e+01 -2.564798164367675781e+01 9.264533519744873047e-01 1.305529403686523438e+01 4.194524288177490234e+00 -1.151743054389953613e+00
1.145000000000000000e+03 4.211397171020507812e+01 -2.616186904907226562e+01 5.112153291702270508e-02 1.399958896636962891e+01 4.215212821960449219e+00 -2.034320831298828125e-01
1.146000000000000000e+03 4.277643585205078125e+01 -2.622849273681640625e+01 3.304315805435180664e-01 1.368500709533691406e+01 4.204631805419921875e+00 -4.023558497428894043e-01
1.147000000000000000e+03 3.425993347167968750e+01 -3.340454101562500000e+01 -7.885665297508239746e-01 -1.230597496032714844e-02 -2.402617633342742920e-01 -3.943720087409019470e-02
1.148000000000000000e+03 3.527747344970703125e+01 -3.275437927246093750e+01 -1.413432359695434570e+00 -5.061664804816246033e-02 -4.392147064208984375e-01 8.773882687091827393e-02
1.149000000000000000e+03 2.981958007812500000e+01 -3.323630142211914062e+01 -3.910531103610992432e-01 4.564166441559791565e-02 -1.036234274506568909e-01 -7.030735909938812256e-02
1.150000000000000000e+03 2.583239555358886719e+01 -3.232677841186523438e+01 -2.548574209213256836e-01 1.302266214042901993e-02 -7.255043089389801025e-02 -5.339631438255310059e-02
1.151000000000000000e+03 4.117455673217773438e+01 -2.010151672363281250e+01 3.333652019500732422e+00 1.042834281921386719e+01 4.128598213195800781e+00 -5.574443340301513672e+00
1.152000000000000000e+03 2.747345161437988281e+01 -3.237361526489257812e+01 -3.256657719612121582e-01 1.361276116222143173e-02 -9.361590445041656494e-02 -4.294465854763984680e-02
1.153000000000000000e+03 2.905752563476562500e+01 -3.241866302490234375e+01 -4.151553809642791748e-01 2.280327863991260529e-02 -1.177056282758712769e-01 -2.543655969202518463e-02
1.154000000000000000e+03 8.151865005493164062e+00 -2.240319442749023438e+01 -7.717210974078625441e-05 -3.282227771705947816e-05 -3.299831587355583906e-05 9.791707270778715611e-05
1.155000000000000000e+03 8.056652069091796875e+00 -2.325934219360351562e+01 1.360251044388860464e-04 -7.843217645131517202e-06 3.845456376438960433e-05 -2.256806328659877181e-04
1.156000000000000000e+03 1.948586463928222656e+01 -3.208213806152343750e+01 -8.442311733961105347e-02 4.440025950316339731e-04 -2.519373409450054169e-02 -2.526124753057956696e-02
1.157000000000000000e+03 9.502457618713378906e+00 -1.831057167053222656e+01 2.766270154097583145e-05 4.566499046632088721e-05 2.199830669269431382e-05 -8.225945930462330580e-05
1.158000000000000000e+03 3.586105728149414062e+01 -1.756475639343261719e+01 -5.321856141090393066e-01 2.953006625175476074e-01 -7.106548547744750977e-02 -5.793025493621826172e-01
1.159000000000000000e+03 1.292683601379394531e+01 -1.430760765075683594e+01 -2.162070450140163302e-05 2.889961797336582094e-05 2.183674041589256376e-06 1.248197895620251074e-05
1.160000000000000000e+03 4.099285507202148438e+01 -1.908882141113281250e+01 2.014340639114379883e+00 8.729961395263671875e+00 3.223290443420410156e+00 -4.156788825988769531e+00
1.161000000000000000e+03 2.031470870971679688e+01 -3.113944625854492188e+01 -1.130531430244445801e-01 4.278548527508974075e-03 -3.263237699866294861e-02 -1.082619372755289078e-02
1.162000000000000000e+03 2.039440155029296875e+01 -4.418109893798828125e+00 -1.950440883636474609e+00 -1.762942790985107422e+00 -1.114015102386474609e+00 1.648410797119140625e+00
1.163000000000000000e+03 1.798081588745117188e+01 -2.272752285003662109e+00 -2.057912111282348633e+00 -1.645446300506591797e+00 -1.111007452011108398e+00 1.626732110977172852e+00
1.164000000000000000e+03 2.021854972839355469e+01 -3.303352594375610352e+00 -1.767181634902954102e+00 -1.508381366729736328e+00 -9.826689362525939941e-01 1.403549909591674805e+00
1.165000000000000000e+03 2.061980056762695312e+01 -2.750735998153686523e+00 -1.545963287353515625e+00 -1.274634838104248047e+00 -8.461794257164001465e-01 1.194723963737487793e+00
1.166000000000000000e+03 2.194527626037597656e+01 -5.088313579559326172e+00 -1.678864479064941406e+00 -1.376410365104675293e+00 -9.165824651718139648e-01 1.354885339736938477e+00
1.167000000000000000e+03 1.767994880676269531e+01 -1.195839405059814453e+00 -1.707239031791687012e+00 -1.472146034240722656e+00 -9.538155198097229004e-01 1.382847428321838379e+00
1.168000000000000000e+03 1.833552360534667969e+01 -1.689834475517272949e+00 -1.739602684974670410e+00 -1.502410650253295898e+00 -9.726040363311767578e-01 1.399932861328125000e+00
1.169000000000000000e+03 1.961187744140625000e+01 -2.745457172393798828e+00 -1.770248770713806152e+00 -1.521930456161499023e+00 -9.876537919044494629e-01 1.408505082130432129e+00
1.170000000000000000e+03 7.959500885009765625e+01 3.896124649047851562e+01 -3.485603956505656242e-04 1.293921852111816406e+01 3.881661176681518555e+00 4.878417029976844788e-02
1.171000000000000000e+03 7.880111694335937500e+01 3.753919219970703125e+01 1.084007695317268372e-02 1.209292030334472656e+01 3.631128311157226562e+00 3.803132101893424988e-02
1.172000000000000000e+03 7.951200103759765625e+01 3.574209213256835938e+01 -6.282221525907516479e-03 1.279903221130371094e+01 3.837824821472167969e+00 4.196610674262046814e-02
1.173000000000000000e+03 7.880657196044921875e+01 3.403837966918945312e+01 -3.581294417381286621e-02 1.199754905700683594e+01 3.588520765304565430e+00 1.413984298706054688e-01
1.174000000000000000e+03 7.821952819824218750e+01 3.085929107666015625e+01 -6.945087015628814697e-02 1.107402801513671875e+01 3.301373243331909180e+00 4.185916781425476074e-01
1.175000000000000000e+03 7.963586425781250000e+01 3.246832656860351562e+01 -9.311323054134845734e-03 1.255489921569824219e+01 3.763676404953002930e+00 9.305280447006225586e-02
1.176000000000000000e+03 7.894541931152343750e+01 2.931126785278320312e+01 -1.700495183467864990e-02 1.128845214843750000e+01 3.381434202194213867e+00 3.456703424453735352e-01
1.177000000000000000e+03 7.893092346191406250e+01 1.972100830078125000e+01 7.678581401705741882e-03 8.729444503784179688e+00 2.621136903762817383e+00 3.160369396209716797e-01
1.178000000000000000e+03 7.964431762695312500e+01 2.127813148498535156e+01 4.950229544192552567e-03 9.174014091491699219e+00 2.753689289093017578e+00 1.471255272626876831e-01
1.179000000000000000e+03 7.894488525390625000e+01 1.411497783660888672e+01 -4.480094183236360550e-03 7.484598159790039062e+00 2.244035482406616211e+00 3.027201294898986816e-01
1.180000000000000000e+03 7.964786529541015625e+01 1.486410236358642578e+01 1.723465742543339729e-03 7.507376194000244141e+00 2.252729892730712891e+00 1.251967996358871460e-01
1.181000000000000000e+03 7.894294738769531250e+01 2.773041915893554688e+01 -5.719886627048254013e-03 1.086588764190673828e+01 3.258050441741943359e+00 3.818840384483337402e-01
1.182000000000000000e+03 7.964915466308593750e+01 2.848927497863769531e+01 -4.948579589836299419e-04 1.154739570617675781e+01 3.464070320129394531e+00 1.611340045928955078e-01
1.183000000000000000e+03 7.965016937255859375e+01 3.008320617675781250e+01 -1.012515742331743240e-03 1.203264713287353516e+01 3.609490394592285156e+00 1.406394988298416138e-01
1.184000000000000000e+03 7.894011688232421875e+01 3.087928199768066406e+01 -2.567762136459350586e-02 1.164548778533935547e+01 3.485943078994750977e+00 2.839818298816680908e-01
1.185000000000000000e+03 7.894447326660156250e+01 2.852290344238281250e+01 -1.442005205899477005e-02 1.108341789245605469e+01 3.320699453353881836e+00 3.651594519615173340e-01
1.186000000000000000e+03 7.894171142578125000e+01 2.693251419067382812e+01 -2.988031366840004921e-03 1.064135551452636719e+01 3.191510200500488281e+00 3.879902064800262451e-01
1.187000000000000000e+03 7.749990844726562500e+01 2.215416908264160156e+01 4.482195526361465454e-02 9.064840316772460938e+00 2.732898712158203125e+00 6.438535451889038086e-01
1.188000000000000000e+03 7.893339538574218750e+01 2.292737770080566406e+01 1.058933697640895844e-02 9.520508766174316406e+00 2.859329462051391602e+00 3.625067472457885742e-01
1.189000000000000000e+03 7.893546295166015625e+01 2.372978782653808594e+01 1.124326512217521667e-02 9.736071586608886719e+00 2.924194574356079102e+00 3.726394474506378174e-01
1.190000000000000000e+03 7.964508056640625000e+01 2.368395233154296875e+01 1.396822277456521988e-03 9.912840843200683594e+00 2.974271297454833984e+00 1.629862636327743530e-01
1.191000000000000000e+03 7.893206787109375000e+01 2.212477874755859375e+01 1.306376978754997253e-02 9.312167167663574219e+00 2.797569274902343750e+00 3.491209745407104492e-01
1.192000000000000000e+03 7.749371337890625000e+01 2.055264854431152344e+01 3.962422162294387817e-02 8.813385963439941406e+00 2.655902862548828125e+00 6.066601276397705078e-01
1.193000000000000000e+03 7.893125915527343750e+01 2.052389335632324219e+01 1.217482518404722214e-02 8.917996406555175781e+00 2.679051399230957031e+00 3.259429633617401123e-01
1.194000000000000000e+03 7.821897125244140625e+01 1.813705062866210938e+01 1.645381562411785126e-02 8.412069320678710938e+00 2.528557062149047852e+00 4.442586302757263184e-01
1.195000000000000000e+03 7.893674468994140625e+01 1.650968360900878906e+01 1.224933541379868984e-03 8.016209602355957031e+00 2.405230283737182617e+00 2.900040149688720703e-01
1.196000000000000000e+03 7.893447875976562500e+01 1.731316566467285156e+01 7.331764791160821915e-03 8.190867424011230469e+00 2.459459781646728516e+00 2.936325371265411377e-01
1.197000000000000000e+03 7.964497375488281250e+01 1.726855087280273438e+01 -6.037150160409510136e-04 8.108540534973144531e+00 2.432380914688110352e+00 1.277660429477691650e-01
1.198000000000000000e+03 7.894319152832031250e+01 1.491123294830322266e+01 -4.715031944215297699e-03 7.665244102478027344e+00 2.298158645629882812e+00 2.939886450767517090e-01
1.199000000000000000e+03 7.824499511718750000e+01 1.334488487243652344e+01 -2.336513809859752655e-02 7.519978523254394531e+00 2.248984098434448242e+00 4.694424867630004883e-01
1.200000000000000000e+03 7.894571685791015625e+01 1.331613636016845703e+01 -1.084040291607379913e-02 7.296255111694335938e+00 2.185624361038208008e+00 3.153771758079528809e-01
1.201000000000000000e+03 7.755881500244140625e+01 1.175367927551269531e+01 -6.046685948967933655e-02 7.490123748779296875e+00 2.228897094726562500e+00 6.531889438629150391e-01
1.202000000000000000e+03 7.894720458984375000e+01 1.091565036773681641e+01 -9.645280428230762482e-03 6.665572166442871094e+00 1.996778130531311035e+00 3.692533373832702637e-01
1.203000000000000000e+03 7.894473266601562500e+01 9.317716598510742188e+00 -1.786178559996187687e-03 6.193679809570312500e+00 1.857568025588989258e+00 3.941917419433593750e-01
1.204000000000000000e+03 7.850830078125000000e+01 3.584345626831054688e+01 -2.821580506861209869e-02 1.179423904418945312e+01 3.529807090759277344e+00 5.210994556546211243e-02
1.205000000000000000e+03 7.894219970703125000e+01 7.717511653900146484e+00 1.156017743051052094e-02 5.708009719848632812e+00 1.715870976448059082e+00 3.892279267311096191e-01
1.206000000000000000e+03 7.964746093750000000e+01 7.653415203094482422e+00 3.450682386755943298e-03 5.147638320922851562e+00 1.545326709747314453e+00 1.492553055286407471e-01
1.207000000000000000e+03 7.957362365722656250e+01 -3.486553955078125000e+01 3.566525643691420555e-03 6.754912853240966797e+00 2.027543783187866211e+00 -9.529418498277664185e-02
1.208000000000000000e+03 7.891580200195312500e+01 -2.830389213562011719e+01 8.407270908355712891e-02 5.788274765014648438e+00 1.761704325675964355e+00 6.383690983057022095e-03
1.209000000000000000e+03 7.964252471923828125e+01 -2.761327934265136719e+01 1.678838580846786499e-02 5.360771656036376953e+00 1.613268017768859863e+00 3.633173182606697083e-02
1.210000000000000000e+03 7.826255798339843750e+01 -2.261439895629882812e+01 -4.984489455819129944e-02 7.235719203948974609e+00 2.155762195587158203e+00 6.760178208351135254e-01
1.211000000000000000e+03 7.965990447998046875e+01 -2.120719718933105469e+01 -7.845435291528701782e-03 7.827981472015380859e+00 2.346040964126586914e+00 1.347546726465225220e-01
1.212000000000000000e+03 7.893620300292968750e+01 -1.556254959106445312e+01 -3.095085360109806061e-02 7.832285881042480469e+00 2.340400457382202148e+00 -2.144136130809783936e-01
1.213000000000000000e+03 7.964576721191406250e+01 -1.400487422943115234e+01 -8.362485095858573914e-03 7.744717597961425781e+00 2.320906639099121094e+00 -1.034725382924079895e-01
1.214000000000000000e+03 7.824202728271484375e+01 -8.326183319091796875e+00 7.656929083168506622e-03 6.235483169555664062e+00 1.872942090034484863e+00 -4.818148016929626465e-01
1.215000000000000000e+03 7.964765167236328125e+01 -6.786115646362304688e+00 2.732540480792522430e-03 5.413921356201171875e+00 1.624996185302734375e+00 -1.156002506613731384e-01
1.216000000000000000e+03 7.895452117919921875e+01 -2.991736829280853271e-01 4.200284555554389954e-02 4.501177787780761719e+00 1.362954139709472656e+00 -9.084460884332656860e-02
1.217000000000000000e+03 7.965081024169921875e+01 4.359586834907531738e-01 9.348075836896896362e-03 3.723826646804809570e+00 1.119952440261840820e+00 -1.187619194388389587e-02
1.218000000000000000e+03 7.964904785156250000e+01 4.041224288940429688e+01 3.710166737437248230e-02 1.302703666687011719e+01 3.919241428375244141e+00 2.612425573170185089e-02
1.219000000000000000e+03 7.854412841796875000e+01 3.678390121459960938e+01 -1.677627209573984146e-03 1.184776020050048828e+01 3.553824901580810547e+00 4.386155307292938232e-02
1.220000000000000000e+03 7.760234069824218750e+01 3.736666488647460938e+01 -2.499504573643207550e-02 1.111206817626953125e+01 3.326122045516967773e+00 2.183127216994762421e-02
1.221000000000000000e+03 7.747969055175781250e+01 3.157411766052246094e+01 -1.311383843421936035e-01 1.060657024383544922e+01 3.142629623413085938e+00 4.737802743911743164e-01
1.222000000000000000e+03 7.964806365966796875e+01 9.256146430969238281e+00 -2.101343852700665593e-04 5.746862411499023438e+00 1.723995685577392578e+00 1.541242301464080811e-01
1.223000000000000000e+03 7.894312286376953125e+01 8.517347335815429688e+00 4.108223598450422287e-03 5.950115680694580078e+00 1.786267161369323730e+00 3.950276672840118408e-01
1.224000000000000000e+03 7.823596954345703125e+01 6.170807361602783203e+00 6.139051914215087891e-02 5.875421047210693359e+00 1.781043529510498047e+00 5.187367796897888184e-01
1.225000000000000000e+03 7.894096374511718750e+01 6.118122577667236328e+00 2.611838839948177338e-02 5.251954555511474609e+00 1.583421945571899414e+00 3.438040316104888916e-01
1.226000000000000000e+03 7.823944854736328125e+01 4.561329841613769531e+00 9.179314225912094116e-02 5.553720474243164062e+00 1.693654060363769531e+00 3.992233574390411377e-01
1.227000000000000000e+03 7.894987487792968750e+01 2.103271245956420898e+00 4.689654335379600525e-02 4.516892910003662109e+00 1.369136810302734375e+00 8.975935727357864380e-02
1.228000000000000000e+03 7.964875030517578125e+01 2.841647386550903320e+00 9.844510816037654877e-03 3.823072195053100586e+00 1.149875044822692871e+00 5.631424486637115479e-02
1.229000000000000000e+03 7.895265960693359375e+01 1.300795316696166992e+00 4.666909947991371155e-02 4.471950531005859375e+00 1.355585813522338867e+00 2.887628786265850067e-02
1.230000000000000000e+03 7.826126861572265625e+01 -1.046567320823669434e+00 9.008711576461791992e-02 5.197019577026367188e+00 1.586132049560546875e+00 -1.962061226367950439e-01
1.231000000000000000e+03 7.895230865478515625e+01 -1.101324796676635742e+00 3.888078033924102783e-02 4.571301937103271484e+00 1.383054733276367188e+00 -1.455671638250350952e-01
1.232000000000000000e+03 7.752935028076171875e+01 -2.617497205734252930e+00 1.172119155526161194e-01 5.873928070068359375e+00 1.797341942787170410e+00 -3.743944466114044189e-01
1.233000000000000000e+03 7.893604278564453125e+01 -5.128463268280029297e+00 9.324952028691768646e-03 5.296806812286376953e+00 1.591839551925659180e+00 -2.955896854400634766e-01
1.234000000000000000e+03 7.964664459228515625e+01 -4.378465175628662109e+00 2.095257397741079330e-03 4.671137332916259766e+00 1.401969790458679199e+00 -1.025231778621673584e-01
1.235000000000000000e+03 7.893822479248046875e+01 -5.934681415557861328e+00 8.724766783416271210e-03 5.484132289886474609e+00 1.647857069969177246e+00 -3.082228004932403564e-01
1.236000000000000000e+03 7.894135284423828125e+01 -6.739171028137207031e+00 4.989247769117355347e-03 5.678761959075927734e+00 1.705125451087951660e+00 -3.157940506935119629e-01
1.237000000000000000e+03 7.894392395019531250e+01 -7.539306163787841797e+00 5.491170100867748260e-03 5.877877235412597656e+00 1.765010595321655273e+00 -3.221440315246582031e-01
1.238000000000000000e+03 7.894470977783203125e+01 -1.074844837188720703e+01 1.204879255965352058e-03 6.710581302642822266e+00 2.013535976409912109e+00 -3.291357755661010742e-01
1.239000000000000000e+03 7.894106292724609375e+01 -1.235029029846191406e+01 -4.133332986384630203e-03 7.124143600463867188e+00 2.136003017425537109e+00 -3.187953531742095947e-01
1.240000000000000000e+03 7.894341278076171875e+01 -1.154791545867919922e+01 -6.404031533747911453e-03 6.918704032897949219e+00 2.073689937591552734e+00 -3.240539431571960449e-01
1.241000000000000000e+03 7.964787292480468750e+01 -1.159715080261230469e+01 2.373605500906705856e-03 7.000438690185546875e+00 2.100843667984008789e+00 -1.196151524782180786e-01
1.242000000000000000e+03 7.893884277343750000e+01 -1.315551376342773438e+01 -1.575344242155551910e-02 7.323365688323974609e+00 2.192283630371093750e+00 -3.042210042476654053e-01
1.243000000000000000e+03 7.893633270263671875e+01 -1.475858879089355469e+01 -3.140795975923538208e-02 7.682393550872802734e+00 2.295295715332031250e+00 -2.543877065181732178e-01
1.244000000000000000e+03 7.824757385253906250e+01 -1.714496994018554688e+01 -1.397779881954193115e-01 7.761180400848388672e+00 2.286420822143554688e+00 -1.482962667942047119e-01
1.245000000000000000e+03 7.894726562500000000e+01 -1.716482353210449219e+01 -5.046375840902328491e-02 8.040086746215820312e+00 2.396886825561523438e+00 -9.248731285333633423e-02
1.246000000000000000e+03 7.897116088867187500e+01 -1.875256538391113281e+01 -6.298332661390304565e-02 8.073100090026855469e+00 2.403035163879394531e+00 7.379411906003952026e-02
1.247000000000000000e+03 7.965614318847656250e+01 -1.881006050109863281e+01 -2.052061818540096283e-02 8.401152610778808594e+00 2.514189481735229492e+00 3.111123666167259216e-02
1.248000000000000000e+03 7.899097442626953125e+01 -2.033276748657226562e+01 -6.351934373378753662e-02 7.877565860748291016e+00 2.344213962554931641e+00 2.620260715484619141e-01
1.249000000000000000e+03 7.898586273193359375e+01 -2.112343025207519531e+01 -6.346872448921203613e-02 7.688743114471435547e+00 2.287582397460937500e+00 3.484061658382415771e-01
1.250000000000000000e+03 7.896999359130859375e+01 -2.191532516479492188e+01 -3.590906411409378052e-02 7.445363998413085938e+00 2.222836494445800781e+00 4.227663874626159668e-01
1.251000000000000000e+03 7.754406738281250000e+01 -2.415014266967773438e+01 7.737938314676284790e-02 6.990681171417236328e+00 2.120418071746826172e+00 8.362993001937866211e-01
1.252000000000000000e+03 7.893473052978515625e+01 -2.671215820312500000e+01 8.266401290893554688e-02 5.939943790435791016e+00 1.806782364845275879e+00 2.264918386936187744e-01
1.253000000000000000e+03 7.824612426757812500e+01 -2.341995429992675781e+01 -7.422363851219415665e-03 7.029129505157470703e+00 2.106512069702148438e+00 6.935259699821472168e-01
1.254000000000000000e+03 7.894682312011718750e+01 -2.511073875427246094e+01 5.005953460931777954e-02 6.340740680694580078e+00 1.917240142822265625e+00 4.125573039054870605e-01
1.255000000000000000e+03 7.894361877441406250e+01 -2.591120147705078125e+01 7.615104317665100098e-02 6.108853340148925781e+00 1.855501294136047363e+00 3.281453549861907959e-01
1.256000000000000000e+03 7.816791534423828125e+01 -2.898415565490722656e+01 1.870701313018798828e-01 6.150331020355224609e+00 1.901220321655273438e+00 -9.997562319040298462e-02
1.257000000000000000e+03 7.890688323974609375e+01 -2.909623527526855469e+01 7.815795391798019409e-02 5.804152965545654297e+00 1.764693260192871094e+00 -9.552588313817977905e-02
1.258000000000000000e+03 7.218058013916015625e+01 -3.135435676574707031e+01 2.715958058834075928e-01 7.349305152893066406e+00 2.286270380020141602e+00 8.506417870521545410e-01
1.259000000000000000e+03 7.883314514160156250e+01 -3.314328002929687500e+01 -1.447392906993627548e-02 6.408323287963867188e+00 1.918154716491699219e+00 -2.799061536788940430e-01
1.260000000000000000e+03 7.961321258544921875e+01 -3.242569351196289062e+01 -3.766993992030620575e-03 6.138988018035888672e+00 1.840566277503967285e+00 -1.121217384934425354e-01
1.261000000000000000e+03 7.879504394531250000e+01 -3.397224426269531250e+01 -2.071142010390758514e-02 6.547015666961669922e+00 1.957891345024108887e+00 -2.716220021247863770e-01
1.262000000000000000e+03 7.866610717773437500e+01 -3.567424774169921875e+01 -2.957851998507976532e-02 6.760931015014648438e+00 2.019405841827392578e+00 -2.037644386291503906e-01
1.263000000000000000e+03 7.877125549316406250e+01 -3.878497695922851562e+01 -1.578564383089542389e-02 7.002341747283935547e+00 2.095966815948486328e+00 -7.242246717214584351e-02
1.264000000000000000e+03 7.871681976318359375e+01 -3.735332489013671875e+01 -2.006633952260017395e-02 6.939006328582763672e+00 2.075681924819946289e+00 -1.252556592226028442e-01
1.265000000000000000e+03 7.796057128906250000e+01 -3.977090835571289062e+01 -1.591620035469532013e-02 6.799824714660644531e+00 2.035172462463378906e+00 -5.218150839209556580e-02
1.266000000000000000e+03 7.872341918945312500e+01 -3.951244354248046875e+01 -7.900631986558437347e-03 6.997769832611083984e+00 2.096960783004760742e+00 -6.470559537410736084e-02
1.267000000000000000e+03 7.958274078369140625e+01 -3.963478088378906250e+01 1.301286183297634125e-02 7.335196495056152344e+00 2.204462766647338867e+00 -3.003417700529098511e-02
1.268000000000000000e+03 7.869157409667968750e+01 -4.024464035034179688e+01 -1.620893552899360657e-02 6.978280544281005859e+00 2.088621616363525391e+00 -5.783157795667648315e-02
1.269000000000000000e+03 7.857969665527343750e+01 -4.198347473144531250e+01 -7.109570316970348358e-03 7.097733497619628906e+00 2.127187013626098633e+00 -1.637969724833965302e-02
1.270000000000000000e+03 4.040389358997344971e-01 3.481474685668945312e+01 -6.144226063042879105e-03 -2.007450342178344727e+00 -6.040783524513244629e-01 -6.357941776514053345e-03
1.271000000000000000e+03 3.957272171974182129e-01 3.401615524291992188e+01 4.666755441576242447e-03 -2.021231174468994141e+00 -6.049693226814270020e-01 -8.964880369603633881e-03
1.272000000000000000e+03 3.919311463832855225e-01 2.839628791809082031e+01 -1.888260612759040669e-06 -2.109091281890869141e+00 -6.327279210090637207e-01 -4.951599519699811935e-03
1.273000000000000000e+03 3.874655663967132568e-01 2.758696365356445312e+01 9.068583021871745586e-04 -2.115469694137573242e+00 -6.343688368797302246e-01 -4.117500036954879761e-03
1.274000000000000000e+03 4.007504284381866455e-01 -3.801452255249023438e+01 5.605755359283648431e-05 9.846553439274430275e-05 4.635692675947211683e-05 -1.145649002864956856e-04
1.275000000000000000e+03 1.103850483894348145e+00 -3.713676071166992188e+01 -4.275136961950920522e-05 -1.936368498718366027e-04 -7.091646693879738450e-05 -3.660600632429122925e-04
1.276000000000000000e+03 3.629220724105834961e-01 2.114334487915039062e+01 6.136855226941406727e-04 -2.037873506546020508e+00 -6.111779212951660156e-01 1.135578192770481110e-02
1.277000000000000000e+03 1.094607949256896973e+00 2.184206008911132812e+01 5.632280837744474411e-03 -1.921520829200744629e+00 -5.747665762901306152e-01 3.083726391196250916e-02
1.278000000000000000e+03 1.124354600906372070e+00 2.506875419616699219e+01 3.876024391502141953e-03 -1.972778677940368652e+00 -5.906708240509033203e-01 5.333736073225736618e-03
1.279000000000000000e+03 1.145303368568420410e+00 2.668872261047363281e+01 3.751712851226329803e-03 -1.973892450332641602e+00 -5.910422205924987793e-01 -2.725771395489573479e-03
1.280000000000000000e+03 1.133658409118652344e+00 2.587717247009277344e+01 2.533510560169816017e-03 -1.974801063537597656e+00 -5.916802883148193359e-01 1.624246244318783283e-03
1.281000000000000000e+03 3.774158656597137451e-01 2.597197723388671875e+01 5.528331967070698738e-04 -2.119470119476318359e+00 -6.356751322746276855e-01 -1.249350258149206638e-03
1.282000000000000000e+03 1.159656405448913574e+00 2.750658607482910156e+01 2.567095449194312096e-03 -1.969816088676452637e+00 -5.901746749877929688e-01 -6.089248228818178177e-03
1.283000000000000000e+03 1.173501372337341309e+00 2.996716880798339844e+01 3.684262745082378387e-03 -1.949988365173339844e+00 -5.838912129402160645e-01 -1.873162202537059784e-02
1.284000000000000000e+03 2.675994157791137695e+00 3.083498573303222656e+01 5.786043126136064529e-03 -1.678091526031494141e+00 -5.016916394233703613e-01 -3.526628389954566956e-02
1.285000000000000000e+03 1.129488587379455566e+00 3.312592697143554688e+01 2.373496536165475845e-03 -1.905911803245544434e+00 -5.710614919662475586e-01 -2.046001143753528595e-02
1.286000000000000000e+03 3.736376762390136719e-01 3.241212463378906250e+01 3.048425307497382164e-03 -2.049647808074951172e+00 -6.139798164367675781e-01 -7.896798662841320038e-03
1.287000000000000000e+03 1.189553141593933105e+00 3.392174148559570312e+01 -2.876416081562638283e-03 -1.886666655540466309e+00 -5.668629407882690430e-01 -1.751690916717052460e-02
1.288000000000000000e+03 1.205071687698364258e+00 3.552353668212890625e+01 -4.442441742867231369e-03 -1.870286464691162109e+00 -5.624186992645263672e-01 -1.639578677713871002e-02
1.289000000000000000e+03 3.142594814300537109e+00 3.957091903686523438e+01 6.770802196115255356e-03 -1.519600033760070801e+00 -4.538487493991851807e-01 1.090537197887897491e-02
1.290000000000000000e+03 1.228181362152099609e+00 3.780653381347656250e+01 9.620018303394317627e-03 -1.844656825065612793e+00 -5.505110621452331543e-01 -7.480269763618707657e-03
1.291000000000000000e+03 1.384538292884826660e+00 3.927252197265625000e+01 4.920946666970849037e-04 -1.809310317039489746e+00 -5.426454544067382812e-01 -1.691087707877159119e-02
1.292000000000000000e+03 4.704421758651733398e-01 3.955501937866210938e+01 -9.234952740371227264e-03 -1.952150225639343262e+00 -5.884155631065368652e-01 1.310179359279572964e-03
1.293000000000000000e+03 1.901622295379638672e+00 4.062466430664062500e+01 6.681653670966625214e-03 -1.744440913200378418e+00 -5.213277935981750488e-01 -1.645170897245407104e-02
1.294000000000000000e+03 1.685332655906677246e+00 4.176673126220703125e+01 -1.074635330587625504e-02 -1.766175866127014160e+00 -5.330766439437866211e-01 -1.908285915851593018e-02
1.295000000000000000e+03 1.093307852745056152e+00 -3.639260482788085938e+01 4.421443122737400699e-08 1.116944113164208829e-04 3.352158819325268269e-05 -4.279002605471760035e-04
1.296000000000000000e+03 1.802942514419555664e+00 -8.216067314147949219e+00 1.288653220399282873e-05 3.462933364062337205e-06 4.904839897790225223e-06 3.849830591207137331e-06
1.297000000000000000e+03 3.605093359947204590e-01 1.953503227233886719e+01 5.310552660375833511e-04 -1.964728355407714844e+00 -5.892591476440429688e-01 1.734937727451324463e-02
1.298000000000000000e+03 3.568471968173980713e-01 1.471155071258544922e+01 4.475465975701808929e-04 -1.566316008567810059e+00 -4.697605669498443604e-01 3.807868435978889465e-02
1.299000000000000000e+03 3.564577400684356689e-01 1.390770626068115234e+01 2.907454269006848335e-03 -1.472117304801940918e+00 -4.407629370689392090e-01 4.130763933062553406e-02
1.300000000000000000e+03 1.065034508705139160e+00 7.384251594543457031e+00 -6.606698036193847656e-03 -5.266464948654174805e-01 -1.599759608507156372e-01 1.588577330112457275e-01
1.301000000000000000e+03 3.545286357402801514e-01 7.479801177978515625e+00 6.638749619014561176e-04 -5.080816149711608887e-01 -1.522253155708312988e-01 5.404018983244895935e-02
1.302000000000000000e+03 1.051783204078674316e+00 -1.551869106292724609e+01 4.479532071854919195e-05 6.929960818524705246e-06 1.551758396090008318e-05 9.421979484613984823e-06
1.303000000000000000e+03 1.056201577186584473e+00 -2.194459152221679688e+01 7.968188583618029952e-05 5.219933518674224615e-05 3.956436921725980937e-05 1.861914461187552661e-05
1.304000000000000000e+03 1.121329307556152344e+00 -2.920731163024902344e+01 -8.438185614068061113e-05 6.735690985806286335e-04 1.767561770975589752e-04 2.498132525943219662e-04
1.305000000000000000e+03 1.591446399688720703e+00 -3.925453948974609375e+01 2.377924975007772446e-04 -2.110474277287721634e-03 -5.618045688606798649e-04 -7.214474608190357685e-04
1.306000000000000000e+03 2.076178073883056641e+00 -3.820079421997070312e+01 4.273962113074958324e-04 -2.048547379672527313e-03 -4.863453505095094442e-04 -8.727182284928858280e-04
1.307000000000000000e+03 1.338869571685791016e+00 -3.855483627319335938e+01 1.912522857310250401e-04 -7.988927536644041538e-04 -1.822921331040561199e-04 -1.809743262128904462e-04
1.308000000000000000e+03 1.117021083831787109e+00 -3.562803649902343750e+01 -1.196226439788006246e-04 2.623366890475153923e-04 4.281421570340171456e-05 -3.445194161031395197e-04
1.309000000000000000e+03 1.906428098678588867e+00 -3.084789657592773438e+01 1.114016686187824234e-05 5.285373190417885780e-04 1.619032409507781267e-04 1.276851107832044363e-04
1.310000000000000000e+03 1.164191365242004395e+00 -3.244396591186523438e+01 -1.381651527481153607e-04 8.152874652296304703e-04 2.031366893788799644e-04 -1.801896019060222898e-06
1.311000000000000000e+03 3.818046748638153076e-01 -3.083842658996582031e+01 -2.319689338037278503e-05 1.419706153683364391e-03 4.189527535345405340e-04 5.221918763709254563e-05
1.312000000000000000e+03 1.154861450195312500e+00 -3.163970565795898438e+01 -6.690930604236200452e-06 9.655567700974643230e-04 2.876597573049366474e-04 5.730824705096893013e-05
1.313000000000000000e+03 1.144910216331481934e+00 -3.083537101745605469e+01 -1.117773717851378024e-04 8.295145235024392605e-04 2.153211535187438130e-04 1.687677722657099366e-04
1.314000000000000000e+03 1.112661600112915039e+00 -2.839603805541992188e+01 7.513083983212709427e-05 6.624131929129362106e-04 2.212632098235189915e-04 2.114780363626778126e-04
1.315000000000000000e+03 1.100548148155212402e+00 -2.677780532836914062e+01 1.150462048826739192e-04 4.163070407230407000e-04 1.594059722265228629e-04 1.574548805365338922e-04
1.316000000000000000e+03 3.131903409957885742e+00 -2.277992630004882812e+01 3.499353260849602520e-05 2.166188496630638838e-04 7.548371650045737624e-05 7.536672637797892094e-05
1.317000000000000000e+03 1.073276400566101074e+00 -2.516654014587402344e+01 1.333623949903994799e-04 1.921163348015397787e-04 9.764362039277330041e-05 1.069000936695374548e-04
1.318000000000000000e+03 2.394732475280761719e+00 -2.350849533081054688e+01 8.473936759401112795e-05 1.550797605887055397e-04 7.194573845481500030e-05 1.929106801981106400e-04
1.319000000000000000e+03 3.500890433788299561e-01 -2.358889579772949219e+01 -9.937756840372458100e-05 6.914491677889600396e-05 -9.069794941751752049e-06 1.650022750254720449e-05
1.320000000000000000e+03 1.055110573768615723e+00 -2.435993003845214844e+01 -7.186202128650620580e-05 1.118205327657051384e-04 1.198755489895120263e-05 9.173955186270177364e-05
1.321000000000000000e+03 1.046221852302551270e+00 -2.355341529846191406e+01 1.039867565850727260e-04 1.008065810310654342e-04 6.143799691926687956e-05 7.475144957425072789e-05
1.322000000000000000e+03 1.061838269233703613e+00 -2.114121246337890625e+01 -6.231806037249043584e-05 -1.970562516362406313e-05 -2.460710493323858827e-05 2.868344745365902781e-05
1.323000000000000000e+03 1.049951910972595215e+00 -1.872940444946289062e+01 7.202559936558827758e-05 -3.676278538478072733e-06 2.050479633908253163e-05 1.601279564056312665e-06
1.324000000000000000e+03 1.056105375289916992e+00 -1.953166389465332031e+01 -7.209128671092912555e-05 -1.070657435775501654e-05 -2.483935895725153387e-05 6.360475254041375592e-06
1.325000000000000000e+03 3.495048284530639648e-01 -1.715887260437011719e+01 -9.700730151962488890e-05 -1.489617807237664238e-05 -3.357104651513509452e-05 -1.058413818100234494e-05
1.326000000000000000e+03 1.048477768898010254e+00 -1.632256317138671875e+01 -5.085513839730992913e-05 -1.768975380400661379e-05 -2.056346784229390323e-05 -1.660916313994675875e-05
1.327000000000000000e+03 1.054124951362609863e+00 -1.471627521514892578e+01 -4.096412158105522394e-05 -1.354081086901715025e-05 -1.635147964407224208e-05 -1.041732230078196153e-05
1.328000000000000000e+03 1.059287190437316895e+00 -1.149514293670654297e+01 -2.959008816105779260e-05 -5.464316927827894688e-06 -1.051632170856464654e-05 -5.166825303604127839e-06
1.329000000000000000e+03 1.057870626449584961e+00 -1.230175209045410156e+01 3.155612284899689257e-05 3.683798695419682190e-06 1.057197641785023734e-05 4.187190370430471376e-06
1.330000000000000000e+03 3.548443317413330078e-01 -9.920380592346191406e+00 3.618481423472985625e-05 5.400290774559834972e-07 1.101745237974682823e-05 3.119109351246152073e-06
1.331000000000000000e+03 1.070609569549560547e+00 -9.071123123168945312e+00 2.319410850759595633e-05 2.164307488783379085e-06 7.607524821651168168e-06 3.814467845586477779e-06
1.332000000000000000e+03 1.076957225799560547e+00 -8.261755943298339844e+00 -2.130515713361091912e-05 -2.719072199397487566e-06 -7.207268936326727271e-06 -4.137352334510069340e-06
1.333000000000000000e+03 3.549535274505615234e+00 -2.609074354171752930e+00 -6.823075864303973503e-07 -3.665137683128705248e-06 -1.304233592236414552e-06 -4.696013547800248489e-06
1.334000000000000000e+03 2.752734899520874023e+00 -2.626087665557861328e+00 2.388344000792130828e-06 2.866565182557678781e-06 1.576472755004942883e-06 4.852964138990500942e-06
1.335000000000000000e+03 2.802723646163940430e+00 -1.873888254165649414e+00 -1.866994352894835174e-06 -3.283463456682511605e-06 -1.545137365610571578e-06 -4.293140136724105105e-06
1.336000000000000000e+03 2.672514677047729492e+00 -4.159643650054931641e+00 3.334389248266234063e-06 2.489401367711252533e-06 1.747137162055878434e-06 5.433426395029528067e-06
1.337000000000000000e+03 3.811666369438171387e-01 -3.488585472106933594e+00 1.117286683438578621e-05 4.968575808561581653e-07 3.500917273413506337e-06 1.983489482881850563e-06
1.338000000000000000e+03 1.196597933769226074e+00 -1.886242628097534180e+00 -4.125995928916381672e-06 -1.278356307921058033e-06 -1.621305727894650772e-06 -2.832914560713106766e-06
1.339000000000000000e+03 3.548445999622344971e-01 5.074294567108154297e+00 -4.173505119979381561e-03 -1.739548742771148682e-01 -5.343851447105407715e-02 4.001112654805183411e-02
1.340000000000000000e+03 3.344736337661743164e+00 3.290381669998168945e+00 -1.576794385910034180e-01 -1.776593178510665894e-01 -1.006016284227371216e-01 2.383767962455749512e-01
1.341000000000000000e+03 1.060527682304382324e+00 1.058948326110839844e+01 2.823615912348031998e-03 -9.764549136161804199e-01 -2.920894026756286621e-01 1.578556895256042480e-01
1.342000000000000000e+03 1.060795783996582031e+00 9.786091804504394531e+00 4.715639632195234299e-03 -8.644772768020629883e-01 -2.579284906387329102e-01 1.619542092084884644e-01
1.343000000000000000e+03 1.064563155174255371e+00 1.219638538360595703e+01 5.161335691809654236e-03 -1.188176035881042480e+00 -3.549044132232666016e-01 1.433758884668350220e-01
1.344000000000000000e+03 3.552682995796203613e-01 1.230029773712158203e+01 3.081694478169083595e-03 -1.261023759841918945e+00 -3.773826062679290771e-01 4.792034626007080078e-02
1.345000000000000000e+03 1.068735241889953613e+00 1.380235576629638672e+01 6.334950216114521027e-03 -1.377288699150085449e+00 -4.112861454486846924e-01 1.251875013113021851e-01
1.346000000000000000e+03 2.516058444976806641e+00 1.600722885131835938e+01 3.719161823391914368e-02 -1.408870100975036621e+00 -4.115035533905029297e-01 2.099195867776870728e-01
1.347000000000000000e+03 1.075544834136962891e+00 1.701718521118164062e+01 6.822725757956504822e-03 -1.675761818885803223e+00 -5.006816983222961426e-01 8.529769629240036011e-02
1.348000000000000000e+03 1.077310562133789062e+00 1.782096290588378906e+01 8.536776527762413025e-03 -1.733010411262512207e+00 -5.173420906066894531e-01 7.521711289882659912e-02
1.349000000000000000e+03 1.079296112060546875e+00 1.862493133544921875e+01 6.547069177031517029e-03 -1.783579230308532715e+00 -5.331096649169921875e-01 6.564354896545410156e-02
1.350000000000000000e+03 1.081736087799072266e+00 1.942886352539062500e+01 7.881158031523227692e-03 -1.827492356300354004e+00 -5.458833575248718262e-01 5.634599179029464722e-02
1.351000000000000000e+03 1.100599527359008789e+00 2.264766120910644531e+01 5.865175276994705200e-03 -1.941363930702209473e+00 -5.806496143341064453e-01 2.387321367859840393e-02
1.352000000000000000e+03 6.823321819305419922e+00 -1.846868395805358887e+00 -1.348836576653411612e-06 6.275671239563962445e-06 1.478050421610532794e-06 1.074409169632417616e-06
1.353000000000000000e+03 1.005407619476318359e+01 -3.552739143371582031e+00 2.987293328260420822e-06 -5.603821591648738831e-06 -7.849584449104440864e-07 2.929532456619199365e-06
1.354000000000000000e+03 6.020203113555908203e+00 -1.850680351257324219e+00 1.062872570400941186e-06 -5.963235253148013726e-06 -1.470108827561489306e-06 -1.930755161083652638e-06
1.355000000000000000e+03 7.502261638641357422e+00 -2.542666196823120117e+00 -2.587674998721922748e-06 4.831792466575279832e-06 6.732352630933746696e-07 -1.623978249654101091e-07
1.356000000000000000e+03 6.723051548004150391e+00 -2.543667316436767578e+00 2.458491053403122351e-06 -4.785020337294554338e-06 -6.979587965361133683e-07 -6.867521733511239290e-07
1.357000000000000000e+03 5.140490531921386719e+00 -2.572271347045898438e+00 1.794699869606120046e-06 -4.612789780367165804e-06 -8.454269959656812716e-07 -2.933299811047618277e-06
1.358000000000000000e+03 1.818255543708801270e+00 -7.405021190643310547e+00 -1.205322951136622578e-05 -3.185937430316698737e-06 -4.571750196191715077e-06 -4.341451131040230393e-06
1.359000000000000000e+03 1.998741626739501953e+00 -1.879479289054870605e+00 3.021841848749318160e-06 2.301346967215067707e-06 1.596956622051948216e-06 3.827132331934990361e-06
1.360000000000000000e+03 1.132871747016906738e+00 -4.241513729095458984e+00 1.054451968229841441e-05 1.286394422095327172e-06 3.549274197212071158e-06 4.063941105414414778e-06
1.361000000000000000e+03 1.148622989654541016e+00 -3.449739933013916016e+00 -8.318919753946829587e-06 -1.301027282352151815e-06 -2.885984258682583459e-06 -3.904604454874061048e-06
1.362000000000000000e+03 1.876552772521972656e+01 -1.281709671020507812e+01 1.301793872698908672e-07 2.073714284733796376e-07 1.012652433018956799e-07 -4.305494258005637676e-06
1.363000000000000000e+03 1.988143157958984375e+01 -1.051572036743164062e+01 7.840114449209067971e-06 -1.318848717346554622e-06 1.956379719558754005e-06 7.394057206511206459e-07
1.364000000000000000e+03 2.042217636108398438e+01 -1.295018005371093750e+01 -3.055447223232476972e-06 -2.973956952700973488e-06 -1.808821252780035138e-06 -2.310623131052125245e-06
1.365000000000000000e+03 2.162824440002441406e+01 -1.338924980163574219e+01 -3.708354597620200366e-06 -3.625922317951335572e-06 -2.200283006459358148e-06 -1.356630718873930164e-06
1.366000000000000000e+03 1.197885704040527344e+01 2.116472721099853516e+00 -1.069432139396667480e+00 -9.343725442886352539e-01 -6.011413931846618652e-01 1.043862581253051758e+00
1.367000000000000000e+03 1.345606231689453125e+01 1.303735017776489258e+00 -1.352699875831604004e+00 -1.065292477607727051e+00 -7.253977060317993164e-01 1.157602667808532715e+00
1.368000000000000000e+03 1.418639373779296875e+01 9.296753406524658203e-01 -1.426377177238464355e+00 -1.154351711273193359e+00 -7.742186784744262695e-01 1.221355557441711426e+00
1.369000000000000000e+03 3.649180412292480469e+00 -4.180874633789062500e+01 4.204170836601406336e-04 -3.379272995516657829e-03 -8.876567590050399303e-04 7.043215446174144745e-04
1.370000000000000000e+03 1.258880615234375000e+01 -1.363326358795166016e+01 1.864732257672585547e-05 1.913905180117581040e-05 1.133591194957261905e-05 -2.417470022919587791e-05
1.371000000000000000e+03 2.090473556518554688e+01 -1.217913436889648438e+01 -6.534992735396372154e-06 -5.292706646287115291e-07 -2.119279088219627738e-06 -4.536017968348460272e-06
1.372000000000000000e+03 1.065055751800537109e+01 -3.728860139846801758e+00 -3.725707301782676950e-06 5.965856416878523305e-06 6.720446208419161849e-07 -2.594201987449196167e-06
1.373000000000000000e+03 1.237214565277099609e+01 -4.468925952911376953e+00 4.220668870402732864e-06 -5.780097581009613350e-06 -4.678285563386452850e-07 1.910169430630048737e-06
1.374000000000000000e+03 1.620171546936035156e+01 -7.971625804901123047e+00 -1.185107248602434993e-05 4.914508735964773223e-06 -2.080968897644197568e-06 -5.740548658650368452e-07
1.375000000000000000e+03 1.745422554016113281e+01 -7.470448493957519531e+00 6.636235411860980093e-06 -3.094478188359062187e-06 1.062527076101105195e-06 4.792253207597241271e-07
1.376000000000000000e+03 1.329700756072998047e+01 -6.553959846496582031e+00 -6.602514986298047006e-06 5.522524133994011208e-06 -3.239972841129201697e-07 -1.191918499898747541e-06
1.377000000000000000e+03 1.380139446258544922e+01 -4.562778949737548828e+00 -3.430691322137136012e-06 4.443294983502710238e-06 3.037811211470398121e-07 -9.506161973149573896e-07
1.378000000000000000e+03 1.696519660949707031e+01 -7.008790493011474609e+00 -6.272343853197526187e-06 3.212862338841659948e-06 -9.178444315693923272e-07 -4.439953329438139917e-07
1.379000000000000000e+03 7.023735046386718750e+01 1.095929336547851562e+01 -6.270285248756408691e-01 9.315524101257324219e+00 2.606548547744750977e+00 -3.666907921433448792e-02
1.380000000000000000e+03 7.096289062500000000e+01 1.245407009124755859e+01 -4.005359709262847900e-01 9.451683044433593750e+00 2.715343952178955078e+00 1.594745516777038574e-01
1.381000000000000000e+03 1.489920520782470703e+01 -5.315014362335205078e+00 -3.991139692516298965e-06 3.737580527740647085e-06 -7.606773522184084868e-08 -6.274287329688377213e-07
1.382000000000000000e+03 1.454512310028076172e+01 -5.846011161804199219e+00 5.483821951202116907e-06 -4.495871962717501447e-06 2.963849681236752076e-07 8.768747647991403937e-07
1.383000000000000000e+03 1.401940822601318359e+01 -5.470980167388916016e+00 -4.886315309704514220e-06 4.682928192778490484e-06 -6.101614502540542162e-08 -1.086390511773061007e-06
1.384000000000000000e+03 1.646946144104003906e+01 -6.564701557159423828e+00 5.610069820249918848e-06 -3.314852392577449791e-06 6.885651941956894007e-07 4.094721077763097128e-07
1.385000000000000000e+03 7.036693572998046875e+01 9.437294960021972656e+00 -2.586069405078887939e-01 1.040642356872558594e+01 3.044344902038574219e+00 -2.366200387477874756e-01
1.386000000000000000e+03 7.109947967529296875e+01 9.415808677673339844e+00 -3.323602974414825439e-01 1.061817741394042969e+01 3.085745096206665039e+00 3.456920981407165527e-01
1.387000000000000000e+03 1.123277950286865234e+01 -3.941294908523559570e+00 3.836511496047023684e-06 -6.032380042597651482e-06 -6.587605980712396558e-07 2.406287194389733486e-06
1.388000000000000000e+03 1.880194664001464844e+01 -8.907841682434082031e+00 -8.795291250862646848e-06 4.840671408601338044e-06 -1.186385816254187375e-06 2.068779991759583936e-07
1.389000000000000000e+03 1.877480506896972656e+01 -1.215514945983886719e+01 -1.586213670634606387e-06 -7.424756859109038487e-06 -2.703291102079674602e-06 1.013131509353115689e-06
1.390000000000000000e+03 1.752743911743164062e+01 -8.380960464477539062e+00 7.966109478729777038e-06 -3.202768539267708547e-06 1.429002168151782826e-06 9.864038474916014820e-07
1.391000000000000000e+03 1.756891632080078125e+01 -9.324831008911132812e+00 8.405367225350346416e-06 -1.000035808829125017e-06 2.221599515905836597e-06 2.293397756147896871e-06
1.392000000000000000e+03 1.704619407653808594e+01 -1.192516326904296875e+01 -7.668305443075951189e-06 -1.766624882293399423e-05 -7.600366188853513449e-06 -5.479073934111511335e-06
1.393000000000000000e+03 3.240010833740234375e+01 -1.655253028869628906e+01 -9.904634356498718262e-01 2.242392450571060181e-01 -2.298672646284103394e-01 1.746804118156433105e-01
1.394000000000000000e+03 3.216669845581054688e+01 -1.723954582214355469e+01 -1.207031726837158203e+00 9.371834248304367065e-02 -3.339940011501312256e-01 2.506130635738372803e-01
1.395000000000000000e+03 2.712879562377929688e+01 -1.206972789764404297e+01 -8.586919307708740234e-01 -1.827347576618194580e-01 -3.124279975891113281e-01 8.719986677169799805e-01
1.396000000000000000e+03 3.073066329956054688e+01 -1.687103843688964844e+01 -1.121188163757324219e+00 1.667687110602855682e-02 -3.313533663749694824e-01 3.764197528362274170e-01
1.397000000000000000e+03 4.538219070434570312e+01 1.322853446006774902e+00 8.703336119651794434e-01 6.185211658477783203e+00 2.116663455963134766e+00 -2.573485612869262695e+00
1.398000000000000000e+03 4.639515304565429688e+01 -7.124831676483154297e-01 5.380815863609313965e-01 5.719021797180175781e+00 1.877130985260009766e+00 -2.183651685714721680e+00
1.399000000000000000e+03 3.136422729492187500e+01 -1.551214408874511719e+01 -8.392018079757690430e-01 2.652047276496887207e-01 -1.721991300582885742e-01 2.723075747489929199e-01
1.400000000000000000e+03 2.766289901733398438e+01 -1.163980865478515625e+01 -9.050875306129455566e-01 3.663396462798118591e-02 -2.605360746383666992e-01 8.027979135513305664e-01
1.401000000000000000e+03 2.610677909851074219e+01 -1.002573585510253906e+01 -1.112173080444335938e+00 -3.634987175464630127e-01 -4.427015483379364014e-01 9.537011384963989258e-01
1.402000000000000000e+03 2.646419143676757812e+01 -1.071509933471679688e+01 -1.024108052253723145e+00 -2.863761484622955322e-01 -3.931452631950378418e-01 9.274397492408752441e-01
1.403000000000000000e+03 2.746095085144042969e+01 -1.273555469512939453e+01 -7.942584753036499023e-01 -1.504784226417541504e-01 -2.834210693836212158e-01 8.309170603752136230e-01
1.404000000000000000e+03 2.680113983154296875e+01 -1.139621257781982422e+01 -9.459723830223083496e-01 -2.319494038820266724e-01 -3.533765375614166260e-01 8.990042805671691895e-01
1.405000000000000000e+03 2.764203071594238281e+01 -1.452708244323730469e+01 -6.595063805580139160e-01 -2.497976124286651611e-01 -2.727912068367004395e-01 7.465696930885314941e-01
1.406000000000000000e+03 2.665531730651855469e+01 -3.236339187622070312e+01 -2.846718728542327881e-01 9.379721246659755707e-03 -8.258764445781707764e-02 -4.850575327873229980e-02
1.407000000000000000e+03 3.166815185546875000e+01 -3.375886535644531250e+01 -4.384762346744537354e-01 4.668345674872398376e-02 -1.175378337502479553e-01 -1.134880408644676208e-01
1.408000000000000000e+03 3.050447463989257812e+01 -3.252051925659179688e+01 -5.121169090270996094e-01 2.775768563151359558e-02 -1.453077644109725952e-01 1.902994234114885330e-03
1.409000000000000000e+03 4.112287902832031250e+01 1.383590221405029297e+01 6.188724040985107422e-01 1.058419036865234375e+01 3.360918998718261719e+00 -1.888590753078460693e-01
1.410000000000000000e+03 5.027698135375976562e+01 -9.351109504699707031e+00 -3.444429859519004822e-02 3.788941860198974609e+00 1.126349329948425293e+00 -5.462883710861206055e-01
1.411000000000000000e+03 3.041506385803222656e+01 -3.327476882934570312e+01 -4.538535177707672119e-01 4.523867741227149963e-02 -1.225844547152519226e-01 -6.814233213663101196e-02
1.412000000000000000e+03 4.632409286499023438e+01 -2.310551166534423828e+00 2.137750238180160522e-01 5.582527637481689453e+00 1.738890767097473145e+00 -1.873188495635986328e+00
1.413000000000000000e+03 3.436857223510742188e+01 -1.749932479858398438e+01 -1.148317098617553711e+00 1.177761405706405640e-01 -3.091622889041900635e-01 -7.740924507379531860e-02
1.414000000000000000e+03 3.310527420043945312e+01 -1.667174339294433594e+01 -9.418400526046752930e-01 2.428927570581436157e-01 -2.096841782331466675e-01 5.521658807992935181e-02
1.415000000000000000e+03 4.607019042968750000e+01 -3.090098127722740173e-02 6.739443540573120117e-01 5.840690135955810547e+00 1.954390406608581543e+00 -2.294605493545532227e+00
1.416000000000000000e+03 4.812231445312500000e+01 -5.005652427673339844e+00 1.604574918746948242e-01 5.103659629821777344e+00 1.579235196113586426e+00 -1.416146159172058105e+00
1.417000000000000000e+03 4.198286819458007812e+01 1.543364906311035156e+01 6.169927716255187988e-01 1.049582195281982422e+01 3.333844423294067383e+00 9.852950572967529297e-01
1.418000000000000000e+03 4.116823577880859375e+01 1.469595050811767578e+01 6.144538521766662598e-01 1.020616531372070312e+01 3.246185779571533203e+00 2.118337601423263550e-01
1.419000000000000000e+03 7.103991699218750000e+01 1.017287731170654297e+01 -5.518934130668640137e-01 1.011197757720947266e+01 2.868025064468383789e+00 2.866971790790557861e-01
1.420000000000000000e+03 7.167774963378906250e+01 1.167716693878173828e+01 -5.788062214851379395e-01 9.696309089660644531e+00 2.735250711441040039e+00 3.808525502681732178e-01
1.421000000000000000e+03 5.009776306152343750e+01 -1.104532337188720703e+01 -7.824868559837341309e-01 3.493842840194702148e+00 8.134067654609680176e-01 1.892422884702682495e-01
1.422000000000000000e+03 4.464210510253906250e+01 2.683220386505126953e+00 9.928147196769714355e-01 6.730551242828369141e+00 2.317009687423706055e+00 -2.835135936737060547e+00
1.423000000000000000e+03 7.033497619628906250e+01 1.408815956115722656e+01 4.131853878498077393e-01 9.582118988037109375e+00 2.998591184616088867e+00 5.260547995567321777e-01
1.424000000000000000e+03 8.716077804565429688e+00 -2.937191009521484375e+01 -1.386405550874769688e-03 -3.975433937739580870e-04 -5.351846921257674694e-04 -7.529342547059059143e-04
1.425000000000000000e+03 2.828504562377929688e+01 -3.240581512451171875e+01 -3.716714382171630859e-01 1.401912141591310501e-02 -1.072956994175910950e-01 -3.090644627809524536e-02
1.426000000000000000e+03 5.036333084106445312e+01 -1.186401081085205078e+01 -1.035693764686584473e+00 3.118772983551025391e+00 6.249237656593322754e-01 5.142971277236938477e-01
1.427000000000000000e+03 4.969514465332031250e+01 3.160435104370117188e+01 2.536406815052032471e-01 1.453706979751586914e+00 5.122042894363403320e-01 7.263581156730651855e-01
1.428000000000000000e+03 4.854389572143554688e+01 -4.096290111541748047e+00 3.584508001804351807e-01 5.105741500854492188e+00 1.639257669448852539e+00 -1.623876929283142090e+00
1.429000000000000000e+03 4.758049011230468750e+01 -3.545639038085937500e+00 2.592758238315582275e-01 5.265430927276611328e+00 1.657411932945251465e+00 -1.670559525489807129e+00
1.430000000000000000e+03 7.131079864501953125e+01 6.259708881378173828e+00 4.631601572036743164e-01 1.210696411132812500e+01 3.771037101745605469e+00 2.231090813875198364e-01
1.431000000000000000e+03 2.832190132141113281e+01 -3.339128494262695312e+01 -3.051277697086334229e-01 2.681145817041397095e-02 -8.349489420652389526e-02 -8.897735178470611572e-02
1.432000000000000000e+03 7.024980163574218750e+01 -2.909757614135742188e+00 7.181051969528198242e-01 1.051548957824707031e+01 3.370078563690185547e+00 1.877117514610290527e+00
1.433000000000000000e+03 6.858085632324218750e+01 3.199010086059570312e+01 -1.107383728027343750e+00 2.404921293258666992e+00 3.892612159252166748e-01 1.317296624183654785e-01
1.434000000000000000e+03 1.731082797050476074e+00 -2.352460670471191406e+01 -2.222266994067467749e-05 -7.247182111314032227e-06 -8.840956070343963802e-06 5.258576129563152790e-05
1.435000000000000000e+03 4.889476394653320312e+01 -7.216747760772705078e+00 -2.962561696767807007e-02 4.741502285003662109e+00 1.413563013076782227e+00 -9.373332262039184570e-01
1.436000000000000000e+03 4.712761306762695312e+01 3.053715705871582031e+01 1.361598819494247437e-01 2.820889711380004883e+00 8.871148824691772461e-01 9.894586205482482910e-01
1.437000000000000000e+03 4.577842330932617188e+01 2.822823715209960938e+01 4.840857684612274170e-01 3.774133205413818359e+00 1.277465701103210449e+00 1.291036248207092285e+00
1.438000000000000000e+03 4.481742858886718750e+01 2.492459869384765625e+01 8.996592164039611816e-01 5.177452564239501953e+00 1.823133587837219238e+00 1.967556357383728027e+00
1.439000000000000000e+03 2.351962661743164062e+01 -3.207378005981445312e+01 -1.681283265352249146e-01 -3.694540821015834808e-03 -5.154686048626899719e-02 -4.451863840222358704e-02
1.440000000000000000e+03 2.258454704284667969e+01 -3.319659423828125000e+01 -1.168651133775711060e-01 -1.094827055931091309e-02 -3.834401443600654602e-02 -6.605868041515350342e-02
1.441000000000000000e+03 6.678917694091796875e+01 -1.047341823577880859e+01 1.386411309242248535e+00 5.007311820983886719e+00 1.918117046356201172e+00 2.074834585189819336e+00
1.442000000000000000e+03 7.824327850341796875e+01 3.757660627365112305e+00 1.010685488581657410e-01 5.422233104705810547e+00 1.656990528106689453e+00 3.223962485790252686e-01
1.443000000000000000e+03 7.133937835693359375e+01 5.456037044525146484e+00 3.136218488216400146e-01 1.244826984405517578e+01 3.828567504882812500e+00 3.093501627445220947e-01
1.444000000000000000e+03 7.045340728759765625e+01 8.665122985839843750e+00 5.317888408899307251e-02 1.143028354644775391e+01 3.445038795471191406e+00 -2.781690657138824463e-01
1.445000000000000000e+03 7.226308441162109375e+01 -2.642594909667968750e+01 7.223181128501892090e-01 1.129492664337158203e+01 3.605173349380493164e+00 6.538567543029785156e-01
1.446000000000000000e+03 7.819894409179687500e+01 -2.740743637084960938e+01 2.101316303014755249e-01 6.206543445587158203e+00 1.925002574920654297e+00 2.047807276248931885e-01
1.447000000000000000e+03 4.100277709960937500e+01 1.820944404602050781e+01 7.143428921699523926e-01 8.274765014648437500e+00 2.696732521057128906e+00 6.376534700393676758e-01
1.448000000000000000e+03 4.152816390991210938e+01 1.722356033325195312e+01 7.518202662467956543e-01 9.114174842834472656e+00 2.959798574447631836e+00 7.942366600036621094e-01
1.449000000000000000e+03 4.914358520507812500e+01 3.114777183532714844e+01 3.379066586494445801e-01 1.788365960121154785e+00 6.378817558288574219e-01 8.557999134063720703e-01
1.450000000000000000e+03 4.799580764770507812e+01 3.226374435424804688e+01 -1.806648671627044678e-01 2.392620801925659180e+00 6.635867953300476074e-01 7.325526475906372070e-01
1.451000000000000000e+03 4.331695175170898438e+01 2.370754241943359375e+01 7.275848388671875000e-01 6.018258571624755859e+00 2.023753166198730469e+00 1.498927235603332520e+00
1.452000000000000000e+03 4.425876998901367188e+01 3.370879888534545898e+00 1.055751085281372070e+00 7.099986076354980469e+00 2.446721076965332031e+00 -2.912188053131103516e+00
1.453000000000000000e+03 4.530865097045898438e+01 2.969244718551635742e+00 1.284004926681518555e+00 6.463697910308837891e+00 2.324310779571533203e+00 -3.038645267486572266e+00
1.454000000000000000e+03 5.192683410644531250e+01 -1.599716854095458984e+01 -3.393360614776611328e+00 1.808758616447448730e+00 -4.753806293010711670e-01 6.243255734443664551e-01
1.455000000000000000e+03 4.192279815673828125e+01 -1.893053627014160156e+01 9.807305335998535156e-01 9.691126823425292969e+00 3.201557397842407227e+00 -2.805388450622558594e+00
1.456000000000000000e+03 5.335425567626953125e+01 -2.937743377685546875e+01 2.143881320953369141e+00 5.239262580871582031e+00 2.214943170547485352e+00 -6.275710463523864746e-01
1.457000000000000000e+03 5.459794998168945312e+01 -3.093731689453125000e+01 1.914981365203857422e+00 5.800936222076416016e+00 2.314775228500366211e+00 -7.814370393753051758e-01
1.458000000000000000e+03 4.967010498046875000e+00 2.555803298950195312e+00 -3.111694753170013428e-01 -1.382811367511749268e-01 -1.348351836204528809e-01 3.152571022510528564e-01
1.459000000000000000e+03 3.948406219482421875e+00 4.722147464752197266e+00 -1.551296412944793701e-01 -3.339461386203765869e-01 -1.467227339744567871e-01 3.933233320713043213e-01
1.460000000000000000e+03 1.783421277999877930e+00 5.703042507171630859e+00 -3.060398437082767487e-02 -3.550931811332702637e-01 -1.157091483473777771e-01 2.139941304922103882e-01
1.461000000000000000e+03 2.655828237533569336e+00 2.583848714828491211e+00 -1.069128066301345825e-01 -1.069862470030784607e-01 -6.416971236467361450e-02 1.303930580615997314e-01
1.462000000000000000e+03 3.425697326660156250e+00 2.566215515136718750e+00 -1.630847156047821045e-01 -1.156333163380622864e-01 -8.361540734767913818e-02 1.837004870176315308e-01
1.463000000000000000e+03 4.848241329193115234e+00 3.262677431106567383e+00 -2.884277701377868652e-01 -2.091674804687500000e-01 -1.492785662412643433e-01 3.829599916934967041e-01
1.464000000000000000e+03 5.605081558227539062e+00 3.273978948593139648e+00 -3.537868857383728027e-01 -2.342281788587570190e-01 -1.764045208692550659e-01 4.596789181232452393e-01
1.465000000000000000e+03 5.741753578186035156e+00 2.565875291824340820e+00 -4.093255996704101562e-01 -1.640399694442749023e-01 -1.720096617937088013e-01 4.030744135379791260e-01
1.466000000000000000e+03 7.127562999725341797e+00 3.366470813751220703e+00 -4.861140549182891846e-01 -3.453389406204223633e-01 -2.494359016418457031e-01 6.563059091567993164e-01
1.467000000000000000e+03 2.489200019836425781e+01 -7.928131103515625000e+00 -1.335001945495605469e+00 -6.134925484657287598e-01 -5.845483541488647461e-01 1.042154550552368164e+00
1.468000000000000000e+03 2.496038913726806641e+00 -2.025951004028320312e+01 3.729657692019827664e-05 -9.048798347066622227e-06 8.474334208585787565e-06 -1.881929347291588783e-05
1.469000000000000000e+03 9.764556884765625000e+00 2.958549976348876953e+00 -7.383983135223388672e-01 -6.724557280540466309e-01 -4.232562184333801270e-01 9.308319091796875000e-01
1.470000000000000000e+03 2.532021903991699219e+01 -8.626847267150878906e+00 -1.267706632614135742e+00 -5.294883847236633301e-01 -5.391585230827331543e-01 1.011466264724731445e+00
1.471000000000000000e+03 4.199785995483398438e+01 7.754294872283935547e+00 1.555148243904113770e+00 1.032647991180419922e+01 3.564488410949707031e+00 -2.541926860809326172e+00
1.472000000000000000e+03 4.282900238037109375e+01 -2.697576141357421875e+01 4.134219884872436523e-01 1.343909168243408203e+01 4.155754089355468750e+00 -2.574467472732067108e-02
1.473000000000000000e+03 4.396241378784179688e+01 -2.655653190612792969e+01 1.436352133750915527e+00 1.163832473754882812e+01 3.922403097152709961e+00 -6.408926248550415039e-01
1.474000000000000000e+03 2.806320953369140625e+01 -1.524300003051757812e+01 -7.288730740547180176e-01 -2.431067526340484619e-01 -2.915939390659332275e-01 6.399198770523071289e-01
1.475000000000000000e+03 3.038424110412597656e+01 -1.591063404083251953e+01 -9.349470734596252441e-01 6.839603185653686523e-02 -2.599653005599975586e-01 4.129717350006103516e-01
1.476000000000000000e+03 3.659342956542968750e+01 -1.688860321044921875e+01 4.606778919696807861e-02 1.364068627357482910e+00 4.230409264564514160e-01 -1.635054945945739746e+00
1.477000000000000000e+03 5.413954162597656250e+01 3.518685531616210938e+01 -7.309924960136413574e-01 2.916374504566192627e-01 -1.318065226078033447e-01 -1.053159236907958984e-01
1.478000000000000000e+03 7.180390930175781250e+01 -2.243302345275878906e+01 -1.499724149703979492e+00 7.330123901367187500e+00 1.749119997024536133e+00 -3.780997097492218018e-01
1.479000000000000000e+03 2.445175170898437500e+01 -6.071697711944580078e+00 -1.387619733810424805e+00 -4.859869480133056641e-01 -5.620819926261901855e-01 9.479304552078247070e-01
1.480000000000000000e+03 7.113143157958984375e+01 1.723594665527343750e+01 5.099322274327278137e-02 9.096972465515136719e+00 2.744389772415161133e+00 5.118125081062316895e-01
1.481000000000000000e+03 7.042036437988281250e+01 1.888087654113769531e+01 1.039527729153633118e-02 8.827329635620117188e+00 2.651317358016967773e+00 3.174519240856170654e-01
1.482000000000000000e+03 7.111277008056640625e+01 2.123964691162109375e+01 4.963112622499465942e-02 8.364773750305175781e+00 2.524321317672729492e+00 3.884663283824920654e-01
1.483000000000000000e+03 7.040696716308593750e+01 2.127201652526855469e+01 3.216039761900901794e-02 8.320483207702636719e+00 2.505793094635009766e+00 2.545133233070373535e-01
1.484000000000000000e+03 4.650947952270507812e+01 2.777327156066894531e+01 8.648537397384643555e-01 3.498569250106811523e+00 1.309026956558227539e+00 1.571169137954711914e+00
1.485000000000000000e+03 4.375502777099609375e+01 5.752778053283691406e+00 1.807616353034973145e+00 8.598201751708984375e+00 3.121745347976684570e+00 -3.549124002456665039e+00
1.486000000000000000e+03 6.368933486938476562e+01 -1.343807506561279297e+01 1.854749679565429688e+00 2.877702474594116211e+00 1.419735670089721680e+00 2.111949205398559570e+00
1.487000000000000000e+03 7.112660980224609375e+01 1.964271354675292969e+01 2.813039720058441162e-02 8.650685310363769531e+00 2.603644609451293945e+00 4.431139528751373291e-01
1.488000000000000000e+03 4.301794052124023438e+01 7.219530105590820312e+00 1.783639311790466309e+00 9.979405403137207031e+00 3.528913497924804688e+00 -3.646803140640258789e+00
1.489000000000000000e+03 4.337949752807617188e+01 6.477167129516601562e+00 1.863105535507202148e+00 9.265505790710449219e+00 3.338583230972290039e+00 -3.590968132019042969e+00
1.490000000000000000e+03 4.675238037109375000e+01 2.099240124225616455e-01 9.014118313789367676e-01 5.697282314300537109e+00 1.979608297348022461e+00 -2.375318765640258789e+00
1.491000000000000000e+03 7.113460540771484375e+01 1.803822517395019531e+01 3.016161173582077026e-02 8.946208000183105469e+00 2.692910909652709961e+00 4.841030240058898926e-01
1.492000000000000000e+03 7.183978271484375000e+01 1.881908607482910156e+01 4.465864598751068115e-02 8.754017829895019531e+00 2.639602899551391602e+00 5.807153582572937012e-01
1.493000000000000000e+03 7.112020111083984375e+01 1.643371963500976562e+01 6.720993667840957642e-02 9.234889984130859375e+00 2.790629863739013672e+00 5.297305583953857422e-01
1.494000000000000000e+03 7.113195800781250000e+01 1.884202194213867188e+01 3.304402530193328857e-02 8.798181533813476562e+00 2.649367809295654297e+00 4.656037092208862305e-01
1.495000000000000000e+03 2.025427627563476562e+01 -3.285301971435546875e+01 -8.563978970050811768e-02 -4.989985842257738113e-03 -2.718893252313137054e-02 -4.296036064624786377e-02
1.496000000000000000e+03 5.763244628906250000e+01 -2.369877624511718750e+01 2.621396064758300781e+00 1.950365424156188965e+00 1.371528506278991699e+00 1.903145670890808105e+00
1.497000000000000000e+03 5.817051315307617188e+01 -2.419520950317382812e+01 3.086973428726196289e+00 2.169085979461669922e+00 1.576817750930786133e+00 2.225378751754760742e+00
1.498000000000000000e+03 1.631540679931640625e+01 -2.670600414276123047e-01 -1.618422746658325195e+00 -1.368368983268737793e+00 -8.960375189781188965e-01 1.333528995513916016e+00
1.499000000000000000e+03 1.448948383331298828e+01 1.554033398628234863e+00 -1.125781297683715820e+00 -1.170373797416687012e+00 -6.888465285301208496e-01 1.136038184165954590e+00
1.500000000000000000e+03 1.700836372375488281e+01 -7.196934223175048828e-01 -1.667358875274658203e+00 -1.427179455757141113e+00 -9.283614754676818848e-01 1.366304159164428711e+00
1.501000000000000000e+03 1.696889877319335938e+01 9.530277848243713379e-01 -1.019904255867004395e+00 -1.251842737197875977e+00 -6.815240979194641113e-01 1.065301895141601562e+00
1.502000000000000000e+03 1.271689319610595703e+01 1.688592076301574707e+00 -1.217044115066528320e+00 -1.003628134727478027e+00 -6.662016510963439941e-01 1.089177727699279785e+00
1.503000000000000000e+03 7.220077514648437500e+01 -2.826406478881835938e+01 1.614871144294738770e+00 1.038661003112792969e+01 3.600444555282592773e+00 1.227508664131164551e+00
1.504000000000000000e+03 6.876621246337890625e+01 -4.976354122161865234e+00 1.015813231468200684e+00 8.896760940551757812e+00 2.973772287368774414e+00 2.579933643341064453e+00
1.505000000000000000e+03 6.998062896728515625e+01 -3.697219610214233398e+00 7.337872982025146484e-01 9.929583549499511719e+00 3.199011325836181641e+00 1.986384987831115723e+00
1.506000000000000000e+03 7.106628417968750000e+01 1.483711433410644531e+01 2.572046518325805664e-01 9.322890281677246094e+00 2.874028682708740234e+00 5.375852584838867188e-01
1.507000000000000000e+03 7.109852600097656250e+01 1.563305282592773438e+01 1.394496113061904907e-01 9.362882614135742188e+00 2.850699663162231445e+00 5.842469930648803711e-01
1.508000000000000000e+03 9.080852508544921875e+00 -2.839734458923339844e+01 -2.947066968772560358e-04 -5.090449703857302666e-04 -2.411254972685128450e-04 -2.833961334545165300e-04
1.509000000000000000e+03 1.673790550231933594e+01 -3.318350601196289062e+01 -3.628447651863098145e-02 -4.452166613191366196e-03 -1.222099270671606064e-02 -2.610104158520698547e-02
1.510000000000000000e+03 1.521771526336669922e+01 -3.171453094482421875e+01 -2.963541448116302490e-02 -1.586504862643778324e-03 -9.366575628519058228e-03 -9.099840186536312103e-03
1.511000000000000000e+03 4.360802459716796875e+01 -2.493784332275390625e+01 1.313211083412170410e+00 1.311269378662109375e+01 4.327771186828613281e+00 -2.054999351501464844e+00
1.512000000000000000e+03 7.135731506347656250e+01 4.649819374084472656e+00 2.536796927452087402e-01 1.266190147399902344e+01 3.874674320220947266e+00 5.416168570518493652e-01
1.513000000000000000e+03 7.068157196044921875e+01 4.672791481018066406e+00 1.344826519489288330e-01 1.344492626190185547e+01 4.073822498321533203e+00 3.575458228588104248e-01
1.514000000000000000e+03 8.263888359069824219e+00 -2.154790878295898438e+01 9.562421473674476147e-05 1.141033280873671174e-04 6.291826139204204082e-05 -1.032065920298919082e-04
1.515000000000000000e+03 1.692679405212402344e+01 -3.210794448852539062e+01 -4.750204458832740784e-02 -5.509265232831239700e-03 -1.590339280664920807e-02 -1.847610436379909515e-02
1.516000000000000000e+03 1.876609992980957031e+01 -3.336907577514648438e+01 -5.400174856185913086e-02 -7.442460861057043076e-03 -1.843326352536678314e-02 -3.886299580335617065e-02
1.517000000000000000e+03 6.134795379638671875e+01 -2.268190765380859375e+01 1.974601626396179199e+00 1.897829413414001465e+00 1.161729335784912109e+00 2.195539951324462891e+00
1.518000000000000000e+03 6.013904571533203125e+01 -2.262653732299804688e+01 1.796539783477783203e+00 2.170059919357299805e+00 1.189979910850524902e+00 2.242129087448120117e+00
1.519000000000000000e+03 6.579428100585937500e+01 -1.080335235595703125e+01 1.739287257194519043e+00 4.523526668548583984e+00 1.878844141960144043e+00 2.439444541931152344e+00
1.520000000000000000e+03 6.633676147460937500e+01 -1.118363094329833984e+01 1.517839431762695312e+00 4.536981582641601562e+00 1.816446304321289062e+00 2.087894678115844727e+00
1.521000000000000000e+03 4.261045455932617188e+01 1.867642593383789062e+01 6.271017193794250488e-01 8.679507255554199219e+00 2.791982650756835938e+00 1.697926044464111328e+00
1.522000000000000000e+03 4.190200424194335938e+01 1.884755325317382812e+01 5.912176370620727539e-01 8.386175155639648438e+00 2.693217754364013672e+00 1.211041688919067383e+00
1.523000000000000000e+03 7.105202484130859375e+01 2.368774986267089844e+01 2.265617996454238892e-01 7.804834842681884766e+00 2.409418821334838867e+00 2.626678645610809326e-01
1.524000000000000000e+03 1.898223876953125000e+01 -2.206088781356811523e+00 -1.762341260910034180e+00 -1.523081660270690918e+00 -9.856268763542175293e-01 1.405323863029479980e+00
1.525000000000000000e+03 2.080972290039062500e+01 -3.878242254257202148e+00 -1.750497937202453613e+00 -1.474287033081054688e+00 -9.674354791641235352e-01 1.395215630531311035e+00
1.526000000000000000e+03 2.122713851928710938e+01 -3.336928606033325195e+00 -1.558025360107421875e+00 -1.220882892608642578e+00 -8.336724638938903809e-01 1.184336423873901367e+00
1.527000000000000000e+03 2.181883430480957031e+01 -3.945490837097167969e+00 -1.557468175888061523e+00 -1.147890448570251465e+00 -8.116075992584228516e-01 1.171964883804321289e+00
1.528000000000000000e+03 4.345974731445312500e+01 -2.689599609375000000e+01 9.310343265533447266e-01 1.263484954833984375e+01 4.069765090942382812e+00 -3.100617974996566772e-02
1.529000000000000000e+03 1.869888687133789062e+01 -1.107100844383239746e+00 -1.452371001243591309e+00 -1.365320563316345215e+00 -8.453074693679809570e-01 1.206701397895812988e+00
1.530000000000000000e+03 1.802953147888183594e+01 -6.028819084167480469e-01 -1.406443834304809570e+00 -1.361746072769165039e+00 -8.304569721221923828e-01 1.208288192749023438e+00
1.531000000000000000e+03 5.617745590209960938e+01 -3.473242568969726562e+01 1.466692239046096802e-01 4.508615016937255859e+00 1.396585345268249512e+00 -1.411252140998840332e+00
1.532000000000000000e+03 4.440903091430664062e+01 2.609186172485351562e+01 5.861351490020751953e-01 4.838243961334228516e+00 1.627313733100891113e+00 1.481085300445556641e+00
1.533000000000000000e+03 7.854598236083984375e+01 4.079898071289062500e+01 -3.119836933910846710e-02 1.188316822052001953e+01 3.555590867996215820e+00 8.589391410350799561e-02
1.534000000000000000e+03 7.254377746582031250e+01 1.880995941162109375e+01 6.277729570865631104e-02 8.711522102355957031e+00 2.632289648056030273e+00 6.705004572868347168e-01
1.535000000000000000e+03 7.624577331542968750e+01 3.585979843139648438e+01 -1.696323454380035400e-01 9.866577148437500000e+00 2.909083366394042969e+00 1.092123985290527344e-01
1.536000000000000000e+03 7.823345947265625000e+01 2.931259536743164062e+01 -4.706804081797599792e-02 1.078860092163085938e+01 3.222460031509399414e+00 5.034892559051513672e-01
1.537000000000000000e+03 7.893144226074218750e+01 2.132386207580566406e+01 9.768730029463768005e-03 9.111790657043457031e+00 2.736467838287353516e+00 3.380651473999023438e-01
1.538000000000000000e+03 7.821465301513671875e+01 1.974526977539062500e+01 2.218510396778583527e-02 8.715362548828125000e+00 2.621264457702636719e+00 4.671198725700378418e-01
1.539000000000000000e+03 7.823715972900390625e+01 2.774329948425292969e+01 -1.915150322020053864e-02 1.045204353332519531e+01 3.129867792129516602e+00 5.528873801231384277e-01
1.540000000000000000e+03 7.894055938720703125e+01 2.533149337768554688e+01 5.159101914614439011e-03 1.018425178527832031e+01 3.056823253631591797e+00 3.883381187915802002e-01
1.541000000000000000e+03 7.752709197998046875e+01 2.455583000183105469e+01 3.116964921355247498e-02 9.473477363586425781e+00 2.851394176483154297e+00 7.008530497550964355e-01
1.542000000000000000e+03 7.821507263183593750e+01 2.134769821166992188e+01 2.602575346827507019e-02 9.030406951904296875e+00 2.716929674148559570e+00 4.967611134052276611e-01
1.543000000000000000e+03 7.821447753906250000e+01 2.054862594604492188e+01 2.158557437360286713e-02 8.871722221374511719e+00 2.667992353439331055e+00 4.819586873054504395e-01
1.544000000000000000e+03 7.894008636474609375e+01 1.570839214324951172e+01 2.279448090121150017e-03 7.841387271881103516e+00 2.353100061416625977e+00 2.901208400726318359e-01
1.545000000000000000e+03 7.887164306640625000e+01 3.322943878173828125e+01 -3.673227131366729736e-02 1.197385787963867188e+01 3.581137657165527344e+00 1.731583476066589355e-01
1.546000000000000000e+03 7.868679809570312500e+01 3.489207077026367188e+01 -3.746014088392257690e-02 1.192435073852539062e+01 3.566067218780517578e+00 9.718181192874908447e-02
1.547000000000000000e+03 7.820669555664062500e+01 3.162188911437988281e+01 -7.484329491853713989e-02 1.118210792541503906e+01 3.332179546356201172e+00 3.699779510498046875e-01
1.548000000000000000e+03 7.823615264892578125e+01 1.493276882171630859e+01 -7.849900051951408386e-03 7.823269367218017578e+00 2.344625711441040039e+00 4.381994307041168213e-01
1.549000000000000000e+03 7.894676208496093750e+01 1.251364135742187500e+01 -9.733689017593860626e-03 7.096439838409423828e+00 2.126011848449707031e+00 3.323839008808135986e-01
1.550000000000000000e+03 7.177812957763671875e+01 1.016988563537597656e+01 -5.258196592330932617e-01 1.015157794952392578e+01 2.887727499008178711e+00 6.026645898818969727e-01
1.551000000000000000e+03 7.824826812744140625e+01 1.254411602020263672e+01 -3.099335357546806335e-02 7.357975482940673828e+00 2.198094606399536133e+00 4.922362267971038818e-01
1.552000000000000000e+03 7.892953491210937500e+01 3.165730094909667969e+01 -3.838241472840309143e-02 1.179081916809082031e+01 3.525731086730957031e+00 2.495201975107192993e-01
1.553000000000000000e+03 7.824098968505859375e+01 1.414072799682617188e+01 -1.891885697841644287e-02 7.674611091613769531e+00 2.296707630157470703e+00 4.497897624969482422e-01
1.554000000000000000e+03 7.824702453613281250e+01 1.015722274780273438e+01 -2.028464339673519135e-02 6.824583053588867188e+00 2.041289567947387695e+00 5.725938677787780762e-01
1.555000000000000000e+03 7.824300384521484375e+01 9.362935066223144531e+00 -9.601320140063762665e-03 6.633846282958984375e+00 1.987273454666137695e+00 5.866880416870117188e-01
1.556000000000000000e+03 7.813835144042968750e+01 -3.837196731567382812e+01 -4.084401205182075500e-02 6.851056098937988281e+00 2.043063640594482422e+00 -1.096058785915374756e-01
1.557000000000000000e+03 7.865484619140625000e+01 -3.652664947509765625e+01 -4.621497541666030884e-02 6.853187561035156250e+00 2.042091846466064453e+00 -1.709287166595458984e-01
1.558000000000000000e+03 7.889295196533203125e+01 -2.989360427856445312e+01 5.828568339347839355e-02 5.875358104705810547e+00 1.780093193054199219e+00 -1.785294264554977417e-01
1.559000000000000000e+03 7.119126129150390625e+01 -3.304933547973632812e+01 -1.069588586688041687e-01 5.660758495330810547e+00 1.666139960289001465e+00 1.121529698371887207e+00
1.560000000000000000e+03 7.826609802246093750e+01 -1.793517494201660156e+01 -1.482421755790710449e-01 7.812369346618652344e+00 2.299237966537475586e+00 -3.279784694314002991e-02
1.561000000000000000e+03 7.894422149658203125e+01 -8.343356132507324219e+00 1.142682856880128384e-03 6.083535194396972656e+00 1.825403332710266113e+00 -3.254416286945343018e-01
1.562000000000000000e+03 7.753961181640625000e+01 -1.073482227325439453e+01 -1.359275076538324356e-03 6.691259860992431641e+00 2.006970167160034180e+00 -6.075143218040466309e-01
1.563000000000000000e+03 7.894824981689453125e+01 -1.907075047492980957e+00 3.085136227309703827e-02 4.675412178039550781e+00 1.411879062652587891e+00 -1.916042864322662354e-01
1.564000000000000000e+03 7.747332763671875000e+01 -4.270779132843017578e+00 6.477609276771545410e-02 6.012515544891357422e+00 1.823187470436096191e+00 -4.866687059402465820e-01
1.565000000000000000e+03 7.894123840332031250e+01 5.313723564147949219e+00 3.385435417294502258e-02 5.047345161437988281e+00 1.524359822273254395e+00 3.059251606464385986e-01
1.566000000000000000e+03 7.201338195800781250e+01 5.447481155395507812e+00 4.187012016773223877e-01 1.157105159759521484e+01 3.596925735473632812e+00 5.544701218605041504e-01
1.567000000000000000e+03 7.823797607421875000e+01 2.694853401184082031e+01 -6.286684889346361160e-03 1.027301120758056641e+01 3.080017328262329102e+00 5.677170753479003906e-01
1.568000000000000000e+03 7.823868560791015625e+01 2.614802551269531250e+01 2.075102413073182106e-03 1.008892154693603516e+01 3.027298927307128906e+00 5.697174668312072754e-01
1.569000000000000000e+03 7.740707397460937500e+01 3.384960937500000000e+01 -1.496215015649795532e-01 1.076525306701660156e+01 3.184689283370971680e+00 2.669985592365264893e-01
1.570000000000000000e+03 7.814344787597656250e+01 3.316289520263671875e+01 -7.591407746076583862e-02 1.134290885925292969e+01 3.380098342895507812e+00 2.596760988235473633e-01
1.571000000000000000e+03 7.823709106445312500e+01 2.535068321228027344e+01 1.169608440250158310e-02 9.904170036315917969e+00 2.974759817123413086e+00 5.690764784812927246e-01
1.572000000000000000e+03 7.821606445312500000e+01 1.893922805786132812e+01 1.618167944252490997e-02 8.562397003173828125e+00 2.573573589324951172e+00 4.546137154102325439e-01
1.573000000000000000e+03 7.823937988281250000e+01 8.565243721008300781e+00 7.276938296854496002e-03 6.439218044281005859e+00 1.933948516845703125e+00 5.930769443511962891e-01
1.574000000000000000e+03 7.894741058349609375e+01 2.905042886734008789e+00 4.499765112996101379e-02 4.598289489746093750e+00 1.392986178398132324e+00 1.501794606447219849e-01
1.575000000000000000e+03 7.821487426757812500e+01 -5.099393844604492188e+00 2.587601169943809509e-02 5.686472892761230469e+00 1.713704705238342285e+00 -4.337267875671386719e-01
1.576000000000000000e+03 7.893589019775390625e+01 -4.323965549468994141e+00 1.438059005886316299e-02 5.120601654052734375e+00 1.540494680404663086e+00 -2.812203168869018555e-01
1.577000000000000000e+03 7.823865509033203125e+01 -1.152348232269287109e+01 -6.258634850382804871e-03 6.854165554046630859e+00 2.054372072219848633e+00 -4.866946637630462646e-01
1.578000000000000000e+03 7.898400115966796875e+01 -1.954324150085449219e+01 -7.700925320386886597e-02 8.007416725158691406e+00 2.379122257232666016e+00 1.676194965839385986e-01
1.579000000000000000e+03 7.872653961181640625e+01 -3.481956863403320312e+01 -4.488714784383773804e-02 6.672168254852294922e+00 1.988184332847595215e+00 -2.359513044357299805e-01
1.580000000000000000e+03 7.884421539306640625e+01 -3.232788467407226562e+01 3.867741907015442848e-03 6.265997409820556641e+00 1.880959510803222656e+00 -2.915169596672058105e-01
1.581000000000000000e+03 7.872595214843750000e+01 3.914535522460937500e+01 9.040379896759986877e-03 1.198356342315673828e+01 3.597781181335449219e+00 3.792284801602363586e-02
1.582000000000000000e+03 7.895556640625000000e+01 -2.271264839172363281e+01 -2.346275001764297485e-02 7.176416873931884766e+00 2.145886182785034180e+00 4.607885181903839111e-01
1.583000000000000000e+03 7.762416839599609375e+01 -2.170365905761718750e+01 -1.926644593477249146e-01 7.442344665527343750e+00 2.174904108047485352e+00 7.135739922523498535e-01
1.584000000000000000e+03 7.771978759765625000e+01 3.900383377075195312e+01 1.960936374962329865e-02 1.115460300445556641e+01 3.352263689041137695e+00 -2.478143945336341858e-02
1.585000000000000000e+03 7.791870880126953125e+01 3.475867843627929688e+01 -9.206745773553848267e-02 1.126531219482421875e+01 3.351973295211791992e+00 1.483420878648757935e-01
1.586000000000000000e+03 7.807971191406250000e+01 3.394674682617187500e+01 -8.487592637538909912e-02 1.134929275512695312e+01 3.379325151443481445e+00 2.072393596172332764e-01
1.587000000000000000e+03 7.822801971435546875e+01 3.008942413330078125e+01 -5.656017735600471497e-02 1.093663120269775391e+01 3.264021396636962891e+00 4.663264453411102295e-01
1.588000000000000000e+03 7.823597717285156250e+01 2.853131484985351562e+01 -2.955444343388080597e-02 1.062364959716796875e+01 3.178228616714477539e+00 5.357487797737121582e-01
1.589000000000000000e+03 7.822624969482421875e+01 2.375326538085937500e+01 2.319374866783618927e-02 9.539898872375488281e+00 2.868927717208862305e+00 5.477489829063415527e-01
1.590000000000000000e+03 7.822190856933593750e+01 1.733386039733886719e+01 8.881731890141963959e-03 8.264259338378906250e+00 2.481942176818847656e+00 4.359641969203948975e-01
1.591000000000000000e+03 7.753299713134765625e+01 1.413597202301025391e+01 -3.146650269627571106e-02 7.865777969360351562e+00 2.350293397903442383e+00 5.696756839752197266e-01
1.592000000000000000e+03 7.894155120849609375e+01 6.919136524200439453e+00 1.984879001975059509e-02 5.473210811614990234e+00 1.647917866706848145e+00 3.705794513225555420e-01
1.593000000000000000e+03 7.823718261718750000e+01 5.365826129913330078e+00 7.728986442089080811e-02 5.706942558288574219e+00 1.735269665718078613e+00 4.658097922801971436e-01
1.594000000000000000e+03 7.769627380371093750e+01 -3.660727310180664062e+01 -7.352671772241592407e-02 6.679929256439208984e+00 1.981920838356018066e+00 -2.221173793077468872e-01
1.595000000000000000e+03 7.892435455322265625e+01 -2.751035499572753906e+01 9.153448045253753662e-02 5.831565856933593750e+00 1.776930093765258789e+00 1.159410923719406128e-01
1.596000000000000000e+03 7.814988708496093750e+01 -2.977600097656250000e+01 1.492981910705566406e-01 6.181410789489746094e+00 1.899212718009948730e+00 -2.253773510456085205e-01
1.597000000000000000e+03 7.893750762939453125e+01 -1.395925426483154297e+01 -1.479133032262325287e-02 7.511337757110595703e+00 2.248963832855224609e+00 -2.857146263122558594e-01
1.598000000000000000e+03 7.822858428955078125e+01 -1.554068279266357422e+01 -9.099250286817550659e-02 7.572403430938720703e+00 2.244423389434814453e+00 -3.247812390327453613e-01
1.599000000000000000e+03 7.895476531982421875e+01 4.997000992298126221e-01 4.664047062397003174e-02 4.467119693756103516e+00 1.354128122329711914e+00 -3.407960757613182068e-02
1.600000000000000000e+03 7.825109100341796875e+01 -1.853239059448242188e+00 7.913681119680404663e-02 5.260172367095947266e+00 1.601792812347412109e+00 -2.664382159709930420e-01
1.601000000000000000e+03 7.823571777343750000e+01 6.970783233642578125e+00 4.364948347210884094e-02 6.057166099548339844e+00 1.830244779586791992e+00 5.595018267631530762e-01
1.602000000000000000e+03 7.823683166503906250e+01 7.767207622528076172e+00 2.411076985299587250e-02 6.244958400726318359e+00 1.880720853805541992e+00 5.816672444343566895e-01
1.603000000000000000e+03 7.825353240966796875e+01 2.153135299682617188e+00 1.112930327653884888e-01 5.230864524841308594e+00 1.602647304534912109e+00 1.506510674953460693e-01
1.604000000000000000e+03 7.824806976318359375e+01 2.954918384552001953e+00 1.091023162007331848e-01 5.313889980316162109e+00 1.626897692680358887e+00 2.385924160480499268e-01
1.605000000000000000e+03 7.826537322998046875e+01 5.508087873458862305e-01 1.104144304990768433e-01 5.149250984191894531e+00 1.577899694442749023e+00 -3.025643341243267059e-02
1.606000000000000000e+03 7.826026153564453125e+01 1.350651621818542480e+00 1.136064901947975159e-01 5.176422119140625000e+00 1.587008595466613770e+00 5.871128663420677185e-02
1.607000000000000000e+03 7.826566314697265625e+01 -2.459760010242462158e-01 1.042396947741508484e-01 5.157215595245361328e+00 1.578436613082885742e+00 -1.195741444826126099e-01
1.608000000000000000e+03 7.823942565917968750e+01 -7.523297786712646484e+00 9.217587299644947052e-03 6.088022708892822266e+00 1.829172134399414062e+00 -4.741011559963226318e-01
1.609000000000000000e+03 7.821395874023437500e+01 -4.288013935089111328e+00 3.484762459993362427e-02 5.565289020538330078e+00 1.680041074752807617e+00 -4.075176119804382324e-01
1.610000000000000000e+03 7.823227691650390625e+01 -6.721227169036865234e+00 1.574071496725082397e-02 5.946939945220947266e+00 1.788804173469543457e+00 -4.660504758358001709e-01
1.611000000000000000e+03 7.822260284423828125e+01 -5.911946296691894531e+00 2.009548246860504150e-02 5.812489509582519531e+00 1.749775528907775879e+00 -4.506372809410095215e-01
1.612000000000000000e+03 7.754191589355468750e+01 -9.141759872436523438e+00 1.072373334318399429e-02 6.483191490173339844e+00 1.948174476623535156e+00 -5.983117818832397461e-01
1.613000000000000000e+03 7.824058532714843750e+01 -1.072754383087158203e+01 -4.882299806922674179e-03 6.697258949279785156e+00 2.007713079452514648e+00 -4.881955683231353760e-01
1.614000000000000000e+03 7.822989654541015625e+01 -1.393566703796386719e+01 -4.860286414623260498e-02 7.312151432037353516e+00 2.179064512252807617e+00 -4.271920323371887207e-01
1.615000000000000000e+03 7.823277282714843750e+01 -1.313065624237060547e+01 -2.600919827818870544e-02 7.164267063140869141e+00 2.141477346420288086e+00 -4.585680961608886719e-01
1.616000000000000000e+03 7.822787475585937500e+01 -1.473521709442138672e+01 -6.034452468156814575e-02 7.448190689086914062e+00 2.216353893280029297e+00 -3.869823813438415527e-01
1.617000000000000000e+03 7.823473358154296875e+01 -1.634705543518066406e+01 -1.054365634918212891e-01 7.677947998046875000e+00 2.271753311157226562e+00 -2.473524808883666992e-01
1.618000000000000000e+03 7.832623291015625000e+01 -2.104195594787597656e+01 -1.372169107198715210e-01 7.598270416259765625e+00 2.238316059112548828e+00 4.936060607433319092e-01
1.619000000000000000e+03 7.829151153564453125e+01 -1.872165107727050781e+01 -1.689281910657882690e-01 7.826509952545166016e+00 2.297274589538574219e+00 9.459815174341201782e-02
1.620000000000000000e+03 7.757587432861328125e+01 -1.794320678710937500e+01 -2.814143002033233643e-01 7.599253654479980469e+00 2.195351839065551758e+00 -6.604019552469253540e-02
1.621000000000000000e+03 7.829360198974609375e+01 -2.181863403320312500e+01 -1.090736687183380127e-01 7.435912132263183594e+00 2.198051691055297852e+00 5.967540144920349121e-01
1.622000000000000000e+03 7.825273895263671875e+01 -2.502093505859375000e+01 1.162588298320770264e-01 6.608418941497802734e+00 2.017403364181518555e+00 6.116480231285095215e-01
1.623000000000000000e+03 7.822457122802734375e+01 -2.661055564880371094e+01 2.078444212675094604e-01 6.291334629058837891e+00 1.949753761291503906e+00 3.615730702877044678e-01
1.624000000000000000e+03 7.824578094482421875e+01 -2.422355842590332031e+01 5.448134988546371460e-02 6.820141315460205078e+00 2.062386751174926758e+00 6.861811280250549316e-01
1.625000000000000000e+03 7.755992889404296875e+01 -2.572049522399902344e+01 2.854966223239898682e-01 6.689750194549560547e+00 2.092574119567871094e+00 6.442220211029052734e-01
1.626000000000000000e+03 7.817969512939453125e+01 -2.819877433776855469e+01 2.144965529441833496e-01 6.157374858856201172e+00 1.911561489105224609e+00 4.787965491414070129e-02
1.627000000000000000e+03 7.807635498046875000e+01 -3.224639129638671875e+01 5.215777549892663956e-03 6.402168273925781250e+00 1.922215223312377930e+00 -3.888382911682128906e-01
1.628000000000000000e+03 7.774436187744140625e+01 -3.564782333374023438e+01 -9.881490468978881836e-02 6.660162448883056641e+00 1.968404173851013184e+00 -2.736501991748809814e-01
1.629000000000000000e+03 7.156921386718750000e+01 -3.102180671691894531e+01 6.093229055404663086e-01 7.277852058410644531e+00 2.366152524948120117e+00 1.426201343536376953e+00
1.630000000000000000e+03 7.789931488037109375e+01 -3.473201370239257812e+01 -7.865189015865325928e-02 6.607869625091552734e+00 1.958765268325805664e+00 -3.300119936466217041e-01
1.631000000000000000e+03 7.804055023193359375e+01 -3.387589645385742188e+01 -5.519828572869300842e-02 6.557562351226806641e+00 1.950709223747253418e+00 -3.530239462852478027e-01
1.632000000000000000e+03 7.851473236083984375e+01 -4.102841186523437500e+01 -4.625248908996582031e-02 6.995362281799316406e+00 2.084733009338378906e+00 -4.786743968725204468e-02
1.633000000000000000e+03 6.995393371582031250e+01 2.701144027709960938e+01 1.049033552408218384e-01 5.956884384155273438e+00 1.818536281585693359e+00 -2.130488902330398560e-01
1.634000000000000000e+03 7.043102264404296875e+01 2.797216033935546875e+01 -1.141527295112609863e-01 5.699796676635742188e+00 1.675693273544311523e+00 1.770015954971313477e-01
1.635000000000000000e+03 4.236795425415039062e+01 6.977042198181152344e+00 1.510297417640686035e+00 9.672500610351562500e+00 3.354839563369750977e+00 -2.863750219345092773e+00
1.636000000000000000e+03 3.632830679416656494e-01 3.477271080017089844e+00 -4.918581806123256683e-03 -3.248461708426475525e-02 -1.122095901519060135e-02 2.152073755860328674e-02
1.637000000000000000e+03 1.131007909774780273e+00 3.630537796020507812e+01 3.203313797712326050e-03 -1.866582751274108887e+00 -5.590138435363769531e-01 -1.711860485374927521e-02
1.638000000000000000e+03 2.274473428726196289e+00 3.917274093627929688e+01 -2.768191276118159294e-03 -1.665879964828491211e+00 -5.005944371223449707e-01 -1.228433754295110703e-02
1.639000000000000000e+03 1.549381136894226074e+00 3.993256759643554688e+01 1.197292655706405640e-02 -1.767208218574523926e+00 -5.265706181526184082e-01 -1.167624909430742264e-02
1.640000000000000000e+03 1.235417485237121582e+00 3.472288894653320312e+01 3.189301060047000647e-04 -1.875793576240539551e+00 -5.626423954963684082e-01 -1.843320950865745544e-02
1.641000000000000000e+03 2.345537900924682617e+00 3.653210449218750000e+01 -4.850651137530803680e-03 -1.681489944458007812e+00 -5.059021711349487305e-01 -1.888073235750198364e-02
1.642000000000000000e+03 1.173703432083129883e+00 2.832962989807128906e+01 4.205201286822557449e-03 -1.963328242301940918e+00 -5.877369046211242676e-01 -1.157784368842840195e-02
1.643000000000000000e+03 1.957700490951538086e+00 2.995224571228027344e+01 3.386178752407431602e-03 -1.811507344245910645e+00 -5.424363613128662109e-01 -2.332332730293273926e-02
1.644000000000000000e+03 1.789737462997436523e+00 3.228734588623046875e+01 4.282841458916664124e-03 -1.810422897338867188e+00 -5.418420433998107910e-01 -3.141662850975990295e-02
1.645000000000000000e+03 2.645555257797241211e+00 2.488514709472656250e+01 2.077958360314369202e-02 -1.698656916618347168e+00 -5.033631920814514160e-01 1.852739602327346802e-02
1.646000000000000000e+03 1.168228983879089355e+00 -3.405669784545898438e+01 -1.329420629190281034e-04 6.041362648829817772e-04 1.413582649547606707e-04 -2.063201391138136387e-04
1.647000000000000000e+03 1.936063766479492188e+00 -3.245732879638671875e+01 -5.731808050768449903e-05 4.228354082442820072e-04 1.096551932278089225e-04 -1.033879234455525875e-04
1.648000000000000000e+03 1.893476486206054688e+00 2.578599548339843750e+01 8.760018274188041687e-03 -1.835454702377319336e+00 -5.480083823204040527e-01 3.809299087151885033e-03
1.649000000000000000e+03 1.831150531768798828e+00 3.301958847045898438e+01 -5.360336508601903915e-03 -1.790599107742309570e+00 -5.387878417968750000e-01 -3.083665110170841217e-02
1.650000000000000000e+03 1.103953599929809570e+00 3.234016036987304688e+01 -3.319163108244538307e-03 -1.924725532531738281e+00 -5.784134268760681152e-01 -1.948706805706024170e-02
1.651000000000000000e+03 1.089648127555847168e+00 2.103736686706542969e+01 6.925718393176794052e-03 -1.896061658859252930e+00 -5.667407512664794922e-01 3.910018876194953918e-02
1.652000000000000000e+03 1.839073777198791504e+00 2.254202651977539062e+01 1.425072457641363144e-02 -1.805161476135253906e+00 -5.372732281684875488e-01 4.125708714127540588e-02
1.653000000000000000e+03 2.602825164794921875e+00 2.324842643737792969e+01 2.487010508775711060e-02 -1.686549544334411621e+00 -4.985038340091705322e-01 4.428386688232421875e-02
1.654000000000000000e+03 1.881243467330932617e+00 2.497357177734375000e+01 9.636278264224529266e-03 -1.833381056785583496e+00 -5.471234321594238281e-01 1.243759691715240479e-02
1.655000000000000000e+03 1.949799656867980957e+00 2.826932716369628906e+01 6.581475492566823959e-03 -1.822915077209472656e+00 -5.449001193046569824e-01 -1.337133813649415970e-02
1.656000000000000000e+03 1.925256371498107910e+00 2.742882347106933594e+01 9.828966110944747925e-03 -1.829461574554443359e+00 -5.458897948265075684e-01 -8.480205200612545013e-03
1.657000000000000000e+03 1.967896461486816406e+00 2.911387062072753906e+01 8.411969989538192749e-03 -1.815387248992919922e+00 -5.420925617218017578e-01 -2.142130769789218903e-02
1.658000000000000000e+03 1.910979390144348145e+00 3.077097892761230469e+01 5.884903948754072189e-03 -1.813662290573120117e+00 -5.423332452774047852e-01 -3.010812960565090179e-02
1.659000000000000000e+03 2.142610788345336914e+00 3.463617706298828125e+01 -7.140872534364461899e-03 -1.716402053833007812e+00 -5.170628428459167480e-01 -2.660897001624107361e-02
1.660000000000000000e+03 1.973354458808898926e+00 3.378413772583007812e+01 -6.559639004990458488e-04 -1.751966118812561035e+00 -5.257866382598876953e-01 -3.135132044553756714e-02
1.661000000000000000e+03 1.812667965888977051e+00 3.690000534057617188e+01 -1.047422084957361221e-02 -1.759576559066772461e+00 -5.310152173042297363e-01 -2.045494131743907928e-02
1.662000000000000000e+03 2.486908674240112305e+00 -3.765742111206054688e+01 -2.496913657523691654e-05 -1.695495098829269409e-03 -5.161392618902027607e-04 -1.298631657846271992e-03
1.663000000000000000e+03 1.859270572662353516e+00 -3.767562103271484375e+01 2.348477391933556646e-05 -1.051703933626413345e-03 -3.084657364524900913e-04 -4.725974577013403177e-04
1.664000000000000000e+03 1.865229487419128418e+00 -3.564972305297851562e+01 -4.204975539323640987e-06 -3.039479197468608618e-04 -9.244586544809862971e-05 -6.027114577591419220e-04
1.665000000000000000e+03 1.085151433944702148e+00 2.023295783996582031e+01 6.126006133854389191e-03 -1.864925742149353027e+00 -5.576398968696594238e-01 4.728782549500465393e-02
1.666000000000000000e+03 1.827940106391906738e+00 2.173549842834472656e+01 1.569688506424427032e-02 -1.786883950233459473e+00 -5.313560962677001953e-01 5.380256101489067078e-02
1.667000000000000000e+03 2.467428207397460938e+00 -1.306366443634033203e+01 2.232575752714183182e-06 -1.323975902778329328e-05 -3.302155164419673383e-06 -3.066485305680544116e-06
1.668000000000000000e+03 1.784209251403808594e+00 -9.841572761535644531e+00 1.437713672203244641e-05 4.299785814509959891e-06 5.603076715487986803e-06 3.327834747324232012e-06
1.669000000000000000e+03 2.409176349639892578e+00 -1.708313751220703125e+01 -2.047946873062755913e-05 2.479544309608172625e-05 1.294792241424147505e-06 1.665057061472907662e-05
1.670000000000000000e+03 1.733586192131042480e+00 -1.710149192810058594e+01 -1.917948793561663479e-05 -1.883920594991650432e-05 -1.140560834755888209e-05 -2.112636866513639688e-05
1.671000000000000000e+03 1.070259571075439453e+00 1.460571193695068359e+01 9.026500396430492401e-03 -1.461962342262268066e+00 -4.358807504177093506e-01 1.152363345026969910e-01
1.672000000000000000e+03 1.788073062896728516e+00 1.530386066436767578e+01 2.064794301986694336e-02 -1.440583229064941406e+00 -4.259805977344512939e-01 1.705961972475051880e-01
1.673000000000000000e+03 1.063750267028808594e+00 8.183715820312500000e+00 -4.187625017948448658e-04 -6.372544765472412109e-01 -1.913019716739654541e-01 1.624362021684646606e-01
1.674000000000000000e+03 1.758944153785705566e+00 1.049310684204101562e+01 1.253365539014339447e-02 -9.405142664909362793e-01 -2.783941924571990967e-01 2.489470392465591431e-01
1.675000000000000000e+03 1.798151373863220215e+00 1.771786689758300781e+01 1.851159334182739258e-02 -1.615085124969482422e+00 -4.789720475673675537e-01 1.236172020435333252e-01
1.676000000000000000e+03 1.085874676704406738e+00 -7.452504634857177734e+00 1.922414594446308911e-05 1.831160716392332688e-06 6.316591679933480918e-06 3.785092985708615743e-06
1.677000000000000000e+03 2.562377214431762695e+00 -7.357158184051513672e+00 4.856457053392659873e-06 3.726020850081113167e-06 2.574743348304764368e-06 3.523914756442536600e-06
1.678000000000000000e+03 2.641566753387451172e+00 -4.944222927093505859e+00 -3.984875547757837921e-06 -2.195785782532766461e-06 -1.854198330875078682e-06 -5.327935014065587893e-06
1.679000000000000000e+03 1.958425879478454590e+00 -2.643522024154663086e+00 -4.287301635486073792e-06 -2.044697339442791417e-06 -1.899599624266556930e-06 -4.521213213593000546e-06
1.680000000000000000e+03 1.120036125183105469e+00 -5.038355350494384766e+00 -1.283508845517644659e-05 -1.403014834977511782e-06 -4.271430952940136194e-06 -4.118382548767840490e-06
1.681000000000000000e+03 1.848565459251403809e+00 -2.675315856933593750e+01 -7.000655750744044781e-05 1.341583702014759183e-04 1.924554271681699902e-05 3.407219192013144493e-04
1.682000000000000000e+03 1.061611652374267578e+00 -2.033629417419433594e+01 7.796686986694112420e-05 6.539560217788675800e-06 2.535193016228731722e-05 -9.898219104798045009e-06
1.683000000000000000e+03 1.760007143020629883e+00 -1.949263572692871094e+01 4.748975334223359823e-05 -1.154566916738986038e-06 1.390055604133522138e-05 -5.843631242896663025e-06
1.684000000000000000e+03 1.056911349296569824e+00 -1.310803318023681641e+01 -3.443457171670161188e-05 -8.220710697059985250e-06 -1.279658499697688967e-05 -6.767041668354067951e-06
1.685000000000000000e+03 1.765034914016723633e+00 -1.227387142181396484e+01 -1.594527202541939914e-05 -9.448804121348075569e-06 -7.618222753080772236e-06 -5.289685759635176510e-06
1.686000000000000000e+03 1.065666913986206055e+00 5.785628795623779297e+00 -1.370395999401807785e-02 -3.210491538047790527e-01 -1.004259362816810608e-01 1.355338096618652344e-01
1.687000000000000000e+03 1.066657304763793945e+00 1.299941825866699219e+01 8.794459514319896698e-03 -1.285760998725891113e+00 -3.830899596214294434e-01 1.345576345920562744e-01
1.688000000000000000e+03 1.773262500762939453e+00 8.096774101257324219e+00 -7.620528340339660645e-03 -6.405719518661499023e-01 -1.944577395915985107e-01 2.579869031906127930e-01
1.689000000000000000e+03 1.097264528274536133e+00 3.416880369186401367e+00 -2.291497774422168732e-02 -9.829508513212203979e-02 -3.636301681399345398e-02 6.627618521451950073e-02
1.690000000000000000e+03 1.124498486518859863e+00 2.640524625778198242e+00 -2.463306300342082977e-02 -5.606571212410926819e-02 -2.420963346958160400e-02 3.971628472208976746e-02
1.691000000000000000e+03 1.851701378822326660e+00 -2.756820297241210938e+01 1.605643774382770061e-04 3.739487146958708763e-04 1.603539276402443647e-04 2.712849818635731936e-04
1.692000000000000000e+03 1.750499963760375977e+00 -1.549652767181396484e+01 -1.484320000599836931e-05 -2.334043529117479920e-05 -1.145509031630354002e-05 -1.414656890119658783e-05
1.693000000000000000e+03 1.048733234405517578e+00 -2.274842643737792969e+01 -6.020984073984436691e-05 1.981572722797864117e-06 -1.746848101902287453e-05 3.523714622133411467e-05
1.694000000000000000e+03 1.763943552970886230e+00 -2.192076873779296875e+01 -4.598774467012844980e-06 -5.475524449138902128e-05 -1.780620550562161952e-05 5.067824531579390168e-05
1.695000000000000000e+03 1.133294701576232910e+00 -3.002222061157226562e+01 3.146716699120588601e-05 8.669879171065986156e-04 2.695365401450544596e-04 1.769818336470052600e-04
1.696000000000000000e+03 1.865682005882263184e+00 -2.920240211486816406e+01 1.017849281197413802e-04 4.807315126527100801e-04 1.747549395076930523e-04 2.782609371934086084e-04
1.697000000000000000e+03 1.172949910163879395e+00 -3.785868453979492188e+01 1.189769955090014264e-05 -5.632623215205967426e-04 -1.654093794059008360e-04 -5.852909525856375694e-04
1.698000000000000000e+03 1.953067660331726074e+00 -3.327138900756835938e+01 -3.466922498773783445e-04 7.659949187655001879e-05 -8.102782885544002056e-05 -2.234831044916063547e-04
1.699000000000000000e+03 2.663483858108520508e+00 -3.087561416625976562e+01 -4.692102957051247358e-04 -7.151048339437693357e-05 -1.622162380954250693e-04 1.966042764252051711e-04
1.700000000000000000e+03 1.854627013206481934e+00 -2.838311576843261719e+01 -1.343480398645624518e-04 2.469142782501876354e-04 3.376987297087907791e-05 3.541376499924808741e-04
1.701000000000000000e+03 2.523174285888671875e+00 -2.506916809082031250e+01 2.864674315787851810e-04 -7.658561662537977099e-05 6.296454375842586160e-05 2.218649897258728743e-04
1.702000000000000000e+03 1.792705655097961426e+00 -2.512858009338378906e+01 -5.533113289857283235e-05 1.186953450087457895e-04 1.900926326925400645e-05 1.954240578925237060e-04
1.703000000000000000e+03 3.954959869384765625e+00 -2.453966903686523438e+01 -5.606675404123961926e-05 -5.303696962073445320e-04 -1.759309379849582911e-04 5.415981650003232062e-05
1.704000000000000000e+03 1.777353644371032715e+00 -2.111198425292968750e+01 5.551540380110964179e-05 4.646015440812334418e-05 3.059266600757837296e-05 -7.812638614268507808e-06
1.705000000000000000e+03 1.045564770698547363e+00 -1.712678146362304688e+01 5.770527786808088422e-05 2.606865109555656090e-06 1.809364221116993576e-05 1.239322864421410486e-05
1.706000000000000000e+03 1.745203256607055664e+00 -1.869372558593750000e+01 -3.383269722689874470e-05 -1.164275886367249768e-06 -1.049909224093426019e-05 -9.002633305499330163e-06
1.707000000000000000e+03 1.758288621902465820e+00 -1.469401836395263672e+01 1.355995391350006685e-05 1.503915882494766265e-05 8.579733730584848672e-06 5.163444711797637865e-06
1.708000000000000000e+03 1.055950403213500977e+00 -1.391321086883544922e+01 3.694945917231962085e-05 4.810044174519134685e-06 1.252785114047583193e-05 5.344288183550816029e-06
1.709000000000000000e+03 1.761890769004821777e+00 -1.389004421234130859e+01 -1.541078563604969531e-05 -1.419512227585073560e-05 -8.881772373570129275e-06 -7.247134817589540035e-06
1.710000000000000000e+03 1.066675543785095215e+00 -9.879934310913085938e+00 -2.537390901125036180e-05 -3.728464434971101582e-06 -8.730711670068558306e-06 -4.411559984873747453e-06
1.711000000000000000e+03 1.768900990486145020e+00 -1.146444606781005859e+01 1.499823156336788088e-05 6.309226591838523746e-06 6.392237537511391565e-06 2.904440179918310605e-06
1.712000000000000000e+03 1.781322836875915527e+00 6.500471591949462891e+00 -2.348155714571475983e-02 -4.466367065906524658e-01 -1.410354822874069214e-01 2.367357164621353149e-01
1.713000000000000000e+03 2.498717069625854492e+00 7.228574752807617188e+00 -2.660507895052433014e-02 -5.562204122543334961e-01 -1.748476475477218628e-01 3.343591094017028809e-01
1.714000000000000000e+03 1.763491153717041016e+00 1.129418563842773438e+01 1.219927426427602768e-02 -1.035990834236145020e+00 -3.071374595165252686e-01 2.399093806743621826e-01
1.715000000000000000e+03 2.443827867507934570e+00 1.040806388854980469e+01 1.637395657598972321e-02 -9.119458794593811035e-01 -2.686715722084045410e-01 3.294113874435424805e-01
1.716000000000000000e+03 1.770155668258666992e+00 1.209600257873535156e+01 1.790893264114856720e-02 -1.127693891525268555e+00 -3.329354822635650635e-01 2.285844385623931885e-01
1.717000000000000000e+03 1.784890770912170410e+00 1.450107669830322266e+01 1.826638728380203247e-02 -1.371051192283630371e+00 -4.058354496955871582e-01 1.860464364290237427e-01
1.718000000000000000e+03 1.776050925254821777e+00 1.289750766754150391e+01 1.632864587008953094e-02 -1.214207768440246582e+00 -3.593637347221374512e-01 2.151884287595748901e-01
1.719000000000000000e+03 1.795955419540405273e+00 1.691395378112792969e+01 2.039760909974575043e-02 -1.562923312187194824e+00 -4.627577066421508789e-01 1.392300575971603394e-01
1.720000000000000000e+03 1.800706267356872559e+00 1.852117919921875000e+01 1.939874328672885895e-02 -1.661186933517456055e+00 -4.925364553928375244e-01 1.083413735032081604e-01
1.721000000000000000e+03 1.804755568504333496e+00 1.932411575317382812e+01 1.739876158535480499e-02 -1.701063513755798340e+00 -5.050994157791137695e-01 9.336143732070922852e-02
1.722000000000000000e+03 1.818962693214416504e+00 2.093086433410644531e+01 1.599702239036560059e-02 -1.763727068901062012e+00 -5.243190526962280273e-01 6.582021713256835938e-02
1.723000000000000000e+03 1.961663246154785156e+00 -3.408825683593750000e+01 -5.614654219243675470e-05 9.416994726052507758e-05 1.140702170232543722e-05 -4.132286994718015194e-04
1.724000000000000000e+03 1.931694269180297852e+00 -3.488512039184570312e+01 -2.739978954195976257e-04 -2.988731430377811193e-04 -1.718613057164475322e-04 -4.942676750943064690e-04
1.725000000000000000e+03 1.806755065917968750e+00 -3.705369186401367188e+01 6.777698581572622061e-05 -8.766698301769793034e-04 -2.426678547635674477e-04 -8.357657934539020061e-04
1.726000000000000000e+03 1.803824305534362793e+00 -3.637524414062500000e+01 -2.423749538138508797e-04 -6.150184199213981628e-04 -2.572180237621068954e-04 -5.883057019673287868e-04
1.727000000000000000e+03 4.231008529663085938e+01 2.045419311523437500e+01 6.717485785484313965e-01 7.540740489959716797e+00 2.463746547698974609e+00 1.452028989791870117e+00
1.728000000000000000e+03 4.210193634033203125e+01 1.965107536315917969e+01 6.248906850814819336e-01 7.961331367492675781e+00 2.575866460800170898e+00 1.356937050819396973e+00
1.729000000000000000e+03 4.120379257202148438e+01 1.121225833892822266e+01 1.650435090065002441e+00 1.132102012634277344e+01 3.891436338424682617e+00 -1.428058147430419922e+00
1.730000000000000000e+03 4.113888168334960938e+01 1.209220314025878906e+01 1.214654922485351562e+00 1.116630458831787109e+01 3.714287757873535156e+00 -1.064926266670227051e+00
1.731000000000000000e+03 2.728081321716308594e+01 -3.419669723510742188e+01 -1.813940405845642090e-01 1.992213726043701172e-02 -4.844157025218009949e-02 -1.237375363707542419e-01
1.732000000000000000e+03 2.096003150939941406e+01 -3.291267013549804688e+01 -9.527146071195602417e-02 -1.195387449115514755e-02 -3.216760233044624329e-02 -4.625115171074867249e-02
1.733000000000000000e+03 1.038030815124511719e+01 -1.686701202392578125e+01 2.418001895421184599e-05 7.787295908201485872e-05 3.061589450226165354e-05 -6.635576573899015784e-05
1.734000000000000000e+03 9.824584007263183594e+00 -1.651150512695312500e+01 1.075639102054992691e-05 -5.275032526697032154e-05 -1.259818054677452892e-05 2.270182449137791991e-05
1.735000000000000000e+03 8.790720939636230469e+00 -3.316868066787719727e+00 3.155210379190975800e-06 -4.066116161993704736e-06 -2.732717803155537695e-07 2.030798896157648414e-06
1.736000000000000000e+03 8.260767936706542969e+00 -2.564469814300537109e+00 2.426134187771822326e-06 -4.905878085992299020e-06 -7.439232376782456413e-07 8.328739227181358729e-07
1.737000000000000000e+03 5.933358669281005859e+00 -2.555369138717651367e+00 -2.400982566541642882e-06 4.800365331902867183e-06 7.198149205578374676e-07 1.738011746965639759e-06
1.738000000000000000e+03 7.371963024139404297e+00 -3.239227056503295898e+00 3.794334133999655023e-06 -3.414467073525884189e-06 1.139601124577893643e-07 1.000171323539689183e-06
1.739000000000000000e+03 4.346307277679443359e+00 -2.591114044189453125e+00 -8.488074172419146635e-07 4.250536676408955827e-06 1.020518766381428577e-06 3.916546575055690482e-06
1.740000000000000000e+03 6.618030071258544922e+00 -3.245330333709716797e+00 -4.071252988069318235e-06 3.616518597482354380e-06 -1.364203683351661311e-07 -4.406471276752199628e-08
1.741000000000000000e+03 3.497111797332763672e+00 -3.358642339706420898e+00 3.508278894059913000e-07 3.327102831462980248e-06 1.103379190681152977e-06 4.874686965194996446e-06
1.742000000000000000e+03 1.898740172386169434e+00 -4.199368476867675781e+00 -6.951818249945063144e-06 -1.947025566551019438e-06 -2.669653213160927407e-06 -5.140705525263911113e-06
1.743000000000000000e+03 5.066665172576904297e+00 -3.296141147613525391e+00 -3.343687012602458708e-06 4.031883236166322604e-06 2.064588926486976561e-07 2.535481144150253385e-06
1.744000000000000000e+03 4.284072399139404297e+00 -3.328073024749755859e+00 1.738333821776905097e-06 -3.840757017314899713e-06 -6.307269018179795239e-07 -4.026325768791139126e-06
1.745000000000000000e+03 1.876533508300781250e+00 -4.990703582763671875e+00 8.274099855043459684e-06 1.809291234167176299e-06 3.025017349500558339e-06 4.968065695720724761e-06
1.746000000000000000e+03 6.939218902587890625e+01 -5.258597850799560547e+00 7.981188297271728516e-01 8.729346275329589844e+00 2.858239650726318359e+00 2.010872364044189453e+00
1.747000000000000000e+03 6.477504730224609375e+01 -3.547584915161132812e+01 -7.296273857355117798e-02 2.634984850883483887e-01 5.716072767972946167e-02 2.566849291324615479e-01
1.748000000000000000e+03 6.301281738281250000e+01 -3.585484695434570312e+01 2.702524885535240173e-03 1.054862588644027710e-01 3.245663270354270935e-02 -4.147519543766975403e-02
1.749000000000000000e+03 7.059421539306640625e+01 1.383268117904663086e+00 1.126219749450683594e+00 1.409710121154785156e+01 4.566996097564697266e+00 1.386337757110595703e+00
1.750000000000000000e+03 7.108530426025390625e+01 2.285728073120117188e+01 1.660021990537643433e-01 8.009293556213378906e+00 2.452588796615600586e+00 2.867875695228576660e-01
1.751000000000000000e+03 4.897828674316406250e+01 3.196257400512695312e+01 2.170119434595108032e-02 1.913346052169799805e+00 5.805141329765319824e-01 7.532194852828979492e-01
1.752000000000000000e+03 6.838154602050781250e+01 -7.540644645690917969e+00 9.267988204956054688e-01 7.006804943084716797e+00 2.380081176757812500e+00 2.101650953292846680e+00
1.753000000000000000e+03 6.873480987548828125e+01 -6.787950992584228516e+00 8.158183097839355469e-01 7.587286949157714844e+00 2.520931720733642578e+00 2.075865268707275391e+00
1.754000000000000000e+03 6.646191406250000000e+01 3.384012222290039062e+01 -1.442651033401489258e+00 1.903064548969268799e-01 -3.757033646106719971e-01 6.255682110786437988e-01
1.755000000000000000e+03 7.136537933349609375e+01 3.834322214126586914e+00 3.891912698745727539e-01 1.280169105529785156e+01 3.957264900207519531e+00 7.715193033218383789e-01
1.756000000000000000e+03 4.913823318481445312e+01 -7.961458683013916016e+00 -1.688888818025588989e-01 4.575561523437500000e+00 1.322001814842224121e+00 -7.629550695419311523e-01
1.757000000000000000e+03 7.074819183349609375e+01 -1.299933552742004395e+00 7.811364531517028809e-01 1.169174098968505859e+01 3.741863250732421875e+00 1.569134235382080078e+00
1.758000000000000000e+03 3.381363296508789062e+01 -1.676048660278320312e+01 -8.570491075515747070e-01 2.771371006965637207e-01 -1.739736050367355347e-01 -1.000352352857589722e-01
1.759000000000000000e+03 2.670980262756347656e+01 -3.342757415771484375e+01 -2.134499400854110718e-01 1.707049272954463959e-02 -5.891383439302444458e-02 -9.979359805583953857e-02
1.760000000000000000e+03 4.700918960571289062e+01 -2.106754064559936523e+00 3.603947162628173828e-01 5.463447570800781250e+00 1.747152686119079590e+00 -1.969360947608947754e+00
1.761000000000000000e+03 6.104225540161132812e+01 -1.936796188354492188e+01 -1.221527576446533203e+00 2.158247709274291992e+00 2.810160815715789795e-01 2.718493223190307617e+00
1.762000000000000000e+03 4.320734024047851562e+01 3.784518957138061523e+00 8.956463336944580078e-01 7.559388160705566406e+00 2.536510467529296875e+00 -2.575308561325073242e+00
1.763000000000000000e+03 4.838566970825195312e+01 -5.739952087402343750e+00 1.299083232879638672e-01 5.007634639739990234e+00 1.541262865066528320e+00 -1.243430733680725098e+00
1.764000000000000000e+03 4.864386367797851562e+01 -6.476128101348876953e+00 2.048781886696815491e-02 4.905967235565185547e+00 1.477936506271362305e+00 -1.095543861389160156e+00
1.765000000000000000e+03 3.518787765502929688e+01 -1.695295333862304688e+01 -5.462923049926757812e-01 4.217490255832672119e-01 -3.736298903822898865e-02 -5.527210831642150879e-01
1.766000000000000000e+03 3.587991333007812500e+01 -1.696433639526367188e+01 -1.642060875892639160e-01 6.286364197731018066e-01 1.393290907144546509e-01 -1.004967927932739258e+00
1.767000000000000000e+03 9.756425857543945312e+00 -2.962162208557128906e+01 -1.844105892814695835e-03 3.445452312007546425e-04 -4.498681810218840837e-04 -1.496145734563469887e-03
1.768000000000000000e+03 1.154522228240966797e+01 -3.057673072814941406e+01 -4.975611809641122818e-03 2.601425629109144211e-03 -7.122557726688683033e-04 -1.325038378126919270e-03
1.769000000000000000e+03 4.937743759155273438e+01 -8.711945533752441406e+00 -2.200530618429183960e-01 4.345715522766113281e+00 1.237698674201965332e+00 -5.894440412521362305e-01
1.770000000000000000e+03 7.732845306396484375e+01 -3.131239891052246094e+01 1.018291637301445007e-01 6.516512393951416016e+00 1.985502362251281738e+00 -4.131876230239868164e-01
1.771000000000000000e+03 4.111131668090820312e+01 1.296810626983642578e+01 8.334836959838867188e-01 1.090608501434326172e+01 3.521870613098144531e+00 -6.379410028457641602e-01
1.772000000000000000e+03 6.685576629638671875e+01 3.535697937011718750e+01 -9.788898229598999023e-01 1.089022874832153320e+00 3.303992003202438354e-02 1.000450402498245239e-01
1.773000000000000000e+03 6.427704620361328125e+01 -1.281817054748535156e+01 1.995312809944152832e+00 3.281352281570434570e+00 1.582999467849731445e+00 2.269309997558593750e+00
1.774000000000000000e+03 6.237625122070312500e+01 -1.454953384399414062e+01 1.118876338005065918e+00 2.121680974960327148e+00 9.721671342849731445e-01 1.731626749038696289e+00
1.775000000000000000e+03 6.877475738525390625e+01 3.024767112731933594e+01 -6.544321179389953613e-01 2.642058134078979492e+00 5.962877869606018066e-01 -1.111825928092002869e-02
1.776000000000000000e+03 6.902014160156250000e+01 3.127621841430664062e+01 -1.017536163330078125e+00 2.980093002319335938e+00 5.887669920921325684e-01 9.818978607654571533e-02
1.777000000000000000e+03 6.410819244384765625e+01 -2.137674903869628906e+01 -7.026480436325073242e-01 1.174060702323913574e+00 1.414237916469573975e-01 1.608641505241394043e+00
1.778000000000000000e+03 4.302542495727539062e+01 2.289106369018554688e+01 7.876778841018676758e-01 6.361577987670898438e+00 2.144776821136474609e+00 1.511756300926208496e+00
1.779000000000000000e+03 4.362590789794921875e+01 2.812908935546875000e+01 8.277397602796554565e-02 4.421071052551269531e+00 1.351153492927551270e+00 8.537000417709350586e-01
1.780000000000000000e+03 8.704143524169921875e+00 -1.985264587402343750e+01 1.007224200293421745e-04 -3.492531686788424850e-05 1.973913094843737781e-05 -5.395114203565753996e-05
1.781000000000000000e+03 1.775093841552734375e+01 -3.343736648559570312e+01 -4.462824761867523193e-02 -1.299056224524974823e-02 -1.728564314544200897e-02 -3.585241734981536865e-02
1.782000000000000000e+03 5.972544860839843750e+01 -1.675833320617675781e+01 -2.414143562316894531e+00 1.391961336135864258e+00 -3.066546618938446045e-01 1.571677565574645996e+00
1.783000000000000000e+03 6.969502258300781250e+01 -4.480400085449218750e+00 8.028026819229125977e-01 9.292892456054687500e+00 3.028708457946777344e+00 2.006314516067504883e+00
1.784000000000000000e+03 6.924159240722656250e+01 -3.290665054321289062e+01 5.061825513839721680e-01 3.180943965911865234e+00 1.106137990951538086e+00 1.510923266410827637e+00
1.785000000000000000e+03 7.052272033691406250e+01 -3.262368392944335938e+01 2.573041915893554688e-01 5.078441619873046875e+00 1.600723743438720703e+00 1.492090940475463867e+00
1.786000000000000000e+03 4.279856491088867188e+01 2.484773445129394531e+01 4.847441017627716064e-01 5.571105957031250000e+00 1.816754937171936035e+00 1.101608872413635254e+00
1.787000000000000000e+03 3.568263244628906250e+01 -3.490622711181640625e+01 -5.014572292566299438e-02 4.534487426280975342e-01 1.209909021854400635e-01 3.433921933174133301e-01
1.788000000000000000e+03 1.570211791992187500e+01 -1.222649383544921875e+01 -1.287998293264536187e-05 -1.104738021240336820e-05 -7.178208761615678668e-06 -1.234444789588451385e-05
1.789000000000000000e+03 5.084969329833984375e+01 3.405501937866210938e+01 -3.795395195484161377e-01 1.168511986732482910e+00 2.366917431354522705e-01 4.255428910255432129e-01
1.790000000000000000e+03 6.916815948486328125e+01 2.947898292541503906e+01 -3.252127766609191895e-01 3.502356529235839844e+00 9.531431198120117188e-01 -8.520175516605377197e-02
1.791000000000000000e+03 7.091015625000000000e+01 2.536745262145996094e+01 2.412071824073791504e-01 7.180527687072753906e+00 2.226520538330078125e+00 2.373605370521545410e-01
1.792000000000000000e+03 7.078941345214843750e+01 2.622789955139160156e+01 1.385881602764129639e-01 6.795546054840087891e+00 2.080240249633789062e+00 1.983110010623931885e-01
1.793000000000000000e+03 4.770643997192382812e+01 3.130415916442871094e+01 5.223830416798591614e-02 2.525666475296020508e+00 7.733714580535888672e-01 9.008108377456665039e-01
1.794000000000000000e+03 6.125353240966796875e+01 -1.605523109436035156e+01 -8.648669123649597168e-01 1.943466067314147949e+00 3.235797584056854248e-01 1.633739233016967773e+00
1.795000000000000000e+03 5.004385375976562500e+01 3.351615142822265625e+01 -3.124436438083648682e-01 1.527763605117797852e+00 3.645960092544555664e-01 5.050101280212402344e-01
1.796000000000000000e+03 4.128672409057617188e+01 -3.174077415466308594e+01 7.775988578796386719e-01 5.961445808410644531e+00 2.021713495254516602e+00 2.328532695770263672e+00
1.797000000000000000e+03 7.980117321014404297e+00 -1.956803703308105469e+01 6.156168092275038362e-05 9.059670264832675457e-05 4.564751361613161862e-05 2.587252492958214134e-05
1.798000000000000000e+03 1.407839012145996094e+01 -3.250542449951171875e+01 -2.180878445506095886e-02 -2.231896389275789261e-03 -7.212203927338123322e-03 -1.195816602557897568e-02
1.799000000000000000e+03 4.485853958129882812e+01 2.682143783569335938e+01 5.843760371208190918e-01 4.446333885192871094e+00 1.509212970733642578e+00 1.451010584831237793e+00
1.800000000000000000e+03 4.377808761596679688e+01 -2.424534034729003906e+01 2.178515195846557617e+00 1.223092651367187500e+01 4.322832584381103516e+00 -2.471065044403076172e+00
1.801000000000000000e+03 5.532894134521484375e+01 -2.751960182189941406e+01 2.073315143585205078e+00 4.681867599487304688e+00 2.026554822921752930e+00 1.001078844070434570e+00
1.802000000000000000e+03 5.581603622436523438e+01 -2.678030395507812500e+01 2.326747179031372070e+00 4.083653450012207031e+00 1.923120141029357910e+00 1.504538178443908691e+00
1.803000000000000000e+03 4.365111160278320312e+01 2.451604652404785156e+01 6.880391836166381836e-01 5.613867282867431641e+00 1.890571951866149902e+00 1.502737402915954590e+00
1.804000000000000000e+03 2.302931976318359375e+01 -3.456410980224609375e+01 -7.016650587320327759e-02 -2.045657671988010406e-02 -2.718692459166049957e-02 -9.131406247615814209e-02
1.805000000000000000e+03 7.127013397216796875e+01 7.065393924713134766e+00 5.155665874481201172e-01 1.179765033721923828e+01 3.693964958190917969e+00 2.342649549245834351e-01
1.806000000000000000e+03 5.788663864135742188e+01 -3.840793609619140625e+01 3.524579405784606934e-01 2.525218725204467773e+00 8.633030056953430176e-01 -9.907580018043518066e-01
1.807000000000000000e+03 6.585482788085937500e+01 -1.188951778411865234e+01 1.668956398963928223e+00 4.084423065185546875e+00 1.726013779640197754e+00 2.009196519851684570e+00
1.808000000000000000e+03 6.478517150878906250e+01 -1.327056217193603516e+01 1.559640169143676758e+00 3.319118022918701172e+00 1.463627457618713379e+00 1.895118594169616699e+00
1.809000000000000000e+03 6.783180999755859375e+01 3.351712036132812500e+01 -1.204658031463623047e+00 1.655577063560485840e+00 1.352756917476654053e-01 1.844721436500549316e-01
1.810000000000000000e+03 6.739284515380859375e+01 3.439738082885742188e+01 -1.153269648551940918e+00 1.411382436752319336e+00 7.743385434150695801e-02 1.495712995529174805e-01
1.811000000000000000e+03 5.869184112548828125e+01 -1.645421791076660156e+01 -3.643061876296997070e+00 5.471483469009399414e-01 -9.287739992141723633e-01 7.586640119552612305e-01
1.812000000000000000e+03 6.048853683471679688e+01 -1.644459152221679688e+01 -1.570024132728576660e+00 1.709925889968872070e+00 4.197055101394653320e-02 1.523934245109558105e+00
1.813000000000000000e+03 7.050473022460937500e+01 -2.112502336502075195e+00 7.216618657112121582e-01 1.111267185211181641e+01 3.550300121307373047e+00 1.775613546371459961e+00
1.814000000000000000e+03 1.241768360137939453e+01 2.754162311553955078e+00 -8.054679632186889648e-01 -1.005771517753601074e+00 -5.433718562126159668e-01 1.029902219772338867e+00
1.815000000000000000e+03 1.377911186218261719e+01 1.927601933479309082e+00 -1.038429856300354004e+00 -1.119077920913696289e+00 -6.472523212432861328e-01 1.102010607719421387e+00
1.816000000000000000e+03 1.180267810821533203e+01 3.291626214981079102e+00 -6.318798661231994629e-01 -9.537161588668823242e-01 -4.756788015365600586e-01 1.012558579444885254e+00
1.817000000000000000e+03 1.121525955200195312e+01 2.632971525192260742e+00 -8.721357583999633789e-01 -8.596928715705871582e-01 -5.195485949516296387e-01 9.937776923179626465e-01
1.818000000000000000e+03 6.809493255615234375e+01 -3.534358978271484375e+01 1.398103833198547363e-01 2.207599639892578125e+00 7.042229771614074707e-01 1.082558155059814453e+00
1.819000000000000000e+03 2.445764541625976562e+01 -3.421537399291992188e+01 -1.033702790737152100e-01 -1.510878652334213257e-02 -3.554372116923332214e-02 -1.039085984230041504e-01
1.820000000000000000e+03 6.933607482910156250e+01 -3.435739517211914062e+01 1.641383208334445953e-02 3.331587076187133789e+00 1.004400253295898438e+00 1.249212980270385742e+00
1.821000000000000000e+03 6.721707916259765625e+01 -9.752895355224609375e+00 1.233205437660217285e+00 5.475158691406250000e+00 2.012509346008300781e+00 2.092282772064208984e+00
1.822000000000000000e+03 5.216568374633789062e+01 -1.400034236907958984e+01 -2.417823791503906250e+00 2.424093931913375854e-01 -6.526243090629577637e-01 1.428822278976440430e+00
1.823000000000000000e+03 5.031981277465820312e+01 -1.502402210235595703e+01 -2.834301471710205078e+00 3.596162796020507812e+00 2.285584360361099243e-01 7.140291929244995117e-01
1.824000000000000000e+03 1.699984359741210938e+01 -1.271909999847412109e+01 3.765357860174844973e-06 7.886237085585889872e-07 1.366194510410423391e-06 -3.086575588895357214e-06
1.825000000000000000e+03 1.705195236206054688e+01 -9.666783332824707031e+00 -4.161450739559313661e-09 4.792079835169715807e-06 1.436375441699055955e-06 2.318342467333422974e-06
1.826000000000000000e+03 5.692368316650390625e+01 -2.540620422363281250e+01 2.936298847198486328e+00 2.801368951797485352e+00 1.721300363540649414e+00 2.050404310226440430e+00
1.827000000000000000e+03 4.137134170532226562e+01 1.639281845092773438e+01 7.946614623069763184e-01 9.453269958496093750e+00 3.074379444122314453e+00 6.604226231575012207e-01
1.828000000000000000e+03 6.505229187011718750e+01 4.034573364257812500e+01 2.601598501205444336e-01 2.906310856342315674e-01 1.652372926473617554e-01 6.574001163244247437e-02
1.829000000000000000e+03 7.683428192138671875e+01 2.532799339294433594e+01 2.837519347667694092e-02 9.327544212341308594e+00 2.806775808334350586e+00 8.184658288955688477e-01
1.830000000000000000e+03 8.920846939086914062e+00 -1.796391105651855469e+01 6.161539931781589985e-05 -7.347115115408087149e-06 1.628048448765184730e-05 1.612088271940592676e-05
1.831000000000000000e+03 8.458493232727050781e+00 -1.872723770141601562e+01 -8.316148159792646766e-05 -3.709668089868500829e-05 -3.607745020417496562e-05 -1.928055280586704612e-05
1.832000000000000000e+03 7.136134338378906250e+01 3.005973815917968750e+00 6.569835543632507324e-01 1.284909439086914062e+01 4.051823616027832031e+00 9.945556521415710449e-01
1.833000000000000000e+03 7.046562194824218750e+01 -2.052289962768554688e+01 -2.382748842239379883e+00 3.728152751922607422e+00 4.036211371421813965e-01 -1.176558732986450195e+00
1.834000000000000000e+03 5.299658584594726562e+01 -1.631378555297851562e+01 -4.065900325775146484e+00 4.059303998947143555e-01 -1.097990989685058594e+00 7.733868360519409180e-01
1.835000000000000000e+03 5.366322708129882812e+01 -1.594315719604492188e+01 -5.497979640960693359e+00 -8.065671324729919434e-01 -1.891364097595214844e+00 1.962156653404235840e+00
1.836000000000000000e+03 7.117497253417968750e+01 3.956481516361236572e-01 1.090779304504394531e+00 1.242468738555908203e+01 4.054640293121337891e+00 1.207455635070800781e+00
1.837000000000000000e+03 7.129682922363281250e+01 1.278376579284667969e+00 1.122274398803710938e+00 1.260922718048095703e+01 4.119450569152832031e+00 1.126909852027893066e+00
1.838000000000000000e+03 1.582515716552734375e+01 -3.293933868408203125e+01 -3.236558660864830017e-02 -6.187027320265769958e-03 -1.156578399240970612e-02 -2.228255756199359894e-02
1.839000000000000000e+03 1.958137893676757812e+01 -3.298527526855468750e+01 -6.881408393383026123e-02 -1.362054143100976944e-02 -2.473038621246814728e-02 -4.064893350005149841e-02
1.840000000000000000e+03 4.427467346191406250e+01 -2.285481071472167969e+01 3.083416938781738281e+00 1.097267246246337891e+01 4.216826915740966797e+00 -2.502103567123413086e+00
1.841000000000000000e+03 8.359896659851074219e+00 -2.874440002441406250e+01 -1.678788685239851475e-04 -1.500400539953261614e-04 -9.537567530060186982e-05 2.038981474470347166e-04
1.842000000000000000e+03 4.214507675170898438e+01 9.565388679504394531e+00 1.961430788040161133e+00 1.268397903442382812e+01 4.393622875213623047e+00 -2.419435739517211914e+00
1.843000000000000000e+03 5.753354644775390625e+01 -2.477923583984375000e+01 3.080833435058593750e+00 2.397106885910034180e+00 1.643382072448730469e+00 2.188745260238647461e+00
1.844000000000000000e+03 6.851261138916015625e+01 -3.424684524536132812e+01 1.196110770106315613e-01 2.475754022598266602e+00 7.786095142364501953e-01 1.258164286613464355e+00
1.845000000000000000e+03 4.001629257202148438e+01 -1.811799430847167969e+01 1.282485961914062500e+00 6.456945896148681641e+00 2.321829557418823242e+00 -3.490883111953735352e+00
1.846000000000000000e+03 3.952079772949218750e+01 -1.855462455749511719e+01 2.449655771255493164e+00 5.439176082611083984e+00 2.366649627685546875e+00 -3.484630346298217773e+00
1.847000000000000000e+03 7.471921539306640625e+01 -2.255327224731445312e+01 -5.581803321838378906e-01 7.680874824523925781e+00 2.136808395385742188e+00 9.785483479499816895e-01
1.848000000000000000e+03 2.443855476379394531e+01 -7.235375404357910156e+00 -1.400887131690979004e+00 -7.132950425148010254e-01 -6.342546939849853516e-01 1.068672299385070801e+00
1.849000000000000000e+03 7.295571136474609375e+01 -2.861376953125000000e+01 1.472056746482849121e+00 8.959252357482910156e+00 3.129392862319946289e+00 7.304508090019226074e-01
1.850000000000000000e+03 3.244619369506835938e+01 -3.401589584350585938e+01 -4.299724698066711426e-01 2.766869589686393738e-02 -1.206911280751228333e-01 -1.279632002115249634e-01
1.851000000000000000e+03 4.177159118652343750e+01 -3.263661193847656250e+01 -9.886996448040008545e-02 6.568106174468994141e+00 1.940770864486694336e+00 1.639301061630249023e+00
1.852000000000000000e+03 4.235568618774414062e+01 -2.105082511901855469e+01 3.459450244903564453e+00 1.296085548400878906e+01 4.926091670989990234e+00 -2.958491325378417969e+00
1.853000000000000000e+03 4.251858901977539062e+01 -1.929059028625488281e+01 1.097420096397399902e+00 1.038434600830078125e+01 3.444529771804809570e+00 -2.443776130676269531e+00
1.854000000000000000e+03 3.918338394165039062e+01 -3.458295440673828125e+01 1.764004305005073547e-02 2.552291870117187500e+00 7.709795236587524414e-01 1.494850635528564453e+00
1.855000000000000000e+03 4.016319274902343750e+01 -3.393263626098632812e+01 -1.883483678102493286e-02 3.649585723876953125e+00 1.089225292205810547e+00 1.714521527290344238e+00
1.856000000000000000e+03 7.017287445068359375e+01 2.884857177734375000e+01 -3.164241313934326172e-01 5.060328006744384766e+00 1.423171162605285645e+00 1.660246849060058594e-01
1.857000000000000000e+03 6.984582519531250000e+01 2.970999908447265625e+01 -5.725044608116149902e-01 4.372798919677734375e+00 1.140088319778442383e+00 1.737345904111862183e-01
1.858000000000000000e+03 2.293815422058105469e+01 -5.214831352233886719e+00 -1.525873303413391113e+00 -9.810408949851989746e-01 -7.520742416381835938e-01 1.138772368431091309e+00
1.859000000000000000e+03 2.239068603515625000e+01 -4.572474956512451172e+00 -1.550306320190429688e+00 -1.072190284729003906e+00 -7.867490053176879883e-01 1.155881643295288086e+00
1.860000000000000000e+03 1.329318046569824219e+01 -3.212754821777343750e+01 -1.757676340639591217e-02 1.923185074701905251e-03 -4.696073476225137711e-03 -8.545084856450557709e-03
1.861000000000000000e+03 1.410526466369628906e+01 -1.279802417755126953e+01 1.247073487320449203e-05 1.209628317155875266e-05 7.370105322479503229e-06 -1.066583899955730885e-05
1.862000000000000000e+03 5.849387741088867188e+01 -1.784346389770507812e+01 -2.783994674682617188e+00 6.374084353446960449e-01 -6.439758539199829102e-01 2.274547815322875977e+00
1.863000000000000000e+03 1.958544349670410156e+01 -1.290449333190917969e+01 1.291410740122955758e-06 2.095834133797325194e-06 1.016173428070032969e-06 4.181025360594503582e-06
1.864000000000000000e+03 1.955182075500488281e+01 -1.173418426513671875e+01 -4.579757444389542798e-07 -9.000740647024940699e-06 -2.837615056705544703e-06 -2.406732619419926777e-06
1.865000000000000000e+03 1.591883850097656250e+01 7.769015431404113770e-01 -1.243476390838623047e+00 -1.277013063430786133e+00 -7.561468482017517090e-01 1.178247094154357910e+00
1.866000000000000000e+03 7.606904506683349609e+00 -2.144361114501953125e+01 3.226973785785958171e-05 -1.281314616790041327e-04 -2.875851896533276886e-05 1.505228192399954423e-05
1.867000000000000000e+03 7.248765563964843750e+01 -2.943685913085937500e+01 1.244746446609497070e+00 8.879125595092773438e+00 3.037161588668823242e+00 8.389558196067810059e-01
1.868000000000000000e+03 1.999651908874511719e+01 -2.184947013854980469e+00 -1.525862216949462891e+00 -1.323272228240966797e+00 -8.547403216361999512e-01 1.199805259704589844e+00
1.869000000000000000e+03 7.116137695312500000e+01 8.645922660827636719e+00 7.256232947111129761e-02 1.095448207855224609e+01 3.308113336563110352e+00 4.268022775650024414e-01
1.870000000000000000e+03 3.803051757812500000e+01 -3.501065444946289062e+01 7.760050892829895020e-02 1.637668013572692871e+00 5.145805478096008301e-01 1.181465864181518555e+00
1.871000000000000000e+03 7.107585144042968750e+01 -3.181236648559570312e+01 3.792049884796142578e-01 6.197060585021972656e+00 1.972879648208618164e+00 1.536094069480895996e+00
1.872000000000000000e+03 7.727658843994140625e+01 -3.221664047241210938e+01 2.872288459911942482e-03 6.557441711425781250e+00 1.968094229698181152e+00 -4.461701214313507080e-01
1.873000000000000000e+03 6.945424652099609375e+01 3.052458190917968750e+01 -8.181606531143188477e-01 3.665640830993652344e+00 8.542441129684448242e-01 1.422722935676574707e-01
1.874000000000000000e+03 1.271451187133789062e+01 -3.282044219970703125e+01 -1.206588000059127808e-02 -2.550104865804314613e-03 -4.384795669466257095e-03 -1.070355530828237534e-02
1.875000000000000000e+03 5.067166137695312500e+01 -1.270911598205566406e+01 -1.629823088645935059e+00 2.721938371658325195e+00 3.276346027851104736e-01 8.572390675544738770e-01
1.876000000000000000e+03 5.107120895385742188e+01 -1.354054737091064453e+01 -2.135889291763305664e+00 2.258014202117919922e+00 3.663745895028114319e-02 1.063123583793640137e+00
1.877000000000000000e+03 7.102724456787109375e+01 1.404055976867675781e+01 1.611067503690719604e-01 9.360414505004882812e+00 2.856456518173217773e+00 3.393079340457916260e-01
1.878000000000000000e+03 4.130714797973632812e+01 1.032855606079101562e+01 1.992467403411865234e+00 1.127473735809326172e+01 3.980161428451538086e+00 -1.689574122428894043e+00
1.879000000000000000e+03 4.146194839477539062e+01 9.440740585327148438e+00 2.011967897415161133e+00 1.106132984161376953e+01 3.921989440917968750e+00 -1.874310016632080078e+00
1.880000000000000000e+03 8.501515388488769531e+00 -2.598740768432617188e+01 1.727365306578576565e-04 1.088113058358430862e-04 8.446435094811022282e-05 -6.750974571332335472e-04
1.881000000000000000e+03 5.882786941528320312e+01 -2.364289283752441406e+01 2.842368364334106445e+00 2.087021112442016602e+00 1.478816747665405273e+00 2.275463104248046875e+00
1.882000000000000000e+03 1.796717262268066406e+01 -8.849849700927734375e+00 -7.634853318450041115e-06 2.457451046211645007e-06 -1.553220840833091643e-06 3.880174688219995005e-07
1.883000000000000000e+03 6.070265960693359375e+01 -3.730813980102539062e+01 6.442149877548217773e-01 7.741790413856506348e-01 4.255182147026062012e-01 -6.063141822814941406e-01
1.884000000000000000e+03 4.377938079833984375e+01 -2.179137992858886719e+01 3.576914310455322266e+00 1.156173801422119141e+01 4.541595935821533203e+00 -2.269068241119384766e+00
1.885000000000000000e+03 6.832201385498046875e+01 -1.994607734680175781e+01 -1.676111221313476562e+00 5.472421646118164062e-01 -3.386607170104980469e-01 -2.445043623447418213e-02
1.886000000000000000e+03 6.966726684570312500e+01 -2.118263626098632812e+01 -2.924309968948364258e+00 1.855425715446472168e+00 -3.206652402877807617e-01 -9.654942154884338379e-01
1.887000000000000000e+03 6.614620971679687500e+01 3.639435958862304688e+01 -6.453449130058288574e-01 6.030207872390747070e-01 -1.269723754376173019e-02 1.428693979978561401e-01
1.888000000000000000e+03 2.592746734619140625e+00 3.322882175445556641e+00 -1.014916896820068359e-01 -1.605059057474136353e-01 -7.859928160905838013e-02 1.725359559059143066e-01
1.889000000000000000e+03 5.573776245117187500e+01 -1.739988517761230469e+01 -4.501851081848144531e+00 -1.843847274780273438e+00 -1.903709530830383301e+00 1.294563174247741699e+00
1.890000000000000000e+03 3.961965179443359375e+01 -1.758530235290527344e+01 8.013876080513000488e-01 5.852255821228027344e+00 1.996093034744262695e+00 -3.169444799423217773e+00
1.891000000000000000e+03 8.683808326721191406e+00 -2.774623680114746094e+01 9.078845032490789890e-04 4.024217560072429478e-05 2.844379923772066832e-04 8.971413626568391919e-05
1.892000000000000000e+03 1.093046092987060547e+01 -1.412978458404541016e+01 7.676340464968234301e-05 9.333739581052213907e-05 5.103024159325286746e-05 -4.055655153933912516e-05
1.893000000000000000e+03 1.072766590118408203e+01 -1.498290538787841797e+01 -5.387523560784757137e-05 -6.975402357056736946e-05 -3.708877920871600509e-05 2.358979691052809358e-05
1.894000000000000000e+03 7.186481475830078125e+01 -2.321700477600097656e+01 -6.493017077445983887e-01 8.126337051391601562e+00 2.243110418319702148e+00 5.181630328297615051e-02
1.895000000000000000e+03 7.118018341064453125e+01 -2.062969398498535156e+01 -2.305510044097900391e+00 5.037483215332031250e+00 8.195919990539550781e-01 -1.088621497154235840e+00
1.896000000000000000e+03 5.556275177001953125e+01 -2.866561508178710938e+01 1.556424736976623535e+00 5.803717613220214844e+00 2.208042621612548828e+00 9.006566405296325684e-01
1.897000000000000000e+03 5.449135208129882812e+01 -2.903504180908203125e+01 1.919477462768554688e+00 5.515319347381591797e+00 2.230438947677612305e+00 -1.997597366571426392e-01
1.898000000000000000e+03 5.656787872314453125e+01 -1.928648185729980469e+01 -1.069083094596862793e+00 -3.401002883911132812e-01 -4.227550327777862549e-01 1.720438122749328613e+00
1.899000000000000000e+03 1.925604462623596191e+00 -3.417025327682495117e+00 5.551012236537644640e-06 1.971425717783859000e-06 2.256731477245921269e-06 4.930788691126508638e-06
1.900000000000000000e+03 3.726219940185546875e+01 -1.696589088439941406e+01 2.585144340991973877e-01 1.938116073608398438e+00 6.589891910552978516e-01 -2.017693281173706055e+00
1.901000000000000000e+03 3.772083282470703125e+01 -1.736520576477050781e+01 4.677178263664245605e-01 2.400985956192016602e+00 8.606111407279968262e-01 -2.267643213272094727e+00
1.902000000000000000e+03 4.347969436645507812e+01 -3.187280082702636719e+01 3.697428703308105469e-01 8.007759094238281250e+00 2.513250589370727539e+00 2.818813025951385498e-01
1.903000000000000000e+03 2.601709365844726562e+00 -2.756645393371582031e+01 -1.383345079375430942e-04 -8.151410293066874146e-05 -6.595458398805931211e-05 3.900330630131065845e-04
1.904000000000000000e+03 6.789740562438964844e+00 -2.595402717590332031e+01 8.810024010017514229e-04 4.641544364858418703e-05 2.782253432087600231e-04 3.735380232683382928e-05
1.905000000000000000e+03 5.172957992553710938e+01 3.541114044189453125e+01 -5.662943720817565918e-01 8.851685523986816406e-01 9.566226601600646973e-02 3.355011343955993652e-01
1.906000000000000000e+03 4.216324996948242188e+01 -1.994699478149414062e+01 2.040107727050781250e+00 1.109877300262451172e+01 3.941664218902587891e+00 -3.010550498962402344e+00
1.907000000000000000e+03 4.176841354370117188e+01 -2.059337806701660156e+01 2.977942466735839844e+00 1.322444438934326172e+01 4.860715866088867188e+00 -4.517489910125732422e+00
1.908000000000000000e+03 4.406159210205078125e+01 -2.854907798767089844e+01 2.020921230316162109e+00 1.003608894348144531e+01 3.617103099822998047e+00 -1.547892689704895020e-01
1.909000000000000000e+03 4.312960815429687500e+01 -2.875949478149414062e+01 2.421026468276977539e+00 1.114657211303710938e+01 4.070279598236083984e+00 9.773060679435729980e-01
1.910000000000000000e+03 5.341367340087890625e+01 -1.699615287780761719e+01 -3.821402549743652344e+00 3.430443257093429565e-02 -1.136129379272460938e+00 5.298805832862854004e-01
1.911000000000000000e+03 5.442033767700195312e+01 -1.837176132202148438e+01 -2.092338562011718750e+00 -5.814146995544433594e-01 -8.021259903907775879e-01 2.667531371116638184e-01
1.912000000000000000e+03 5.422316741943359375e+01 -3.181375503540039062e+01 1.816147089004516602e+00 5.732694625854492188e+00 2.264652490615844727e+00 -7.287446856498718262e-01
1.913000000000000000e+03 5.986306381225585938e+01 3.637432098388671875e+01 -1.689963817596435547e+00 -2.467285245656967163e-01 -5.810077190399169922e-01 2.752200067043304443e-01
1.914000000000000000e+03 5.580258178710937500e+01 -3.389563751220703125e+01 5.970008373260498047e-01 4.911052227020263672e+00 1.652415871620178223e+00 -1.058260321617126465e+00
1.915000000000000000e+03 5.591015243530273438e+01 -3.311996078491210938e+01 9.678600430488586426e-01 5.706713199615478516e+00 2.002372026443481445e+00 -1.449199795722961426e+00
1.916000000000000000e+03 9.405055999755859375e+00 3.837652683258056641e+00 -5.074698925018310547e-01 -6.769216060638427734e-01 -3.553174436092376709e-01 9.132083058357238770e-01
1.917000000000000000e+03 6.418586730957031250e+01 -1.393329143524169922e+01 1.272689580917358398e+00 2.959314823150634766e+00 1.269601345062255859e+00 1.873239278793334961e+00
1.918000000000000000e+03 6.106931686401367188e+01 -2.170382118225097656e+01 6.105254292488098145e-01 2.139267683029174805e+00 8.249379396438598633e-01 2.517580270767211914e+00
1.919000000000000000e+03 6.343133163452148438e+01 -2.219506263732910156e+01 5.494254827499389648e-01 8.567289710044860840e-01 4.218463301658630371e-01 1.524337172508239746e+00
1.920000000000000000e+03 1.930474638938903809e+00 -4.088008880615234375e+01 -7.036033784970641136e-04 -2.496588858775794506e-04 -2.859786909539252520e-04 5.013918053009547293e-05
1.921000000000000000e+03 1.021363830566406250e+01 -4.953595161437988281e+00 -6.225600372999906540e-06 3.829791694442974404e-06 -7.187426263044471852e-07 -3.934143933292943984e-06
1.922000000000000000e+03 1.209195518493652344e+01 -5.039398670196533203e+00 -5.538193818210856989e-06 6.143675364000955597e-06 1.816445092117646709e-07 -2.112404899889952503e-06
1.923000000000000000e+03 1.506817722320556641e+01 -6.241295814514160156e+00 -5.917365797358797863e-06 4.089155481779016554e-06 -5.484631060426181648e-07 -7.289991685865970794e-07
1.924000000000000000e+03 1.669638061523437500e+01 -8.349071502685546875e+00 1.282212087971856818e-05 -5.984310519124846905e-06 2.051343244602321647e-06 2.059758799077826552e-06
1.925000000000000000e+03 1.293524932861328125e+01 -4.779781341552734375e+00 -4.391623861010884866e-06 5.432405487226787955e-06 3.122344764960871544e-07 -1.601023200237250421e-06
1.926000000000000000e+03 1.315702915191650391e+01 -5.662413597106933594e+00 -5.470544692798284814e-06 6.041687356628244743e-06 1.713427479899110040e-07 -1.767062485669157468e-06
1.927000000000000000e+03 1.953260040283203125e+01 -1.228893280029296875e+01 -2.536533429520204663e-06 5.711377980333054438e-06 9.524533766125387046e-07 -2.497429704817477614e-06
1.928000000000000000e+03 1.180427169799804688e+01 -4.188878536224365234e+00 -4.098251793038798496e-06 5.893732577533228323e-06 5.386443149291153532e-07 -2.015143309108680114e-06
1.929000000000000000e+03 9.849414825439453125e+00 -4.186530590057373047e+00 -4.367885139799909666e-06 4.069299848197260872e-06 -8.957552921629030607e-08 -3.414904085730086081e-06
1.930000000000000000e+03 8.098102569580078125e+00 -3.259971380233764648e+00 -3.776777248276630417e-06 3.594442887333570980e-06 -5.470034736276829790e-08 -1.603035798325436190e-06
1.931000000000000000e+03 9.249061584472656250e+00 -4.065526008605957031e+00 3.790394202951574698e-06 -2.862105247913859785e-06 2.784866808269725880e-07 3.300613343526492827e-06
1.932000000000000000e+03 6.976213836669921875e+01 -2.037327575683593750e+01 -2.416180133819580078e+00 2.414234876632690430e+00 -5.835891352035105228e-04 -1.232830643653869629e+00
1.933000000000000000e+03 7.166058349609375000e+01 1.244392967224121094e+01 -4.291091263294219971e-01 9.546631813049316406e+00 2.735256671905517578e+00 2.967468500137329102e-01
1.934000000000000000e+03 7.167922973632812500e+01 1.322324180603027344e+01 -1.634705513715744019e-01 9.336235046386718750e+00 2.751829147338867188e+00 3.016976118087768555e-01
1.935000000000000000e+03 7.098843383789062500e+01 1.324241542816162109e+01 -9.454394876956939697e-02 9.442162513732910156e+00 2.804285526275634766e+00 2.557897865772247314e-01
1.936000000000000000e+03 3.262723159790039062e+01 -1.589846611022949219e+01 -8.076125979423522949e-01 3.554553687572479248e-01 -1.356471627950668335e-01 6.269609183073043823e-02
1.937000000000000000e+03 1.657659721374511719e+01 -7.484858512878417969e+00 8.644225999887567014e-06 -4.144419108342844993e-06 1.349942067463416606e-06 6.234943725758057553e-07
1.938000000000000000e+03 1.558178043365478516e+01 -6.651809215545654297e+00 6.354299330268986523e-06 -4.037822691316250712e-06 6.949429689484531991e-07 5.592514185082109179e-07
1.939000000000000000e+03 1.645376777648925781e+01 -1.100730037689208984e+01 -1.520923524367390200e-05 -1.175735451397486031e-05 -8.089977200143039227e-06 -4.731578883365727961e-06
1.940000000000000000e+03 1.417701339721679688e+01 -6.371323108673095703e+00 -7.101658411556854844e-06 5.045643774792551994e-06 -6.168043000798206776e-07 -7.676390509914199356e-07
1.941000000000000000e+03 1.809774208068847656e+01 -9.716455459594726562e+00 -9.719054105516988784e-06 -3.790706614381633699e-06 -4.052928034070646390e-06 -5.269007488095667213e-06
1.942000000000000000e+03 1.622679519653320312e+01 -1.167009735107421875e+01 1.284692825720412657e-05 2.686392690520733595e-05 1.191325645777396858e-05 1.075178806786425412e-05
1.943000000000000000e+03 1.720275115966796875e+01 -1.114508914947509766e+01 9.754870006872806698e-06 1.028872611641418189e-05 6.013078746036626399e-06 7.171041033871006221e-06
1.944000000000000000e+03 4.467757415771484375e+01 -3.629293918609619141e+00 -3.177210092544555664e-01 5.710682392120361328e+00 1.617888450622558594e+00 -1.483397603034973145e+00
1.945000000000000000e+03 4.689698028564453125e+01 -3.728380441665649414e+00 1.042402088642120361e-01 5.380609512329101562e+00 1.645454883575439453e+00 -1.621011018753051758e+00
1.946000000000000000e+03 2.009703254699707031e+01 -1.176499271392822266e+01 -9.355874681205023080e-06 6.384319021890405566e-06 -8.914665841075475328e-07 -2.955061290776939131e-06
1.947000000000000000e+03 2.944636344909667969e+01 -3.439349365234375000e+01 -2.363998740911483765e-01 3.275326639413833618e-02 -6.109398230910301208e-02 -1.385582238435745239e-01
1.948000000000000000e+03 1.099495124816894531e+01 -4.543073177337646484e+00 -4.867181814915966243e-06 5.458709438244113699e-06 1.774582898406151799e-07 -2.985876108141383156e-06
1.949000000000000000e+03 1.263173294067382812e+01 -5.335067272186279297e+00 5.545244221139000729e-06 -6.325687991193262860e-06 -2.341331395427914686e-07 2.153698687834548764e-06
1.950000000000000000e+03 4.036677932739257812e+01 1.390040111541748047e+01 9.471756815910339355e-01 9.677247047424316406e+00 3.187326669692993164e+00 -4.417236447334289551e-01
1.951000000000000000e+03 4.124933624267578125e+01 1.554889488220214844e+01 7.179241180419921875e-01 9.812173843383789062e+00 3.159029483795166016e+00 4.792578220367431641e-01
1.952000000000000000e+03 2.916775131225585938e+01 -1.515710639953613281e+01 -7.942721247673034668e-01 -5.359986796975135803e-02 -2.543615996837615967e-01 5.720890760421752930e-01
1.953000000000000000e+03 1.332169628143310547e+01 -1.316368198394775391e+01 2.971039748445036821e-06 -2.476996087352745235e-06 1.482130898011746467e-07 2.903393033193424344e-05
1.954000000000000000e+03 3.199029159545898438e+01 -1.572598075866699219e+01 -8.347683548927307129e-01 3.278500139713287354e-01 -1.520754992961883545e-01 1.827491521835327148e-01
1.955000000000000000e+03 2.688255310058593750e+01 -3.532041931152343750e+01 -7.929628342390060425e-02 4.715326707810163498e-03 -2.237428538501262665e-02 -1.415048241615295410e-01
1.956000000000000000e+03 2.395228004455566406e+01 -3.278963470458984375e+01 -1.600166112184524536e-01 -9.594490984454751015e-04 -4.829281568527221680e-02 -6.589455902576446533e-02
1.957000000000000000e+03 2.873707771301269531e+01 -1.352048778533935547e+01 -7.485991716384887695e-01 7.719994336366653442e-02 -2.014197707176208496e-01 6.713402271270751953e-01
1.958000000000000000e+03 2.819893264770507812e+01 -1.120215606689453125e+01 -9.252844452857971191e-01 2.745046615600585938e-01 -1.952339410781860352e-01 7.179342508316040039e-01
1.959000000000000000e+03 2.975168800354003906e+01 -1.557491970062255859e+01 -8.527321219444274902e-01 7.847225293517112732e-03 -2.534654736518859863e-01 4.915820062160491943e-01
1.960000000000000000e+03 2.820496559143066406e+01 -1.403771305084228516e+01 -7.165933251380920410e-01 -1.173268631100654602e-01 -2.501760423183441162e-01 7.152771353721618652e-01
1.961000000000000000e+03 2.865231132507324219e+01 -1.464124011993408203e+01 -7.404406666755676270e-01 -7.486540079116821289e-02 -2.445918172597885132e-01 6.464899778366088867e-01
1.962000000000000000e+03 3.450323867797851562e+01 -1.685809516906738281e+01 -7.412181496620178223e-01 2.911475896835327148e-01 -1.350211650133132935e-01 -2.953237593173980713e-01
1.963000000000000000e+03 4.872453308105468750e+01 -8.823187828063964844e+00 -4.969162940979003906e-01 4.596908092498779297e+00 1.229997634887695312e+00 -4.414739310741424561e-01
1.964000000000000000e+03 2.799466323852539062e+01 -1.229101371765136719e+01 -8.319749236106872559e-01 5.516366660594940186e-02 -2.330433726310729980e-01 7.752478718757629395e-01
1.965000000000000000e+03 2.781305885314941406e+01 -1.339286518096923828e+01 -7.328661680221557617e-01 -1.238809004426002502e-01 -2.570241093635559082e-01 7.911324501037597656e-01
1.966000000000000000e+03 2.852610206604003906e+01 -1.183940505981445312e+01 -8.647556900978088379e-01 2.683714926242828369e-01 -1.789152473211288452e-01 6.833833456039428711e-01
1.967000000000000000e+03 4.985210800170898438e+01 -1.025193405151367188e+01 -4.943779110908508301e-01 3.802869796752929688e+00 9.925475716590881348e-01 -1.024323105812072754e-01
1.968000000000000000e+03 4.943050384521484375e+01 -1.115651607513427734e+01 -1.031349420547485352e+00 3.998886823654174805e+00 8.902611732482910156e-01 2.845207452774047852e-01
1.969000000000000000e+03 4.717235183715820312e+01 -4.450067520141601562e+00 3.381745144724845886e-02 5.285171031951904297e+00 1.595696568489074707e+00 -1.467301607131958008e+00
1.970000000000000000e+03 4.729963684082031250e+01 -2.821983814239501953e+00 3.411146700382232666e-01 5.341402530670166016e+00 1.704755187034606934e+00 -1.836831331253051758e+00
1.971000000000000000e+03 2.914142227172851562e+01 -3.335787200927734375e+01 -3.508257269859313965e-01 2.982160076498985291e-02 -9.630124270915985107e-02 -7.798697799444198608e-02
1.972000000000000000e+03 2.834859657287597656e+01 -3.446197509765625000e+01 -1.891460120677947998e-01 2.401820756494998932e-02 -4.953834041953086853e-02 -1.327881664037704468e-01
1.973000000000000000e+03 4.570714569091796875e+01 -9.431658983230590820e-01 3.641641438007354736e-01 5.833779335021972656e+00 1.859383106231689453e+00 -2.072376728057861328e+00
1.974000000000000000e+03 4.501783752441406250e+01 2.000990867614746094e+00 9.312412142753601074e-01 6.414858818054199219e+00 2.203830003738403320e+00 -2.716913938522338867e+00
1.975000000000000000e+03 4.387091445922851562e+01 4.066753387451171875e+00 1.174111247062683105e+00 7.535448551177978516e+00 2.612868070602416992e+00 -2.968924999237060547e+00
1.976000000000000000e+03 4.398191070556640625e+01 2.397377967834472656e+00 7.357559204101562500e-01 6.845913410186767578e+00 2.274500846862792969e+00 -2.552437782287597656e+00
1.977000000000000000e+03 4.310797119140625000e+01 5.488003730773925781e+00 1.442299962043762207e+00 8.517821311950683594e+00 2.988036394119262695e+00 -2.971536159515380859e+00
1.978000000000000000e+03 9.441942214965820312e+00 -2.902285003662109375e+01 -8.696437580510973930e-04 -6.220507202669978142e-05 -2.795546606648713350e-04 3.460149746388196945e-04
1.979000000000000000e+03 9.027804374694824219e+00 -2.999989128112792969e+01 -1.970221288502216339e-03 -9.760234970599412918e-04 -8.838734356686472893e-04 6.088377558626234531e-04
1.980000000000000000e+03 3.228138351440429688e+01 -1.508073139190673828e+01 -7.067364454269409180e-01 5.007884502410888672e-01 -6.178438663482666016e-02 5.207225307822227478e-02
1.981000000000000000e+03 4.823583984375000000e+01 -7.349452495574951172e+00 -2.708168327808380127e-01 4.900898456573486328e+00 1.389024496078491211e+00 -8.223698735237121582e-01
1.982000000000000000e+03 4.573996734619140625e+01 3.022022247314453125e+01 -3.081399574875831604e-02 3.445195674896240234e+00 1.024314522743225098e+00 9.043501615524291992e-01
1.983000000000000000e+03 4.744486618041992188e+01 -5.175013065338134766e+00 -9.630210697650909424e-03 5.210504531860351562e+00 1.560262322425842285e+00 -1.317982792854309082e+00
1.984000000000000000e+03 8.615830421447753906e+00 -3.983587503433227539e+00 -4.447179435373982415e-06 1.925526476043160073e-06 -7.564958650618791580e-07 -3.088738594669848680e-06
1.985000000000000000e+03 7.089166259765625000e+01 -3.152837991714477539e+00 6.103384494781494141e-01 1.005449771881103516e+01 3.199450969696044922e+00 1.346601486206054688e+00
1.986000000000000000e+03 9.053600311279296875e+00 4.614470481872558594e+00 -3.662782907485961914e-01 -6.823351979255676270e-01 -3.145840466022491455e-01 8.988366127014160156e-01
1.987000000000000000e+03 8.367658615112304688e+00 4.375282287597656250e+00 -4.008004367351531982e-01 -5.878813266754150391e-01 -2.966045439243316650e-01 8.413947224617004395e-01
1.988000000000000000e+03 7.753707885742187500e+01 8.597773551940917969e+00 7.738004904240369797e-03 6.916357517242431641e+00 2.077228546142578125e+00 7.475141286849975586e-01
1.989000000000000000e+03 4.454574584960937500e+01 2.802253913879394531e+01 2.563848495483398438e-01 4.185687541961669922e+00 1.332621693611145020e+00 1.082171440124511719e+00
1.990000000000000000e+03 1.658393859863281250e+01 2.002989292144775391e+00 -7.151756882667541504e-01 -1.176974415779113770e+00 -5.676450133323669434e-01 9.671481251716613770e-01
1.991000000000000000e+03 6.735184478759765625e+01 -1.084172153472900391e+01 1.207842350006103516e+00 5.013163566589355469e+00 1.866301774978637695e+00 1.728370308876037598e+00
1.992000000000000000e+03 6.899341583251953125e+01 -7.867187976837158203e+00 7.536411881446838379e-01 7.008317947387695312e+00 2.328587770462036133e+00 1.665560603141784668e+00
1.993000000000000000e+03 7.753772735595703125e+01 4.599091053009033203e+00 1.582856178283691406e-01 6.204992771148681641e+00 1.908983469009399414e+00 5.185437202453613281e-01
1.994000000000000000e+03 7.178639984130859375e+01 2.285540199279785156e+01 1.806084513664245605e-01 8.065186500549316406e+00 2.473738670349121094e+00 4.568751454353332520e-01
1.995000000000000000e+03 7.110258483886718750e+01 2.204453086853027344e+01 9.593108296394348145e-02 8.217622756958007812e+00 2.494066238403320312e+00 3.281975090503692627e-01
1.996000000000000000e+03 2.583605766296386719e+01 -8.184875488281250000e+00 -1.258809447288513184e+00 -2.083098143339157104e-01 -4.401357769966125488e-01 9.043369889259338379e-01
1.997000000000000000e+03 4.771424484252929688e+01 -5.900093555450439453e+00 -9.252221137285232544e-02 5.110555171966552734e+00 1.505409955978393555e+00 -1.163049936294555664e+00
1.998000000000000000e+03 4.170849609375000000e+01 1.804062271118164062e+01 6.402105689048767090e-01 8.801955223083496094e+00 2.832649946212768555e+00 9.892856478691101074e-01
1.999000000000000000e+03 3.983945083618164062e+01 1.678632545471191406e+01 9.291399717330932617e-01 8.160181045532226562e+00 2.726796150207519531e+00 1.893982477486133575e-02
2.000000000000000000e+03 2.504453182220458984e+00 5.628129482269287109e+00 -5.951004475355148315e-02 -3.806530535221099854e-01 -1.320489346981048584e-01 2.916635870933532715e-01
2.001000000000000000e+03 3.280372142791748047e+00 4.026508808135986328e+00 -1.366251558065414429e-01 -2.432636022567749023e-01 -1.139666214585304260e-01 2.816440463066101074e-01
2.002000000000000000e+03 2.545895099639892578e+00 4.075480937957763672e+00 -9.217745065689086914e-02 -2.261924296617507935e-01 -9.551095962524414062e-02 2.189334332942962646e-01
2.003000000000000000e+03 6.365584373474121094e+00 3.307570219039916992e+00 -4.386866390705108643e-01 -2.754039168357849121e-01 -2.142271697521209717e-01 5.608559846878051758e-01
2.004000000000000000e+03 5.472044944763183594e+00 3.978978872299194336e+00 -3.058772385120391846e-01 -3.084139525890350342e-01 -1.842873543500900269e-01 5.136501789093017578e-01
2.005000000000000000e+03 7.659826755523681641e+00 4.207191467285156250e+00 -4.040907919406890869e-01 -4.976277053356170654e-01 -2.705155611038208008e-01 7.772232294082641602e-01
2.006000000000000000e+03 7.421095371246337891e+00 4.923104763031005859e+00 -3.048997223377227783e-01 -5.422364473342895508e-01 -2.541408538818359375e-01 7.689558267593383789e-01
2.007000000000000000e+03 6.907194519042968750e+01 -6.027570724487304688e+00 8.104889392852783203e-01 8.154134750366210938e+00 2.689387083053588867e+00 2.031866073608398438e+00
2.008000000000000000e+03 6.801209259033203125e+01 -8.284729003906250000e+00 1.010926246643066406e+00 6.459290027618408203e+00 2.241064786911010742e+00 2.089133024215698242e+00
2.009000000000000000e+03 4.252781295776367188e+01 2.125916862487792969e+01 7.190676331520080566e-01 7.163966178894042969e+00 2.364910125732421875e+00 1.507917284965515137e+00
2.010000000000000000e+03 4.492787933349609375e+01 -2.592799758911132812e+01 1.964354515075683594e+00 1.023034763336181641e+01 3.658410549163818359e+00 -1.378180980682373047e+00
2.011000000000000000e+03 1.087373065948486328e+01 -3.055854988098144531e+01 -4.780787508934736252e-03 -1.912736683152616024e-03 -2.008057199418544769e-03 -1.230947673320770264e-03
2.012000000000000000e+03 1.003539657592773438e+01 -3.020274162292480469e+01 -2.718773437663912773e-03 -1.655775704421103001e-03 -1.312364824116230011e-03 4.197405651211738586e-04
2.013000000000000000e+03 7.751406097412109375e+01 1.571899414062500000e+01 -3.519224934279918671e-03 8.097312927246093750e+00 2.428138256072998047e+00 5.494070649147033691e-01
2.014000000000000000e+03 7.112041473388671875e+01 2.043813133239746094e+01 4.392606392502784729e-02 8.505353927612304688e+00 2.564784049987792969e+00 4.180543422698974609e-01
2.015000000000000000e+03 4.246418762207031250e+01 2.399718093872070312e+01 5.664265751838684082e-01 5.873516559600830078e+00 1.931982874870300293e+00 1.105517387390136719e+00
2.016000000000000000e+03 4.401588058471679688e+01 2.531511306762695312e+01 6.272899508476257324e-01 5.203468322753906250e+00 1.749227404594421387e+00 1.482478141784667969e+00
2.017000000000000000e+03 2.005317497253417969e+01 -3.366896438598632812e+01 -6.725880503654479980e-02 -1.490482129156589508e-02 -2.464908733963966370e-02 -5.451116338372230530e-02
2.018000000000000000e+03 1.810304045677185059e+00 4.133800506591796875e+00 -4.961730167269706726e-02 -1.991331726312637329e-01 -7.462514191865921021e-02 1.532691419124603271e-01
2.019000000000000000e+03 1.842128872871398926e+00 3.365368366241455078e+00 -5.801332369446754456e-02 -1.386576443910598755e-01 -5.900128930807113647e-02 1.185248494148254395e-01
2.020000000000000000e+03 7.182697296142578125e+01 2.042091560363769531e+01 5.917135626077651978e-02 8.515604972839355469e+00 2.572432994842529297e+00 5.383573770523071289e-01
2.021000000000000000e+03 2.396100234985351562e+01 -6.549159526824951172e+00 -1.450916647911071777e+00 -8.011819720268249512e-01 -6.756296157836914062e-01 1.095455288887023926e+00
2.022000000000000000e+03 2.494696235656738281e+01 -5.593219280242919922e+00 -1.307944893836975098e+00 -1.825225949287414551e-01 -4.471402466297149658e-01 8.146014809608459473e-01
2.023000000000000000e+03 7.181175231933593750e+00 -2.399383735656738281e+01 -2.940634112746920437e-05 -5.905820871703326702e-04 -1.859965414041653275e-04 -1.905640965560451150e-04
2.024000000000000000e+03 1.734207344055175781e+01 -1.189536377787590027e-01 -1.355723381042480469e+00 -1.347507119178771973e+00 -8.109691739082336426e-01 1.199697136878967285e+00
2.025000000000000000e+03 1.768666458129882812e+01 4.802880287170410156e-01 -1.078557252883911133e+00 -1.256302952766418457e+00 -7.004580497741699219e-01 1.062741518020629883e+00
2.026000000000000000e+03 3.329074096679687500e+01 -1.602270889282226562e+01 -7.435844540596008301e-01 4.293980598449707031e-01 -9.425591677427291870e-02 -8.336097002029418945e-02
2.027000000000000000e+03 6.878063201904296875e+01 3.383540725708007812e+01 -1.092466592788696289e+00 2.893545150756835938e+00 5.403235554695129395e-01 -2.111183851957321167e-02
2.028000000000000000e+03 7.180533599853515625e+01 1.559682559967041016e+01 1.476621627807617188e-01 9.103241920471191406e+00 2.775271177291870117e+00 6.073485016822814941e-01
2.029000000000000000e+03 7.183983612060546875e+01 1.720687294006347656e+01 6.445815414190292358e-02 8.970664978027343750e+00 2.710536956787109375e+00 6.128764748573303223e-01
2.030000000000000000e+03 6.779074859619140625e+01 -1.011231803894042969e+01 1.104813575744628906e+00 5.499212265014648438e+00 1.981207728385925293e+00 1.711688280105590820e+00
2.031000000000000000e+03 7.544441986083984375e+01 -2.391286087036132812e+01 1.464630365371704102e-01 7.534126758575439453e+00 2.304177045822143555e+00 1.149005293846130371e+00
2.032000000000000000e+03 4.448643112182617188e+01 -2.454519844055175781e+01 2.099295139312744141e+00 1.116041851043701172e+01 3.977914333343505859e+00 -2.054415941238403320e+00
2.033000000000000000e+03 6.892934322357177734e+00 -2.220248222351074219e+01 1.248464395757764578e-04 1.103739032259909436e-05 4.076514960615895689e-05 -1.640492555452510715e-04
2.034000000000000000e+03 7.354488372802734375e+01 -2.792190361022949219e+01 1.439081788063049316e+00 8.721936225891113281e+00 3.048305273056030273e+00 6.156861782073974609e-01
2.035000000000000000e+03 2.207606697082519531e+01 -2.248059034347534180e+00 -1.187755942344665527e+00 -7.493843436241149902e-01 -5.811420679092407227e-01 8.505507111549377441e-01
2.036000000000000000e+03 2.164814949035644531e+01 -2.793042421340942383e+00 -1.368988275527954102e+00 -9.754222035408020020e-01 -7.033231258392333984e-01 1.005348205566406250e+00
2.037000000000000000e+03 4.937950515747070312e+01 3.280183792114257812e+01 -1.715321987867355347e-01 1.784538388252258301e+00 4.839018583297729492e-01 6.337502002716064453e-01
2.038000000000000000e+03 4.372525787353515625e+01 -2.761468696594238281e+01 1.786882519721984863e+00 1.135262966156005859e+01 3.941853523254394531e+00 1.823796927928924561e-01
2.039000000000000000e+03 4.420503616333007812e+01 -2.587752532958984375e+01 1.470468759536743164e+00 1.168595218658447266e+01 3.946926355361938477e+00 -1.400343179702758789e+00
2.040000000000000000e+03 2.225413894653320312e+01 -3.412835597991943359e+00 -1.394880533218383789e+00 -8.877103924751281738e-01 -6.847772598266601562e-01 9.943814873695373535e-01
2.041000000000000000e+03 1.935515213012695312e+01 -1.635773301124572754e+00 -1.492209315299987793e+00 -1.350256204605102539e+00 -8.527396321296691895e-01 1.206446886062622070e+00
2.042000000000000000e+03 1.973813438415527344e+01 -1.063079833984375000e+00 -1.247020840644836426e+00 -1.183227181434631348e+00 -7.290744185447692871e-01 1.033931255340576172e+00
2.043000000000000000e+03 4.168476486206054688e+01 8.571891784667968750e+00 1.781272053718566895e+00 1.079234981536865234e+01 3.772086381912231445e+00 -2.153302907943725586e+00
2.044000000000000000e+03 4.281723785400390625e+01 4.494314670562744141e+00 1.039156675338745117e+00 7.948555946350097656e+00 2.696313858032226562e+00 -2.538968563079833984e+00
2.045000000000000000e+03 2.572496604919433594e+01 -9.328446388244628906e+00 -1.188903808593750000e+00 -4.375517964363098145e-01 -4.879367053508758545e-01 9.843981862068176270e-01
2.046000000000000000e+03 2.624588012695312500e+01 -8.893535614013671875e+00 -1.199122667312622070e+00 -1.394490599632263184e-01 -4.015715122222900391e-01 8.849584460258483887e-01
2.047000000000000000e+03 7.693553161621093750e+01 3.658723449707031250e+01 -8.790104091167449951e-02 1.046010398864746094e+01 3.111660957336425781e+00 8.849070221185684204e-02
2.048000000000000000e+03 7.758940887451171875e+01 3.566527175903320312e+01 -7.009713351726531982e-02 1.107274913787841797e+01 3.300795793533325195e+00 1.293467730283737183e-01
2.049000000000000000e+03 7.752692413330078125e+01 2.851305770874023438e+01 -5.373639985918998718e-02 1.017349910736083984e+01 3.035928726196289062e+00 6.658055782318115234e-01
2.050000000000000000e+03 7.754463958740234375e+01 1.334205818176269531e+01 -4.740831255912780762e-02 7.746381282806396484e+00 2.309691905975341797e+00 5.902189612388610840e-01
2.051000000000000000e+03 7.753228759765625000e+01 2.772992897033691406e+01 -3.444640710949897766e-02 1.004305362701416016e+01 3.002582073211669922e+00 6.935763359069824219e-01
2.052000000000000000e+03 7.823212432861328125e+01 2.455489540100097656e+01 1.858609914779663086e-02 9.721129417419433594e+00 2.921914577484130859e+00 5.585014224052429199e-01
2.053000000000000000e+03 7.687873840332031250e+01 1.094863891601562500e+01 -8.628535270690917969e-02 7.690276622772216797e+00 2.281197309494018555e+00 7.950677871704101562e-01
2.054000000000000000e+03 7.749240112304687500e+01 3.082116127014160156e+01 -1.199609860777854919e-01 1.050820827484130859e+01 3.116474151611328125e+00 5.340287685394287109e-01
2.055000000000000000e+03 7.686599731445312500e+01 -3.789263916015625000e+01 -1.168117597699165344e-01 6.507467269897460938e+00 1.917196631431579590e+00 -1.179237067699432373e-01
2.056000000000000000e+03 7.278305816650390625e+01 -2.473350143432617188e+01 8.433433175086975098e-01 8.997773170471191406e+00 2.952334880828857422e+00 4.448709189891815186e-01
2.057000000000000000e+03 7.754138183593750000e+01 -9.940911293029785156e+00 2.535263774916529655e-03 6.584955692291259766e+00 1.976247310638427734e+00 -6.016224026679992676e-01
2.058000000000000000e+03 7.753147125244140625e+01 7.005785465240478516e+00 7.338991761207580566e-02 6.615243911743164062e+00 2.006590127944946289e+00 7.086694836616516113e-01
2.059000000000000000e+03 7.758866882324218750e+01 -2.037088125944137573e-01 1.832015961408615112e-01 5.768907546997070312e+00 1.785632729530334473e+00 -1.180301755666732788e-01
2.060000000000000000e+03 7.742355346679687500e+01 -2.810066032409667969e+01 3.677247762680053711e-01 6.482683181762695312e+00 2.055122375488281250e+00 9.900581091642379761e-02
2.061000000000000000e+03 7.688072967529296875e+01 -1.746144294738769531e+00 2.093863785266876221e-01 6.343774318695068359e+00 1.965948224067687988e+00 -3.047057986259460449e-01
2.062000000000000000e+03 7.203364562988281250e+01 -3.023302078247070312e+01 8.364490866661071777e-01 8.313138008117675781e+00 2.744876146316528320e+00 1.202123165130615234e+00
2.063000000000000000e+03 7.691107940673828125e+01 -9.511344432830810547e-01 2.436510920524597168e-01 6.340501308441162109e+00 1.975245714187622070e+00 -2.092673033475875854e-01
2.064000000000000000e+03 7.674881744384765625e+01 3.832296752929687500e+01 -3.060540556907653809e-02 1.019057083129882812e+01 3.047989606857299805e+00 -8.276226930320262909e-03
2.065000000000000000e+03 7.756159210205078125e+01 2.187004566192626953e+00 1.968989521265029907e-01 5.902014732360839844e+00 1.829674124717712402e+00 2.121177017688751221e-01
2.066000000000000000e+03 7.476283264160156250e+01 4.639687538146972656e+00 4.751656055450439453e-01 8.702168464660644531e+00 2.753200292587280273e+00 8.067561388015747070e-01
2.067000000000000000e+03 7.480023956298828125e+01 3.018229961395263672e+00 6.025471091270446777e-01 8.534106254577636719e+00 2.740996122360229492e+00 6.066969633102416992e-01
2.068000000000000000e+03 7.757475280761718750e+01 1.385321617126464844e+00 2.003834247589111328e-01 5.829448223114013672e+00 1.808949470520019531e+00 1.013742908835411072e-01
2.069000000000000000e+03 7.753423309326171875e+01 5.404451370239257812e+00 1.349363774061203003e-01 6.331204414367675781e+00 1.939842224121093750e+00 5.966787934303283691e-01
2.070000000000000000e+03 7.755414581298828125e+01 1.017502880096435547e+01 -4.150472581386566162e-02 7.210481166839599609e+00 2.150692939758300781e+00 7.191395163536071777e-01
2.071000000000000000e+03 7.753262329101562500e+01 7.801981449127197266e+00 4.089492931962013245e-02 6.766438961029052734e+00 2.042200088500976562e+00 7.401003837585449219e-01
2.072000000000000000e+03 7.824951171875000000e+01 1.095073890686035156e+01 -2.999630384147167206e-02 7.009873867034912109e+00 2.093963146209716797e+00 5.467969179153442383e-01
2.073000000000000000e+03 7.236487579345703125e+01 1.170915222167968750e+01 -5.011215806007385254e-01 9.594766616821289062e+00 2.728093385696411133e+00 5.167274475097656250e-01
2.074000000000000000e+03 7.824975585937500000e+01 1.174658107757568359e+01 -3.068858385086059570e-02 7.187535285949707031e+00 2.147053956985473633e+00 5.215015411376953125e-01
2.075000000000000000e+03 7.755388641357421875e+01 1.254655742645263672e+01 -5.393189191818237305e-02 7.620388984680175781e+00 2.269937038421630859e+00 6.213655471801757812e-01
2.076000000000000000e+03 7.831844329833984375e+01 -1.950071144104003906e+01 -1.647929251194000244e-01 7.799728393554687500e+00 2.290480613708496094e+00 2.275380641222000122e-01
2.077000000000000000e+03 7.754116821289062500e+01 -2.332903480529785156e+01 -9.217877872288227081e-03 7.153986930847167969e+00 2.143430709838867188e+00 8.697788715362548828e-01
2.078000000000000000e+03 7.752184295654296875e+01 -6.739638328552246094e+00 2.697465755045413971e-02 6.213945865631103516e+00 1.872276186943054199e+00 -5.649374723434448242e-01
2.079000000000000000e+03 7.823587799072265625e+01 -1.232446575164794922e+01 -2.054312266409397125e-02 7.010585784912109375e+00 2.097012758255004883e+00 -4.741899073123931885e-01
2.080000000000000000e+03 7.752396392822265625e+01 -1.393326663970947266e+01 -7.376176118850708008e-02 7.134274005889892578e+00 2.118153572082519531e+00 -5.417252779006958008e-01
2.081000000000000000e+03 7.823036193847656250e+01 1.572701549530029297e+01 -3.241085214540362358e-03 7.969945430755615234e+00 2.390011310577392578e+00 4.318920075893402100e-01
2.082000000000000000e+03 7.752234649658203125e+01 1.492510128021240234e+01 -1.979927532374858856e-02 7.982140064239501953e+00 2.388702154159545898e+00 5.550056099891662598e-01
2.083000000000000000e+03 7.684258270263671875e+01 -1.719204521179199219e+01 -3.614144325256347656e-01 7.329489707946777344e+00 2.090422630310058594e+00 -2.623396813869476318e-01
2.084000000000000000e+03 7.757211303710937500e+01 -2.250380706787109375e+01 -1.243724524974822998e-01 7.314868450164794922e+00 2.157148838043212891e+00 8.133386969566345215e-01
2.085000000000000000e+03 7.769861602783203125e+01 -2.023041343688964844e+01 -2.875290811061859131e-01 7.620076656341552734e+00 2.199764251708984375e+00 4.152593612670898438e-01
2.086000000000000000e+03 7.833535766601562500e+01 -2.027209663391113281e+01 -1.696348786354064941e-01 7.728354454040527344e+00 2.267615795135498047e+00 3.616001307964324951e-01
2.087000000000000000e+03 7.681508636474609375e+01 -6.801887512207031250e+00 4.024362936615943909e-02 6.464097976684570312e+00 1.951302409172058105e+00 -6.163074970245361328e-01
2.088000000000000000e+03 7.822180938720703125e+01 -3.476008415222167969e+00 4.815418273210525513e-02 5.453782558441162109e+00 1.650581002235412598e+00 -3.720322251319885254e-01
2.089000000000000000e+03 7.747666168212890625e+01 -5.098351955413818359e+00 4.937364906072616577e-02 6.072329044342041016e+00 1.836510777473449707e+00 -5.184084177017211914e-01
2.090000000000000000e+03 7.753617095947265625e+01 -1.152714538574218750e+01 -1.735813543200492859e-02 6.799438953399658203e+00 2.034624338150024414e+00 -6.012591719627380371e-01
2.091000000000000000e+03 7.752819061279296875e+01 -1.312826251983642578e+01 -5.469910055398941040e-02 7.024025917053222656e+00 2.090798139572143555e+00 -5.712428689002990723e-01
2.092000000000000000e+03 7.823607635498046875e+01 -2.663615942001342773e+00 6.215108931064605713e-02 5.350763320922851562e+00 1.623874306678771973e+00 -3.261004984378814697e-01
2.093000000000000000e+03 7.756015777587890625e+01 -1.802225112915039062e+00 1.364454030990600586e-01 5.821758270263671875e+00 1.787461042404174805e+00 -3.023310601711273193e-01
2.094000000000000000e+03 7.183405303955078125e+01 1.962235260009765625e+01 5.340930819511413574e-02 8.637997627258300781e+00 2.607421875000000000e+00 5.611147880554199219e-01
2.095000000000000000e+03 7.464279937744140625e+01 1.642061042785644531e+01 3.317037224769592285e-02 8.601893424987792969e+00 2.590518951416015625e+00 7.463240623474121094e-01
2.096000000000000000e+03 7.822535705566406250e+01 1.652768325805664062e+01 6.779013667255640030e-03 8.116506576538085938e+00 2.436985492706298828e+00 4.323582351207733154e-01
2.097000000000000000e+03 7.750519561767578125e+01 1.733032417297363281e+01 1.810116879642009735e-02 8.331409454345703125e+00 2.504853010177612305e+00 5.547119379043579102e-01
2.098000000000000000e+03 7.754677581787109375e+01 -1.715404319763183594e+01 -2.320383638143539429e-01 7.528752803802490234e+00 2.189014434814453125e+00 -2.067605257034301758e-01
2.099000000000000000e+03 7.752217864990234375e+01 -1.554501819610595703e+01 -1.492418050765991211e-01 7.349290370941162109e+00 2.160014629364013672e+00 -4.205062389373779297e-01
2.100000000000000000e+03 7.749481201171875000e+01 1.974744415283203125e+01 3.285402804613113403e-02 8.691683769226074219e+00 2.617361307144165039e+00 5.905097126960754395e-01
2.101000000000000000e+03 7.750132751464843750e+01 1.813619804382324219e+01 2.221853472292423248e-02 8.450825691223144531e+00 2.541913270950317383e+00 5.629897117614746094e-01
2.102000000000000000e+03 7.824134826660156250e+01 -9.931036949157714844e+00 3.343771677464246750e-03 6.541707038879394531e+00 1.963515162467956543e+00 -4.904808104038238525e-01
2.103000000000000000e+03 7.824177551269531250e+01 -9.130203247070312500e+00 2.771526109427213669e-03 6.386552810668945312e+00 1.916797280311584473e+00 -4.852738380432128906e-01
2.104000000000000000e+03 7.754177093505859375e+01 -8.343298912048339844e+00 1.309811882674694061e-02 6.384614944458007812e+00 1.919313907623291016e+00 -5.861930251121520996e-01
2.105000000000000000e+03 7.394349670410156250e+01 1.882759857177734375e+01 7.281991094350814819e-02 8.635035514831542969e+00 2.612356662750244141e+00 7.682065367698669434e-01
2.106000000000000000e+03 7.752994537353515625e+01 -1.635530281066894531e+01 -1.999599486589431763e-01 7.446863651275634766e+00 2.174071073532104492e+00 -3.220660388469696045e-01
2.107000000000000000e+03 7.821746063232421875e+01 2.214934349060058594e+01 2.506704442203044891e-02 9.195174217224121094e+00 2.766072511672973633e+00 5.148101449012756348e-01
2.108000000000000000e+03 7.749517822265625000e+01 2.135236740112304688e+01 4.059172794222831726e-02 8.937990188598632812e+00 2.693574428558349609e+00 6.261199712753295898e-01
2.109000000000000000e+03 7.824699401855468750e+01 -2.581504440307617188e+01 1.663954406976699829e-01 6.433320045471191406e+00 1.979914546012878418e+00 5.071758031845092773e-01
2.110000000000000000e+03 7.662032318115234375e+01 -2.802093887329101562e+01 5.802246332168579102e-01 6.787631511688232422e+00 2.210356950759887695e+00 1.580649614334106445e-01
2.111000000000000000e+03 7.822126770019531250e+01 2.295115470886230469e+01 2.632134966552257538e-02 9.364493370056152344e+00 2.817244291305541992e+00 5.299891829490661621e-01
2.112000000000000000e+03 7.310965728759765625e+01 -2.716813087463378906e+01 1.402792811393737793e+00 9.396162033081054688e+00 3.239686489105224609e+00 7.768411040306091309e-01
2.113000000000000000e+03 7.751226043701171875e+01 -2.649982452392578125e+01 3.453643918037414551e-01 6.594974040985107422e+00 2.082101583480834961e+00 4.977842271327972412e-01
2.114000000000000000e+03 7.362151336669921875e+01 -2.620857620239257812e+01 1.228899598121643066e+00 8.737600326538085938e+00 2.989949941635131836e+00 7.676548361778259277e-01
2.115000000000000000e+03 7.169241333007812500e+01 2.455006980895996094e+01 2.418761253356933594e-01 7.610468864440917969e+00 2.355703592300415039e+00 4.650728106498718262e-01
2.116000000000000000e+03 7.682873535156250000e+01 2.769690132141113281e+01 -5.090513452887535095e-02 9.641659736633300781e+00 2.877226591110229492e+00 7.975606918334960938e-01
2.117000000000000000e+03 7.753654479980468750e+01 2.693711471557617188e+01 -1.433661486953496933e-02 9.905037879943847656e+00 2.967210292816162109e+00 7.062417268753051758e-01
2.118000000000000000e+03 7.753849792480468750e+01 2.613973617553710938e+01 2.598310122266411781e-03 9.762007713317871094e+00 2.929381847381591797e+00 7.142147421836853027e-01
2.119000000000000000e+03 7.711898040771484375e+01 -3.455584335327148438e+01 -1.099037006497383118e-01 6.586143970489501953e+00 1.942872047424316406e+00 -3.558726012706756592e-01
2.120000000000000000e+03 7.808498382568359375e+01 -3.306144714355468750e+01 -2.363710477948188782e-02 6.481844425201416016e+00 1.937462210655212402e+00 -3.905645608901977539e-01
2.121000000000000000e+03 7.736104583740234375e+01 -3.375817108154296875e+01 -8.285325020551681519e-02 6.573798179626464844e+00 1.947283506393432617e+00 -3.993393182754516602e-01
2.122000000000000000e+03 7.809362030029296875e+01 -3.140758705139160156e+01 4.623926430940628052e-02 6.323756694793701172e+00 1.910998702049255371e+00 -3.738294839859008789e-01
2.123000000000000000e+03 7.812210845947265625e+01 -3.058082771301269531e+01 9.930313378572463989e-02 6.244991302490234375e+00 1.903288364410400391e+00 -3.160560727119445801e-01
2.124000000000000000e+03 7.740000915527343750e+01 -2.966314506530761719e+01 2.761743962764739990e-01 6.457688808441162109e+00 2.020159006118774414e+00 -2.366420775651931763e-01
2.125000000000000000e+03 7.685445404052734375e+01 3.516468811035156250e+01 -1.461140662431716919e-01 1.031313514709472656e+01 3.050106287002563477e+00 2.028370797634124756e-01
2.126000000000000000e+03 7.818375396728515625e+01 3.238734817504882812e+01 -9.014653414487838745e-02 1.127713871002197266e+01 3.356097698211669922e+00 3.181944489479064941e-01
2.127000000000000000e+03 7.676536560058593750e+01 3.297622680664062500e+01 -2.266820818185806274e-01 1.014422512054443359e+01 2.975263118743896484e+00 4.035430550575256348e-01
2.128000000000000000e+03 7.727227020263671875e+01 3.450803375244140625e+01 -1.371995955705642700e-01 1.072368431091308594e+01 3.175945281982421875e+00 2.360235452651977539e-01
2.129000000000000000e+03 7.576079559326171875e+01 -3.839619445800781250e+01 -1.840181052684783936e-01 6.249327182769775391e+00 1.819592714309692383e+00 -1.196640953421592712e-01
2.130000000000000000e+03 7.680874633789062500e+01 -4.178984451293945312e+01 -5.184778571128845215e-02 6.448423862457275391e+00 1.918972730636596680e+00 -9.404683485627174377e-03
2.131000000000000000e+03 3.066232919692993164e+00 -1.706908798217773438e+01 6.439532444346696138e-05 -3.505328277242369950e-05 8.802612683211918920e-06 -2.574383688624948263e-05
2.132000000000000000e+03 7.121974945068359375e+01 7.862534999847412109e+00 4.195005893707275391e-01 1.134040641784667969e+01 3.527971982955932617e+00 2.950378656387329102e-01
2.133000000000000000e+03 7.172315979003906250e+01 1.092293930053710938e+01 -6.165596246719360352e-01 9.900267601013183594e+00 2.785112619400024414e+00 4.519597887992858887e-01
2.134000000000000000e+03 7.782569122314453125e+01 -3.754441070556640625e+01 -8.136305212974548340e-02 6.737979888916015625e+00 1.996985077857971191e+00 -1.784665286540985107e-01
2.135000000000000000e+03 6.079611206054687500e+01 -1.711358070373535156e+01 -1.777677655220031738e+00 2.019228696823120117e+00 7.246530801057815552e-02 2.073507547378540039e+00
2.136000000000000000e+03 2.073266983032226562e+00 3.552288055419921875e+01 -1.849753549322485924e-03 -1.721652269363403320e+00 -5.170506238937377930e-01 -2.353697456419467926e-02
2.137000000000000000e+03 3.239067316055297852e+00 3.760942077636718750e+01 -1.284943055361509323e-02 -1.511903166770935059e+00 -4.574257731437683105e-01 -1.704023964703083038e-02
2.138000000000000000e+03 1.792467951774597168e+00 -9.028251647949218750e+00 -1.399481698172166944e-05 -4.263692062522750348e-06 -5.477552804222796112e-06 -4.288051059120334685e-06
2.139000000000000000e+03 4.941866397857666016e+00 -4.776828765869140625e+00 -7.708957127761095762e-06 2.806705197144765407e-06 -1.470675556447531562e-06 3.579774556783377193e-07
2.140000000000000000e+03 3.126028060913085938e+00 -3.797045898437500000e+01 5.565242609009146690e-04 -2.687791362404823303e-03 -6.393801304511725903e-04 -9.578959434293210506e-04
2.141000000000000000e+03 1.740139365196228027e+00 -1.629977226257324219e+01 1.542735844850540161e-05 1.875615635071881115e-05 1.025505480356514454e-05 1.294759840675396845e-05
2.142000000000000000e+03 2.445525884628295898e+00 -1.548845863342285156e+01 -1.878977309388574213e-05 3.370701233507134020e-05 4.475171863305149600e-06 5.498166501638479531e-06
2.143000000000000000e+03 1.743587970733642578e+00 -2.272566795349121094e+01 7.079278293531388044e-05 1.102625101339071989e-04 5.431658792076632380e-05 7.458494656020775437e-05
2.144000000000000000e+03 2.505762815475463867e+00 -2.109032440185546875e+01 2.720904376474209130e-05 -5.288138709147460759e-05 -7.701702998019754887e-06 6.622111686738207936e-05
2.145000000000000000e+03 1.884908318519592285e+00 -3.002712249755859375e+01 -2.293840370839461684e-04 3.570426197256892920e-04 3.829757770290598273e-05 2.887028385885059834e-04
2.146000000000000000e+03 2.589056253433227539e+00 -2.838510894775390625e+01 2.125620521837845445e-04 2.315116435056552291e-04 1.332221145275980234e-04 3.441646404098719358e-04
2.147000000000000000e+03 6.785321712493896484e+00 -2.475910377502441406e+01 1.021725940518081188e-03 4.200937983114272356e-04 4.325459303800016642e-04 6.791130726924166083e-05
2.148000000000000000e+03 2.463159084320068359e+00 -1.468320465087890625e+01 1.160220290330471471e-05 -2.441666038066614419e-05 -3.844337697955779731e-06 -4.176356014795601368e-06
2.149000000000000000e+03 2.467640161514282227e+00 -1.387432003021240234e+01 -7.631457265233621001e-06 1.611640982446260750e-05 2.545486040617106482e-06 -1.379245418320351746e-06
2.150000000000000000e+03 2.621103763580322266e+00 -3.576286697387695312e+01 -4.298710846342146397e-04 -1.132451929152011871e-03 -4.686968750320374966e-04 -8.567917393520474434e-04
2.151000000000000000e+03 1.735633611679077148e+00 -1.789873313903808594e+01 2.631261850183364004e-05 5.063136086391750723e-06 9.412726285518147051e-06 1.421844899596180767e-05
2.152000000000000000e+03 8.349136352539062500e+00 -1.757882308959960938e+01 -7.073379674693569541e-05 -8.120326674543321133e-05 -4.558112050290219486e-05 4.948186324327252805e-05
2.153000000000000000e+03 2.415690422058105469e+00 -1.787035369873046875e+01 2.323024637007620186e-05 -1.047310252033639699e-05 3.827143245871411636e-06 -2.032125667028594762e-05
2.154000000000000000e+03 2.421594381332397461e+00 -1.628918647766113281e+01 1.959786277438979596e-05 -3.377554457983933389e-05 -4.253304723533801734e-06 -1.887202051875647157e-05
2.155000000000000000e+03 2.496857404708862305e+00 1.359640026092529297e+01 3.306321427226066589e-02 -1.224150300025939941e+00 -3.573261201381683350e-01 2.695356607437133789e-01
2.156000000000000000e+03 2.469110727310180664e+00 1.199913787841796875e+01 2.718797326087951660e-02 -1.077274084091186523e+00 -3.150258064270019531e-01 3.034836053848266602e-01
2.157000000000000000e+03 1.781210064888000488e+00 1.369885826110839844e+01 2.006115391850471497e-02 -1.295029044151306152e+00 -3.824903666973114014e-01 2.012456506490707397e-01
2.158000000000000000e+03 3.927295684814453125e+00 1.339089298248291016e+01 7.447089254856109619e-02 -1.108443975448608398e+00 -3.101918995380401611e-01 3.847924768924713135e-01
2.159000000000000000e+03 1.748424053192138672e+00 -2.432450294494628906e+01 1.566027494845911860e-04 7.330554217332974076e-05 6.897248385939747095e-05 1.521248050266876817e-04
2.160000000000000000e+03 2.434829711914062500e+00 -2.272707557678222656e+01 7.257816469063982368e-05 -1.402315247105434537e-04 -2.029600727837532759e-05 4.993790571461431682e-05
2.161000000000000000e+03 2.552129030227661133e+00 2.082501220703125000e+01 3.109696134924888611e-02 -1.639577984809875488e+00 -4.825443327426910400e-01 9.240461885929107666e-02
2.162000000000000000e+03 1.775441765785217285e+00 -1.065400791168212891e+01 -1.535426599730271846e-05 -6.407462478819070384e-06 -6.528518952109152451e-06 -4.243855528329731897e-06
2.163000000000000000e+03 2.522684097290039062e+00 -8.984495162963867188e+00 4.788093519891845062e-06 4.813832219952018932e-06 2.880577767427894287e-06 2.669474724825704470e-06
2.164000000000000000e+03 3.287629127502441406e+00 -8.118129730224609375e+00 -2.441155174892628565e-06 5.531233000510837883e-06 9.270233931601978838e-07 2.221921477030264214e-06
2.165000000000000000e+03 1.765806436538696289e+00 8.895339012145996094e+00 2.311669988557696342e-03 -7.409864068031311035e-01 -2.216024100780487061e-01 2.581333518028259277e-01
2.166000000000000000e+03 2.485326528549194336e+00 1.279688072204589844e+01 3.356217965483665466e-02 -1.152781248092651367e+00 -3.357657194137573242e-01 2.881369292736053467e-01
2.167000000000000000e+03 1.779136657714843750e+00 7.298878192901611328e+00 -1.215065736323595047e-02 -5.416522622108459473e-01 -1.661408841609954834e-01 2.488216161727905273e-01
2.168000000000000000e+03 2.449683666229248047e+00 9.616092681884765625e+00 1.233882550150156021e-02 -8.254292607307434082e-01 -2.439271360635757446e-01 3.374422788619995117e-01
2.169000000000000000e+03 1.831658720970153809e+00 -2.593778800964355469e+01 2.024221175815910101e-04 1.778525183908641338e-04 1.140823878813534975e-04 1.864747173385694623e-04
2.170000000000000000e+03 2.477197408676147461e+00 -2.191589736938476562e+01 3.662765448098070920e-05 1.178212987724691629e-04 4.633468779502436519e-05 1.863770012278109789e-05
2.171000000000000000e+03 2.532304048538208008e+00 1.922390365600585938e+01 3.418424353003501892e-02 -1.584513425827026367e+00 -4.650987684726715088e-01 1.286470443010330200e-01
2.172000000000000000e+03 2.525218248367309570e+00 1.762136077880859375e+01 3.660658374428749084e-02 -1.507443070411682129e+00 -4.412509500980377197e-01 1.683616489171981812e-01
2.173000000000000000e+03 1.810905456542968750e+00 2.012711715698242188e+01 1.773001439869403839e-02 -1.735234618186950684e+00 -5.152513980865478516e-01 7.971943169832229614e-02
2.174000000000000000e+03 2.540581941604614258e+00 2.002347564697265625e+01 3.182071819901466370e-02 -1.614518404006958008e+00 -4.748092889785766602e-01 1.093821376562118530e-01
2.175000000000000000e+03 3.277109622955322266e+00 1.992544555664062500e+01 5.167840048670768738e-02 -1.501871347427368164e+00 -4.350578784942626953e-01 1.381608247756958008e-01
2.176000000000000000e+03 6.254735946655273438e+00 -2.638357734680175781e+01 2.009581367019563913e-04 -8.869705488905310631e-04 -2.058037061942741275e-04 1.563532277941703796e-04
2.177000000000000000e+03 1.760143876075744629e+00 9.693256378173828125e+00 4.248155280947685242e-03 -8.410212397575378418e-01 -2.510319054126739502e-01 2.562779486179351807e-01
2.178000000000000000e+03 2.507640123367309570e+00 -9.804955482482910156e+00 -4.830933448829455301e-06 -5.828832854604115710e-06 -3.197929800080601126e-06 -2.825742285494925454e-06
2.179000000000000000e+03 2.539922714233398438e+00 -8.168475151062011719e+00 -5.267206233838805929e-06 -4.760543561133090407e-06 -3.008324938491568901e-06 -3.750983523786999285e-06
2.180000000000000000e+03 1.906882286071777344e+00 2.660243225097656250e+01 6.273236591368913651e-03 -1.833815097808837891e+00 -5.482625961303710938e-01 -9.829979389905929565e-04
2.181000000000000000e+03 2.713107347488403320e+00 2.821080780029296875e+01 1.687298715114593506e-02 -1.685453534126281738e+00 -5.005741715431213379e-01 -1.775990612804889679e-02
2.182000000000000000e+03 1.837344646453857422e+00 -6.595760345458984375e+00 1.080713809642475098e-05 2.380555997660849243e-06 3.956308319175150245e-06 4.247821834724163637e-06
2.183000000000000000e+03 1.791439771652221680e+00 4.913267135620117188e+00 -4.275770857930183411e-02 -2.725703716278076172e-01 -9.459842741489410400e-02 1.884161531925201416e-01
2.184000000000000000e+03 4.739634037017822266e+00 3.971565723419189453e+00 -2.420480698347091675e-01 -2.802236378192901611e-01 -1.566815078258514404e-01 4.260987639427185059e-01
2.185000000000000000e+03 2.465329170227050781e+00 8.824452400207519531e+00 -1.887671649456024170e-03 -7.351415157318115234e-01 -2.211087495088577271e-01 3.436326682567596436e-01
2.186000000000000000e+03 2.522137641906738281e+00 1.681558799743652344e+01 3.577249497175216675e-02 -1.460814476013183594e+00 -4.275126159191131592e-01 1.891660094261169434e-01
2.187000000000000000e+03 1.792232632637023926e+00 1.610859298706054688e+01 1.882837899029254913e-02 -1.504970788955688477e+00 -4.458427131175994873e-01 1.550782769918441772e-01
2.188000000000000000e+03 2.509546041488647461e+00 1.520128917694091797e+01 3.534533083438873291e-02 -1.352643847465515137e+00 -3.951895534992218018e-01 2.302190959453582764e-01
2.189000000000000000e+03 2.709588527679443359e+00 -3.387617826461791992e+00 -2.883909473894163966e-06 -2.740268655543331988e-06 -1.687253416093881242e-06 -5.296260496834293008e-06
2.190000000000000000e+03 1.857082486152648926e+00 -5.790178775787353516e+00 -9.670270628703292459e-06 -1.997483650484355167e-06 -3.500326329231029376e-06 -4.781755251315189525e-06
2.191000000000000000e+03 3.353376388549804688e+00 -6.496221065521240234e+00 -1.261836018784379121e-06 2.608414888527477160e-06 4.039736438699037535e-07 2.851282260962761939e-06
2.192000000000000000e+03 2.589059829711914062e+00 -6.547783374786376953e+00 -4.880368578596971929e-06 -2.850816599675454199e-06 -2.319355417057522573e-06 -4.276687377569032833e-06
2.193000000000000000e+03 2.659986257553100586e+00 2.570573234558105469e+01 1.581301726400852203e-02 -1.701145410537719727e+00 -5.055997371673583984e-01 8.647227659821510315e-03
2.194000000000000000e+03 2.625594615936279297e+00 2.406579017639160156e+01 2.241991832852363586e-02 -1.693560838699340820e+00 -5.013422369956970215e-01 3.226058930158615112e-02
2.195000000000000000e+03 2.678496360778808594e+00 2.735655975341796875e+01 1.246204320341348648e-02 -1.695217013359069824e+00 -5.048264861106872559e-01 -7.535956799983978271e-03
2.196000000000000000e+03 3.577704429626464844e+00 2.906471824645996094e+01 2.064339630305767059e-02 -1.531858086585998535e+00 -4.533644318580627441e-01 -2.863488532602787018e-02
2.197000000000000000e+03 1.867991805076599121e+00 2.416225814819335938e+01 1.214833557605743408e-02 -1.827816843986511230e+00 -5.447005629539489746e-01 2.063642814755439758e-02
2.198000000000000000e+03 1.853033304214477539e+00 2.335111999511718750e+01 1.315652579069137573e-02 -1.818234920501708984e+00 -5.415235161781311035e-01 3.124511428177356720e-02
2.199000000000000000e+03 2.582122802734375000e+00 2.243645668029785156e+01 2.727892249822616577e-02 -1.675420045852661133e+00 -4.944423437118530273e-01 5.982106924057006836e-02
2.200000000000000000e+03 1.923797607421875000e+00 -3.165443038940429688e+01 -3.035914851352572441e-04 2.902908308897167444e-04 -3.990192908531753346e-06 8.246256038546562195e-05
2.201000000000000000e+03 2.623656988143920898e+00 -3.004374504089355469e+01 6.296455831034108996e-05 2.075640659313648939e-04 8.115858508972451091e-05 2.139035204891115427e-04
2.202000000000000000e+03 3.593501091003417969e+00 3.516323471069335938e+01 -1.664343848824501038e-02 -1.478031992912292480e+00 -4.484026432037353516e-01 -4.179802909493446350e-02
2.203000000000000000e+03 3.400514125823974609e+00 -3.090107154846191406e+01 -1.166766305686905980e-04 -9.533387492410838604e-05 -6.360314728226512671e-05 1.043189740812522359e-06
2.204000000000000000e+03 2.596484422683715820e+00 -2.921092796325683594e+01 -3.056728746742010117e-04 6.378644229698693380e-06 -8.978826372185721993e-05 3.700304077938199043e-04
2.205000000000000000e+03 2.728535175323486328e+00 -3.329821014404296875e+01 -1.266910694539546967e-04 -2.996789989992976189e-04 -1.279110147152096033e-04 -4.892798606306314468e-04
2.206000000000000000e+03 2.546538829803466797e+00 3.162156677246093750e+01 4.499394912272691727e-03 -1.696947097778320312e+00 -5.077342987060546875e-01 -4.033419489860534668e-02
2.207000000000000000e+03 2.714696407318115234e+00 3.350375366210937500e+01 -7.903431542217731476e-03 -1.648825883865356445e+00 -4.970187842845916748e-01 -4.138154536485671997e-02
2.208000000000000000e+03 2.403748750686645508e+00 3.228347015380859375e+01 -3.669735044240951538e-03 -1.704985022544860840e+00 -5.125964283943176270e-01 -3.741093352437019348e-02
2.209000000000000000e+03 2.448802471160888672e+00 3.286373901367187500e+01 3.003092715516686440e-03 -1.691658377647399902e+00 -5.065966248512268066e-01 -3.997338190674781799e-02
2.210000000000000000e+03 2.750729560852050781e+00 -3.498403930664062500e+01 -1.536333147669211030e-04 -6.967893568798899651e-04 -2.551267971284687519e-04 -8.017016225494444370e-04
2.211000000000000000e+03 2.752944707870483398e+00 2.997304725646972656e+01 1.316822506487369537e-02 -1.673746347427368164e+00 -4.981734454631805420e-01 -3.180299699306488037e-02
2.212000000000000000e+03 2.783785820007324219e+00 -3.414641189575195312e+01 -5.114899831824004650e-04 -8.027916192077100277e-04 -3.942844632547348738e-04 -5.392856546677649021e-04
2.213000000000000000e+03 1.840860605239868164e+00 3.154840850830078125e+01 -2.196206245571374893e-03 -1.811700940132141113e+00 -5.441691279411315918e-01 -2.984688431024551392e-02
2.214000000000000000e+03 7.734590148925781250e+01 -3.892654800415039062e+01 -6.611788272857666016e-02 6.600587844848632812e+00 1.960340857505798340e+00 -9.848344326019287109e-02
2.215000000000000000e+03 4.223963165283203125e+01 -1.832277679443359375e+01 1.694087088108062744e-01 9.396184921264648438e+00 2.869678020477294922e+00 -2.308948755264282227e+00
2.216000000000000000e+03 7.134375000000000000e+01 2.155154705047607422e+00 9.762198328971862793e-01 1.274037837982177734e+01 4.114979743957519531e+00 1.104056954383850098e+00
2.217000000000000000e+03 7.754365539550781250e+01 3.792910099029541016e+00 1.808108240365982056e-01 6.086168766021728516e+00 1.880093932151794434e+00 4.244644343852996826e-01
2.218000000000000000e+03 4.848345184326171875e+01 -8.081492424011230469e+00 -3.383865654468536377e-01 4.751610279083251953e+00 1.323967099189758301e+00 -6.521658301353454590e-01
2.219000000000000000e+03 4.896014404296875000e+01 -9.579711914062500000e+00 -6.000046730041503906e-01 4.408427715301513672e+00 1.142526865005493164e+00 -2.345820069313049316e-01
2.220000000000000000e+03 2.536888599395751953e+00 -3.873000717163085938e+01 2.309886212970013730e-06 -1.858212170191109180e-03 -5.567706539295613766e-04 -8.755373419262468815e-04
2.221000000000000000e+03 6.533884429931640625e+01 -1.258754253387451172e+01 1.648279547691345215e+00 3.678832769393920898e+00 1.598133683204650879e+00 1.962444186210632324e+00
2.222000000000000000e+03 2.615409851074218750e+00 -5.741578102111816406e+00 4.339156930655008182e-06 2.068290086754132062e-06 1.922234105222742073e-06 4.641633950086543337e-06
2.223000000000000000e+03 5.845965385437011719e+00 -3.266777515411376953e+00 3.758331558856298216e-06 -3.759787205126485787e-06 -4.367239625491237121e-10 -1.168064841294835787e-06
2.224000000000000000e+03 5.761789321899414062e+00 -3.985384464263916016e+00 -5.842666723765432835e-06 2.952263685074285604e-06 -8.671209457133954857e-07 -1.028814811121492312e-08
2.225000000000000000e+03 4.227162361145019531e+00 -4.076494693756103516e+00 -3.128189973722328432e-06 3.498543492241878994e-06 1.111060683456344123e-07 3.611167130657122470e-06
2.226000000000000000e+03 4.998079776763916016e+00 -4.030246257781982422e+00 4.973176601197337732e-06 -3.367010322108399123e-06 4.818499519387842156e-07 -1.955210791493300349e-06
2.227000000000000000e+03 6.514750480651855469e+00 -3.950227260589599609e+00 5.351149411580991000e-06 -2.095951458613853902e-06 9.765593631527735852e-07 1.286946712752978783e-06
2.228000000000000000e+03 8.456195831298828125e+00 -4.640579223632812500e+00 4.763351171277463436e-06 8.689793844496307429e-07 1.689699161033786368e-06 4.100843852938851342e-06
2.229000000000000000e+03 6.925550842285156250e+01 3.229978942871093750e+01 -1.120103836059570312e+00 3.293591260910034180e+00 6.520462632179260254e-01 6.190386787056922913e-02
2.230000000000000000e+03 4.273893737792968750e+01 6.220907211303710938e+00 1.535157322883605957e+00 9.019154548645019531e+00 3.166293382644653320e+00 -2.969614505767822266e+00
2.231000000000000000e+03 7.182857513427734375e+01 1.640022850036621094e+01 9.365844726562500000e-02 9.071366310119628906e+00 2.749507427215576172e+00 6.340034604072570801e-01
2.232000000000000000e+03 3.528343200683593750e+01 -1.641049194335937500e+01 -3.093740046024322510e-01 7.012463212013244629e-01 1.175616905093193054e-01 -8.413113355636596680e-01
2.233000000000000000e+03 3.556081390380859375e+01 -1.599923515319824219e+01 -2.365096658468246460e-01 1.125140666961669922e+00 2.665893137454986572e-01 -1.112338900566101074e+00
2.234000000000000000e+03 4.698030853271484375e+01 3.206263732910156250e+01 -2.935309410095214844e-01 2.845235109329223633e+00 7.655112743377685547e-01 7.240993976593017578e-01
2.235000000000000000e+03 4.295433425903320312e+01 2.794314384460449219e+00 6.057804226875305176e-01 7.158923149108886719e+00 2.329411029815673828e+00 -2.271208047866821289e+00
2.236000000000000000e+03 6.352460479736328125e+01 -1.456326866149902344e+01 9.215707182884216309e-01 2.675984621047973633e+00 1.079266548156738281e+00 1.805543899536132812e+00
2.237000000000000000e+03 4.967948913574218750e+01 -1.199650478363037109e+01 -1.418880343437194824e+00 3.814771175384521484e+00 7.187672853469848633e-01 5.830251574516296387e-01
2.238000000000000000e+03 2.749150657653808594e+01 -3.331854248046875000e+01 -2.672021090984344482e-01 1.940614916384220123e-02 -7.433879375457763672e-02 -8.936629444360733032e-02
2.239000000000000000e+03 4.276470565795898438e+01 2.207228469848632812e+01 7.815878987312316895e-01 6.751500606536865234e+00 2.259926557540893555e+00 1.547080039978027344e+00
2.240000000000000000e+03 4.174198150634765625e+01 2.144412612915039062e+01 6.630344390869140625e-01 6.903146743774414062e+00 2.269854307174682617e+00 1.100335240364074707e+00
2.241000000000000000e+03 9.242976188659667969e+00 -1.615611839294433594e+01 -1.600871109985746443e-05 -2.795625960061443038e-06 -5.641300958814099431e-06 2.830745143000967801e-05
2.242000000000000000e+03 2.580061531066894531e+01 -3.347973251342773438e+01 -1.838202923536300659e-01 4.267094191163778305e-03 -5.386596173048019409e-02 -9.262327104806900024e-02
2.243000000000000000e+03 2.558104896545410156e+01 -3.475277709960937500e+01 -9.990890324115753174e-02 5.637001711875200272e-03 -2.828156948089599609e-02 -1.289602816104888916e-01
2.244000000000000000e+03 2.733405113220214844e+01 -1.097220420837402344e+01 -9.754285216331481934e-01 1.698704995214939117e-02 -2.875324487686157227e-01 8.306816816329956055e-01
2.245000000000000000e+03 2.699307823181152344e+01 -1.029018211364746094e+01 -1.056818842887878418e+00 -2.426885254681110382e-02 -3.243263065814971924e-01 8.483986854553222656e-01
2.246000000000000000e+03 4.532056808471679688e+01 2.752775764465332031e+01 5.426188707351684570e-01 4.075514793395996094e+00 1.385440111160278320e+00 1.364314675331115723e+00
2.247000000000000000e+03 4.316743469238281250e+01 2.569034576416015625e+01 4.126851558685302734e-01 5.232686519622802734e+00 1.693611383438110352e+00 1.101792693138122559e+00
2.248000000000000000e+03 6.935676574707031250e+01 -7.099507331848144531e+00 6.967678666114807129e-01 7.530692577362060547e+00 2.468238115310668945e+00 1.622470974922180176e+00
2.249000000000000000e+03 5.763857269287109375e+01 3.748929977416992188e+01 -9.684251546859741211e-01 -3.286184370517730713e-01 -3.891130685806274414e-01 3.310142159461975098e-01
2.250000000000000000e+03 7.165882873535156250e+01 -6.785070896148681641e-01 8.900604248046875000e-01 1.112002372741699219e+01 3.603025197982788086e+00 9.223656654357910156e-01
2.251000000000000000e+03 7.097728729248046875e+01 -4.661019444465637207e-01 9.164357781410217285e-01 1.208900165557861328e+01 3.901631355285644531e+00 1.348991394042968750e+00
2.252000000000000000e+03 1.938465118408203125e+01 -3.462119293212890625e+01 -3.865376859903335571e-02 -2.092343010008335114e-02 -1.787315867841243744e-02 -5.632504820823669434e-02
2.253000000000000000e+03 7.061785888671875000e+01 -3.951540231704711914e+00 6.191598176956176758e-01 9.555706977844238281e+00 3.052460193634033203e+00 1.418317198753356934e+00
2.254000000000000000e+03 7.670944976806640625e+01 -4.264646053314208984e+00 1.064360961318016052e-01 6.445112705230712891e+00 1.965464591979980469e+00 -5.146591067314147949e-01
2.255000000000000000e+03 7.115160369873046875e+01 -2.346822738647460938e+00 6.568239331245422363e-01 1.050347042083740234e+01 3.348088264465332031e+00 1.202894687652587891e+00
2.256000000000000000e+03 6.970023345947265625e+01 -6.323597431182861328e+00 6.329344511032104492e-01 8.054680824279785156e+00 2.606284618377685547e+00 1.568626165390014648e+00
2.257000000000000000e+03 7.002338409423828125e+01 -5.539069652557373047e+00 6.391031742095947266e-01 8.548264503479003906e+00 2.756210327148437500e+00 1.520633935928344727e+00
2.258000000000000000e+03 5.949112319946289062e+01 -2.311407089233398438e+01 2.487330198287963867e+00 2.048352241516113281e+00 1.360704779624938965e+00 2.303539037704467773e+00
2.259000000000000000e+03 4.119641494750976562e+01 1.901055145263671875e+01 6.511712670326232910e-01 7.980950355529785156e+00 2.589636564254760742e+00 8.076868057250976562e-01
2.260000000000000000e+03 3.400008773803710938e+01 -1.606600952148437500e+01 -5.949190855026245117e-01 5.413317084312438965e-01 -1.607620716094970703e-02 -3.314276933670043945e-01
2.261000000000000000e+03 4.426522064208984375e+01 -2.513468742370605469e+01 1.857470393180847168e+00 1.146130752563476562e+01 3.995633602142333984e+00 -1.785494923591613770e+00
2.262000000000000000e+03 1.473016548156738281e+01 -3.373731994628906250e+01 -2.234982512891292572e-02 -6.780466530472040176e-03 -8.739087730646133423e-03 -2.147235721349716187e-02
2.263000000000000000e+03 1.495275688171386719e+01 -3.271312332153320312e+01 -2.548011951148509979e-02 -5.174508551135659218e-04 -7.799271028488874435e-03 -1.613000594079494476e-02
2.264000000000000000e+03 7.063149261474609375e+01 2.709875297546386719e+01 4.502719640731811523e-02 6.263235569000244141e+00 1.892478942871093750e+00 1.723348200321197510e-01
2.265000000000000000e+03 7.099556732177734375e+01 2.452451515197753906e+01 2.592168152332305908e-01 7.518475532531738281e+00 2.333307743072509766e+00 2.269113361835479736e-01
2.266000000000000000e+03 2.481364822387695312e+01 -3.319622039794921875e+01 -1.647319048643112183e-01 9.195066057145595551e-03 -4.666104912757873535e-02 -8.607280254364013672e-02
2.267000000000000000e+03 2.349132156372070312e+01 -3.362399673461914062e+01 -1.177450045943260193e-01 -2.898642094805836678e-03 -3.619309514760971069e-02 -7.659950107336044312e-02
2.268000000000000000e+03 7.198920440673828125e+01 -2.398205375671386719e+01 6.508019566535949707e-01 8.776565551757812500e+00 2.828210353851318359e+00 -8.338340371847152710e-02
2.269000000000000000e+03 7.183863067626953125e+01 -2.158706092834472656e+01 -2.017238140106201172e+00 6.396457672119140625e+00 1.313765764236450195e+00 -4.792399108409881592e-01
2.270000000000000000e+03 4.155506515502929688e+01 2.062393188476562500e+01 6.431047320365905762e-01 7.276045799255371094e+00 2.375745058059692383e+00 1.042651057243347168e+00
2.271000000000000000e+03 4.137640380859375000e+01 1.981322097778320312e+01 6.331015825271606445e-01 7.626016616821289062e+00 2.477735519409179688e+00 9.554576277732849121e-01
2.272000000000000000e+03 7.087908935546875000e+01 2.903782272338867188e+01 -4.304084181785583496e-01 5.688260555267333984e+00 1.577355623245239258e+00 4.353233873844146729e-01
2.273000000000000000e+03 1.228260612487792969e+01 -1.300890922546386719e+01 -1.615295514056924731e-05 -3.229390131309628487e-05 -1.453405639040283859e-05 -1.082684866560157388e-05
2.274000000000000000e+03 6.820950317382812500e+01 -9.373538017272949219e+00 9.686934351921081543e-01 5.983827114105224609e+00 2.085756301879882812e+00 1.711521506309509277e+00
2.275000000000000000e+03 4.353065109252929688e+01 2.657816505432128906e+01 3.287376761436462402e-01 4.845813751220703125e+00 1.552365422248840332e+00 1.078392028808593750e+00
2.276000000000000000e+03 5.268077087402343750e+01 -1.732777786254882812e+01 -3.142522573471069336e+00 1.157979607582092285e+00 -5.953629612922668457e-01 2.780172042548656464e-02
2.277000000000000000e+03 5.205943298339843750e+01 -1.500915622711181641e+01 -3.294170379638671875e+00 1.083043813705444336e+00 -6.633380055427551270e-01 1.281591892242431641e+00
2.278000000000000000e+03 2.392020797729492188e+01 -3.525304031372070312e+01 -5.006581917405128479e-02 -2.139586396515369415e-02 -2.143850550055503845e-02 -1.025796756148338318e-01
2.279000000000000000e+03 3.075551223754882812e+01 -1.524649715423583984e+01 -8.149036765098571777e-01 2.205344587564468384e-01 -1.783107668161392212e-01 3.687741756439208984e-01
2.280000000000000000e+03 6.273740768432617188e+01 -2.138378715515136719e+01 -1.646178811788558960e-01 1.750023961067199707e+00 4.756218194961547852e-01 2.210340023040771484e+00
2.281000000000000000e+03 6.744783020019531250e+01 -1.193986225128173828e+01 1.109401345252990723e+00 4.567474842071533203e+00 1.703062891960144043e+00 1.359623432159423828e+00
2.282000000000000000e+03 7.032836151123046875e+01 -4.746951580047607422e+00 6.117838621139526367e-01 9.066659927368164062e+00 2.903533220291137695e+00 1.485702037811279297e+00
2.283000000000000000e+03 3.399469375610351562e+01 -3.414695739746093750e+01 -3.955085575580596924e-01 2.002600021660327911e-02 -1.126447692513465881e-01 -7.069259136915206909e-02
2.284000000000000000e+03 7.578985595703125000e+01 -3.379877090454101562e+01 -1.551916152238845825e-01 6.604066848754882812e+00 1.934662580490112305e+00 -3.268193602561950684e-01
2.285000000000000000e+03 1.287505435943603516e+01 3.320382833480834961e+00 -5.977959036827087402e-01 -1.045392751693725586e+00 -4.929566085338592529e-01 1.021138787269592285e+00
2.286000000000000000e+03 1.308368682861328125e+01 2.315597295761108398e+00 -9.450969099998474121e-01 -1.055980443954467773e+00 -6.003232002258300781e-01 1.070809960365295410e+00
2.287000000000000000e+03 1.057739448547363281e+01 3.358766555786132812e+00 -6.448192000389099121e-01 -8.096568584442138672e-01 -4.363428056240081787e-01 9.737366437911987305e-01
2.288000000000000000e+03 5.234234237670898438e+01 -1.663114929199218750e+01 -3.425687789916992188e+00 1.399804830551147461e+00 -6.077648401260375977e-01 4.418625533580780029e-01
2.289000000000000000e+03 6.238537216186523438e+01 -1.622997093200683594e+01 -6.150696873664855957e-01 2.384348630905151367e+00 5.307837128639221191e-01 1.915538787841796875e+00
2.290000000000000000e+03 6.279535293579101562e+01 -1.512947177886962891e+01 4.137795865535736084e-01 2.409103631973266602e+00 8.468649387359619141e-01 1.787186980247497559e+00
2.291000000000000000e+03 2.663113212585449219e+01 -9.596490859985351562e+00 -1.127897262573242188e+00 -7.064298540353775024e-02 -3.595620691776275635e-01 8.690946698188781738e-01
2.292000000000000000e+03 7.175175476074218750e+01 2.369707870483398438e+01 2.287848144769668579e-01 7.843848228454589844e+00 2.421789884567260742e+00 4.445059895515441895e-01
2.293000000000000000e+03 7.131091308593750000e+01 2.719423103332519531e+01 -3.314716741442680359e-02 6.634357452392578125e+00 1.980363130569458008e+00 4.710988700389862061e-01
2.294000000000000000e+03 4.194815444946289062e+01 2.227991294860839844e+01 6.609792709350585938e-01 6.552651405334472656e+00 2.164089202880859375e+00 1.104083299636840820e+00
2.295000000000000000e+03 4.930067825317382812e+01 3.434450531005859375e+01 -5.159257650375366211e-01 1.960128307342529297e+00 4.332607686519622803e-01 5.269725918769836426e-01
2.296000000000000000e+03 7.287037658691406250e+01 -2.552783203125000000e+01 1.015049338340759277e+00 9.637682914733886719e+00 3.195819616317749023e+00 4.475673139095306396e-01
2.297000000000000000e+03 7.295014190673828125e+01 -2.632478141784667969e+01 1.153146266937255859e+00 9.773213386535644531e+00 3.277907848358154297e+00 7.005532383918762207e-01
2.298000000000000000e+03 4.048475646972656250e+01 1.569330596923828125e+01 8.669134378433227539e-01 9.084557533264160156e+00 2.985441446304321289e+00 1.289914101362228394e-01
2.299000000000000000e+03 4.037146377563476562e+01 1.299599933624267578e+01 1.158397078514099121e+00 9.893675804138183594e+00 3.315621852874755859e+00 -8.016394376754760742e-01
2.300000000000000000e+03 3.960107803344726562e+01 1.304530239105224609e+01 1.399298310279846191e+00 8.941896438598632812e+00 3.102358579635620117e+00 -8.730021715164184570e-01
2.301000000000000000e+03 5.895581054687500000e+01 -1.701718711853027344e+01 -3.110532522201538086e+00 9.796026945114135742e-01 -6.392789483070373535e-01 1.561889648437500000e+00
2.302000000000000000e+03 5.998693847656250000e+01 -1.742059707641601562e+01 -2.181671857833862305e+00 1.701424837112426758e+00 -1.440740972757339478e-01 2.088063001632690430e+00
2.303000000000000000e+03 6.122299575805664062e+01 -2.104729080200195312e+01 -8.523380011320114136e-02 2.177092790603637695e+00 6.275576949119567871e-01 2.560925960540771484e+00
2.304000000000000000e+03 6.570316314697265625e+01 -2.073235130310058594e+01 -2.022708177566528320e+00 8.896578550338745117e-01 -3.399150669574737549e-01 1.427486658096313477e+00
2.305000000000000000e+03 8.274941444396972656e+00 -2.704967308044433594e+01 3.053870750591158867e-04 -4.838883178308606148e-04 -5.355037501431070268e-05 -5.247244262136518955e-04
2.306000000000000000e+03 8.062437057495117188e+00 -2.969915390014648438e+01 -1.086677308194339275e-03 -1.090971869416534901e-03 -6.532947300001978874e-04 5.138034466654062271e-04
2.307000000000000000e+03 4.313922882080078125e+01 -1.962869834899902344e+01 1.242012977600097656e+00 1.042197513580322266e+01 3.499196290969848633e+00 -1.748593807220458984e+00
2.308000000000000000e+03 6.625956726074218750e+01 -2.029046058654785156e+01 -1.873428583145141602e+00 7.615188956260681152e-01 -3.335728943347930908e-01 1.400319814682006836e+00
2.309000000000000000e+03 5.595262908935546875e+01 -2.790356254577636719e+01 1.752743244171142578e+00 5.276973724365234375e+00 2.108915090560913086e+00 1.545318365097045898e+00
2.310000000000000000e+03 5.412448120117187500e+01 -2.978864669799804688e+01 2.011904716491699219e+00 5.514161586761474609e+00 2.257819890975952148e+00 -4.296663701534271240e-01
2.311000000000000000e+03 7.680524444580078125e+01 2.374587059020996094e+01 5.858229100704193115e-02 9.120532035827636719e+00 2.753734111785888672e+00 7.861335873603820801e-01
2.312000000000000000e+03 2.539985275268554688e+01 -7.475955009460449219e+00 -1.314060568809509277e+00 -2.985357344150543213e-01 -4.837788939476013184e-01 9.188804030418395996e-01
2.313000000000000000e+03 6.879621887207031250e+01 -9.738330841064453125e+00 8.479840159416198730e-01 5.984475135803222656e+00 2.049737691879272461e+00 1.332197308540344238e+00
2.314000000000000000e+03 4.218386459350585938e+01 2.313396644592285156e+01 6.234033703804016113e-01 6.206490993499755859e+00 2.048968315124511719e+00 1.111127257347106934e+00
2.315000000000000000e+03 2.493791198730468750e+01 -6.770825862884521484e+00 -1.354765295982360840e+00 -3.844080865383148193e-01 -5.217519998550415039e-01 9.351714253425598145e-01
2.316000000000000000e+03 4.090475845336914062e+01 8.374853134155273438e+00 1.802735090255737305e+00 9.606678009033203125e+00 3.422823905944824219e+00 -1.615279316902160645e+00
2.317000000000000000e+03 7.203908538818359375e+01 3.816905021667480469e+00 5.398330688476562500e-01 1.182868003845214844e+01 3.710553884506225586e+00 8.354080319404602051e-01
2.318000000000000000e+03 7.191682434082031250e+01 2.289774715900421143e-01 1.034551620483398438e+00 1.120280361175537109e+01 3.671206712722778320e+00 8.279192447662353516e-01
2.319000000000000000e+03 3.330084228515625000e+01 -3.399545669555664062e+01 -4.772792756557464600e-01 1.464104186743497849e-02 -1.387914717197418213e-01 -1.221986189484596252e-01
2.320000000000000000e+03 4.048530197143554688e+01 1.118323326110839844e+01 1.844830036163330078e+00 1.003810596466064453e+01 3.564880847930908203e+00 -1.333303213119506836e+00
2.321000000000000000e+03 4.836634445190429688e+01 3.340949630737304688e+01 -4.170848727226257324e-01 2.252670764923095703e+00 5.506758093833923340e-01 6.198568940162658691e-01
2.322000000000000000e+03 2.394037246704101562e+01 -5.383123874664306641e+00 -1.405196905136108398e+00 -5.800488591194152832e-01 -5.955737233161926270e-01 9.614961147308349609e-01
2.323000000000000000e+03 2.340287017822265625e+01 -4.710260868072509766e+00 -1.414445996284484863e+00 -6.873978376388549805e-01 -6.305531263351440430e-01 9.727436304092407227e-01
2.324000000000000000e+03 6.675703430175781250e+01 -1.982442474365234375e+01 -1.642587780952453613e+00 7.032579183578491211e-01 -2.817989587783813477e-01 1.284471154212951660e+00
2.325000000000000000e+03 6.733106231689453125e+01 -2.033332252502441406e+01 -2.296421527862548828e+00 -7.005454599857330322e-02 -7.099428176879882812e-01 9.182565808296203613e-01
2.326000000000000000e+03 4.136244201660156250e+01 -1.855894088745117188e+01 8.541330099105834961e-01 9.005776405334472656e+00 2.957972764968872070e+00 -3.202535152435302734e+00
2.327000000000000000e+03 4.046654891967773438e+01 -1.862417221069335938e+01 1.784704446792602539e+00 7.504355430603027344e+00 2.786717891693115234e+00 -3.762070417404174805e+00
2.328000000000000000e+03 1.804269409179687500e+01 1.071605920791625977e+00 -8.362125158309936523e-01 -1.155897617340087891e+00 -5.976330637931823730e-01 9.383249282836914062e-01
2.329000000000000000e+03 7.182975006103515625e+01 9.409030914306640625e+00 -2.551189363002777100e-01 1.030988216400146484e+01 3.016428947448730469e+00 6.918905973434448242e-01
2.330000000000000000e+03 7.172226715087890625e+01 1.401124477386474609e+01 3.811338171362876892e-02 9.239528656005859375e+00 2.783292770385742188e+00 4.284599721431732178e-01
2.331000000000000000e+03 1.624242973327636719e+01 1.394791364669799805e+00 -9.591614603996276855e-01 -1.236090183258056641e+00 -6.585754752159118652e-01 1.069463849067687988e+00
2.332000000000000000e+03 1.552140712738037109e+01 1.801090478897094727e+00 -9.069972634315490723e-01 -1.205706477165222168e+00 -6.338111162185668945e-01 1.065078139305114746e+00
2.333000000000000000e+03 1.907067680358886719e+01 -5.251879096031188965e-01 -1.192633628845214844e+00 -1.220584869384765625e+00 -7.239655256271362305e-01 1.045413017272949219e+00
2.334000000000000000e+03 1.838764190673828125e+01 -1.263566222041845322e-02 -1.137942075729370117e+00 -1.246487855911254883e+00 -7.153289914131164551e-01 1.052732825279235840e+00
2.335000000000000000e+03 3.086135625839233398e+00 -1.783567047119140625e+01 -5.828472058055922389e-05 9.701588169264141470e-06 -1.457493999623693526e-05 1.508809691586066037e-05
2.336000000000000000e+03 6.639960479736328125e+01 -1.228135204315185547e+01 1.370066285133361816e+00 4.094704627990722656e+00 1.639431238174438477e+00 1.677172541618347168e+00
2.337000000000000000e+03 7.146964263916015625e+01 2.629167366027832031e+01 1.207038089632987976e-01 7.004897594451904297e+00 2.137680292129516602e+00 4.788100123405456543e-01
2.338000000000000000e+03 2.102669143676757812e+01 -2.197428226470947266e+00 -1.337252259254455566e+00 -1.060280203819274902e+00 -7.192597389221191406e-01 1.014645099639892578e+00
2.339000000000000000e+03 3.604276657104492188e+01 -1.567924118041992188e+01 -2.477392256259918213e-01 1.682218909263610840e+00 4.303438961505889893e-01 -1.439794421195983887e+00
2.340000000000000000e+03 2.039036560058593750e+01 -1.621946215629577637e+00 -1.295359134674072266e+00 -1.126857638359069824e+00 -7.266650199890136719e-01 1.025318384170532227e+00
2.341000000000000000e+03 6.688854217529296875e+01 -1.156260490417480469e+01 1.345272302627563477e+00 4.537778377532958984e+00 1.764915227890014648e+00 1.692922830581665039e+00
2.342000000000000000e+03 5.520647430419921875e+01 -2.635500335693359375e+01 2.454964637756347656e+00 3.728178739547729492e+00 1.854943037033081055e+00 9.684345126152038574e-01
2.343000000000000000e+03 5.634759140014648438e+01 -2.607441520690917969e+01 2.676211357116699219e+00 3.323246240615844727e+00 1.799837231636047363e+00 1.856080293655395508e+00
2.344000000000000000e+03 3.473508071899414062e+01 -3.453494262695312500e+01 -2.306927591562271118e-01 1.454970836639404297e-01 -2.555870078504085541e-02 4.597194492816925049e-02
2.345000000000000000e+03 6.263092422485351562e+01 -2.220722007751464844e+01 7.607101798057556152e-01 1.514204621315002441e+00 6.824744343757629395e-01 2.071778059005737305e+00
2.346000000000000000e+03 4.442340469360351562e+01 -2.721125793457031250e+01 1.758305788040161133e+00 1.064194202423095703e+01 3.720074415206909180e+00 -6.402567625045776367e-01
2.347000000000000000e+03 3.697268009185791016e+00 -1.705389213562011719e+01 -1.043329684762284160e-04 6.578015018021687865e-05 -1.156584585260134190e-05 5.141704605193808675e-06
2.348000000000000000e+03 7.381796360015869141e+00 -2.313288307189941406e+01 2.886700385715812445e-04 2.408573782304301858e-04 1.588582235854119062e-04 -1.263980957446619868e-04
2.349000000000000000e+03 1.740004348754882812e+01 -3.462096405029296875e+01 -2.745450846850872040e-02 -1.537837367504835129e-02 -1.284986454993486404e-02 -4.225832968950271606e-02
2.350000000000000000e+03 4.508359146118164062e+01 -2.315168952941894531e+01 2.809631109237670898e+00 9.559128761291503906e+00 3.710628032684326172e+00 -2.028173446655273438e+00
2.351000000000000000e+03 4.400978088378906250e+01 -2.356805038452148438e+01 2.622056722640991211e+00 1.191615867614746094e+01 4.361464500427246094e+00 -2.443807601928710938e+00
2.352000000000000000e+03 6.971395111083984375e+01 3.162183761596679688e+01 -1.032167196273803711e+00 3.868130683898925781e+00 8.507890701293945312e-01 1.551085710525512695e-01
2.353000000000000000e+03 1.200291919708251953e+01 -3.155628776550292969e+01 -8.942683227360248566e-03 2.191735897213220596e-03 -2.025284105911850929e-03 -4.067112226039171219e-03
2.354000000000000000e+03 1.292660331726074219e+01 -3.364812850952148438e+01 -1.507740095257759094e-02 -5.857642274349927902e-03 -6.280513014644384384e-03 -1.379658188670873642e-02
2.355000000000000000e+03 6.616305541992187500e+01 -3.704005813598632812e+01 4.953729212284088135e-01 1.226186156272888184e+00 5.164677500724792480e-01 6.759229898452758789e-01
2.356000000000000000e+03 5.783708572387695312e+01 -1.819067764282226562e+01 -2.641230106353759766e+00 1.205562725663185120e-01 -7.562021613121032715e-01 2.246419191360473633e+00
2.357000000000000000e+03 1.028034782409667969e+01 -1.577529048919677734e+01 1.890991734398994595e-05 5.341105133993551135e-05 2.169629078707657754e-05 -3.101606125710532069e-05
2.358000000000000000e+03 8.806366920471191406e+00 -1.686342620849609375e+01 4.719995922641828656e-05 2.711628985707648098e-05 2.229487472504843026e-05 -3.419855056563392282e-05
2.359000000000000000e+03 6.988363647460937500e+01 -3.347087860107421875e+01 1.073689609766006470e-01 4.000226974487304688e+00 1.232278823852539062e+00 1.385910272598266602e+00
2.360000000000000000e+03 7.060989379882812500e+01 -3.394809722900390625e+01 -1.525062918663024902e-01 4.817377567291259766e+00 1.399461388587951660e+00 1.119508981704711914e+00
2.361000000000000000e+03 7.056352996826171875e+01 2.996242332458496094e+01 -6.823615431785583496e-01 5.147204875946044922e+00 1.339452981948852539e+00 3.564220070838928223e-01
2.362000000000000000e+03 1.311936855316162109e+01 -1.180983638763427734e+01 2.723310717556159943e-05 3.281523459008894861e-05 1.801450343918986619e-05 2.006128670473117381e-05
2.363000000000000000e+03 1.493482398986816406e+01 -1.256843948364257812e+01 -4.121180154470494017e-06 2.394807552263955586e-06 -5.179118147680128459e-07 1.204524232889525592e-05
2.364000000000000000e+03 7.736363220214843750e+01 -3.046326255798339844e+01 1.772257834672927856e-01 6.484442234039306641e+00 1.998500466346740723e+00 -3.403458297252655029e-01
2.365000000000000000e+03 1.481769466400146484e+01 2.180715560913085938e+00 -8.438753485679626465e-01 -1.172319293022155762e+00 -6.048583984375000000e-01 1.057891368865966797e+00
2.366000000000000000e+03 7.204109191894531250e+01 1.191317677497863770e+00 1.089440941810607910e+00 1.136658000946044922e+01 3.736806154251098633e+00 8.778053522109985352e-01
2.367000000000000000e+03 6.892452716827392578e+00 -2.054986190795898438e+01 -1.193983625853434205e-04 -2.534907544031739235e-04 -1.118667350965552032e-04 -9.190024866256862879e-05
2.368000000000000000e+03 7.691515922546386719e+00 -2.050918960571289062e+01 6.110635240474948660e-06 1.535203191451728344e-04 4.788928708876483142e-05 4.511830866249511018e-06
2.369000000000000000e+03 5.697959518432617188e+01 -2.429876518249511719e+01 2.773744821548461914e+00 2.179463624954223633e+00 1.485962510108947754e+00 1.765862464904785156e+00
2.370000000000000000e+03 5.635764694213867188e+01 -2.495164871215820312e+01 2.767691850662231445e+00 2.558088541030883789e+00 1.597734093666076660e+00 1.581858515739440918e+00
2.371000000000000000e+03 1.553549098968505859e+01 -3.401950454711914062e+01 -2.305256575345993042e-02 -7.378423120826482773e-03 -9.129296988248825073e-03 -2.632382512092590332e-02
2.372000000000000000e+03 6.918920898437500000e+01 -3.527228546142578125e+01 2.906325832009315491e-02 3.203980445861816406e+00 9.699130654335021973e-01 1.126213908195495605e+00
2.373000000000000000e+03 1.806071472167968750e+01 -1.124162864685058594e+01 -5.289099590299883857e-06 -9.646719263400882483e-06 -4.480745701584964991e-06 -6.184371613926487043e-06
2.374000000000000000e+03 4.082235336303710938e+01 -3.495751571655273438e+01 -3.548125922679901123e-01 4.347552299499511719e+00 1.197821855545043945e+00 1.322421550750732422e+00
2.375000000000000000e+03 7.195365142822265625e+01 7.056082725524902344e+00 4.551292657852172852e-01 1.103933811187744141e+01 3.448340415954589844e+00 5.401641130447387695e-01
2.376000000000000000e+03 7.191691589355468750e+01 7.851280212402343750e+00 3.003602027893066406e-01 1.079566383361816406e+01 3.328807353973388672e+00 6.528987884521484375e-01
2.377000000000000000e+03 1.529249477386474609e+01 -3.610493850708007812e+01 -5.152903962880373001e-03 -2.167577482759952545e-02 -8.048603311181068420e-03 -3.061718866229057312e-02
2.378000000000000000e+03 3.824749374389648438e+01 -3.655738830566406250e+01 -1.869883271865546703e-03 2.214558601379394531e+00 6.638066172599792480e-01 1.112690329551696777e+00
2.379000000000000000e+03 5.962176513671875000e+01 -2.199792480468750000e+01 1.094933867454528809e+00 1.961275815963745117e+00 9.168629050254821777e-01 2.369825839996337891e+00
2.380000000000000000e+03 5.895919036865234375e+01 -2.257381439208984375e+01 1.769835114479064941e+00 1.860417246818542480e+00 1.089075684547424316e+00 2.132276058197021484e+00
2.381000000000000000e+03 4.080343627929687500e+01 1.739652061462402344e+01 7.990159988403320312e-01 8.549836158752441406e+00 2.804655551910400391e+00 4.674157202243804932e-01
2.382000000000000000e+03 5.819804382324218750e+01 -1.728199386596679688e+01 -3.902262210845947266e+00 4.056523442268371582e-01 -1.048982977867126465e+00 1.884029746055603027e+00
2.383000000000000000e+03 7.734738922119140625e+01 -4.058638763427734375e+01 -4.686036333441734314e-02 6.514856338500976562e+00 1.940398812294006348e+00 -1.808305270969867706e-02
2.384000000000000000e+03 5.295854187011718750e+01 -3.016474151611328125e+01 2.132023572921752930e+00 5.202995777130126953e+00 2.200505971908569336e+00 -7.339904904365539551e-01
2.385000000000000000e+03 1.794665336608886719e+01 -1.202316379547119141e+01 2.591855491118622012e-06 1.075591808330500498e-05 4.004331913165515289e-06 2.027902382906177081e-06
2.386000000000000000e+03 9.361712455749511719e+00 -3.058924674987792969e+01 -3.493828466162085533e-03 3.239462675992399454e-04 -9.509646333754062653e-04 -1.923599629662930965e-03
2.387000000000000000e+03 1.029449367523193359e+01 -3.076317977905273438e+01 -5.185171496123075485e-03 1.379222725518047810e-03 -1.141784596256911755e-03 -2.400675322860479355e-03
2.388000000000000000e+03 4.296034622192382812e+01 -3.324146652221679688e+01 -3.429154157638549805e-01 6.937119483947753906e+00 1.978261232376098633e+00 7.386754155158996582e-01
2.389000000000000000e+03 5.083252716064453125e+01 -1.576833438873291016e+01 -2.958359718322753906e+00 3.188532829284667969e+00 6.905192881822586060e-02 4.738158881664276123e-01
2.390000000000000000e+03 4.224785995483398438e+01 -3.451407623291015625e+01 -6.049324274063110352e-01 5.879615783691406250e+00 1.582404971122741699e+00 1.040234804153442383e+00
2.391000000000000000e+03 1.888871765136718750e+01 -1.146210479736328125e+01 5.023769517720211297e-06 9.023707207234110683e-06 4.214242835587356240e-06 3.450201120358542539e-06
2.392000000000000000e+03 1.807173538208007812e+01 -1.041526699066162109e+01 4.246714524924755096e-06 6.235724413272691891e-06 3.144731635984499007e-06 3.756033720492268912e-06
2.393000000000000000e+03 6.901339721679687500e+01 3.298937225341796875e+01 -1.116741180419921875e+00 3.052590370178222656e+00 5.807547569274902344e-01 1.399377547204494476e-02
2.394000000000000000e+03 7.215018463134765625e+01 3.052211380004882812e+01 -6.677669882774353027e-01 6.571629524230957031e+00 1.771158695220947266e+00 5.904768109321594238e-01
2.395000000000000000e+03 4.071891021728515625e+01 9.340840339660644531e+00 2.036238670349121094e+00 9.838605880737304688e+00 3.562453269958496094e+00 -1.489791870117187500e+00
2.396000000000000000e+03 5.919855880737304688e+01 -1.759094619750976562e+01 -2.750075101852416992e+00 1.207705259323120117e+00 -4.627109467983245850e-01 2.196306943893432617e+00
2.397000000000000000e+03 7.259891510009765625e+01 -3.378408050537109375e+01 -3.295295536518096924e-01 6.298786640167236328e+00 1.790777087211608887e+00 4.729663729667663574e-01
2.398000000000000000e+03 7.311755371093750000e+01 -2.982959556579589844e+01 9.324661493301391602e-01 8.183678627014160156e+00 2.734843254089355469e+00 3.887280225753784180e-01
2.399000000000000000e+03 3.976118469238281250e+01 -3.593508911132812500e+01 -1.747982501983642578e-01 3.189218521118164062e+00 9.043260812759399414e-01 1.319781064987182617e+00
2.400000000000000000e+03 1.014414882659912109e+01 -1.403648757934570312e+01 -1.384721599606564268e-05 -1.208571120514534414e-04 -4.041129795950837433e-05 3.593428846215829253e-05
2.401000000000000000e+03 4.343232345581054688e+01 -2.068921470642089844e+01 2.435148954391479492e+00 1.113515377044677734e+01 4.071090698242187500e+00 -1.800239324569702148e+00
2.402000000000000000e+03 7.124673461914062500e+01 -1.976845359802246094e+01 -1.978616356849670410e+00 4.848628997802734375e+00 8.610037565231323242e-01 -1.082390308380126953e+00
2.403000000000000000e+03 5.383596038818359375e+01 -1.773311233520507812e+01 -3.083174705505371094e+00 -1.403280198574066162e-01 -9.670508503913879395e-01 1.754327863454818726e-01
2.404000000000000000e+03 4.994244766235351562e+01 -1.291188049316406250e+01 -1.865243196487426758e+00 3.628383874893188477e+00 5.289421677589416504e-01 7.977871894836425781e-01
2.405000000000000000e+03 5.036883544921875000e+01 -1.383031654357910156e+01 -2.442062377929687500e+00 3.332257509231567383e+00 2.670585811138153076e-01 9.447633028030395508e-01
2.406000000000000000e+03 7.192891693115234375e+01 -2.071065330505371094e+01 -2.226169824600219727e+00 6.112893581390380859e+00 1.166017055511474609e+00 -6.570392847061157227e-01
2.407000000000000000e+03 3.820580291748046875e+01 -1.692308807373046875e+01 3.903957903385162354e-01 3.365706920623779297e+00 1.126830816268920898e+00 -2.666560888290405273e+00
2.408000000000000000e+03 6.747301483154296875e+01 3.720147323608398438e+01 -3.937247395515441895e-01 1.890645623207092285e+00 4.490762650966644287e-01 -1.006488278508186340e-01
2.409000000000000000e+03 5.442269134521484375e+01 -3.842720031738281250e+01 -3.114897906780242920e-01 4.680362224578857422e+00 1.310661673545837402e+00 -6.339603066444396973e-01
2.410000000000000000e+03 5.737150192260742188e+01 -3.625352096557617188e+01 1.291176974773406982e-01 2.963445425033569336e+00 9.277689456939697266e-01 -1.508657813072204590e+00
2.411000000000000000e+03 5.643704605102539062e+01 -1.713929557800292969e+01 -5.209700107574462891e+00 -1.651001572608947754e+00 -2.058210611343383789e+00 1.894291758537292480e+00
2.412000000000000000e+03 5.674473190307617188e+01 -2.169199943542480469e+01 1.182551383972167969e+00 1.017525911331176758e+00 6.600231528282165527e-01 1.467250227928161621e+00
2.413000000000000000e+03 1.068451595306396484e+01 -3.117944335937500000e+01 -5.344406235963106155e-03 3.779547696467489004e-04 -1.489935442805290222e-03 -1.342697883956134319e-03
2.414000000000000000e+03 5.782671356201171875e+01 -4.112982177734375000e+01 3.937922418117523193e-01 2.637656927108764648e+00 9.094347953796386719e-01 -3.124806582927703857e-01
2.415000000000000000e+03 5.500033950805664062e+01 -3.295264053344726562e+01 1.170832633972167969e+00 5.582700729370117188e+00 2.026059865951538086e+00 -7.493557333946228027e-01
2.416000000000000000e+03 3.644323348999023438e+01 -1.623085975646972656e+01 -9.991635382175445557e-02 1.626320958137512207e+00 4.579213857650756836e-01 -1.607705831527709961e+00
2.417000000000000000e+03 8.714622497558593750e+00 5.324579715728759766e+00 -2.562974691390991211e-01 -6.920093894004821777e-01 -2.844920754432678223e-01 8.716585636138916016e-01
2.418000000000000000e+03 6.158138275146484375e+01 -1.666573333740234375e+01 -1.106161594390869141e+00 2.231800556182861328e+00 3.376916348934173584e-01 1.936860680580139160e+00
2.419000000000000000e+03 6.469305419921875000e+01 -2.132918167114257812e+01 -1.170735001564025879e+00 1.032524943351745605e+00 -4.146301373839378357e-02 1.168130636215209961e+00
2.420000000000000000e+03 4.456250762939453125e+01 -3.093579483032226562e+01 1.004472613334655762e+00 8.115090370178222656e+00 2.735868692398071289e+00 -5.192332267761230469e-01
2.421000000000000000e+03 4.345471191406250000e+01 -1.892347335815429688e+01 5.377600193023681641e-01 9.618751525878906250e+00 3.046953439712524414e+00 -1.497493624687194824e+00
2.422000000000000000e+03 4.340964508056640625e+01 -2.980040740966796875e+01 2.024416208267211914e+00 9.720518112182617188e+00 3.523480415344238281e+00 2.202870845794677734e-01
2.423000000000000000e+03 4.485750579833984375e+01 -2.810699272155761719e+01 2.069018125534057617e+00 9.388990402221679688e+00 3.437402725219726562e+00 -6.839547753334045410e-01
2.424000000000000000e+03 1.128109455108642578e+01 3.953221082687377930e+00 -4.891143739223480225e-01 -9.160441160202026367e-01 -4.215475618839263916e-01 9.929662346839904785e-01
2.425000000000000000e+03 7.205309867858886719e+00 -2.665468788146972656e+01 2.840843808371573687e-04 -7.423496572300791740e-04 -1.374795683659613132e-04 -4.212288768030703068e-04
2.426000000000000000e+03 7.403735637664794922e+00 -2.545959281921386719e+01 -3.826574356935452670e-06 -6.127081578597426414e-04 -1.849604159360751510e-04 -5.566105246543884277e-04
2.427000000000000000e+03 3.921019363403320312e+01 -1.702675247192382812e+01 2.245979458093643188e-01 5.218380928039550781e+00 1.632893681526184082e+00 -2.967391252517700195e+00
2.428000000000000000e+03 5.478906250000000000e+01 3.983888244628906250e+01 -5.696033835411071777e-01 1.889484226703643799e-01 -1.141964867711067200e-01 1.602839976549148560e-01
2.429000000000000000e+03 4.416072082519531250e+01 -2.101261711120605469e+01 2.629610061645507812e+00 1.009143733978271484e+01 3.816314220428466797e+00 -1.525369524955749512e+00
2.430000000000000000e+03 4.306055831909179688e+01 1.155264019966125488e+00 2.891560494899749756e-01 6.617882251739501953e+00 2.072111368179321289e+00 -2.019897699356079102e+00
2.431000000000000000e+03 7.860794544219970703e+00 -2.628997611999511719e+01 1.171805080957710743e-03 5.604351099464111030e-05 3.683545801322907209e-04 7.853446004446595907e-05
2.432000000000000000e+03 6.034475326538085938e+01 -2.163600158691406250e+01 5.910625457763671875e-01 2.076515197753906250e+00 8.002733588218688965e-01 2.443964004516601562e+00
2.433000000000000000e+03 6.199906921386718750e+01 -2.125291252136230469e+01 -6.920772045850753784e-02 2.006597042083740234e+00 5.812168121337890625e-01 2.463047504425048828e+00
2.434000000000000000e+03 5.570524978637695312e+01 -1.884204864501953125e+01 -1.609062671661376953e+00 -8.106655478477478027e-01 -7.259184718132019043e-01 1.187891602516174316e+00
2.435000000000000000e+03 5.678028488159179688e+01 -1.780216789245605469e+01 -3.611943483352661133e+00 -9.744937419891357422e-01 -1.375931143760681152e+00 1.847580552101135254e+00
2.436000000000000000e+03 4.379047012329101562e+01 -3.287517547607421875e+01 -1.945522278547286987e-01 7.300424098968505859e+00 2.131761550903320312e+00 2.543747425079345703e-01
2.437000000000000000e+03 4.436457443237304688e+01 -2.966704368591308594e+01 1.937254905700683594e+00 9.012944221496582031e+00 3.285059690475463867e+00 -4.218024611473083496e-01
2.438000000000000000e+03 5.128770065307617188e+01 3.718610382080078125e+01 -7.406054735183715820e-01 1.229185581207275391e+00 1.465740352869033813e-01 3.095364570617675781e-01
2.439000000000000000e+03 5.330293655395507812e+01 -3.146551132202148438e+01 1.858830094337463379e+00 5.367339134216308594e+00 2.167850732803344727e+00 -7.536811828613281250e-01
2.440000000000000000e+03 5.386783218383789062e+01 -3.283545303344726562e+01 1.291023731231689453e+00 5.451560497283935547e+00 2.022775411605834961e+00 -6.714043617248535156e-01
2.441000000000000000e+03 7.673480987548828125e+01 4.172675704956054688e+01 -6.001120433211326599e-03 1.017270946502685547e+01 3.050012350082397461e+00 -4.551796615123748779e-02
2.442000000000000000e+03 2.151599884033203125e+01 -3.383631134033203125e+01 -8.347615599632263184e-02 -1.611522212624549866e-02 -2.987741492688655853e-02 -6.694465130567550659e-02
2.443000000000000000e+03 3.195143222808837891e+00 -3.939342498779296875e+01 1.207016524858772755e-03 -3.736084094271063805e-03 -7.587202708236873150e-04 -9.559101308695971966e-04
2.444000000000000000e+03 6.314889144897460938e+01 -3.875153732299804688e+01 9.346672296524047852e-01 8.279051780700683594e-01 5.287717580795288086e-01 -8.212712407112121582e-02
2.445000000000000000e+03 4.117286682128906250e+00 3.810531616210937500e+01 -2.892172522842884064e-02 -1.305803418159484863e+00 -4.004175364971160889e-01 -2.191513217985630035e-02
2.446000000000000000e+03 2.337445974349975586e+00 3.826307678222656250e+01 1.057192590087652206e-02 -1.656691551208496094e+00 -4.938358962535858154e-01 -1.214377582073211670e-02
2.447000000000000000e+03 2.036535501480102539e+00 3.753347396850585938e+01 -9.846034459769725800e-03 -1.712155580520629883e+00 -5.166004896163940430e-01 -9.744208306074142456e-03
2.448000000000000000e+03 6.356480407714843750e+01 3.844040298461914062e+01 -2.175047099590301514e-01 -4.865851104259490967e-01 -2.112269401550292969e-01 2.827049195766448975e-01
2.449000000000000000e+03 6.205255126953125000e+01 4.136648559570312500e+01 2.011125385761260986e-01 -4.450628459453582764e-01 -7.318508625030517578e-02 4.955776408314704895e-02
2.450000000000000000e+03 5.799971389770507812e+01 4.135965728759765625e+01 -2.514432370662689209e-01 -3.999708592891693115e-01 -1.954242289066314697e-01 1.317377835512161255e-01
2.451000000000000000e+03 1.203472518920898438e+01 -6.397895812988281250e+00 1.085787152987904847e-05 -8.263049494416918606e-06 7.784466902194253635e-07 -6.806557166783022694e-07
2.452000000000000000e+03 1.232510948181152344e+01 -5.880679130554199219e+00 -7.596735031256685033e-06 7.804300366842653602e-06 6.226964899269660236e-08 -1.919576334330486134e-06
2.453000000000000000e+03 7.945144653320312500e+00 -3.941583395004272461e+00 4.822934442927362397e-06 -1.745745862535841297e-06 9.231566195921914186e-07 2.714202537390519865e-06
2.454000000000000000e+03 9.651211738586425781e+00 -4.811395168304443359e+00 5.182507720746798441e-06 -1.752181219671911094e-06 1.029097916216414887e-06 3.641428975242888555e-06
2.455000000000000000e+03 1.281436729431152344e+01 -6.205254554748535156e+00 6.188601673784432933e-06 -8.042935405683238059e-06 -5.563001082009577658e-07 2.721855935305939056e-06
2.456000000000000000e+03 1.043027114868164062e+01 -4.345776081085205078e+00 4.482733402255689725e-06 -4.923036613035947084e-06 -1.320909888136156951e-07 3.516410970405559056e-06
2.457000000000000000e+03 7.232659149169921875e+01 1.245778656005859375e+01 -3.714259862899780273e-01 9.417189598083496094e+00 2.713729143142700195e+00 4.484236836433410645e-01
2.458000000000000000e+03 2.938629531860351562e+01 -1.197994995117187500e+01 -8.293165564537048340e-01 4.887785017490386963e-01 -1.021614149212837219e-01 5.404714941978454590e-01
2.459000000000000000e+03 7.686490631103515625e+01 1.251609230041503906e+01 -8.862253278493881226e-02 7.885221004486083984e+00 2.338979721069335938e+00 7.126507163047790527e-01
2.460000000000000000e+03 1.469003582000732422e+01 -6.754499912261962891e+00 7.831545190128963441e-06 -5.300549219100503251e-06 7.592987572024867404e-07 8.577758308092597872e-07
2.461000000000000000e+03 1.380507373809814453e+01 -6.894807815551757812e+00 9.073641194845549762e-06 -5.924048309680074453e-06 9.448777973375399597e-07 3.140170292681432329e-07
2.462000000000000000e+03 1.366715526580810547e+01 -6.009691238403320312e+00 6.059841325622983277e-06 -5.542470717045944184e-06 1.552111541514022974e-07 1.321013087363098748e-06
2.463000000000000000e+03 3.169473266601562500e+01 -1.486355018615722656e+01 -7.282902598381042480e-01 4.582531452178955078e-01 -8.101114630699157715e-02 1.767183691263198853e-01
2.464000000000000000e+03 1.075949382781982422e+01 -5.134649753570556641e+00 5.647579200740437955e-06 -4.535533207672415301e-06 3.336138263421162264e-07 4.388619345263577998e-06
2.465000000000000000e+03 1.104048347473144531e+01 -5.931066989898681641e+00 4.077345238329144195e-06 -3.105342329945415258e-06 2.916009407272213139e-07 5.714909548260038719e-06
2.466000000000000000e+03 1.519742774963378906e+01 -7.163837909698486328e+00 -7.827942681615240872e-06 4.774892204295611009e-06 -9.159151659332565032e-07 -9.993442517952644266e-07
2.467000000000000000e+03 1.557381248474121094e+01 -1.126824283599853516e+01 -1.598657036083750427e-05 -1.901722680486273021e-05 -1.050113951350795105e-05 -2.678872260730713606e-05
2.468000000000000000e+03 1.608250427246093750e+01 -7.067669391632080078e+00 -7.389519851130899042e-06 3.975029358116444200e-06 -1.024347170641703997e-06 -3.781889574838714907e-07
2.469000000000000000e+03 1.569787120819091797e+01 -7.582491874694824219e+00 8.526518286089412868e-06 -4.242487648298265412e-06 1.285209236812079325e-06 4.055175111261632992e-07
2.470000000000000000e+03 1.154711627960205078e+01 -4.775326728820800781e+00 4.945289674651576206e-06 -5.865086222911486402e-06 -2.759389303719217423e-07 2.614516461107996292e-06
2.471000000000000000e+03 1.723523139953613281e+01 -1.037749195098876953e+01 -5.730966222472488880e-06 -7.925135832920204848e-06 -4.096830707567278296e-06 -3.818563527602236718e-06
2.472000000000000000e+03 3.342888259887695312e+01 -1.544327068328857422e+01 -6.112599372863769531e-01 5.844731926918029785e-01 -8.036018349230289459e-03 -2.133758664131164551e-01
2.473000000000000000e+03 3.259439086914062500e+01 -1.445242118835449219e+01 -6.238465309143066406e-01 7.565698027610778809e-01 3.981697559356689453e-02 -9.141579270362854004e-02
2.474000000000000000e+03 3.018073081970214844e+01 -1.491958522796630859e+01 -7.955806851387023926e-01 1.612008959054946899e-01 -1.903139352798461914e-01 4.472941756248474121e-01
2.475000000000000000e+03 2.917365837097167969e+01 -1.405957508087158203e+01 -7.463567256927490234e-01 8.504869788885116577e-02 -1.983924061059951782e-01 5.982618331909179688e-01
2.476000000000000000e+03 4.602083587646484375e+01 -1.620603203773498535e+00 2.627090811729431152e-01 5.716020107269287109e+00 1.793618679046630859e+00 -1.977629899978637695e+00
2.477000000000000000e+03 4.529906463623046875e+01 -3.409281969070434570e+00 -1.843102723360061646e-01 5.658606052398681641e+00 1.642288684844970703e+00 -1.567905068397521973e+00
2.478000000000000000e+03 2.841479492187500000e+01 -1.011304092407226562e+01 -1.000203371047973633e+00 5.203399062156677246e-01 -1.439590305089950562e-01 6.333137750625610352e-01
2.479000000000000000e+03 4.808321762084960938e+01 -8.922522544860839844e+00 -6.777826547622680664e-01 4.841308116912841797e+00 1.249057531356811523e+00 -3.832299709320068359e-01
2.480000000000000000e+03 2.834696006774902344e+01 -1.292224693298339844e+01 -7.814369797706604004e-01 5.582943558692932129e-02 -2.176822572946548462e-01 7.238487601280212402e-01
2.481000000000000000e+03 2.886996459960937500e+01 -1.244601917266845703e+01 -8.089559078216552734e-01 2.739976346492767334e-01 -1.604874730110168457e-01 6.462400555610656738e-01
2.482000000000000000e+03 4.650500869750976562e+01 -4.626483917236328125e+00 -1.305573582649230957e-01 5.394530296325683594e+00 1.579191923141479492e+00 -1.398052930831909180e+00
2.483000000000000000e+03 4.333747482299804688e+01 2.109848499298095703e+00 5.366234779357910156e-01 6.875998497009277344e+00 2.223786592483520508e+00 -2.278197050094604492e+00
2.484000000000000000e+03 3.468935775756835938e+01 -1.619312286376953125e+01 -4.628808498382568359e-01 6.472913026809692383e-01 5.532312765717506409e-02 -5.723587274551391602e-01
2.485000000000000000e+03 3.286585998535156250e+01 -1.527605152130126953e+01 -6.645079255104064941e-01 5.613272786140441895e-01 -3.095419704914093018e-02 -7.207296788692474365e-02
2.486000000000000000e+03 4.661578750610351562e+01 -3.013685226440429688e+00 1.370816677808761597e-01 5.477498531341552734e+00 1.684373974800109863e+00 -1.746457099914550781e+00
2.487000000000000000e+03 4.594687652587890625e+01 -3.207173824310302734e+00 -8.926750160753726959e-03 5.575067996978759766e+00 1.669842362403869629e+00 -1.664349794387817383e+00
2.488000000000000000e+03 4.874336242675781250e+01 -1.122410011291503906e+01 -1.309848666191101074e+00 4.502640724182128906e+00 9.578376412391662598e-01 3.144734799861907959e-01
2.489000000000000000e+03 4.919277572631835938e+01 -1.035619449615478516e+01 -8.268015384674072266e-01 4.214238643646240234e+00 1.016231179237365723e+00 3.123512491583824158e-02
2.490000000000000000e+03 4.505513763427734375e+01 3.848285973072052002e-01 5.459632873535156250e-01 6.129404067993164062e+00 2.002610206604003906e+00 -2.280100822448730469e+00
2.491000000000000000e+03 4.435444259643554688e+01 1.717803478240966797e+00 6.825554966926574707e-01 6.561565876007080078e+00 2.173236370086669922e+00 -2.485819339752197266e+00
2.492000000000000000e+03 4.758832168579101562e+01 -7.486694335937500000e+00 -4.357315897941589355e-01 5.050298690795898438e+00 1.384370207786560059e+00 -7.542632222175598145e-01
2.493000000000000000e+03 7.516307830810546875e+01 -3.586467361450195312e+01 -2.525882124900817871e-01 6.310219764709472656e+00 1.817289471626281738e+00 -9.747074544429779053e-02
2.494000000000000000e+03 2.965386199951171875e+01 -1.452499866485595703e+01 -7.595968246459960938e-01 1.295082718133926392e-01 -1.890265643596649170e-01 5.264934301376342773e-01
2.495000000000000000e+03 7.176877593994140625e+01 1.480253887176513672e+01 1.285460293292999268e-01 9.170297622680664062e+00 2.789653301239013672e+00 5.125702619552612305e-01
2.496000000000000000e+03 4.677915954589843750e+01 -5.348075866699218750e+00 -2.115609347820281982e-01 5.306727409362792969e+00 1.528550028800964355e+00 -1.241397738456726074e+00
2.497000000000000000e+03 2.924443817138671875e+01 -1.300614738464355469e+01 -7.723158001899719238e-01 2.673892378807067871e-01 -1.514779776334762573e-01 5.872607231140136719e-01
2.498000000000000000e+03 8.306196212768554688e+00 -3.041860771179199219e+01 -2.243775874376296997e-03 -1.814068236853927374e-04 -7.275547832250595093e-04 -1.346713048405945301e-03
2.499000000000000000e+03 6.355610656738281250e+01 -1.643978309631347656e+01 -4.676269590854644775e-01 2.560262441635131836e+00 6.277906298637390137e-01 1.953850865364074707e+00
2.500000000000000000e+03 4.894925689697265625e+01 -1.204858970642089844e+01 -1.599197626113891602e+00 4.409339427947998047e+00 8.430424332618713379e-01 5.209126472473144531e-01
2.501000000000000000e+03 4.797912216186523438e+01 -6.623637199401855469e+00 -1.419290304183959961e-01 5.005589962005615234e+00 1.459098339080810547e+00 -9.939664006233215332e-01
2.502000000000000000e+03 7.426802825927734375e+01 3.697987365722656250e+01 -2.021946161985397339e-01 7.926990032196044922e+00 2.317438602447509766e+00 1.345664411783218384e-01
2.503000000000000000e+03 7.597755432128906250e+01 3.743090057373046875e+01 -1.105318814516067505e-01 9.648063659667968750e+00 2.861259460449218750e+00 1.501624658703804016e-02
2.504000000000000000e+03 4.370140838623046875e+01 1.433351635932922363e+00 4.616847634315490723e-01 6.616378307342529297e+00 2.123418807983398438e+00 -2.249377965927124023e+00
2.505000000000000000e+03 4.471278762817382812e+01 1.047442436218261719e+00 6.145659685134887695e-01 6.319623947143554688e+00 2.080256938934326172e+00 -2.393389940261840820e+00
2.506000000000000000e+03 8.079414367675781250e+00 5.094616413116455078e+00 -2.865653336048126221e-01 -6.183397769927978516e-01 -2.714715301990509033e-01 8.324114084243774414e-01
2.507000000000000000e+03 4.565187072753906250e+01 -2.520086526870727539e+00 2.994002960622310638e-02 5.689140319824218750e+00 1.715724110603332520e+00 -1.766068577766418457e+00
2.508000000000000000e+03 1.623056983947753906e+01 3.022015571594238281e+00 -4.454942345619201660e-01 -1.113764643669128418e+00 -4.677776694297790527e-01 8.942319154739379883e-01
2.509000000000000000e+03 7.269096374511718750e+01 5.444649696350097656e+00 4.683573544025421143e-01 1.079433250427246094e+01 3.378807067871093750e+00 7.178684473037719727e-01
2.510000000000000000e+03 7.244893550872802734e+00 -3.932879447937011719e+00 -5.378164132707752287e-06 1.818845930756651796e-06 -1.067795437847962603e-06 -2.073215227937907912e-06
2.511000000000000000e+03 8.902572631835937500e+00 -5.349539279937744141e+00 3.449017640377860516e-06 4.743358203995740041e-06 2.457712753312080167e-06 3.345922095832065679e-06
2.512000000000000000e+03 6.052867889404296875e+00 4.715701103210449219e+00 -2.817046940326690674e-01 -4.208841621875762939e-01 -2.107766568660736084e-01 6.252328157424926758e-01
2.513000000000000000e+03 3.197479248046875000e+00 7.987980842590332031e+00 -1.985732838511466980e-02 -6.535406112670898438e-01 -2.020193785429000854e-01 4.208466410636901855e-01
2.514000000000000000e+03 6.207727909088134766e+00 4.018063068389892578e+00 -3.463618755340576172e-01 -3.541083633899688721e-01 -2.101410627365112305e-01 5.970808267593383789e-01
2.515000000000000000e+03 4.511182403564453125e+01 3.179743957519531250e+01 -4.355925917625427246e-01 3.525976657867431641e+00 9.271152615547180176e-01 6.459976434707641602e-01
2.516000000000000000e+03 4.356054687500000000e+01 2.923886299133300781e+01 -1.234419122338294983e-01 4.186114311218261719e+00 1.218801617622375488e+00 7.019771933555603027e-01
2.517000000000000000e+03 4.010838985443115234e+00 3.989795446395874023e+00 -1.929016113281250000e-01 -2.603816986083984375e-01 -1.359849870204925537e-01 3.557968437671661377e-01
2.518000000000000000e+03 3.908825874328613281e+00 7.986391544342041016e+00 -1.724323257803916931e-02 -6.703985929489135742e-01 -2.062925398349761963e-01 4.905660450458526611e-01
2.519000000000000000e+03 6.938469886779785156e+00 4.091441631317138672e+00 -3.982139229774475098e-01 -4.109721481800079346e-01 -2.427558153867721558e-01 6.888408660888671875e-01
2.520000000000000000e+03 7.187576293945312500e+01 8.636065483093261719e+00 3.108634985983371735e-02 1.055887413024902344e+01 3.176988363265991211e+00 6.757758259773254395e-01
2.521000000000000000e+03 7.616076660156250000e+01 9.401354789733886719e+00 -4.914914816617965698e-02 7.912574768066406250e+00 2.359027624130249023e+00 9.475929141044616699e-01
2.522000000000000000e+03 4.173945617675781250e+01 4.931973457336425781e+00 9.789934754371643066e-01 8.088738441467285156e+00 2.720319747924804688e+00 -2.042618989944458008e+00
2.523000000000000000e+03 7.250841522216796875e+01 2.204268646240234375e+01 1.421846896409988403e-01 8.286650657653808594e+00 2.528650522232055664e+00 6.034314036369323730e-01
2.524000000000000000e+03 7.180557250976562500e+01 2.203555488586425781e+01 1.278470009565353394e-01 8.231367111206054688e+00 2.507764101028442383e+00 4.781780242919921875e-01
2.525000000000000000e+03 6.960971832275390625e+01 -8.203462600708007812e+00 6.467587351799011230e-01 6.960350990295410156e+00 2.282132863998413086e+00 1.257754325866699219e+00
2.526000000000000000e+03 6.861095428466796875e+01 -8.625418663024902344e+00 8.740465044975280762e-01 6.491811752319335938e+00 2.209757566452026367e+00 1.693071484565734863e+00
2.527000000000000000e+03 2.284025573730468750e+01 -4.053555011749267578e+00 -1.408672928810119629e+00 -7.852081060409545898e-01 -6.581643223762512207e-01 9.840857386589050293e-01
2.528000000000000000e+03 7.253038024902343750e+01 2.041931343078613281e+01 8.268646150827407837e-02 8.524289131164550781e+00 2.582092761993408203e+00 6.353467702865600586e-01
2.529000000000000000e+03 4.511957168579101562e+01 -2.678494071960449219e+01 2.044735670089721680e+00 9.717680931091308594e+00 3.528724908828735352e+00 -1.184993267059326172e+00
2.530000000000000000e+03 2.760768890380859375e+00 2.909101104736328125e+01 9.824073873460292816e-03 -1.676178216934204102e+00 -4.999062418937683105e-01 -2.261219732463359833e-02
2.531000000000000000e+03 3.444605112075805664e+00 3.098518753051757812e+01 9.888713248074054718e-03 -1.541747927665710449e+00 -4.595577418804168701e-01 -4.447302594780921936e-02
2.532000000000000000e+03 7.184271240234375000e+01 1.801260375976562500e+01 5.377279967069625854e-02 8.871049880981445312e+00 2.677446842193603516e+00 6.022779345512390137e-01
2.533000000000000000e+03 7.203795623779296875e+01 2.982829332351684570e+00 7.770918011665344238e-01 1.178378772735595703e+01 3.768263816833496094e+00 9.322931170463562012e-01
2.534000000000000000e+03 7.474979400634765625e+01 5.448428630828857422e+00 3.978836834430694580e-01 8.736385345458984375e+00 2.740280866622924805e+00 8.759865164756774902e-01
2.535000000000000000e+03 7.132462310791015625e+01 3.023677635192871094e+01 -7.127791047096252441e-01 5.842463016510009766e+00 1.538905143737792969e+00 5.025042295455932617e-01
2.536000000000000000e+03 7.674311828613281250e+01 3.152843284606933594e+01 -1.937526911497116089e-01 1.001577568054199219e+01 2.946606874465942383e+00 5.598285198211669922e-01
2.537000000000000000e+03 7.324436950683593750e+01 1.719587898254394531e+01 7.390721142292022705e-02 8.758974075317382812e+00 2.649864196777343750e+00 7.323633432388305664e-01
2.538000000000000000e+03 7.680919647216796875e+01 2.924155426025390625e+01 -1.115522161126136780e-01 9.819076538085937500e+00 2.912257194519042969e+00 7.290117740631103516e-01
2.539000000000000000e+03 7.679644012451171875e+01 1.488936901092529297e+01 -2.834536693990230560e-02 8.143385887145996094e+00 2.434512138366699219e+00 6.444498300552368164e-01
2.540000000000000000e+03 6.916464233398437500e+01 -1.940294075012207031e+01 -1.397385120391845703e+00 1.942969441413879395e+00 1.636752784252166748e-01 -6.762748360633850098e-01
2.541000000000000000e+03 7.678561401367187500e+01 1.730950736999511719e+01 2.199664898216724396e-02 8.397719383239746094e+00 2.525914907455444336e+00 6.446078419685363770e-01
2.542000000000000000e+03 7.159902191162109375e+01 2.541040802001953125e+01 2.000738531351089478e-01 7.340591430664062500e+00 2.262199640274047852e+00 4.670689702033996582e-01
2.543000000000000000e+03 7.741506958007812500e+01 -2.888404083251953125e+01 3.493638038635253906e-01 6.454213619232177734e+00 2.041073083877563477e+00 -6.844923645257949829e-02
2.544000000000000000e+03 6.344798660278320312e+01 -2.140941429138183594e+01 -4.485866427421569824e-01 1.512922286987304688e+00 3.193007111549377441e-01 1.945370674133300781e+00
2.545000000000000000e+03 6.272077941894531250e+01 -1.688607978820800781e+01 -8.446825146675109863e-01 2.483517646789550781e+00 4.916505217552185059e-01 2.075680494308471680e+00
2.546000000000000000e+03 7.252053833007812500e+01 2.122916221618652344e+01 1.071517691016197205e-01 8.408506393432617188e+00 2.554697513580322266e+00 6.184654235839843750e-01
2.547000000000000000e+03 7.270692443847656250e+01 4.632211685180664062e+00 5.160288810729980469e-01 1.089033889770507812e+01 3.421910285949707031e+00 7.727163434028625488e-01
2.548000000000000000e+03 6.713067054748535156e+00 -3.133831596374511719e+01 -1.809599460102617741e-03 -2.236487809568643570e-03 -1.213826122693717480e-03 -1.107148709706962109e-03
2.549000000000000000e+03 2.700216531753540039e+00 -3.249105453491210938e+01 -6.256689084693789482e-04 -3.116384905297309160e-04 -2.811922167893499136e-04 -2.063610008917748928e-04
2.550000000000000000e+03 7.735454559326171875e+01 -3.304084014892578125e+01 -4.690637439489364624e-02 6.570350646972656250e+00 1.957033276557922363e+00 -4.229842722415924072e-01
2.551000000000000000e+03 4.799416542053222656e+00 3.086417007446289062e+01 2.418872527778148651e-02 -1.289047956466674805e+00 -3.794577717781066895e-01 -5.467957258224487305e-02
2.552000000000000000e+03 2.614258766174316406e+00 -2.673945808410644531e+01 2.569057105574756861e-04 1.513672905275598168e-04 1.224818988703191280e-04 2.745354140643030405e-04
2.553000000000000000e+03 3.333988904953002930e+00 -3.006106376647949219e+01 -5.503407446667551994e-04 -3.217986668460071087e-04 -2.616418350953608751e-04 3.097266890108585358e-04
2.554000000000000000e+03 7.753533172607421875e+01 2.534765243530273438e+01 1.902482658624649048e-02 9.617800712585449219e+00 2.891047716140747070e+00 7.086653113365173340e-01
2.555000000000000000e+03 7.240549468994140625e+01 2.459578514099121094e+01 2.070267796516418457e-01 7.758949279785156250e+00 2.389792919158935547e+00 6.342865824699401855e-01
2.556000000000000000e+03 7.534094238281250000e+01 2.211128425598144531e+01 1.046221107244491577e-01 8.665591239929199219e+00 2.631063938140869141e+00 8.313343524932861328e-01
2.557000000000000000e+03 7.751676177978515625e+01 2.375580787658691406e+01 4.049456864595413208e-02 9.332509040832519531e+00 2.811901092529296875e+00 6.821935176849365234e-01
2.558000000000000000e+03 7.408812713623046875e+01 -2.390790176391601562e+01 1.347303092479705811e-01 7.991684436798095703e+00 2.437924385070800781e+00 1.102804303169250488e+00
2.559000000000000000e+03 7.690587615966796875e+01 -2.491034889221191406e+01 2.585288584232330322e-01 7.012712478637695312e+00 2.181372404098510742e+00 8.861730694770812988e-01
2.560000000000000000e+03 7.756896209716796875e+01 -2.494656181335449219e+01 1.885500401258468628e-01 6.843055725097656250e+00 2.109481573104858398e+00 7.820755243301391602e-01
2.561000000000000000e+03 7.677426147460937500e+01 1.973283195495605469e+01 4.982457682490348816e-02 8.662031173706054688e+00 2.613556623458862305e+00 6.833149194717407227e-01
2.562000000000000000e+03 7.677352905273437500e+01 2.134328269958496094e+01 6.137450411915779114e-02 8.839103698730468750e+00 2.670143365859985352e+00 7.197844982147216797e-01
2.563000000000000000e+03 7.768104553222656250e+01 -2.095563697814941406e+01 -2.641393542289733887e-01 7.556547641754150391e+00 2.187722444534301758e+00 5.774558782577514648e-01
2.564000000000000000e+03 7.682595062255859375e+01 -2.323416519165039062e+01 -5.936944857239723206e-02 7.291372776031494141e+00 2.169600963592529297e+00 9.769119620323181152e-01
2.565000000000000000e+03 7.753613281250000000e+01 -7.545862674713134766e+00 1.857889443635940552e-02 6.296291828155517578e+00 1.894461154937744141e+00 -5.781141519546508789e-01
2.566000000000000000e+03 7.684818267822265625e+01 -9.180548667907714844e+00 1.653963886201381683e-02 6.571638584136962891e+00 1.976453423500061035e+00 -6.606485247611999512e-01
2.567000000000000000e+03 7.682857513427734375e+01 -1.314423370361328125e+01 -6.995973736047744751e-02 6.890462398529052734e+00 2.046150922775268555e+00 -6.584536433219909668e-01
2.568000000000000000e+03 7.688562011718750000e+01 -1.798604965209960938e+01 -4.092163145542144775e-01 7.411853313446044922e+00 2.100791215896606445e+00 -1.126363202929496765e-01
2.569000000000000000e+03 7.758022308349609375e+01 -9.991517663002014160e-01 1.633982956409454346e-01 5.778440952301025391e+00 1.782551765441894531e+00 -2.201114296913146973e-01
2.570000000000000000e+03 7.683067321777343750e+01 -2.562675952911376953e+00 1.777557581663131714e-01 6.384932041168212891e+00 1.968806385993957520e+00 -3.884550034999847412e-01
2.571000000000000000e+03 7.749732208251953125e+01 1.893931198120117188e+01 3.079879842698574066e-02 8.569113731384277344e+00 2.579973697662353516e+00 5.755237936973571777e-01
2.572000000000000000e+03 7.709117889404296875e+01 -2.021882820129394531e+01 -4.167028367519378662e-01 7.538341522216796875e+00 2.136491537094116211e+00 4.278758466243743896e-01
2.573000000000000000e+03 7.761701202392578125e+01 -1.872621154785156250e+01 -2.893469333648681641e-01 7.640512943267822266e+00 2.205349683761596680e+00 1.000765562057495117e-01
2.574000000000000000e+03 7.684239196777343750e+01 1.330468082427978516e+01 -7.027111202478408813e-02 7.973027229309082031e+00 2.370826721191406250e+00 6.823194622993469238e-01
2.575000000000000000e+03 7.749884796142578125e+01 -5.922874450683593750e+00 4.054640233516693115e-02 6.138265132904052734e+00 1.853643417358398438e+00 -5.479047894477844238e-01
2.576000000000000000e+03 7.749494934082031250e+01 -3.443084478378295898e+00 9.062014520168304443e-02 5.942442417144775391e+00 1.809918761253356934e+00 -4.409615993499755859e-01
2.577000000000000000e+03 7.688481140136718750e+01 -2.237422370910644531e+01 -2.044116407632827759e-01 7.386811733245849609e+00 2.154720067977905273e+00 9.168306589126586914e-01
2.578000000000000000e+03 7.487503051757812500e+01 1.086110305786132812e+01 -2.109787613153457642e-01 8.699654579162597656e+00 2.546602725982666016e+00 9.303559660911560059e-01
2.579000000000000000e+03 7.685192108154296875e+01 9.400038719177246094e+00 -3.381779789924621582e-02 7.490264415740966797e+00 2.236933946609497070e+00 8.588392138481140137e-01
2.580000000000000000e+03 7.755945587158203125e+01 1.096092700958251953e+01 -5.341714620590209961e-02 7.351783752441406250e+00 2.189509868621826172e+00 6.912406086921691895e-01
2.581000000000000000e+03 7.753221130371093750e+01 6.207346439361572266e+00 1.059279665350914001e-01 6.470458030700683594e+00 1.972915887832641602e+00 6.632844209671020508e-01
2.582000000000000000e+03 7.613526153564453125e+01 5.443333148956298828e+00 2.684458792209625244e-01 7.530500411987304688e+00 2.339683771133422852e+00 7.870432138442993164e-01
2.583000000000000000e+03 7.755133056640625000e+01 2.989622831344604492e+00 1.912816464900970459e-01 5.985352039337158203e+00 1.852990031242370605e+00 3.200506269931793213e-01
2.584000000000000000e+03 7.751914215087890625e+01 2.928712272644042969e+01 -7.852722704410552979e-02 1.029282379150390625e+01 3.064289093017578125e+00 6.364033818244934082e-01
2.585000000000000000e+03 7.678980255126953125e+01 3.000711250305175781e+01 -1.526468694210052490e-01 9.883593559265136719e+00 2.919284105300903320e+00 6.868540048599243164e-01
2.586000000000000000e+03 7.340826416015625000e+01 2.997879266738891602e+00 7.595500946044921875e-01 1.002142047882080078e+01 3.234291315078735352e+00 7.745548486709594727e-01
2.587000000000000000e+03 7.408922576904296875e+01 3.821861267089843750e+00 6.114590764045715332e-01 9.333897590637207031e+00 2.983607053756713867e+00 7.703070640563964844e-01
2.588000000000000000e+03 7.758591461181640625e+01 5.892766714096069336e-01 1.968505829572677612e-01 5.786563396453857422e+00 1.795024156570434570e+00 -1.353741437196731567e-02
2.589000000000000000e+03 7.683302307128906250e+01 5.429763793945312500e+00 2.000487446784973145e-01 6.937674522399902344e+00 2.141316890716552734e+00 7.065364718437194824e-01
2.590000000000000000e+03 7.681565093994140625e+01 1.409762287139892578e+01 -5.307462066411972046e-02 8.061307907104492188e+00 2.402469873428344727e+00 6.579477787017822266e-01
2.591000000000000000e+03 7.754514312744140625e+01 9.389365196228027344e+00 -1.864367909729480743e-02 7.065545558929443359e+00 2.114070653915405273e+00 7.426825165748596191e-01
2.592000000000000000e+03 7.244415283203125000e+01 1.095699214935302734e+01 -5.193688869476318359e-01 9.754485130310058594e+00 2.770534753799438477e+00 6.605310440063476562e-01
2.593000000000000000e+03 7.692489624023437500e+01 -1.680255830287933350e-01 2.783192396163940430e-01 6.343573570251464844e+00 1.986567854881286621e+00 -1.063579022884368896e-01
2.594000000000000000e+03 7.766246032714843750e+01 -1.949022102355957031e+01 -2.958605885505676270e-01 7.645897388458251953e+00 2.205011129379272461e+00 2.572511434555053711e-01
2.595000000000000000e+03 7.628616333007812500e+01 -1.884093856811523438e+01 -6.333764195442199707e-01 7.353615760803222656e+00 2.016071796417236328e+00 2.415620163083076477e-02
2.596000000000000000e+03 7.684610748291015625e+01 -8.391665458679199219e+00 2.590109966695308685e-02 6.526621818542480469e+00 1.965756893157958984e+00 -6.510525345802307129e-01
2.597000000000000000e+03 7.753244018554687500e+01 -1.232496833801269531e+01 -2.685947716236114502e-02 6.910557270050048828e+00 2.065109252929687500e+00 -5.947067737579345703e-01
2.598000000000000000e+03 7.752114868164062500e+01 -1.473652172088623047e+01 -1.170644238591194153e-01 7.244606018066406250e+00 2.138262510299682617e+00 -4.900328218936920166e-01
2.599000000000000000e+03 7.694437408447265625e+01 -1.876890945434570312e+01 -4.697400033473968506e-01 7.499205589294433594e+00 2.108839750289916992e+00 7.603776454925537109e-02
2.600000000000000000e+03 7.671652984619140625e+01 -5.129803657531738281e+00 8.189222216606140137e-02 6.458539009094238281e+00 1.962129354476928711e+00 -5.628452897071838379e-01
2.601000000000000000e+03 7.750864410400390625e+01 1.652105331420898438e+01 6.103917490690946579e-03 8.213300704956054688e+00 2.465821504592895508e+00 5.483929514884948730e-01
2.602000000000000000e+03 7.254660034179687500e+01 1.800203132629394531e+01 6.373515725135803223e-02 8.787467002868652344e+00 2.655360698699951172e+00 6.804386973381042480e-01
2.603000000000000000e+03 7.683589935302734375e+01 -1.234679794311523438e+01 -4.548668116331100464e-02 6.816709995269775391e+00 2.031367063522338867e+00 -6.712700128555297852e-01
2.604000000000000000e+03 7.591219329833984375e+01 -4.251618862152099609e+00 1.605795323848724365e-01 6.907071113586425781e+00 2.120295286178588867e+00 -4.908744990825653076e-01
2.605000000000000000e+03 7.676412200927734375e+01 -3.403394460678100586e+00 1.447733491659164429e-01 6.424143314361572266e+00 1.970674991607666016e+00 -4.541016221046447754e-01
2.606000000000000000e+03 7.254386138916015625e+01 1.719415855407714844e+01 7.291583716869354248e-02 8.867259979248046875e+00 2.682052612304687500e+00 6.894168853759765625e-01
2.607000000000000000e+03 7.684920501708984375e+01 -1.076500797271728516e+01 -4.647145513445138931e-03 6.682878494262695312e+00 2.003469467163085938e+00 -6.768689155578613281e-01
2.608000000000000000e+03 7.678204345703125000e+01 1.811860275268554688e+01 3.504861891269683838e-02 8.484554290771484375e+00 2.555881023406982422e+00 6.556873917579650879e-01
2.609000000000000000e+03 7.750726318359375000e+01 2.295484542846679688e+01 4.283202812075614929e-02 9.196642875671386719e+00 2.771842479705810547e+00 6.657569408416748047e-01
2.610000000000000000e+03 7.679052734375000000e+01 2.294611740112304688e+01 6.516142934560775757e-02 9.022423744201660156e+00 2.726275682449340820e+00 7.618992328643798828e-01
2.611000000000000000e+03 7.462666320800781250e+01 2.291278648376464844e+01 1.320912092924118042e-01 8.515454292297363281e+00 2.594263553619384766e+00 8.464625477790832520e-01
2.612000000000000000e+03 7.687380218505859375e+01 2.203994989395141602e+00 2.952675521373748779e-01 6.536140441894531250e+00 2.049422502517700195e+00 2.704481184482574463e-01
2.613000000000000000e+03 7.683856964111328125e+01 4.624243736267089844e+00 2.372847050428390503e-01 6.829115390777587891e+00 2.119920015335083008e+00 6.154093742370605469e-01
2.614000000000000000e+03 7.271697235107421875e+01 2.983137369155883789e+00 7.793489098548889160e-01 1.086396312713623047e+01 3.492993593215942383e+00 8.501318693161010742e-01
2.615000000000000000e+03 7.594227600097656250e+01 -2.467814826965332031e+01 3.569416403770446777e-01 7.314611911773681641e+00 2.301465988159179688e+00 1.050199866294860840e+00
2.616000000000000000e+03 7.682844543457031250e+01 -2.411078071594238281e+01 1.314776241779327393e-01 7.156687259674072266e+00 2.186449527740478516e+00 9.807554483413696289e-01
2.617000000000000000e+03 7.541883087158203125e+01 -2.972741508483886719e+01 6.074885129928588867e-01 7.134606838226318359e+00 2.322628498077392578e+00 -1.719604283571243286e-01
2.618000000000000000e+03 7.746595764160156250e+01 -2.730042839050292969e+01 3.975292742252349854e-01 6.514679431915283203e+00 2.073662519454956055e+00 2.956044673919677734e-01
2.619000000000000000e+03 7.246088409423828125e+01 2.372179031372070312e+01 2.119989544153213501e-01 7.963044643402099609e+00 2.452513217926025391e+00 6.189071536064147949e-01
2.620000000000000000e+03 7.683024597167968750e+01 7.026531219482421875e+00 1.090293377637863159e-01 7.158083915710449219e+00 2.180134057998657227e+00 8.294211030006408691e-01
2.621000000000000000e+03 7.683826446533203125e+01 8.616134643554687500e+00 1.002205722033977509e-02 7.385362625122070312e+00 2.218615531921386719e+00 8.720203638076782227e-01
2.622000000000000000e+03 7.683216857910156250e+01 7.822244644165039062e+00 5.731981620192527771e-02 7.271325111389160156e+00 2.198593378067016602e+00 8.582831621170043945e-01
2.623000000000000000e+03 7.687712097167968750e+01 1.173235034942626953e+01 -9.233503043651580811e-02 7.789935111999511719e+00 2.309280157089233398e+00 7.568841576576232910e-01
2.624000000000000000e+03 7.256175231933593750e+01 9.420459747314453125e+00 -2.349763214588165283e-01 1.000430870056152344e+01 2.930799484252929688e+00 8.478681445121765137e-01
2.625000000000000000e+03 7.457611846923828125e+01 1.482687282562255859e+01 -4.533628001809120178e-02 8.629245758056640625e+00 2.575172662734985352e+00 7.215137481689453125e-01
2.626000000000000000e+03 7.605165100097656250e+01 -6.091515541076660156e+00 8.187884092330932617e-02 6.735940933227539062e+00 2.045346021652221680e+00 -5.928075909614562988e-01
2.627000000000000000e+03 7.682279205322265625e+01 -1.394793319702148438e+01 -1.179654747247695923e-01 6.972486972808837891e+00 2.056356430053710938e+00 -6.218435168266296387e-01
2.628000000000000000e+03 7.599959564208984375e+01 -2.914005661010742188e+01 6.078111529350280762e-01 6.964700222015380859e+00 2.271753311157226562e+00 -9.016010165214538574e-02
2.629000000000000000e+03 7.463405609130859375e+01 2.046907234191894531e+01 9.487503021955490112e-02 8.588990211486816406e+00 2.605159521102905273e+00 7.941212654113769531e-01
2.630000000000000000e+03 7.179434967041015625e+01 -2.592592000961303711e+00 5.954218506813049316e-01 9.900309562683105469e+00 3.148719310760498047e+00 7.857506871223449707e-01
2.631000000000000000e+03 7.682367706298828125e+01 -1.638514518737792969e+01 -2.927362024784088135e-01 7.241219520568847656e+00 2.084544897079467773e+00 -3.963673114776611328e-01
2.632000000000000000e+03 7.685053253173828125e+01 -9.974632263183593750e+00 1.139257010072469711e-02 6.625235557556152344e+00 1.990988492965698242e+00 -6.750875115394592285e-01
2.633000000000000000e+03 7.681890106201171875e+01 -1.475548267364501953e+01 -1.596872508525848389e-01 7.054426670074462891e+00 2.068421840667724609e+00 -5.761424899101257324e-01
2.634000000000000000e+03 7.677184295654296875e+01 2.054047203063964844e+01 5.389294028282165527e-02 8.751880645751953125e+00 2.641731977462768555e+00 7.016158699989318848e-01
2.635000000000000000e+03 7.750717926025390625e+01 3.005652618408203125e+01 -1.037025973200798035e-01 1.041020202636718750e+01 3.091949701309204102e+00 5.888222455978393555e-01
2.636000000000000000e+03 7.678234863281250000e+01 -3.555050277709960938e+01 -1.577857732772827148e-01 6.537645816802978516e+00 1.913958072662353516e+00 -3.061355948448181152e-01
2.637000000000000000e+03 7.170944976806640625e+01 -3.217799377441406250e+01 8.736863732337951660e-02 6.515420436859130859e+00 1.980836749076843262e+00 1.006591439247131348e+00
2.638000000000000000e+03 7.132032775878906250e+01 -3.446928787231445312e+01 -2.888002395629882812e-01 5.308701992034912109e+00 1.505970478057861328e+00 9.011893272399902344e-01
2.639000000000000000e+03 7.688394927978515625e+01 -2.561310005187988281e+01 4.056158959865570068e-01 6.925386905670166016e+00 2.199300765991210938e+00 7.676419615745544434e-01
2.640000000000000000e+03 7.538854980468750000e+01 3.649141693115234375e+01 -2.113716155290603638e-01 9.090447425842285156e+00 2.663722753524780273e+00 1.555049717426300049e-01
2.641000000000000000e+03 7.682160186767578125e+01 2.454096221923828125e+01 4.787550494074821472e-02 9.223054885864257812e+00 2.781279087066650391e+00 8.017464876174926758e-01
2.642000000000000000e+03 7.683631896972656250e+01 2.690696334838867188e+01 -2.453477121889591217e-02 9.540676116943359375e+00 2.854842424392700195e+00 8.163500428199768066e-01
2.643000000000000000e+03 7.746692657470703125e+01 3.232342529296875000e+01 -1.490950286388397217e-01 1.067266559600830078e+01 3.157071113586425781e+00 4.069276154041290283e-01
2.644000000000000000e+03 2.635631752014160156e+01 -7.740716457366943359e+00 -1.235236167907714844e+00 8.331409841775894165e-02 -3.455766141414642334e-01 7.910276055335998535e-01
2.645000000000000000e+03 2.565669059753417969e+00 2.162915611267089844e+01 2.890240773558616638e-02 -1.660033941268920898e+00 -4.893394410610198975e-01 7.463269680738449097e-02
2.646000000000000000e+03 3.352293014526367188e+00 2.314900779724121094e+01 3.997612744569778442e-02 -1.561169147491455078e+00 -4.563579261302947998e-01 5.847922340035438538e-02
2.647000000000000000e+03 2.516512155532836914e+00 4.843180656433105469e+00 -7.412309199571609497e-02 -2.987341880798339844e-01 -1.118571832776069641e-01 2.557548582553863525e-01
2.648000000000000000e+03 3.414479970932006836e+00 2.480475234985351562e+01 3.294653818011283875e-02 -1.567681312561035156e+00 -4.604203999042510986e-01 2.753756195306777954e-02
2.649000000000000000e+03 2.504034757614135742e+00 1.439836025238037109e+01 3.657888993620872498e-02 -1.290168523788452148e+00 -3.760768771171569824e-01 2.506544291973114014e-01
2.650000000000000000e+03 3.244768381118774414e+00 1.591142940521240234e+01 5.681878700852394104e-02 -1.323244333267211914e+00 -3.799276649951934814e-01 2.591923475265502930e-01
2.651000000000000000e+03 4.180975437164306641e+00 -4.840640068054199219e+00 4.721884579339530319e-06 -3.254227294746669941e-06 4.402971285344392527e-07 -3.482800366327865049e-06
2.652000000000000000e+03 3.261596679687500000e+00 1.833804702758789062e+01 5.619554594159126282e-02 -1.445208549499511719e+00 -4.167039096355438232e-01 1.839317381381988525e-01
2.653000000000000000e+03 2.484049081802368164e+00 8.029001235961914062e+00 -1.014342531561851501e-02 -6.453626155853271484e-01 -1.966518163681030273e-01 3.403128981590270996e-01
2.654000000000000000e+03 3.192850351333618164e+00 1.269346427917480469e+01 4.802945628762245178e-02 -1.100252032279968262e+00 -3.156667649745941162e-01 3.517235219478607178e-01
2.655000000000000000e+03 2.598736286163330078e+00 -2.589537620544433594e+01 -3.364334042998962104e-05 -1.424745187250664458e-05 -1.436723778169834986e-05 3.293601039331406355e-04
2.656000000000000000e+03 2.493335485458374023e+00 -1.062432861328125000e+01 2.820289182636770420e-06 6.948881946300389245e-06 2.930751406893250532e-06 7.328864626288122963e-07
2.657000000000000000e+03 3.321851253509521484e+00 -7.305381298065185547e+00 1.640065420360770077e-06 -4.541431735560763627e-06 -8.704099059286818374e-07 -2.766985744528938085e-06
2.658000000000000000e+03 3.190779685974121094e+00 -2.193991851806640625e+01 9.423277515452355146e-05 -1.830118126235902309e-04 -2.663371378730516881e-05 8.416136552114039660e-05
2.659000000000000000e+03 3.228351116180419922e+00 7.175536632537841797e+00 -3.740749880671501160e-02 -5.685605406761169434e-01 -1.817903965711593628e-01 4.100587368011474609e-01
2.660000000000000000e+03 3.086673498153686523e+00 -1.629496574401855469e+01 -6.159583426779136062e-05 5.705081639462150633e-05 -1.363505589324631728e-06 1.111286201194161549e-05
2.661000000000000000e+03 3.136477231979370117e+00 -1.550011444091796875e+01 4.873220314038917422e-05 -5.051253174315206707e-05 -5.340988309399108402e-07 -2.192062538597383536e-06
2.662000000000000000e+03 2.435669660568237305e+00 -1.865311431884765625e+01 -1.210805658047320321e-05 4.798501777258934453e-06 -2.192866531913750805e-06 1.845720544224604964e-05
2.663000000000000000e+03 8.240022659301757812e+00 -1.647619819641113281e+01 -3.321198892081156373e-05 -8.262869232567027211e-05 -3.475220364634878933e-05 6.081595711293630302e-05
2.664000000000000000e+03 2.462688446044921875e+00 -1.944368362426757812e+01 1.146560634879278950e-06 1.779385456757154316e-05 5.682124537997879088e-06 -4.864459242526208982e-06
2.665000000000000000e+03 7.860094070434570312e+00 -1.831487274169921875e+01 1.042964358930476010e-04 1.516058109700679779e-04 7.677067333133891225e-05 -5.747831892222166061e-05
2.666000000000000000e+03 7.304496288299560547e+00 -1.909272956848144531e+01 -1.246398023795336485e-04 -2.713201392907649279e-04 -1.187879825010895729e-04 4.405415893415920436e-05
2.667000000000000000e+03 3.235907077789306641e+00 1.510270214080810547e+01 5.766325071454048157e-02 -1.273105502128601074e+00 -3.646326661109924316e-01 2.842065691947937012e-01
2.668000000000000000e+03 2.452268362045288086e+00 1.120241641998291016e+01 2.644564770162105560e-02 -9.974822998046875000e-01 -2.913109958171844482e-01 3.177393972873687744e-01
2.669000000000000000e+03 3.301102161407470703e+00 -2.923080825805664062e+01 1.915962493512779474e-04 -8.695271390024572611e-06 5.487029557116329670e-05 2.717923198360949755e-04
2.670000000000000000e+03 3.158306360244750977e+00 1.190104675292968750e+01 4.602153226733207703e-02 -1.035826206207275391e+00 -2.969413995742797852e-01 3.706155121326446533e-01
2.671000000000000000e+03 3.168234586715698242e+00 -1.386162281036376953e+01 2.738580769801046699e-05 -1.733603858156129718e-05 3.014930143763194792e-06 3.978226686740526929e-06
2.672000000000000000e+03 2.480690479278564453e+00 -1.143913269042968750e+01 -1.880701688605768140e-06 -9.912242603604681790e-06 -3.537883458193391562e-06 -2.069880110866506584e-06
2.673000000000000000e+03 4.686037540435791016e+00 -8.881078720092773438e+00 1.371938742522615939e-05 -2.454403329466003925e-06 3.379495183253311552e-06 1.217860130964254495e-06
2.674000000000000000e+03 2.421466588973999023e+00 -2.427851104736328125e+01 1.145273836300475523e-05 3.432515950407832861e-05 1.373336908727651462e-05 3.049907172680832446e-05
2.675000000000000000e+03 6.460424423217773438e+00 -2.362103080749511719e+01 3.366804157849401236e-04 5.571852088905870914e-04 2.681596670299768448e-04 -8.993163760351308156e-07
2.676000000000000000e+03 3.282350778579711914e+00 -2.493899345397949219e+01 1.462669169995933771e-04 8.972189243650063872e-05 7.079663919284939766e-05 1.001831187750212848e-04
2.677000000000000000e+03 3.413363933563232422e+00 -2.583534431457519531e+01 3.630372812040150166e-04 -4.397164593683555722e-05 9.571968985255807638e-05 2.546308387536555529e-04
2.678000000000000000e+03 2.503248214721679688e+00 6.426333427429199219e+00 -3.970324993133544922e-02 -4.665547013282775879e-01 -1.518773883581161499e-01 3.154313564300537109e-01
2.679000000000000000e+03 5.350130081176757812e+00 4.676637649536132812e+00 -2.382438033819198608e-01 -3.827646076679229736e-01 -1.863025277853012085e-01 5.425950288772583008e-01
2.680000000000000000e+03 2.471160888671875000e+00 -1.225185966491699219e+01 -1.559415522933704779e-06 1.153971061285119504e-05 2.994088617924717255e-06 3.023778276656230446e-07
2.681000000000000000e+03 3.211186647415161133e+00 -1.060086917877197266e+01 7.001081030466593802e-06 -7.465690032404381782e-06 -1.393826920548235648e-07 1.867060632321226876e-06
2.682000000000000000e+03 2.527703762054443359e+00 1.842393684387207031e+01 3.436947986483573914e-02 -1.548515677452087402e+00 -4.542438387870788574e-01 1.477977186441421509e-01
2.683000000000000000e+03 3.325976133346557617e+00 2.233378982543945312e+01 4.333034902811050415e-02 -1.552742481231689453e+00 -4.528236389160156250e-01 7.517396658658981323e-02
2.684000000000000000e+03 3.257799863815307617e+00 1.753529739379882812e+01 5.685390904545783997e-02 -1.408904194831848145e+00 -4.056150913238525391e-01 2.087008208036422729e-01
2.685000000000000000e+03 3.189306735992431641e+00 -1.142128849029541016e+01 -1.269580025109462440e-05 1.229565987159730867e-05 -1.200420598479468026e-07 -4.321948836150113493e-06
2.686000000000000000e+03 2.668287754058837891e+00 2.652825546264648438e+01 1.477281842380762100e-02 -1.700109004974365234e+00 -5.056008696556091309e-01 -2.697207033634185791e-03
2.687000000000000000e+03 3.445236444473266602e+00 2.814195632934570312e+01 1.807754486799240112e-02 -1.557385802268981934e+00 -4.617924690246582031e-01 -1.845483481884002686e-02
2.688000000000000000e+03 3.413210630416870117e+00 2.730100440979003906e+01 2.381432615220546722e-02 -1.572422623634338379e+00 -4.645825028419494629e-01 -1.400987524539232254e-02
2.689000000000000000e+03 3.259012222290039062e+00 -2.107854270935058594e+01 4.278961932868696749e-05 5.388530553318560123e-05 2.900247818615753204e-05 -4.168531449977308512e-05
2.690000000000000000e+03 5.496572971343994141e+00 -2.111779022216796875e+01 -8.688779416843317449e-06 -3.736126236617565155e-04 -1.146904251072555780e-04 -1.014621011563576758e-05
2.691000000000000000e+03 2.468550682067871094e+00 -3.642941665649414062e+01 3.545658182702027261e-05 -1.224601641297340393e-03 -3.567435196600854397e-04 -1.087190234102308750e-03
2.692000000000000000e+03 3.108613014221191406e+00 1.033999061584472656e+01 2.977024391293525696e-02 -8.926025629043579102e-01 -2.588496804237365723e-01 3.984553813934326172e-01
2.693000000000000000e+03 4.024755954742431641e+00 1.983656120300292969e+01 7.423932105302810669e-02 -1.395069360733032227e+00 -3.962489962577819824e-01 1.619099378585815430e-01
2.694000000000000000e+03 3.162292480468750000e+00 -1.304760265350341797e+01 -2.448896339046768844e-05 1.679062552284449339e-05 -2.309501269337488338e-06 -5.998042979626916349e-06
2.695000000000000000e+03 3.127460479736328125e+00 9.563393592834472656e+00 1.298937201499938965e-02 -8.133245706558227539e-01 -2.401005625724792480e-01 4.107168614864349365e-01
2.696000000000000000e+03 3.121479749679565430e+00 1.111768054962158203e+01 3.475983068346977234e-02 -9.655272960662841797e-01 -2.792302370071411133e-01 3.848983943462371826e-01
2.697000000000000000e+03 3.160585403442382812e+00 8.782463073730468750e+00 2.675304189324378967e-03 -7.364841103553771973e-01 -2.201426476240158081e-01 4.165681600570678711e-01
2.698000000000000000e+03 7.642736816406250000e+01 -3.422224426269531250e+01 -1.485236138105392456e-01 6.610646724700927734e+00 1.938637018203735352e+00 -3.767441213130950928e-01
2.699000000000000000e+03 2.697245359420776367e+00 -3.169556236267089844e+01 -9.060234879143536091e-05 1.440322084818035364e-04 1.602895463292952627e-05 -6.999025208642706275e-05
2.700000000000000000e+03 3.976384162902832031e+00 -2.925672340393066406e+01 -5.882167024537920952e-04 -4.505338729359209538e-04 -3.116251609753817320e-04 4.818919114768505096e-04
2.701000000000000000e+03 3.502481698989868164e+00 -3.177698707580566406e+01 -7.977159693837165833e-04 -6.791116902604699135e-04 -4.430483095347881317e-04 -1.180515027954243124e-04
2.702000000000000000e+03 5.831483840942382812e+00 -2.919029808044433594e+01 -6.532910629175603390e-04 -5.025218706578016281e-04 -3.467438800726085901e-04 7.246751338243484497e-04
2.703000000000000000e+03 2.903030633926391602e+00 3.249768066406250000e+01 5.581301520578563213e-04 -1.627766847610473633e+00 -4.881626069545745850e-01 -4.188715294003486633e-02
2.704000000000000000e+03 3.349105358123779297e+00 3.300952148437500000e+01 5.721815396100282669e-04 -1.539110541343688965e+00 -4.615615010261535645e-01 -4.840905964374542236e-02
2.705000000000000000e+03 5.125162601470947266e+00 3.355905532836914062e+01 -9.230964817106723785e-03 -1.239112377166748047e+00 -3.745029866695404053e-01 -7.468681782484054565e-02
2.706000000000000000e+03 3.062488079071044922e+00 3.430783462524414062e+01 -8.584811352193355560e-03 -1.566558241844177246e+00 -4.725429415702819824e-01 -4.511986672878265381e-02
2.707000000000000000e+03 3.267495393753051758e+00 1.913294410705566406e+01 5.318235233426094055e-02 -1.475514531135559082e+00 -4.266996383666992188e-01 1.596698313951492310e-01
2.708000000000000000e+03 7.664315032958984375e+01 -3.672014236450195312e+01 -1.763949543237686157e-01 6.522877693176269531e+00 1.903944730758666992e+00 -2.111521512269973755e-01
2.709000000000000000e+03 3.306205272674560547e+00 -2.840925407409667969e+01 -3.550296532921493053e-04 -2.829151344485580921e-04 -1.913834275910630822e-04 4.024738154839724302e-04
2.710000000000000000e+03 4.140356063842773438e+00 -2.768218803405761719e+01 -3.774938813876360655e-04 -6.036490667611360550e-04 -2.943428989965468645e-04 4.091145528946071863e-04
2.711000000000000000e+03 3.569981813430786133e+00 3.002732658386230469e+01 1.853807084262371063e-02 -1.525268077850341797e+00 -4.520190060138702393e-01 -3.645436838269233704e-02
2.712000000000000000e+03 3.252961874008178711e+00 1.672507667541503906e+01 5.825656279921531677e-02 -1.368052482604980469e+00 -3.929387927055358887e-01 2.343067526817321777e-01
2.713000000000000000e+03 4.093809604644775391e+00 2.305500030517578125e+01 5.665755271911621094e-02 -1.442727804183959961e+00 -4.158210754394531250e-01 6.918599456548690796e-02
2.714000000000000000e+03 3.383835077285766602e+00 2.397354698181152344e+01 3.619028627872467041e-02 -1.565737605094909668e+00 -4.588642120361328125e-01 4.069044440984725952e-02
2.715000000000000000e+03 7.658480072021484375e+01 -3.120903778076171875e+01 1.455715745687484741e-01 6.702564716339111328e+00 2.054440975189208984e+00 -4.152292311191558838e-01
2.716000000000000000e+03 7.264540863037109375e+01 7.049739837646484375e+00 3.713639378547668457e-01 1.044612789154052734e+01 3.245247602462768555e+00 7.723438739776611328e-01
2.717000000000000000e+03 7.198660278320312500e+01 6.253361225128173828e+00 4.552091360092163086e-01 1.134775352478027344e+01 3.540888786315917969e+00 5.005437135696411133e-01
2.718000000000000000e+03 3.457892656326293945e+00 -3.256969070434570312e+01 -1.386555522913113236e-04 -3.482650499790906906e-04 -1.460761704947799444e-04 -3.349724283907562494e-04
2.719000000000000000e+03 2.851391792297363281e+00 3.588801193237304688e+01 -5.468380171805620193e-03 -1.577039718627929688e+00 -4.747524559497833252e-01 -2.822167426347732544e-02
2.720000000000000000e+03 4.213947296142578125e+01 4.197795867919921875e+00 8.177183866500854492e-01 7.757186412811279297e+00 2.572471618652343750e+00 -2.141081571578979492e+00
2.721000000000000000e+03 5.689041137695312500e+00 -4.709780216217041016e+00 7.676669156353455037e-06 -1.038407845044275746e-06 1.991478484342223965e-06 1.881731805042363703e-06
2.722000000000000000e+03 7.568447113037109375e+01 3.514289093017578125e+01 -2.792670726776123047e-01 9.307986259460449219e+00 2.708615541458129883e+00 2.588811516761779785e-01
2.723000000000000000e+03 7.624990081787109375e+01 3.455451202392578125e+01 -2.354719638824462891e-01 9.743278503417968750e+00 2.852341890335083008e+00 2.417577356100082397e-01
2.724000000000000000e+03 7.622401428222656250e+01 3.296084213256835938e+01 -3.009384870529174805e-01 9.656113624572753906e+00 2.806552410125732422e+00 4.549984633922576904e-01
2.725000000000000000e+03 7.741751861572265625e+01 3.309982299804687500e+01 -1.413128226995468140e-01 1.071580314636230469e+01 3.172347068786621094e+00 3.407118916511535645e-01
2.726000000000000000e+03 3.450548171997070312e+00 -4.119501113891601562e+00 3.699264539136493113e-08 -3.220357484678970650e-06 -9.550094546284526587e-07 -5.060817329649580643e-06
2.727000000000000000e+03 7.253334808349609375e+01 1.638503074645996094e+01 9.645983576774597168e-02 8.909977912902832031e+00 2.701931238174438477e+00 6.772439479827880859e-01
2.728000000000000000e+03 3.242406845092773438e+00 3.184677886962890625e+01 -2.486629527993500233e-04 -1.565593719482421875e+00 -4.697527289390563965e-01 -4.207465425133705139e-02
2.729000000000000000e+03 4.784191131591796875e+01 -8.197270393371582031e+00 -5.803220868110656738e-01 4.959064006805419922e+00 1.313622593879699707e+00 -5.658794045448303223e-01
2.730000000000000000e+03 5.644938945770263672e+00 -5.436695575714111328e+00 -1.153123412223067135e-05 -1.229353756571072154e-06 -3.828176431852625683e-06 -6.567419404746033251e-06
2.731000000000000000e+03 3.412030935287475586e+00 -4.895564079284667969e+00 -4.970769964529608842e-07 2.516099357308121398e-06 6.057067025722062681e-07 4.905677087663207203e-06
2.732000000000000000e+03 7.677066802978515625e+01 -5.977756500244140625e+00 6.272902339696884155e-02 6.458743095397949219e+00 1.956441640853881836e+00 -5.928656458854675293e-01
2.733000000000000000e+03 6.424041748046875000e+00 -4.655387878417968750e+00 -6.875525741634191945e-06 2.103217724425121560e-07 -1.999561163756879978e-06 -2.876309508792473935e-06
2.734000000000000000e+03 7.140562438964843750e+01 -1.526748061180114746e+00 7.497094273567199707e-01 1.086227703094482422e+01 3.483595848083496094e+00 1.061890959739685059e+00
2.735000000000000000e+03 3.627086877822875977e+00 -3.516897964477539062e+01 -7.250258349813520908e-04 -1.879038987681269646e-03 -7.812194526195526123e-04 -1.157657825388014317e-03
2.736000000000000000e+03 3.458386898040771484e+00 -3.329907226562500000e+01 -9.952745167538523674e-04 -7.668395992368459702e-04 -5.286342347972095013e-04 -5.425735726021230221e-04
2.737000000000000000e+03 4.127768325805664062e+01 7.487561225891113281e+00 1.545580029487609863e+00 9.422054290771484375e+00 3.290290355682373047e+00 -1.898581027984619141e+00
2.738000000000000000e+03 4.173269653320312500e+01 6.710817813873291016e+00 1.388081312179565430e+00 9.147693634033203125e+00 3.160732507705688477e+00 -2.267931222915649414e+00
2.739000000000000000e+03 4.076378250122070312e+01 2.074529457092285156e+01 6.289762854576110840e-01 6.980542182922363281e+00 2.282855510711669922e+00 6.800633072853088379e-01
2.740000000000000000e+03 7.695004463195800781e+00 -5.291741371154785156e+00 8.684039130457676947e-06 4.136045390623621643e-06 3.846025265374919400e-06 6.420647423510672525e-06
2.741000000000000000e+03 7.133970260620117188e+00 -4.623469352722167969e+00 6.489515271823620424e-06 6.136637011877610348e-07 2.130953816958935931e-06 3.693295639095595106e-06
2.742000000000000000e+03 6.998687744140625000e+01 -7.415881156921386719e+00 5.548333525657653809e-01 7.446674346923828125e+00 2.400452375411987305e+00 1.201056480407714844e+00
2.743000000000000000e+03 7.583791351318359375e+01 -2.778719329833984375e+01 8.301876783370971680e-01 7.103464603424072266e+00 2.380095720291137695e+00 2.813207805156707764e-01
2.744000000000000000e+03 4.344621181488037109e+00 -1.639765739440917969e+01 -6.494776607723906636e-05 2.462383054080419242e-05 -1.209717993333470076e-05 -3.846114850603044033e-05
2.745000000000000000e+03 6.533142852783203125e+01 -1.371836280822753906e+01 1.154274940490722656e+00 3.312532663345336914e+00 1.340042352676391602e+00 1.638170242309570312e+00
2.746000000000000000e+03 6.323233795166015625e+01 -1.574547576904296875e+01 -5.879391729831695557e-02 2.564281702041625977e+00 7.516463398933410645e-01 1.827455163002014160e+00
2.747000000000000000e+03 6.404322052001953125e+01 -1.513001537322998047e+01 4.192486703395843506e-01 2.761250734329223633e+00 9.541497826576232910e-01 1.757255554199218750e+00
2.748000000000000000e+03 4.031177139282226562e+01 1.840242958068847656e+01 7.627933025360107422e-01 7.807268142700195312e+00 2.571018457412719727e+00 3.494968712329864502e-01
2.749000000000000000e+03 4.705202102661132812e+01 -6.067272186279296875e+00 -2.651509344577789307e-01 5.228878498077392578e+00 1.489118218421936035e+00 -1.084422707557678223e+00
2.750000000000000000e+03 4.732341766357421875e+01 -6.779559612274169922e+00 -3.695186674594879150e-01 5.144516468048095703e+00 1.432499289512634277e+00 -9.179024696350097656e-01
2.751000000000000000e+03 3.582927322387695312e+01 -1.642351150512695312e+01 -1.887792199850082397e-01 1.004171967506408691e+00 2.446178346872329712e-01 -1.193351507186889648e+00
2.752000000000000000e+03 3.368331909179687500e+01 -1.496820449829101562e+01 -5.181469321250915527e-01 8.746966123580932617e-01 1.069649010896682739e-01 -4.047483205795288086e-01
2.753000000000000000e+03 4.154321289062500000e+01 2.427887153625488281e+01 4.117930829524993896e-01 5.718265056610107422e+00 1.839017391204833984e+00 7.371264100074768066e-01
2.754000000000000000e+03 4.486656570434570312e+01 -2.510245132446289062e+01 2.086899042129516602e+00 1.053542900085449219e+01 3.786698341369628906e+00 -1.966945648193359375e+00
2.755000000000000000e+03 4.481270217895507812e+01 -2.390894126892089844e+01 2.624915361404418945e+00 1.027199459075927734e+01 3.869072914123535156e+00 -2.312201023101806641e+00
2.756000000000000000e+03 4.831127166748046875e+01 -9.667206764221191406e+00 -8.679705262184143066e-01 4.727197170257568359e+00 1.157768011093139648e+00 -1.528876572847366333e-01
2.757000000000000000e+03 7.515887737274169922e+00 -2.230027580261230469e+01 -5.170010990696027875e-05 8.175957918865606189e-05 9.017840966407675296e-06 -7.803883636370301247e-05
2.758000000000000000e+03 3.919568300247192383e+00 -2.200548362731933594e+01 -3.148159294141805731e-06 2.961815916933119297e-04 8.791002619545906782e-05 -1.093131795641966164e-04
2.759000000000000000e+03 6.791781616210937500e+01 -1.121416282653808594e+01 1.061016201972961426e+00 5.028668880462646484e+00 1.826905488967895508e+00 1.353572845458984375e+00
2.760000000000000000e+03 7.957736492156982422e+00 -2.809841537475585938e+01 -3.860171489122876665e-07 -9.687253623269498348e-04 -2.907334128394722939e-04 -1.491275179432705045e-04
2.761000000000000000e+03 7.701480865478515625e+00 -2.915017509460449219e+01 -1.061146613210439682e-03 -1.388577627949416637e-03 -7.349172956310212612e-04 -5.455103018903173506e-05
2.762000000000000000e+03 2.832636642456054688e+01 -3.573394012451171875e+01 -5.435714125633239746e-02 2.203394100069999695e-02 -9.696959517896175385e-03 -1.588093191385269165e-01
2.763000000000000000e+03 3.461151504516601562e+01 -1.505538463592529297e+01 -4.297860264778137207e-01 1.151448607444763184e+00 2.164987772703170776e-01 -7.520610094070434570e-01
2.764000000000000000e+03 4.252537918090820312e+01 2.686019897460937500e+01 1.375441700220108032e-01 4.877674579620361328e+00 1.504565596580505371e+00 7.472401261329650879e-01
2.765000000000000000e+03 7.033715820312500000e+01 -6.619840145111083984e+00 5.279055237770080566e-01 7.903578758239746094e+00 2.529445409774780273e+00 1.140773057937622070e+00
2.766000000000000000e+03 1.469297695159912109e+01 -1.196119022369384766e+01 6.517446422549255658e-07 2.722435601754114032e-05 8.362830158148426563e-06 -1.010199639495112933e-06
2.767000000000000000e+03 1.147843265533447266e+01 -1.254986286163330078e+01 -3.841873694909736514e-05 -5.286429586703889072e-05 -2.738490911724511534e-05 -1.617937050468754023e-05
2.768000000000000000e+03 1.347188377380371094e+01 2.918787002563476562e+00 -6.993174552917480469e-01 -1.091902375221252441e+00 -5.373659729957580566e-01 1.027388215065002441e+00
2.769000000000000000e+03 7.417878723144531250e+01 -2.851821708679199219e+01 1.203882098197937012e+00 7.923241615295410156e+00 2.738137006759643555e+00 2.791131734848022461e-01
2.770000000000000000e+03 3.958184432983398438e+01 1.398853874206542969e+01 1.195064902305603027e+00 8.787476539611816406e+00 2.994762420654296875e+00 -6.129967570304870605e-01
2.771000000000000000e+03 5.830124282836914062e+01 -2.313665008544921875e+01 2.326926946640014648e+00 1.840854406356811523e+00 1.250334382057189941e+00 2.028142452239990234e+00
2.772000000000000000e+03 7.022855377197265625e+01 -8.555700302124023438e+00 5.192125439643859863e-01 6.888110637664794922e+00 2.222197055816650391e+00 8.781718611717224121e-01
2.773000000000000000e+03 2.544283294677734375e+01 -6.305459976196289062e+00 -1.297274947166442871e+00 -8.821302652359008789e-02 -4.156464040279388428e-01 8.075168132781982422e-01
2.774000000000000000e+03 4.562682342529296875e+01 3.515164184570312500e+01 -8.458170294761657715e-01 3.060797929763793945e+00 6.644942760467529297e-01 4.110442996025085449e-01
2.775000000000000000e+03 7.249062347412109375e+01 2.286897087097167969e+01 1.824348866939544678e-01 8.133509635925292969e+00 2.494783401489257812e+00 6.005716919898986816e-01
2.776000000000000000e+03 7.261802673339843750e+01 -2.319391059875488281e+01 -4.849251210689544678e-01 8.094720840454101562e+00 2.282938718795776367e+00 5.004878640174865723e-01
2.777000000000000000e+03 7.260173034667968750e+01 -2.165231323242187500e+01 -1.772217154502868652e+00 7.313639640808105469e+00 1.662426710128784180e+00 4.258296638727188110e-02
2.778000000000000000e+03 4.251180267333984375e+01 -1.771443367004394531e+01 -4.182394742965698242e-01 8.937628746032714844e+00 2.555816888809204102e+00 -1.860589146614074707e+00
2.779000000000000000e+03 6.839160919189453125e+01 3.482106018066406250e+01 -9.182975888252258301e-01 2.540186882019042969e+00 4.865668118000030518e-01 -7.737392932176589966e-02
2.780000000000000000e+03 4.071915817260742188e+01 7.018372535705566406e+00 1.473241329193115234e+00 8.730973243713378906e+00 3.061264276504516602e+00 -1.577469229698181152e+00
2.781000000000000000e+03 2.677211952209472656e+01 -8.456331253051757812e+00 -1.186201572418212891e+00 1.556586325168609619e-01 -3.091628551483154297e-01 7.829688191413879395e-01
2.782000000000000000e+03 2.442342948913574219e+01 -4.891288280487060547e+00 -1.307147622108459473e+00 -2.951595187187194824e-01 -4.806921482086181641e-01 8.201716542243957520e-01
2.783000000000000000e+03 7.152913665771484375e+01 -3.397809982299804688e+00 5.382837653160095215e-01 9.576528549194335938e+00 3.034443616867065430e+00 8.760265707969665527e-01
2.784000000000000000e+03 1.945055580139160156e+01 5.432602390646934509e-02 -9.592667222023010254e-01 -1.076190590858459473e+00 -6.106371879577636719e-01 9.030373692512512207e-01
2.785000000000000000e+03 4.089620208740234375e+01 2.158127784729003906e+01 5.999026298522949219e-01 6.673227787017822266e+00 2.181939125061035156e+00 7.006852030754089355e-01
2.786000000000000000e+03 7.066020202636718750e+01 -5.816126346588134766e+00 4.884968698024749756e-01 8.359237670898437500e+00 2.654320240020751953e+00 1.086453914642333984e+00
2.787000000000000000e+03 7.203482818603515625e+01 2.120583295822143555e+00 9.708179831504821777e-01 1.164123249053955078e+01 3.783615112304687500e+00 9.463437795639038086e-01
2.788000000000000000e+03 7.342355346679687500e+01 2.196997880935668945e+00 8.623606562614440918e-01 9.871697425842285156e+00 3.220217466354370117e+00 6.800518035888671875e-01
2.789000000000000000e+03 3.112712287902832031e+01 -1.460752487182617188e+01 -7.453550696372985840e-01 3.948539197444915771e-01 -1.051503419876098633e-01 2.744878530502319336e-01
2.790000000000000000e+03 5.777609634399414062e+01 -2.264239120483398438e+01 1.862150311470031738e+00 1.602484703063964844e+00 1.039390563964843750e+00 1.838581800460815430e+00
2.791000000000000000e+03 2.329638862609863281e+01 -3.533833026885986328e+00 -1.267890334129333496e+00 -5.245485305786132812e-01 -5.377316474914550781e-01 8.338563442230224609e-01
2.792000000000000000e+03 1.875499916076660156e+01 5.721163749694824219e-01 -8.970711827278137207e-01 -1.122966289520263672e+00 -6.060112118721008301e-01 9.223814010620117188e-01
2.793000000000000000e+03 7.330944824218750000e+01 8.641779899597167969e+00 -2.692945534363389015e-03 9.685374259948730469e+00 2.904804229736328125e+00 9.757246971130371094e-01
2.794000000000000000e+03 2.013013267517089844e+01 -4.903038740158081055e-01 -1.020556569099426270e+00 -1.013577103614807129e+00 -6.102401018142700195e-01 8.881871700286865234e-01
2.795000000000000000e+03 3.875666046142578125e+01 -1.642421913146972656e+01 -1.451402753591537476e-01 4.608345508575439453e+00 1.338961601257324219e+00 -2.757426738739013672e+00
2.796000000000000000e+03 7.233361816406250000e+01 -9.503843188285827637e-01 8.132624626159667969e-01 1.027503871917724609e+01 3.326490402221679688e+00 5.856262445449829102e-01
2.797000000000000000e+03 7.269252014160156250e+01 -2.395026016235351562e+01 2.596937119960784912e-01 8.601850509643554688e+00 2.658463478088378906e+00 5.894981622695922852e-01
2.798000000000000000e+03 6.631062316894531250e+01 -1.930198097229003906e+01 -1.225597381591796875e+00 1.204172611236572266e+00 -6.427417974919080734e-03 1.507932186126708984e+00
2.799000000000000000e+03 6.522454833984375000e+01 -2.021306800842285156e+01 -1.487849473953247070e+00 1.311040043830871582e+00 -5.304283276200294495e-02 1.800073027610778809e+00
2.800000000000000000e+03 7.270566558837890625e+01 -2.063546419143676758e+00 6.215863823890686035e-01 9.481861114501953125e+00 3.031034231185913086e+00 3.728730380535125732e-01
2.801000000000000000e+03 7.205810546875000000e+01 -1.780254721641540527e+00 6.977928876876831055e-01 1.013741397857666016e+01 3.250562191009521484e+00 6.707999706268310547e-01
2.802000000000000000e+03 7.613726806640625000e+01 2.687075233459472656e+01 -3.370733559131622314e-02 9.182479858398437500e+00 2.744631528854370117e+00 8.951045870780944824e-01
2.803000000000000000e+03 1.412863254547119141e+01 2.550211429595947266e+00 -7.818063497543334961e-01 -1.130877375602722168e+00 -5.738050937652587891e-01 1.047745823860168457e+00
2.804000000000000000e+03 1.385071086883544922e+01 3.530485868453979492e+00 -4.910826683044433594e-01 -1.096373081207275391e+00 -4.762367010116577148e-01 9.866467118263244629e-01
2.805000000000000000e+03 2.787070083618164062e+01 -1.054144668579101562e+01 -9.976999759674072266e-01 2.617728114128112793e-01 -2.207781523466110229e-01 7.363407015800476074e-01
2.806000000000000000e+03 2.716233825683593750e+01 -9.164249420166015625e+00 -1.130906462669372559e+00 2.034827470779418945e-01 -2.782271206378936768e-01 7.679994106292724609e-01
2.807000000000000000e+03 7.161085510253906250e+01 2.922622871398925781e+01 -4.680621922016143799e-01 6.298659324645996094e+00 1.749179124832153320e+00 6.091870665550231934e-01
2.808000000000000000e+03 7.112117767333984375e+01 2.810835456848144531e+01 -1.985010355710983276e-01 6.183193683624267578e+00 1.795407772064208984e+00 4.627267420291900635e-01
2.809000000000000000e+03 4.379321670532226562e+01 -1.994393157958984375e+01 1.585233092308044434e+00 9.997554779052734375e+00 3.474836349487304688e+00 -1.438194632530212402e+00
2.810000000000000000e+03 4.277849960327148438e+01 -2.033443260192871094e+01 2.342950105667114258e+00 1.151424980163574219e+01 4.157160282135009766e+00 -2.547792911529541016e+00
2.811000000000000000e+03 7.263867187500000000e+01 -9.612502157688140869e-02 9.308875203132629395e-01 1.027070999145507812e+01 3.360479354858398438e+00 5.585877299308776855e-01
2.812000000000000000e+03 3.558817291259765625e+01 -1.521489524841308594e+01 -3.629082441329956055e-01 1.627140402793884277e+00 3.792696297168731689e-01 -1.201194524765014648e+00
2.813000000000000000e+03 4.229097366333007812e+01 2.601897430419921875e+01 2.733544409275054932e-01 5.213608264923095703e+00 1.646088838577270508e+00 7.959879040718078613e-01
2.814000000000000000e+03 7.297191619873046875e+00 -1.782502365112304688e+01 -3.322311386000365019e-05 -2.239655295852571726e-04 -7.715659012319520116e-05 3.935681161237880588e-05
2.815000000000000000e+03 5.144665908813476562e+01 -1.536167716979980469e+01 -3.355563402175903320e+00 2.269530773162841797e+00 -3.258098363876342773e-01 8.963577747344970703e-01
2.816000000000000000e+03 5.106517028808593750e+01 -1.690616416931152344e+01 -2.539508819580078125e+00 3.072268724441528320e+00 1.598280221223831177e-01 3.087566420435905457e-02
2.817000000000000000e+03 6.836637878417968750e+01 -1.048119449615478516e+01 9.368308186531066895e-01 5.506399631500244141e+00 1.932969212532043457e+00 1.357480406761169434e+00
2.818000000000000000e+03 5.576303863525390625e+01 -2.563846778869628906e+01 2.623361349105834961e+00 3.159777164459228516e+00 1.734941482543945312e+00 1.321066617965698242e+00
2.819000000000000000e+03 5.488762283325195312e+01 -2.827806472778320312e+01 1.885417819023132324e+00 5.322459697723388672e+00 2.162363290786743164e+00 4.534280002117156982e-01
2.820000000000000000e+03 5.839205551147460938e+01 -2.207326507568359375e+01 1.372607231140136719e+00 1.610108494758605957e+00 8.948147296905517578e-01 2.067706584930419922e+00
2.821000000000000000e+03 1.484752178192138672e+01 -3.476553726196289062e+01 -1.340675726532936096e-02 -9.753611870110034943e-03 -6.948110647499561310e-03 -2.772487886250019073e-02
2.822000000000000000e+03 1.653483772277832031e+01 -3.542834854125976562e+01 -8.428980596363544464e-03 -1.925351843237876892e-02 -8.304749615490436554e-03 -4.102188348770141602e-02
2.823000000000000000e+03 4.022613143920898438e+01 -1.717316246032714844e+01 1.619312725961208344e-02 6.732964515686035156e+00 2.024747371673583984e+00 -2.961285829544067383e+00
2.824000000000000000e+03 3.979879379272460938e+01 -1.658875083923339844e+01 -3.124973177909851074e-01 6.077223300933837891e+00 1.729417800903320312e+00 -2.796430587768554688e+00
2.825000000000000000e+03 6.302894592285156250e+01 -1.993135643005371094e+01 -1.026461005210876465e+00 2.062778711318969727e+00 3.108952641487121582e-01 2.468770980834960938e+00
2.826000000000000000e+03 6.191292190551757812e+01 -1.725162887573242188e+01 -1.325716257095336914e+00 2.355121850967407227e+00 3.088217377662658691e-01 2.211465597152709961e+00
2.827000000000000000e+03 9.650093078613281250e+00 -1.545557785034179688e+01 -8.455116585537325591e-06 -1.803038503567222506e-05 -7.945650395413395017e-06 -1.462236923543969169e-05
2.828000000000000000e+03 7.789476394653320312e+00 -1.715374565124511719e+01 4.019920379505492747e-05 1.485381653765216470e-04 5.662121111527085304e-05 -4.922697189613245428e-05
2.829000000000000000e+03 4.127644729614257812e+01 2.334674835205078125e+01 5.129628181457519531e-01 6.030587673187255859e+00 1.963065147399902344e+00 7.225485444068908691e-01
2.830000000000000000e+03 4.573254394531250000e+01 6.466969847679138184e-01 7.765628099441528320e-01 6.000312805175781250e+00 2.033062696456909180e+00 -2.438561201095581055e+00
2.831000000000000000e+03 7.608999633789062500e+01 2.373270034790039062e+01 8.230048418045043945e-02 8.907861709594726562e+00 2.697048664093017578e+00 8.484197258949279785e-01
2.832000000000000000e+03 7.463900756835937500e+01 2.373390579223632812e+01 1.299526840448379517e-01 8.488534927368164062e+00 2.585546493530273438e+00 8.741425275802612305e-01
2.833000000000000000e+03 7.214482116699218750e+01 2.637611961364746094e+01 6.759881973266601562e-02 7.282015323638916016e+00 2.204884290695190430e+00 6.684855818748474121e-01
2.834000000000000000e+03 6.180210876464843750e+01 -2.201869964599609375e+01 7.566655874252319336e-01 1.934836030006408691e+00 8.074504733085632324e-01 2.298348665237426758e+00
2.835000000000000000e+03 6.286149597167968750e+01 -2.063738822937011719e+01 -7.074487209320068359e-01 1.954367756843566895e+00 3.740757107734680176e-01 2.402821540832519531e+00
2.836000000000000000e+03 5.299329757690429688e+01 -1.811717796325683594e+01 -2.143491983413696289e+00 8.764954209327697754e-01 -3.800989687442779541e-01 -1.883779764175415039e-01
2.837000000000000000e+03 4.187424468994140625e+01 2.519622993469238281e+01 3.279735743999481201e-01 5.446059226989746094e+00 1.732209801673889160e+00 7.603733539581298828e-01
2.838000000000000000e+03 5.508589172363281250e+01 -1.876831054687500000e+01 -1.622838377952575684e+00 -9.291671514511108398e-01 -7.656016349792480469e-01 7.723556756973266602e-01
2.839000000000000000e+03 4.141229248046875000e+01 5.690560817718505859e+00 1.122994780540466309e+00 8.390793800354003906e+00 2.854136705398559570e+00 -1.952332615852355957e+00
2.840000000000000000e+03 6.170922088623046875e+01 -1.962255477905273438e+01 -1.100508332252502441e+00 2.248868227005004883e+00 3.445079624652862549e-01 2.692237377166748047e+00
2.841000000000000000e+03 6.419064331054687500e+01 -2.065834236145019531e+01 -1.171345949172973633e+00 1.565539956092834473e+00 1.182581856846809387e-01 1.943466544151306152e+00
2.842000000000000000e+03 6.252336502075195312e+00 -2.535881614685058594e+01 -1.273128145840018988e-04 -6.941271713003516197e-04 -2.464319986756891012e-04 -9.766460425453260541e-05
2.843000000000000000e+03 4.561937713623046875e+01 -2.417762756347656250e+01 2.510330438613891602e+00 9.205561637878417969e+00 3.514767646789550781e+00 -1.925444245338439941e+00
2.844000000000000000e+03 5.376291275024414062e+01 -2.861441040039062500e+01 2.197708129882812500e+00 5.030407428741455078e+00 2.168434619903564453e+00 -2.808108627796173096e-01
2.845000000000000000e+03 2.591299057006835938e+01 -7.022128105163574219e+00 -1.271463871002197266e+00 8.421692065894603729e-03 -3.789126574993133545e-01 8.014069795608520508e-01
2.846000000000000000e+03 6.801192474365234375e+01 -1.232075786590576172e+01 9.362301230430603027e-01 4.594416618347167969e+00 1.659193992614746094e+00 1.018489122390747070e+00
2.847000000000000000e+03 4.379296112060546875e+01 3.258579635620117188e+01 -6.439513564109802246e-01 3.687351465225219727e+00 9.130200147628784180e-01 4.302060008049011230e-01
2.848000000000000000e+03 7.251247406005859375e+01 1.557772064208984375e+01 8.855344355106353760e-02 8.972197532653808594e+00 2.718225479125976562e+00 6.352101564407348633e-01
2.849000000000000000e+03 3.884615325927734375e+01 1.217019844055175781e+01 1.761993646621704102e+00 8.118069648742675781e+00 2.964019060134887695e+00 -1.029174208641052246e+00
2.850000000000000000e+03 6.767008209228515625e+01 -1.966294097900390625e+01 -1.440227627754211426e+00 4.518078565597534180e-01 -2.965259253978729248e-01 5.576738119125366211e-01
2.851000000000000000e+03 3.972124862670898438e+01 1.118721580505371094e+01 1.920645117759704590e+00 8.997649192810058594e+00 3.275488138198852539e+00 -1.202603101730346680e+00
2.852000000000000000e+03 7.181835937500000000e+01 2.824073982238769531e+01 -2.607602179050445557e-01 6.665445327758789062e+00 1.921405434608459473e+00 6.556897759437561035e-01
2.853000000000000000e+03 1.516615486145019531e+01 2.809265375137329102e+00 -6.032032370567321777e-01 -1.147972106933593750e+00 -5.253525972366333008e-01 9.813833236694335938e-01
2.854000000000000000e+03 1.448973178863525391e+01 3.185305118560791016e+00 -5.422223210334777832e-01 -1.121692776679992676e+00 -4.991745054721832275e-01 9.830810427665710449e-01
2.855000000000000000e+03 7.016812896728515625e+01 3.083634757995605469e+01 -8.991406559944152832e-01 4.546238422393798828e+00 1.094129323959350586e+00 2.687608897686004639e-01
2.856000000000000000e+03 1.215070438385009766e+01 -3.225813674926757812e+01 -1.439712103456258774e-02 5.227338988333940506e-04 -4.162316210567951202e-03 -6.877965759485960007e-03
2.857000000000000000e+03 7.262048339843750000e+01 7.845705509185791016e+00 2.295114696025848389e-01 1.026560306549072266e+01 3.148534297943115234e+00 8.265417814254760742e-01
2.858000000000000000e+03 2.387261390686035156e+01 -4.204872131347656250e+00 -1.292661190032958984e+00 -4.041289091110229492e-01 -5.090370178222656250e-01 8.271677494049072266e-01
2.859000000000000000e+03 4.911352539062500000e+01 -1.292381572723388672e+01 -2.003843069076538086e+00 4.414251804351806641e+00 7.231225967407226562e-01 7.037262916564941406e-01
2.860000000000000000e+03 1.383195304870605469e+01 -3.366379165649414062e+01 -1.614425517618656158e-02 -2.748396247625350952e-03 -5.667795427143573761e-03 -1.829297654330730438e-02
2.861000000000000000e+03 2.144240188598632812e+01 -1.643468141555786133e+00 -1.137630820274353027e+00 -8.481535911560058594e-01 -5.957353115081787109e-01 8.617450594902038574e-01
2.862000000000000000e+03 2.079424095153808594e+01 -1.058548092842102051e+00 -1.082225680351257324e+00 -9.398751258850097656e-01 -6.066302657127380371e-01 8.732588291168212891e-01
2.863000000000000000e+03 7.235812377929687500e+01 -3.251527404785156250e+01 -1.283830553293228149e-01 6.729764461517333984e+00 1.980414509773254395e+00 6.222007274627685547e-01
2.864000000000000000e+03 3.159140348434448242e+00 -1.937236595153808594e+01 -7.735802500974386930e-05 2.166915874113328755e-05 -1.670666097197681665e-05 2.621977364469785243e-05
2.865000000000000000e+03 5.847922515869140625e+01 -2.038571739196777344e+01 -1.987562626600265503e-01 1.086552739143371582e+00 2.663389444351196289e-01 2.355962991714477539e+00
2.866000000000000000e+03 6.588227081298828125e+01 -1.300059700012207031e+01 1.363557815551757812e+00 3.681936025619506836e+00 1.513648152351379395e+00 1.620985388755798340e+00
2.867000000000000000e+03 1.586314678192138672e+01 2.418659687042236328e+00 -6.568911671638488770e-01 -1.169315338134765625e+00 -5.478619337081909180e-01 9.771457314491271973e-01
2.868000000000000000e+03 7.646928405761718750e+01 -3.210503387451171875e+01 2.474947646260261536e-02 6.674991130828857422e+00 2.009922027587890625e+00 -4.275106489658355713e-01
2.869000000000000000e+03 1.522278594970703125e+01 -1.171530723571777344e+01 1.693091689958237112e-05 4.414519480633316562e-06 6.403630777640501037e-06 2.905762084992602468e-05
2.870000000000000000e+03 7.402793121337890625e+01 -2.184605026245117188e+01 -1.081396698951721191e+00 7.649737358093261719e+00 1.970502138137817383e+00 6.806644201278686523e-01
2.871000000000000000e+03 7.272472381591796875e+01 2.143903493881225586e+00 9.549946784973144531e-01 1.073324680328369141e+01 3.506472587585449219e+00 8.192842602729797363e-01
2.872000000000000000e+03 7.625826263427734375e+01 6.211828589439392090e-01 4.137376248836517334e-01 6.981084346771240234e+00 2.218446731567382812e+00 6.976014375686645508e-02
2.873000000000000000e+03 4.006775283813476562e+01 1.762691116333007812e+01 8.500105738639831543e-01 7.986802577972412109e+00 2.651043891906738281e+00 1.779968440532684326e-01
2.874000000000000000e+03 7.234541320800781250e+01 1.321555519104003906e+01 -2.164607942104339600e-01 9.278967857360839844e+00 2.718752145767211914e+00 4.446328878402709961e-01
2.875000000000000000e+03 7.241255950927734375e+01 1.399117088317871094e+01 -4.835524782538414001e-02 9.125245094299316406e+00 2.723066806793212891e+00 4.843418598175048828e-01
2.876000000000000000e+03 5.092939758300781250e+01 -1.464698028564453125e+01 -2.826985359191894531e+00 2.770201683044433594e+00 -1.703509502112865448e-02 9.354585409164428711e-01
2.877000000000000000e+03 4.972306060791015625e+01 -1.542006015777587891e+01 -2.621801853179931641e+00 4.324915409088134766e+00 5.109340548515319824e-01 4.701797664165496826e-01
2.878000000000000000e+03 5.468900299072265625e+01 -2.709849929809570312e+01 2.282004117965698242e+00 4.346264362335205078e+00 1.988480567932128906e+00 5.597243905067443848e-01
2.879000000000000000e+03 6.033992767333984375e+01 -2.086972618103027344e+01 -3.621055185794830322e-02 2.033296346664428711e+00 5.991257429122924805e-01 2.576595067977905273e+00
2.880000000000000000e+03 3.228415250778198242e+00 -2.019957160949707031e+01 5.663740739692002535e-05 8.536534733138978481e-05 4.260082641849294305e-05 -3.600915079005062580e-06
2.881000000000000000e+03 6.606836318969726562e+00 -1.972170448303222656e+01 2.581590961199253798e-04 3.214359749108552933e-04 1.738785213092342019e-04 -2.377943019382655621e-05
2.882000000000000000e+03 4.502143096923828125e+01 -1.184192299842834473e+00 1.681981831789016724e-01 5.935192584991455078e+00 1.831017255783081055e+00 -1.953894495964050293e+00
2.883000000000000000e+03 6.352131652832031250e+01 -2.068676376342773438e+01 -8.335556983947753906e-01 1.751820087432861328e+00 2.754793167114257812e-01 2.194511413574218750e+00
2.884000000000000000e+03 1.675887107849121094e+01 -9.109581947326660156e+00 6.638563263550167903e-06 -7.921731594251468778e-06 -3.849504253139457433e-07 3.189938126979541266e-07
2.885000000000000000e+03 4.544692611694335938e+01 2.936094284057617188e+01 1.266790330410003662e-01 3.648463726043701172e+00 1.132542848587036133e+00 9.807597994804382324e-01
2.886000000000000000e+03 3.518173980712890625e+01 -3.607749557495117188e+01 1.438948810100555420e-01 5.826013088226318359e-01 2.179488688707351685e-01 2.260037660598754883e-01
2.887000000000000000e+03 1.376666164398193359e+01 -3.495054244995117188e+01 -1.271308958530426025e-02 -1.202774513512849808e-02 -7.422250229865312576e-03 -2.157963626086711884e-02
2.888000000000000000e+03 1.731545448303222656e+01 -3.653076553344726562e+01 6.218834314495325089e-03 -3.029884584248065948e-02 -7.224003784358501434e-03 -4.284672066569328308e-02
2.889000000000000000e+03 1.833457946777343750e+01 -3.554367065429687500e+01 -1.544641051441431046e-02 -2.436894923448562622e-02 -1.194460783153772354e-02 -5.494162067770957947e-02
2.890000000000000000e+03 6.473146820068359375e+01 -1.442809772491455078e+01 8.951191902160644531e-01 3.018821477890014648e+00 1.174182295799255371e+00 1.657496213912963867e+00
2.891000000000000000e+03 1.017989444732666016e+01 -3.176867103576660156e+01 -6.922973319888114929e-03 -1.030859348247759044e-04 -2.107817679643630981e-03 -3.861582139506936073e-03
2.892000000000000000e+03 5.637363433837890625e+01 -1.866554450988769531e+01 -1.834458112716674805e+00 -7.657247781753540039e-01 -7.800548672676086426e-01 1.632828831672668457e+00
2.893000000000000000e+03 9.718531608581542969e+00 4.951900482177734375e+00 -3.037682771682739258e-01 -7.697488665580749512e-01 -3.220551609992980957e-01 9.275941848754882812e-01
2.894000000000000000e+03 1.280152130126953125e+01 -1.254630088806152344e+01 -2.320919156773015857e-05 -2.791043698380235583e-05 -1.533588874735869467e-05 -2.984268212458118796e-05
2.895000000000000000e+03 4.002093887329101562e+01 8.314143180847167969e+00 1.815071582794189453e+00 8.660906791687011719e+00 3.142793655395507812e+00 -1.264791607856750488e+00
2.896000000000000000e+03 3.964944458007812500e+01 1.211307334899902344e+01 1.663986682891845703e+00 9.009086608886718750e+00 3.201922178268432617e+00 -1.087595105171203613e+00
2.897000000000000000e+03 3.909465789794921875e+01 8.407594680786132812e+00 1.824247837066650391e+00 7.764665126800537109e+00 2.876673936843872070e+00 -1.019096851348876953e+00
2.898000000000000000e+03 6.947679901123046875e+01 -3.628162765502929688e+01 8.503454923629760742e-02 3.392307996749877930e+00 1.043202757835388184e+00 9.514406919479370117e-01
2.899000000000000000e+03 6.998479461669921875e+01 -3.478010177612304688e+01 -7.990620285272598267e-02 4.062671661376953125e+00 1.194829583168029785e+00 1.156858444213867188e+00
2.900000000000000000e+03 7.188530731201171875e+01 -3.344815444946289062e+01 -2.477525472640991211e-01 6.012361526489257812e+00 1.729382634162902832e+00 7.525438666343688965e-01
2.901000000000000000e+03 5.171706771850585938e+01 -1.688480377197265625e+01 -2.968864917755126953e+00 2.242039203643798828e+00 -2.180477082729339600e-01 8.387827128171920776e-02
2.902000000000000000e+03 4.040160751342773438e+01 1.480296516418457031e+01 8.690761327743530273e-01 9.389517784118652344e+00 3.077578306198120117e+00 -1.221590936183929443e-01
2.903000000000000000e+03 7.566513061523437500e+00 -2.738966560363769531e+01 6.473816465586423874e-04 -1.541830570204183459e-04 1.479595812270417809e-04 3.435199905652552843e-04
2.904000000000000000e+03 6.967739868164062500e+01 3.419340515136718750e+01 -9.743500947952270508e-01 3.789594650268554688e+00 8.445733785629272461e-01 -1.164534315466880798e-01
2.905000000000000000e+03 5.509418487548828125e+01 -3.645029830932617188e+01 -8.273085206747055054e-02 4.541757106781005859e+00 1.337707757949829102e+00 -9.779087305068969727e-01
2.906000000000000000e+03 7.547465515136718750e+01 3.257961654663085938e+01 -3.731326758861541748e-01 9.055077552795410156e+00 2.604583501815795898e+00 4.898173213005065918e-01
2.907000000000000000e+03 4.459516906738281250e+01 -2.209685325622558594e+01 3.060898542404174805e+00 9.839498519897460938e+00 3.870119094848632812e+00 -1.958823561668395996e+00
2.908000000000000000e+03 4.134096908569335938e+01 -1.714043045043945312e+01 -4.517861604690551758e-01 7.903641223907470703e+00 2.235556602478027344e+00 -2.478937149047851562e+00
2.909000000000000000e+03 4.086340332031250000e+01 -1.819448089599609375e+01 8.449509739875793457e-01 7.994667053222656250e+00 2.651885509490966797e+00 -3.372139930725097656e+00
2.910000000000000000e+03 1.087129497528076172e+01 -1.331539535522460938e+01 -6.835029489593580365e-05 -5.738479740102775395e-05 -3.772052878048270941e-05 2.177630631194915622e-05
2.911000000000000000e+03 9.985257148742675781e+00 -1.475343608856201172e+01 1.448664443159941584e-05 5.901045005884952843e-05 2.204912925662938505e-05 6.692243005090858787e-06
2.912000000000000000e+03 4.079053497314453125e+01 -3.746236038208007812e+01 -5.094059705734252930e-01 4.012567043304443359e+00 1.050948262214660645e+00 8.371387124061584473e-01
2.913000000000000000e+03 4.323788070678710938e+01 -3.447206115722656250e+01 -6.055971384048461914e-01 6.388573169708251953e+00 1.734892845153808594e+00 6.359460949897766113e-01
2.914000000000000000e+03 2.245345115661621094e+01 -3.533687973022460938e+01 -3.567492589354515076e-02 -3.225366026163101196e-02 -2.037857659161090851e-02 -8.574842661619186401e-02
2.915000000000000000e+03 5.833581161499023438e+01 -1.875684738159179688e+01 -1.834287166595458984e+00 6.436302661895751953e-01 -3.571970462799072266e-01 2.477448701858520508e+00
2.916000000000000000e+03 4.283567428588867188e+01 -1.863012504577636719e+01 2.893003523349761963e-01 9.628705978393554688e+00 2.975401878356933594e+00 -1.807145237922668457e+00
2.917000000000000000e+03 3.765341186523437500e+01 -1.638860893249511719e+01 -2.313927980139851570e-03 2.833034276962280273e+00 8.492161035537719727e-01 -2.313171386718750000e+00
2.918000000000000000e+03 1.198102951049804688e+01 4.512612819671630859e+00 -3.268041908740997314e-01 -9.734578728675842285e-01 -3.900786042213439941e-01 9.730319380760192871e-01
2.919000000000000000e+03 7.090977478027343750e+01 3.120577621459960938e+01 -8.887559771537780762e-01 5.314383506774902344e+00 1.327688217163085938e+00 3.455306887626647949e-01
2.920000000000000000e+03 4.902960968017578125e+01 -1.368575096130371094e+01 -2.307417392730712891e+00 4.603121757507324219e+00 6.887112259864807129e-01 6.781182289123535156e-01
2.921000000000000000e+03 7.322253417968750000e+01 -3.092521095275878906e+01 3.968906402587890625e-01 7.603236675262451172e+00 2.400038242340087891e+00 2.345629483461380005e-01
2.922000000000000000e+03 7.264163208007812500e+01 -3.056874847412109375e+01 6.168812513351440430e-01 7.914572238922119141e+00 2.559436082839965820e+00 5.765771269798278809e-01
2.923000000000000000e+03 3.980928039550781250e+01 1.025863838195800781e+01 2.060231208801269531e+00 8.930960655212402344e+00 3.297357559204101562e+00 -1.240207076072692871e+00
2.924000000000000000e+03 5.011962413787841797e+00 -2.157475090026855469e+01 -2.462496240696054883e-06 5.853518377989530563e-04 1.748668146319687366e-04 -1.457036560168489814e-04
2.925000000000000000e+03 4.623917007446289062e+01 3.909680557250976562e+01 -1.083148598670959473e+00 2.692689418792724609e+00 4.828622043132781982e-01 1.961906105279922485e-01
2.926000000000000000e+03 4.844538116455078125e+01 3.538683700561523438e+01 -7.119931578636169434e-01 2.250932216644287109e+00 4.616817235946655273e-01 4.749864637851715088e-01
2.927000000000000000e+03 1.168365478515625000e+01 -3.440973281860351562e+01 -6.514647509902715683e-03 -8.134804666042327881e-03 -4.394835792481899261e-03 -1.295083574950695038e-02
2.928000000000000000e+03 4.551868438720703125e+01 -2.756858444213867188e+01 2.099881172180175781e+00 8.935934066772460938e+00 3.310744762420654297e+00 -1.066894650459289551e+00
2.929000000000000000e+03 9.110500335693359375e+00 -3.159166145324707031e+01 -5.015286151319742203e-03 5.050792242400348186e-04 -1.353061990812420845e-03 -2.479870337992906570e-03
2.930000000000000000e+03 7.468442535400390625e+01 -1.979054260253906250e+01 -1.154951095581054688e+00 7.204337120056152344e+00 1.814815878868103027e+00 5.048151314258575439e-02
2.931000000000000000e+03 7.202928924560546875e+01 -1.978929901123046875e+01 -1.868751525878906250e+00 5.771677017211914062e+00 1.170877695083618164e+00 -8.786860108375549316e-01
2.932000000000000000e+03 6.984699249267578125e+01 -1.957048225402832031e+01 -1.572153210639953613e+00 2.704819679260253906e+00 3.397999405860900879e-01 -1.075227141380310059e+00
2.933000000000000000e+03 6.728186798095703125e+01 -1.883262062072753906e+01 -8.703563213348388672e-01 1.088744640350341797e+00 6.551651656627655029e-02 8.515768647193908691e-01
2.934000000000000000e+03 5.712051010131835938e+01 -1.847174072265625000e+01 -2.166585922241210938e+00 -4.479463696479797363e-01 -7.843596935272216797e-01 2.144576311111450195e+00
2.935000000000000000e+03 5.897774505615234375e+01 -2.143385124206542969e+01 6.769369244575500488e-01 1.630639195442199707e+00 6.922728419303894043e-01 2.283109903335571289e+00
2.936000000000000000e+03 9.338315963745117188e+00 -1.453438663482666016e+01 -2.740187028393847868e-06 -1.937104570970404893e-06 -1.403187411597173195e-06 -1.421097476850263774e-05
2.937000000000000000e+03 5.218260955810546875e+01 -2.972846412658691406e+01 2.168738603591918945e+00 5.198624610900878906e+00 2.210208892822265625e+00 -8.594455718994140625e-01
2.938000000000000000e+03 2.182462120056152344e+01 -3.487901306152343750e+01 -5.392660200595855713e-02 -2.255009859800338745e-02 -2.294300869107246399e-02 -7.678598165512084961e-02
2.939000000000000000e+03 2.197805404663085938e+01 -3.687374114990234375e+01 1.663387380540370941e-02 -5.182505398988723755e-02 -1.055735349655151367e-02 -8.519579470157623291e-02
2.940000000000000000e+03 6.623548126220703125e+01 -3.900592041015625000e+01 7.973700761795043945e-01 1.608836889266967773e+00 7.218620777130126953e-01 5.738685727119445801e-01
2.941000000000000000e+03 6.854063415527343750e+01 -3.842059707641601562e+01 4.648062586784362793e-01 2.509257555007934570e+00 8.922191858291625977e-01 6.549903750419616699e-01
2.942000000000000000e+03 1.012499046325683594e+01 4.193691730499267578e+00 -4.443266987800598145e-01 -7.823616266250610352e-01 -3.680064976215362549e-01 9.538796544075012207e-01
2.943000000000000000e+03 4.495288085937500000e+01 -2.130946731567382812e+01 2.610955953598022461e+00 9.242476463317871094e+00 3.556029558181762695e+00 -1.442701458930969238e+00
2.944000000000000000e+03 5.144519424438476562e+01 4.101942443847656250e+01 -7.260109782218933105e-01 1.142550826072692871e+00 1.249619647860527039e-01 8.916623890399932861e-02
2.945000000000000000e+03 6.877785491943359375e+01 3.943846511840820312e+01 9.106686711311340332e-02 3.017652750015258789e+00 9.326158761978149414e-01 -1.680755615234375000e-01
2.946000000000000000e+03 4.525167083740234375e+01 -2.962309646606445312e+01 1.809519171714782715e+00 8.360238075256347656e+00 3.050926923751831055e+00 -8.249662518501281738e-01
2.947000000000000000e+03 4.352582550048828125e+01 -3.081908988952636719e+01 8.541318178176879883e-01 8.749566078186035156e+00 2.881109237670898438e+00 9.558434784412384033e-02
2.948000000000000000e+03 4.442577743530273438e+01 -3.213260269165039062e+01 3.403706848621368408e-01 7.778988838195800781e+00 2.435807943344116211e+00 -2.561045885086059570e-01
2.949000000000000000e+03 3.829659700393676758e+00 4.164180374145507812e+01 -1.544498838484287262e-02 -1.460644841194152832e+00 -4.428269565105438232e-01 1.722084172070026398e-02
2.950000000000000000e+03 6.253140640258789062e+01 -4.121542358398437500e+01 1.142073512077331543e+00 1.034742593765258789e+00 6.530448198318481445e-01 -1.031342595815658569e-01
2.951000000000000000e+03 5.189620208740234375e+01 -3.179544067382812500e+01 1.551857113838195801e+00 5.465999126434326172e+00 2.105356931686401367e+00 -8.314496874809265137e-01
2.952000000000000000e+03 7.720730590820312500e+01 4.027317810058593750e+01 6.949952803552150726e-03 1.048580646514892578e+01 3.147827148437500000e+00 -8.184403926134109497e-02
2.953000000000000000e+03 7.581517028808593750e+01 3.942239761352539062e+01 -5.222018808126449585e-02 9.517413139343261719e+00 2.839557647705078125e+00 -9.209185093641281128e-02
2.954000000000000000e+03 5.487408828735351562e+01 -3.402195739746093750e+01 5.605322718620300293e-01 5.179204463958740234e+00 1.721920967102050781e+00 -8.985369205474853516e-01
2.955000000000000000e+03 2.418084526062011719e+01 -3.731980133056640625e+01 5.393008887767791748e-02 -5.371943488717079163e-02 6.319586100289598107e-05 -9.944551438093185425e-02
2.956000000000000000e+03 4.109671115875244141e+00 -3.653300094604492188e+01 3.285139609943144023e-05 -3.254540963098406792e-03 -9.665068937465548515e-04 -1.653885468840599060e-03
2.957000000000000000e+03 6.692518615722656250e+01 -4.128079223632812500e+01 8.203017115592956543e-01 1.999428033828735352e+00 8.459188938140869141e-01 2.282732874155044556e-01
2.958000000000000000e+03 4.609749603271484375e+01 3.299475097656250000e+01 -5.390459299087524414e-01 3.126703500747680664e+00 7.762973308563232422e-01 5.998656749725341797e-01
2.959000000000000000e+03 4.622052001953125000e+01 3.116672706604003906e+01 -1.851596683263778687e-01 3.199342250823974609e+00 9.042547941207885742e-01 7.931091785430908203e-01
2.960000000000000000e+03 2.053067016601562500e+01 -3.547546386718750000e+01 -2.847066707909107208e-02 -2.970199845731258392e-02 -1.745179854333400726e-02 -7.144247740507125854e-02
2.961000000000000000e+03 2.080561256408691406e+01 -3.381575393676757812e+01 -7.071810960769653320e-02 -1.026360783725976944e-02 -2.429451607167720795e-02 -5.798157304525375366e-02
2.962000000000000000e+03 4.925317764282226562e+00 3.686838912963867188e+01 -2.560426667332649231e-02 -1.257155299186706543e+00 -3.848278820514678955e-01 -5.991860851645469666e-02
2.963000000000000000e+03 4.515488147735595703e+00 4.002206420898437500e+01 -1.164105627685785294e-02 -1.246212840080261230e+00 -3.773561418056488037e-01 -1.367072341963648796e-03
2.964000000000000000e+03 3.606344985961914062e+01 -3.821035003662109375e+01 2.141776084899902344e-01 1.351731300354003906e+00 4.697726666927337646e-01 3.377005755901336670e-01
2.965000000000000000e+03 4.953171157836914062e+01 3.859131240844726562e+01 -8.578291535377502441e-01 1.784994006156921387e+00 2.781494557857513428e-01 3.006068766117095947e-01
2.966000000000000000e+03 7.634017944335937500e+01 -3.967059326171875000e+01 -8.948656171560287476e-02 6.377223968505859375e+00 1.886321306228637695e+00 -1.170199923217296600e-02
2.967000000000000000e+03 7.484249114990234375e+01 3.823316574096679688e+01 -1.714367121458053589e-01 8.601920127868652344e+00 2.529145002365112305e+00 9.833978116512298584e-02
2.968000000000000000e+03 1.035319995880126953e+01 -6.251126766204833984e+00 1.207622790388995782e-05 -3.333552967887953855e-06 2.622802412588498555e-06 5.055285782873397693e-06
2.969000000000000000e+03 1.714169692993164062e+01 -8.790616989135742188e+00 -1.047833575285039842e-05 5.348139438865473494e-06 -1.539058985144947655e-06 -2.716129529289901257e-06
2.970000000000000000e+03 2.905786705017089844e+01 -1.139408206939697266e+01 -8.788527250289916992e-01 5.073089599609375000e-01 -1.114631295204162598e-01 5.831597447395324707e-01
2.971000000000000000e+03 7.808764934539794922e+00 -4.615791320800781250e+00 -6.204152668942697346e-06 -1.143324993790884037e-06 -2.204243401138228364e-06 -4.229055321047781035e-06
2.972000000000000000e+03 9.467047691345214844e+00 -5.437616348266601562e+00 -6.683492756565101445e-06 -6.424917273761820979e-07 -2.197795311076333746e-06 -2.331005134692532010e-06
2.973000000000000000e+03 1.243311595916748047e+01 -6.728422164916992188e+00 -5.107618108013411984e-06 1.550841625430621207e-05 3.120239398413104936e-06 -5.519154910871293396e-07
2.974000000000000000e+03 1.181087112426757812e+01 -5.605157375335693359e+00 6.557957931363489479e-06 -6.039233539922861382e-06 1.556172435357439099e-07 1.724341700537479483e-06
2.975000000000000000e+03 1.129051589965820312e+01 -5.356041908264160156e+00 -5.157551640877500176e-06 4.722982794191921130e-06 -1.303705943200839101e-07 -2.960581014121999033e-06
2.976000000000000000e+03 1.001385211944580078e+01 -5.554909229278564453e+00 8.437919859716203064e-06 -2.490734232196700759e-06 1.784155642781115603e-06 4.184819772490300238e-06
2.977000000000000000e+03 7.251778411865234375e+01 1.019548034667968750e+01 -4.087643623352050781e-01 9.862885475158691406e+00 2.836236238479614258e+00 7.672092318534851074e-01
2.978000000000000000e+03 4.081110000610351562e+01 -1.672588348388671875e+01 -5.577828288078308105e-01 7.367142677307128906e+00 2.042807817459106445e+00 -2.593439579010009766e+00
2.979000000000000000e+03 3.823229980468750000e+01 -1.579958915710449219e+01 -3.368803858757019043e-01 3.854283809661865234e+00 1.055220961570739746e+00 -2.478349447250366211e+00
2.980000000000000000e+03 6.787161827087402344e+00 -2.773142433166503906e+01 1.967733260244131088e-04 -9.622354991734027863e-04 -2.296386519446969032e-04 -6.644437962677329779e-05
2.981000000000000000e+03 5.934585189819335938e+01 -1.813752174377441406e+01 -2.211293458938598633e+00 1.301713943481445312e+00 -2.728738486766815186e-01 2.418381690979003906e+00
2.982000000000000000e+03 2.162904930114746094e+01 7.724016159772872925e-02 -6.948125362396240234e-01 -5.695493221282958984e-01 -3.793085813522338867e-01 6.275251507759094238e-01
2.983000000000000000e+03 2.973559379577636719e+01 -1.251069641113281250e+01 -7.877847552299499512e-01 4.952144622802734375e-01 -8.777108043432235718e-02 4.937748312950134277e-01
2.984000000000000000e+03 5.209741592407226562e+01 -1.827346229553222656e+01 -1.817676901817321777e+00 2.023953676223754883e+00 6.188299506902694702e-02 -3.401174545288085938e-01
2.985000000000000000e+03 7.295529937744140625e+01 1.249857044219970703e+01 -3.384049534797668457e-01 9.295625686645507812e+00 2.687166213989257812e+00 5.709146261215209961e-01
2.986000000000000000e+03 3.202411270141601562e+01 -1.423244380950927734e+01 -6.696015000343322754e-01 6.722034811973571777e-01 7.806083885952830315e-04 4.356490448117256165e-02
2.987000000000000000e+03 1.395394134521484375e+01 -1.200393486022949219e+01 -1.939147841767407954e-05 -4.164105121162720025e-05 -1.830975998018402606e-05 -1.514001269242726266e-05
2.988000000000000000e+03 1.154031372070312500e+01 -6.178469657897949219e+00 -5.447339844977250323e-06 1.635506578168133274e-06 -1.143549980042735115e-06 -6.236286935745738447e-07
2.989000000000000000e+03 7.590496826171875000e+01 -3.111064338684082031e+01 1.868694573640823364e-01 6.835473060607910156e+00 2.106702804565429688e+00 -3.794695436954498291e-01
2.990000000000000000e+03 7.657743835449218750e+01 -3.034388923645019531e+01 3.037404716014862061e-01 6.716913223266601562e+00 2.106196165084838867e+00 -3.198682069778442383e-01
2.991000000000000000e+03 4.450402450561523438e+01 -2.023574066162109375e+01 1.695501208305358887e+00 9.502563476562500000e+00 3.359419345855712891e+00 -1.159044861793518066e+00
2.992000000000000000e+03 5.668450164794921875e+01 -2.262142753601074219e+01 1.856877446174621582e+00 1.444291114807128906e+00 9.903505444526672363e-01 1.423435449600219727e+00
2.993000000000000000e+03 5.609808731079101562e+01 -1.804082679748535156e+01 -3.044653892517089844e+00 -1.300806283950805664e+00 -1.303638100624084473e+00 1.627754211425781250e+00
2.994000000000000000e+03 5.641207218170166016e+00 -2.487200927734375000e+01 8.998552220873534679e-04 1.248081680387258530e-04 3.073990228585898876e-04 1.429745316272601485e-04
2.995000000000000000e+03 3.356950283050537109e+00 -2.759505081176757812e+01 3.985117946285754442e-04 7.169455057010054588e-05 1.410619006492197514e-04 3.521474136505275965e-04
2.996000000000000000e+03 2.965626335144042969e+01 -1.350242519378662109e+01 -7.496395111083984375e-01 2.942684590816497803e-01 -1.366113275289535522e-01 5.269848108291625977e-01
2.997000000000000000e+03 3.059530448913574219e+01 -1.429899406433105469e+01 -7.391919493675231934e-01 3.573297560214996338e-01 -1.145586669445037842e-01 3.719303011894226074e-01
2.998000000000000000e+03 3.400742721557617188e+01 -1.541760540008544922e+01 -5.198002457618713379e-01 7.830312848091125488e-01 7.896930724382400513e-02 -4.529095888137817383e-01
2.999000000000000000e+03 3.316406631469726562e+01 -1.468656730651855469e+01 -5.754801034927368164e-01 8.176854252815246582e-01 7.266160100698471069e-02 -2.578269839286804199e-01
3.000000000000000000e+03 7.663647460937500000e+01 -2.955752944946289062e+01 4.121931195259094238e-01 6.722395896911621094e+00 2.140376806259155273e+00 -2.125166058540344238e-01
3.001000000000000000e+03 7.362710571289062500e+01 -2.914004325866699219e+01 1.125987052917480469e+00 8.123789787292480469e+00 2.774933099746704102e+00 2.670458257198333740e-01
3.002000000000000000e+03 1.572122097015380859e+01 -9.137378692626953125e+00 -9.681009942141827196e-06 -1.002996395982336253e-05 -5.913292170589556918e-06 -4.527831606537802145e-06
3.003000000000000000e+03 1.530935478210449219e+01 -8.124958992004394531e+00 -9.795433470571879297e-06 5.537423476198455319e-06 -1.277402930099924561e-06 -8.114353136079444084e-07
3.004000000000000000e+03 7.686872863769531250e+01 1.017375469207763672e+01 -6.403475999832153320e-02 7.590698719024658203e+00 2.257999181747436523e+00 8.350270390510559082e-01
3.005000000000000000e+03 4.534313201904296875e+01 -1.847397208213806152e+00 1.093537434935569763e-01 5.800310611724853516e+00 1.772899389266967773e+00 -1.863672018051147461e+00
3.006000000000000000e+03 4.613140487670898438e+01 -5.526319980621337891e+00 -3.767453432083129883e-01 5.415369033813476562e+00 1.511587142944335938e+00 -1.179723143577575684e+00
3.007000000000000000e+03 4.661105728149414062e+01 -8.460918426513671875e+00 -9.506228566169738770e-01 5.337309360504150391e+00 1.316005945205688477e+00 -5.172767043113708496e-01
3.008000000000000000e+03 2.873943901062011719e+01 -1.076798439025878906e+01 -9.402111768722534180e-01 5.131762623786926270e-01 -1.281104683876037598e-01 6.083076596260070801e-01
3.009000000000000000e+03 4.586262130737304688e+01 -4.804514884948730469e+00 -3.166909515857696533e-01 5.485546112060546875e+00 1.550656557083129883e+00 -1.322205662727355957e+00
3.010000000000000000e+03 6.610858154296875000e+01 -1.775978469848632812e+01 -5.473852157592773438e-01 1.963852286338806152e+00 4.249401092529296875e-01 1.458657503128051758e+00
3.011000000000000000e+03 6.579064941406250000e+01 -1.973880195617675781e+01 -1.440612435340881348e+00 1.229114294052124023e+00 -6.344944238662719727e-02 1.734040856361389160e+00
3.012000000000000000e+03 4.255322265625000000e+01 3.488259077072143555e+00 7.088901996612548828e-01 7.456682682037353516e+00 2.449671983718872070e+00 -2.221436023712158203e+00
3.013000000000000000e+03 4.271727752685546875e+01 1.823498368263244629e+00 3.624185025691986084e-01 6.833557128906250000e+00 2.158792734146118164e+00 -2.029557466506958008e+00
3.014000000000000000e+03 4.468067932128906250e+01 -2.095437288284301758e+00 -6.914882361888885498e-02 5.865410804748535156e+00 1.738878607749938965e+00 -1.740510106086730957e+00
3.015000000000000000e+03 3.072649383544921875e+01 -1.164203262329101562e+01 -8.054009079933166504e-01 9.579567909240722656e-01 4.576676338911056519e-02 2.561464309692382812e-01
3.016000000000000000e+03 4.817180633544921875e+01 -1.202851867675781250e+01 -1.773512125015258789e+00 5.002099037170410156e+00 9.685760736465454102e-01 4.281651973724365234e-01
3.017000000000000000e+03 4.852893447875976562e+01 -1.043330287933349609e+01 -1.031690835952758789e+00 4.606762886047363281e+00 1.072521686553955078e+00 5.804232135415077209e-02
3.018000000000000000e+03 4.499781036376953125e+01 -2.745169878005981445e+00 -1.069787219166755676e-01 5.750814437866210938e+00 1.693150758743286133e+00 -1.665308713912963867e+00
3.019000000000000000e+03 2.730601310729980469e+01 -8.020936965942382812e+00 -1.161903500556945801e+00 4.316372573375701904e-01 -2.190798819065093994e-01 6.720460057258605957e-01
3.020000000000000000e+03 2.752760696411132812e+01 -9.860780715942382812e+00 -1.063861489295959473e+00 2.445970028638839722e-01 -2.457793503999710083e-01 7.565039992332458496e-01
3.021000000000000000e+03 7.548090362548828125e+01 -3.703171920776367188e+01 -1.948871761560440063e-01 6.155878067016601562e+00 1.788297176361083984e+00 -1.379353255033493042e-01
3.022000000000000000e+03 6.135514068603515625e+01 -1.870836257934570312e+01 -1.421075463294982910e+00 2.259669780731201172e+00 2.515783011913299561e-01 2.640970706939697266e+00
3.023000000000000000e+03 4.694960784912109375e+01 -7.638221740722656250e+00 -6.581861376762390137e-01 5.218840122222900391e+00 1.368196249008178711e+00 -6.986523866653442383e-01
3.024000000000000000e+03 4.640034484863281250e+01 -6.246214866638183594e+00 -4.731183052062988281e-01 5.345801830291748047e+00 1.461804986000061035e+00 -1.018574595451354980e+00
3.025000000000000000e+03 2.990419006347656250e+01 -1.153765106201171875e+01 -8.386856913566589355e-01 7.332106828689575195e-01 -3.164249286055564880e-02 4.278081357479095459e-01
3.026000000000000000e+03 4.648577690124511719e+00 4.682194709777832031e+00 -2.041834443807601929e-01 -3.536362051963806152e-01 -1.673458963632583618e-01 4.699342548847198486e-01
3.027000000000000000e+03 7.805734634399414062e+00 5.781033992767333984e+00 -1.979493200778961182e-01 -6.460147500038146973e-01 -2.531892359256744385e-01 8.089438080787658691e-01
3.028000000000000000e+03 4.212668609619140625e+01 1.545333385467529297e+00 2.355044484138488770e-01 6.742974758148193359e+00 2.093543767929077148e+00 -1.811521172523498535e+00
3.029000000000000000e+03 3.010585594177246094e+01 -1.393155574798583984e+01 -7.455398440361022949e-01 3.091519773006439209e-01 -1.309163570404052734e-01 4.500198066234588623e-01
3.030000000000000000e+03 4.926921367645263672e+00 3.230135345458984375e+01 9.665683843195438385e-03 -1.295164465904235840e+00 -3.856496512889862061e-01 -6.900288909673690796e-02
3.031000000000000000e+03 3.506876754760742188e+01 -1.561472034454345703e+01 -3.370771110057830811e-01 1.085291504859924316e+00 2.244643121957778931e-01 -9.227300286293029785e-01
3.032000000000000000e+03 7.603648376464843750e+01 3.071118736267089844e+01 -2.468628585338592529e-01 9.390668869018554688e+00 2.743141889572143555e+00 6.827672719955444336e-01
3.033000000000000000e+03 5.905306816101074219e+00 5.395163059234619141e+00 -2.073776721954345703e-01 -4.848794341087341309e-01 -2.076771259307861328e-01 6.373077034950256348e-01
3.034000000000000000e+03 3.851011037826538086e+00 8.782403945922851562e+00 1.923913834616541862e-03 -7.415437698364257812e-01 -2.218859493732452393e-01 4.837096631526947021e-01
3.035000000000000000e+03 7.682335662841796875e+01 3.405381393432617188e+01 -1.813953518867492676e-01 1.023982429504394531e+01 3.017528533935546875e+00 3.203519880771636963e-01
3.036000000000000000e+03 5.249269962310791016e+00 5.355819225311279297e+00 -1.906011253595352173e-01 -4.517709612846374512e-01 -1.927116215229034424e-01 5.709947943687438965e-01
3.037000000000000000e+03 6.744473934173583984e+00 4.798035144805908203e+00 -2.936376333236694336e-01 -4.784867763519287109e-01 -2.316373288631439209e-01 7.023741006851196289e-01
3.038000000000000000e+03 7.186326503753662109e+00 5.612284183502197266e+00 -2.110565155744552612e-01 -5.887131690979003906e-01 -2.399308979511260986e-01 7.628259658813476562e-01
3.039000000000000000e+03 4.590351104736328125e+00 5.392655849456787109e+00 -1.522351503372192383e-01 -4.284032583236694336e-01 -1.741915196180343628e-01 4.945179224014282227e-01
3.040000000000000000e+03 3.921575546264648438e+00 5.477437973022460938e+00 -1.270767301321029663e-01 -4.100372195243835449e-01 -1.611341834068298340e-01 4.340726137161254883e-01
3.041000000000000000e+03 4.802235031127929688e+01 -1.124471378326416016e+01 -1.469781160354614258e+00 4.961883068084716797e+00 1.047630548477172852e+00 2.365313321352005005e-01
3.042000000000000000e+03 7.271479034423828125e+01 3.811448335647583008e+00 6.350333094596862793e-01 1.092280292510986328e+01 3.467350959777832031e+00 8.306176662445068359e-01
3.043000000000000000e+03 4.364412784576416016e+00 2.885885238647460938e+01 2.873748168349266052e-02 -1.412577271461486816e+00 -4.151519536972045898e-01 -3.002838604152202606e-02
3.044000000000000000e+03 7.610867309570312500e+01 2.918942070007324219e+01 -1.611068397760391235e-01 9.368258476257324219e+00 2.762145519256591797e+00 8.008733391761779785e-01
3.045000000000000000e+03 7.607103729248046875e+01 2.293310737609863281e+01 8.506875485181808472e-02 8.850510597229003906e+00 2.680673837661743164e+00 8.277822136878967285e-01
3.046000000000000000e+03 4.564163970947265625e+01 -2.577224540710449219e+01 2.264190435409545898e+00 9.196999549865722656e+00 3.438357114791870117e+00 -1.629158377647399902e+00
3.047000000000000000e+03 4.580596160888671875e+01 -2.649620056152343750e+01 2.220698356628417969e+00 8.841656684875488281e+00 3.318706512451171875e+00 -1.428356289863586426e+00
3.048000000000000000e+03 7.323807525634765625e+01 1.962160873413085938e+01 7.848615944385528564e-02 8.608125686645507812e+00 2.605983734130859375e+00 7.232319712638854980e-01
3.049000000000000000e+03 7.253780364990234375e+01 1.961597251892089844e+01 6.566462665796279907e-02 8.618519783020019531e+00 2.605255365371704102e+00 6.542581319808959961e-01
3.050000000000000000e+03 7.324723052978515625e+01 1.800444412231445312e+01 6.859190762042999268e-02 8.723114013671875000e+00 2.637511730194091797e+00 7.358453273773193359e-01
3.051000000000000000e+03 4.082016944885253906e+00 -3.088065147399902344e+01 -8.356253383681178093e-04 -7.013528957031667233e-04 -4.610934702213853598e-04 8.220795280067250133e-05
3.052000000000000000e+03 7.392157745361328125e+01 1.560587596893310547e+01 2.001419477164745331e-02 8.737309455871582031e+00 2.627197027206420898e+00 7.088853120803833008e-01
3.053000000000000000e+03 7.324415588378906250e+01 1.881337356567382812e+01 7.065330445766448975e-02 8.664646148681640625e+00 2.620589733123779297e+00 7.310048341751098633e-01
3.054000000000000000e+03 7.605419158935546875e+01 1.483029174804687500e+01 -4.182962328195571899e-02 8.307791709899902344e+00 2.479788541793823242e+00 7.027099728584289551e-01
3.055000000000000000e+03 7.322192382812500000e+01 2.124112129211425781e+01 1.161677539348602295e-01 8.452439308166503906e+00 2.570582151412963867e+00 7.070267200469970703e-01
3.056000000000000000e+03 7.664066314697265625e+01 -2.882475090026855469e+01 5.373222827911376953e-01 6.754213809967041016e+00 2.187460899353027344e+00 -3.391584753990173340e-02
3.057000000000000000e+03 7.614379882812500000e+01 4.636922359466552734e+00 3.207456469535827637e-01 7.444856166839599609e+00 2.329680681228637695e+00 6.992778778076171875e-01
3.058000000000000000e+03 7.501815032958984375e+01 3.559841156005859375e+01 -2.820167839527130127e-01 8.644789695739746094e+00 2.508831977844238281e+00 2.015022039413452148e-01
3.059000000000000000e+03 4.182113647460937500e+00 2.472665786743164062e+01 4.795023053884506226e-02 -1.442877054214477539e+00 -4.184780716896057129e-01 3.079016506671905518e-02
3.060000000000000000e+03 7.369931793212890625e+01 -3.305373764038085938e+01 -2.145515829324722290e-01 6.779840469360351562e+00 1.969586730003356934e+00 7.368190586566925049e-02
3.061000000000000000e+03 7.338749694824218750e+01 4.632834911346435547e+00 5.481137633323669434e-01 1.010801887512207031e+01 3.196839809417724609e+00 8.169426321983337402e-01
3.062000000000000000e+03 7.674323272705078125e+01 -2.718722152709960938e+01 6.027179956436157227e-01 6.817645072937011719e+00 2.226109027862548828e+00 3.960393369197845459e-01
3.063000000000000000e+03 7.458921813964843750e+01 -2.596736335754394531e+01 1.015729904174804688e+00 7.877375125885009766e+00 2.667931556701660156e+00 8.480949401855468750e-01
3.064000000000000000e+03 3.381601095199584961e+00 -5.689630508422851562e+00 4.575783236759889405e-07 -1.832395810197340325e-06 -4.124452459564054152e-07 -4.249583980708848685e-06
3.065000000000000000e+03 7.323076629638671875e+01 2.042990684509277344e+01 9.368728101253509521e-02 8.531847953796386719e+00 2.587660551071166992e+00 7.139083743095397949e-01
3.066000000000000000e+03 7.339559936523437500e+01 -2.393008804321289062e+01 1.978774964809417725e-01 8.211631774902343750e+00 2.522852897644042969e+00 8.862402439117431641e-01
3.067000000000000000e+03 7.317699432373046875e+01 2.374993515014648438e+01 1.870318353176116943e-01 8.116355895996093750e+00 2.491016387939453125e+00 7.389962673187255859e-01
3.068000000000000000e+03 4.867912292480468750e+00 2.969623184204101562e+01 2.810335904359817505e-02 -1.310155987739562988e+00 -3.846157789230346680e-01 -4.440746456384658813e-02
3.069000000000000000e+03 7.605743408203125000e+01 1.970987701416015625e+01 6.107052043080329895e-02 8.637241363525390625e+00 2.609493494033813477e+00 7.471399903297424316e-01
3.070000000000000000e+03 7.683917236328125000e+01 2.611483001708984375e+01 3.682517213746905327e-03 9.435686111450195312e+00 2.831810712814331055e+00 8.210739493370056152e-01
3.071000000000000000e+03 7.229620361328125000e+01 2.547905349731445312e+01 1.665530949831008911e-01 7.539868354797363281e+00 2.311926364898681641e+00 6.603701114654541016e-01
3.072000000000000000e+03 7.637007141113281250e+01 -2.520279884338378906e+01 4.030658900737762451e-01 7.142873764038085938e+00 2.263782024383544922e+00 9.011763930320739746e-01
3.073000000000000000e+03 7.678002166748046875e+01 2.214522933959960938e+01 6.269467622041702271e-02 8.930388450622558594e+00 2.697925090789794922e+00 7.424125671386718750e-01
3.074000000000000000e+03 7.615785217285156250e+01 -8.466594696044921875e+00 3.718390315771102905e-02 6.650345802307128906e+00 2.006258964538574219e+00 -6.659744381904602051e-01
3.075000000000000000e+03 7.694475555419921875e+01 -2.154459762573242188e+01 -3.478747010231018066e-01 7.483872413635253906e+00 2.140799283981323242e+00 7.526924610137939453e-01
3.076000000000000000e+03 7.553171539306640625e+01 -2.212978935241699219e+01 -5.477576255798339844e-01 7.575527667999267578e+00 2.108330965042114258e+00 9.271847009658813477e-01
3.077000000000000000e+03 7.613269042968750000e+01 -1.725611495971679688e+01 -4.910569787025451660e-01 7.147721290588378906e+00 1.996999263763427734e+00 -3.271704912185668945e-01
3.078000000000000000e+03 7.619435882568359375e+01 -1.806385421752929688e+01 -5.680001378059387207e-01 7.251300334930419922e+00 2.004990100860595703e+00 -1.601220965385437012e-01
3.079000000000000000e+03 7.399120330810546875e+01 -2.673882722854614258e+00 4.365113675594329834e-01 8.337228775024414062e+00 2.632122039794921875e+00 -8.241332322359085083e-02
3.080000000000000000e+03 7.617766571044921875e+01 -1.081128883361816406e+01 4.644813016057014465e-03 6.667703151702880859e+00 2.001704454421997070e+00 -7.166074514389038086e-01
3.081000000000000000e+03 7.590561676025390625e+01 -2.174706077575683594e+01 -5.324696302413940430e-01 7.504905700683593750e+00 2.091730833053588867e+00 8.356532454490661621e-01
3.082000000000000000e+03 7.608435058593750000e+01 1.402461624145507812e+01 -7.096879929304122925e-02 8.258181571960449219e+00 2.456163883209228516e+00 7.149204015731811523e-01
3.083000000000000000e+03 7.683808898925781250e+01 -7.604414939880371094e+00 3.051447309553623199e-02 6.487203121185302734e+00 1.955315351486206055e+00 -6.310160756111145020e-01
3.084000000000000000e+03 7.614617156982421875e+01 -7.692568778991699219e+00 5.035188794136047363e-02 6.660873413085937500e+00 2.013367652893066406e+00 -6.492457985877990723e-01
3.085000000000000000e+03 7.678840637207031250e+01 1.568892097473144531e+01 -8.792117238044738770e-03 8.225112915039062500e+00 2.464896202087402344e+00 6.376656889915466309e-01
3.086000000000000000e+03 7.323402404785156250e+01 1.638706779479980469e+01 6.746616959571838379e-02 8.808711051940917969e+00 2.662853002548217773e+00 7.104620933532714844e-01
3.087000000000000000e+03 7.296982574462890625e+01 1.320599460601806641e+01 -2.185400575399398804e-01 9.150126457214355469e+00 2.679475784301757812e+00 5.490388870239257812e-01
3.088000000000000000e+03 7.625071716308593750e+01 -8.973178863525390625e-01 3.282952904701232910e-01 6.859727859497070312e+00 2.156406879425048828e+00 -1.745060831308364868e-01
3.089000000000000000e+03 7.678667449951171875e+01 1.649698829650878906e+01 1.145012676715850830e-02 8.310402870178222656e+00 2.496555805206298828e+00 6.402957439422607422e-01
3.090000000000000000e+03 7.464537048339843750e+01 1.884961318969726562e+01 7.176377624273300171e-02 8.604728698730468750e+00 2.602947711944580078e+00 7.813738584518432617e-01
3.091000000000000000e+03 7.301877593994140625e+01 1.179379749298095703e+01 -4.106795787811279297e-01 9.393958091735839844e+00 2.694983720779418945e+00 6.461295485496520996e-01
3.092000000000000000e+03 7.444873046875000000e+01 -1.800572395324707031e+01 -9.024552702903747559e-01 6.716794490814208984e+00 1.744301795959472656e+00 -4.582634866237640381e-01
3.093000000000000000e+03 7.700395202636718750e+01 -1.952682304382324219e+01 -4.361794292926788330e-01 7.533854961395263672e+00 2.129302740097045898e+00 2.880004048347473145e-01
3.094000000000000000e+03 7.604405975341796875e+01 -3.332598924636840820e+00 2.076358795166015625e-01 6.883887767791748047e+00 2.127457141876220703e+00 -4.256827533245086670e-01
3.095000000000000000e+03 7.704237365722656250e+01 -2.083732604980468750e+01 -4.092377424240112305e-01 7.520911216735839844e+00 2.133502006530761719e+00 6.075814962387084961e-01
3.096000000000000000e+03 7.620590972900390625e+01 1.091863536834716797e+01 -1.198581457138061523e-01 8.026444435119628906e+00 2.371975898742675781e+00 8.732129931449890137e-01
3.097000000000000000e+03 7.691755676269531250e+01 6.142229437828063965e-01 2.999766170978546143e-01 6.383454799652099609e+00 2.005029439926147461e+00 2.599258720874786377e-02
3.098000000000000000e+03 7.627223968505859375e+01 -1.362843513488769531e-01 3.839175999164581299e-01 6.905461311340332031e+00 2.186813592910766602e+00 -6.291890144348144531e-02
3.099000000000000000e+03 7.683035278320312500e+01 6.230293750762939453e+00 1.564091444015502930e-01 7.045527458190917969e+00 2.160581111907958984e+00 7.745646238327026367e-01
3.100000000000000000e+03 7.335646057128906250e+01 6.249864578247070312e+00 4.063853621482849121e-01 9.971785545349121094e+00 3.113451242446899414e+00 8.556081652641296387e-01
3.101000000000000000e+03 7.685851287841796875e+01 3.009246110916137695e+00 2.933625578880310059e-01 6.626283168792724609e+00 2.075893878936767578e+00 3.984372913837432861e-01
3.102000000000000000e+03 7.689507293701171875e+01 1.403226733207702637e+00 2.976996004581451416e-01 6.461655616760253906e+00 2.027806520462036133e+00 1.489614695310592651e-01
3.103000000000000000e+03 7.684738159179687500e+01 3.815576076507568359e+00 2.665831744670867920e-01 6.728587627410888672e+00 2.098551273345947266e+00 5.152449011802673340e-01
3.104000000000000000e+03 7.545259094238281250e+01 4.640785217285156250e+00 4.004626274108886719e-01 8.059090614318847656e+00 2.537865877151489258e+00 7.595801949501037598e-01
3.105000000000000000e+03 7.391582489013671875e+01 2.207614135742187500e+01 1.360905170440673828e-01 8.441905975341796875e+00 2.573398828506469727e+00 7.807288169860839844e-01
3.106000000000000000e+03 7.416905212402343750e+01 -2.740695762634277344e+01 1.297959089279174805e+00 8.168842315673828125e+00 2.840040445327758789e+00 5.410458445549011230e-01
3.107000000000000000e+03 7.506202697753906250e+01 -2.636679458618164062e+01 9.782042503356933594e-01 7.581940650939941406e+00 2.568043470382690430e+00 7.307256460189819336e-01
3.108000000000000000e+03 7.678374481201171875e+01 -2.636469650268554688e+01 5.017403364181518555e-01 6.871742248535156250e+00 2.212044715881347656e+00 6.186877489089965820e-01
3.109000000000000000e+03 7.682006835937500000e+01 2.847452735900878906e+01 -8.507108688354492188e-02 9.735635757446289062e+00 2.895169496536254883e+00 7.710092663764953613e-01
3.110000000000000000e+03 7.613422393798828125e+01 7.832392692565917969e+00 7.873617857694625854e-02 7.769870281219482422e+00 2.354582071304321289e+00 9.506882429122924805e-01
3.111000000000000000e+03 7.328079223632812500e+01 1.025055217742919922e+01 -3.348489403724670410e-01 9.522459030151367188e+00 2.756283044815063477e+00 8.826153278350830078e-01
3.112000000000000000e+03 7.614228820800781250e+01 8.623576164245605469e+00 7.579936645925045013e-03 7.844840049743652344e+00 2.355726003646850586e+00 9.576906561851501465e-01
3.113000000000000000e+03 7.543449401855468750e+01 7.838616847991943359e+00 9.519422054290771484e-02 8.267948150634765625e+00 2.508942604064941406e+00 1.003752350807189941e+00
3.114000000000000000e+03 7.491390991210937500e+01 1.154720592498779297e+01 -2.328015267848968506e-01 8.669781684875488281e+00 2.531094074249267578e+00 8.598012328147888184e-01
3.115000000000000000e+03 7.620666503906250000e+01 1.168273258209228516e+01 -1.334002763032913208e-01 8.086253166198730469e+00 2.385855674743652344e+00 8.223376870155334473e-01
3.116000000000000000e+03 7.614124298095703125e+01 -1.317026233673095703e+01 -9.639753401279449463e-02 6.761196613311767578e+00 1.999439716339111328e+00 -7.074126601219177246e-01
3.117000000000000000e+03 7.517839813232421875e+01 -5.474767208099365234e+00 1.495185494422912598e-01 7.137550830841064453e+00 2.186120748519897461e+00 -4.953297376632690430e-01
3.118000000000000000e+03 7.684320068359375000e+01 -1.155375766754150391e+01 -1.639591343700885773e-02 6.746748447418212891e+00 2.019105672836303711e+00 -6.827353835105895996e-01
3.119000000000000000e+03 7.615486145019531250e+01 -1.237831020355224609e+01 -4.760982841253280640e-02 6.719021320343017578e+00 2.001423597335815430e+00 -7.237611413002014160e-01
3.120000000000000000e+03 7.608925628662109375e+01 2.994442176818847656e+01 -1.937683969736099243e-01 9.406497955322265625e+00 2.763818740844726562e+00 7.405243515968322754e-01
3.121000000000000000e+03 7.622010040283203125e+01 -1.679787993431091309e+00 2.995083034038543701e-01 6.861253738403320312e+00 2.148228645324707031e+00 -2.808143198490142822e-01
3.122000000000000000e+03 7.615183258056640625e+01 -2.488124847412109375e+00 2.331033349037170410e-01 6.862084388732910156e+00 2.128556251525878906e+00 -3.599891066551208496e-01
3.123000000000000000e+03 7.677775573730468750e+01 1.892404365539550781e+01 4.028454422950744629e-02 8.574818611145019531e+00 2.584530830383300781e+00 6.683392524719238281e-01
3.124000000000000000e+03 7.605342102050781250e+01 2.051894187927246094e+01 7.205777615308761597e-02 8.689415931701660156e+00 2.628442049026489258e+00 7.624617815017700195e-01
3.125000000000000000e+03 7.681830596923828125e+01 -1.556888580322265625e+01 -2.342347353696823120e-01 7.147690296173095703e+00 2.074036836624145508e+00 -5.009704232215881348e-01
3.126000000000000000e+03 7.613166046142578125e+01 -1.397109699249267578e+01 -1.445340216159820557e-01 6.811342716217041016e+00 2.000042438507080078e+00 -6.868665218353271484e-01
3.127000000000000000e+03 7.547493743896484375e+01 -8.569057464599609375e+00 5.922617763280868530e-02 6.756277084350585938e+00 2.044651031494140625e+00 -6.483250856399536133e-01
3.128000000000000000e+03 7.612478637695312500e+01 -1.478022193908691406e+01 -2.195387184619903564e-01 6.876204967498779297e+00 1.996999859809875488e+00 -6.356534361839294434e-01
3.129000000000000000e+03 7.616629028320312500e+01 -9.246068000793457031e+00 3.195717185735702515e-02 6.649393558502197266e+00 2.004405260086059570e+00 -6.885706782341003418e-01
3.130000000000000000e+03 7.617484283447265625e+01 -1.002916145324707031e+01 1.629675365984439850e-02 6.653039455413818359e+00 2.000800848007202148e+00 -6.992021203041076660e-01
3.131000000000000000e+03 7.462560272216796875e+01 2.209388542175292969e+01 1.247695907950401306e-01 8.544630050659179688e+00 2.600819826126098633e+00 8.202216625213623047e-01
3.132000000000000000e+03 7.611939239501953125e+01 -1.642494583129882812e+01 -4.128482341766357422e-01 7.041594028472900391e+00 1.988623738288879395e+00 -4.743760228157043457e-01
3.133000000000000000e+03 7.401352691650390625e+01 -3.513069534301757812e+01 -3.037608265876770020e-01 6.224001407623291016e+00 1.776072144508361816e+00 9.114108234643936157e-02
3.134000000000000000e+03 7.617782592773437500e+01 -3.298731231689453125e+01 -8.202343434095382690e-02 6.687048912048339844e+00 1.981507539749145508e+00 -4.159382879734039307e-01
3.135000000000000000e+03 4.667331695556640625e+01 -6.951106548309326172e+00 -5.395371913909912109e-01 5.281623840332031250e+00 1.422626018524169922e+00 -8.667373061180114746e-01
3.136000000000000000e+03 7.482176208496093750e+01 -3.498822402954101562e+01 -2.802155017852783203e-01 6.379591941833496094e+00 1.829812884330749512e+00 -1.066339835524559021e-01
3.137000000000000000e+03 3.437620878219604492e+00 2.648050880432128906e+01 2.145091257989406586e-02 -1.572261214256286621e+00 -4.652430713176727295e-01 5.904131685383617878e-04
3.138000000000000000e+03 7.611545562744140625e+01 2.843011093139648438e+01 -1.107443645596504211e-01 9.309887886047363281e+00 2.759743213653564453e+00 8.439293503761291504e-01
3.139000000000000000e+03 7.612534332275390625e+01 2.765659141540527344e+01 -7.467322796583175659e-02 9.248729705810546875e+00 2.752217054367065430e+00 8.744782805442810059e-01
3.140000000000000000e+03 3.974420785903930664e+00 1.582460403442382812e+01 8.245810121297836304e-02 -1.245386123657226562e+00 -3.488784134387969971e-01 3.029337525367736816e-01
3.141000000000000000e+03 3.222560644149780273e+00 5.556502342224121094e+00 -8.834692835807800293e-02 -3.982802033424377441e-01 -1.459881365299224854e-01 3.631681501865386963e-01
3.142000000000000000e+03 3.305712938308715820e+00 2.152519035339355469e+01 4.685477539896965027e-02 -1.539829730987548828e+00 -4.478924870491027832e-01 9.567303210496902466e-02
3.143000000000000000e+03 4.040059566497802734e+00 2.142822837829589844e+01 6.794933229684829712e-02 -1.428185462951660156e+00 -4.080708324909210205e-01 1.121329665184020996e-01
3.144000000000000000e+03 5.706072330474853516e+00 -7.305253982543945312e+00 -4.883889687334885821e-06 1.590610372659284621e-05 3.306664211777388118e-06 4.491927029448561370e-06
3.145000000000000000e+03 3.256505012512207031e+00 -8.940556526184082031e+00 2.386144842603243887e-06 -5.140654138813260943e-06 -8.263527320195862558e-07 -1.939773710546432994e-06
3.146000000000000000e+03 4.040045738220214844e+00 -8.072102546691894531e+00 8.898037776816636324e-06 -6.916959137015510350e-06 5.943236374150728807e-07 -1.807981220736110117e-06
3.147000000000000000e+03 3.226683855056762695e+00 1.429858970642089844e+01 5.479585379362106323e-02 -1.220354676246643066e+00 -3.496676683425903320e-01 3.077093362808227539e-01
3.148000000000000000e+03 3.947913885116577148e+00 1.420138454437255859e+01 8.047907054424285889e-02 -1.157349824905395508e+00 -3.230612277984619141e-01 3.595120012760162354e-01
3.149000000000000000e+03 4.101492881774902344e+00 -7.250553607940673828e+00 -8.334895937878172845e-06 5.813619281980209053e-06 -7.563830308754404541e-07 3.200007654413639102e-07
3.150000000000000000e+03 4.621178150177001953e+00 -2.103839492797851562e+01 7.333807297982275486e-05 -4.797586880158632994e-04 -1.219261830556206405e-04 -2.038917737081646919e-04
3.151000000000000000e+03 4.745298767089843750e+01 -9.015082359313964844e+00 -9.059026241302490234e-01 5.086340427398681641e+00 1.254131317138671875e+00 -3.400511145591735840e-01
3.152000000000000000e+03 4.637745380401611328e+00 -9.714989662170410156e+00 -1.772273935785051435e-05 -3.285498451077728532e-06 -6.302471319941105321e-06 -7.272659786394797266e-06
3.153000000000000000e+03 3.946684598922729492e+00 -9.742365837097167969e+00 1.030782186717260629e-05 -2.006103159146732651e-06 2.490515726094599813e-06 3.229134563298430294e-06
3.154000000000000000e+03 3.231814146041870117e+00 -9.771264076232910156e+00 -4.836468178837094456e-06 5.408323431765893474e-06 1.715565929316653637e-07 -9.334142418992996681e-07
3.155000000000000000e+03 4.450607776641845703e+00 9.597024917602539062e+00 3.028117306530475616e-02 -8.135330677032470703e-01 -2.349755614995956421e-01 5.264185667037963867e-01
3.156000000000000000e+03 3.989854097366333008e+00 1.746245956420898438e+01 8.249534666538238525e-02 -1.319295048713684082e+00 -3.710399270057678223e-01 2.442566305398941040e-01
3.157000000000000000e+03 3.023303508758544922e+00 -2.353326416015625000e+01 6.022569505148567259e-05 -3.311540349386632442e-04 -8.127850014716386795e-05 -1.090872319764457643e-04
3.158000000000000000e+03 4.648810863494873047e+00 -2.225679969787597656e+01 2.139127609552815557e-04 -6.371972267515957355e-04 -1.269853382837027311e-04 1.482312654843553901e-04
3.159000000000000000e+03 3.129013538360595703e+00 -1.859937858581542969e+01 8.445479761576279998e-05 -1.393402300209345412e-07 2.529463745304383337e-05 8.264619850706367288e-07
3.160000000000000000e+03 7.255033016204833984e+00 -1.670232772827148438e+01 -1.369085566693684086e-05 -1.756367419147863984e-04 -5.679827881976962090e-05 2.235912688774988055e-05
3.161000000000000000e+03 3.169678926467895508e+00 -1.468368339538574219e+01 -3.786244997172616422e-05 2.909460636146832258e-05 -2.630353492349968292e-06 -1.076740863936720416e-05
3.162000000000000000e+03 3.852842092514038086e+00 -1.383839130401611328e+01 -5.861941463081166148e-05 2.422239231236744672e-05 -1.031910596793750301e-05 -2.399743243586272001e-05
3.163000000000000000e+03 3.037806510925292969e+00 -2.419486045837402344e+01 1.013928776956163347e-04 -1.196220546262338758e-04 -5.468752533488441259e-06 3.045909106731414795e-04
3.164000000000000000e+03 4.060391902923583984e+00 2.223827171325683594e+01 6.259348988533020020e-02 -1.437126159667968750e+00 -4.123598039150238037e-01 9.008549898862838745e-02
3.165000000000000000e+03 3.962898731231689453e+00 1.500900745391845703e+01 8.049466460943222046e-02 -1.204305052757263184e+00 -3.371431231498718262e-01 3.306365609169006348e-01
3.166000000000000000e+03 3.214169740676879883e+00 1.349411392211914062e+01 5.472141504287719727e-02 -1.161253333091735840e+00 -3.319595754146575928e-01 3.319199681282043457e-01
3.167000000000000000e+03 3.896363258361816406e+00 1.258197975158691406e+01 7.163816690444946289e-02 -1.053669333457946777e+00 -2.946093678474426270e-01 4.108783602714538574e-01
3.168000000000000000e+03 6.745877742767333984e+00 -1.847269248962402344e+01 7.644109427928924561e-05 2.845629642251878977e-04 1.083012175513431430e-04 2.466223304509185255e-05
3.169000000000000000e+03 4.273937225341796875e+00 -2.052241706848144531e+01 3.020067815668880939e-04 2.440027892589569092e-04 1.638028625166043639e-04 -2.015933023358229548e-05
3.170000000000000000e+03 4.854753494262695312e+00 -2.003425216674804688e+01 -1.244883023900911212e-04 -3.100733447354286909e-04 -1.303684839513152838e-04 3.434362588450312614e-05
3.171000000000000000e+03 3.725400447845458984e+00 -1.632722282409667969e+01 7.772639946779236197e-05 -6.051914897398091853e-05 5.162175057193962857e-06 -1.196213997900485992e-05
3.172000000000000000e+03 3.831436634063720703e+00 -1.554492759704589844e+01 -7.558402285212650895e-05 9.192269499180838466e-05 4.901601187157211825e-06 8.234384949901141226e-06
3.173000000000000000e+03 5.754523277282714844e+00 6.058221817016601562e+00 -1.533296555280685425e-01 -5.386576056480407715e-01 -2.075961828231811523e-01 6.354069113731384277e-01
3.174000000000000000e+03 3.999608278274536133e+00 1.826593780517578125e+01 8.083067089319229126e-02 -1.349017500877380371e+00 -3.804560601711273193e-01 2.148439884185791016e-01
3.175000000000000000e+03 4.756671905517578125e+00 2.134859466552734375e+01 9.140671789646148682e-02 -1.321831226348876953e+00 -3.691273629665374756e-01 1.258249580860137939e-01
3.176000000000000000e+03 3.289945363998413086e+00 2.072211647033691406e+01 4.919028654694557190e-02 -1.523270726203918457e+00 -4.422241151332855225e-01 1.154800504446029663e-01
3.177000000000000000e+03 3.395489931106567383e+00 -2.675454139709472656e+01 -1.243567094206809998e-04 -2.527034957893192768e-04 -1.131180615630000830e-04 3.547272062860429287e-04
3.178000000000000000e+03 4.540643692016601562e+00 -2.509283065795898438e+01 7.954348111525177956e-04 1.221387647092342377e-04 2.752720902208238840e-04 2.070594200631603599e-04
3.179000000000000000e+03 3.168994903564453125e+00 -1.223582649230957031e+01 1.614438406249973923e-05 -1.452508240618044510e-05 4.857902808907965664e-07 2.762357098617940210e-06
3.180000000000000000e+03 3.986363887786865234e+00 -2.846704864501953125e+01 4.310781951062381268e-04 -1.438692706869915128e-04 8.616268314654007554e-05 2.821389934979379177e-04
3.181000000000000000e+03 3.791602849960327148e+00 9.548464775085449219e+00 2.272146195173263550e-02 -8.101300597190856934e-01 -2.362225800752639771e-01 4.714225530624389648e-01
3.182000000000000000e+03 6.017076492309570312e+00 -2.994585990905761719e+01 -9.567338856868445873e-04 -1.946711272466927767e-04 -3.454215184319764376e-04 -6.596207385882735252e-04
3.183000000000000000e+03 7.596553802490234375e+01 -3.513778686523437500e+01 -1.861085146665573120e-01 6.472935199737548828e+00 1.886048078536987305e+00 -2.608278691768646240e-01
3.184000000000000000e+03 4.244200897216796875e+01 5.216429233551025391e+00 1.169534921646118164e+00 8.335811614990234375e+00 2.851603984832763672e+00 -2.492092370986938477e+00
3.185000000000000000e+03 4.209146499633789062e+01 5.954451084136962891e+00 1.292335987091064453e+00 8.773780822753906250e+00 3.019834995269775391e+00 -2.425664901733398438e+00
3.186000000000000000e+03 4.056228637695312500e+00 -3.304226684570312500e+01 -7.853935239836573601e-04 -9.659549104981124401e-04 -5.254045245237648487e-04 -8.101299172267317772e-04
3.187000000000000000e+03 4.224138736724853516e+00 -2.591389083862304688e+01 -1.561727403895929456e-04 -4.360887687653303146e-04 -1.776784483809024096e-04 2.520252601243555546e-04
3.188000000000000000e+03 3.847361564636230469e+00 -1.222843074798583984e+01 -3.241834929212927818e-05 1.751794843585230410e-05 -4.470119620236800984e-06 -1.109665845433482900e-05
3.189000000000000000e+03 3.766309261322021484e+00 1.103241157531738281e+01 5.436275899410247803e-02 -9.440506100654602051e-01 -2.669063508510589600e-01 4.433417618274688721e-01
3.190000000000000000e+03 3.436690568923950195e+00 2.564245796203613281e+01 2.979034930467605591e-02 -1.568970322608947754e+00 -4.617539942264556885e-01 1.065529976040124893e-02
3.191000000000000000e+03 4.246788501739501953e+00 2.649157524108886719e+01 3.589766472578048706e-02 -1.436652302742004395e+00 -4.202263951301574707e-01 -3.504850901663303375e-03
3.192000000000000000e+03 4.109140872955322266e+00 2.803460884094238281e+01 2.052932232618331909e-02 -1.460410237312316895e+00 -4.319642782211303711e-01 -2.116639912128448486e-02
3.193000000000000000e+03 3.838473081588745117e+00 -1.302988910675048828e+01 3.963257040595635772e-05 -1.144251109508331865e-05 8.457017429464031011e-06 1.746543603076133877e-05
3.194000000000000000e+03 3.926088333129882812e+00 -1.058611392974853516e+01 -1.697043080639559776e-05 5.274516752251656726e-06 -3.508773943394771777e-06 -1.024388166115386412e-05
3.195000000000000000e+03 3.744685411453247070e+00 1.029548358917236328e+01 3.502363339066505432e-02 -8.743984103202819824e-01 -2.518124282360076904e-01 4.598004817962646484e-01
3.196000000000000000e+03 3.663294792175292969e+00 -3.419756698608398438e+01 -2.851411118172109127e-04 -1.088241464458405972e-03 -4.120147787034511566e-04 -1.152005745097994804e-03
3.197000000000000000e+03 4.284595489501953125e+00 -3.172692871093750000e+01 -6.126844091340899467e-04 -4.948335699737071991e-04 -3.322553820908069611e-04 -4.493315063882619143e-04
3.198000000000000000e+03 3.983456134796142578e+00 1.664606857299804688e+01 8.238907903432846069e-02 -1.284648776054382324e+00 -3.606779277324676514e-01 2.732383012771606445e-01
3.199000000000000000e+03 7.462595367431640625e+01 1.561738204956054688e+01 1.151117146946489811e-03 8.602505683898925781e+00 2.581096887588500977e+00 7.358874082565307617e-01
3.200000000000000000e+03 7.587280273437500000e+01 3.384683609008789062e+01 -3.173736035823822021e-01 9.441531181335449219e+00 2.737247228622436523e+00 3.568201363086700439e-01
3.201000000000000000e+03 4.881266117095947266e+00 2.378704643249511719e+01 7.127417623996734619e-02 -1.329522132873535156e+00 -3.774743974208831787e-01 5.696605145931243896e-02
3.202000000000000000e+03 4.136245727539062500e+00 2.388346099853515625e+01 5.332676693797111511e-02 -1.445423245429992676e+00 -4.176289439201354980e-01 5.138448253273963928e-02
3.203000000000000000e+03 5.198102474212646484e+00 -3.348537826538085938e+01 -1.480564824305474758e-03 -1.377975335344672203e-03 -8.575620595365762711e-04 -1.602240256033837795e-03
3.204000000000000000e+03 7.421086883544921875e+01 -3.077556800842285156e+01 4.298165142536163330e-01 7.372831344604492188e+00 2.340794324874877930e+00 -9.322846680879592896e-02
3.205000000000000000e+03 7.278868865966796875e+01 -3.168028450012207031e+01 1.427224278450012207e-01 7.229796409606933594e+00 2.211755752563476562e+00 4.267527759075164795e-01
3.206000000000000000e+03 6.921142578125000000e+01 -8.979434967041015625e+00 7.231197953224182129e-01 6.470767498016357422e+00 2.158166170120239258e+00 1.303993463516235352e+00
3.207000000000000000e+03 4.115055847167968750e+01 6.423223972320556641e+00 1.291910171508789062e+00 8.736647605895996094e+00 3.008567333221435547e+00 -1.853295087814331055e+00
3.208000000000000000e+03 3.960088729858398438e+01 1.494167423248291016e+01 1.068452119827270508e+00 8.575198173522949219e+00 2.893095254898071289e+00 -3.606159687042236328e-01
3.209000000000000000e+03 3.877302932739257812e+01 1.410281753540039062e+01 1.365369915962219238e+00 7.971934795379638672e+00 2.801191568374633789e+00 -7.226206064224243164e-01
3.210000000000000000e+03 6.356769561767578125e+00 -5.356065273284912109e+00 5.221107130637392402e-06 4.889762294624233618e-06 3.033260782103752717e-06 5.444269390864064917e-06
3.211000000000000000e+03 3.358177900314331055e+00 -3.603900146484375000e+01 -2.330572169739753008e-04 -1.797670847736299038e-03 -6.092184339649975300e-04 -1.468055765144526958e-03
3.212000000000000000e+03 5.123946189880371094e+00 -3.496727371215820312e+01 -1.055590226314961910e-03 -2.226555719971656799e-03 -9.846438188105821609e-04 -1.922363298945128918e-03
3.213000000000000000e+03 4.136140823364257812e+00 -6.434665679931640625e+00 6.364676664816215634e-06 -9.919829153659520671e-07 1.611808102097711526e-06 -1.360645228487555869e-06
3.214000000000000000e+03 4.632293701171875000e+01 -2.500625228881835938e+01 2.491616725921630859e+00 8.245212554931640625e+00 3.221048831939697266e+00 -1.774837136268615723e+00
3.215000000000000000e+03 4.555550384521484375e+01 -2.498037719726562500e+01 2.394397735595703125e+00 9.300783157348632812e+00 3.508554220199584961e+00 -1.795068860054016113e+00
3.216000000000000000e+03 7.104544830322265625e+01 3.260810470581054688e+01 -9.061796665191650391e-01 5.271950721740722656e+00 1.309731364250183105e+00 1.898273378610610962e-01
3.217000000000000000e+03 7.647090911865234375e+01 3.350834274291992188e+01 -2.114204168319702148e-01 9.969952583312988281e+00 2.927559614181518555e+00 3.650943934917449951e-01
3.218000000000000000e+03 5.035317897796630859e+00 3.160346412658691406e+01 1.734924875199794769e-02 -1.280055403709411621e+00 -3.788118362426757812e-01 -5.931109935045242310e-02
3.219000000000000000e+03 5.459424495697021484e+00 3.054245376586914062e+01 3.168931230902671814e-02 -1.199497699737548828e+00 -3.503425121307373047e-01 -5.635621026158332825e-02
3.220000000000000000e+03 4.673217773437500000e+00 -3.261706161499023438e+01 -9.107046644203364849e-04 -1.243563019670546055e-03 -6.462802994064986706e-04 -5.190941737964749336e-04
3.221000000000000000e+03 7.359154510498046875e+01 -2.546814537048339844e+01 1.041617989540100098e+00 8.592702865600585938e+00 2.890296220779418945e+00 8.246855139732360840e-01
3.222000000000000000e+03 7.125219726562500000e+01 -4.202044010162353516e+00 4.983072280883789062e-01 9.202708244323730469e+00 2.910304546356201172e+00 9.702001810073852539e-01
3.223000000000000000e+03 1.731617736816406250e+01 1.552281022071838379e+00 -7.719066143035888672e-01 -1.173524737358093262e+00 -5.836294293403625488e-01 9.555913209915161133e-01
3.224000000000000000e+03 1.663099288940429688e+01 3.605371475219726562e+00 -2.590183615684509277e-01 -1.046417236328125000e+00 -3.916306793689727783e-01 8.130288124084472656e-01
3.225000000000000000e+03 8.740688323974609375e+00 -6.003660202026367188e+00 -6.103331543272361159e-06 -5.142179361428134143e-06 -3.373653271410148591e-06 3.632923437635326991e-07
3.226000000000000000e+03 9.069328308105468750e+00 -4.706090927124023438e+00 -4.684377472585765645e-06 1.042124750938455691e-07 -1.374049475089123007e-06 -3.799072374022216536e-06
3.227000000000000000e+03 7.480973052978515625e+01 -2.909939193725585938e+01 8.924708962440490723e-01 7.469140529632568359e+00 2.508483409881591797e+00 2.559563890099525452e-02
3.228000000000000000e+03 7.502374267578125000e+01 3.477501678466796875e+01 -3.336054086685180664e-01 8.683137893676757812e+00 2.504859924316406250e+00 2.413286119699478149e-01
3.229000000000000000e+03 6.849501037597656250e+01 -1.919724655151367188e+01 -1.097384810447692871e+00 1.376525759696960449e+00 8.374229073524475098e-02 -1.993929594755172729e-01
3.230000000000000000e+03 4.063961791992187500e+01 1.993751525878906250e+01 6.631507277488708496e-01 7.296356678009033203e+00 2.387852191925048828e+00 5.980833172798156738e-01
3.231000000000000000e+03 6.430657196044921875e+01 -1.628246307373046875e+01 -2.238013446331024170e-01 2.641419887542724609e+00 7.252855896949768066e-01 1.800273180007934570e+00
3.232000000000000000e+03 7.717084407806396484e+00 -9.493927001953125000e+00 1.426256676495540887e-05 4.357133366283960640e-05 1.735017031023744494e-05 8.472291483485605568e-06
3.233000000000000000e+03 7.375346374511718750e+01 -2.684371376037597656e+01 1.288386583328247070e+00 8.600028038024902344e+00 2.966524362564086914e+00 6.846010684967041016e-01
3.234000000000000000e+03 1.767908668518066406e+01 2.136440515518188477e+00 -5.576941370964050293e-01 -1.084332823753356934e+00 -4.926080703735351562e-01 8.545267581939697266e-01
3.235000000000000000e+03 6.645343780517578125e+01 -1.339845180511474609e+01 1.050142288208007812e+00 3.711405515670776367e+00 1.428464412689208984e+00 1.346565008163452148e+00
3.236000000000000000e+03 7.551976776123046875e+01 -1.010257244110107422e+01 3.319933265447616577e-02 6.667879581451416016e+00 2.010323524475097656e+00 -6.970776915550231934e-01
3.237000000000000000e+03 2.643503761291503906e+01 -6.569578647613525391e+00 -1.218160033226013184e+00 2.910591363906860352e-01 -2.781302630901336670e-01 6.842901706695556641e-01
3.238000000000000000e+03 2.491562652587890625e+01 -4.399735927581787109e+00 -1.200892448425292969e+00 -1.497060898691415787e-02 -3.647589385509490967e-01 6.938636898994445801e-01
3.239000000000000000e+03 7.062697601318359375e+01 -7.740324020385742188e+00 4.686776995658874512e-01 7.329195976257324219e+00 2.339362144470214844e+00 8.133562207221984863e-01
3.240000000000000000e+03 6.894675445556640625e+01 -1.087119579315185547e+01 8.102205395698547363e-01 5.506069660186767578e+00 1.894886970520019531e+00 9.940091371536254883e-01
3.241000000000000000e+03 3.564556121826171875e+01 -1.445624542236328125e+01 -4.561446905136108398e-01 2.047513008117675781e+00 4.774104952812194824e-01 -1.253802061080932617e+00
3.242000000000000000e+03 3.988003540039062500e+01 1.998956489562988281e+01 6.890478134155273438e-01 7.004695892333984375e+00 2.308123111724853516e+00 3.014488816261291504e-01
3.243000000000000000e+03 3.931939315795898438e+01 1.797789955139160156e+01 8.783502578735351562e-01 7.433167934417724609e+00 2.493455410003662109e+00 -4.164386168122291565e-02
3.244000000000000000e+03 7.259325408935546875e+01 8.636921882629394531e+00 1.558379270136356354e-02 1.011511802673339844e+01 3.039210796356201172e+00 8.869917392730712891e-01
3.245000000000000000e+03 7.544362640380859375e+01 8.627656936645507812e+00 9.798415005207061768e-03 8.304310798645019531e+00 2.494232892990112305e+00 1.017917752265930176e+00
3.246000000000000000e+03 4.766103744506835938e+01 -9.735892295837402344e+00 -1.039789199829101562e+00 5.022852897644042969e+00 1.194919109344482422e+00 -1.591516137123107910e-01
3.247000000000000000e+03 2.251472663879394531e+01 -1.701213121414184570e+00 -1.011232137680053711e+00 -5.245195627212524414e-01 -4.607255160808563232e-01 7.165381908416748047e-01
3.248000000000000000e+03 2.269586181640625000e+01 -2.879186153411865234e+00 -1.230746150016784668e+00 -6.356852054595947266e-01 -5.599294304847717285e-01 8.414121866226196289e-01
3.249000000000000000e+03 6.123725414276123047e+00 -1.904239654541015625e+01 -1.717533159535378218e-04 -2.356192999286577106e-04 -1.222117862198501825e-04 -4.144059494137763977e-05
3.250000000000000000e+03 4.538533401489257812e+01 -2.761985957622528076e-01 4.454355239868164062e-01 5.979411602020263672e+00 1.927454113960266113e+00 -2.179340839385986328e+00
3.251000000000000000e+03 2.120800971984863281e+01 -4.939329922199249268e-01 -8.824846744537353516e-01 -7.514685392379760742e-01 -4.901859760284423828e-01 7.433387041091918945e-01
3.252000000000000000e+03 1.694635009765625000e+01 2.595097303390502930e+00 -4.982374310493469238e-01 -1.106808423995971680e+00 -4.815137386322021484e-01 8.758801817893981934e-01
3.253000000000000000e+03 7.096290588378906250e+01 -5.008359432220458984e+00 5.019872188568115234e-01 8.782381057739257812e+00 2.785310506820678711e+00 1.027070283889770508e+00
3.254000000000000000e+03 7.592558288574218750e+01 -5.203764438629150391e+00 1.197256371378898621e-01 6.844465255737304688e+00 2.089257240295410156e+00 -5.427076220512390137e-01
3.255000000000000000e+03 3.997832489013671875e+01 2.164743804931640625e+01 5.758771896362304688e-01 6.379703998565673828e+00 2.086674451828002930e+00 3.504980504512786865e-01
3.256000000000000000e+03 4.106035232543945312e+01 2.244657135009765625e+01 5.683647990226745605e-01 6.346235275268554688e+00 2.074379920959472656e+00 7.173369526863098145e-01
3.257000000000000000e+03 2.807089233398437500e+01 -9.433343887329101562e+00 -1.063126444816589355e+00 5.060676932334899902e-01 -1.671176403760910034e-01 6.469777822494506836e-01
3.258000000000000000e+03 3.909160995483398438e+01 1.993164062500000000e+01 7.169505357742309570e-01 6.691157817840576172e+00 2.222432374954223633e+00 -1.027645729482173920e-02
3.259000000000000000e+03 3.148189735412597656e+01 -1.399571323394775391e+01 -6.917046904563903809e-01 6.175650954246520996e-01 -2.224187366664409637e-02 1.721191555261611938e-01
3.260000000000000000e+03 6.976765441894531250e+01 3.277422714233398438e+01 -1.082760572433471680e+00 3.915260553359985352e+00 8.497499823570251465e-01 3.960784524679183960e-02
3.261000000000000000e+03 7.076422119140625000e+01 3.599565887451171875e+01 -5.244927406311035156e-01 4.828323364257812500e+00 1.291149258613586426e+00 -1.931187212467193604e-01
3.262000000000000000e+03 7.424360656738281250e+01 -1.962786674499511719e+00 4.893639981746673584e-01 8.311661720275878906e+00 2.640307903289794922e+00 -6.842566281557083130e-02
3.263000000000000000e+03 3.993493652343750000e+01 2.078795433044433594e+01 6.231106519699096680e-01 6.697134017944335938e+00 2.196073532104492188e+00 3.186236023902893066e-01
3.264000000000000000e+03 7.098619079589843750e+01 -6.914392471313476562e+00 4.071106314659118652e-01 7.749755382537841797e+00 2.447059869766235352e+00 7.533603310585021973e-01
3.265000000000000000e+03 4.497854614257812500e+01 -4.288045883178710938e+00 -3.968149423599243164e-01 5.634900569915771484e+00 1.571425676345825195e+00 -1.380263566970825195e+00
3.266000000000000000e+03 1.145981311798095703e+01 -1.146514701843261719e+01 -5.577226693276315928e-05 1.854786205512937158e-05 -1.116732073569437489e-05 -8.878591870598029345e-06
3.267000000000000000e+03 4.460737609863281250e+01 2.943595314025878906e+01 -2.807626500725746155e-02 3.976992368698120117e+00 1.184674859046936035e+00 8.657395839691162109e-01
3.268000000000000000e+03 4.242363739013671875e+01 2.790834426879882812e+01 -2.291438169777393341e-02 4.636618137359619141e+00 1.384111166000366211e+00 6.122345924377441406e-01
3.269000000000000000e+03 6.149414539337158203e+00 -3.186939239501953125e+01 -1.817591604776680470e-03 -1.253889175131917000e-03 -9.214442688971757889e-04 -4.232199280522763729e-04
3.270000000000000000e+03 9.729537010192871094e+00 -3.118010711669921875e+01 -3.371869213879108429e-03 -1.898336224257946014e-03 -1.581061631441116333e-03 -9.288298315368592739e-04
3.271000000000000000e+03 7.044646263122558594e+00 -5.323390960693359375e+00 -7.300595370907103643e-06 -4.367001110949786380e-06 -3.500279035506537184e-06 -3.579261374397901818e-06
3.272000000000000000e+03 4.344658374786376953e+00 -1.764373207092285156e+01 -1.417128369212150574e-04 -4.830364923691377044e-05 -5.700494511984288692e-05 -3.305722566437907517e-05
3.273000000000000000e+03 6.066126632690429688e+01 -2.008150482177734375e+01 -7.827068567276000977e-01 2.054977893829345703e+00 3.816812932491302490e-01 2.712615251541137695e+00
3.274000000000000000e+03 7.056960296630859375e+01 -1.889413452148437500e+01 -1.360002398490905762e+00 3.866850614547729492e+00 7.520544528961181641e-01 -1.047501802444458008e+00
3.275000000000000000e+03 7.053289031982421875e+01 -1.969439697265625000e+01 -1.898773074150085449e+00 3.829814195632934570e+00 5.793123841285705566e-01 -1.274844408035278320e+00
3.276000000000000000e+03 5.578004837036132812e+01 -2.449006843566894531e+01 2.580228090286254883e+00 2.407760381698608398e+00 1.496396541595458984e+00 1.143629550933837891e+00
3.277000000000000000e+03 5.517084503173828125e+01 -2.518367576599121094e+01 2.576574802398681641e+00 2.939027070999145508e+00 1.654680609703063965e+00 8.553469181060791016e-01
3.278000000000000000e+03 3.653306579589843750e+01 -1.531422805786132812e+01 -3.224757909774780273e-01 2.240965604782104492e+00 5.755469799041748047e-01 -1.679612517356872559e+00
3.279000000000000000e+03 3.706425094604492188e+01 -1.584754562377929688e+01 -1.491863429546356201e-01 2.431757450103759766e+00 6.847712993621826172e-01 -2.005368232727050781e+00
3.280000000000000000e+03 7.130319976806640625e+01 -6.083842754364013672e+00 4.045094847679138184e-01 8.133040428161621094e+00 2.561264991760253906e+00 6.983457207679748535e-01
3.281000000000000000e+03 7.611418914794921875e+01 -2.322706985473632812e+01 -9.682529419660568237e-02 7.416554450988769531e+00 2.195918798446655273e+00 1.078445792198181152e+00
3.282000000000000000e+03 6.801014709472656250e+01 3.592374420166015625e+01 -6.883467435836791992e-01 2.229412078857421875e+00 4.623196125030517578e-01 -1.480854302644729614e-01
3.283000000000000000e+03 4.826001739501953125e+01 -1.280610275268554688e+01 -1.991018533706665039e+00 5.138612270355224609e+00 9.442781209945678711e-01 4.774432182312011719e-01
3.284000000000000000e+03 8.646340370178222656e+00 -1.579191493988037109e+01 2.110686909873038530e-05 3.759023093152791262e-05 1.760913073667325079e-05 -6.299950473476201296e-05
3.285000000000000000e+03 7.696839809417724609e+00 -1.609041595458984375e+01 2.821701309585478157e-05 1.112077079596929252e-04 4.182741758995689452e-05 -4.354828342911787331e-05
3.286000000000000000e+03 4.372852706909179688e+01 -1.821171569824218750e+01 -2.260549515485763550e-01 9.091328620910644531e+00 2.659582138061523438e+00 -1.177545070648193359e+00
3.287000000000000000e+03 6.938776397705078125e+01 -1.012587356567382812e+01 6.976647377014160156e-01 5.965128898620605469e+00 1.998838067054748535e+00 9.715222120285034180e-01
3.288000000000000000e+03 7.033208465576171875e+01 3.342465972900390625e+01 -9.733325242996215820e-01 4.432001113891601562e+00 1.037600636482238770e+00 4.808061756193637848e-03
3.289000000000000000e+03 4.404898071289062500e+01 2.733168029785156250e+01 2.875721156597137451e-01 4.549436569213867188e+00 1.451102495193481445e+00 1.082149624824523926e+00
3.290000000000000000e+03 9.011623382568359375e+00 -1.512407875061035156e+01 8.859984177433943842e-07 -2.935540760518051684e-05 -8.540822818758897483e-06 5.832724855281412601e-05
3.291000000000000000e+03 7.222076416015625000e+00 -2.853048706054687500e+01 -1.755479606799781322e-04 -2.150233776774257421e-04 -1.171714029624126852e-04 4.149458545725792646e-04
3.292000000000000000e+03 7.247720336914062500e+01 1.477861022949218750e+01 5.684693530201911926e-02 9.031879425048828125e+00 2.726618051528930664e+00 5.782526731491088867e-01
3.293000000000000000e+03 7.320738983154296875e+01 1.475289535522460938e+01 -3.827439388260245323e-03 8.901465415954589844e+00 2.669291257858276367e+00 6.258218884468078613e-01
3.294000000000000000e+03 4.057363891601562500e+01 2.453756332397460938e+01 2.948452830314636230e-01 5.556791305541992188e+00 1.755491018295288086e+00 3.837316632270812988e-01
3.295000000000000000e+03 7.188333129882812500e+01 -4.445650577545166016e+00 4.233802556991577148e-01 8.835771560668945312e+00 2.777745485305786133e+00 5.806502103805541992e-01
3.296000000000000000e+03 4.274091720581054688e+01 -1.709631347656250000e+01 -8.508143424987792969e-01 8.564830780029296875e+00 2.314204931259155273e+00 -1.649288415908813477e+00
3.297000000000000000e+03 6.217715835571289062e+01 -2.051811218261718750e+01 -6.394358873367309570e-01 2.100899219512939453e+00 4.384390115737915039e-01 2.542240619659423828e+00
3.298000000000000000e+03 7.310396575927734375e+01 1.395042037963867188e+01 -1.004750132560729980e-01 9.003910064697265625e+00 2.671030521392822266e+00 5.924152135848999023e-01
3.299000000000000000e+03 6.903958129882812500e+01 -2.018096733093261719e+01 -1.926925539970397949e+00 1.081786513328552246e+00 -2.535417079925537109e-01 -8.133102655410766602e-01
3.300000000000000000e+03 7.266913604736328125e+01 6.250477313995361328e+00 4.424629211425781250e-01 1.061526870727539062e+01 3.317319631576538086e+00 7.152199745178222656e-01
3.301000000000000000e+03 7.419009399414062500e+01 -1.866612052917480469e+01 -1.157498002052307129e+00 6.777591228485107422e+00 1.686028003692626953e+00 -3.864320218563079834e-01
3.302000000000000000e+03 4.176227951049804688e+01 2.174262285232543945e+00 3.203780055046081543e-01 6.918473720550537109e+00 2.171655416488647461e+00 -1.764806032180786133e+00
3.303000000000000000e+03 6.083341121673583984e+00 -2.426340675354003906e+01 -1.245395251316949725e-04 -6.997995660640299320e-04 -2.473017375450581312e-04 -3.210375725757330656e-04
3.304000000000000000e+03 6.738325119018554688e+00 -2.293120765686035156e+01 3.137114981655031443e-05 -3.476589918136596680e-04 -9.488635259913280606e-05 -3.560457480489276350e-05
3.305000000000000000e+03 5.708141708374023438e+01 -2.317915153503417969e+01 2.233095169067382812e+00 1.683313012123107910e+00 1.174922466278076172e+00 1.617218971252441406e+00
3.306000000000000000e+03 5.602996063232421875e+01 -2.268691635131835938e+01 1.920830845832824707e+00 1.417566299438476562e+00 1.001519203186035156e+00 1.114237666130065918e+00
3.307000000000000000e+03 6.695935058593750000e+01 -1.266427803039550781e+01 1.157030463218688965e+00 4.115228176116943359e+00 1.581677675247192383e+00 1.334723949432373047e+00
3.308000000000000000e+03 6.848670959472656250e+01 -1.160059833526611328e+01 8.650320768356323242e-01 5.053363323211669922e+00 1.775518655776977539e+00 1.017852067947387695e+00
3.309000000000000000e+03 7.243367004394531250e+01 -2.852414369583129883e+00 5.325873494148254395e-01 9.339983940124511719e+00 2.961771249771118164e+00 4.339799880981445312e-01
3.310000000000000000e+03 4.009107208251953125e+01 2.256980514526367188e+01 5.146732926368713379e-01 6.130035877227783203e+00 1.993412733078002930e+00 3.715965747833251953e-01
3.311000000000000000e+03 2.770160675048828125e+01 -8.733875274658203125e+00 -1.116249799728393555e+00 4.820085465908050537e-01 -1.902723908424377441e-01 6.641417741775512695e-01
3.312000000000000000e+03 7.611422729492187500e+01 2.452166557312011719e+01 6.607377529144287109e-02 8.972070693969726562e+00 2.711443185806274414e+00 8.745263218879699707e-01
3.313000000000000000e+03 7.334603881835937500e+01 -4.954741597175598145e-01 7.629575133323669434e-01 9.335618019104003906e+00 3.029572725296020508e+00 3.038145601749420166e-01
3.314000000000000000e+03 2.545073509216308594e+01 -5.115970134735107422e+00 -1.220670223236083984e+00 9.449047595262527466e-02 -3.378539383411407471e-01 6.903989315032958984e-01
3.315000000000000000e+03 7.331561279296875000e+01 -2.247702026367187500e+01 -9.842483401298522949e-01 7.815382957458496094e+00 2.049340248107910156e+00 6.714679002761840820e-01
3.316000000000000000e+03 7.258022308349609375e+01 -2.243982315063476562e+01 -1.234980106353759766e+00 7.647393703460693359e+00 1.923724055290222168e+00 4.053066968917846680e-01
3.317000000000000000e+03 3.967975616455078125e+01 1.588324737548828125e+01 9.967973232269287109e-01 8.346014976501464844e+00 2.802843809127807617e+00 -1.613129079341888428e-01
3.318000000000000000e+03 3.877012634277343750e+01 1.510443210601806641e+01 1.217348337173461914e+00 7.785389423370361328e+00 2.700821399688720703e+00 -5.378702878952026367e-01
3.319000000000000000e+03 4.193023681640625000e+01 3.165014982223510742e+00 5.473476648330688477e-01 7.284264087677001953e+00 2.349483489990234375e+00 -1.925176739692687988e+00
3.320000000000000000e+03 7.613491821289062500e+01 2.530065155029296875e+01 4.124057292938232422e-02 9.041794776916503906e+00 2.724910736083984375e+00 8.874056935310363770e-01
3.321000000000000000e+03 7.198683166503906250e+01 2.729537391662597656e+01 -6.958363205194473267e-02 6.974841117858886719e+00 2.071577310562133789e+00 6.709637641906738281e-01
3.322000000000000000e+03 6.121483230590820312e+01 -1.771579170227050781e+01 -1.613154292106628418e+00 2.207324504852294922e+00 1.782510280609130859e-01 2.366133689880371094e+00
3.323000000000000000e+03 6.003786849975585938e+01 -1.813826179504394531e+01 -2.029515981674194336e+00 1.774051547050476074e+00 -7.663933187723159790e-02 2.503721475601196289e+00
3.324000000000000000e+03 8.402634620666503906e+00 5.991712570190429688e+00 -1.674745231866836548e-01 -7.067186832427978516e-01 -2.622579634189605713e-01 8.518810272216796875e-01
3.325000000000000000e+03 1.841007614135742188e+01 1.652388095855712891e+00 -6.185880303382873535e-01 -1.046935677528381348e+00 -4.996570944786071777e-01 8.316898345947265625e-01
3.326000000000000000e+03 2.435254669189453125e+01 -3.698761940002441406e+00 -1.168118238449096680e+00 -1.431794762611389160e-01 -3.933893144130706787e-01 6.971071362495422363e-01
3.327000000000000000e+03 2.314748954772949219e+01 -2.344707727432250977e+00 -1.071038842201232910e+00 -4.016473293304443359e-01 -4.418058693408966064e-01 7.077822685241699219e-01
3.328000000000000000e+03 7.236681365966796875e+01 2.938004684448242188e+01 -4.670119285583496094e-01 6.880641937255859375e+00 1.924088954925537109e+00 7.168692350387573242e-01
3.329000000000000000e+03 1.417843532562255859e+01 4.217879295349121094e+00 -2.770036756992340088e-01 -1.072499871253967285e+00 -4.048510789871215820e-01 9.283342361450195312e-01
3.330000000000000000e+03 1.913103675842285156e+01 1.148691177368164062e+00 -6.833262443542480469e-01 -9.962394237518310547e-01 -5.038697123527526855e-01 8.050334453582763672e-01
3.331000000000000000e+03 3.958495330810546875e+01 2.468051147460937500e+01 2.369574010372161865e-01 5.422550678253173828e+00 1.697852492332458496e+00 1.474155634641647339e-01
3.332000000000000000e+03 5.572345733642578125e+01 -2.335230827331542969e+01 2.200995445251464844e+00 1.789923429489135742e+00 1.197275638580322266e+00 1.007324457168579102e+00
3.333000000000000000e+03 5.639581298828125000e+01 -2.379406929016113281e+01 2.457700729370117188e+00 1.927912354469299316e+00 1.315683960914611816e+00 1.374533772468566895e+00
3.334000000000000000e+03 6.287557601928710938e+01 -1.763404083251953125e+01 -1.108075141906738281e+00 2.455739021301269531e+00 4.042991697788238525e-01 2.291651725769042969e+00
3.335000000000000000e+03 4.150484848022460938e+01 2.655829048156738281e+01 8.371341228485107422e-02 5.037493228912353516e+00 1.536361932754516602e+00 4.768839180469512939e-01
3.336000000000000000e+03 4.085631942749023438e+01 2.565157127380371094e+01 1.669874936342239380e-01 5.245126724243164062e+00 1.623634219169616699e+00 3.947601020336151123e-01
3.337000000000000000e+03 3.966175460815429688e+01 1.865684700012207031e+01 7.977332472801208496e-01 7.363674640655517578e+00 2.448422193527221680e+00 1.149469316005706787e-01
3.338000000000000000e+03 7.251934814453125000e+01 2.834980964660644531e+01 -2.744503915309906006e-01 7.111562728881835938e+00 2.051133632659912109e+00 7.745864391326904297e-01
3.339000000000000000e+03 5.304376220703125000e+01 -2.816896438598632812e+01 2.359814882278442383e+00 4.779192447662353516e+00 2.141702175140380859e+00 -5.489616990089416504e-01
3.340000000000000000e+03 1.428105640411376953e+01 -1.054422760009765625e+01 -2.533544829930178821e-05 -1.409365540894214064e-05 -1.182873074867529795e-05 -1.849110049079172313e-05
3.341000000000000000e+03 3.901359939575195312e+01 1.710914611816406250e+01 9.885461330413818359e-01 7.496734619140625000e+00 2.545584201812744141e+00 -2.117806077003479004e-01
3.342000000000000000e+03 3.882965850830078125e+01 1.612279510498046875e+01 1.101372241973876953e+00 7.621963977813720703e+00 2.617000818252563477e+00 -3.657447993755340576e-01
3.343000000000000000e+03 2.186891746520996094e+01 -1.085993647575378418e+00 -9.492059350013732910e-01 -6.458294391632080078e-01 -4.785106182098388672e-01 7.276176810264587402e-01
3.344000000000000000e+03 6.348455047607421875e+01 -1.847850990295410156e+01 -1.159720301628112793e+00 2.272462368011474609e+00 3.338226377964019775e-01 2.391252756118774414e+00
3.345000000000000000e+03 7.479013824462890625e+01 2.602912902832031250e+01 2.366057038307189941e-02 8.482294082641601562e+00 2.551786184310913086e+00 9.518756866455078125e-01
3.346000000000000000e+03 7.265480041503906250e+01 2.739682960510253906e+01 -1.036569401621818542e-01 7.334460735321044922e+00 2.169241189956665039e+00 7.990117669105529785e-01
3.347000000000000000e+03 1.376341342926025391e+01 -3.650111770629882812e+01 8.542013238184154034e-04 -1.643190719187259674e-02 -4.673311952501535416e-03 -2.533751353621482849e-02
3.348000000000000000e+03 7.277746582031250000e+01 1.273454189300537109e+00 9.898577332496643066e-01 1.045256805419921875e+01 3.432727575302124023e+00 7.001956105232238770e-01
3.349000000000000000e+03 7.509323883056640625e+01 2.281987518072128296e-01 5.785968899726867676e-01 7.938315391540527344e+00 2.555073738098144531e+00 1.017258763313293457e-01
3.350000000000000000e+03 3.740082979202270508e+00 -1.777508926391601562e+01 1.225696760229766369e-04 2.472522965035750531e-06 3.751266194740310311e-05 -1.369808160234242678e-05
3.351000000000000000e+03 3.797943878173828125e+01 1.323154640197753906e+01 1.641574740409851074e+00 7.325130462646484375e+00 2.690011739730834961e+00 -9.043917059898376465e-01
3.352000000000000000e+03 7.402777099609375000e+01 7.846116542816162109e+00 1.410616338253021240e-01 9.266817092895507812e+00 2.822363376617431641e+00 1.012743353843688965e+00
3.353000000000000000e+03 4.464683532714843750e+01 3.055654525756835938e+01 -2.670644521713256836e-01 3.772664070129394531e+00 1.051679849624633789e+00 7.059109210968017578e-01
3.354000000000000000e+03 1.486279392242431641e+01 3.831003904342651367e+00 -3.318362236022949219e-01 -1.091706752777099609e+00 -4.270628988742828369e-01 9.182593226432800293e-01
3.355000000000000000e+03 4.559674263000488281e+00 -2.918236541748046875e+01 8.211167732952162623e-05 -6.865415489301085472e-04 -1.813289563870057464e-04 -4.796627763425931334e-05
3.356000000000000000e+03 5.134613800048828125e+01 -1.636153602600097656e+01 -3.050238132476806641e+00 2.700837135314941406e+00 -1.048203334212303162e-01 3.986571431159973145e-01
3.357000000000000000e+03 4.441356182098388672e+00 3.440349197387695312e+01 -2.130586467683315277e-02 -1.323098659515380859e+00 -4.033213555812835693e-01 -6.347777694463729858e-02
3.358000000000000000e+03 4.224217414855957031e+00 3.606119918823242188e+01 -2.571712061762809753e-02 -1.327250957489013672e+00 -4.058904349803924561e-01 -4.817954450845718384e-02
3.359000000000000000e+03 6.197182846069335938e+01 -1.895509910583496094e+01 -1.272154808044433594e+00 2.308175086975097656e+00 3.108060956001281738e-01 2.627971649169921875e+00
3.360000000000000000e+03 1.481386947631835938e+01 -7.653820514678955078e+00 9.994141692004632205e-06 -7.346473012148635462e-06 7.943007176436367445e-07 7.782699071867682505e-07
3.361000000000000000e+03 1.397235774993896484e+01 -7.721114158630371094e+00 1.288078328798292205e-05 -6.752241006324766204e-06 1.838562639022711664e-06 1.780607249202148523e-06
3.362000000000000000e+03 3.991460418701171875e+01 9.308558464050292969e+00 2.028320789337158203e+00 8.843208312988281250e+00 3.261458873748779297e+00 -1.240351676940917969e+00
3.363000000000000000e+03 6.468404388427734375e+01 -1.562903118133544922e+01 1.826272457838058472e-01 2.754177570343017578e+00 8.810414671897888184e-01 1.662655591964721680e+00
3.364000000000000000e+03 5.663422393798828125e+01 -2.076563453674316406e+01 4.602022767066955566e-01 5.403913259506225586e-01 3.001780807971954346e-01 1.523362874984741211e+00
3.365000000000000000e+03 1.639366149902343750e+01 -8.757980346679687500e+00 -1.508794593974016607e-05 3.461951109784422442e-06 -3.487798494461458176e-06 -5.534012416319455951e-06
3.366000000000000000e+03 1.650803375244140625e+01 -1.037298393249511719e+01 1.139405594585696235e-05 7.199145784397842363e-06 5.577960564551176503e-06 1.722404192605608841e-07
3.367000000000000000e+03 5.111597824096679688e+01 -1.761588478088378906e+01 -2.124462127685546875e+00 3.041411161422729492e+00 2.750847637653350830e-01 -2.378436625003814697e-01
3.368000000000000000e+03 5.191316223144531250e+01 -1.753537368774414062e+01 -2.469045877456665039e+00 2.082712650299072266e+00 -1.158999577164649963e-01 -1.597665101289749146e-01
3.369000000000000000e+03 7.304683685302734375e+01 5.515912771224975586e-01 9.341346621513366699e-01 1.000818252563476562e+01 3.282695293426513672e+00 5.423192977905273438e-01
3.370000000000000000e+03 7.562479400634765625e+01 -9.928420186042785645e-02 4.819348454475402832e-01 7.450258731842041016e+00 2.379658222198486328e+00 -8.325356058776378632e-03
3.371000000000000000e+03 4.166634368896484375e+01 -1.800596618652343750e+01 1.088205426931381226e-01 8.714241027832031250e+00 2.646918535232543945e+00 -2.549717664718627930e+00
3.372000000000000000e+03 3.858573913574218750e+00 -1.928387832641601562e+01 1.500830258009955287e-04 -1.033140651998110116e-04 1.403068563377019018e-05 2.175322151742875576e-06
3.373000000000000000e+03 1.496923065185546875e+01 -1.086225700378417969e+01 2.267183117510285228e-05 9.571977898303885013e-06 9.673142812971491367e-06 2.525917079765349627e-05
3.374000000000000000e+03 3.434453201293945312e+01 -3.727182769775390625e+01 2.716023027896881104e-01 4.765781164169311523e-01 2.244541347026824951e-01 9.482961893081665039e-02
3.375000000000000000e+03 3.857484436035156250e+01 -3.850201416015625000e+01 -1.264366060495376587e-01 2.674089670181274414e+00 7.642958760261535645e-01 7.684676647186279297e-01
3.376000000000000000e+03 6.935811996459960938e+00 -2.142167663574218750e+01 8.763688674662262201e-05 1.745819608913734555e-04 7.866565283620730042e-05 5.889718158869072795e-05
3.377000000000000000e+03 3.976083040237426758e+00 -2.343118667602539062e+01 -1.457891776226460934e-04 -3.902109747286885977e-04 -1.608000457054004073e-04 -3.174397352267988026e-05
3.378000000000000000e+03 7.038191223144531250e+01 3.206211471557617188e+01 -9.846721291542053223e-01 4.669577598571777344e+00 1.105471611022949219e+00 1.926185637712478638e-01
3.379000000000000000e+03 1.214944076538085938e+01 -3.345535278320312500e+01 -1.217348221689462662e-02 -1.757367281243205070e-03 -4.179254639893770218e-03 -1.114400196820497513e-02
3.380000000000000000e+03 4.311006927490234375e+01 -1.796569633483886719e+01 -3.003828227519989014e-01 9.105305671691894531e+00 2.641476869583129883e+00 -1.570926070213317871e+00
3.381000000000000000e+03 7.210481262207031250e+01 -3.496903228759765625e+01 -3.265537321567535400e-01 5.587277889251708984e+00 1.578217148780822754e+00 6.039418578147888184e-01
3.382000000000000000e+03 7.385292053222656250e+01 3.065496444702148438e+01 -4.559616148471832275e-01 7.876513957977294922e+00 2.226165771484375000e+00 7.001513242721557617e-01
3.383000000000000000e+03 4.660271453857421875e+01 -2.366966247558593750e+01 2.568639755249023438e+00 7.679222583770751953e+00 3.074358701705932617e+00 -1.714693546295166016e+00
3.384000000000000000e+03 4.585832977294921875e+01 -2.342342185974121094e+01 2.690618515014648438e+00 8.619140625000000000e+00 3.392927885055541992e+00 -1.939365506172180176e+00
3.385000000000000000e+03 1.291074275970458984e+01 4.220230579376220703e+00 -3.508884012699127197e-01 -1.023443460464477539e+00 -4.122995436191558838e-01 9.686537981033325195e-01
3.386000000000000000e+03 6.592706298828125000e+01 -1.414852619171142578e+01 9.005827307701110840e-01 3.325369596481323242e+00 1.267785787582397461e+00 1.370221138000488281e+00
3.387000000000000000e+03 4.542708969116210938e+01 -2.879005813598632812e+01 2.102359771728515625e+00 8.534118652343750000e+00 3.190943717956542969e+00 -8.697209954261779785e-01
3.388000000000000000e+03 4.611949157714843750e+01 -2.714675903320312500e+01 2.291350603103637695e+00 8.376624107360839844e+00 3.200392484664916992e+00 -1.360931277275085449e+00
3.389000000000000000e+03 1.805308151245117188e+01 -3.906209182739257812e+01 4.455388337373733521e-02 -4.959034919738769531e-02 -1.510940375737845898e-03 -3.916263580322265625e-02
3.390000000000000000e+03 4.973078918457031250e+01 -1.425840950012207031e+01 -2.452475070953369141e+00 4.104605197906494141e+00 4.956390559673309326e-01 7.630759477615356445e-01
3.391000000000000000e+03 7.543379974365234375e+01 -3.267591857910156250e+01 -5.784161388874053955e-02 6.777904510498046875e+00 2.016018867492675781e+00 -3.405422866344451904e-01
3.392000000000000000e+03 1.267954635620117188e+01 -3.482219696044921875e+01 -8.464816026389598846e-03 -6.592186633497476578e-03 -4.517100751399993896e-03 -1.810647174715995789e-02
3.393000000000000000e+03 1.147590446472167969e+01 -3.289259338378906250e+01 -8.988010697066783905e-03 -2.997480332851409912e-03 -3.595647169277071953e-03 -8.429910056293010712e-03
3.394000000000000000e+03 2.646589469909667969e+01 -3.682619094848632812e+01 4.345126077532768250e-02 3.558786702342331409e-04 1.314214151352643967e-02 -1.573946774005889893e-01
3.395000000000000000e+03 7.316945648193359375e+01 1.104856777191162109e+01 -4.055912494659423828e-01 9.454385757446289062e+00 2.714638233184814453e+00 7.648327350616455078e-01
3.396000000000000000e+03 5.880942916870117188e+01 -1.833598327636718750e+01 -2.282453298568725586e+00 9.229462742805480957e-01 -4.078520834445953369e-01 2.459576606750488281e+00
3.397000000000000000e+03 2.312650299072265625e+01 -3.619963073730468750e+01 -4.073462449014186859e-03 -3.599342703819274902e-02 -1.202006638050079346e-02 -1.054221838712692261e-01
3.398000000000000000e+03 2.040267372131347656e+01 -3.710374450683593750e+01 1.660733669996261597e-02 -4.100243747234344482e-02 -7.318530231714248657e-03 -6.900265812873840332e-02
3.399000000000000000e+03 7.518898010253906250e+01 -2.735466384887695312e+01 1.033203482627868652e+00 7.488676071166992188e+00 2.556563854217529297e+00 4.721976518630981445e-01
3.400000000000000000e+03 3.018065834045410156e+01 -3.395880889892578125e+01 -3.214765787124633789e-01 4.953313246369361877e-02 -8.158303052186965942e-02 -1.297826468944549561e-01
3.401000000000000000e+03 7.130591583251953125e+01 -3.623120117187500000e+01 -2.597418725490570068e-01 4.932836532592773438e+00 1.401928305625915527e+00 7.449176907539367676e-01
3.402000000000000000e+03 1.005141162872314453e+01 -3.307921981811523438e+01 -6.275945343077182770e-03 -2.297181636095046997e-03 -2.571938093751668930e-03 -6.031646858900785446e-03
3.403000000000000000e+03 3.898899459838867188e+01 1.029220676422119141e+01 2.034504175186157227e+00 8.045712471008300781e+00 3.024065017700195312e+00 -1.090247154235839844e+00
3.404000000000000000e+03 6.360696029663085938e+01 -2.004741096496582031e+01 -1.096375823020935059e+00 1.930688261985778809e+00 2.502937316894531250e-01 2.330817699432373047e+00
3.405000000000000000e+03 3.891271209716796875e+01 1.122971916198730469e+01 1.942842721939086914e+00 8.101390838623046875e+00 3.013270139694213867e+00 -1.096357583999633789e+00
3.406000000000000000e+03 3.905728149414062500e+01 9.352048873901367188e+00 2.002230405807495117e+00 7.938654422760009766e+00 2.982265472412109375e+00 -1.062147855758666992e+00
3.407000000000000000e+03 7.605328369140625000e+01 3.228648376464843750e+01 -2.915457189083099365e-01 9.450988769531250000e+00 2.747832775115966797e+00 5.288603305816650391e-01
3.408000000000000000e+03 7.572309875488281250e+01 3.314966964721679688e+01 -3.107764124870300293e-01 9.258873939514160156e+00 2.684429407119750977e+00 4.388138651847839355e-01
3.409000000000000000e+03 6.537698364257812500e+01 -1.920207786560058594e+01 -1.174647808074951172e+00 1.577879667282104492e+00 1.209695711731910706e-01 1.898352980613708496e+00
3.410000000000000000e+03 7.570960998535156250e+01 -3.186631965637207031e+01 6.725610047578811646e-02 6.847566604614257812e+00 2.074446916580200195e+00 -3.892827332019805908e-01
3.411000000000000000e+03 4.856852722167968750e+01 -1.416290569305419922e+01 -2.357109308242797852e+00 5.128772258758544922e+00 8.314988613128662109e-01 5.326594710350036621e-01
3.412000000000000000e+03 1.008347606658935547e+01 -1.258003234863281250e+01 -3.329017272335477173e-05 -6.080402454244904220e-05 -2.822825808834750205e-05 3.982148882641922683e-06
3.413000000000000000e+03 8.833722114562988281e+00 -1.414568328857421875e+01 -1.165959565696539357e-05 -1.409692777087911963e-04 -4.578865991788916290e-05 5.179413710720837116e-05
3.414000000000000000e+03 8.958982467651367188e+00 6.239348888397216797e+00 -1.316310614347457886e-01 -7.588880658149719238e-01 -2.671557366847991943e-01 8.714852333068847656e-01
3.415000000000000000e+03 4.485424041748046875e+01 3.380544281005859375e+01 -7.436379790306091309e-01 3.360943078994750977e+00 7.851915359497070312e-01 4.549262225627899170e-01
3.416000000000000000e+03 4.228809738159179688e+01 2.911122131347656250e+01 -2.486199289560317993e-01 4.436063766479492188e+00 1.256233096122741699e+00 4.519739449024200439e-01
3.417000000000000000e+03 1.080630874633789062e+01 -3.378233718872070312e+01 -7.253323215991258621e-03 -3.519605612382292747e-03 -3.231878625229001045e-03 -7.241754326969385147e-03
3.418000000000000000e+03 1.267978858947753906e+01 4.813932895660400391e+00 -2.477029711008071899e-01 -1.010604500770568848e+00 -3.774922490119934082e-01 9.548386931419372559e-01
3.419000000000000000e+03 1.154311180114746094e+01 5.248692035675048828e+00 -2.051782608032226562e-01 -9.424420595169067383e-01 -3.442860841751098633e-01 9.525712728500366211e-01
3.420000000000000000e+03 4.833210754394531250e+01 3.680990982055664062e+01 -8.368669152259826660e-01 2.242022991180419922e+00 4.215467870235443115e-01 4.031311273574829102e-01
3.421000000000000000e+03 4.595982742309570312e+01 -2.940314292907714844e+01 1.845993161201477051e+00 7.786935329437255859e+00 2.889878511428833008e+00 -1.095008254051208496e+00
3.422000000000000000e+03 6.918995666503906250e+01 3.766926956176757812e+01 -2.808425128459930420e-01 3.329847097396850586e+00 9.147014021873474121e-01 -2.925846278667449951e-01
3.423000000000000000e+03 4.331497955322265625e+01 -3.606467819213867188e+01 -7.558516263961791992e-01 5.868390560150146484e+00 1.533761620521545410e+00 6.812343597412109375e-01
3.424000000000000000e+03 2.164338874816894531e+01 -3.569549942016601562e+01 -1.886823214590549469e-02 -2.887038327753543854e-02 -1.432158425450325012e-02 -8.192377537488937378e-02
3.425000000000000000e+03 5.220168304443359375e+01 -3.385380554199218750e+01 7.608687281608581543e-01 5.566185474395751953e+00 1.898116230964660645e+00 -6.405570507049560547e-01
3.426000000000000000e+03 5.259107208251953125e+01 -2.893856811523437500e+01 2.330967426300048828e+00 4.956973552703857422e+00 2.186382293701171875e+00 -7.287222743034362793e-01
3.427000000000000000e+03 5.095801162719726562e+01 -3.193715476989746094e+01 1.483919262886047363e+00 5.584431171417236328e+00 2.120505094528198242e+00 -8.758798837661743164e-01
3.428000000000000000e+03 4.559001922607421875e+01 -3.080391883850097656e+01 1.232208132743835449e+00 7.738630771636962891e+00 2.691251516342163086e+00 -8.916017413139343262e-01
3.429000000000000000e+03 2.983744430541992188e+01 -3.569975280761718750e+01 -7.603831589221954346e-02 3.305452689528465271e-02 -1.289513707160949707e-02 -1.564683020114898682e-01
3.430000000000000000e+03 3.478985595703125000e+01 -4.015206909179687500e+01 3.231721222400665283e-01 9.370588064193725586e-01 3.780692815780639648e-01 1.043238341808319092e-01
3.431000000000000000e+03 3.321128082275390625e+01 -3.617923736572265625e+01 1.037383973598480225e-01 1.531195342540740967e-01 7.705738395452499390e-02 -3.705884516239166260e-02
3.432000000000000000e+03 2.503348350524902344e+01 -3.605812072753906250e+01 2.602027030661702156e-03 -3.868612647056579590e-02 -1.082522887736558914e-02 -1.352989524602890015e-01
3.433000000000000000e+03 7.002993106842041016e+00 -4.149206161499023438e+01 3.239226993173360825e-03 -1.155421696603298187e-02 -2.494496991857886314e-03 -1.329109538346529007e-03
3.434000000000000000e+03 4.773014831542968750e+01 -3.884457778930664062e+01 -9.407672286033630371e-01 6.039848804473876953e+00 1.529724478721618652e+00 -1.951907724142074585e-01
3.435000000000000000e+03 2.826847648620605469e+01 -3.733316421508789062e+01 8.539940416812896729e-02 2.077306807041168213e-02 3.185174241662025452e-02 -1.448884606361389160e-01
3.436000000000000000e+03 7.466293334960937500e+01 4.069334411621093750e+01 6.034367531538009644e-02 8.314514160156250000e+00 2.512457370758056641e+00 6.534654647111892700e-02
3.437000000000000000e+03 7.202419281005859375e+01 4.147420883178710938e+01 6.625528633594512939e-02 6.088401317596435547e+00 1.846396923065185547e+00 -7.581424713134765625e-02
3.438000000000000000e+03 5.203898620605468750e+01 -3.566294479370117188e+01 2.330005727708339691e-02 5.628914356231689453e+00 1.695664286613464355e+00 -5.920122265815734863e-01
3.439000000000000000e+03 5.364425659179687500e+01 -3.407111740112304688e+01 6.261709332466125488e-01 5.412052631378173828e+00 1.811467051506042480e+00 -6.073257923126220703e-01
3.440000000000000000e+03 5.340487003326416016e+00 -3.801321792602539062e+01 -1.203889114549383521e-04 -5.154668819159269333e-03 -1.582517288625240326e-03 -2.744486788287758827e-03
3.441000000000000000e+03 3.966329813003540039e+00 -3.828215408325195312e+01 5.472488119266927242e-04 -3.796828910708427429e-03 -9.748740121722221375e-04 -1.857017865404486656e-03
3.442000000000000000e+03 1.053894805908203125e+01 -5.711421012878417969e+00 -7.817038749635685235e-06 4.269844794180244207e-06 -1.064158254848734941e-06 -5.875197985005797818e-06
3.443000000000000000e+03 5.491132259368896484e+00 -8.100523948669433594e+00 7.920199095678981394e-06 -6.780047897336771712e-06 3.420451832880644361e-07 -2.069432639473234303e-06
3.444000000000000000e+03 8.314854621887207031e+00 -5.292317867279052734e+00 -4.012332283309660852e-06 -5.465233243739930913e-06 -2.843269612640142441e-06 -6.415198186005000025e-06
3.445000000000000000e+03 9.855473518371582031e+00 -6.158148765563964844e+00 -9.082943506655283272e-06 -3.403557229830767028e-06 -3.745950380107387900e-06 -3.207424242646084167e-06
3.446000000000000000e+03 5.730025482177734375e+01 -1.911201858520507812e+01 -1.439031958580017090e+00 -3.091028332710266113e-02 -4.409826695919036865e-01 2.074554920196533203e+00
3.447000000000000000e+03 5.757877731323242188e+01 -2.076068115234375000e+01 3.444975912570953369e-01 8.426656723022460938e-01 3.561489880084991455e-01 1.975316166877746582e+00
3.448000000000000000e+03 6.905604553222656250e+01 -1.201616477966308594e+01 7.170331478118896484e-01 5.061630249023437500e+00 1.733599066734313965e+00 6.796799898147583008e-01
3.449000000000000000e+03 1.214246559143066406e+01 -1.241071128845214844e+01 1.106675244955113158e-05 6.927701178938150406e-05 2.410312845313455909e-05 4.473845183383673429e-05
3.450000000000000000e+03 4.616302871704101562e+01 -2.269463157653808594e+01 2.570080995559692383e+00 7.983568668365478516e+00 3.166094779968261719e+00 -1.661477804183959961e+00
3.451000000000000000e+03 4.539667510986328125e+01 -2.239260864257812500e+01 2.787727594375610352e+00 8.981173515319824219e+00 3.530670404434204102e+00 -1.817248702049255371e+00
3.452000000000000000e+03 3.011257171630859375e+01 -1.297811985015869141e+01 -7.567836046218872070e-01 4.904440939426422119e-01 -7.990185916423797607e-02 4.281013011932373047e-01
3.453000000000000000e+03 1.191259098052978516e+01 -6.935840129852294922e+00 -1.089504712581401691e-05 -9.878008313535246998e-06 -6.231916813703719527e-06 -3.547518872437649406e-06
3.454000000000000000e+03 1.288740539550781250e+01 -7.123166561126708984e+00 7.600649496453115717e-06 -5.846919975738273934e-06 5.261188675831363071e-07 8.658266210659348872e-07
3.455000000000000000e+03 1.589156818389892578e+01 -1.032655429840087891e+01 -1.341694678558269516e-05 -4.873557372775394469e-06 -5.487151156557956710e-06 5.991476427880115807e-06
3.456000000000000000e+03 1.586050605773925781e+01 -8.508810043334960938e+00 1.579024683451279998e-05 -2.918374775617849082e-06 3.861561253870604560e-06 3.955664396926295012e-06
3.457000000000000000e+03 1.077812004089355469e+01 -6.488106250762939453e+00 -3.256718400734825991e-06 1.086295742425136268e-05 2.281871729792328551e-06 -7.236633337015518919e-06
3.458000000000000000e+03 3.906587982177734375e+01 7.481279850006103516e+00 1.613434672355651855e+00 7.586501121520996094e+00 2.759980678558349609e+00 -9.852367043495178223e-01
3.459000000000000000e+03 6.678400421142578125e+01 -1.894076919555664062e+01 -1.023138642311096191e+00 1.192993044853210449e+00 5.095632374286651611e-02 1.265680432319641113e+00
3.460000000000000000e+03 6.417642211914062500e+01 -1.999730110168457031e+01 -1.202064514160156250e+00 1.758846163749694824e+00 1.670345067977905273e-01 2.183650255203247070e+00
3.461000000000000000e+03 6.478264617919921875e+01 -1.965983772277832031e+01 -1.262738466262817383e+00 1.640484213829040527e+00 1.133237257599830627e-01 2.067542314529418945e+00
3.462000000000000000e+03 4.558698654174804688e+01 -4.095534324645996094e+00 -2.316901087760925293e-01 5.566099643707275391e+00 1.600322842597961426e+00 -1.460229158401489258e+00
3.463000000000000000e+03 4.525436401367187500e+01 -4.983076572418212891e+00 -4.572544991970062256e-01 5.563528060913085938e+00 1.531882047653198242e+00 -1.265344858169555664e+00
3.464000000000000000e+03 7.613096618652343750e+01 6.243510246276855469e+00 2.116496115922927856e-01 7.614481449127197266e+00 2.347839355468750000e+00 8.635439872741699219e-01
3.465000000000000000e+03 7.334017944335937500e+01 7.048006057739257812e+00 3.164432942867279053e-01 9.859669685363769531e+00 3.052833795547485352e+00 8.990246057510375977e-01
3.466000000000000000e+03 4.234060287475585938e+01 2.491877317428588867e+00 4.552639424800872803e-01 7.059818267822265625e+00 2.254524707794189453e+00 -1.997721195220947266e+00
3.467000000000000000e+03 4.326602172851562500e+01 -1.135571002960205078e+00 -1.135404258966445923e-01 6.110861301422119141e+00 1.799196243286132812e+00 -1.698271155357360840e+00
3.468000000000000000e+03 4.683691024780273438e+01 -9.102517127990722656e+00 -1.058285713195800781e+00 5.304720401763916016e+00 1.273930430412292480e+00 -3.590198755264282227e-01
3.469000000000000000e+03 2.928681564331054688e+01 -1.034971427917480469e+01 -9.403147697448730469e-01 7.685285210609436035e-01 -5.153586342930793762e-02 4.943009614944458008e-01
3.470000000000000000e+03 3.022283935546875000e+01 -1.205074882507324219e+01 -7.976529002189636230e-01 7.083090543746948242e-01 -2.680315822362899780e-02 3.784271180629730225e-01
3.471000000000000000e+03 1.431663703918457031e+01 -7.249981403350830078e+00 -1.036233879858627915e-05 6.784066954423906282e-06 -1.073481712410284672e-06 -4.687248633672425058e-07
3.472000000000000000e+03 1.443094539642333984e+01 -8.080781936645507812e+00 -8.096310921246185899e-06 7.777353857818525285e-06 -9.568728387421288062e-08 1.445392967980296817e-06
3.473000000000000000e+03 4.550661087036132812e+01 -5.706172466278076172e+00 -5.589919686317443848e-01 5.507164478302001953e+00 1.484451770782470703e+00 -1.120983839035034180e+00
3.474000000000000000e+03 7.618508148193359375e+01 1.245203876495361328e+01 -1.266064047813415527e-01 8.146595954895019531e+00 2.405997037887573242e+00 7.785299420356750488e-01
3.475000000000000000e+03 4.317655086517333984e+00 3.027987861633300781e+01 2.415237203240394592e-02 -1.409208774566650391e+00 -4.155169129371643066e-01 -4.035434499382972717e-02
3.476000000000000000e+03 7.614065551757812500e+01 1.323151493072509766e+01 -1.032236963510513306e-01 8.208010673522949219e+00 2.431436300277709961e+00 7.362690567970275879e-01
3.477000000000000000e+03 1.579193210601806641e+01 -9.773915290832519531e+00 7.202701453934423625e-06 1.136947594204684719e-05 5.571653218794381246e-06 -2.967503860418219119e-06
3.478000000000000000e+03 4.738982391357421875e+01 -1.197629547119140625e+01 -1.829132199287414551e+00 5.472757816314697266e+00 1.093087673187255859e+00 2.341156452894210815e-01
3.479000000000000000e+03 4.784800720214843750e+01 -1.047875785827636719e+01 -1.258737921714782715e+00 4.980810642242431641e+00 1.116621851921081543e+00 5.855010822415351868e-02
3.480000000000000000e+03 3.233041381835937500e+01 -1.361205196380615234e+01 -6.431279778480529785e-01 9.355981349945068359e-01 8.774104714393615723e-02 -7.155492901802062988e-02
3.481000000000000000e+03 7.534506988525390625e+01 3.059849166870117188e+01 -2.869153618812561035e-01 8.939655303955078125e+00 2.595822095870971680e+00 7.046115398406982422e-01
3.482000000000000000e+03 6.328530883789062500e+01 -1.923145294189453125e+01 -1.163651466369628906e+00 2.166368961334228516e+00 3.008152246475219727e-01 2.478164434432983398e+00
3.483000000000000000e+03 4.011837005615234375e+00 -3.007251930236816406e+01 -8.010458986973389983e-05 -8.056515798671171069e-05 -4.820092362933792174e-05 9.739419328980147839e-05
3.484000000000000000e+03 4.579684257507324219e+00 -2.859218597412109375e+01 -4.178990202490240335e-04 -8.698926540091633797e-04 -3.863375168293714523e-04 5.556342657655477524e-04
3.485000000000000000e+03 3.937144851684570312e+01 -1.595455932617187500e+01 -5.783550739288330078e-01 5.415083885192871094e+00 1.451018691062927246e+00 -2.660849571228027344e+00
3.486000000000000000e+03 3.892279815673828125e+01 -1.523465633392333984e+01 -7.706556320190429688e-01 4.892001152038574219e+00 1.236403703689575195e+00 -2.422511816024780273e+00
3.487000000000000000e+03 7.558526039123535156e+00 6.436878681182861328e+00 -1.216156184673309326e-01 -6.771539449691772461e-01 -2.396308779716491699e-01 7.915638089179992676e-01
3.488000000000000000e+03 7.554998016357421875e+01 1.161558055877685547e+01 -1.746951192617416382e-01 8.377244949340820312e+00 2.460764884948730469e+00 8.615843653678894043e-01
3.489000000000000000e+03 5.572785854339599609e+00 2.922896194458007812e+01 3.904091566801071167e-02 -1.197469234466552734e+00 -3.475285172462463379e-01 -4.522395879030227661e-02
3.490000000000000000e+03 7.370466613769531250e+01 -3.027162742614746094e+01 6.674034595489501953e-01 7.687858104705810547e+00 2.506578445434570312e+00 7.107068598270416260e-02
3.491000000000000000e+03 7.584926605224609375e+01 -3.040989112854003906e+01 3.897781074047088623e-01 6.938448429107666016e+00 2.198467969894409180e+00 -3.054805696010589600e-01
3.492000000000000000e+03 4.631905746459960938e+01 -7.823401451110839844e+00 -8.212919235229492188e-01 5.372374534606933594e+00 1.365324854850769043e+00 -6.790564656257629395e-01
3.493000000000000000e+03 5.125637817382812500e+01 -1.836104202270507812e+01 -1.496292710304260254e+00 2.917412281036376953e+00 4.263358414173126221e-01 -4.604414403438568115e-01
3.494000000000000000e+03 5.695802688598632812e+00 3.262266921997070312e+01 1.402860600501298904e-02 -1.131544709205627441e+00 -3.352548182010650635e-01 -7.578914612531661987e-02
3.495000000000000000e+03 4.469492340087890625e+01 -5.312916636466979980e-01 2.574413716793060303e-01 6.064306259155273438e+00 1.896524310111999512e+00 -2.032332181930541992e+00
3.496000000000000000e+03 4.404459762573242188e+01 7.677382230758666992e-01 4.005712270736694336e-01 6.402234077453613281e+00 2.040841579437255859e+00 -2.189342260360717773e+00
3.497000000000000000e+03 5.293130493164062500e+01 -2.412293052673339844e+01 2.293008327484130859e+00 3.065731048583984375e+00 1.607621908187866211e+00 -3.494880199432373047e-01
3.498000000000000000e+03 5.420698165893554688e+01 -2.785556602478027344e+01 2.216409444808959961e+00 4.746114730834960938e+00 2.088757276535034180e+00 3.787528723478317261e-02
3.499000000000000000e+03 5.178072452545166016e+00 5.985929489135742188e+00 -1.430038958787918091e-01 -5.071799159049987793e-01 -1.950551420450210571e-01 5.854061245918273926e-01
3.500000000000000000e+03 3.098056411743164062e+01 -1.371752166748046875e+01 -7.180590033531188965e-01 5.539728999137878418e-01 -4.922584444284439087e-02 2.682896256446838379e-01
3.501000000000000000e+03 7.329547882080078125e+01 9.438313484191894531e+00 -1.776993274688720703e-01 9.595988273620605469e+00 2.825486660003662109e+00 9.622148275375366211e-01
3.502000000000000000e+03 7.618667602539062500e+01 1.016219711303710938e+01 -9.582774341106414795e-02 7.969414710998535156e+00 2.362076044082641602e+00 9.123934507369995117e-01
3.503000000000000000e+03 4.132721710205078125e+01 -1.623940086364746094e+01 -1.052965641021728516e+00 7.505152702331542969e+00 1.935656070709228516e+00 -2.145246267318725586e+00
3.504000000000000000e+03 6.760715961456298828e+00 6.889442443847656250e+00 -8.401633054018020630e-02 -6.653336286544799805e-01 -2.248049974441528320e-01 7.296330928802490234e-01
3.505000000000000000e+03 7.169412994384765625e+01 3.164668083190917969e+01 -8.159357309341430664e-01 6.047960281372070312e+00 1.569607377052307129e+00 4.013811647891998291e-01
3.506000000000000000e+03 7.375057983398437500e+01 -3.127369499206542969e+01 2.770828306674957275e-01 7.338968753814697266e+00 2.284815549850463867e+00 2.177562750875949860e-02
3.507000000000000000e+03 6.550684928894042969e+00 5.484023094177246094e+00 -2.216919213533401489e-01 -5.300368070602416992e-01 -2.255186140537261963e-01 6.998703479766845703e-01
3.508000000000000000e+03 4.616409778594970703e+00 8.041499137878417969e+00 -1.956718415021896362e-02 -6.866597533226013184e-01 -2.118680775165557861e-01 5.544108748435974121e-01
3.509000000000000000e+03 4.874625682830810547e+00 -2.968628692626953125e+01 -6.334038916975259781e-04 2.183441101806238294e-04 -1.245179300894960761e-04 3.639808273874223232e-04
3.510000000000000000e+03 4.618980884552001953e+00 6.095652580261230469e+00 -1.175714731216430664e-01 -5.049640536308288574e-01 -1.867606490850448608e-01 5.309962034225463867e-01
3.511000000000000000e+03 6.042346954345703125e+00 -2.811205291748046875e+01 6.832779763499274850e-05 -1.459149934817105532e-04 -2.327616130060050637e-05 4.118321521673351526e-04
3.512000000000000000e+03 7.539057922363281250e+01 -2.849460220336914062e+01 8.877110481262207031e-01 7.253556728363037109e+00 2.442380189895629883e+00 1.073559373617172241e-01
3.513000000000000000e+03 6.964173793792724609e+00 6.271471977233886719e+00 -1.446491777896881104e-01 -6.263276934623718262e-01 -2.312930524349212646e-01 7.443970441818237305e-01
3.514000000000000000e+03 7.541970062255859375e+01 2.987622451782226562e+01 -2.634876370429992676e-01 8.959877014160156250e+00 2.608916759490966797e+00 7.794403433799743652e-01
3.515000000000000000e+03 7.339871978759765625e+01 3.814510583877563477e+00 6.425399184226989746e-01 1.008682441711425781e+01 3.218809366226196289e+00 8.076836466789245605e-01
3.516000000000000000e+03 7.606531524658203125e+01 1.809223747253417969e+01 4.247938469052314758e-02 8.522333145141601562e+00 2.569443941116333008e+00 7.200319766998291016e-01
3.517000000000000000e+03 7.394706726074218750e+01 1.801824569702148438e+01 6.901945918798446655e-02 8.655169486999511719e+00 2.617256641387939453e+00 7.660109996795654297e-01
3.518000000000000000e+03 7.606759643554687500e+01 1.728134727478027344e+01 3.292114660143852234e-02 8.461782455444335938e+00 2.548410892486572266e+00 7.098166942596435547e-01
3.519000000000000000e+03 7.393743896484375000e+01 1.963726997375488281e+01 8.344776928424835205e-02 8.596963882446289062e+00 2.604123353958129883e+00 7.675766348838806152e-01
3.520000000000000000e+03 7.393083953857421875e+01 2.044740676879882812e+01 9.669646620750427246e-02 8.558508872985839844e+00 2.596561431884765625e+00 7.679291367530822754e-01
3.521000000000000000e+03 4.441748809814453125e+01 -4.494831085205078125e+00 -5.169081687927246094e-01 5.673626422882080078e+00 1.547015547752380371e+00 -1.313652157783508301e+00
3.522000000000000000e+03 7.337302398681640625e+01 5.445294380187988281e+00 4.741704165935516357e-01 1.005171871185302734e+01 3.157766819000244141e+00 8.235865235328674316e-01
3.523000000000000000e+03 4.103460693359375000e+01 2.762355422973632812e+01 -1.069390624761581421e-01 4.841522216796875000e+00 1.420374870300292969e+00 3.087912201881408691e-01
3.524000000000000000e+03 4.772974967956542969e+00 2.215362548828125000e+01 8.148494362831115723e-02 -1.330898642539978027e+00 -3.748241066932678223e-01 1.018075421452522278e-01
3.525000000000000000e+03 4.948410034179687500e+00 2.463542175292968750e+01 6.687398254871368408e-02 -1.324312090873718262e+00 -3.772314488887786865e-01 3.828582540154457092e-02
3.526000000000000000e+03 7.608773803710937500e+01 -2.705710983276367188e+01 7.082446813583374023e-01 7.046374320983886719e+00 2.326385736465454102e+00 4.730893969535827637e-01
3.527000000000000000e+03 7.472583007812500000e+01 -2.794668197631835938e+01 1.171243190765380859e+00 7.701603889465332031e+00 2.661854028701782227e+00 3.583559393882751465e-01
3.528000000000000000e+03 7.541527557373046875e+01 2.915263938903808594e+01 -2.005790621042251587e-01 8.933299064636230469e+00 2.619816064834594727e+00 8.434880375862121582e-01
3.529000000000000000e+03 7.556452178955078125e+01 -2.674135971069335938e+01 8.593871593475341797e-01 7.332116127014160156e+00 2.457451105117797852e+00 6.300864219665527344e-01
3.530000000000000000e+03 4.685081005096435547e+00 1.491977977752685547e+01 1.098031327128410339e-01 -1.140943408012390137e+00 -3.093420863151550293e-01 3.728627860546112061e-01
3.531000000000000000e+03 4.031663894653320312e+00 2.062627410888671875e+01 7.172449678182601929e-02 -1.413080096244812012e+00 -4.024066627025604248e-01 1.381258517503738403e-01
3.532000000000000000e+03 4.820026397705078125e+00 2.296216773986816406e+01 7.724120467901229858e-02 -1.334125280380249023e+00 -3.770652413368225098e-01 8.020304143428802490e-02
3.533000000000000000e+03 7.548111438751220703e+00 -3.063734245300292969e+01 -2.461090916767716408e-03 -1.689326134510338306e-03 -1.245125080458819866e-03 9.815608791541308165e-05
3.534000000000000000e+03 7.605372619628906250e+01 2.132480621337890625e+01 7.813860476016998291e-02 8.743270874023437500e+00 2.646422863006591797e+00 7.827434539794921875e-01
3.535000000000000000e+03 7.314809417724609375e+01 2.466153907775878906e+01 1.700898259878158569e-01 7.969316482543945312e+00 2.441822052001953125e+00 7.811746001243591309e-01
3.536000000000000000e+03 7.476966094970703125e+01 -2.389087677001953125e+01 1.322147250175476074e-01 7.719855785369873047e+00 2.355621337890625000e+00 1.136753439903259277e+00
3.537000000000000000e+03 7.605966949462890625e+01 2.212926673889160156e+01 8.537902683019638062e-02 8.794179916381835938e+00 2.663867712020874023e+00 8.025763630867004395e-01
3.538000000000000000e+03 7.536907958984375000e+01 2.372521972656250000e+01 1.034900099039077759e-01 8.700816154479980469e+00 2.641291856765747070e+00 8.817231059074401855e-01
3.539000000000000000e+03 4.133909225463867188e+00 2.730963134765625000e+01 3.145748004317283630e-02 -1.449178099632263184e+00 -4.253161847591400146e-01 -1.227429136633872986e-02
3.540000000000000000e+03 4.665884017944335938e+00 2.770686912536621094e+01 3.263253718614578247e-02 -1.369537711143493652e+00 -4.010715782642364502e-01 -1.847097091376781464e-02
3.541000000000000000e+03 7.402259063720703125e+01 -2.252529525756835938e+01 -7.317950129508972168e-01 7.755053520202636719e+00 2.106977462768554688e+00 9.157649874687194824e-01
3.542000000000000000e+03 7.552206420898437500e+01 -2.502677345275878906e+01 5.186742544174194336e-01 7.443526744842529297e+00 2.388660430908203125e+00 1.009403228759765625e+00
3.543000000000000000e+03 4.946749687194824219e+00 -6.355747222900390625e+00 -1.456335576222045347e-05 -1.802270503503677901e-06 -4.909687959298025817e-06 -1.927544417412718758e-06
3.544000000000000000e+03 7.407753753662109375e+01 2.537834930419921875e+01 8.883190900087356567e-02 8.204562187194824219e+00 2.488018274307250977e+00 9.059697389602661133e-01
3.545000000000000000e+03 7.465537261962890625e+01 -2.689621353149414062e+01 1.107701659202575684e+00 7.808715343475341797e+00 2.674925088882446289e+00 6.287006139755249023e-01
3.546000000000000000e+03 7.534649658203125000e+01 1.968468666076660156e+01 7.467580586671829224e-02 8.613677978515625000e+00 2.606506109237670898e+00 7.806935906410217285e-01
3.547000000000000000e+03 7.634025573730468750e+01 -2.150143623352050781e+01 -4.454440474510192871e-01 7.490741252899169922e+00 2.113589286804199219e+00 7.855388522148132324e-01
3.548000000000000000e+03 7.465799713134765625e+01 -2.191850471496582031e+01 -8.168505430221557617e-01 7.610548496246337891e+00 2.038109302520751953e+00 8.306819200515747070e-01
3.549000000000000000e+03 7.545143890380859375e+01 -7.811131954193115234e+00 6.584433466196060181e-02 6.812244415283203125e+00 2.063426494598388672e+00 -6.189193129539489746e-01
3.550000000000000000e+03 7.549868774414062500e+01 -9.335910797119140625e+00 4.433422163128852844e-02 6.704523563385009766e+00 2.024657249450683594e+00 -6.688777208328247070e-01
3.551000000000000000e+03 7.285321044921875000e+01 -1.992769432067871094e+01 -1.766110658645629883e+00 6.520372867584228516e+00 1.426278710365295410e+00 -4.935468137264251709e-01
3.552000000000000000e+03 7.269248962402343750e+01 -2.081949043273925781e+01 -1.916507005691528320e+00 6.811357975006103516e+00 1.468455314636230469e+00 -2.809209227561950684e-01
3.553000000000000000e+03 7.321704101562500000e+01 1.557811927795410156e+01 5.640473216772079468e-02 8.843319892883300781e+00 2.669917345046997070e+00 6.788106560707092285e-01
3.554000000000000000e+03 7.394543457031250000e+01 1.720924377441406250e+01 6.132292747497558594e-02 8.681617736816406250e+00 2.622882366180419922e+00 7.550143599510192871e-01
3.555000000000000000e+03 7.299997711181640625e+01 -1.275285363197326660e+00 7.257165312767028809e-01 9.491235733032226562e+00 3.065085649490356445e+00 3.089455664157867432e-01
3.556000000000000000e+03 7.352522277832031250e+01 1.318887901306152344e+01 -2.086731195449829102e-01 9.033528327941894531e+00 2.647456407546997070e+00 6.345751285552978516e-01
3.557000000000000000e+03 7.552114105224609375e+01 -2.125933647155761719e+01 -7.486324310302734375e-01 7.544587135314941406e+00 2.038786411285400391e+00 7.171286344528198242e-01
3.558000000000000000e+03 7.605694580078125000e+01 1.564741706848144531e+01 -8.106683380901813507e-03 8.358486175537109375e+00 2.505114078521728516e+00 6.996051073074340820e-01
3.559000000000000000e+03 7.533377075195312500e+01 1.561653995513916016e+01 -7.734088227152824402e-03 8.484801292419433594e+00 2.543119907379150391e+00 7.250070571899414062e-01
3.560000000000000000e+03 7.216279602050781250e+01 -3.645058155059814453e+00 4.571799039840698242e-01 9.121973037719726562e+00 2.873745918273925781e+00 5.154582858085632324e-01
3.561000000000000000e+03 7.653127288818359375e+01 -2.040231895446777344e+01 -5.435498356819152832e-01 7.498359680175781250e+00 2.086442947387695312e+00 5.096456408500671387e-01
3.562000000000000000e+03 7.513840484619140625e+01 -2.171616363525390625e+01 -7.326824665069580078e-01 7.558017730712890625e+00 2.047600507736206055e+00 8.091263771057128906e-01
3.563000000000000000e+03 7.455606079101562500e+01 -3.224186301231384277e-01 6.423918008804321289e-01 8.364891052246093750e+00 2.702184915542602539e+00 9.144214540719985962e-02
3.564000000000000000e+03 7.611660766601562500e+01 -6.908871173858642578e+00 5.727240443229675293e-02 6.683018684387207031e+00 2.022087335586547852e+00 -6.195177435874938965e-01
3.565000000000000000e+03 7.533015441894531250e+01 1.391135406494140625e+01 -9.498933702707290649e-02 8.473975181579589844e+00 2.513695716857910156e+00 7.343865036964416504e-01
3.566000000000000000e+03 7.606460571289062500e+01 1.646587181091308594e+01 1.274267956614494324e-02 8.408102035522460938e+00 2.526253223419189453e+00 6.998394131660461426e-01
3.567000000000000000e+03 7.464912414550781250e+01 1.803970527648925781e+01 6.113805249333381653e-02 8.607655525207519531e+00 2.600638151168823242e+00 7.730129957199096680e-01
3.568000000000000000e+03 7.633448791503906250e+01 -1.963282775878906250e+01 -6.651942729949951172e-01 7.463082313537597656e+00 2.039366483688354492e+00 2.815991640090942383e-01
3.569000000000000000e+03 7.548614501953125000e+01 -1.819644927978515625e+01 -7.472459673881530762e-01 7.097843647003173828e+00 1.905179262161254883e+00 -2.240569591522216797e-01
3.570000000000000000e+03 7.355946350097656250e+01 1.258191490173339844e+01 -2.840904295444488525e-01 9.100612640380859375e+00 2.644956827163696289e+00 6.680876612663269043e-01
3.571000000000000000e+03 7.363634490966796875e+01 1.194005680084228516e+01 -3.374947905540466309e-01 9.177791595458984375e+00 2.652089118957519531e+00 7.318682074546813965e-01
3.572000000000000000e+03 7.599417114257812500e+01 -2.080326843261718750e+01 -6.677165627479553223e-01 7.492992401123046875e+00 2.047582864761352539e+00 5.868979096412658691e-01
3.573000000000000000e+03 7.367355346679687500e+01 -1.678723335266113281e+01 -7.256117463111877441e-01 6.224052429199218750e+00 1.649532198905944824e+00 -7.122356891632080078e-01
3.574000000000000000e+03 7.557713317871093750e+01 -8.355242013931274414e-01 4.481374919414520264e-01 7.435072422027587891e+00 2.364963054656982422e+00 -1.123953387141227722e-01
3.575000000000000000e+03 7.621318054199218750e+01 1.400349259376525879e+00 3.952231705188751221e-01 7.059655666351318359e+00 2.236463546752929688e+00 1.956524699926376343e-01
3.576000000000000000e+03 7.419184875488281250e+01 2.580437660217285156e-01 7.520709633827209473e-01 8.765680313110351562e+00 2.855325460433959961e+00 2.360023111104965210e-01
3.577000000000000000e+03 7.606146240234375000e+01 1.890038681030273438e+01 5.471694469451904297e-02 8.578322410583496094e+00 2.589911937713623047e+00 7.327838540077209473e-01
3.578000000000000000e+03 7.534119415283203125e+01 2.049389648437500000e+01 8.343338221311569214e-02 8.637099266052246094e+00 2.616159915924072266e+00 7.944445610046386719e-01
3.579000000000000000e+03 7.618666839599609375e+01 2.206186532974243164e+00 4.184150695800781250e-01 7.159836292266845703e+00 2.273475408554077148e+00 3.363232016563415527e-01
3.580000000000000000e+03 7.616950225830078125e+01 3.017593383789062500e+00 3.932113647460937500e-01 7.263182640075683594e+00 2.296918153762817383e+00 4.746229052543640137e-01
3.581000000000000000e+03 7.615548706054687500e+01 3.827139139175415039e+00 3.604461252689361572e-01 7.351212024688720703e+00 2.313497304916381836e+00 5.882493853569030762e-01
3.582000000000000000e+03 7.477953338623046875e+01 3.828179597854614258e+00 5.412604212760925293e-01 8.627961158752441406e+00 2.750766515731811523e+00 7.186940312385559082e-01
3.583000000000000000e+03 7.546587371826171875e+01 9.401261329650878906e+00 -7.455052435398101807e-02 8.332033157348632812e+00 2.477244853973388672e+00 9.996848702430725098e-01
3.584000000000000000e+03 7.512677001953125000e+01 -4.060186386108398438e+00 2.281370311975479126e-01 7.344625473022460938e+00 2.271828889846801758e+00 -4.065852463245391846e-01
3.585000000000000000e+03 7.613097381591796875e+01 7.038577079772949219e+00 1.445981115102767944e-01 7.691884040832519531e+00 2.350944757461547852e+00 9.135418534278869629e-01
3.586000000000000000e+03 7.405970001220703125e+01 5.447191238403320312e+00 4.481334686279296875e-01 9.381025314331054688e+00 2.948747634887695312e+00 8.750792145729064941e-01
3.587000000000000000e+03 7.473165130615234375e+01 7.843241691589355469e+00 1.190096735954284668e-01 8.767611503601074219e+00 2.665986299514770508e+00 1.033802032470703125e+00
3.588000000000000000e+03 7.475682067871093750e+01 9.411527633666992188e+00 -9.895706176757812500e-02 8.758028030395507812e+00 2.597721338272094727e+00 1.022274374961853027e+00
3.589000000000000000e+03 7.473366546630859375e+01 7.048318386077880859e+00 2.233464270830154419e-01 8.762381553649902344e+00 2.695718288421630859e+00 9.912185072898864746e-01
3.590000000000000000e+03 7.553812408447265625e+01 1.088228130340576172e+01 -1.651587933301925659e-01 8.363168716430664062e+00 2.459403038024902344e+00 9.121365547180175781e-01
3.591000000000000000e+03 7.421782684326171875e+01 1.091333675384521484e+01 -2.858718633651733398e-01 9.027400970458984375e+00 2.622458696365356445e+00 8.913490176200866699e-01
3.592000000000000000e+03 7.534963226318359375e+01 -6.281935214996337891e+00 9.612850844860076904e-02 6.961565017700195312e+00 2.117308139801025391e+00 -5.558185577392578125e-01
3.593000000000000000e+03 7.616993713378906250e+01 -1.159303760528564453e+01 -2.257406152784824371e-02 6.689476966857910156e+00 2.000070810317993164e+00 -7.174631953239440918e-01
3.594000000000000000e+03 3.983290195465087891e+00 -8.902132034301757812e+00 -9.974658496503252536e-06 4.710164830612484366e-06 -1.579348122504597995e-06 2.265197309725408559e-07
3.595000000000000000e+03 4.782803058624267578e+00 -8.053445816040039062e+00 -1.258468728337902576e-05 7.734349310339894146e-06 -1.455101596548047382e-06 2.236331965832505375e-06
3.596000000000000000e+03 7.541782379150390625e+01 -7.055995464324951172e+00 8.529476821422576904e-02 6.879830360412597656e+00 2.089537620544433594e+00 -5.928132534027099609e-01
3.597000000000000000e+03 7.546942901611328125e+01 -1.319133472442626953e+01 -1.001281663775444031e-01 6.622083187103271484e+00 1.956586480140686035e+00 -7.412915229797363281e-01
3.598000000000000000e+03 7.534452819824218750e+01 -3.186367511749267578e+00 2.645772397518157959e-01 7.316832542419433594e+00 2.274422883987426758e+00 -3.636785149574279785e-01
3.599000000000000000e+03 7.473725891113281250e+01 -7.963640689849853516e+00 9.494179487228393555e-02 6.940184116363525391e+00 2.110537767410278320e+00 -5.491968393325805664e-01
3.600000000000000000e+03 7.553111267089843750e+01 -1.086892890930175781e+01 1.010392699390649796e-02 6.638457298278808594e+00 1.994568347930908203e+00 -7.097412943840026855e-01
3.601000000000000000e+03 7.084433746337890625e+01 -8.924743652343750000e+00 4.348666369915008545e-01 6.795560359954833984e+00 2.169127941131591797e+00 5.280487537384033203e-01
3.602000000000000000e+03 7.612075042724609375e+01 -1.559787464141845703e+01 -2.948330640792846680e-01 6.944993495941162109e+00 1.995048165321350098e+00 -5.753727555274963379e-01
3.603000000000000000e+03 7.541060638427734375e+01 -1.733481216430664062e+01 -6.560885310173034668e-01 6.946070671081542969e+00 1.886994600296020508e+00 -4.153354167938232422e-01
3.604000000000000000e+03 7.395951843261718750e+01 2.933425712585449219e+01 -3.571554124355316162e-01 7.956266403198242188e+00 2.279733180999755859e+00 8.375604152679443359e-01
3.605000000000000000e+03 7.545105743408203125e+01 -1.398935413360595703e+01 -1.779666095972061157e-01 6.649285316467285156e+00 1.941395640373229980e+00 -7.217907905578613281e-01
3.606000000000000000e+03 7.581072998046875000e+01 -2.564201354980468750e+01 6.303981542587280273e-01 7.269657135009765625e+00 2.370016574859619141e+00 8.801745772361755371e-01
3.607000000000000000e+03 7.614276123046875000e+01 2.608226394653320312e+01 7.720534689724445343e-03 9.108737945556640625e+00 2.734937429428100586e+00 8.994644284248352051e-01
3.608000000000000000e+03 7.300743103027343750e+01 2.558765792846679688e+01 1.201159358024597168e-01 7.783155441284179688e+00 2.370981454849243164e+00 7.995004653930664062e-01
3.609000000000000000e+03 7.543865966796875000e+01 -1.479995441436767578e+01 -2.591390311717987061e-01 6.690204620361328125e+00 1.929319620132446289e+00 -6.917101740837097168e-01
3.610000000000000000e+03 4.912949085235595703e+00 -5.544520854949951172e+00 1.135035199695266783e-05 -2.005533360716071911e-06 2.803445795507286675e-06 4.899211489828303456e-07
3.611000000000000000e+03 7.540658569335937500e+01 2.839924812316894531e+01 -1.507984548807144165e-01 8.898636817932128906e+00 2.624351501464843750e+00 8.894462585449218750e-01
3.612000000000000000e+03 7.544249725341796875e+01 2.683574295043945312e+01 -3.636132180690765381e-02 8.818906784057617188e+00 2.634763717651367188e+00 9.442107677459716797e-01
3.613000000000000000e+03 4.698133468627929688e+00 1.574934387207031250e+01 1.093341112136840820e-01 -1.177887916564941406e+00 -3.205661475658416748e-01 3.377600312232971191e-01
3.614000000000000000e+03 7.280345916748046875e+01 2.648822212219238281e+01 3.046203032135963440e-02 7.542189598083496094e+00 2.271795511245727539e+00 8.047427535057067871e-01
3.615000000000000000e+03 3.231454372406005859e+00 6.358767509460449219e+00 -6.419760733842849731e-02 -4.857391715049743652e-01 -1.649810373783111572e-01 3.947254121303558350e-01
3.616000000000000000e+03 4.495498657226562500e+00 -3.397464752197265625e+01 -9.735587518662214279e-04 -1.762743573635816574e-03 -8.208907092921435833e-04 -1.180821098387241364e-03
3.617000000000000000e+03 8.410210609436035156e+00 -3.173145675659179688e+01 -3.514047013595700264e-03 -2.755920635536313057e-03 -1.880990341305732727e-03 -1.622420269995927811e-03
3.618000000000000000e+03 3.788212776184082031e+00 -2.279609870910644531e+01 3.455067926552146673e-04 -3.480188897810876369e-04 -7.536258976870158222e-07 1.693402446107938886e-04
3.619000000000000000e+03 5.108011722564697266e+00 9.748838424682617188e+00 5.244742333889007568e-02 -8.263480067253112793e-01 -2.321701794862747192e-01 5.781338810920715332e-01
3.620000000000000000e+03 3.526047229766845703e+00 -2.387368583679199219e+01 3.644475364126265049e-04 3.203609376214444637e-04 2.054425422102212906e-04 2.583211462479084730e-04
3.621000000000000000e+03 5.270706176757812500e+00 -2.273513793945312500e+01 2.991314613609574735e-05 6.965602515265345573e-04 2.179420116590335965e-04 4.500687282416038215e-05
3.622000000000000000e+03 3.994263887405395508e+00 -2.117433547973632812e+01 -5.856543066329322755e-05 -3.773308344534598291e-05 -2.888955350499600172e-05 2.314023004146292806e-04
3.623000000000000000e+03 3.890947103500366211e+00 -1.141625404357910156e+01 2.411975765426177531e-05 -1.635802436794620007e-05 2.328520167793612927e-06 9.439479981665499508e-06
3.624000000000000000e+03 5.299020767211914062e+00 -9.675809860229492188e+00 1.644807707634754479e-05 1.453137610951671377e-05 9.293835319112986326e-06 1.344602605968248099e-05
3.625000000000000000e+03 3.976613759994506836e+00 7.140002727508544922e+00 -5.574758723378181458e-02 -5.847039818763732910e-01 -1.921354681253433228e-01 4.914544522762298584e-01
3.626000000000000000e+03 4.884216308593750000e+00 -2.335140609741210938e+01 7.317843846976757050e-05 -6.822072900831699371e-04 -1.827086525736376643e-04 1.695740138529799879e-05
3.627000000000000000e+03 3.859827995300292969e+00 -1.852890968322753906e+01 -9.588249668013304472e-05 -3.173335062456317246e-05 -3.828475382761098444e-05 -2.078490251733455807e-05
3.628000000000000000e+03 6.280290222167968750e+01 -1.839782905578613281e+01 -1.224288582801818848e+00 2.347982645034790039e+00 3.371082246303558350e-01 2.483419656753540039e+00
3.629000000000000000e+03 5.281903266906738281e+00 -1.677363204956054688e+01 -5.502589374373201281e-06 -2.343016967643052340e-04 -7.194128556875512004e-05 -7.873825234128162265e-05
3.630000000000000000e+03 5.026170253753662109e+00 -2.442380714416503906e+01 -1.641713461140170693e-04 -5.998031119816005230e-04 -2.291923447046428919e-04 -6.092871990404091775e-05
3.631000000000000000e+03 4.819098472595214844e+00 -1.729031181335449219e+01 -8.260067261289805174e-06 2.683993661776185036e-04 7.804179040249437094e-05 4.910255665890872478e-05
3.632000000000000000e+03 4.664385795593261719e+00 1.410411262512207031e+01 1.039023175835609436e-01 -1.104682564735412598e+00 -3.002340793609619141e-01 4.014435112476348877e-01
3.633000000000000000e+03 3.839962720870971680e+00 1.178957557678222656e+01 5.807737633585929871e-02 -9.981970191001892090e-01 -2.820358872413635254e-01 4.275260567665100098e-01
3.634000000000000000e+03 4.203617095947265625e+00 -2.683040237426757812e+01 6.454773829318583012e-04 -2.649156376719474792e-04 1.141685206675902009e-04 2.359130303375422955e-04
3.635000000000000000e+03 5.208227157592773438e+00 -2.548077392578125000e+01 -1.025057499646209180e-04 -7.215974037535488605e-04 -2.472309570293873549e-04 -1.541460551379714161e-05
3.636000000000000000e+03 3.911631107330322266e+00 -1.998778152465820312e+01 -1.250178902409970760e-04 -2.018266968661919236e-04 -9.805337322177365422e-05 4.250434358255006373e-05
3.637000000000000000e+03 5.469278335571289062e+00 -1.954096984863281250e+01 1.958349457709118724e-04 2.756775065790861845e-04 1.414537400705739856e-04 -1.085755502572283149e-05
3.638000000000000000e+03 3.887555122375488281e+00 -1.469077205657958984e+01 6.829798076068982482e-05 -2.194798980781342834e-05 1.390499710396397859e-05 2.330379720660857856e-05
3.639000000000000000e+03 3.966977357864379883e+00 6.281372547149658203e+00 -8.691734820604324341e-02 -4.987098574638366699e-01 -1.756881624460220337e-01 4.681923091411590576e-01
3.640000000000000000e+03 4.012913703918457031e+00 1.905388641357421875e+01 7.743029296398162842e-02 -1.374742031097412109e+00 -3.891935050487518311e-01 1.882489025592803955e-01
3.641000000000000000e+03 4.774731159210205078e+00 1.898181152343750000e+01 1.054973155260086060e-01 -1.276606321334838867e+00 -3.513326942920684814e-01 2.117851525545120239e-01
3.642000000000000000e+03 4.566774368286132812e+00 -1.458293342590332031e+01 -7.702095899730920792e-05 -3.837467738776467741e-05 -3.461868982412852347e-05 -9.134827996604144573e-05
3.643000000000000000e+03 4.457972526550292969e+00 -1.575344371795654297e+01 1.861410055425949395e-05 -1.395437575411051512e-04 -3.627889964263886213e-05 -5.797934863949194551e-05
3.644000000000000000e+03 4.886468887329101562e+00 -1.524175930023193359e+01 5.048464663559570909e-05 1.371608086628839374e-04 5.629363295156508684e-05 9.136462904280051589e-05
3.645000000000000000e+03 4.520791053771972656e+00 -1.378554534912109375e+01 5.759994746767915785e-05 -8.874032573658041656e-06 1.461777355871163309e-05 5.589919965132139623e-05
3.646000000000000000e+03 5.885316371917724609e+00 -2.688623809814453125e+01 4.362479667179286480e-04 3.137318708468228579e-04 2.249939570901915431e-04 -2.112166403094306588e-04
3.647000000000000000e+03 4.708671092987060547e+00 1.658278465270996094e+01 1.096634417772293091e-01 -1.208609223365783691e+00 -3.296837508678436279e-01 3.070186972618103027e-01
3.648000000000000000e+03 4.714007854461669922e+00 1.740457344055175781e+01 1.113654375076293945e-01 -1.237853527069091797e+00 -3.379464149475097656e-01 2.728438973426818848e-01
3.649000000000000000e+03 1.406486320495605469e+01 -1.123960590362548828e+01 3.314573768875561655e-05 1.414753751305397600e-05 1.418798274244181812e-05 2.245895666419528425e-05
3.650000000000000000e+03 4.223035335540771484e+00 2.559056472778320312e+01 4.437233880162239075e-02 -1.438659548759460449e+00 -4.182861447334289551e-01 1.623791269958019257e-02
3.651000000000000000e+03 5.584176063537597656e+00 2.807358551025390625e+01 4.341728240251541138e-02 -1.218366503715515137e+00 -3.524847626686096191e-01 -2.823253162205219269e-02
3.652000000000000000e+03 4.882735729217529297e+00 -2.798635482788085938e+01 3.394125960767269135e-04 9.556769509799778461e-05 1.304940815316513181e-04 1.726260961731895804e-04
3.653000000000000000e+03 4.776691913604736328e+00 2.054757308959960938e+01 9.886769950389862061e-02 -1.310567736625671387e+00 -3.635100126266479492e-01 1.545540243387222290e-01
3.654000000000000000e+03 4.499689102172851562e+00 -1.300306129455566406e+01 -4.105945117771625519e-05 -1.191507726616691798e-05 -1.589235762367025018e-05 -2.920532642747275531e-05
3.655000000000000000e+03 7.511508178710937500e+01 -3.347233200073242188e+01 -1.951856315135955811e-01 6.676940441131591797e+00 1.944526433944702148e+00 -2.463449835777282715e-01
3.656000000000000000e+03 4.532787322998046875e+00 1.163225650787353516e+01 8.092034608125686646e-02 -9.645554423332214355e-01 -2.650905251502990723e-01 4.838976562023162842e-01
3.657000000000000000e+03 4.647635459899902344e+00 -1.057941913604736328e+01 1.955801417352631688e-05 8.929390787670854479e-06 8.546221579308621585e-06 1.851689012255519629e-05
3.658000000000000000e+03 4.328835487365722656e+00 1.029064464569091797e+01 4.835377261042594910e-02 -8.687779307365417480e-01 -2.461272478103637695e-01 5.054175853729248047e-01
3.659000000000000000e+03 4.380256652832031250e+00 1.091295337677001953e+01 6.402055919170379639e-02 -9.171427488327026367e-01 -2.559366524219512939e-01 4.954185783863067627e-01
3.660000000000000000e+03 5.408913612365722656e+00 1.568777465820312500e+01 1.420129090547561646e-01 -1.118121027946472168e+00 -2.928324341773986816e-01 3.675231933593750000e-01
3.661000000000000000e+03 7.432106018066406250e+01 -3.143934249877929688e+01 1.929803192615509033e-01 7.195598602294921875e+00 2.216573715209960938e+00 -1.539012640714645386e-01
3.662000000000000000e+03 6.705374145507812500e+01 -1.377135848999023438e+01 8.475088477134704590e-01 3.735412359237670898e+00 1.374876379966735840e+00 1.055677771568298340e+00
3.663000000000000000e+03 7.515722656250000000e+01 3.394673538208007812e+01 -3.786874711513519287e-01 8.739558219909667969e+00 2.508261203765869141e+00 3.349700868129730225e-01
3.664000000000000000e+03 5.092467308044433594e+00 2.643037796020507812e+01 5.148530006408691406e-02 -1.304370164871215820e+00 -3.758654594421386719e-01 1.073771622031927109e-03
3.665000000000000000e+03 7.412691497802734375e+01 -3.413844299316406250e+01 -3.153342604637145996e-01 6.491755485534667969e+00 1.852926373481750488e+00 3.618735121563076973e-03
3.666000000000000000e+03 7.539940643310546875e+01 -3.453660583496093750e+01 -2.381586283445358276e-01 6.521358966827392578e+00 1.884960055351257324e+00 -2.274838536977767944e-01
3.667000000000000000e+03 7.499369049072265625e+01 -3.159053421020507812e+01 1.502143889665603638e-01 7.019351482391357422e+00 2.150869607925415039e+00 -2.815800011157989502e-01
3.668000000000000000e+03 5.531444549560546875e+00 2.285586929321289062e+01 9.821282327175140381e-02 -1.229532837867736816e+00 -3.393959999084472656e-01 8.620022237300872803e-02
3.669000000000000000e+03 4.633480072021484375e+01 -2.567255592346191406e+01 2.455046176910400391e+00 8.242099761962890625e+00 3.209143638610839844e+00 -1.671560287475585938e+00
3.670000000000000000e+03 7.303210449218750000e+01 3.303849029541015625e+01 -6.296866536140441895e-01 7.083177566528320312e+00 1.936047315597534180e+00 3.283729255199432373e-01
3.671000000000000000e+03 7.530550956726074219e+00 -3.282476043701171875e+01 -3.228708636015653610e-03 -3.186259884387254715e-03 -1.924490556120872498e-03 -2.116895513609051704e-03
3.672000000000000000e+03 5.650610923767089844e+00 -1.842826080322265625e+01 1.130650634877383709e-04 2.669501118361949921e-04 1.140045496867969632e-04 3.878537245327606797e-05
3.673000000000000000e+03 1.334016704559326172e+01 -1.102401161193847656e+01 -2.944622792711015791e-05 -1.338547644991194829e-05 -1.284951122215716168e-05 -9.200151907862164080e-06
3.674000000000000000e+03 5.840522289276123047e+00 3.156767654418945312e+01 2.604978717863559723e-02 -1.115316748619079590e+00 -3.267800807952880859e-01 -6.878785043954849243e-02
3.675000000000000000e+03 4.402545928955078125e+00 3.180900192260742188e+01 4.955380689352750778e-03 -1.378043055534362793e+00 -4.119262993335723877e-01 -5.911627784371376038e-02
3.676000000000000000e+03 5.353544616699218750e+01 -2.740986061096191406e+01 2.405974388122558594e+00 4.449489116668701172e+00 2.056638956069946289e+00 -1.912570893764495850e-01
3.677000000000000000e+03 6.309613704681396484e+00 -6.022081375122070312e+00 1.259055238733708393e-06 -9.705610864330083132e-06 -2.533966608098126017e-06 -4.179469215159770101e-06
3.678000000000000000e+03 5.679393291473388672e+00 -6.153795719146728516e+00 1.545480336062610149e-05 1.587173028383404016e-05 9.397959729540161788e-06 1.321848503721412271e-05
3.679000000000000000e+03 4.366724777221679688e+01 -1.675278991460800171e-01 1.393656283617019653e-01 6.256845474243164062e+00 1.918863296508789062e+00 -1.931921839714050293e+00
3.680000000000000000e+03 4.151946544647216797e+00 -5.627476692199707031e+00 -6.030852091498672962e-06 1.613365157027146779e-06 -1.325246103078825399e-06 3.095993406532215886e-06
3.681000000000000000e+03 3.412958908081054688e+01 -1.447789955139160156e+01 -5.144966244697570801e-01 1.224249482154846191e+00 2.129258513450622559e-01 -6.159836053848266602e-01
3.682000000000000000e+03 4.466616153717041016e+00 -3.565213394165039062e+01 -8.252875995822250843e-04 -2.252576872706413269e-03 -9.233593591488897800e-04 -2.045658649876713753e-03
3.683000000000000000e+03 6.546933650970458984e+00 -3.273363113403320312e+01 -1.997527666389942169e-03 -8.346275426447391510e-04 -8.496465743519365788e-04 -1.949819619767367840e-03
3.684000000000000000e+03 7.319678497314453125e+01 2.288974380493164062e+01 1.697530001401901245e-01 8.241249084472656250e+00 2.523300647735595703e+00 7.174285054206848145e-01
3.685000000000000000e+03 7.321117401123046875e+01 2.205818176269531250e+01 1.457897871732711792e-01 8.350478172302246094e+00 2.548880338668823242e+00 7.057402729988098145e-01
3.686000000000000000e+03 7.479492950439453125e+01 -3.029455375671386719e+01 5.305992364883422852e-01 7.283849716186523438e+00 2.344334602355957031e+00 -1.827097982168197632e-01
3.687000000000000000e+03 7.424153137207031250e+01 -2.968285560607910156e+01 8.247859477996826172e-01 7.633475303649902344e+00 2.537478446960449219e+00 2.322999387979507446e-02
3.688000000000000000e+03 8.712628364562988281e+00 -3.103120040893554688e+01 -2.353793475776910782e-03 -1.004874473437666893e-03 -1.007600454613566399e-03 -5.100670969113707542e-04
3.689000000000000000e+03 7.430710315704345703e+00 -2.977901077270507812e+01 -6.961118779145181179e-04 1.903811062220484018e-04 -1.517192431492730975e-04 -8.847179124131798744e-04
3.690000000000000000e+03 4.744846343994140625e+01 -1.271848201751708984e+01 -2.013721227645874023e+00 5.571625709533691406e+00 1.067371368408203125e+00 3.285674750804901123e-01
3.691000000000000000e+03 4.728036117553710938e+01 -1.122845840454101562e+01 -1.630412697792053223e+00 5.372267723083496094e+00 1.122556567192077637e+00 1.433902829885482788e-01
3.692000000000000000e+03 7.418434906005859375e+01 3.469136428833007812e+01 -4.617141187191009521e-01 7.875380992889404297e+00 2.224100112915039062e+00 2.424428462982177734e-01
3.693000000000000000e+03 5.848535060882568359e+00 -3.430625152587890625e+01 -1.282748416997492313e-03 -2.469086088240146637e-03 -1.125550363212823868e-03 -1.954309642314910889e-03
3.694000000000000000e+03 7.248998260498046875e+01 -8.899913787841796875e+00 2.216266244649887085e-01 6.929246902465820312e+00 2.145262002944946289e+00 -7.440065592527389526e-02
3.695000000000000000e+03 6.981308746337890625e+01 -9.353690147399902344e+00 6.218264102935791016e-01 6.421714305877685547e+00 2.113062143325805664e+00 9.299542903900146484e-01
3.696000000000000000e+03 1.774727058410644531e+01 3.727712392807006836e+00 -1.445724666118621826e-01 -9.279487729072570801e-01 -3.217563629150390625e-01 7.086898088455200195e-01
3.697000000000000000e+03 1.583084011077880859e+01 -1.080377578735351562e+01 1.878525290521793067e-05 1.000267639028606936e-05 8.636378879600670189e-06 7.507286227337317541e-06
3.698000000000000000e+03 4.699843978881835938e+01 -9.779759407043457031e+00 -1.231858134269714355e+00 5.297092437744140625e+00 1.219570279121398926e+00 -1.755111664533615112e-01
3.699000000000000000e+03 7.105827331542968750e+01 3.417855834960937500e+01 -8.102700114250183105e-01 5.092733383178710938e+00 1.284739017486572266e+00 -4.151290748268365860e-03
3.700000000000000000e+03 5.822230911254882812e+01 -2.104938316345214844e+01 3.885408341884613037e-01 1.231226563453674316e+00 4.859302341938018799e-01 2.170036554336547852e+00
3.701000000000000000e+03 5.797233963012695312e+01 -1.930346488952636719e+01 -1.198920011520385742e+00 4.918757975101470947e-01 -2.121132612228393555e-01 2.321279287338256836e+00
3.702000000000000000e+03 7.127732086181640625e+01 -8.073929786682128906e+00 3.592003881931304932e-01 7.218002319335937500e+00 2.273160696029663086e+00 4.669997394084930420e-01
3.703000000000000000e+03 3.996561050415039062e+01 7.343852519989013672e+00 1.563910365104675293e+00 8.287278175354003906e+00 2.955356597900390625e+00 -1.265441894531250000e+00
3.704000000000000000e+03 2.688477706909179688e+01 -7.297975063323974609e+00 -1.195839166641235352e+00 3.741658926010131836e-01 -2.465019971132278442e-01 6.816252470016479492e-01
3.705000000000000000e+03 2.856958580017089844e+01 -6.022910594940185547e+00 -1.034739494323730469e+00 1.210544347763061523e+00 5.274144932627677917e-02 3.548211753368377686e-01
3.706000000000000000e+03 3.052486038208007812e+01 -1.338042736053466797e+01 -7.317679524421691895e-01 5.256648063659667969e-01 -6.183094903826713562e-02 3.603172302246093750e-01
3.707000000000000000e+03 3.179691696166992188e+01 -1.341071796417236328e+01 -6.806293725967407227e-01 8.329246044158935547e-01 4.568856582045555115e-02 5.480873212218284607e-02
3.708000000000000000e+03 6.362528610229492188e+01 -1.767125129699707031e+01 -9.335150718688964844e-01 2.415529489517211914e+00 4.446043074131011963e-01 2.192377567291259766e+00
3.709000000000000000e+03 7.549846649169921875e+01 -2.380796194076538086e+00 3.163892030715942383e-01 7.303668975830078125e+00 2.286017417907714844e+00 -2.947507798671722412e-01
3.710000000000000000e+03 7.417896270751953125e+01 -2.641695594787597656e+01 1.183318138122558594e+00 8.145656585693359375e+00 2.798692464828491211e+00 7.186009883880615234e-01
3.711000000000000000e+03 5.778990936279296875e+01 -2.163393402099609375e+01 1.042305469512939453e+00 1.284731030464172363e+00 6.981109976768493652e-01 1.903172016143798828e+00
3.712000000000000000e+03 5.946191406250000000e+01 -1.994213294982910156e+01 -7.043974995613098145e-01 1.618339300155639648e+00 2.741825282573699951e-01 2.589059352874755859e+00
3.713000000000000000e+03 6.981220245361328125e+00 -6.072251319885253906e+00 9.316142495663370937e-06 4.200296643830370158e-06 4.054931650898652151e-06 1.610801859897037502e-06
3.714000000000000000e+03 7.640179157257080078e+00 -5.982414245605468750e+00 -1.228241762873949483e-05 -1.627530946279875934e-05 -8.567318218410946429e-06 -1.342375253443606198e-05
3.715000000000000000e+03 6.136437416076660156e+00 -2.082000160217285156e+01 1.023102668114006519e-04 3.264956176280975342e-04 1.286417682422325015e-04 7.402724440908059478e-05
3.716000000000000000e+03 5.860966205596923828e+00 -2.015567016601562500e+01 -1.182175183203071356e-04 -3.412899677641689777e-04 -1.378522429149597883e-04 4.688107219408266246e-05
3.717000000000000000e+03 2.296464157104492188e+01 -1.150008082389831543e+00 -8.428068161010742188e-01 -3.103235065937042236e-01 -3.459390997886657715e-01 5.982459187507629395e-01
3.718000000000000000e+03 6.303357124328613281e+00 -2.214597702026367188e+01 3.734618076123297215e-05 1.308660575887188315e-04 5.046367368777282536e-05 1.745578629197552800e-04
3.719000000000000000e+03 4.409914779663085938e+01 -1.920120429992675781e+01 6.529632210731506348e-01 9.433650016784667969e+00 3.025984048843383789e+00 -1.108219861984252930e+00
3.720000000000000000e+03 7.165297698974609375e+01 -7.200668811798095703e+00 3.418188095092773438e-01 7.569282054901123047e+00 2.373330354690551758e+00 4.086607694625854492e-01
3.721000000000000000e+03 4.436243438720703125e+01 -1.845390510559082031e+01 -2.075060829520225525e-02 8.807840347290039062e+00 2.636126995086669922e+00 -9.185727238655090332e-01
3.722000000000000000e+03 3.983465957641601562e+01 1.927217674255371094e+01 7.411191463470458984e-01 7.215258121490478516e+00 2.386913299560546875e+00 2.481691241264343262e-01
3.723000000000000000e+03 4.640725708007812500e+01 -2.433156394958496094e+01 2.604016304016113281e+00 8.006210327148437500e+00 3.183068037033081055e+00 -1.815829634666442871e+00
3.724000000000000000e+03 8.150022506713867188e+00 6.642673492431640625e+00 -9.114180505275726318e-02 -7.254396080970764160e-01 -2.449744194746017456e-01 8.206886053085327148e-01
3.725000000000000000e+03 8.058381080627441406e+00 -1.543974018096923828e+01 -3.101938273175619543e-05 -3.967751763411797583e-05 -2.120906901836860925e-05 8.624133624834939837e-05
3.726000000000000000e+03 7.347881317138671875e+01 -2.468585968017578125e+01 6.427694559097290039e-01 8.512199401855468750e+00 2.746490716934204102e+00 8.723512887954711914e-01
3.727000000000000000e+03 7.495288848876953125e+01 -2.517167282104492188e+01 6.438285112380981445e-01 7.608245849609375000e+00 2.475622177124023438e+00 1.007653355598449707e+00
3.728000000000000000e+03 3.692523193359375000e+01 -1.486824607849121094e+01 -4.241186976432800293e-01 2.700456380844116211e+00 6.829013228416442871e-01 -1.817908167839050293e+00
3.729000000000000000e+03 3.455557250976562500e+01 -1.383911705017089844e+01 -5.398561954498291016e-01 1.644108295440673828e+00 3.312756419181823730e-01 -7.912551760673522949e-01
3.730000000000000000e+03 5.925170135498046875e+01 -1.863718223571777344e+01 -1.857015013694763184e+00 1.284224271774291992e+00 -1.718372553586959839e-01 2.628525018692016602e+00
3.731000000000000000e+03 1.553982830047607422e+01 3.428745031356811523e+00 -3.895998299121856689e-01 -1.111076593399047852e+00 -4.502029418945312500e-01 9.066970348358154297e-01
3.732000000000000000e+03 1.471598148345947266e+01 -1.140710353851318359e+01 -2.332704934815410525e-05 -1.948390854522585869e-05 -1.284328754991292953e-05 -3.144453148706816137e-05
3.733000000000000000e+03 1.514538764953613281e+01 -9.857776641845703125e+00 -1.543455596220155712e-06 -2.336502075195312500e-05 -7.472542620234889910e-06 -7.144218216126319021e-06
3.734000000000000000e+03 7.484265136718750000e+01 -9.453818321228027344e+00 6.750655919313430786e-02 6.739303588867187500e+00 2.042042970657348633e+00 -6.242074370384216309e-01
3.735000000000000000e+03 7.159734344482421875e+01 -5.258366584777832031e+00 3.913204073905944824e-01 8.506773948669433594e+00 2.669428348541259766e+00 6.463668346405029297e-01
3.736000000000000000e+03 4.964406204223632812e+01 -1.648357200622558594e+01 -2.240621805191040039e+00 4.561317920684814453e+00 6.962087750434875488e-01 9.772282093763351440e-02
3.737000000000000000e+03 4.055438232421875000e+01 6.317317962646484375e+00 1.264259934425354004e+00 8.190031051635742188e+00 2.836287260055541992e+00 -1.461521506309509277e+00
3.738000000000000000e+03 7.372156524658203125e+01 -5.135964870452880859e+00 2.231920808553695679e-01 7.822627544403076172e+00 2.413745880126953125e+00 -1.878992319107055664e-01
3.739000000000000000e+03 5.458971786499023438e+01 -2.590369796752929688e+01 2.503377914428710938e+00 3.506149530410766602e+00 1.802858233451843262e+00 5.453100800514221191e-01
3.740000000000000000e+03 6.857587432861328125e+01 -1.271732902526855469e+01 7.243589162826538086e-01 4.634799957275390625e+00 1.607747554779052734e+00 7.130247950553894043e-01
3.741000000000000000e+03 7.540283203125000000e+01 2.451305961608886719e+01 9.065060317516326904e-02 8.725725173950195312e+00 2.644912719726562500e+00 9.029394388198852539e-01
3.742000000000000000e+03 6.730200290679931641e+00 -2.977653884887695312e+01 -1.141106593422591686e-03 -1.432148041203618050e-03 -7.719763671047985554e-04 6.133620045147836208e-04
3.743000000000000000e+03 6.211032390594482422e+00 -3.071901321411132812e+01 -1.042190822772681713e-03 -1.163393142633140087e-03 -6.616751779802143574e-04 4.824816132895648479e-04
3.744000000000000000e+03 5.363410472869873047e+00 -1.574360179901123047e+01 -4.595394784701056778e-06 -1.950828445842489600e-04 -5.990347199258394539e-05 -8.526440069545060396e-05
3.745000000000000000e+03 2.595676231384277344e+01 -5.841423034667968750e+00 -1.226259112358093262e+00 2.036988884210586548e-01 -3.067680597305297852e-01 6.891798377037048340e-01
3.746000000000000000e+03 2.648579788208007812e+01 -5.379363059997558594e+00 -1.147679805755615234e+00 4.768636226654052734e-01 -2.012448608875274658e-01 5.747714042663574219e-01
3.747000000000000000e+03 4.135155105590820312e+01 2.800316095352172852e+00 4.218124449253082275e-01 7.068809986114501953e+00 2.247186660766601562e+00 -1.683418989181518555e+00
3.748000000000000000e+03 7.558844757080078125e+01 -1.609843611717224121e+00 3.636502921581268311e-01 7.336328506469726562e+00 2.309993743896484375e+00 -2.184172719717025757e-01
3.749000000000000000e+03 7.333826446533203125e+01 -2.174191856384277344e+01 -1.366258740425109863e+00 7.503525733947753906e+00 1.841180086135864258e+00 4.516287446022033691e-01
3.750000000000000000e+03 1.983805084228515625e+01 6.277208924293518066e-01 -7.463378310203552246e-01 -9.278573393821716309e-01 -5.022585391998291016e-01 7.822586297988891602e-01
3.751000000000000000e+03 1.733234786987304688e+01 3.169047355651855469e+00 -3.104417622089385986e-01 -1.024423122406005859e+00 -4.004594683647155762e-01 7.912079095840454102e-01
3.752000000000000000e+03 7.195140838623046875e+01 -6.329238414764404297e+00 3.097005486488342285e-01 7.918160438537597656e+00 2.468358278274536133e+00 3.613911867141723633e-01
3.753000000000000000e+03 7.222764587402343750e+01 -5.487629413604736328e+00 3.279094099998474121e-01 8.229000091552734375e+00 2.567072868347167969e+00 3.204579949378967285e-01
3.754000000000000000e+03 3.880063629150390625e+01 1.312345314025878906e+01 1.554821610450744629e+00 8.087052345275878906e+00 2.892562150955200195e+00 -9.002708792686462402e-01
3.755000000000000000e+03 2.896784210205078125e+01 -9.697849273681640625e+00 -9.988708496093750000e-01 7.770285606384277344e-01 -6.655268371105194092e-02 5.135391950607299805e-01
3.756000000000000000e+03 2.825108528137207031e+01 -8.312412261962890625e+00 -1.092967033386230469e+00 7.498137354850769043e-01 -1.029459834098815918e-01 5.497316122055053711e-01
3.757000000000000000e+03 1.013348674774169922e+01 -1.330900478363037109e+01 2.904051325458567590e-05 9.208385017700493336e-05 3.633730739238671958e-05 -3.396173997316509485e-05
3.758000000000000000e+03 6.953704833984375000e+01 -1.129745864868164062e+01 6.405781507492065430e-01 5.511868000030517578e+00 1.845733880996704102e+00 6.547757387161254883e-01
3.759000000000000000e+03 7.288636779785156250e+01 -1.204936313629150391e+01 1.018400043249130249e-01 6.154744625091552734e+00 1.876975297927856445e+00 -4.827240109443664551e-01
3.760000000000000000e+03 4.826892852783203125e+01 -1.353719425201416016e+01 -2.191808223724365234e+00 5.267549514770507812e+00 9.227224588394165039e-01 5.433033704757690430e-01
3.761000000000000000e+03 3.931134033203125000e+01 2.890727806091308594e+01 -3.477984070777893066e-01 4.574286460876464844e+00 1.267946481704711914e+00 -3.945305198431015015e-02
3.762000000000000000e+03 2.376247596740722656e+01 -3.013176679611206055e+00 -1.123386502265930176e+00 -2.676929533481597900e-01 -4.173238277435302734e-01 7.015069127082824707e-01
3.763000000000000000e+03 2.424007797241210938e+01 -2.489145755767822266e+00 -9.803739190101623535e-01 -2.680243737995624542e-02 -3.021529018878936768e-01 5.843267440795898438e-01
3.764000000000000000e+03 2.542293739318847656e+01 -3.907219409942626953e+00 -1.089614987373352051e+00 2.471657991409301758e-01 -2.527347505092620850e-01 5.779967308044433594e-01
3.765000000000000000e+03 2.484568405151367188e+01 -3.190159559249877930e+00 -1.039886951446533203e+00 1.188379302620887756e-01 -2.763147056102752686e-01 5.805908441543579102e-01
3.766000000000000000e+03 2.785176086425781250e+01 -7.592763423919677734e+00 -1.126503705978393555e+00 7.127457261085510254e-01 -1.241274029016494751e-01 5.639057755470275879e-01
3.767000000000000000e+03 3.917118072509765625e+01 1.916611480712890625e+01 8.020220398902893066e-01 6.944387912750244141e+00 2.323922872543334961e+00 -8.987210690975189209e-03
3.768000000000000000e+03 3.858839797973632812e+01 1.854748344421386719e+01 8.832138180732727051e-01 6.838432788848876953e+00 2.316493988037109375e+00 -1.919142603874206543e-01
3.769000000000000000e+03 2.230487060546875000e+01 -5.228781104087829590e-01 -7.679910063743591309e-01 -4.415719509124755859e-01 -3.628689050674438477e-01 6.116710901260375977e-01
3.770000000000000000e+03 7.548472595214843750e+01 3.019207477569580078e+00 4.909323155879974365e-01 7.888210296630859375e+00 2.513742923736572266e+00 5.374757647514343262e-01
3.771000000000000000e+03 3.291245651245117188e+01 -1.382767677307128906e+01 -6.115845441818237305e-01 1.030944347381591797e+00 1.258079409599304199e-01 -2.404876351356506348e-01
3.772000000000000000e+03 5.312596511840820312e+01 -1.900201416015625000e+01 -1.247705578804016113e+00 9.247097969055175781e-01 -9.689873456954956055e-02 -2.681868672370910645e-01
3.773000000000000000e+03 5.404906845092773438e+01 -1.914683151245117188e+01 -1.104668974876403809e+00 2.281770110130310059e-01 -2.629475891590118408e-01 1.703044958412647247e-02
3.774000000000000000e+03 5.453594207763671875e+00 -2.380745697021484375e+01 4.515118198469281197e-04 4.606310394592583179e-04 2.736428577918559313e-04 1.045540120685473084e-04
3.775000000000000000e+03 7.195227813720703125e+01 -1.888293838500976562e+01 -1.545592784881591797e+00 5.470169544219970703e+00 1.177373051643371582e+00 -9.275413751602172852e-01
3.776000000000000000e+03 7.123844146728515625e+01 -1.893760681152343750e+01 -1.509119153022766113e+00 4.690668582916259766e+00 9.544648528099060059e-01 -1.108813285827636719e+00
3.777000000000000000e+03 7.334640502929687500e+01 -2.367285251617431641e+00 5.342941880226135254e-01 8.885334968566894531e+00 2.825888633728027344e+00 1.173020824790000916e-01
3.778000000000000000e+03 1.036851406097412109e+01 5.395779609680175781e+00 -2.167094498872756958e-01 -8.468936085700988770e-01 -3.190809190273284912e-01 9.415981769561767578e-01
3.779000000000000000e+03 1.082336902618408203e+01 4.681967258453369141e+00 -3.383734822273254395e-01 -8.786575794219970703e-01 -3.651093244552612305e-01 9.671912789344787598e-01
3.780000000000000000e+03 7.420846557617187500e+01 1.423469734191894531e+01 -8.154214173555374146e-02 8.741352081298828125e+00 2.597943067550659180e+00 6.901518702507019043e-01
3.781000000000000000e+03 4.074252700805664062e+01 -1.527571105957031250e+01 -1.260162472724914551e+00 6.670023441314697266e+00 1.622958302497863770e+00 -2.172850608825683594e+00
3.782000000000000000e+03 4.039142990112304688e+01 -1.618558502197265625e+01 -7.677397727966308594e-01 6.609134674072265625e+00 1.752418518066406250e+00 -2.553275108337402344e+00
3.783000000000000000e+03 6.767810344696044922e+00 -1.730473899841308594e+01 1.310058360104449093e-05 2.407690481049939990e-04 7.616088987560942769e-05 1.231647274835268036e-05
3.784000000000000000e+03 4.065100097656250000e+01 5.478771686553955078e+00 1.033035993576049805e+00 7.905426025390625000e+00 2.681538581848144531e+00 -1.520319223403930664e+00
3.785000000000000000e+03 5.537480926513671875e+01 -2.235119628906250000e+01 1.680271387100219727e+00 1.361163258552551270e+00 9.124304056167602539e-01 7.473390102386474609e-01
3.786000000000000000e+03 7.543997955322265625e+01 2.528060913085937500e+01 5.647953972220420837e-02 8.757158279418945312e+00 2.644091367721557617e+00 9.304605722427368164e-01
3.787000000000000000e+03 2.697080612182617188e+01 -6.121773719787597656e+00 -1.155267953872680664e+00 5.754293799400329590e-01 -1.739515513181686401e-01 5.749304294586181641e-01
3.788000000000000000e+03 3.931860733032226562e+01 2.372176742553710938e+01 3.425238430500030518e-01 5.631660461425781250e+00 1.792255282402038574e+00 8.454260975122451782e-02
3.789000000000000000e+03 2.342141914367675781e+01 -5.918385386466979980e-01 -6.783751249313354492e-01 -9.406041353940963745e-02 -2.317306548357009888e-01 4.949856400489807129e-01
3.790000000000000000e+03 7.545551300048828125e+01 2.605109214782714844e+01 1.445587445050477982e-02 8.796184539794921875e+00 2.643192052841186523e+00 9.387869834899902344e-01
3.791000000000000000e+03 2.862374305725097656e+01 -9.016811370849609375e+00 -1.049760937690734863e+00 7.759940624237060547e-01 -8.213005959987640381e-02 5.375029444694519043e-01
3.792000000000000000e+03 2.361064529418945312e+01 -1.806478381156921387e+00 -9.125311970710754395e-01 -1.667532622814178467e-01 -3.237853348255157471e-01 5.896727442741394043e-01
3.793000000000000000e+03 6.217500305175781250e+01 -1.780127716064453125e+01 -1.320279598236083984e+00 2.405572891235351562e+00 3.255879580974578857e-01 2.391529321670532227e+00
3.794000000000000000e+03 1.878775215148925781e+01 2.221847772598266602e+00 -4.264115095138549805e-01 -9.324513673782348633e-01 -4.076588749885559082e-01 7.336412668228149414e-01
3.795000000000000000e+03 3.655326366424560547e+00 -3.729009246826171875e+01 -4.905266687273979187e-04 -2.812907565385103226e-03 -9.910302469506859779e-04 -1.573590561747550964e-03
3.796000000000000000e+03 6.658696746826171875e+01 -1.453109169006347656e+01 6.466612219810485840e-01 3.356116056442260742e+00 1.200833201408386230e+00 1.119048118591308594e+00
3.797000000000000000e+03 6.810829162597656250e+01 -1.340604209899902344e+01 7.322040796279907227e-01 4.204983711242675781e+00 1.481156229972839355e+00 7.325612902641296387e-01
3.798000000000000000e+03 5.221534347534179688e+01 -1.907342720031738281e+01 -9.983707666397094727e-01 1.998904943466186523e+00 3.001602590084075928e-01 -5.046638846397399902e-01
3.799000000000000000e+03 7.541933441162109375e+01 2.762165641784667969e+01 -9.893514961004257202e-02 8.858366012573242188e+00 2.627829313278198242e+00 9.315576553344726562e-01
3.800000000000000000e+03 1.595607757568359375e+01 4.027418613433837891e+00 -2.098814547061920166e-01 -1.053384900093078613e+00 -3.789799213409423828e-01 8.350892066955566406e-01
3.801000000000000000e+03 6.238844680786132812e+01 -1.979971504211425781e+01 -1.004342436790466309e+00 2.202909708023071289e+00 3.595701754093170166e-01 2.618478775024414062e+00
3.802000000000000000e+03 4.600777053833007812e+01 -2.823226165771484375e+01 2.201131582260131836e+00 8.204063415527343750e+00 3.121558427810668945e+00 -1.124860882759094238e+00
3.803000000000000000e+03 4.655949020385742188e+01 -2.772205543518066406e+01 2.267830133438110352e+00 7.809659481048583984e+00 3.023247003555297852e+00 -1.313217520713806152e+00
3.804000000000000000e+03 5.727257919311523438e+01 -2.215809059143066406e+01 1.514180183410644531e+00 1.356541872024536133e+00 8.612166047096252441e-01 1.707582950592041016e+00
3.805000000000000000e+03 5.610600662231445312e+01 -2.018397521972656250e+01 -7.207134366035461426e-02 2.691899240016937256e-02 -1.354570500552654266e-02 1.323127746582031250e+00
3.806000000000000000e+03 1.236273479461669922e+01 -1.137204551696777344e+01 -2.941430830105673522e-05 -3.690668108902173117e-06 -9.931492968462407589e-06 -2.966351712530013174e-05
3.807000000000000000e+03 1.529180335998535156e+01 4.458909988403320312e+00 -1.580417305231094360e-01 -1.051436781883239746e+00 -3.628435432910919189e-01 8.514190912246704102e-01
3.808000000000000000e+03 3.814258575439453125e+01 1.754195785522460938e+01 1.030534267425537109e+00 6.794301509857177734e+00 2.347450733184814453e+00 -3.812916278839111328e-01
3.809000000000000000e+03 4.448310852050781250e+01 -1.195651817321777344e+01 -1.981895089149475098e+00 6.429123401641845703e+00 1.334168553352355957e+00 -4.630797207355499268e-01
3.810000000000000000e+03 5.937841415405273438e+01 -2.066876983642578125e+01 -1.598765254020690918e-01 1.683632135391235352e+00 4.571266770362854004e-01 2.533937931060791016e+00
3.811000000000000000e+03 6.168782424926757812e+01 -1.814815330505371094e+01 -1.456399440765380859e+00 2.318006277084350586e+00 2.584820389747619629e-01 2.505360126495361328e+00
3.812000000000000000e+03 6.043707656860351562e+01 -1.906167602539062500e+01 -1.423103690147399902e+00 1.974744796752929688e+00 1.654923260211944580e-01 2.721551179885864258e+00
3.813000000000000000e+03 1.864382743835449219e+01 -3.708039093017578125e+01 9.065320715308189392e-03 -4.052760452032089233e-02 -9.438685141503810883e-03 -5.783154442906379700e-02
3.814000000000000000e+03 7.332457733154296875e+01 7.845445632934570312e+00 1.781780421733856201e-01 9.764879226684570312e+00 2.982917308807373047e+00 9.616109728813171387e-01
3.815000000000000000e+03 4.396398544311523438e+01 -1.749170684814453125e+01 -7.695551514625549316e-01 8.580194473266601562e+00 2.343191862106323242e+00 -1.004329442977905273e+00
3.816000000000000000e+03 4.714217376708984375e+01 -2.448715209960937500e+01 2.562973022460937500e+00 7.203764438629150391e+00 2.930021286010742188e+00 -1.699819922447204590e+00
3.817000000000000000e+03 3.639407730102539062e+01 -1.450952720642089844e+01 -4.496779441833496094e-01 2.470811128616333008e+00 6.063399314880371094e-01 -1.591257333755493164e+00
3.818000000000000000e+03 3.518538665771484375e+01 -1.415814590454101562e+01 -4.946387708187103271e-01 1.807815790176391602e+00 3.939531147480010986e-01 -1.054591298103332520e+00
3.819000000000000000e+03 7.446266937255859375e+01 3.101192855834960938e+01 -3.901696205139160156e-01 8.331628799438476562e+00 2.382437705993652344e+00 6.822718977928161621e-01
3.820000000000000000e+03 6.506336975097656250e+01 -1.622254943847656250e+01 -8.270248025655746460e-02 2.660421371459960938e+00 7.733156681060791016e-01 1.638951897621154785e+00
3.821000000000000000e+03 5.503041458129882812e+01 -2.298077011108398438e+01 2.002950668334960938e+00 1.713631153106689453e+00 1.114974617958068848e+00 5.809148550033569336e-01
3.822000000000000000e+03 6.330598354339599609e+00 -1.566280460357666016e+01 2.129133463313337415e-05 -2.095732197631150484e-04 -5.648456499329768121e-05 -4.774261469719931483e-05
3.823000000000000000e+03 4.745374298095703125e+01 -1.346605587005615234e+01 -2.179488658905029297e+00 5.743885993957519531e+00 1.069319248199462891e+00 3.351109921932220459e-01
3.824000000000000000e+03 7.356907653808593750e+01 7.943744659423828125e-01 8.730320334434509277e-01 9.473458290100097656e+00 3.103946924209594727e+00 4.420312941074371338e-01
3.825000000000000000e+03 7.481833648681640625e+01 2.213077783584594727e+00 6.207456588745117188e-01 8.424268722534179688e+00 2.713504314422607422e+00 4.916104376316070557e-01
3.826000000000000000e+03 4.591526508331298828e+00 -1.828805160522460938e+01 1.237381802638992667e-04 1.811322581488639116e-04 9.146113006863743067e-05 7.269107300089672208e-05
3.827000000000000000e+03 6.236711978912353516e+00 -1.788700294494628906e+01 -4.429351974977180362e-05 -2.608029753901064396e-04 -9.152894926955923438e-05 -3.413287777220830321e-05
3.828000000000000000e+03 7.211502075195312500e+01 -3.706977462768554688e+01 -2.058989852666854858e-01 5.073227405548095703e+00 1.460198521614074707e+00 5.229766964912414551e-01
3.829000000000000000e+03 7.427725982666015625e+01 -3.743733978271484375e+01 -2.125017195940017700e-01 5.775091171264648438e+00 1.668776750564575195e+00 1.530116349458694458e-01
3.830000000000000000e+03 6.439407348632812500e+01 -1.907003593444824219e+01 -1.142993330955505371e+00 1.987327933311462402e+00 2.533003985881805420e-01 2.234766244888305664e+00
3.831000000000000000e+03 4.529133605957031250e+01 -2.050296974182128906e+01 1.697915077209472656e+00 8.577756881713867188e+00 3.082701444625854492e+00 -1.022913098335266113e+00
3.832000000000000000e+03 4.915545654296875000e+01 -1.581865882873535156e+01 -2.380237579345703125e+00 4.962261676788330078e+00 7.746073007583618164e-01 3.152706623077392578e-01
3.833000000000000000e+03 1.284253692626953125e+01 5.458399772644042969e+00 -1.000823155045509338e-01 -1.001170754432678223e+00 -3.303759396076202393e-01 9.168502688407897949e-01
3.834000000000000000e+03 1.349937534332275391e+01 4.388295173645019531e+00 -2.680023908615112305e-01 -1.053898215293884277e+00 -3.965701758861541748e-01 9.430220127105712891e-01
3.835000000000000000e+03 5.019421768188476562e+01 -1.610608863830566406e+01 -2.687332391738891602e+00 3.859080314636230469e+00 3.515243828296661377e-01 3.141444027423858643e-01
3.836000000000000000e+03 5.044983291625976562e+01 -1.844709396362304688e+01 -1.239073991775512695e+00 3.773027896881103516e+00 7.601861953735351562e-01 -4.503985941410064697e-01
3.837000000000000000e+03 1.805728912353515625e+01 2.706066131591796875e+00 -3.667176961898803711e-01 -9.853029251098632812e-01 -4.056061804294586182e-01 7.639461159706115723e-01
3.838000000000000000e+03 7.544981002807617188e+00 -3.163637351989746094e+01 -2.211528131738305092e-03 3.144703805446624756e-05 -6.540243048220872879e-04 -1.359521760605275631e-03
3.839000000000000000e+03 3.806104278564453125e+01 1.130922603607177734e+01 1.930586099624633789e+00 7.308462142944335938e+00 2.771714448928833008e+00 -9.938002228736877441e-01
3.840000000000000000e+03 6.583879089355468750e+01 -1.684025382995605469e+01 -2.343582510948181152e-01 2.404816627502441406e+00 6.511375308036804199e-01 1.457762479782104492e+00
3.841000000000000000e+03 6.536580657958984375e+01 -1.492712879180908203e+01 5.381036400794982910e-01 3.000775098800659180e+00 1.061663627624511719e+00 1.488058447837829590e+00
3.842000000000000000e+03 7.412513732910156250e+01 -3.620833587646484375e+01 -2.977319657802581787e-01 5.993139743804931641e+00 1.708622336387634277e+00 9.256362169981002808e-02
3.843000000000000000e+03 6.523185253143310547e+00 -2.697969055175781250e+01 4.800728929694741964e-04 -5.955077358521521091e-04 -3.463046232354827225e-05 3.751012263819575310e-04
3.844000000000000000e+03 5.777968883514404297e+00 -2.590356826782226562e+01 7.186508155427873135e-04 1.710686483420431614e-04 2.669158275239169598e-04 3.523319173837080598e-05
3.845000000000000000e+03 6.006728744506835938e+01 -1.970163536071777344e+01 -9.656203985214233398e-01 1.873846173286437988e+00 2.724677622318267822e-01 2.675397872924804688e+00
3.846000000000000000e+03 5.984065246582031250e+01 -1.881189155578613281e+01 -1.577890038490295410e+00 1.669688463211059570e+00 2.753952145576477051e-02 2.626954555511474609e+00
3.847000000000000000e+03 5.832571029663085938e+00 -2.322072792053222656e+01 1.097748317988589406e-04 -7.185467984527349472e-04 -1.826315856305882335e-04 -1.668129552854225039e-04
3.848000000000000000e+03 4.917470932006835938e+01 -1.475787544250488281e+01 -2.506709814071655273e+00 4.792371273040771484e+00 6.856985092163085938e-01 5.876761674880981445e-01
3.849000000000000000e+03 4.697635269165039062e+01 -1.474686908721923828e+01 -2.207122564315795898e+00 6.359983921051025391e+00 1.245858311653137207e+00 1.453889459371566772e-01
3.850000000000000000e+03 7.335457611083984375e+01 -3.400944519042968750e+01 -3.302243649959564209e-01 6.383407592773437500e+00 1.815954923629760742e+00 2.342501133680343628e-01
3.851000000000000000e+03 7.301857757568359375e+01 -3.281050491333007812e+01 -1.915723532438278198e-01 6.747947216033935547e+00 1.966912388801574707e+00 3.138904571533203125e-01
3.852000000000000000e+03 6.144017791748046875e+01 -2.033436584472656250e+01 -6.159572005271911621e-01 2.194605827331542969e+00 4.735946059226989746e-01 2.683271884918212891e+00
3.853000000000000000e+03 3.901203918457031250e+01 2.268289756774902344e+01 4.585565328598022461e-01 5.851571559906005859e+00 1.893038392066955566e+00 3.459611535072326660e-02
3.854000000000000000e+03 3.899518966674804688e+01 2.158763694763183594e+01 5.926644206047058105e-01 6.157183647155761719e+00 2.024954557418823242e+00 4.357102140784263611e-02
3.855000000000000000e+03 9.898588180541992188e+00 6.069453716278076172e+00 -1.194383949041366577e-01 -8.243051171302795410e-01 -2.831230461597442627e-01 9.068513512611389160e-01
3.856000000000000000e+03 9.326301574707031250e+00 5.639362335205078125e+00 -2.019656449556350708e-01 -7.619470953941345215e-01 -2.891738414764404297e-01 9.015342593193054199e-01
3.857000000000000000e+03 6.713350677490234375e+01 -1.935652923583984375e+01 -1.263447403907775879e+00 7.163498401641845703e-01 -1.641292721033096313e-01 1.057022213935852051e+00
3.858000000000000000e+03 6.402136230468750000e+01 -1.694913482666015625e+01 -6.115606427192687988e-01 2.509469270706176758e+00 5.693725943565368652e-01 2.001915693283081055e+00
3.859000000000000000e+03 6.938874053955078125e+01 3.507326507568359375e+01 -7.875087261199951172e-01 3.514981508255004883e+00 8.182418346405029297e-01 -1.631125509738922119e-01
3.860000000000000000e+03 7.515054321289062500e+01 3.138289833068847656e+01 -3.391625583171844482e-01 8.787921905517578125e+00 2.534627676010131836e+00 6.344914436340332031e-01
3.861000000000000000e+03 7.407206726074218750e+01 3.576411819458007812e+01 -3.031924366950988770e-01 7.813257217407226562e+00 2.253019571304321289e+00 1.392261534929275513e-01
3.862000000000000000e+03 2.180680465698242188e+01 -4.132276153564453125e+01 1.259472221136093140e-01 -7.528854161500930786e-02 1.519760675728321075e-02 -1.938314735889434814e-02
3.863000000000000000e+03 7.241046905517578125e+01 3.230921936035156250e+01 -7.382370233535766602e-01 6.643822669982910156e+00 1.771675705909729004e+00 3.969677388668060303e-01
3.864000000000000000e+03 4.337102127075195312e+01 4.892417192459106445e-01 2.030158191919326782e-01 6.420244216918945312e+00 1.986977934837341309e+00 -1.983809232711791992e+00
3.865000000000000000e+03 6.767864227294921875e+01 -1.586426544189453125e+01 1.712066531181335449e-01 3.079766035079956055e+00 9.752917885780334473e-01 5.872701406478881836e-01
3.866000000000000000e+03 6.926732635498046875e+01 -1.864024353027343750e+01 -9.243723154067993164e-01 2.467375516891479492e+00 4.629009664058685303e-01 -5.981143712997436523e-01
3.867000000000000000e+03 7.011338043212890625e+01 -3.740557098388671875e+01 1.948436163365840912e-02 3.861308574676513672e+00 1.164237856864929199e+00 6.372258067131042480e-01
3.868000000000000000e+03 7.340059661865234375e+01 -3.198359107971191406e+01 2.336488664150238037e-02 7.156983375549316406e+00 2.154104471206665039e+00 1.471989452838897705e-01
3.869000000000000000e+03 3.817433929443359375e+01 8.513126373291015625e+00 1.816971659660339355e+00 7.046740531921386719e+00 2.659113645553588867e+00 -8.664264678955078125e-01
3.870000000000000000e+03 4.930414199829101562e+01 -2.975891304016113281e+01 2.034163475036621094e+00 5.922313213348388672e+00 2.386942863464355469e+00 -1.255486249923706055e+00
3.871000000000000000e+03 1.222447490692138672e+01 5.917726516723632812e+00 -5.300028622150421143e-02 -9.649496078491210938e-01 -3.053849637508392334e-01 9.110268950462341309e-01
3.872000000000000000e+03 7.394750976562500000e+01 3.140204620361328125e+01 -5.051430463790893555e-01 7.953615188598632812e+00 2.234541654586791992e+00 6.032963395118713379e-01
3.873000000000000000e+03 7.356220245361328125e+01 3.237926864624023438e+01 -5.979359745979309082e-01 7.517881393432617188e+00 2.075983762741088867e+00 4.502903521060943604e-01
3.874000000000000000e+03 3.796234893798828125e+01 1.422598552703857422e+01 1.472680330276489258e+00 7.254963874816894531e+00 2.618293285369873047e+00 -7.931255698204040527e-01
3.875000000000000000e+03 4.347365188598632812e+01 3.045345306396484375e+01 -3.621019124984741211e-01 4.010784149169921875e+00 1.094604611396789551e+00 5.461818575859069824e-01
3.876000000000000000e+03 5.794271469116210938e+00 3.603838729858398438e+01 -2.973438799381256104e-02 -1.069029331207275391e+00 -3.296291232109069824e-01 -7.969024032354354858e-02
3.877000000000000000e+03 7.343308258056640625e+01 3.897243881225585938e+01 -1.050132662057876587e-01 6.917295932769775391e+00 2.043684720993041992e+00 4.524273425340652466e-02
3.878000000000000000e+03 7.137250518798828125e+01 3.948598480224609375e+01 -3.580843284726142883e-02 5.201683521270751953e+00 1.549762606620788574e+00 -2.099573016166687012e-01
3.879000000000000000e+03 9.184010505676269531e+00 -3.381999969482421875e+01 -4.775126930326223373e-03 -3.323539393022656441e-03 -2.429599873721599579e-03 -4.850925877690315247e-03
3.880000000000000000e+03 3.793696212768554688e+01 1.525938224792480469e+01 1.316491484642028809e+00 7.106731891632080078e+00 2.526967048645019531e+00 -6.711075901985168457e-01
3.881000000000000000e+03 1.010182666778564453e+01 -3.471182250976562500e+01 -4.668123554438352585e-03 -4.990771878510713577e-03 -2.897668629884719849e-03 -8.411630988121032715e-03
3.882000000000000000e+03 4.632738876342773438e+01 -3.438764572143554688e+01 -1.725692152976989746e-01 6.650519847869873047e+00 1.943385243415832520e+00 -4.573067128658294678e-01
3.883000000000000000e+03 3.192946815490722656e+01 -3.686080169677734375e+01 1.327089369297027588e-01 1.185360699892044067e-01 7.537350058555603027e-02 -9.295459091663360596e-02
3.884000000000000000e+03 4.497510528564453125e+01 -3.550471115112304688e+01 -6.183824539184570312e-01 6.316510677337646484e+00 1.709438443183898926e+00 9.844874590635299683e-02
3.885000000000000000e+03 2.813501167297363281e+01 -3.922899246215820312e+01 2.337012737989425659e-01 3.302806988358497620e-02 8.001880347728729248e-02 -1.312616318464279175e-01
3.886000000000000000e+03 2.460106468200683594e+01 -4.026564407348632812e+01 1.674949973821640015e-01 -9.249233454465866089e-02 2.250079996883869171e-02 -4.682338982820510864e-02
3.887000000000000000e+03 2.579466056823730469e+01 -3.847701263427734375e+01 1.531538516283035278e-01 -6.927765905857086182e-02 2.516285516321659088e-02 -1.259372830390930176e-01
3.888000000000000000e+03 6.800222778320312500e+01 4.144200515747070312e+01 3.356775939464569092e-01 2.097378253936767578e+00 7.299167513847351074e-01 -2.539562992751598358e-02
3.889000000000000000e+03 4.720708847045898438e+01 -3.117474937438964844e+01 1.302516460418701172e+00 6.856584072113037109e+00 2.447730064392089844e+00 -1.131887793540954590e+00
3.890000000000000000e+03 6.480889320373535156e+00 3.323661041259765625e+01 1.831870526075363159e-03 -1.030044078826904297e+00 -3.084636628627777100e-01 -9.090789407491683960e-02
3.891000000000000000e+03 4.463176250457763672e+00 3.298440170288085938e+01 5.582804791629314423e-03 -1.334531545639038086e+00 -3.986846208572387695e-01 -6.674155592918395996e-02
3.892000000000000000e+03 4.435318756103515625e+01 -3.399636077880859375e+01 -4.070526957511901855e-01 6.876071453094482422e+00 1.940705657005310059e+00 1.965284645557403564e-01
3.893000000000000000e+03 5.377806472778320312e+01 -3.554636764526367188e+01 7.525220513343811035e-02 5.138579368591308594e+00 1.564149498939514160e+00 -6.438836455345153809e-01
3.894000000000000000e+03 4.582572937011718750e+01 -3.738798141479492188e+01 -8.233441114425659180e-01 6.034995079040527344e+00 1.563495278358459473e+00 -5.330949649214744568e-02
3.895000000000000000e+03 6.539179325103759766e+00 3.955203247070312500e+01 -5.049509182572364807e-02 -9.031687378883361816e-01 -2.860991358757019043e-01 -6.372911483049392700e-02
3.896000000000000000e+03 3.813653564453125000e+01 -4.104895019531250000e+01 -6.492474675178527832e-02 2.445096492767333984e+00 7.140514850616455078e-01 2.719156444072723389e-01
3.897000000000000000e+03 5.109029769897460938e+01 -3.031626892089843750e+01 2.027017354965209961e+00 5.431640625000000000e+00 2.237597465515136719e+00 -1.038345336914062500e+00
3.898000000000000000e+03 4.630283737182617188e+01 -3.205260467529296875e+01 7.247799038887023926e-01 7.166543960571289062e+00 2.367397308349609375e+00 -8.522008061408996582e-01
3.899000000000000000e+03 1.016760635375976562e+01 -3.669965744018554688e+01 -4.630261682905256748e-04 -7.901109755039215088e-03 -2.509240759536623955e-03 -9.195534512400627136e-03
3.900000000000000000e+03 4.223828506469726562e+01 3.884022140502929688e+01 -1.221887707710266113e+00 3.531899929046630859e+00 6.930036544799804688e-01 7.331909239292144775e-02
3.901000000000000000e+03 6.982515716552734375e+01 -4.024770736694335938e+01 3.601347208023071289e-01 3.439551115036010742e+00 1.139905691146850586e+00 2.223138362169265747e-01
3.902000000000000000e+03 7.279002380371093750e+01 -3.912306213378906250e+01 -5.928009003400802612e-02 4.991085529327392578e+00 1.479541659355163574e+00 3.818650543689727783e-01
3.903000000000000000e+03 1.380413722991943359e+01 -3.853564834594726562e+01 1.228635199368000031e-02 -3.110913932323455811e-02 -5.646836012601852417e-03 -1.880956068634986877e-02
3.904000000000000000e+03 1.139476203918457031e+01 -1.196111965179443359e+01 3.800727790803648531e-05 3.489950177026912570e-05 2.187203244830016047e-05 6.740911430824780837e-06
3.905000000000000000e+03 5.750662231445312500e+01 -1.968086433410644531e+01 -6.969079971313476562e-01 3.869102299213409424e-01 -9.299931675195693970e-02 2.138786315917968750e+00
3.906000000000000000e+03 5.579042053222656250e+01 -1.949492835998535156e+01 -7.155418992042541504e-01 -3.702373802661895752e-01 -3.257337808609008789e-01 1.179550528526306152e+00
3.907000000000000000e+03 7.543451690673828125e+01 6.249348640441894531e+00 2.644850611686706543e-01 8.179700851440429688e+00 2.533255815505981445e+00 9.158039093017578125e-01
3.908000000000000000e+03 7.404695892333984375e+01 6.251251220703125000e+00 3.653084635734558105e-01 9.346296310424804688e+00 2.913481473922729492e+00 9.202755689620971680e-01
3.909000000000000000e+03 6.614543914794921875e+01 -1.532668209075927734e+01 3.647731840610504150e-01 2.967661619186401367e+00 9.997304081916809082e-01 1.239334225654602051e+00
3.910000000000000000e+03 3.131944274902343750e+01 -1.318427467346191406e+01 -7.051221132278442383e-01 7.765465378761291504e-01 2.142732962965965271e-02 1.733516603708267212e-01
3.911000000000000000e+03 4.478438949584960938e+01 -1.946015357971191406e+01 8.486194610595703125e-01 8.843312263488769531e+00 2.907579660415649414e+00 -8.969734311103820801e-01
3.912000000000000000e+03 4.728749847412109375e+01 -1.415561962127685547e+01 -2.231652259826660156e+00 5.994502544403076172e+00 1.128855109214782715e+00 2.922068834304809570e-01
3.913000000000000000e+03 7.403607940673828125e+01 7.049318790435791016e+00 2.680287361145019531e-01 9.308672904968261719e+00 2.873010635375976562e+00 9.782679677009582520e-01
3.914000000000000000e+03 7.473745727539062500e+01 8.634099960327148438e+00 1.402577385306358337e-03 8.771176338195800781e+00 2.631773710250854492e+00 1.038345456123352051e+00
3.915000000000000000e+03 6.991857147216796875e+01 -1.878859329223632812e+01 -1.209589123725891113e+00 3.153846025466918945e+00 5.832771062850952148e-01 -9.149693250656127930e-01
3.916000000000000000e+03 6.746488189697265625e+01 -1.661009788513183594e+01 -5.827425792813301086e-02 2.670644283294677734e+00 7.837110161781311035e-01 6.673203706741333008e-01
3.917000000000000000e+03 7.378671264648437500e+01 1.129043292999267578e+01 -3.379240036010742188e-01 9.185175895690917969e+00 2.654175519943237305e+00 8.247720003128051758e-01
3.918000000000000000e+03 7.405940246582031250e+01 1.022818088531494141e+01 -2.464782744646072388e-01 9.132520675659179688e+00 2.665812969207763672e+00 9.510749578475952148e-01
3.919000000000000000e+03 1.484609127044677734e+01 -8.558235168457031250e+00 7.960226184877683409e-07 -8.249729035014752299e-06 -2.236111868114676327e-06 -5.489533123181900010e-06
3.920000000000000000e+03 1.353570842742919922e+01 -1.030971527099609375e+01 2.145835787814576179e-05 1.416056875314097852e-05 1.068567780748708174e-05 1.038843493006424978e-05
3.921000000000000000e+03 1.281703376770019531e+01 -1.005076599121093750e+01 -1.799874007701873779e-05 -1.338792935712262988e-05 -9.416000466444529593e-06 -5.137882453709607944e-06
3.922000000000000000e+03 5.615976333618164062e+01 -2.121988868713378906e+01 8.224812746047973633e-01 6.442148089408874512e-01 4.400088191032409668e-01 1.274475574493408203e+00
3.923000000000000000e+03 1.163914585113525391e+01 6.559904575347900391e+00 1.167478226125240326e-02 -9.265571236610412598e-01 -2.744646966457366943e-01 8.912536501884460449e-01
3.924000000000000000e+03 6.385626602172851562e+01 -1.949827957153320312e+01 -1.175863385200500488e+00 1.985912680625915527e+00 2.430147826671600342e-01 2.349107027053833008e+00
3.925000000000000000e+03 3.126325416564941406e+01 -1.129206657409667969e+01 -8.019168972969055176e-01 1.184417724609375000e+00 1.147502511739730835e-01 1.133257001638412476e-01
3.926000000000000000e+03 3.352062606811523438e+01 -1.409766674041748047e+01 -5.663845539093017578e-01 1.160659432411193848e+00 1.782824546098709106e-01 -4.159843921661376953e-01
3.927000000000000000e+03 6.413842010498046875e+01 -1.847587776184082031e+01 -1.060859322547912598e+00 2.185429573059082031e+00 3.373711109161376953e-01 2.236764430999755859e+00
3.928000000000000000e+03 7.402967834472656250e+01 9.433598518371582031e+00 -1.438092440366744995e-01 9.201448440551757812e+00 2.717291831970214844e+00 1.008048892021179199e+00
3.929000000000000000e+03 7.550188446044921875e+01 1.015079402923583984e+01 -1.293228864669799805e-01 8.351366996765136719e+00 2.466613292694091797e+00 9.656502604484558105e-01
3.930000000000000000e+03 7.552264404296875000e+01 1.235829734802246094e+01 -1.713153868913650513e-01 8.402764320373535156e+00 2.469434738159179688e+00 8.082537651062011719e-01
3.931000000000000000e+03 7.479254150390625000e+01 1.294000911712646484e+01 -1.821909099817276001e-01 8.644854545593261719e+00 2.538799047470092773e+00 7.689473628997802734e-01
3.932000000000000000e+03 1.366204357147216797e+01 -8.673585891723632812e+00 9.632056389818899333e-06 1.427229835826437920e-05 7.171306151576573029e-06 -1.586477083037607372e-06
3.933000000000000000e+03 4.469128036499023438e+01 -5.155912876129150391e+00 -6.003628373146057129e-01 5.620284557342529297e+00 1.505976557731628418e+00 -1.209390878677368164e+00
3.934000000000000000e+03 7.481886291503906250e+01 -2.454183959960937500e+01 4.420448243618011475e-01 7.728216648101806641e+00 2.451078414916992188e+00 1.123684763908386230e+00
3.935000000000000000e+03 7.542427825927734375e+01 -2.325427436828613281e+01 -1.355653107166290283e-01 7.553861141204833984e+00 2.225488662719726562e+00 1.107452273368835449e+00
3.936000000000000000e+03 4.408261108398437500e+01 -3.883980751037597656e+00 -4.760386645793914795e-01 5.748277664184570312e+00 1.581671714782714844e+00 -1.390438556671142578e+00
3.937000000000000000e+03 4.243593597412109375e+01 9.020302295684814453e-01 1.383561640977859497e-01 6.572004318237304688e+00 2.013108015060424805e+00 -1.816383004188537598e+00
3.938000000000000000e+03 1.319486713409423828e+01 -8.008424758911132812e+00 1.373453233100008219e-05 2.194906528529827483e-06 4.778831680596340448e-06 3.170285708620212972e-06
3.939000000000000000e+03 1.030891132354736328e+01 -8.697307586669921875e+00 9.278747711505275220e-06 3.201545041520148516e-05 1.238825916516361758e-05 1.142326527769910172e-05
3.940000000000000000e+03 4.341236877441406250e+01 -8.568239212036132812e+00 -1.451858520507812500e+00 5.839934349060058594e+00 1.316422820091247559e+00 -8.160166740417480469e-01
3.941000000000000000e+03 4.662889862060546875e+01 -1.191036796569824219e+01 -1.890081644058227539e+00 5.806869029998779297e+00 1.175036191940307617e+00 9.477413445711135864e-02
3.942000000000000000e+03 3.013628959655761719e+01 -1.056858444213867188e+01 -8.860491514205932617e-01 1.003455400466918945e+00 3.522188216447830200e-02 3.386859595775604248e-01
3.943000000000000000e+03 7.596595764160156250e+01 3.151072883605957031e+01 -2.653946578502655029e-01 9.396690368652343750e+00 2.739388704299926758e+00 6.093347072601318359e-01
3.944000000000000000e+03 2.742637252807617188e+01 -6.861884117126464844e+00 -1.147346854209899902e+00 6.491296887397766113e-01 -1.494651436805725098e-01 5.688800215721130371e-01
3.945000000000000000e+03 2.651310539245605469e+01 -4.158331871032714844e+00 -1.027134180068969727e+00 6.415839791297912598e-01 -1.156650558114051819e-01 4.686405956745147705e-01
3.946000000000000000e+03 5.419944286346435547e+00 -2.742882728576660156e+01 -1.002390035864664242e-05 -1.087192562408745289e-03 -3.291649336460977793e-04 4.010189441032707691e-04
3.947000000000000000e+03 5.453044891357421875e+00 -2.853321647644042969e+01 4.235973028698936105e-05 -1.300473464652895927e-03 -3.774341021198779345e-04 1.468640693929046392e-04
3.948000000000000000e+03 7.528798675537109375e+01 1.476261138916015625e+01 -4.816779494285583496e-02 8.486421585083007812e+00 2.531476020812988281e+00 7.268960475921630859e-01
3.949000000000000000e+03 7.370010375976562500e+01 1.375806427001953125e+01 -1.413042545318603516e-01 8.907677650451660156e+00 2.629912137985229492e+00 6.495640277862548828e-01
3.950000000000000000e+03 4.418800735473632812e+01 -5.307713985443115234e+00 -6.966311931610107422e-01 5.659813404083251953e+00 1.488954663276672363e+00 -1.175788998603820801e+00
3.951000000000000000e+03 5.004151821136474609e+00 -2.891569709777832031e+01 -6.478624418377876282e-04 1.997945655602961779e-04 -1.344203628832474351e-04 5.335063906386494637e-04
3.952000000000000000e+03 3.258102035522460938e+01 -1.297725296020507812e+01 -6.653636097908020020e-01 1.182141661643981934e+00 1.550334244966506958e-01 -1.733288466930389404e-01
3.953000000000000000e+03 7.532032012939453125e+01 -3.084779739379882812e+01 3.248021900653839111e-01 7.080687999725341797e+00 2.221647024154663086e+00 -2.891207039356231689e-01
3.954000000000000000e+03 7.316841125488281250e+01 3.164294433593750000e+01 -6.374597549438476562e-01 7.245426654815673828e+00 1.982390046119689941e+00 5.236507058143615723e-01
3.955000000000000000e+03 7.472642517089843750e+01 3.041199111938476562e+01 -3.397875130176544189e-01 8.506434440612792969e+00 2.449994087219238281e+00 7.341665029525756836e-01
3.956000000000000000e+03 7.543154907226562500e+01 -1.645294570922851562e+01 -4.889535903930664062e-01 6.821291923522949219e+00 1.899701595306396484e+00 -5.581948757171630859e-01
3.957000000000000000e+03 7.472072601318359375e+01 -1.727594947814941406e+01 -7.490720152854919434e-01 6.697318077087402344e+00 1.784473896026611328e+00 -5.313584804534912109e-01
3.958000000000000000e+03 4.734970855712890625e+01 -3.319475936889648438e+01 3.940522074699401855e-01 6.628799915313720703e+00 2.106855630874633789e+00 -8.112078309059143066e-01
3.959000000000000000e+03 7.322204113006591797e+00 7.051594257354736328e+00 -6.695510447025299072e-02 -7.032905817031860352e-01 -2.310737073421478271e-01 7.655571103096008301e-01
3.960000000000000000e+03 6.062618255615234375e+00 2.863988876342773438e+01 4.607618972659111023e-02 -1.123550653457641602e+00 -3.232423365116119385e-01 -4.627991467714309692e-02
3.961000000000000000e+03 5.029562473297119141e+00 2.845904350280761719e+01 3.428281471133232117e-02 -1.287150502204895020e+00 -3.758603334426879883e-01 -3.504833951592445374e-02
3.962000000000000000e+03 7.543226623535156250e+01 7.045189380645751953e+00 1.856777518987655640e-01 8.226729393005371094e+00 2.523722171783447266e+00 9.747622609138488770e-01
3.963000000000000000e+03 2.984388923645019531e+01 -9.957590103149414062e+00 -9.420967102050781250e-01 1.025939822196960449e+00 2.515293285250663757e-02 3.664812743663787842e-01
3.964000000000000000e+03 4.602224731445312500e+01 -7.149045944213867188e+00 -7.479512095451354980e-01 5.417413711547851562e+00 1.400838732719421387e+00 -8.171557784080505371e-01
3.965000000000000000e+03 7.479087066650390625e+01 2.984322547912597656e+01 -3.395589888095855713e-01 8.563756942749023438e+00 2.467259407043457031e+00 8.093844056129455566e-01
3.966000000000000000e+03 6.358997821807861328e+00 6.149939060211181641e+00 -1.471110582351684570e-01 -5.840043425559997559e-01 -2.193346321582794189e-01 6.954981684684753418e-01
3.967000000000000000e+03 5.408067703247070312e+00 7.376194953918457031e+00 -5.682366341352462769e-02 -6.494258046150207520e-01 -2.118748277425765991e-01 6.262419223785400391e-01
3.968000000000000000e+03 5.390163421630859375e+00 -2.996432876586914062e+01 -5.086500314064323902e-04 -1.756409415975213051e-03 -6.795178633183240891e-04 1.868242979981005192e-04
3.969000000000000000e+03 4.372929382324218750e+01 -3.282952785491943359e+00 -4.088765382766723633e-01 5.816243171691894531e+00 1.622210025787353516e+00 -1.456177949905395508e+00
3.970000000000000000e+03 3.055265617370605469e+01 -1.250253868103027344e+01 -7.650198340415954590e-01 7.176499366760253906e-01 -1.421098317950963974e-02 3.281584084033966064e-01
3.971000000000000000e+03 4.690175247192382812e+01 -2.301505470275878906e+01 2.487048625946044922e+00 7.280660629272460938e+00 2.930312633514404297e+00 -1.628516435623168945e+00
3.972000000000000000e+03 7.394686889648437500e+01 2.842470932006835938e+01 -2.396058291196823120e-01 7.970440864562988281e+00 2.319250583648681641e+00 9.100577831268310547e-01
3.973000000000000000e+03 5.828596115112304688e+00 2.538954162597656250e+01 7.926119863986968994e-02 -1.188830137252807617e+00 -3.328706920146942139e-01 2.205444499850273132e-02
3.974000000000000000e+03 5.394312858581542969e+00 -2.642312240600585938e+01 4.024804220534861088e-04 -1.320522162131965160e-03 -2.754125162027776241e-04 2.011975157074630260e-04
3.975000000000000000e+03 5.896178817749023438e+01 -1.914367294311523438e+01 -1.393365621566772461e+00 1.193781852722167969e+00 -5.987514182925224304e-02 2.572271585464477539e+00
3.976000000000000000e+03 5.454453468322753906e+00 2.207483673095703125e+01 1.039189621806144714e-01 -1.237568736076354980e+00 -3.400949537754058838e-01 1.118802279233932495e-01
3.977000000000000000e+03 7.407375335693359375e+01 4.636242389678955078e+00 5.253292322158813477e-01 9.372610092163085938e+00 2.969381809234619141e+00 8.252487778663635254e-01
3.978000000000000000e+03 7.393674468994140625e+01 1.640258789062500000e+01 5.056385695934295654e-02 8.697316169738769531e+00 2.624364137649536133e+00 7.411366701126098633e-01
3.979000000000000000e+03 7.535453033447265625e+01 1.806492233276367188e+01 5.467309430241584778e-02 8.558987617492675781e+00 2.584098100662231445e+00 7.594163417816162109e-01
3.980000000000000000e+03 7.533856201171875000e+01 2.130212211608886719e+01 9.686283767223358154e-02 8.650893211364746094e+00 2.624326944351196289e+00 8.087548017501831055e-01
3.981000000000000000e+03 4.147954559326171875e+01 3.860212326049804688e+00 6.665395498275756836e-01 7.483473777770996094e+00 2.445003986358642578e+00 -1.811043381690979004e+00
3.982000000000000000e+03 4.098334884643554688e+01 4.619677543640136719e+00 8.242381215095520020e-01 7.673241138458251953e+00 2.549243688583374023e+00 -1.634988069534301758e+00
3.983000000000000000e+03 4.667098236083984375e+01 -1.261001110076904297e+01 -2.042332410812377930e+00 5.964038372039794922e+00 1.176511764526367188e+00 1.396345645189285278e-01
3.984000000000000000e+03 4.630609893798828125e+01 -9.780105590820312500e+00 -1.345494747161865234e+00 5.537119865417480469e+00 1.257487654685974121e+00 -2.703940868377685547e-01
3.985000000000000000e+03 4.641993331909179688e+01 -1.047522354125976562e+01 -1.538174986839294434e+00 5.610890865325927734e+00 1.221814751625061035e+00 -1.289233118295669556e-01
3.986000000000000000e+03 6.146774768829345703e+00 -8.215473175048828125e+00 -6.830083748354809359e-06 7.951010047690942883e-06 3.362780489624128677e-07 1.595562139300454874e-06
3.987000000000000000e+03 4.914028167724609375e+00 -7.207711219787597656e+00 1.350741786154685542e-05 -9.883202437777072191e-06 1.087264763555140235e-06 -1.202288331114687026e-06
3.988000000000000000e+03 7.464903259277343750e+01 1.722985267639160156e+01 5.217488855123519897e-02 8.599799156188964844e+00 2.595592260360717773e+00 7.635862827301025391e-01
3.989000000000000000e+03 5.417338848114013672e+00 1.736405372619628906e+01 1.401777118444442749e-01 -1.162373065948486328e+00 -3.066586256027221680e-01 2.969126999378204346e-01
3.990000000000000000e+03 5.399654865264892578e+00 1.483513259887695312e+01 1.376223862171173096e-01 -1.086747884750366211e+00 -2.847376465797424316e-01 4.068035185337066650e-01
3.991000000000000000e+03 4.991824626922607422e+00 -3.147344398498535156e+01 -1.171503448858857155e-03 -8.798668859526515007e-04 -6.154110888019204140e-04 -2.270192271680571139e-05
3.992000000000000000e+03 5.018048763275146484e+00 2.551222229003906250e+01 5.978824570775032043e-02 -1.315703392028808594e+00 -3.767745494842529297e-01 1.600705273449420929e-02
3.993000000000000000e+03 7.521033477783203125e+01 3.317303848266601562e+01 -3.782078325748443604e-01 8.801264762878417969e+00 2.526916980743408203e+00 4.037924110889434814e-01
3.994000000000000000e+03 7.463381958007812500e+01 3.298610305786132812e+01 -4.735719859600067139e-01 8.340003013610839844e+00 2.359929323196411133e+00 4.302385449409484863e-01
3.995000000000000000e+03 5.159868240356445312e+00 -3.050030899047851562e+01 -8.283219649456441402e-04 -8.688960406288970262e-06 -2.511032798793166876e-04 4.209677281323820353e-04
3.996000000000000000e+03 7.462867736816406250e+01 2.127968978881835938e+01 1.079445034265518188e-01 8.572766304016113281e+00 2.604213237762451172e+00 8.063268661499023438e-01
3.997000000000000000e+03 7.534950256347656250e+01 2.292093467712402344e+01 1.094142347574234009e-01 8.678439140319824219e+00 2.636356115341186523e+00 8.540635704994201660e-01
3.998000000000000000e+03 7.468006896972656250e+01 2.453695678710937500e+01 1.132483854889869690e-01 8.484625816345214844e+00 2.579362392425537109e+00 9.067814946174621582e-01
3.999000000000000000e+03 7.541400909423828125e+01 -2.450636482238769531e+01 3.462319374084472656e-01 7.481739044189453125e+00 2.348391294479370117e+00 1.075978040695190430e+00
4.000000000000000000e+03 7.475351715087890625e+01 2.528884315490722656e+01 7.603877782821655273e-02 8.490257263183593750e+00 2.569888830184936523e+00 9.277883172035217285e-01
4.001000000000000000e+03 5.289918422698974609e+00 2.731539535522460938e+01 4.650799185037612915e-02 -1.264518618583679199e+00 -3.654031753540039062e-01 -1.854254864156246185e-02
4.002000000000000000e+03 7.463999176025390625e+01 1.965969848632812500e+01 7.993908971548080444e-02 8.604157447814941406e+00 2.605229139328002930e+00 7.878352999687194824e-01
4.003000000000000000e+03 7.320330047607421875e+01 -8.389964103698730469e+00 1.810723841190338135e-01 7.057432174682617188e+00 2.171551465988159180e+00 -2.395464330911636353e-01
4.004000000000000000e+03 7.408825683593750000e+01 2.674545478820800781e+01 -2.991780266165733337e-02 8.155187606811523438e+00 2.437581062316894531e+00 9.458229541778564453e-01
4.005000000000000000e+03 7.469832611083984375e+01 -7.228049755096435547e+00 1.041411757469177246e-01 7.054632663726806641e+00 2.147632122039794922e+00 -5.124850273132324219e-01
4.006000000000000000e+03 7.307342529296875000e+01 -3.125904083251953125e+00 4.541320502758026123e-01 8.819713592529296875e+00 2.782153844833374023e+00 1.593051254749298096e-01
4.007000000000000000e+03 7.461357879638671875e+01 1.365565872192382812e+01 -1.380367577075958252e-01 8.680315971374511719e+00 2.562683820724487305e+00 7.285873293876647949e-01
4.008000000000000000e+03 7.567047119140625000e+01 -1.959576797485351562e+01 -8.423606157302856445e-01 7.359716892242431641e+00 1.955206871032714844e+00 2.017436921596527100e-01
4.009000000000000000e+03 7.471371459960937500e+01 -2.136723709106445312e+01 -1.010143995285034180e+00 7.558044433593750000e+00 1.964370131492614746e+00 6.451517343521118164e-01
4.010000000000000000e+03 6.999475860595703125e+01 -1.054500770568847656e+01 5.911930203437805176e-01 5.931457996368408203e+00 1.956795215606689453e+00 6.194561719894409180e-01
4.011000000000000000e+03 7.535012054443359375e+01 1.643905258178710938e+01 2.275251038372516632e-02 8.501807212829589844e+00 2.557368040084838867e+00 7.371404170989990234e-01
4.012000000000000000e+03 7.566796875000000000e+01 -1.892447280883789062e+01 -7.887634038925170898e-01 7.251603126525878906e+00 1.938851833343505859e+00 -1.964770257472991943e-02
4.013000000000000000e+03 7.389085388183593750e+01 -1.773069000244140625e+01 -9.277116060256958008e-01 6.464919090270996094e+00 1.661162257194519043e+00 -5.970800518989562988e-01
4.014000000000000000e+03 7.535101318359375000e+01 1.887468338012695312e+01 6.247676163911819458e-02 8.591179847717285156e+00 2.596096992492675781e+00 7.699246406555175781e-01
4.015000000000000000e+03 7.535538482666015625e+01 1.725382232666015625e+01 3.995876759290695190e-02 8.531917572021484375e+00 2.571562767028808594e+00 7.469027638435363770e-01
4.016000000000000000e+03 7.560918426513671875e+01 5.885283350944519043e-01 5.145360231399536133e-01 7.537782669067382812e+00 2.415695428848266602e+00 1.162552833557128906e-01
4.017000000000000000e+03 7.400173950195312500e+01 -9.008647799491882324e-01 6.559149026870727539e-01 8.722692489624023438e+00 2.813582181930541992e+00 1.255422234535217285e-01
4.018000000000000000e+03 7.403160095214843750e+01 1.332282543182373047e+01 -1.805806308984756470e-01 8.861442565917968750e+00 2.604258775711059570e+00 6.974313855171203613e-01
4.019000000000000000e+03 7.545256805419921875e+01 1.311537742614746094e+01 -1.431496888399124146e-01 8.433946609497070312e+00 2.487239122390747070e+00 7.655552029609680176e-01
4.020000000000000000e+03 7.425183105468750000e+01 1.210322570800781250e+01 -2.626349627971649170e-01 8.891398429870605469e+00 2.588629007339477539e+00 7.899705171585083008e-01
4.021000000000000000e+03 7.465847015380859375e+01 -2.956125259399414062e+00 3.466135561466217041e-01 7.804294586181640625e+00 2.445272445678710938e+00 -2.451888322830200195e-01
4.022000000000000000e+03 7.550819396972656250e+01 1.361966133117675781e+00 5.282834172248840332e-01 7.687129974365234375e+00 2.464623928070068359e+00 2.524015903472900391e-01
4.023000000000000000e+03 7.550097656250000000e+01 2.202300548553466797e+00 5.367407202720642090e-01 7.796321868896484375e+00 2.499918699264526367e+00 4.140622019767761230e-01
4.024000000000000000e+03 7.411667633056640625e+01 8.373597264289855957e-01 8.115516304969787598e-01 9.004158973693847656e+00 2.944713115692138672e+00 3.787540793418884277e-01
4.025000000000000000e+03 7.546720886230468750e+01 3.830433607101440430e+00 4.583682417869567871e-01 7.981082439422607422e+00 2.531835317611694336e+00 6.590102314949035645e-01
4.026000000000000000e+03 7.544142150878906250e+01 5.448155879974365234e+00 3.381224870681762695e-01 8.128630638122558594e+00 2.540025949478149414e+00 8.491788506507873535e-01
4.027000000000000000e+03 7.432021331787109375e+01 1.149172019958496094e+01 -2.765736877918243408e-01 8.897411346435546875e+00 2.586251258850097656e+00 8.315449953079223633e-01
4.028000000000000000e+03 7.474006652832031250e+01 6.251212120056152344e+00 3.188643157482147217e-01 8.757529258728027344e+00 2.722918033599853516e+00 9.434707164764404297e-01
4.029000000000000000e+03 7.402424621582031250e+01 8.641266822814941406e+00 1.391686848364770412e-03 9.228772163391113281e+00 2.769049167633056641e+00 1.035858273506164551e+00
4.030000000000000000e+03 7.480256652832031250e+01 1.015898990631103516e+01 -1.798014938831329346e-01 8.729670524597167969e+00 2.564960718154907227e+00 9.793033003807067871e-01
4.031000000000000000e+03 7.425273132324218750e+01 -5.401298046112060547e+00 2.006103247404098511e-01 7.544271469116210938e+00 2.323464632034301758e+00 -3.233548104763031006e-01
4.032000000000000000e+03 7.472621917724609375e+01 -4.834681987762451172e+00 1.932104080915451050e-01 7.431359291076660156e+00 2.287370920181274414e+00 -3.904068768024444580e-01
4.033000000000000000e+03 7.279524230957031250e+01 -3.895462036132812500e+00 3.965873718261718750e-01 8.679635047912597656e+00 2.722866773605346680e+00 2.097578346729278564e-01
4.034000000000000000e+03 7.552198028564453125e+01 -1.163538455963134766e+01 -1.217766571789979935e-02 6.622941017150878906e+00 1.983228921890258789e+00 -7.331999540328979492e-01
4.035000000000000000e+03 7.440194702148437500e+01 -3.720226764678955078e+00 3.061595857143402100e-01 7.841123104095458984e+00 2.444184780120849609e+00 -2.568357586860656738e-01
4.036000000000000000e+03 7.407357788085937500e+01 -4.448833465576171875e+00 2.652349174022674561e-01 7.852650642395019531e+00 2.435365676879882812e+00 -2.309657782316207886e-01
4.037000000000000000e+03 4.436241149902343750e+01 -2.994713544845581055e+00 -2.721717655658721924e-01 5.802361011505126953e+00 1.659056782722473145e+00 -1.559427857398986816e+00
4.038000000000000000e+03 4.434227371215820312e+01 -1.447992205619812012e+00 5.159216234460473061e-04 5.983391761779785156e+00 1.795172214508056641e+00 -1.812933087348937988e+00
4.039000000000000000e+03 7.543440246582031250e+01 -1.561982822418212891e+01 -3.651836812496185303e-01 6.750528812408447266e+00 1.915603518486022949e+00 -6.266347169876098633e-01
4.040000000000000000e+03 7.357824707031250000e+01 -1.838712692260742188e+01 -1.162178277969360352e+00 6.437329769134521484e+00 1.582545399665832520e+00 -5.581844449043273926e-01
4.041000000000000000e+03 7.549513244628906250e+01 -1.240704536437988281e+01 -5.544073507189750671e-02 6.618083000183105469e+00 1.968792676925659180e+00 -7.337401509284973145e-01
4.042000000000000000e+03 7.485437774658203125e+01 -1.241873836517333984e+01 -4.212453588843345642e-02 6.505513668060302734e+00 1.939016699790954590e+00 -7.332689166069030762e-01
4.043000000000000000e+03 7.409740447998046875e+01 -8.883058547973632812e+00 1.169495955109596252e-01 6.867983341217041016e+00 2.095479965209960938e+00 -4.846774637699127197e-01
4.044000000000000000e+03 7.489885711669921875e+01 -1.167032623291015625e+01 -4.039597697556018829e-03 6.546142578125000000e+00 1.962630867958068848e+00 -7.053473591804504395e-01
4.045000000000000000e+03 7.477098846435546875e+01 -1.644443321228027344e+01 -5.529331564903259277e-01 6.615795612335205078e+00 1.818858742713928223e+00 -6.150332689285278320e-01
4.046000000000000000e+03 7.480798339843750000e+01 -1.319233512878417969e+01 -1.046428009867668152e-01 6.480946540832519531e+00 1.912891149520874023e+00 -7.354693412780761719e-01
4.047000000000000000e+03 7.475254058837890625e+01 -1.563430309295654297e+01 -4.172229170799255371e-01 6.540925979614257812e+00 1.837110877037048340e+00 -6.849923133850097656e-01
4.048000000000000000e+03 4.352718353271484375e+00 -2.294511795043945312e+01 1.422115892637521029e-04 4.567566793411970139e-04 1.796904834918677807e-04 -9.749505261424928904e-05
4.049000000000000000e+03 5.205089569091796875e+00 -2.058324050903320312e+01 9.320626850239932537e-05 4.229534533806145191e-04 1.548479194752871990e-04 -8.150429380293644499e-07
4.050000000000000000e+03 7.475809478759765625e+01 2.680151748657226562e+01 -3.100315667688846588e-02 8.478467941284179688e+00 2.534239530563354492e+00 9.596490859985351562e-01
4.051000000000000000e+03 4.628214836120605469e+00 1.328655052185058594e+01 1.028125882148742676e-01 -1.061195611953735352e+00 -2.875149250030517578e-01 4.333571493625640869e-01
4.052000000000000000e+03 7.400530242919921875e+01 2.755622673034667969e+01 -1.190692633390426636e-01 8.063910484313964844e+00 2.383452415466308594e+00 9.264224767684936523e-01
4.053000000000000000e+03 4.547703742980957031e+00 8.833885192871093750e+00 1.299818977713584900e-02 -7.545055747032165527e-01 -2.224522083997726440e-01 5.438092350959777832e-01
4.054000000000000000e+03 5.316967010498046875e+00 8.118979454040527344e+00 -1.136718410998582840e-02 -7.065181732177734375e-01 -2.153656035661697388e-01 6.147048473358154297e-01
4.055000000000000000e+03 4.901499748229980469e+00 -2.610903549194335938e+01 6.044583278708159924e-04 8.729121327633038163e-05 2.075248630717396736e-04 2.712845744099467993e-04
4.056000000000000000e+03 4.792916297912597656e+00 1.975908470153808594e+01 1.006048992276191711e-01 -1.294114470481872559e+00 -3.580528795719146729e-01 1.849405020475387573e-01
4.057000000000000000e+03 8.774055480957031250e+00 6.847221851348876953e+00 -5.479869246482849121e-02 -7.727724313735961914e-01 -2.482713311910629272e-01 8.501528501510620117e-01
4.058000000000000000e+03 4.594128608703613281e+00 -1.144081401824951172e+01 -3.667339842650108039e-05 3.174260928062722087e-05 -1.479236289014806971e-06 -1.856889139162376523e-05
4.059000000000000000e+03 1.079660224914550781e+01 -1.258976554870605469e+01 4.992019967176020145e-05 4.917634214507415891e-05 2.972896254505030811e-05 -2.140950527973473072e-06
4.060000000000000000e+03 4.718326091766357422e+00 7.227258205413818359e+00 -5.639799684286117554e-02 -6.141713857650756836e-01 -2.011708021163940430e-01 5.610468983650207520e-01
4.061000000000000000e+03 5.574495792388916016e+00 6.701709270477294922e+00 -9.277040511369705200e-02 -5.996806025505065918e-01 -2.077353000640869141e-01 6.325764656066894531e-01
4.062000000000000000e+03 7.364012908935546875e+01 -2.019668769836425781e+01 -1.526289701461791992e+00 7.051061153411865234e+00 1.657431483268737793e+00 -9.311070293188095093e-02
4.063000000000000000e+03 5.075769424438476562e+00 -1.229542446136474609e+01 -5.300700649968348444e-05 6.189751729834824800e-05 2.667153694346779957e-06 -1.877591967058833688e-05
4.064000000000000000e+03 4.467380523681640625e+00 -2.394659233093261719e+01 4.831767291761934757e-04 3.470543306320905685e-04 2.490693295840173960e-04 1.355439308099448681e-04
4.065000000000000000e+03 4.311799049377441406e+00 -1.704031372070312500e+01 1.258047996088862419e-04 -1.174703284050337970e-04 2.500340542610501871e-06 1.193070602312218398e-05
4.066000000000000000e+03 5.219865798950195312e+00 -1.783808135986328125e+01 -3.802194260060787201e-05 -2.617569407448172569e-04 -8.993366645881906152e-05 -6.473460962297394872e-05
4.067000000000000000e+03 4.993687152862548828e+00 -1.894051742553710938e+01 -1.370879035675898194e-04 -2.222412294941022992e-04 -1.077987399185076356e-04 -3.674812614917755127e-05
4.068000000000000000e+03 4.435192584991455078e+00 -1.950355339050292969e+01 1.083694223780184984e-04 3.066751232836395502e-04 1.245133607881143689e-04 -5.758965198765508831e-05
4.069000000000000000e+03 5.855102062225341797e+00 -1.519456672668457031e+01 -1.961403540917672217e-05 1.643935393076390028e-04 4.343385080574080348e-05 1.257883559446781874e-05
4.070000000000000000e+03 5.430885314941406250e+00 2.130572128295898438e+01 1.110482886433601379e-01 -1.230919718742370605e+00 -3.359614312648773193e-01 1.362260431051254272e-01
4.071000000000000000e+03 5.385292530059814453e+00 1.399918746948242188e+01 1.350702196359634399e-01 -1.054596662521362305e+00 -2.758579254150390625e-01 4.408134222030639648e-01
4.072000000000000000e+03 4.592865467071533203e+00 1.246336078643798828e+01 9.030292183160781860e-02 -1.014440298080444336e+00 -2.772412300109863281e-01 4.599068760871887207e-01
4.073000000000000000e+03 4.739051342010498047e+00 1.820378112792968750e+01 1.084627434611320496e-01 -1.260298728942871094e+00 -3.455508053302764893e-01 2.411967962980270386e-01
4.074000000000000000e+03 5.607654094696044922e+00 1.970082664489746094e+01 1.358496397733688354e-01 -1.190324306488037109e+00 -3.163424134254455566e-01 1.993488818407058716e-01
4.075000000000000000e+03 4.489817619323730469e+00 -1.223855876922607422e+01 4.177738082944415510e-05 -2.341135223105084151e-05 5.509808488568523899e-06 1.210484242619713768e-05
4.076000000000000000e+03 7.719116687774658203e+00 -1.351777839660644531e+01 1.041623704622907098e-06 -9.100160968955606222e-05 -2.698799653444439173e-05 -4.528668796410784125e-05
4.077000000000000000e+03 4.923715114593505859e+00 -2.678259849548339844e+01 8.562817674828693271e-05 -1.149680756498128176e-04 -8.801970579952467233e-06 3.441584703978151083e-04
4.078000000000000000e+03 5.102221488952636719e+00 -1.381700515747070312e+01 -1.716815313557162881e-05 2.757420224952511489e-05 3.121815097983926535e-06 -1.055190659826621413e-04
4.079000000000000000e+03 5.397432327270507812e+00 -1.336804008483886719e+01 -1.759675251378212124e-05 -1.114231708925217390e-04 -3.870597720379009843e-05 -2.058168092844425701e-06
4.080000000000000000e+03 5.525900840759277344e+00 2.051831626892089844e+01 1.284828633069992065e-01 -1.205093741416931152e+00 -3.229832649230957031e-01 1.663318723440170288e-01
4.081000000000000000e+03 5.292972087860107422e+00 1.235357570648193359e+01 1.155052408576011658e-01 -9.792318344116210938e-01 -2.591179907321929932e-01 5.047984719276428223e-01
4.082000000000000000e+03 6.085489749908447266e+00 -1.090203857421875000e+01 3.815060154011007398e-06 -4.890862328466027975e-05 -1.352806884824531153e-05 2.988615960930474102e-06
4.083000000000000000e+03 4.824606418609619141e+00 1.049148178100585938e+01 6.677006185054779053e-02 -8.818129301071166992e-01 -2.445128560066223145e-01 5.362979769706726074e-01
4.084000000000000000e+03 5.432507038116455078e+00 1.654074096679687500e+01 1.385852545499801636e-01 -1.140484333038330078e+00 -3.005697131156921387e-01 3.302460610866546631e-01
4.085000000000000000e+03 6.004806995391845703e+00 1.555563163757324219e+01 1.669134199619293213e-01 -1.069126009941101074e+00 -2.706637680530548096e-01 3.910177350044250488e-01
4.086000000000000000e+03 6.068101882934570312e+00 2.713309669494628906e+01 6.291626393795013428e-02 -1.142746448516845703e+00 -3.239490389823913574e-01 -1.999363675713539124e-02
4.087000000000000000e+03 5.478649139404296875e+00 1.813488388061523438e+01 1.407085955142974854e-01 -1.177349925041198730e+00 -3.109923899173736572e-01 2.622113227844238281e-01
4.088000000000000000e+03 5.681618499755859375e+01 -1.988072776794433594e+01 -4.396935403347015381e-01 1.068606600165367126e-01 -9.984986484050750732e-02 1.747008562088012695e+00
4.089000000000000000e+03 5.221799850463867188e+00 1.153181934356689453e+01 9.836308658123016357e-02 -9.363993406295776367e-01 -2.514108717441558838e-01 5.285698771476745605e-01
4.090000000000000000e+03 7.440453338623046875e+01 3.379206848144531250e+01 -4.333822131156921387e-01 8.113965988159179688e+00 2.304175138473510742e+00 3.346867561340332031e-01
4.091000000000000000e+03 7.248818969726562500e+01 3.397516250610351562e+01 -6.407869458198547363e-01 6.609870910644531250e+00 1.790725231170654297e+00 1.761073619127273560e-01
4.092000000000000000e+03 5.624515056610107422e+00 2.366856765747070312e+01 9.286958724260330200e-02 -1.220286965370178223e+00 -3.382252156734466553e-01 6.459463387727737427e-02
4.093000000000000000e+03 4.437142562866210938e+01 1.148922070860862732e-01 3.213297128677368164e-01 6.223024368286132812e+00 1.963306307792663574e+00 -2.117007732391357422e+00
4.094000000000000000e+03 6.176013469696044922e+00 2.791977691650390625e+01 5.458810925483703613e-02 -1.111064791679382324e+00 -3.169430196285247803e-01 -3.945717215538024902e-02
4.095000000000000000e+03 7.404011535644531250e+01 -3.222435379028320312e+01 -3.224729374051094055e-02 6.999046325683593750e+00 2.090039730072021484e+00 -6.684121489524841309e-02
4.096000000000000000e+03 7.471731567382812500e+01 -3.243067932128906250e+01 -5.721690505743026733e-02 6.907320022583007812e+00 2.055031061172485352e+00 -2.189076989889144897e-01
4.097000000000000000e+03 7.440325164794921875e+01 -3.325734710693359375e+01 -1.968271434307098389e-01 6.710382461547851562e+00 1.954066514968872070e+00 -1.070708334445953369e-01
4.098000000000000000e+03 5.723378658294677734e+00 2.451439857482910156e+01 8.653830736875534058e-02 -1.204769134521484375e+00 -3.354692459106445312e-01 4.004039615392684937e-02
4.099000000000000000e+03 5.827989578247070312e+00 -3.300517654418945312e+01 -1.301507116295397282e-03 -1.868448685854673386e-03 -9.509866940788924694e-04 -7.389826932922005653e-04
4.100000000000000000e+03 7.410734558105468750e+01 3.012182712554931641e+00 6.934806704521179199e-01 9.228142738342285156e+00 2.976486921310424805e+00 6.903613805770874023e-01
4.101000000000000000e+03 3.090804672241210938e+01 -1.288623619079589844e+01 -7.349551320075988770e-01 7.210823893547058105e-01 -4.161810968071222305e-03 2.557015717029571533e-01
4.102000000000000000e+03 3.203789901733398438e+01 -1.283438682556152344e+01 -6.906240582466125488e-01 1.063613533973693848e+00 1.118968278169631958e-01 -2.624363638460636139e-02
4.103000000000000000e+03 8.374840736389160156e+00 -1.471705532073974609e+01 1.201055874844314530e-05 5.056621375842951238e-05 1.877303293440490961e-05 -9.635971218813210726e-05
4.104000000000000000e+03 7.404515075683593750e+01 -2.321195411682128906e+01 -3.060047328472137451e-01 7.868433952331542969e+00 2.268728733062744141e+00 1.011373519897460938e+00
4.105000000000000000e+03 8.586396217346191406e+00 -3.277247619628906250e+01 -3.853469854220747948e-03 -8.032056502997875214e-04 -1.397002604790031910e-03 -3.600378520786762238e-03
4.106000000000000000e+03 6.767695426940917969e+00 -6.822073459625244141e+00 -9.364964171254541725e-06 1.803550185286439955e-05 2.601161440907162614e-06 9.898383723339065909e-06
4.107000000000000000e+03 7.534402370452880859e+00 7.905056476593017578e+00 4.388564266264438629e-03 -7.582925558090209961e-01 -2.261711955070495605e-01 7.659567594528198242e-01
4.108000000000000000e+03 7.894148826599121094e+00 7.286629676818847656e+00 -3.862757980823516846e-02 -7.429959774017333984e-01 -2.344870716333389282e-01 7.970964312553405762e-01
4.109000000000000000e+03 4.705265808105468750e+01 -2.508161354064941406e+01 2.589611291885375977e+00 7.295336723327636719e+00 2.965484380722045898e+00 -1.706106662750244141e+00
4.110000000000000000e+03 4.663756179809570312e+01 -2.676500701904296875e+01 2.355121135711669922e+00 7.847296714782714844e+00 3.060725212097167969e+00 -1.476142644882202148e+00
4.111000000000000000e+03 5.901593685150146484e+00 -3.597338104248046875e+01 -9.414484957233071327e-04 -4.080678801983594894e-03 -1.506638131104409695e-03 -2.982888836413621902e-03
4.112000000000000000e+03 7.320689678192138672e+00 -3.404966735839843750e+01 -2.201935509219765663e-03 -2.430394059047102928e-03 -1.389698823913931847e-03 -2.915875986218452454e-03
4.113000000000000000e+03 7.041968536376953125e+01 -9.749737739562988281e+00 4.969108402729034424e-01 6.362255573272705078e+00 2.057749748229980469e+00 5.817463994026184082e-01
4.114000000000000000e+03 6.936801910400390625e+01 -1.481223583221435547e+01 2.031488716602325439e-01 4.196486473083496094e+00 1.319890618324279785e+00 3.352782875299453735e-02
4.115000000000000000e+03 6.753147888183593750e+01 -1.303774452209472656e+01 9.070676565170288086e-01 4.162907123565673828e+00 1.520992517471313477e+00 1.036766886711120605e+00
4.116000000000000000e+03 4.175176620483398438e+01 -1.660411453247070312e+01 -9.829272627830505371e-01 7.976883888244628906e+00 2.098186969757080078e+00 -2.069364309310913086e+00
4.117000000000000000e+03 4.726057052612304688e+01 -2.235945892333984375e+01 2.195660352706909180e+00 6.735247135162353516e+00 2.679272174835205078e+00 -1.429820179939270020e+00
4.118000000000000000e+03 3.758276367187500000e+01 -1.527870655059814453e+01 -4.212720394134521484e-01 3.345427751541137695e+00 8.772467374801635742e-01 -2.182021141052246094e+00
4.119000000000000000e+03 6.555137634277343750e+01 -1.824353408813476562e+01 -8.265084028244018555e-01 1.830416202545166016e+00 3.011723458766937256e-01 1.790449500083923340e+00
4.120000000000000000e+03 9.308688163757324219e+00 -6.073372840881347656e+00 8.381861334783025086e-06 3.784398813877487555e-06 3.649878181022359058e-06 4.050412826472893357e-06
4.121000000000000000e+03 3.602352905273437500e+01 -1.411285018920898438e+01 -5.189639925956726074e-01 2.369923830032348633e+00 5.552879571914672852e-01 -1.407961845397949219e+00
4.122000000000000000e+03 4.088072204589843750e+01 3.440799236297607422e+00 5.302448272705078125e-01 7.198550224304199219e+00 2.318638563156127930e+00 -1.561484932899475098e+00
4.123000000000000000e+03 7.250949859619140625e+01 -4.679203510284423828e+00 3.410913348197937012e-01 8.487406730651855469e+00 2.648549318313598633e+00 2.716577947139739990e-01
4.124000000000000000e+03 3.494481277465820312e+01 -1.316368484497070312e+01 -6.295793652534484863e-01 2.117730140686035156e+00 4.464451968669891357e-01 -9.432476162910461426e-01
4.125000000000000000e+03 7.651351928710937500e+00 -1.444707298278808594e+01 8.165196959453169256e-06 3.378253677510656416e-05 1.258431984751950949e-05 8.915731450542807579e-05
4.126000000000000000e+03 7.194075775146484375e+01 -8.422012329101562500e+00 2.934130728244781494e-01 7.079705715179443359e+00 2.211935520172119141e+00 1.472845375537872314e-01
4.127000000000000000e+03 7.358675384521484375e+01 2.002798616886138916e-01 8.298419713973999023e-01 9.304438591003417969e+00 3.040284156799316406e+00 3.385027050971984863e-01
4.128000000000000000e+03 6.651506042480468750e+01 -1.712468147277832031e+01 -2.842236459255218506e-01 2.243075847625732422e+00 5.876556634902954102e-01 1.196642637252807617e+00
4.129000000000000000e+03 6.500259399414062500e+01 -1.868241691589355469e+01 -1.006528019905090332e+00 1.891440510749816895e+00 2.654737532138824463e-01 1.994782924652099609e+00
4.130000000000000000e+03 1.809417533874511719e+01 5.281524658203125000e+00 1.874373853206634521e-01 -7.426705360412597656e-01 -1.665699481964111328e-01 5.705506205558776855e-01
4.131000000000000000e+03 7.390367126464843750e+01 2.375291633605957031e+01 1.560424566268920898e-01 8.286615371704101562e+00 2.532797336578369141e+00 8.271530866622924805e-01
4.132000000000000000e+03 7.390757751464843750e+01 2.290533828735351562e+01 1.559835225343704224e-01 8.367134094238281250e+00 2.556935310363769531e+00 7.959070801734924316e-01
4.133000000000000000e+03 7.285292816162109375e+01 -9.437971115112304688e+00 1.984093487262725830e-01 6.754425525665283203e+00 2.085850477218627930e+00 -2.463403940200805664e-01
4.134000000000000000e+03 5.519506454467773438e+01 -2.404027366638183594e+01 2.415213584899902344e+00 2.243774890899658203e+00 1.397696495056152344e+00 7.614914774894714355e-01
4.135000000000000000e+03 4.776424026489257812e+01 -2.434450721740722656e+01 2.563389301300048828e+00 6.492211818695068359e+00 2.716680288314819336e+00 -1.600966215133666992e+00
4.136000000000000000e+03 2.881341171264648438e+01 -7.906985282897949219e+00 -1.063775658607482910e+00 1.025669455528259277e+00 -1.143185514956712723e-02 4.382602870464324951e-01
4.137000000000000000e+03 3.319948959350585938e+01 -1.317273044586181641e+01 -6.309794783592224121e-01 1.354151487350463867e+00 2.169516086578369141e-01 -3.504117727279663086e-01
4.138000000000000000e+03 1.845199584960937500e+01 3.262645244598388672e+00 -1.956061273813247681e-01 -8.796244859695434570e-01 -3.225691914558410645e-01 6.788586378097534180e-01
4.139000000000000000e+03 7.416509246826171875e+01 1.273552322387695312e+01 -2.283687442541122437e-01 8.879754066467285156e+00 2.595415353775024414e+00 7.321289181709289551e-01
4.140000000000000000e+03 2.841272163391113281e+01 -7.178422451019287109e+00 -1.084699630737304688e+00 9.853213429450988770e-01 -2.981348708271980286e-02 4.508709907531738281e-01
4.141000000000000000e+03 4.501228713989257812e+01 -1.869034004211425781e+01 7.622126489877700806e-02 8.526375770568847656e+00 2.580779075622558594e+00 -7.311028838157653809e-01
4.142000000000000000e+03 1.195325183868408203e+01 -1.183000183105468750e+01 2.090137786581180990e-05 -5.535907985176891088e-05 -1.033731041388818994e-05 5.132051796863379423e-07
4.143000000000000000e+03 6.165062904357910156e+00 -2.268854141235351562e+01 1.766553905326873064e-04 4.354168777354061604e-04 1.836216833908110857e-04 -1.154559049609815702e-05
4.144000000000000000e+03 5.611647129058837891e+00 -2.168618965148925781e+01 2.479639078956097364e-04 -1.991908357013016939e-05 6.841344293206930161e-05 3.273361071478575468e-04
4.145000000000000000e+03 7.259835052490234375e+01 -6.527549266815185547e+00 2.624568045139312744e-01 7.721117496490478516e+00 2.395072221755981445e+00 8.653981983661651611e-02
4.146000000000000000e+03 2.594804000854492188e+01 -3.408180236816406250e+00 -9.754061698913574219e-01 5.167379379272460938e-01 -1.376004666090011597e-01 4.722217917442321777e-01
4.147000000000000000e+03 7.412701416015625000e+01 2.223215818405151367e+00 7.344560027122497559e-01 9.116354942321777344e+00 2.955243349075317383e+00 5.680916309356689453e-01
4.148000000000000000e+03 5.462432098388671875e+01 -2.360877227783203125e+01 2.214019298553466797e+00 2.181901216506958008e+00 1.318776130676269531e+00 4.425654113292694092e-01
4.149000000000000000e+03 6.794167327880859375e+01 -1.827845954895019531e+01 -5.961545109748840332e-01 1.775876760482788086e+00 3.539166748523712158e-01 2.976286709308624268e-01
4.150000000000000000e+03 6.490441799163818359e+00 -2.891837501525878906e+01 -1.782206236384809017e-04 -9.741554385982453823e-04 -3.457128186710178852e-04 -2.293113939231261611e-04
4.151000000000000000e+03 7.013973999023437500e+01 -1.178050136566162109e+01 5.085494518280029297e-01 5.501348972320556641e+00 1.802969574928283691e+00 3.071706891059875488e-01
4.152000000000000000e+03 5.235158157348632812e+01 -2.769789695739746094e+01 2.508491754531860352e+00 4.614340782165527344e+00 2.136849641799926758e+00 -7.116984128952026367e-01
4.153000000000000000e+03 5.405088424682617188e+01 -2.665344238281250000e+01 2.450219392776489258e+00 4.002757072448730469e+00 1.935892939567565918e+00 1.356542557477951050e-01
4.154000000000000000e+03 2.408183670043945312e+01 -1.261838436126708984e+00 -7.605527043342590332e-01 5.645196139812469482e-02 -2.112302184104919434e-01 4.848140478134155273e-01
4.155000000000000000e+03 9.381474494934082031e+00 -1.331649971008300781e+01 3.111118985543726012e-06 -1.224168372573330998e-04 -3.579171607270836830e-05 1.195123240904649720e-05
4.156000000000000000e+03 1.100857925415039062e+01 5.934741020202636719e+00 -1.002207100391387939e-01 -9.019138216972351074e-01 -3.006403744220733643e-01 9.267783164978027344e-01
4.157000000000000000e+03 2.455429458618164062e+01 -7.077538371086120605e-01 -6.105691194534301758e-01 2.811447083950042725e-01 -9.882733225822448730e-02 3.930760920047760010e-01
4.158000000000000000e+03 5.867621231079101562e+01 -1.972206306457519531e+01 -8.856366872787475586e-01 1.118282437324523926e+00 6.979373842477798462e-02 2.502563714981079102e+00
4.159000000000000000e+03 5.772203826904296875e+01 -2.024127197265625000e+01 -3.076286315917968750e-01 6.898589730262756348e-01 1.146690994501113892e-01 2.127075672149658203e+00
4.160000000000000000e+03 4.575473785400390625e+01 -6.436869144439697266e+00 -6.389908194541931152e-01 5.462181568145751953e+00 1.446957230567932129e+00 -9.762257337570190430e-01
4.161000000000000000e+03 7.325997924804687500e+01 -6.636568069458007812e+00 2.082275599241256714e-01 7.554059505462646484e+00 2.328685998916625977e+00 -1.301377713680267334e-01
4.162000000000000000e+03 4.576198959350585938e+01 -2.160847282409667969e+01 2.366318225860595703e+00 8.198448181152343750e+00 3.169430017471313477e+00 -1.412827730178833008e+00
4.163000000000000000e+03 7.488630676269531250e+01 -1.019568347930908203e+01 4.776779934763908386e-02 6.656688690185546875e+00 2.011336803436279297e+00 -6.497780084609985352e-01
4.164000000000000000e+03 4.817132949829101562e+01 -3.203953552246093750e+01 1.041778802871704102e+00 6.476598262786865234e+00 2.255513191223144531e+00 -1.024982333183288574e+00
4.165000000000000000e+03 4.838456726074218750e+01 -2.735966110229492188e+01 2.505143165588378906e+00 6.241819858551025391e+00 2.624089002609252930e+00 -1.505440354347229004e+00
4.166000000000000000e+03 3.776851272583007812e+01 1.928498458862304688e+01 8.469136357307434082e-01 6.270354747772216797e+00 2.135180473327636719e+00 -3.537764549255371094e-01
4.167000000000000000e+03 8.586664199829101562e+00 -1.343930244445800781e+01 -5.255261044112558011e-07 1.303278404520824552e-04 3.894069595844484866e-05 2.693398164410609752e-05
4.168000000000000000e+03 2.953178215026855469e+01 -9.305196762084960938e+00 -9.897990226745605469e-01 1.042189359664916992e+00 1.571710035204887390e-02 3.990977406501770020e-01
4.169000000000000000e+03 3.983792114257812500e+01 6.435264110565185547e+00 1.303413271903991699e+00 7.813990116119384766e+00 2.735220909118652344e+00 -1.246140599250793457e+00
4.170000000000000000e+03 3.713012695312500000e+01 1.535091972351074219e+01 1.398100376129150391e+00 6.526051521301269531e+00 2.377245426177978516e+00 -7.582677602767944336e-01
4.171000000000000000e+03 3.793135833740234375e+01 1.639820098876953125e+01 1.183264493942260742e+00 6.891032695770263672e+00 2.422289133071899414e+00 -5.461105704307556152e-01
4.172000000000000000e+03 7.501203155517578125e+01 -1.549169898033142090e+00 4.272014498710632324e-01 7.735413551330566406e+00 2.448784589767456055e+00 -1.538880616426467896e-01
4.173000000000000000e+03 7.392177581787109375e+01 2.462981224060058594e+01 1.408847123384475708e-01 8.217575073242187500e+00 2.507537841796875000e+00 8.611881732940673828e-01
4.174000000000000000e+03 6.270643234252929688e+00 -1.677279281616210938e+01 3.885255864588543773e-06 -2.258403837913647294e-04 -6.658653728663921356e-05 -3.536169970175251365e-05
4.175000000000000000e+03 7.213951587677001953e+00 -1.571947193145751953e+01 -3.540274337865412235e-05 -1.251828507520258427e-04 -4.817567605641670525e-05 -5.817960300191771239e-06
4.176000000000000000e+03 5.133126449584960938e+01 -3.109420585632324219e+01 1.851657032966613770e+00 5.510090827941894531e+00 2.208524465560913086e+00 -9.788196086883544922e-01
4.177000000000000000e+03 4.509899902343750000e+01 -6.629152297973632812e+00 -8.250244855880737305e-01 5.566007614135742188e+00 1.422294855117797852e+00 -9.383617043495178223e-01
4.178000000000000000e+03 1.707297706604003906e+01 4.171961784362792969e+00 -9.613987058401107788e-02 -9.644654393196105957e-01 -3.181816041469573975e-01 7.356515526771545410e-01
4.179000000000000000e+03 4.663858795166015625e+01 -1.327821636199951172e+01 -2.135397911071777344e+00 6.165742874145507812e+00 1.209103465080261230e+00 1.471604555845260620e-01
4.180000000000000000e+03 6.766830444335937500e+01 -1.411464977264404297e+01 6.284430027008056641e-01 3.794884204864501953e+00 1.326998114585876465e+00 7.770430445671081543e-01
4.181000000000000000e+03 6.961260223388671875e+01 -1.247487068176269531e+01 5.404655933380126953e-01 5.052340507507324219e+00 1.677841782569885254e+00 3.781921267509460449e-01
4.182000000000000000e+03 1.951411628723144531e+01 1.718460679054260254e+00 -4.898462593555450439e-01 -8.632896542549133301e-01 -4.059407711029052734e-01 7.038961052894592285e-01
4.183000000000000000e+03 5.307044982910156250e+01 -1.986672592163085938e+01 -2.139284163713455200e-01 1.333006501197814941e+00 3.357234299182891846e-01 -3.586578071117401123e-01
4.184000000000000000e+03 7.286384582519531250e+01 3.728989410400390625e+01 -2.205465734004974365e-01 6.545609474182128906e+00 1.897518873214721680e+00 -5.021096020936965942e-02
4.185000000000000000e+03 7.028318023681640625e+01 3.487850570678710938e+01 -7.923308610916137695e-01 4.401452541351318359e+00 1.082736611366271973e+00 -1.432335078716278076e-01
4.186000000000000000e+03 6.408184528350830078e+00 -3.358081817626953125e+01 -2.430661348626017570e-03 -2.432012930512428284e-03 -1.458802376873791218e-03 -2.551387762650847435e-03
4.187000000000000000e+03 4.728011703491210938e+01 -2.392656517028808594e+01 2.530293941497802734e+00 6.956129550933837891e+00 2.845927000045776367e+00 -1.688595771789550781e+00
4.188000000000000000e+03 2.535054969787597656e+01 -2.673612356185913086e+00 -9.098099470138549805e-01 3.664809167385101318e-01 -1.629987061023712158e-01 4.758677482604980469e-01
4.189000000000000000e+03 3.951734161376953125e+01 2.731019973754882812e+01 -1.314377933740615845e-01 4.857800960540771484e+00 1.417909026145935059e+00 3.356685861945152283e-02
4.190000000000000000e+03 3.716720962524414062e+01 -1.436228179931640625e+01 -5.828268527984619141e-01 3.182650089263916016e+00 7.799469828605651855e-01 -1.881394863128662109e+00
4.191000000000000000e+03 3.861697006225585938e+01 2.438906097412109375e+01 2.585729360580444336e-01 5.340999126434326172e+00 1.679871678352355957e+00 -8.827505260705947876e-02
4.192000000000000000e+03 3.961931228637695312e+01 2.586959075927734375e+01 7.249020785093307495e-02 5.158555030822753906e+00 1.569313526153564453e+00 1.042216792702674866e-01
4.193000000000000000e+03 6.903682231903076172e+00 -1.522876358032226562e+01 2.703796417335979640e-05 1.522595848655328155e-04 5.378926653065718710e-05 9.874439274426549673e-05
4.194000000000000000e+03 5.412338638305664062e+01 -2.164405059814453125e+01 1.178060412406921387e+00 1.380857586860656738e+00 7.676753997802734375e-01 9.768440574407577515e-02
4.195000000000000000e+03 5.630107116699218750e+01 -2.214946174621582031e+01 1.512058854103088379e+00 1.116466283798217773e+00 7.885575294494628906e-01 1.273019909858703613e+00
4.196000000000000000e+03 7.344200134277343750e+01 2.662943077087402344e+01 -3.512429073452949524e-03 7.829255104064941406e+00 2.347722768783569336e+00 8.808102607727050781e-01
4.197000000000000000e+03 7.362543487548828125e+01 2.583503150939941406e+01 7.748810201883316040e-02 8.001671791076660156e+00 2.423748016357421875e+00 8.848891258239746094e-01
4.198000000000000000e+03 2.274575042724609375e+01 4.777996614575386047e-02 -5.972066521644592285e-01 -2.456681430339813232e-01 -2.528624534606933594e-01 5.086707472801208496e-01
4.199000000000000000e+03 1.990227699279785156e+01 2.287502288818359375e+00 -3.140973746776580811e-01 -7.284747362136840820e-01 -3.127716183662414551e-01 6.101569533348083496e-01
4.200000000000000000e+03 1.508047676086425781e+01 -9.173776626586914062e+00 6.938081696716835722e-06 1.387499469274189323e-05 6.243922598514473066e-06 1.086292922991560772e-05
4.201000000000000000e+03 7.391798400878906250e+01 1.483078002929687500e+01 -2.917091734707355499e-02 8.782225608825683594e+00 2.625916481018066406e+00 6.850752830505371094e-01
4.202000000000000000e+03 1.128368759155273438e+01 -6.784142971038818359e+00 6.206568741617957130e-06 2.573673327788128518e-06 2.634072643559193239e-06 4.174194145889487118e-06
4.203000000000000000e+03 1.579014015197753906e+01 5.051032066345214844e+00 -3.700078465044498444e-03 -9.841302633285522461e-01 -2.963491082191467285e-01 7.761818766593933105e-01
4.204000000000000000e+03 5.474292373657226562e+01 -2.198190116882324219e+01 1.462427020072937012e+00 1.305113554000854492e+00 8.302621841430664062e-01 4.025106728076934814e-01
4.205000000000000000e+03 7.463623046875000000e+01 6.926643252372741699e-01 6.968453526496887207e-01 8.380373954772949219e+00 2.723165750503540039e+00 2.568276524543762207e-01
4.206000000000000000e+03 7.332156372070312500e+01 2.748870277404785156e+01 -1.216624602675437927e-01 7.684330940246582031e+00 2.268800497055053711e+00 8.835936188697814941e-01
4.207000000000000000e+03 2.318791961669921875e+01 6.279811859130859375e-01 -4.325380027294158936e-01 -4.775428026914596558e-02 -1.440876871347427368e-01 4.181168079376220703e-01
4.208000000000000000e+03 2.093717765808105469e+01 6.520356535911560059e-01 -6.221086978912353516e-01 -6.804630160331726074e-01 -3.907715082168579102e-01 6.494827270507812500e-01
4.209000000000000000e+03 6.261997985839843750e+01 -1.910222434997558594e+01 -1.215640544891357422e+00 2.288806915283203125e+00 3.219498991966247559e-01 2.570284128189086914e+00
4.210000000000000000e+03 6.218403625488281250e+01 -1.835347747802734375e+01 -1.321634054183959961e+00 2.384473085403442383e+00 3.188517391681671143e-01 2.537196397781372070e+00
4.211000000000000000e+03 3.944542694091796875e+01 2.779733657836914062e+00 3.629914820194244385e-01 6.481346130371093750e+00 2.053301334381103516e+00 -1.080291748046875000e+00
4.212000000000000000e+03 3.732897949218750000e+01 1.815764617919921875e+01 1.014387249946594238e+00 6.263627052307128906e+00 2.183404445648193359e+00 -5.240063071250915527e-01
4.213000000000000000e+03 5.758597373962402344e+00 -1.732242202758789062e+01 1.449919545848388225e-05 2.730089763645082712e-04 8.625245391158387065e-05 6.388625479303300381e-05
4.214000000000000000e+03 3.700811004638671875e+01 1.647981262207031250e+01 1.242096066474914551e+00 6.330767154693603516e+00 2.271858930587768555e+00 -6.702924966812133789e-01
4.215000000000000000e+03 4.333858489990234375e+01 -1.729303359985351562e+01 -8.600171804428100586e-01 8.664184570312500000e+00 2.341250181198120117e+00 -1.272271275520324707e+00
4.216000000000000000e+03 7.468191528320312500e+01 2.839904975891113281e+01 -2.062038481235504150e-01 8.457815170288085938e+00 2.475483417510986328e+00 9.199041724205017090e-01
4.217000000000000000e+03 7.322502899169921875e+01 2.841822624206542969e+01 -2.568925023078918457e-01 7.552033424377441406e+00 2.188542127609252930e+00 8.469160199165344238e-01
4.218000000000000000e+03 1.342903423309326172e+01 6.069980621337890625e+00 4.067250713706016541e-02 -9.797191023826599121e-01 -2.817139923572540283e-01 8.533169627189636230e-01
4.219000000000000000e+03 1.460548591613769531e+01 4.917188167572021484e+00 -1.041197553277015686e-01 -1.034628152847290039e+00 -3.416243791580200195e-01 8.675802350044250488e-01
4.220000000000000000e+03 4.157295989990234375e+01 -1.569810295104980469e+01 -1.341198563575744629e+00 7.421329975128173828e+00 1.824039459228515625e+00 -1.933405995368957520e+00
4.221000000000000000e+03 4.096296310424804688e+01 -1.583571338653564453e+01 -1.138058781623840332e+00 7.083141326904296875e+00 1.783524751663208008e+00 -2.219394683837890625e+00
4.222000000000000000e+03 6.590750885009765625e+01 -1.613845252990722656e+01 3.837530687451362610e-02 2.642890453338623047e+00 8.043797016143798828e-01 1.369032502174377441e+00
4.223000000000000000e+03 7.343788146972656250e+01 -2.097797012329101562e+01 -1.592897176742553711e+00 7.292406558990478516e+00 1.709852814674377441e+00 1.562944650650024414e-01
4.224000000000000000e+03 3.786993026733398438e+01 2.258289718627929688e+01 4.804737567901611328e-01 5.549626827239990234e+00 1.809030175209045410e+00 -2.427066266536712646e-01
4.225000000000000000e+03 5.138897323608398438e+01 -1.915296173095703125e+01 -8.172146081924438477e-01 2.851926565170288086e+00 6.104136109352111816e-01 -5.808163881301879883e-01
4.226000000000000000e+03 1.435613059997558594e+01 -8.818817138671875000e+00 1.040833740262314677e-05 -9.509022333986649755e-07 2.837230567820370197e-06 1.760328473210392985e-06
4.227000000000000000e+03 7.392373657226562500e+01 2.125851440429687500e+01 1.175755336880683899e-01 8.501969337463378906e+00 2.585863590240478516e+00 7.697445154190063477e-01
4.228000000000000000e+03 3.835902023315429688e+01 2.026631927490234375e+01 7.300776243209838867e-01 6.273382663726806641e+00 2.101037979125976562e+00 -1.827120929956436157e-01
4.229000000000000000e+03 3.796363830566406250e+01 2.129944419860839844e+01 6.349841356277465820e-01 5.920968055725097656e+00 1.966785669326782227e+00 -2.517248690128326416e-01
4.230000000000000000e+03 1.371507167816162109e+01 -9.634520530700683594e+00 -1.121077275456627831e-05 -1.698148116702213883e-05 -8.457676813122816384e-06 -6.731761004630243406e-06
4.231000000000000000e+03 1.261664962768554688e+01 -1.072380447387695312e+01 2.008925912377890199e-05 1.474437704018782824e-05 1.045009048539213836e-05 9.732297257869504392e-06
4.232000000000000000e+03 7.305181121826171875e+01 3.060201454162597656e+01 -5.671218037605285645e-01 7.264213085174560547e+00 2.009127378463745117e+00 6.552946567535400391e-01
4.233000000000000000e+03 7.316132354736328125e+01 2.945160865783691406e+01 -4.383227229118347168e-01 7.417000770568847656e+00 2.093603372573852539e+00 7.848588228225708008e-01
4.234000000000000000e+03 4.568833923339843750e+01 -1.889111137390136719e+01 1.232898905873298645e-01 7.929982185363769531e+00 2.415981531143188477e+00 -6.004817485809326172e-01
4.235000000000000000e+03 3.812414550781250000e+01 1.037055206298828125e+01 1.998321652412414551e+00 7.255686759948730469e+00 2.776202440261840820e+00 -9.788162112236022949e-01
4.236000000000000000e+03 4.087712097167968750e+01 2.902218246459960938e+01 -3.285481035709381104e-01 4.567793369293212891e+00 1.271773576736450195e+00 2.060111314058303833e-01
4.237000000000000000e+03 4.931816101074218750e+01 -1.767496490478515625e+01 -1.529236435890197754e+00 4.800550937652587891e+00 9.813944101333618164e-01 -2.251950949430465698e-01
4.238000000000000000e+03 7.174416351318359375e+01 3.327420806884765625e+01 -8.005475401878356934e-01 5.847812175750732422e+00 1.514179468154907227e+00 2.020698189735412598e-01
4.239000000000000000e+03 7.331313323974609375e+01 3.446718978881835938e+01 -5.208728313446044922e-01 7.198931217193603516e+00 2.003417491912841797e+00 1.815510839223861694e-01
4.240000000000000000e+03 7.304952239990234375e+01 -3.518577575683593750e+01 -3.519047200679779053e-01 5.952486038208007812e+00 1.680174469947814941e+00 3.340561389923095703e-01
4.241000000000000000e+03 4.616781997680664062e+01 -2.076362037658691406e+01 1.707912445068359375e+00 7.703823089599609375e+00 2.823520660400390625e+00 -1.012847781181335449e+00
4.242000000000000000e+03 2.798570632934570312e+01 -6.435196399688720703e+00 -1.093250036239624023e+00 9.305381178855895996e-01 -4.881357401609420776e-02 4.629551768302917480e-01
4.243000000000000000e+03 3.622264480590820312e+01 1.256096458435058594e+01 1.795723438262939453e+00 5.985063552856445312e+00 2.334236145019531250e+00 -8.984218239784240723e-01
4.244000000000000000e+03 3.717338943481445312e+01 1.142145824432373047e+01 1.908855319023132324e+00 6.598050594329833984e+00 2.552071809768676758e+00 -9.275782704353332520e-01
4.245000000000000000e+03 7.306967163085937500e+01 -3.637541961669921875e+01 -3.210789263248443604e-01 5.666502952575683594e+00 1.603627204895019531e+00 3.851163089275360107e-01
4.246000000000000000e+03 5.745244503021240234e+00 -2.228084564208984375e+01 1.183371132356114686e-04 -5.668990779668092728e-04 -1.345685886917635798e-04 -3.377323155291378498e-04
4.247000000000000000e+03 6.695407867431640625e+01 -1.560886478424072266e+01 2.417763769626617432e-01 2.999392509460449219e+00 9.723506569862365723e-01 9.144580364227294922e-01
4.248000000000000000e+03 6.861083984375000000e+01 -1.846114349365234375e+01 -7.706375122070312500e-01 2.050140619277954102e+00 3.838509023189544678e-01 -1.513711363077163696e-01
4.249000000000000000e+03 1.285756587982177734e+01 6.618414878845214844e+00 8.901717513799667358e-02 -9.536259770393371582e-01 -2.593826353549957275e-01 8.499194383621215820e-01
4.250000000000000000e+03 4.282704925537109375e+01 3.144125556945800781e+01 -5.578662753105163574e-01 3.984806776046752930e+00 1.028082132339477539e+00 3.858052790164947510e-01
4.251000000000000000e+03 2.023137474060058594e+01 1.197756528854370117e+00 -5.552908778190612793e-01 -7.811323404312133789e-01 -4.009269773960113525e-01 6.735122203826904297e-01
4.252000000000000000e+03 3.713473129272460938e+01 1.239144897460937500e+01 1.809681534767150879e+00 6.628210544586181641e+00 2.531367540359497070e+00 -9.287844896316528320e-01
4.253000000000000000e+03 3.800901031494140625e+01 1.226026153564453125e+01 1.808961272239685059e+00 7.340577602386474609e+00 2.744861602783203125e+00 -9.800755977630615234e-01
4.254000000000000000e+03 3.716278076171875000e+01 1.435017013549804688e+01 1.519642114639282227e+00 6.639778137207031250e+00 2.447826147079467773e+00 -8.405930995941162109e-01
4.255000000000000000e+03 3.713408279418945312e+01 1.337845230102539062e+01 1.686043024063110352e+00 6.660177230834960938e+00 2.503866195678710938e+00 -9.013244509696960449e-01
4.256000000000000000e+03 4.655297851562500000e+01 -2.887546157836914062e+01 2.071724891662597656e+00 7.526353836059570312e+00 2.879423618316650391e+00 -1.231058597564697266e+00
4.257000000000000000e+03 6.682999134063720703e+00 -3.510588073730468750e+01 -1.788820256479084492e-03 -3.493942553177475929e-03 -1.584828831255435944e-03 -3.469665301963686943e-03
4.258000000000000000e+03 5.138568496704101562e+01 -2.934188842773437500e+01 2.283976554870605469e+00 5.163834095001220703e+00 2.234343051910400391e+00 -1.003225684165954590e+00
4.259000000000000000e+03 3.726141738891601562e+01 9.554374694824218750e+00 1.902265906333923340e+00 6.493200302124023438e+00 2.518639802932739258e+00 -8.287466764450073242e-01
4.260000000000000000e+03 3.816826629638671875e+01 9.440261840820312500e+00 1.947539925575256348e+00 7.161795139312744141e+00 2.732800483703613281e+00 -9.155708551406860352e-01
4.261000000000000000e+03 5.855946063995361328e+00 3.415646362304687500e+01 -1.995030045509338379e-02 -1.111597895622253418e+00 -3.394644558429718018e-01 -7.298436015844345093e-02
4.262000000000000000e+03 6.817338466644287109e+00 3.429870986938476562e+01 -1.622453890740871429e-02 -9.636951088905334473e-01 -2.939758896827697754e-01 -1.034570783376693726e-01
4.263000000000000000e+03 5.457888412475585938e+01 -2.470508766174316406e+01 2.483692884445190430e+00 2.775962114334106445e+00 1.577896475791931152e+00 4.716395437717437744e-01
4.264000000000000000e+03 1.108032512664794922e+01 -3.553961944580078125e+01 -3.150022355839610100e-03 -9.181402623653411865e-03 -3.699427703395485878e-03 -9.623476304113864899e-03
4.265000000000000000e+03 2.776915740966796875e+01 -4.136988830566406250e+01 2.893320918083190918e-01 -4.533031582832336426e-02 7.320053130388259888e-02 -5.085470154881477356e-02
4.266000000000000000e+03 3.185326004028320312e+01 -4.134333038330078125e+01 3.954280614852905273e-01 4.144061207771301270e-01 2.429502606391906738e-01 3.534175921231508255e-03
4.267000000000000000e+03 4.282954025268554688e+01 3.654140472412109375e+01 -1.104539513587951660e+00 3.557718753814697266e+00 7.359537482261657715e-01 1.442057639360427856e-01
4.268000000000000000e+03 4.381291961669921875e+01 3.485548400878906250e+01 -9.250172972679138184e-01 3.495768785476684570e+00 7.712254524230957031e-01 2.880128920078277588e-01
4.269000000000000000e+03 7.111573028564453125e+01 3.759131240844726562e+01 -2.695869505405426025e-01 4.986858367919921875e+00 1.415181398391723633e+00 -2.204008102416992188e-01
4.270000000000000000e+03 4.235239410400390625e+01 3.363858795166015625e+01 -8.649813532829284668e-01 3.795456647872924805e+00 8.791426420211791992e-01 2.031240612268447876e-01
4.271000000000000000e+03 6.751057624816894531e+00 -3.713352203369140625e+01 8.567081385990604758e-05 -5.141036584973335266e-03 -1.516609685495495796e-03 -3.857889911159873009e-03
4.272000000000000000e+03 6.027385234832763672e+00 3.722854232788085938e+01 -3.313207998871803284e-02 -1.031695723533630371e+00 -3.194483518600463867e-01 -7.342841476202011108e-02
4.273000000000000000e+03 5.067013168334960938e+01 -3.337982177734375000e+01 8.398304581642150879e-01 5.810235500335693359e+00 1.995019793510437012e+00 -7.610859870910644531e-01
4.274000000000000000e+03 5.158987522125244141e+00 3.514460372924804688e+01 -2.694981172680854797e-02 -1.213156938552856445e+00 -3.720320165157318115e-01 -7.210314273834228516e-02
4.275000000000000000e+03 7.308619689941406250e+01 -3.755851364135742188e+01 -2.068554461002349854e-01 5.373072147369384766e+00 1.549865007400512695e+00 3.157674968242645264e-01
4.276000000000000000e+03 7.652609825134277344e+00 -3.600043869018554688e+01 -1.189505215734243393e-03 -5.663904827088117599e-03 -2.056022873148322105e-03 -4.249333869665861130e-03
4.277000000000000000e+03 8.034355163574218750e+00 -3.839933395385742188e+01 1.090789679437875748e-03 -9.568940848112106323e-03 -2.543445210903882980e-03 -5.271789617836475372e-03
4.278000000000000000e+03 2.081778144836425781e+01 -3.910954284667968750e+01 6.605149805545806885e-02 -6.750451028347015381e-02 -4.359040176495909691e-04 -5.795135721564292908e-02
4.279000000000000000e+03 5.009430694580078125e+01 -3.505674743652343750e+01 1.061734110116958618e-01 5.938324451446533203e+00 1.813349366188049316e+00 -5.747928619384765625e-01
4.280000000000000000e+03 4.856901168823242188e+01 -3.420569610595703125e+01 2.212849408388137817e-01 6.333095550537109375e+00 1.966314077377319336e+00 -6.772785186767578125e-01
4.281000000000000000e+03 5.150995635986328125e+01 -3.775913238525390625e+01 -4.906893670558929443e-01 5.580000400543212891e+00 1.526793360710144043e+00 -4.475122988224029541e-01
4.282000000000000000e+03 7.256671142578125000e+01 -4.127003097534179688e+01 6.085665896534919739e-02 4.762397766113281250e+00 1.446976423263549805e+00 1.480653285980224609e-01
4.283000000000000000e+03 4.919559478759765625e+01 -3.685426330566406250e+01 -4.909825623035430908e-01 6.158776283264160156e+00 1.700338125228881836e+00 -3.790436089038848877e-01
4.284000000000000000e+03 3.158373641967773438e+01 -1.271064949035644531e+01 -7.157820463180541992e-01 9.585706591606140137e-01 7.283657044172286987e-02 8.351592719554901123e-02
4.285000000000000000e+03 3.100308036804199219e+01 -1.209706020355224609e+01 -7.668364644050598145e-01 9.177935719490051270e-01 4.528714716434478760e-02 2.050517648458480835e-01
4.286000000000000000e+03 7.272518920898437500e+01 -1.471137142181396484e+01 -2.256798595190048218e-01 5.742412567138671875e+00 1.655019760131835938e+00 -6.966272592544555664e-01
4.287000000000000000e+03 6.463393402099609375e+01 -1.731563758850097656e+01 -6.279477477073669434e-01 2.413368225097656250e+00 5.356261730194091797e-01 1.937464952468872070e+00
4.288000000000000000e+03 6.653244018554687500e+01 -1.833707809448242188e+01 -7.199770808219909668e-01 1.588667273521423340e+00 2.606070637702941895e-01 1.334748983383178711e+00
4.289000000000000000e+03 6.727533721923828125e+01 -1.485517597198486328e+01 4.754616618156433105e-01 3.380088567733764648e+00 1.156665086746215820e+00 8.209754228591918945e-01
4.290000000000000000e+03 1.039714527130126953e+01 -7.385406494140625000e+00 1.256746782019035891e-05 1.391251498716883361e-05 7.943995115056168288e-06 7.623232249898137525e-06
4.291000000000000000e+03 1.076671314239501953e+01 -1.191856575012207031e+01 -4.853883365285582840e-05 -2.792379746097140014e-05 -2.293878969794604927e-05 -8.616961167717818171e-06
4.292000000000000000e+03 1.370361518859863281e+01 -8.178227424621582031e+00 -1.724503999867010862e-05 1.512146241111622658e-06 -4.719868229585699737e-06 -6.551685146405361593e-06
4.293000000000000000e+03 1.448472023010253906e+01 -9.274193763732910156e+00 -1.639716356294229627e-05 -9.953629160008858889e-06 -7.905237907834816724e-06 -8.533208529115654528e-06
4.294000000000000000e+03 3.095710182189941406e+01 -1.077487850189208984e+01 -8.415833711624145508e-01 1.237712025642395020e+00 1.188385859131813049e-01 1.628716886043548584e-01
4.295000000000000000e+03 4.432348632812500000e+01 -5.986529350280761719e+00 -8.160244822502136230e-01 5.639778137207031250e+00 1.447126150131225586e+00 -1.068532466888427734e+00
4.296000000000000000e+03 4.490377044677734375e+01 -5.872051715850830078e+00 -6.945778131484985352e-01 5.586638450622558594e+00 1.467618227005004883e+00 -1.091756105422973633e+00
4.297000000000000000e+03 1.185684394836425781e+01 -7.585457801818847656e+00 8.579906534578185529e-06 1.115302711696131155e-05 5.919880095461849123e-06 6.861734163976507261e-06
4.298000000000000000e+03 5.296988010406494141e+00 -2.940664672851562500e+01 5.527003668248653412e-05 -1.095163519494235516e-03 -3.119680623058229685e-04 -1.721462613204494119e-04
4.299000000000000000e+03 7.416438293457031250e+01 3.210200500488281250e+01 -5.261855125427246094e-01 8.041868209838867188e+00 2.254704952239990234e+00 5.181702971458435059e-01
4.300000000000000000e+03 7.488863372802734375e+01 3.219790649414062500e+01 -4.332770705223083496e-01 8.622292518615722656e+00 2.456704854965209961e+00 5.400320887565612793e-01
4.301000000000000000e+03 7.470960235595703125e+01 2.759425354003906250e+01 -1.137163937091827393e-01 8.452948570251464844e+00 2.501769542694091797e+00 9.558384418487548828e-01
4.302000000000000000e+03 4.243585968017578125e+01 -4.029317855834960938e+00 -7.008811831474304199e-01 5.751490592956542969e+00 1.515182852745056152e+00 -1.244529247283935547e+00
4.303000000000000000e+03 6.466140747070312500e+01 -1.820791816711425781e+01 -9.218142628669738770e-01 2.130523681640625000e+00 3.626128137111663818e-01 2.073518276214599609e+00
4.304000000000000000e+03 3.067899131774902344e+01 -1.021752357482910156e+01 -8.934870958328247070e-01 1.261774301528930664e+00 1.104861646890640259e-01 2.122306376695632935e-01
4.305000000000000000e+03 5.551974105834960938e+01 -2.068375396728515625e+01 4.588596820831298828e-01 3.172370195388793945e-01 2.328290045261383057e-01 9.027909040451049805e-01
4.306000000000000000e+03 4.399127960205078125e+01 -8.074682354927062988e-01 6.091484799981117249e-02 6.124316215515136719e+00 1.855569362640380859e+00 -1.881273269653320312e+00
4.307000000000000000e+03 3.973384094238281250e+01 -1.485292720794677734e+01 -1.109773159027099609e+00 5.676999568939208984e+00 1.370167970657348633e+00 -2.277122735977172852e+00
4.308000000000000000e+03 3.725080108642578125e+01 8.635247230529785156e+00 1.783254265785217285e+00 6.383936405181884766e+00 2.450157165527343750e+00 -7.619135975837707520e-01
4.309000000000000000e+03 1.299549674987792969e+01 -9.365367889404296875e+00 1.255419829249149188e-05 1.615952533029485494e-05 8.614117177785374224e-06 3.005503003805642948e-06
4.310000000000000000e+03 7.421640014648437500e+01 3.004914665222167969e+01 -4.028374254703521729e-01 8.079786300659179688e+00 2.303084611892700195e+00 7.800461649894714355e-01
4.311000000000000000e+03 3.041675376892089844e+01 -9.603749275207519531e+00 -9.385853409767150879e-01 1.284638285636901855e+00 1.038158908486366272e-01 2.475931048393249512e-01
4.312000000000000000e+03 4.624237060546875000e+01 -9.169068336486816406e+00 -1.224314689636230469e+00 5.493480205535888672e+00 1.280749678611755371e+00 -3.753499388694763184e-01
4.313000000000000000e+03 4.650106430053710938e+01 -1.389811897277832031e+01 -2.188144683837890625e+00 6.390355587005615234e+00 1.260663151741027832e+00 7.886599749326705933e-02
4.314000000000000000e+03 5.339464187622070312e+00 -1.046671867370605469e+01 -1.486199653299991041e-05 -4.576961146085523069e-05 -1.818948112486395985e-05 -2.746560676314402372e-05
4.315000000000000000e+03 4.803184509277343750e+01 -1.460251617431640625e+01 -2.335700750350952148e+00 5.628523349761962891e+00 9.878467917442321777e-01 3.909118771553039551e-01
4.316000000000000000e+03 4.860065841674804688e+01 -1.619410705566406250e+01 -2.079805135726928711e+00 5.421881198883056641e+00 1.002622842788696289e+00 1.429233849048614502e-01
4.317000000000000000e+03 7.470814514160156250e+01 2.917446327209472656e+01 -2.461277991533279419e-01 8.503955841064453125e+00 2.477348327636718750e+00 8.618179559707641602e-01
4.318000000000000000e+03 6.832453727722167969e+00 -3.060211753845214844e+01 -1.289940788410604000e-03 -2.699339820537716150e-04 -4.679624398704618216e-04 -1.216621836647391319e-03
4.319000000000000000e+03 4.968179225921630859e+00 6.547702789306640625e+00 -9.996546804904937744e-02 -5.562341809272766113e-01 -1.968598961830139160e-01 5.706087350845336914e-01
4.320000000000000000e+03 6.177005767822265625e+00 6.792058944702148438e+00 -9.917508065700531006e-02 -6.266883015632629395e-01 -2.177590131759643555e-01 6.826437711715698242e-01
4.321000000000000000e+03 6.113368034362792969e+00 2.196923065185546875e+01 1.273124366998672485e-01 -1.145448803901672363e+00 -3.054409027099609375e-01 1.173135042190551758e-01
4.322000000000000000e+03 4.157300186157226562e+01 1.277695059776306152e+00 1.188747882843017578e-01 6.627933025360107422e+00 2.024042367935180664e+00 -1.625757098197937012e+00
4.323000000000000000e+03 4.200186920166015625e+01 7.239852845668792725e-02 -5.402002111077308655e-02 6.354167461395263672e+00 1.890044212341308594e+00 -1.614461779594421387e+00
4.324000000000000000e+03 2.752732658386230469e+01 -5.678321838378906250e+00 -1.084867238998413086e+00 8.492755293846130371e-01 -7.067751139402389526e-02 4.652821123600006104e-01
4.325000000000000000e+03 2.825406074523925781e+01 -3.971233129501342773e+00 -8.853579163551330566e-01 1.331441640853881836e+00 1.338251084089279175e-01 2.662239074707031250e-01
4.326000000000000000e+03 6.240396976470947266e+00 2.270814323425292969e+01 1.223144978284835815e-01 -1.131670475006103516e+00 -3.028067946434020996e-01 9.438277781009674072e-02
4.327000000000000000e+03 7.481929016113281250e+01 -1.852955627441406250e+01 -1.000768542289733887e+00 6.980782032012939453e+00 1.794003963470458984e+00 -2.865179777145385742e-01
4.328000000000000000e+03 4.403984069824218750e+01 -2.369959115982055664e+00 -2.010164707899093628e-01 5.886742115020751953e+00 1.705717682838439941e+00 -1.624725699424743652e+00
4.329000000000000000e+03 4.291339492797851562e+01 -4.678968191146850586e-01 -5.199717357754707336e-02 6.244691371917724609e+00 1.857808232307434082e+00 -1.731827735900878906e+00
4.330000000000000000e+03 6.025796890258789062e+00 2.129992103576660156e+01 1.295149922370910645e-01 -1.157373070716857910e+00 -3.083574175834655762e-01 1.402973681688308716e-01
4.331000000000000000e+03 4.121453475952148438e+01 1.830132484436035156e+00 2.152596861124038696e-01 6.740686416625976562e+00 2.086783885955810547e+00 -1.566081762313842773e+00
4.332000000000000000e+03 4.268838119506835938e+01 2.375642210245132446e-01 5.460732057690620422e-02 6.405764102935791016e+00 1.938111424446105957e+00 -1.783993601799011230e+00
4.333000000000000000e+03 2.134626579284667969e+01 1.233269929885864258e+00 -4.428780078887939453e-01 -5.170549154281616211e-01 -2.879798710346221924e-01 5.499407052993774414e-01
4.334000000000000000e+03 6.507639884948730469e+00 1.490812301635742188e+01 1.986289918422698975e-01 -1.012189030647277832e+00 -2.440680265426635742e-01 4.393123984336853027e-01
4.335000000000000000e+03 5.355216026306152344e+00 -8.889274597167968750e+00 -1.288470139115815982e-05 -1.598137941982713528e-06 -4.344851731730159372e-06 -4.237239863869035617e-06
4.336000000000000000e+03 4.594534301757812500e+01 -1.251853179931640625e+01 -2.046017408370971680e+00 6.234832286834716797e+00 1.256644368171691895e+00 -4.587216675281524658e-02
4.337000000000000000e+03 4.653991317749023438e+01 -1.119440650939941406e+01 -1.716029763221740723e+00 5.706249237060546875e+00 1.197065830230712891e+00 -1.928269118070602417e-02
4.338000000000000000e+03 4.080924224853515625e+01 2.383184909820556641e+00 2.943753898143768311e-01 6.838796138763427734e+00 2.139951467514038086e+00 -1.480844378471374512e+00
4.339000000000000000e+03 6.353055953979492188e+00 1.599512863159179688e+01 1.816500723361968994e-01 -1.051732897758483887e+00 -2.610248625278472900e-01 3.772229254245758057e-01
4.340000000000000000e+03 6.501294612884521484e+00 1.546937942504882812e+01 1.994465738534927368e-01 -1.019604682922363281e+00 -2.460474371910095215e-01 4.135480225086212158e-01
4.341000000000000000e+03 7.473992919921875000e+01 -2.322915077209472656e+01 -2.002948522567749023e-01 7.720471382141113281e+00 2.256052970886230469e+00 1.126078486442565918e+00
4.342000000000000000e+03 7.499475860595703125e+01 -2.082313919067382812e+01 -9.767867922782897949e-01 7.464830875396728516e+00 1.946413278579711914e+00 5.120890140533447266e-01
4.343000000000000000e+03 7.537426757812500000e+01 -2.023893356323242188e+01 -8.958067893981933594e-01 7.432392597198486328e+00 1.960975766181945801e+00 3.706850707530975342e-01
4.344000000000000000e+03 7.412502288818359375e+01 -2.116445922851562500e+01 -1.236632347106933594e+00 7.453233242034912109e+00 1.864980340003967285e+00 4.499516189098358154e-01
4.345000000000000000e+03 7.144032287597656250e+01 -9.301217079162597656e+00 3.403329253196716309e-01 6.697916507720947266e+00 2.111474752426147461e+00 2.413356751203536987e-01
4.346000000000000000e+03 7.478919219970703125e+01 -8.705219268798828125e+00 7.992628216743469238e-02 6.830762386322021484e+00 2.073206663131713867e+00 -5.834147334098815918e-01
4.347000000000000000e+03 7.395487976074218750e+01 -1.941780090332031250e+01 -1.381566762924194336e+00 6.923709392547607422e+00 1.662642836570739746e+00 -2.452297806739807129e-01
4.348000000000000000e+03 7.451609039306640625e+01 -1.332460761070251465e+00 5.279330015182495117e-01 8.224304199218750000e+00 2.625671386718750000e+00 -4.612828046083450317e-02
4.349000000000000000e+03 7.456240081787109375e+01 -5.843746185302734375e+00 1.675107181072235107e-01 7.340697288513183594e+00 2.252462387084960938e+00 -4.096914529800415039e-01
4.350000000000000000e+03 7.395624542236328125e+01 -6.631031990051269531e+00 1.715533286333084106e-01 7.367522239685058594e+00 2.261722564697265625e+00 -3.187762796878814697e-01
4.351000000000000000e+03 7.494776153564453125e+01 -9.241330623626708984e-01 5.187888741493225098e-01 7.911045551300048828e+00 2.528950452804565430e+00 -5.749982595443725586e-02
4.352000000000000000e+03 7.486119079589843750e+01 -2.218551397323608398e+00 3.969793915748596191e-01 7.768414974212646484e+00 2.449618339538574219e+00 -2.111917585134506226e-01
4.353000000000000000e+03 6.922282218933105469e+00 2.797464179992675781e+01 6.531117111444473267e-02 -1.012767434120178223e+00 -2.842368781566619873e-01 -4.286922886967658997e-02
4.354000000000000000e+03 5.940417766571044922e+00 2.627590370178222656e+01 7.305947691202163696e-02 -1.162204980850219727e+00 -3.267436623573303223e-01 -4.439997021108865738e-03
4.355000000000000000e+03 7.512144470214843750e+01 -1.920366859436035156e+01 -9.878638386726379395e-01 7.199017524719238281e+00 1.863346099853515625e+00 -8.333860896527767181e-03
4.356000000000000000e+03 7.103501129150390625e+01 -1.014742946624755859e+01 4.089939892292022705e-01 6.329427719116210938e+00 2.021526575088500977e+00 2.701318562030792236e-01
4.357000000000000000e+03 7.315913391113281250e+01 -1.644601249694824219e+01 -6.639025211334228516e-01 5.941238403320312500e+00 1.583200812339782715e+00 -7.764080762863159180e-01
4.358000000000000000e+03 7.372383117675781250e+01 -3.413497686386108398e+00 3.832243680953979492e-01 8.318106651306152344e+00 2.610399246215820312e+00 -7.559332251548767090e-02
4.359000000000000000e+03 7.401416015625000000e+01 -5.956171035766601562e+00 1.894624531269073486e-01 7.517127990722656250e+00 2.311977148056030273e+00 -2.957562208175659180e-01
4.360000000000000000e+03 7.312541198730468750e+01 -4.904508113861083984e+00 2.888874709606170654e-01 8.147285461425781250e+00 2.530852079391479492e+00 1.909330300986766815e-02
4.361000000000000000e+03 7.344405364990234375e+01 -5.849444866180419922e+00 2.272021621465682983e-01 7.720798492431640625e+00 2.384400129318237305e+00 -1.418485343456268311e-01
4.362000000000000000e+03 7.491120910644531250e+01 -1.093339538574218750e+01 3.165980428457260132e-02 6.596935272216796875e+00 1.988578557968139648e+00 -6.891849637031555176e-01
4.363000000000000000e+03 7.136833190917968750e+01 -1.136849021911621094e+01 3.219292461872100830e-01 5.975557804107666016e+00 1.889246106147766113e+00 -1.537031028419733047e-02
4.364000000000000000e+03 7.475389862060546875e+01 -1.480882072448730469e+01 -2.999381422996520996e-01 6.489044666290283203e+00 1.856731891632080078e+00 -7.262036204338073730e-01
4.365000000000000000e+03 7.225723266601562500e+01 -1.787467575073242188e+01 -1.124413251876831055e+00 5.489544868469238281e+00 1.309539437294006348e+00 -9.092447757720947266e-01
4.366000000000000000e+03 7.430072784423828125e+01 -1.168246459960937500e+01 1.967914402484893799e-02 6.461226940155029297e+00 1.944271802902221680e+00 -6.736795902252197266e-01
4.367000000000000000e+03 7.421913146972656250e+01 -1.239334392547607422e+01 -2.378242462873458862e-02 6.388399124145507812e+00 1.909385085105895996e+00 -6.857820749282836914e-01
4.368000000000000000e+03 7.409748077392578125e+01 -1.396856784820556641e+01 -1.763570308685302734e-01 6.280178070068359375e+00 1.831146359443664551e+00 -7.321889400482177734e-01
4.369000000000000000e+03 7.477476501464843750e+01 -1.399046707153320312e+01 -1.806667894124984741e-01 6.466396808624267578e+00 1.885719060897827148e+00 -7.470793724060058594e-01
4.370000000000000000e+03 7.404617309570312500e+01 -1.567125511169433594e+01 -4.670536816120147705e-01 6.280977725982666016e+00 1.744177222251892090e+00 -7.272605895996093750e-01
4.371000000000000000e+03 7.414347076416015625e+01 -1.315988254547119141e+01 -8.091581612825393677e-02 6.320390224456787109e+00 1.871842265129089355e+00 -7.209048271179199219e-01
4.372000000000000000e+03 5.268272876739501953e+00 8.927537918090820312e+00 2.173156477510929108e-02 -7.679834961891174316e-01 -2.238755673170089722e-01 6.009467840194702148e-01
4.373000000000000000e+03 5.255571842193603516e+00 -1.164320087432861328e+01 2.590833173599094152e-05 -6.768083403585478663e-05 -1.253175105375703424e-05 2.815959851432126015e-05
4.374000000000000000e+03 6.567080974578857422e+00 -8.991290092468261719e+00 5.217684702074620873e-07 -1.480251194152515382e-05 -4.284222995920572430e-06 -3.077595465583726764e-06
4.375000000000000000e+03 7.416552734375000000e+01 -2.461772155761718750e+01 5.560796856880187988e-01 8.022532463073730469e+00 2.573583602905273438e+00 1.054120063781738281e+00
4.376000000000000000e+03 5.318032264709472656e+00 1.080322551727294922e+01 8.372566103935241699e-02 -8.926501274108886719e-01 -2.426773309707641602e-01 5.567032098770141602e-01
4.377000000000000000e+03 6.118111610412597656e+00 1.377540874481201172e+01 1.602984517812728882e-01 -1.005989074707031250e+00 -2.537071704864501953e-01 4.766132533550262451e-01
4.378000000000000000e+03 5.303537845611572266e+00 1.318577480316162109e+01 1.267236769199371338e-01 -1.023217201232910156e+00 -2.689480483531951904e-01 4.706386327743530273e-01
4.379000000000000000e+03 6.058654785156250000e+00 -1.141336917877197266e+01 2.458732160448562354e-05 -4.305693437345325947e-05 -5.540883194043999538e-06 7.821458893886301666e-06
4.380000000000000000e+03 7.527130603790283203e+00 -8.943531036376953125e+00 -1.393186812492785975e-05 -3.882153396261855960e-05 -1.582602089911233634e-05 -1.108998276322381571e-05
4.381000000000000000e+03 5.807105541229248047e+00 -1.624458503723144531e+01 -1.277115279663121328e-05 2.397825737716630101e-04 6.810342893004417419e-05 5.637780850520357490e-05
4.382000000000000000e+03 4.886336326599121094e+00 -1.621614837646484375e+01 3.675390871649142355e-06 2.170709631172940135e-04 6.622390355914831161e-05 1.315061235800385475e-04
4.383000000000000000e+03 5.934529781341552734e+00 -9.638951301574707031e+00 -3.180332441843347624e-06 -2.677393604244571179e-05 -8.986280590761452913e-06 -1.359647376375505701e-05
4.384000000000000000e+03 5.603283405303955078e+00 -1.384013271331787109e+01 -8.267107659776229411e-06 6.375792145263403654e-05 1.664724368310999125e-05 1.098002685466781259e-04
4.385000000000000000e+03 5.368237972259521484e+00 -1.485312557220458984e+01 5.827776931255357340e-06 -1.429406256647780538e-04 -4.113385512027889490e-05 -2.078762736346106976e-05
4.386000000000000000e+03 3.125829887390136719e+01 -1.248011016845703125e+01 -7.384956479072570801e-01 9.188023805618286133e-01 5.409203469753265381e-02 1.713040471076965332e-01
4.387000000000000000e+03 3.273996734619140625e+01 -1.230596351623535156e+01 -7.034361958503723145e-01 1.431266307830810547e+00 2.183490246534347534e-01 -2.341241985559463501e-01
4.388000000000000000e+03 5.568102836608886719e+00 1.889688873291015625e+01 1.357101052999496460e-01 -1.184909105300903320e+00 -3.147597014904022217e-01 2.332293391227722168e-01
4.389000000000000000e+03 6.635138034820556641e+00 2.023935508728027344e+01 1.651244461536407471e-01 -1.076196312904357910e+00 -2.733215689659118652e-01 1.851419806480407715e-01
4.390000000000000000e+03 5.108963489532470703e+00 -1.287972736358642578e+01 2.705289625737350434e-05 7.127183926058933139e-05 2.949742156488355249e-05 1.518397311883745715e-05
4.391000000000000000e+03 6.496803760528564453e+00 -1.217439937591552734e+01 5.079735274193808436e-05 -2.491033592377789319e-05 7.766105227346997708e-06 5.354672975954599679e-05
4.392000000000000000e+03 6.443265914916992188e+00 1.959048271179199219e+01 1.769039481878280640e-01 -1.089034676551818848e+00 -2.736392319202423096e-01 2.140564918518066406e-01
4.393000000000000000e+03 5.965805530548095703e+00 -1.306943130493164062e+01 7.703402843617368490e-06 1.216940509038977325e-04 3.881923476001247764e-05 1.433233228453900665e-05
4.394000000000000000e+03 6.163866519927978516e+00 -1.374070453643798828e+01 -9.751507604960352182e-06 -7.971420563990250230e-05 -2.683971433725673705e-05 -6.931879033800214529e-05
4.395000000000000000e+03 5.960118293762207031e+00 1.239971351623535156e+01 1.394692212343215942e-01 -9.565708041191101074e-01 -2.451304644346237183e-01 5.358253717422485352e-01
4.396000000000000000e+03 6.962104797363281250e+00 1.613965797424316406e+01 2.091487050056457520e-01 -1.002035856246948242e+00 -2.378661334514617920e-01 3.857254683971405029e-01
4.397000000000000000e+03 7.032798767089843750e+00 1.549923133850097656e+01 2.237572520971298218e-01 -9.886499047279357910e-01 -2.294677942991256714e-01 4.185764491558074951e-01
4.398000000000000000e+03 1.045561313629150391e+01 6.608726978302001953e+00 -3.471183031797409058e-02 -8.682714104652404785e-01 -2.708949744701385498e-01 8.971300125122070312e-01
4.399000000000000000e+03 5.781944751739501953e+00 1.121871757507324219e+01 1.123741567134857178e-01 -9.104952812194824219e-01 -2.394363433122634888e-01 5.706421732902526855e-01
4.400000000000000000e+03 7.363647460937500000e+01 -1.624584555625915527e+00 6.152219176292419434e-01 8.861704826354980469e+00 2.843078136444091797e+00 1.188846975564956665e-01
4.401000000000000000e+03 6.906412124633789062e+00 1.213015174865722656e+01 1.806877702474594116e-01 -9.229061603546142578e-01 -2.226655185222625732e-01 5.782594680786132812e-01
4.402000000000000000e+03 1.168000888824462891e+01 -1.096946716308593750e+01 4.297337363823316991e-05 -9.111345207202248275e-06 1.015860925690503791e-05 2.256585321447346359e-05
4.403000000000000000e+03 6.375573635101318359e+00 2.350644111633300781e+01 1.168127208948135376e-01 -1.109750390052795410e+00 -2.978812754154205322e-01 6.727801263332366943e-02
4.404000000000000000e+03 6.653849601745605469e+00 2.523774337768554688e+01 1.016559898853302002e-01 -1.058106541633605957e+00 -2.869351506233215332e-01 1.762281730771064758e-02
4.405000000000000000e+03 6.511331939697265625e+01 -1.777481079101562500e+01 -6.877359151840209961e-01 2.132034063339233398e+00 4.332894086837768555e-01 1.858448147773742676e+00
4.406000000000000000e+03 4.589100265502929688e+01 -1.185259151458740234e+01 -1.932884335517883301e+00 6.085730552673339844e+00 1.245853900909423828e+00 -8.918733894824981689e-02
4.407000000000000000e+03 4.570724868774414062e+01 -1.046010112762451172e+01 -1.634719967842102051e+00 5.848348617553710938e+00 1.264088630676269531e+00 -2.790933549404144287e-01
4.408000000000000000e+03 4.581954574584960938e+01 -1.116428565979003906e+01 -1.799596428871154785e+00 5.956671714782714844e+00 1.247122526168823242e+00 -1.497456580400466919e-01
4.409000000000000000e+03 1.119943332672119141e+01 -1.010355567932128906e+01 2.351543662371113896e-05 -5.226007942837895826e-06 5.486828740686178207e-06 -1.238471440956345759e-06
4.410000000000000000e+03 7.369274902343750000e+01 3.351864624023437500e+01 -5.342763662338256836e-01 7.586903095245361328e+00 2.115787982940673828e+00 3.079707324504852295e-01
4.411000000000000000e+03 4.535626983642578125e+01 -7.388423442840576172e+00 -9.206305742263793945e-01 5.549335956573486328e+00 1.388611674308776855e+00 -7.980661392211914062e-01
4.412000000000000000e+03 5.389323043823242188e+01 -1.997996330261230469e+01 -1.414924412965774536e-01 6.610912680625915527e-01 1.558796465396881104e-01 -3.412346541881561279e-02
4.413000000000000000e+03 6.061163425445556641e+00 -6.621786594390869141e+00 -9.744339877215679735e-06 -1.669823177508078516e-05 -7.932771950436290354e-06 -1.217238786921370775e-05
4.414000000000000000e+03 6.867367553710937500e+01 -1.378231143951416016e+01 5.275726914405822754e-01 4.282346725463867188e+00 1.442975878715515137e+00 4.581023752689361572e-01
4.415000000000000000e+03 3.771232223510742188e+01 -1.284491443634033203e+01 -9.980216026306152344e-01 3.931149482727050781e+00 8.799383044242858887e-01 -1.686801075935363770e+00
4.416000000000000000e+03 3.687121582031250000e+01 -1.293988037109375000e+01 -8.480065464973449707e-01 3.347376108169555664e+00 7.498108744621276855e-01 -1.521397829055786133e+00
4.417000000000000000e+03 2.976566696166992188e+01 -8.243418693542480469e+00 -1.007711291313171387e+00 1.313866376876831055e+00 9.184652566909790039e-02 3.021717965602874756e-01
4.418000000000000000e+03 6.860624313354492188e+00 -1.448046016693115234e+01 -4.071092189406044781e-05 -4.391429683892056346e-05 -2.538756598369218409e-05 -1.011133863357827067e-04
4.419000000000000000e+03 7.488387107849121094e+00 -1.518716239929199219e+01 2.266158480779267848e-05 -2.396294075879268348e-05 -3.904070240423607174e-07 -8.579556742915883660e-05
4.420000000000000000e+03 4.701124954223632812e+01 -2.567568778991699219e+01 2.520099878311157227e+00 7.449668407440185547e+00 2.990930557250976562e+00 -1.660245180130004883e+00
4.421000000000000000e+03 4.705360794067382812e+01 -2.719464492797851562e+01 2.431919097900390625e+00 7.434614658355712891e+00 2.959960222244262695e+00 -1.489233255386352539e+00
4.422000000000000000e+03 5.719392395019531250e+01 -2.122491645812988281e+01 7.056319117546081543e-01 9.336139559745788574e-01 4.917737543582916260e-01 1.756531953811645508e+00
4.423000000000000000e+03 7.209226131439208984e+00 -8.581158638000488281e+00 8.580233043176122010e-06 1.924860953295137733e-05 8.348652954737190157e-06 1.001781402010237798e-05
4.424000000000000000e+03 6.722608947753906250e+01 -1.816202354431152344e+01 -5.887621641159057617e-01 1.673878192901611328e+00 3.255348205566406250e-01 8.662077784538269043e-01
4.425000000000000000e+03 6.936077880859375000e+01 -1.789373970031738281e+01 -6.731879115104675293e-01 2.962645292282104492e+00 6.868371963500976562e-01 -4.790358543395996094e-01
4.426000000000000000e+03 4.218862915039062500e+01 -1.690915298461914062e+01 -8.795280456542968750e-01 8.357681274414062500e+00 2.243446111679077148e+00 -1.898150444030761719e+00
4.427000000000000000e+03 7.419518280029296875e+01 -9.609356880187988281e+00 8.835566788911819458e-02 6.726230621337890625e+00 2.044375896453857422e+00 -5.397529006004333496e-01
4.428000000000000000e+03 4.415665817260742188e+01 -1.677916717529296875e+01 -1.268702149391174316e+00 8.255365371704101562e+00 2.095998764038085938e+00 -8.334228396415710449e-01
4.429000000000000000e+03 3.886039733886718750e+01 -1.393212509155273438e+01 -1.092275738716125488e+00 4.881643772125244141e+00 1.136810421943664551e+00 -2.111485004425048828e+00
4.430000000000000000e+03 4.483558273315429688e+01 -1.696633911132812500e+01 -1.201682090759277344e+00 8.004933357238769531e+00 2.040975332260131836e+00 -6.164491176605224609e-01
4.431000000000000000e+03 5.713474273681640625e+01 -2.040369224548339844e+01 -1.123489812016487122e-02 4.708032608032226562e-01 1.378705054521560669e-01 1.856748700141906738e+00
4.432000000000000000e+03 7.118011474609375000e+01 -1.815380859375000000e+01 -1.108293056488037109e+00 4.599516868591308594e+00 1.047367215156555176e+00 -9.532994627952575684e-01
4.433000000000000000e+03 7.306527709960937500e+01 -1.799715423583984375e+01 -1.122120857238769531e+00 6.100287437438964844e+00 1.493450045585632324e+00 -7.334994673728942871e-01
4.434000000000000000e+03 7.342996978759765625e+01 -4.155664443969726562e+00 3.256413042545318604e-01 8.259461402893066406e+00 2.575531005859375000e+00 -3.300261497497558594e-02
4.435000000000000000e+03 5.065776062011718750e+01 -1.922604370117187500e+01 -6.282618045806884766e-01 3.543406486511230469e+00 8.745433688163757324e-01 -6.567729711532592773e-01
4.436000000000000000e+03 5.024566650390625000e+01 -1.762476539611816406e+01 -1.783890485763549805e+00 3.952520608901977539e+00 6.505890488624572754e-01 -2.467647492885589600e-01
4.437000000000000000e+03 9.379723548889160156e+00 6.667932510375976562e+00 -6.261612474918365479e-02 -8.038955926895141602e-01 -2.599534988403320312e-01 8.728356957435607910e-01
4.438000000000000000e+03 1.917441368103027344e+01 2.781809091567993164e+00 -2.543032765388488770e-01 -8.104380369186401367e-01 -3.194223940372467041e-01 6.468228697776794434e-01
4.439000000000000000e+03 4.709054565429687500e+01 -2.827938842773437500e+01 2.261777400970458984e+00 7.231588363647460938e+00 2.848009586334228516e+00 -1.376498103141784668e+00
4.440000000000000000e+03 5.171531295776367188e+01 -2.718898963928222656e+01 2.561971187591552734e+00 4.598361492156982422e+00 2.148099899291992188e+00 -8.992921113967895508e-01
4.441000000000000000e+03 7.312961578369140625e+01 -7.531615734100341797e+00 1.944307088851928711e-01 7.292115211486816406e+00 2.245963811874389648e+00 -1.520736664533615112e-01
4.442000000000000000e+03 7.235283660888671875e+01 -7.467087268829345703e+00 2.495841532945632935e-01 7.407893657684326172e+00 2.297243356704711914e+00 9.447354823350906372e-02
4.443000000000000000e+03 1.820025634765625000e+01 4.276062011718750000e+00 7.998321205377578735e-03 -8.230683207511901855e-01 -2.445209920406341553e-01 6.259114742279052734e-01
4.444000000000000000e+03 3.900798416137695312e+01 6.581820964813232422e+00 1.356580495834350586e+00 7.323227405548095703e+00 2.603942394256591797e+00 -9.754723906517028809e-01
4.445000000000000000e+03 3.813601303100585938e+01 7.591676235198974609e+00 1.608337521553039551e+00 6.867591857910156250e+00 2.542778730392456055e+00 -8.267525434494018555e-01
4.446000000000000000e+03 4.593600082397460938e+01 -1.313612747192382812e+01 -2.119571924209594727e+00 6.403158187866210938e+00 1.285075902938842773e+00 -5.645130202174186707e-02
4.447000000000000000e+03 4.638900756835937500e+01 -1.984909439086914062e+01 8.355254530906677246e-01 7.380882263183593750e+00 2.464922428131103516e+00 -7.432134747505187988e-01
4.448000000000000000e+03 4.863365554809570312e+01 -1.519337368011474609e+01 -2.369904756546020508e+00 5.265175342559814453e+00 8.685812354087829590e-01 3.867267966270446777e-01
4.449000000000000000e+03 4.553681564331054688e+01 -1.968578147888183594e+01 9.523894190788269043e-01 8.290860176086425781e+00 2.772974967956542969e+00 -7.934136986732482910e-01
4.450000000000000000e+03 4.935754013061523438e+01 -1.894906997680664062e+01 -5.004964470863342285e-01 4.822719573974609375e+00 1.296666979789733887e+00 -5.178986191749572754e-01
4.451000000000000000e+03 2.918785667419433594e+01 -8.619299888610839844e+00 -1.028744339942932129e+00 1.039328098297119141e+00 3.175148274749517441e-03 4.170711040496826172e-01
4.452000000000000000e+03 3.011157608032226562e+01 -8.939854621887207031e+00 -9.725029468536376953e-01 1.307651162147521973e+00 1.005444601178169250e-01 2.703671157360076904e-01
4.453000000000000000e+03 7.063661193847656250e+01 -1.099967861175537109e+01 4.363957941532135010e-01 5.921357631683349609e+00 1.907326102256774902e+00 2.781406044960021973e-01
4.454000000000000000e+03 7.426959228515625000e+01 -1.031589794158935547e+01 7.643606513738632202e-02 6.629683494567871094e+00 2.011835813522338867e+00 -5.920966267585754395e-01
4.455000000000000000e+03 7.284473419189453125e+01 -5.686746120452880859e+00 2.562061250209808350e-01 7.970635890960693359e+00 2.468052625656127930e+00 5.771984532475471497e-02
4.456000000000000000e+03 7.174714660644531250e+01 -1.808928298950195312e+01 -1.118014693260192871e+00 5.082597255706787109e+00 1.189374804496765137e+00 -9.501405358314514160e-01
4.457000000000000000e+03 4.796566009521484375e+01 -2.276668930053710938e+01 2.213847875595092773e+00 6.176618099212646484e+00 2.517139911651611328e+00 -1.405963063240051270e+00
4.458000000000000000e+03 2.708258247375488281e+01 -3.663029670715332031e+00 -9.257509112358093262e-01 9.240296483039855957e-01 -5.163938039913773537e-04 3.680293560028076172e-01
4.459000000000000000e+03 1.632591247558593750e+01 5.604317665100097656e+00 1.372247040271759033e-01 -9.076123237609863281e-01 -2.311162799596786499e-01 6.994770169258117676e-01
4.460000000000000000e+03 1.642272758483886719e+01 4.606141090393066406e+00 -4.983896762132644653e-02 -9.808414578437805176e-01 -3.092041313648223877e-01 7.560333609580993652e-01
4.461000000000000000e+03 7.299935913085937500e+01 -9.998076438903808594e+00 1.751381456851959229e-01 6.600347995758056641e+00 2.032645940780639648e+00 -3.287385404109954834e-01
4.462000000000000000e+03 5.221419525146484375e+01 -2.530919456481933594e+01 2.537023067474365234e+00 3.744590520858764648e+00 1.884484052658081055e+00 -6.467131972312927246e-01
4.463000000000000000e+03 2.502343177795410156e+01 -1.435461044311523438e-01 -4.639531373977661133e-01 4.905409812927246094e-01 7.976350374519824982e-03 3.111096024513244629e-01
4.464000000000000000e+03 7.431989288330078125e+01 -1.100246906280517578e+01 5.423909053206443787e-02 6.536697387695312500e+00 1.977280974388122559e+00 -6.266865730285644531e-01
4.465000000000000000e+03 3.980723190307617188e+01 5.512420654296875000e+00 1.043020486831665039e+00 7.452973365783691406e+00 2.548798084259033203e+00 -1.222378730773925781e+00
4.466000000000000000e+03 3.960485076904296875e+01 4.641798496246337891e+00 8.084542751312255859e-01 7.105566501617431641e+00 2.374206304550170898e+00 -1.167345643043518066e+00
4.467000000000000000e+03 2.762409591674804688e+01 -4.450053215026855469e+00 -9.748675227165222168e-01 1.035745263099670410e+00 1.826331578195095062e-02 3.622616529464721680e-01
4.468000000000000000e+03 3.341921615600585938e+01 -1.247721672058105469e+01 -6.891905665397644043e-01 1.631960511207580566e+00 2.828309834003448486e-01 -4.164535999298095703e-01
4.469000000000000000e+03 5.183205032348632812e+01 -2.847903060913085938e+01 2.408285140991210938e+00 4.960723400115966797e+00 2.210702657699584961e+00 -9.204298853874206543e-01
4.470000000000000000e+03 5.289299774169921875e+01 -2.694712829589843750e+01 2.508860111236572266e+00 4.276554584503173828e+00 2.035624504089355469e+00 -4.683907628059387207e-01
4.471000000000000000e+03 7.435364532470703125e+01 -2.048046684265136719e+01 -1.272660851478576660e+00 7.328212738037109375e+00 1.816665530204772949e+00 2.424023598432540894e-01
4.472000000000000000e+03 2.472623443603515625e+01 -1.957823395729064941e+00 -8.361602425575256348e-01 2.160034924745559692e-01 -1.860470324754714966e-01 4.789796769618988037e-01
4.473000000000000000e+03 2.521391868591308594e+01 -1.415175795555114746e+00 -6.976917386054992676e-01 4.448226690292358398e-01 -7.586072385311126709e-02 3.845492303371429443e-01
4.474000000000000000e+03 2.648739814758300781e+01 -2.892706871032714844e+00 -8.559704422950744629e-01 7.751961946487426758e-01 -2.423227764666080475e-02 3.754717111587524414e-01
4.475000000000000000e+03 5.993947982788085938e+00 8.907960891723632812e+00 3.866491094231605530e-02 -7.797428965568542480e-01 -2.223233878612518311e-01 6.524796485900878906e-01
4.476000000000000000e+03 3.895399475097656250e+01 5.718677520751953125e+00 1.100295901298522949e+00 7.036576747894287109e+00 2.441061735153198242e+00 -9.717614054679870605e-01
4.477000000000000000e+03 3.651751708984375000e+01 1.856901359558105469e+01 1.003587841987609863e+00 5.765204906463623047e+00 2.030637741088867188e+00 -6.073757410049438477e-01
4.478000000000000000e+03 1.104322242736816406e+01 7.231046676635742188e+00 7.096625864505767822e-02 -8.936688899993896484e-01 -2.468107938766479492e-01 8.678783178329467773e-01
4.479000000000000000e+03 9.828218460083007812e+00 7.266252040863037109e+00 2.105995640158653259e-02 -8.400260210037231445e-01 -2.456898242235183716e-01 8.629714846611022949e-01
4.480000000000000000e+03 1.886821365356445312e+01 3.808057308197021484e+00 -4.279138147830963135e-02 -7.644047737121582031e-01 -2.421588450670242310e-01 6.004675626754760742e-01
4.481000000000000000e+03 2.585966110229492188e+01 -2.143015623092651367e+00 -7.757601141929626465e-01 6.176820993423461914e-01 -4.742340371012687683e-02 3.800908327102661133e-01
4.482000000000000000e+03 3.882991027832031250e+01 4.921929359436035156e+00 8.973948955535888672e-01 6.775363445281982422e+00 2.301827669143676758e+00 -9.336386919021606445e-01
4.483000000000000000e+03 3.612247085571289062e+01 1.632917976379394531e+01 1.320131540298461914e+00 5.808020114898681641e+00 2.138445615768432617e+00 -7.863255739212036133e-01
4.484000000000000000e+03 1.693541145324707031e+01 5.171743869781494141e+00 9.068956971168518066e-02 -8.928042650222778320e-01 -2.406344115734100342e-01 6.789111495018005371e-01
4.485000000000000000e+03 5.443579101562500000e+01 -2.096786117553710938e+01 7.672550678253173828e-01 8.752666115760803223e-01 4.927565157413482666e-01 2.513140439987182617e-01
4.486000000000000000e+03 5.493768310546875000e+01 -1.945972251892089844e+01 -6.854553222656250000e-01 -3.791374266147613525e-01 -3.193778395652770996e-01 5.823410749435424805e-01
4.487000000000000000e+03 1.034846019744873047e+01 -6.772001743316650391e+00 -1.362944840366253629e-05 -1.505146519775735214e-05 -8.604273716628085822e-06 4.469745817914372310e-07
4.488000000000000000e+03 1.111734104156494141e+01 -7.453554153442382812e+00 -6.705751729896292090e-06 -1.368381526845041662e-05 -6.116869826655602083e-06 -7.203571840364020318e-06
4.489000000000000000e+03 8.567209243774414062e+00 -6.672246456146240234e+00 1.676745341683272272e-05 4.196375357423676178e-06 6.289148586802184582e-06 8.541460374544840306e-06
4.490000000000000000e+03 2.387916183471679688e+01 -2.473777532577514648e-02 -5.208971500396728516e-01 1.109643727540969849e-01 -1.229798346757888794e-01 4.032119512557983398e-01
4.491000000000000000e+03 4.653425216674804688e+01 -2.195817756652832031e+01 2.291624546051025391e+00 7.539010047912597656e+00 2.949190378189086914e+00 -1.409155607223510742e+00
4.492000000000000000e+03 3.669958114624023438e+01 1.976157951354980469e+01 8.450394868850708008e-01 5.692028045654296875e+00 1.961120247840881348e+00 -5.317757725715637207e-01
4.493000000000000000e+03 3.679903030395507812e+01 2.233083152770996094e+01 5.372161269187927246e-01 5.294649124145507812e+00 1.749559640884399414e+00 -4.484423696994781494e-01
4.494000000000000000e+03 6.650412559509277344e+00 -1.089122009277343750e+01 -1.793069827726867516e-06 3.778723112191073596e-05 1.079824869520962238e-05 1.310769494011765346e-05
4.495000000000000000e+03 5.874195575714111328e+00 -1.199385738372802734e+01 -3.258035576436668634e-05 6.352049967972561717e-05 9.282042810809798539e-06 -3.180774365318939090e-05
4.496000000000000000e+03 2.918473243713378906e+01 -5.632897377014160156e+00 -9.798117876052856445e-01 1.500030517578125000e+00 1.560655981302261353e-01 2.493296712636947632e-01
4.497000000000000000e+03 3.387237930297851562e+01 -1.344918918609619141e+01 -5.922703742980957031e-01 1.481676459312438965e+00 2.668218314647674561e-01 -5.614702701568603516e-01
4.498000000000000000e+03 3.910616683959960938e+01 2.070949363708496094e+01 6.527443528175354004e-01 6.393749713897705078e+00 2.113948345184326172e+00 5.214335396885871887e-02
4.499000000000000000e+03 3.826874923706054688e+01 2.559991073608398438e+01 7.136046141386032104e-02 5.021183490753173828e+00 1.527763128280639648e+00 -1.849114447832107544e-01
4.500000000000000000e+03 3.758445739746093750e+01 2.867541122436523438e+01 -3.261541426181793213e-01 4.499696254730224609e+00 1.252062678337097168e+00 -2.739239633083343506e-01
4.501000000000000000e+03 3.698160552978515625e+01 2.507479667663574219e+01 1.458510160446166992e-01 4.877226829528808594e+00 1.506923317909240723e+00 -3.831012845039367676e-01
4.502000000000000000e+03 3.793149948120117188e+01 2.701300048828125000e+01 -1.091358363628387451e-01 4.762197971343994141e+00 1.395918607711791992e+00 -2.382294684648513794e-01
4.503000000000000000e+03 3.960972976684570312e+01 -1.404245376586914062e+01 -1.280455708503723145e+00 5.489197731018066406e+00 1.262622594833374023e+00 -2.050431966781616211e+00
4.504000000000000000e+03 9.776643753051757812e+00 -6.754873275756835938e+00 6.425709671020740643e-06 1.614456596144009382e-05 6.771083008061395958e-06 1.005088051897473633e-06
4.505000000000000000e+03 8.655356407165527344e+00 -1.087774658203125000e+01 -3.333810309413820505e-05 -3.337029556860215962e-05 -2.001251959882210940e-05 -2.176168709411285818e-05
4.506000000000000000e+03 3.579808044433593750e+01 1.740691757202148438e+01 1.201944231986999512e+00 5.574817180633544922e+00 2.033028364181518555e+00 -7.670545578002929688e-01
4.507000000000000000e+03 3.669998168945312500e+01 1.756596946716308594e+01 1.131199717521667480e+00 6.029173851013183594e+00 2.148112058639526367e+00 -6.476920843124389648e-01
4.508000000000000000e+03 1.527765178680419922e+01 6.646082401275634766e+00 2.303818762302398682e-01 -8.960652351379394531e-01 -1.997050046920776367e-01 7.134121656417846680e-01
4.509000000000000000e+03 1.518162155151367188e+01 5.536830425262451172e+00 5.208501592278480530e-02 -9.775419831275939941e-01 -2.776370942592620850e-01 7.886093854904174805e-01
4.510000000000000000e+03 6.424117279052734375e+01 -1.787974166870117188e+01 -8.782418370246887207e-01 2.310706853866577148e+00 4.297394752502441406e-01 2.147982120513916016e+00
4.511000000000000000e+03 7.063522338867187500e+00 7.603102684020996094e+00 -2.484716847538948059e-02 -7.276298403739929199e-01 -2.257431000471115112e-01 7.460447549819946289e-01
4.512000000000000000e+03 6.519942474365234375e+01 -1.688558959960937500e+01 -3.554647266864776611e-01 2.455325365066528320e+00 6.299581527709960938e-01 1.683926463127136230e+00
4.513000000000000000e+03 7.290572357177734375e+01 3.571849441528320312e+01 -4.328484237194061279e-01 6.670140743255615234e+00 1.871187686920166016e+00 4.690013453364372253e-02
4.514000000000000000e+03 7.184009552001953125e+01 3.511819076538085938e+01 -5.594664812088012695e-01 5.783914089202880859e+00 1.567334294319152832e+00 -1.889806054532527924e-02
4.515000000000000000e+03 4.646710586547851562e+01 -3.025623512268066406e+01 1.574156284332275391e+00 7.330861568450927734e+00 2.671505212783813477e+00 -1.109300732612609863e+00
4.516000000000000000e+03 4.881962966918945312e+01 -3.089709663391113281e+01 1.623115301132202148e+00 6.145909786224365234e+00 2.330707550048828125e+00 -1.166780710220336914e+00
4.517000000000000000e+03 4.149348068237304688e+01 -1.507898426055908203e+01 -1.553398609161376953e+00 7.194765090942382812e+00 1.692409992218017578e+00 -1.810101151466369629e+00
4.518000000000000000e+03 2.939062309265136719e+01 -7.522832393646240234e+00 -1.029008984565734863e+00 1.293810606002807617e+00 7.944048941135406494e-02 3.222638964653015137e-01
4.519000000000000000e+03 2.811421775817871094e+01 -5.241581439971923828e+00 -1.012592077255249023e+00 1.134646058082580566e+00 3.661621734499931335e-02 3.645682632923126221e-01
4.520000000000000000e+03 6.672370910644531250e+01 -1.636639022827148438e+01 4.300753027200698853e-02 2.650171518325805664e+00 8.079537153244018555e-01 1.001154065132141113e+00
4.521000000000000000e+03 3.576050949096679688e+01 1.509580230712890625e+01 1.519809007644653320e+00 5.649180412292480469e+00 2.150696992874145508e+00 -8.617001771926879883e-01
4.522000000000000000e+03 9.197911262512207031e+00 -6.695321559906005859e+00 -5.115691237733699381e-06 -1.542702739243395627e-05 -6.162815679999766871e-06 -8.176890332833863795e-06
4.523000000000000000e+03 2.102631378173828125e+01 2.366980075836181641e+00 -2.070909291505813599e-01 -4.823415279388427734e-01 -2.068297415971755981e-01 4.894256591796875000e-01
4.524000000000000000e+03 4.761937332153320312e+01 -2.337490653991699219e+01 2.428662538528442383e+00 6.523606777191162109e+00 2.685680866241455078e+00 -1.555303335189819336e+00
4.525000000000000000e+03 4.460497665405273438e+01 -1.770318222045898438e+01 -7.094778418540954590e-01 8.423646926879882812e+00 2.314250707626342773e+00 -7.572150230407714844e-01
4.526000000000000000e+03 6.231670856475830078e+00 3.014244651794433594e+01 3.915971890091896057e-02 -1.077757239341735840e+00 -3.115792572498321533e-01 -6.612522155046463013e-02
4.527000000000000000e+03 7.042878150939941406e+00 2.970794677734375000e+01 5.474759265780448914e-02 -9.698343276977539062e-01 -2.745260298252105713e-01 -6.681933999061584473e-02
4.528000000000000000e+03 5.396856689453125000e+01 -2.543038940429687500e+01 2.521414279937744141e+00 3.304795026779174805e+00 1.747862815856933594e+00 1.329213827848434448e-01
4.529000000000000000e+03 5.412974548339843750e+01 -2.418437767028808594e+01 2.377761125564575195e+00 2.621723175048828125e+00 1.499845266342163086e+00 1.794098317623138428e-01
4.530000000000000000e+03 4.883956527709960938e+01 -2.837965202331542969e+01 2.369209527969360352e+00 6.034907817840576172e+00 2.521235227584838867e+00 -1.412831068038940430e+00
4.531000000000000000e+03 1.408085918426513672e+01 6.676275253295898438e+00 1.605264693498611450e-01 -9.485192894935607910e-01 -2.363978326320648193e-01 7.922697663307189941e-01
4.532000000000000000e+03 7.509319305419921875e+00 3.256601333618164062e+01 2.764950506389141083e-02 -8.438721895217895508e-01 -2.448668032884597778e-01 -8.108778297901153564e-02
4.533000000000000000e+03 3.623416519165039062e+01 1.360844516754150391e+01 1.677587151527404785e+00 6.011426925659179688e+00 2.306704282760620117e+00 -8.976445794105529785e-01
4.534000000000000000e+03 3.658808517456054688e+01 -3.655295181274414062e+01 1.256555765867233276e-01 1.317051887512207031e+00 4.328122437000274658e-01 6.392047405242919922e-01
4.535000000000000000e+03 3.626535797119140625e+01 1.154970359802246094e+01 1.862334489822387695e+00 5.959425926208496094e+00 2.346528053283691406e+00 -8.661494255065917969e-01
4.536000000000000000e+03 3.632244110107421875e+01 1.059181785583496094e+01 1.883308529853820801e+00 5.937180995941162109e+00 2.346146821975708008e+00 -8.222929835319519043e-01
4.537000000000000000e+03 3.722505569458007812e+01 1.047940921783447266e+01 1.937398672103881836e+00 6.550527572631835938e+00 2.546377897262573242e+00 -8.778734207153320312e-01
4.538000000000000000e+03 7.403752136230468750e+01 3.277832031250000000e+01 -5.089896917343139648e-01 7.928386211395263672e+00 2.225818872451782227e+00 4.112852215766906738e-01
4.539000000000000000e+03 4.141941452026367188e+01 3.212071609497070312e+01 -7.222073674201965332e-01 4.048572063446044922e+00 9.979094266891479492e-01 1.545905768871307373e-01
4.540000000000000000e+03 4.095835113525390625e+01 3.054348182678222656e+01 -5.205732583999633789e-01 4.321746826171875000e+00 1.140352010726928711e+00 1.572113335132598877e-01
4.541000000000000000e+03 6.807701587677001953e+00 2.885254478454589844e+01 4.905737563967704773e-02 -1.019881844520568848e+00 -2.912473380565643311e-01 -5.480293929576873779e-02
4.542000000000000000e+03 4.930956649780273438e+01 -3.278657913208007812e+01 8.931305408477783203e-01 6.068531036376953125e+00 2.088498592376708984e+00 -8.980726599693298340e-01
4.543000000000000000e+03 8.359646797180175781e+00 -3.479833221435546875e+01 -2.696417039260268211e-03 -4.728097002953290939e-03 -2.227354096248745918e-03 -5.624724552035331726e-03
4.544000000000000000e+03 4.231132125854492188e+01 3.034009552001953125e+01 -4.335789680480957031e-01 4.230175495147705078e+00 1.138978958129882812e+00 3.691769540309906006e-01
4.545000000000000000e+03 7.445772552490234375e+01 -3.894964218139648438e+01 -8.879467844963073730e-02 5.497560501098632812e+00 1.622629761695861816e+00 2.363084349781274796e-03
4.546000000000000000e+03 3.755598831176757812e+01 2.383460807800292969e+01 3.093741238117218018e-01 5.216269016265869141e+00 1.657692909240722656e+00 -2.884068489074707031e-01
4.547000000000000000e+03 3.578814697265625000e+01 2.249242019653320312e+01 5.327426195144653320e-01 4.981704235076904297e+00 1.654334068298339844e+00 -6.005288362503051758e-01
4.548000000000000000e+03 1.142756366729736328e+01 -3.789752960205078125e+01 4.506524186581373215e-03 -1.683359779417514801e-02 -3.698121989145874977e-03 -9.806646034121513367e-03
4.549000000000000000e+03 9.363409996032714844e+00 -3.567126464843750000e+01 -2.841199981048703194e-03 -6.224635057151317596e-03 -2.719750627875328064e-03 -7.467382121831178665e-03
4.550000000000000000e+03 9.788191795349121094e+00 3.577862930297851562e+01 -3.525501862168312073e-02 -4.406549930572509766e-01 -1.427730023860931396e-01 -8.872333914041519165e-02
4.551000000000000000e+03 7.201420307159423828e+00 4.141046905517578125e+01 -5.576251074671745300e-02 -7.773470282554626465e-01 -2.499328553676605225e-01 -2.907395362854003906e-02
4.552000000000000000e+03 3.083152389526367188e+01 -3.919218444824218750e+01 2.845275998115539551e-01 1.763461828231811523e-01 1.382621377706527710e-01 -4.229319468140602112e-02
4.553000000000000000e+03 4.750147247314453125e+01 -3.571394348144531250e+01 -3.965756893157958984e-01 6.385540008544921875e+00 1.796689271926879883e+00 -4.492802321910858154e-01
4.554000000000000000e+03 1.756281471252441406e+01 -4.131514358520507812e+01 5.095947906374931335e-02 -5.907981097698211670e-02 -2.436098642647266388e-03 -1.152439042925834656e-02
4.555000000000000000e+03 4.702849197387695312e+01 4.134266662597656250e+01 -1.060245752334594727e+00 2.538402557373046875e+00 4.434470534324645996e-01 6.571364402770996094e-02
4.556000000000000000e+03 5.011732482910156250e+01 -4.010827255249023438e+01 -8.817666769027709961e-01 5.795131683349609375e+00 1.474009394645690918e+00 -1.828037649393081665e-01
4.557000000000000000e+03 9.916189193725585938e+00 -4.002120590209960938e+01 6.439230870455503464e-03 -1.321409922093153000e-02 -2.032460412010550499e-03 -5.386856384575366974e-03
4.558000000000000000e+03 1.241312122344970703e+01 -8.474674224853515625e+00 6.822718660259852186e-06 1.646949021960608661e-05 6.987662800383986905e-06 2.471359266564832069e-06
4.559000000000000000e+03 1.190492534637451172e+01 -1.040432739257812500e+01 -2.359808968321885914e-05 -6.532570296258199960e-06 -9.039197720994707197e-06 -1.082402832253137603e-05
4.560000000000000000e+03 3.143668365478515625e+01 -1.046920967102050781e+01 -8.519290089607238770e-01 1.450672745704650879e+00 1.796231120824813843e-01 5.377174541354179382e-02
4.561000000000000000e+03 3.420063781738281250e+01 -1.273343372344970703e+01 -6.571316719055175781e-01 1.898866415023803711e+00 3.725204467773437500e-01 -6.893441081047058105e-01
4.562000000000000000e+03 4.203639602661132812e+01 -8.144683837890625000e+00 -1.412619709968566895e+00 5.694547653198242188e+00 1.284578323364257812e+00 -9.561015367507934570e-01
4.563000000000000000e+03 4.447087860107421875e+01 -8.928077697753906250e+00 -1.428372740745544434e+00 5.827320098876953125e+00 1.319684147834777832e+00 -6.340475082397460938e-01
4.564000000000000000e+03 4.841933059692382812e+01 -2.011718368530273438e+01 5.239374041557312012e-01 5.545991420745849609e+00 1.820978641510009766e+00 -7.835018038749694824e-01
4.565000000000000000e+03 4.582163238525390625e+01 -1.818104743957519531e+01 -4.458260536193847656e-01 7.749989509582519531e+00 2.191249132156372070e+00 -4.988970458507537842e-01
4.566000000000000000e+03 7.488179016113281250e+01 1.224141883850097656e+01 -2.112366408109664917e-01 8.640157699584960938e+00 2.528676271438598633e+00 8.041897416114807129e-01
4.567000000000000000e+03 5.474324417114257812e+01 -2.023876380920410156e+01 5.600337311625480652e-02 2.833092808723449707e-01 1.017937958240509033e-01 4.448702633380889893e-01
4.568000000000000000e+03 4.393614578247070312e+01 -4.725116252899169922e+00 -6.391918659210205078e-01 5.697514533996582031e+00 1.517496824264526367e+00 -1.252222299575805664e+00
4.569000000000000000e+03 4.375383758544921875e+01 -5.976247787475585938e+00 -8.819246292114257812e-01 5.679300308227539062e+00 1.439212679862976074e+00 -1.072943329811096191e+00
4.570000000000000000e+03 4.339871215820312500e+01 -2.670146226882934570e+00 -3.584240674972534180e-01 5.903318405151367188e+00 1.663468360900878906e+00 -1.508540630340576172e+00
4.571000000000000000e+03 4.321199035644531250e+01 -5.795768260955810547e+00 -9.277806282043457031e-01 5.678137302398681641e+00 1.425107002258300781e+00 -1.075995445251464844e+00
4.572000000000000000e+03 4.754409790039062500e+01 -2.765660476684570312e+01 2.385544538497924805e+00 6.946209907531738281e+00 2.799526214599609375e+00 -1.484048128128051758e+00
4.573000000000000000e+03 1.256981086730957031e+01 -7.774880409240722656e+00 -7.981218914210330695e-06 -7.069155344652244821e-06 -4.515112323133507743e-06 -3.993343852926045656e-06
4.574000000000000000e+03 1.396625709533691406e+01 -9.114325523376464844e+00 9.282355790674046148e-07 5.819260422867955640e-06 2.024248715315479785e-06 1.349990156995772850e-06
4.575000000000000000e+03 4.368305969238281250e+01 -6.708629131317138672e+00 -1.048754692077636719e+00 5.687735557556152344e+00 1.391694307327270508e+00 -9.669177532196044922e-01
4.576000000000000000e+03 4.440620040893554688e+01 -6.792662143707275391e+00 -9.655973911285400391e-01 5.653836727142333984e+00 1.406471729278564453e+00 -9.449061751365661621e-01
4.577000000000000000e+03 6.998308563232421875e+01 -1.802789878845214844e+01 -8.126294016838073730e-01 3.431311845779418945e+00 7.856047749519348145e-01 -7.425230145454406738e-01
4.578000000000000000e+03 6.884189605712890625e+01 -1.699799537658691406e+01 -2.906927764415740967e-01 3.023153543472290039e+00 8.197382092475891113e-01 -9.160638600587844849e-02
4.579000000000000000e+03 4.069624328613281250e+01 1.427780985832214355e+00 9.717168658971786499e-02 6.531642436981201172e+00 1.988644242286682129e+00 -1.393447160720825195e+00
4.580000000000000000e+03 4.035530471801757812e+01 2.939759492874145508e+00 3.995587825775146484e-01 6.879643440246582031e+00 2.183760643005371094e+00 -1.357912302017211914e+00
4.581000000000000000e+03 3.122371292114257812e+01 -9.953577995300292969e+00 -8.910242915153503418e-01 1.500505566596984863e+00 1.828443706035614014e-01 9.065889567136764526e-02
4.582000000000000000e+03 7.413616180419921875e+01 -1.709924125671386719e+01 -7.762167453765869141e-01 6.463409423828125000e+00 1.706157803535461426e+00 -6.284354925155639648e-01
4.583000000000000000e+03 7.318321990966796875e+01 -1.909580421447753906e+01 -1.489645719528198242e+00 6.401686668395996094e+00 1.473612308502197266e+00 -6.002165079116821289e-01
4.584000000000000000e+03 6.539578914642333984e+00 2.114743041992187500e+01 1.576312184333801270e-01 -1.079663872718811035e+00 -2.766098082065582275e-01 1.513715684413909912e-01
4.585000000000000000e+03 7.700928211212158203e+00 2.217518997192382812e+01 1.825276762247085571e-01 -9.367892146110534668e-01 -2.262784540653228760e-01 1.102232933044433594e-01
4.586000000000000000e+03 3.165046119689941406e+01 -1.226828384399414062e+01 -7.368851900100708008e-01 1.102181315422058105e+00 1.095888465642929077e-01 5.310862511396408081e-02
4.587000000000000000e+03 9.333292007446289062e+00 -1.257220363616943359e+01 2.271021003252826631e-05 6.668728747172281146e-05 2.681924888747744262e-05 1.326867641182616353e-05
4.588000000000000000e+03 4.108792114257812500e+01 1.006448268890380859e+00 2.618031762540340424e-02 6.478117465972900391e+00 1.951289296150207520e+00 -1.472455501556396484e+00
4.589000000000000000e+03 3.968359756469726562e+01 1.423682570457458496e+00 5.718214437365531921e-02 6.239220619201660156e+00 1.888920783996582031e+00 -1.126413226127624512e+00
4.590000000000000000e+03 4.352660369873046875e+01 -4.213394641876220703e+00 -5.963580012321472168e-01 5.739269733428955078e+00 1.542873501777648926e+00 -1.299090504646301270e+00
4.591000000000000000e+03 4.569808578491210938e+01 -8.084884643554687500e+00 -1.032668948173522949e+00 5.524144649505615234e+00 1.347442746162414551e+00 -6.446618437767028809e-01
4.592000000000000000e+03 4.556798934936523438e+01 -9.705354690551757812e+00 -1.456245660781860352e+00 5.734239101409912109e+00 1.283398032188415527e+00 -3.871133029460906982e-01
4.593000000000000000e+03 4.451160430908203125e+01 -1.083334445953369141e+01 -1.815222620964050293e+00 6.162776470184326172e+00 1.304266095161437988e+00 -4.807240664958953857e-01
4.594000000000000000e+03 6.513951301574707031e+00 2.435201644897460938e+01 1.091618835926055908e-01 -1.088756084442138672e+00 -2.938782572746276855e-01 4.513276740908622742e-02
4.595000000000000000e+03 6.913484191894531250e+01 -1.314960002899169922e+01 5.655288696289062500e-01 4.664821147918701172e+00 1.569105029106140137e+00 4.179815053939819336e-01
4.596000000000000000e+03 6.881436157226562500e+01 -1.471379470825195312e+01 3.063862025737762451e-01 3.947827577590942383e+00 1.276264071464538574e+00 2.576051950454711914e-01
4.597000000000000000e+03 7.600984096527099609e+00 1.618224143981933594e+01 2.459369748830795288e-01 -9.554544687271118164e-01 -2.128552496433258057e-01 3.918795883655548096e-01
4.598000000000000000e+03 5.986447811126708984e+00 -8.929198265075683594e+00 5.732030786020914093e-06 7.991079655766952783e-06 4.116933268960565329e-06 4.807115601579425856e-06
4.599000000000000000e+03 5.978833198547363281e+00 -1.031461048126220703e+01 -9.618993317417334765e-06 5.267896267469041049e-05 1.291799071623245254e-05 1.112349400500534102e-05
4.600000000000000000e+03 7.413751220703125000e+01 1.481246709823608398e+00 7.718671560287475586e-01 9.055997848510742188e+00 2.948359489440917969e+00 4.579675793647766113e-01
4.601000000000000000e+03 7.073673725128173828e+00 2.079813003540039062e+01 1.797187179327011108e-01 -1.023850560188293457e+00 -2.532395422458648682e-01 1.628679037094116211e-01
4.602000000000000000e+03 6.078131198883056641e+00 1.735253715515136719e+01 1.601326912641525269e-01 -1.105211496353149414e+00 -2.835236489772796631e-01 3.091778159141540527e-01
4.603000000000000000e+03 5.590638160705566406e+00 -1.110182666778564453e+01 7.536223620263626799e-06 8.262838673545047641e-05 2.704938378883525729e-05 3.667401642815093510e-06
4.604000000000000000e+03 7.267107486724853516e+00 -1.090211200714111328e+01 -5.161376066098455340e-06 -3.811164424405433238e-05 -1.298190636589424685e-05 -1.753595461195800453e-05
4.605000000000000000e+03 7.430622863769531250e+01 -2.533787536621093750e+01 8.669408559799194336e-01 8.054805755615234375e+00 2.676524162292480469e+00 9.476732015609741211e-01
4.606000000000000000e+03 7.398971557617187500e+01 -8.150779724121093750e+00 1.275491118431091309e-01 7.031188488006591797e+00 2.147621393203735352e+00 -4.186232089996337891e-01
4.607000000000000000e+03 7.393792724609375000e+01 -7.393333435058593750e+00 1.358383744955062866e-01 7.198564529418945312e+00 2.200320959091186523e+00 -3.761754035949707031e-01
4.608000000000000000e+03 7.199750518798828125e+01 -9.672811508178710938e+00 2.843570113182067871e-01 6.643228054046630859e+00 2.078275442123413086e+00 2.663348801434040070e-03
4.609000000000000000e+03 7.413480377197265625e+01 -1.644962692260742188e+01 -6.200538277626037598e-01 6.366454601287841797e+00 1.723920226097106934e+00 -6.904815435409545898e-01
4.610000000000000000e+03 6.615385055541992188e+00 9.036682128906250000e+00 5.681318789720535278e-02 -7.922400832176208496e-01 -2.206280678510665894e-01 6.879560351371765137e-01
4.611000000000000000e+03 6.019559860229492188e+00 8.146168708801269531e+00 -6.281321868300437927e-03 -7.276586890220642090e-01 -2.201820015907287598e-01 6.672158241271972656e-01
4.612000000000000000e+03 7.167588806152343750e+01 -1.050016212463378906e+01 2.984498143196105957e-01 6.314162254333496094e+00 1.983783602714538574e+00 7.228928618133068085e-03
4.613000000000000000e+03 7.115748596191406250e+01 -1.742671012878417969e+01 -8.215482831001281738e-01 4.621034622192382812e+00 1.139845967292785645e+00 -8.735895156860351562e-01
4.614000000000000000e+03 7.376298522949218750e+01 -1.108971977233886719e+01 8.658946305513381958e-02 6.488049983978271484e+00 1.972391843795776367e+00 -5.632632970809936523e-01
4.615000000000000000e+03 7.406776428222656250e+01 -1.480369091033935547e+01 -3.031780421733856201e-01 6.252840042114257812e+00 1.784898638725280762e+00 -7.492059469223022461e-01
4.616000000000000000e+03 7.338916015625000000e+01 -1.476770210266113281e+01 -2.779240906238555908e-01 6.007546901702880859e+00 1.718886852264404297e+00 -7.349904179573059082e-01
4.617000000000000000e+03 7.356604766845703125e+01 -1.229206275939941406e+01 1.754837483167648315e-02 6.263278484344482422e+00 1.884248137474060059e+00 -6.337432265281677246e-01
4.618000000000000000e+03 7.345901489257812500e+01 -1.308620929718017578e+01 -4.550147429108619690e-02 6.166096687316894531e+00 1.836178541183471680e+00 -6.517463326454162598e-01
4.619000000000000000e+03 6.184041500091552734e+00 9.548282623291015625e+00 7.004984468221664429e-02 -8.182671666145324707e-01 -2.244651913642883301e-01 6.449347734451293945e-01
4.620000000000000000e+03 6.595341682434082031e+00 -1.025896358489990234e+01 6.938123988220468163e-06 -4.620534673449583352e-05 -1.178016736957943067e-05 -5.949844762653810903e-06
4.621000000000000000e+03 6.218662261962890625e+00 1.060257148742675781e+01 1.140572279691696167e-01 -8.766850233078002930e-01 -2.287883460521697998e-01 6.165570616722106934e-01
4.622000000000000000e+03 9.339122772216796875e+00 -1.178695392608642578e+01 -3.288825973868370056e-05 -3.433246820350177586e-05 -2.016621692746412009e-05 -1.319225521001499146e-05
4.623000000000000000e+03 6.157835483551025391e+00 -1.449517440795898438e+01 2.784179559967014939e-05 -2.042566302407067269e-05 2.224839818154578097e-06 9.980057075154036283e-05
4.624000000000000000e+03 6.438634395599365234e+00 1.875017547607421875e+01 1.743046194314956665e-01 -1.083916068077087402e+00 -2.728834450244903564e-01 2.519792914390563965e-01
4.625000000000000000e+03 5.583995819091796875e+00 -1.254922389984130859e+01 6.732892416039248928e-06 -1.027222824632190168e-04 -2.879681778722442687e-05 1.237079777638427913e-05
4.626000000000000000e+03 6.622248172760009766e+00 -1.152602672576904297e+01 -2.188589132856577635e-05 6.134768227639142424e-06 -4.725337021227460355e-06 -3.487445064820349216e-05
4.627000000000000000e+03 7.092092990875244141e+00 -1.235772132873535156e+01 -7.414042556774802506e-06 3.228278001188300550e-05 7.460621873178752139e-06 -6.168764230096712708e-05
4.628000000000000000e+03 6.284755706787109375e+00 1.171119213104248047e+01 1.408410221338272095e-01 -9.235589504241943359e-01 -2.348153740167617798e-01 5.739310383796691895e-01
4.629000000000000000e+03 9.152875900268554688e+00 -7.277537345886230469e+00 -4.192164851701818407e-06 2.629296068334951997e-05 6.630238658544840291e-06 -1.226240158302971395e-07
4.630000000000000000e+03 6.868773460388183594e+00 -1.358933544158935547e+01 1.156386133516207337e-05 9.437005064683035016e-05 3.178017504978924990e-05 5.904373028897680342e-05
4.631000000000000000e+03 7.407768249511718750e+00 1.773147964477539062e+01 2.273556888103485107e-01 -9.861574172973632812e-01 -2.276405245065689087e-01 3.063804805278778076e-01
4.632000000000000000e+03 6.848439693450927734e+00 1.681163597106933594e+01 2.130184769630432129e-01 -1.022935867309570312e+00 -2.429752349853515625e-01 3.509117364883422852e-01
4.633000000000000000e+03 6.707409858703613281e+00 1.105099010467529297e+01 1.457476317882537842e-01 -8.881782889366149902e-01 -2.227292060852050781e-01 6.199526190757751465e-01
4.634000000000000000e+03 7.207409858703613281e+00 1.141683387756347656e+01 1.759305447340011597e-01 -8.916624188423156738e-01 -2.147195488214492798e-01 6.214801073074340820e-01
4.635000000000000000e+03 7.058882141113281250e+01 -1.812140083312988281e+01 -1.012873411178588867e+00 4.032410144805908203e+00 9.058609604835510254e-01 -9.327625036239624023e-01
4.636000000000000000e+03 2.062776565551757812e+01 1.774150371551513672e+00 -3.759093880653381348e-01 -6.309280395507812500e-01 -3.020512163639068604e-01 5.777255892753601074e-01
4.637000000000000000e+03 4.289859390258789062e+01 -1.646788787841796875e+01 -1.284870028495788574e+00 8.194440841674804688e+00 2.072871208190917969e+00 -1.390584349632263184e+00
4.638000000000000000e+03 7.826501369476318359e+00 2.810712814331054688e+01 7.319547981023788452e-02 -8.586652874946594238e-01 -2.356409430503845215e-01 -5.284185707569122314e-02
4.639000000000000000e+03 6.903114318847656250e+00 2.706757545471191406e+01 8.285310864448547363e-02 -1.011210799217224121e+00 -2.785072922706604004e-01 -2.856324054300785065e-02
4.640000000000000000e+03 7.142872810363769531e+00 2.328255462646484375e+01 1.441980600357055664e-01 -1.005178928375244141e+00 -2.582942545413970947e-01 7.420104742050170898e-02
4.641000000000000000e+03 7.318657875061035156e+00 2.414139556884765625e+01 1.365152895450592041e-01 -9.707595109939575195e-01 -2.502732574939727783e-01 4.285055026412010193e-02
4.642000000000000000e+03 8.043197631835937500e+00 -7.660980701446533203e+00 3.475899120530812070e-06 3.630929859355092049e-05 1.193555999634554610e-05 1.577350485604256392e-05
4.643000000000000000e+03 4.117717742919921875e+01 -1.372817802429199219e+01 -1.732841134071350098e+00 6.522233963012695312e+00 1.436817884445190430e+00 -1.623084902763366699e+00
4.644000000000000000e+03 3.666068267822265625e+01 -1.353010749816894531e+01 -6.935085654258728027e-01 3.009016513824462891e+00 6.946523785591125488e-01 -1.556137561798095703e+00
4.645000000000000000e+03 3.608625411987304688e+01 -1.190243339538574219e+01 -8.727712631225585938e-01 3.123056650161743164e+00 6.750856041908264160e-01 -1.202921390533447266e+00
4.646000000000000000e+03 7.210519409179687500e+01 -1.302653026580810547e+01 8.308836817741394043e-02 5.765425205230712891e+00 1.754554033279418945e+00 -4.286392927169799805e-01
4.647000000000000000e+03 2.894775199890136719e+01 -3.474047899246215820e+00 -7.828016877174377441e-01 1.661031723022460938e+00 2.634690105915069580e-01 1.634905338287353516e-01
4.648000000000000000e+03 4.483033752441406250e+01 -1.319666576385498047e+01 -2.101582288742065430e+00 6.744419097900390625e+00 1.392850995063781738e+00 -3.599049150943756104e-01
4.649000000000000000e+03 7.597760200500488281e+00 8.861430168151855469e+00 7.925178110599517822e-02 -8.062801361083984375e-01 -2.181085050106048584e-01 7.369889020919799805e-01
4.650000000000000000e+03 9.184005737304687500e+00 9.168209075927734375e+00 1.567809730768203735e-01 -8.451885581016540527e-01 -2.065222710371017456e-01 7.708016037940979004e-01
4.651000000000000000e+03 3.654482269287109375e+01 -1.407140350341796875e+01 -5.705636739730834961e-01 2.719398975372314453e+00 6.446505784988403320e-01 -1.578540086746215820e+00
4.652000000000000000e+03 3.797021865844726562e+01 -1.414502620697021484e+01 -8.674420714378356934e-01 4.053736686706542969e+00 9.558883309364318848e-01 -1.962483763694763184e+00
4.653000000000000000e+03 1.172818183898925781e+01 -8.280186653137207031e+00 -6.840190962975611910e-06 -1.753213837218936533e-05 -7.311698936973698437e-06 -5.270516794553259388e-06
4.654000000000000000e+03 4.812958908081054688e+01 -1.561720657348632812e+01 -2.207076311111450195e+00 5.733656883239746094e+00 1.057974219322204590e+00 2.271437644958496094e-01
4.655000000000000000e+03 7.475780963897705078e+00 -7.128524780273437500e+00 -1.142293172051722649e-06 -2.345801112824119627e-05 -7.380091119557619095e-06 -9.033212336362339556e-06
4.656000000000000000e+03 7.342989349365234375e+01 -9.113794326782226562e+00 1.516810357570648193e-01 6.828423023223876953e+00 2.094031095504760742e+00 -3.457863628864288330e-01
4.657000000000000000e+03 2.899282646179199219e+01 -6.783909320831298828e+00 -1.041911721229553223e+00 1.264596104621887207e+00 6.680531799793243408e-02 3.423642814159393311e-01
4.658000000000000000e+03 5.144635009765625000e+01 -1.997484397888183594e+01 -4.973405599594116211e-02 2.873993873596191406e+00 8.472779393196105957e-01 -6.997156143188476562e-01
4.659000000000000000e+03 4.133883666992187500e+01 -1.442777919769287109e+01 -1.645443081855773926e+00 6.825279712677001953e+00 1.553951025009155273e+00 -1.747931480407714844e+00
4.660000000000000000e+03 4.233106994628906250e+01 -1.493922901153564453e+01 -1.717523455619812012e+00 7.395979404449462891e+00 1.703536748886108398e+00 -1.430698275566101074e+00
4.661000000000000000e+03 5.342969131469726562e+01 -2.620161437988281250e+01 2.521852016448974609e+00 3.849641561508178711e+00 1.911448121070861816e+00 -1.494237035512924194e-01
4.662000000000000000e+03 6.802975463867187500e+01 -1.755346298217773438e+01 -3.733875453472137451e-01 2.282067775726318359e+00 5.726040601730346680e-01 3.014954030513763428e-01
4.663000000000000000e+03 3.103183364868164062e+01 -9.308860778808593750e+00 -9.287312626838684082e-01 1.560616493225097656e+00 1.895655542612075806e-01 1.079515367746353149e-01
4.664000000000000000e+03 3.070674896240234375e+01 -8.604827880859375000e+00 -9.604527354240417480e-01 1.585674762725830078e+00 1.875666081905364990e-01 1.524895578622817993e-01
4.665000000000000000e+03 5.404655456542968750e+01 -2.322305297851562500e+01 2.055079221725463867e+00 2.145530700683593750e+00 1.260182976722717285e+00 8.333734422922134399e-02
4.666000000000000000e+03 5.438899612426757812e+01 -2.261506652832031250e+01 1.796617507934570312e+00 1.768595457077026367e+00 1.069563865661621094e+00 2.598275244235992432e-01
4.667000000000000000e+03 5.225116729736328125e+01 -1.989280891418457031e+01 -2.318100929260253906e-01 2.008943080902099609e+00 5.331398844718933105e-01 -6.016218066215515137e-01
4.668000000000000000e+03 5.373321533203125000e+01 -2.072247505187988281e+01 5.207254290580749512e-01 1.145438671112060547e+00 4.998492598533630371e-01 -1.042993813753128052e-01
4.669000000000000000e+03 5.353327560424804688e+01 -2.435436820983886719e+01 2.389530181884765625e+00 2.905000209808349609e+00 1.588359117507934570e+00 -8.399745076894760132e-02
4.670000000000000000e+03 4.363085556030273438e+01 -1.598938369750976562e+01 -1.594943523406982422e+00 8.031891822814941406e+00 1.931084513664245605e+00 -9.721974134445190430e-01
4.671000000000000000e+03 4.516048431396484375e+01 -1.555231857299804688e+01 -1.856245517730712891e+00 7.400972366333007812e+00 1.663418054580688477e+00 -3.825231194496154785e-01
4.672000000000000000e+03 4.903692245483398438e+01 -1.688376426696777344e+01 -1.922816872596740723e+00 5.049808979034423828e+00 9.380977153778076172e-01 1.987178111448884010e-03
4.673000000000000000e+03 6.040790557861328125e+00 7.442122459411621094e+00 -4.861359298229217529e-02 -6.746883392333984375e-01 -2.169905751943588257e-01 6.752317547798156738e-01
4.674000000000000000e+03 6.960314178466796875e+01 -1.642252349853515625e+01 -2.424122393131256104e-01 3.724321603775024414e+00 1.044572830200195312e+00 -3.264764845371246338e-01
4.675000000000000000e+03 3.939568710327148438e+01 2.107064485549926758e+00 1.884152591228485107e-01 6.258777141571044922e+00 1.934157729148864746e+00 -1.070083260536193848e+00
4.676000000000000000e+03 7.356808471679687500e+01 -9.804542541503906250e+00 1.347312927246093750e-01 6.669426441192626953e+00 2.041247367858886719e+00 -4.482900500297546387e-01
4.677000000000000000e+03 4.031095886230468750e+01 -1.314665603637695312e+01 -1.596611499786376953e+00 5.870054244995117188e+00 1.282032847404479980e+00 -1.723344564437866211e+00
4.678000000000000000e+03 3.961854553222656250e+01 -1.321860980987548828e+01 -1.422827005386352539e+00 5.418305397033691406e+00 1.198643565177917480e+00 -1.835983037948608398e+00
4.679000000000000000e+03 4.931499481201171875e+01 -1.838894844055175781e+01 -1.003484606742858887e+00 4.795596122741699219e+00 1.137633442878723145e+00 -4.427791237831115723e-01
4.680000000000000000e+03 4.984046936035156250e+01 -1.868638420104980469e+01 -8.754441738128662109e-01 4.275482654571533203e+00 1.020011544227600098e+00 -5.054196715354919434e-01
4.681000000000000000e+03 4.973794174194335938e+01 -2.750441932678222656e+01 2.555643320083618164e+00 5.449159622192382812e+00 2.401440858840942383e+00 -1.354677796363830566e+00
4.682000000000000000e+03 4.817118835449218750e+01 -2.497240066528320312e+01 2.573378562927246094e+00 6.228117942810058594e+00 2.640449047088623047e+00 -1.595868468284606934e+00
4.683000000000000000e+03 5.281826782226562500e+01 -2.576168251037597656e+01 2.551599025726318359e+00 3.768200874328613281e+00 1.895939946174621582e+00 -4.277369678020477295e-01
4.684000000000000000e+03 4.699601364135742188e+01 -2.118387222290039062e+01 1.654881477355957031e+00 6.893147945404052734e+00 2.564408779144287109e+00 -1.099322915077209473e+00
4.685000000000000000e+03 3.718252563476562500e+01 7.705079078674316406e+00 1.603931903839111328e+00 6.241044521331787109e+00 2.353492975234985352e+00 -6.958628892898559570e-01
4.686000000000000000e+03 4.785466003417968750e+01 -1.869856643676757812e+01 -3.705234527587890625e-01 6.166399478912353516e+00 1.738762855529785156e+00 -4.414555728435516357e-01
4.687000000000000000e+03 5.318356704711914062e+01 -2.353475189208984375e+01 2.143680095672607422e+00 2.663259267807006836e+00 1.442081809043884277e+00 -2.610295414924621582e-01
4.688000000000000000e+03 2.959646034240722656e+01 -6.412956237792968750e+00 -9.941823482513427734e-01 1.538414239883422852e+00 1.632695794105529785e-01 2.314591258764266968e-01
4.689000000000000000e+03 1.747750473022460938e+01 5.760527610778808594e+00 2.409493476152420044e-01 -7.802331447601318359e-01 -1.617851406335830688e-01 5.921851396560668945e-01
4.690000000000000000e+03 8.561464309692382812e+00 -1.258582210540771484e+01 -2.744035191426519305e-05 -5.945922384853474796e-05 -2.606987254694104195e-05 -2.877914084820076823e-05
4.691000000000000000e+03 1.956869125366210938e+01 3.337562799453735352e+00 -9.669770300388336182e-02 -6.823228597640991211e-01 -2.337061762809753418e-01 5.651816129684448242e-01
4.692000000000000000e+03 1.931106567382812500e+01 4.341503143310546875e+00 1.012992858886718750e-01 -6.365084648132324219e-01 -1.605627536773681641e-01 5.250186324119567871e-01
4.693000000000000000e+03 7.365438079833984375e+01 -1.048524284362792969e+01 9.982898086309432983e-02 6.561467647552490234e+00 1.998389005661010742e+00 -5.121944546699523926e-01
4.694000000000000000e+03 6.826692962646484375e+01 -1.443118381500244141e+01 4.638243317604064941e-01 3.857683420181274414e+00 1.296452403068542480e+00 4.832454919815063477e-01
4.695000000000000000e+03 7.014502716064453125e+01 -1.296407222747802734e+01 3.857001662254333496e-01 5.110588550567626953e+00 1.648886561393737793e+00 1.012247204780578613e-01
4.696000000000000000e+03 4.501925659179687500e+01 -1.624720191955566406e+01 -1.561191439628601074e+00 7.708127021789550781e+00 1.844080686569213867e+00 -4.986000955104827881e-01
4.697000000000000000e+03 6.416955947875976562e+00 -7.519681930541992188e+00 7.243464551720535383e-06 -1.804011480999179184e-05 -3.238995304855052382e-06 -9.436065738555043936e-06
4.698000000000000000e+03 6.969470977783203125e+01 -1.365870952606201172e+01 3.529788553714752197e-01 4.693990230560302734e+00 1.514090657234191895e+00 1.210089400410652161e-01
4.699000000000000000e+03 6.900197601318359375e+01 -1.626728439331054688e+01 -8.116076141595840454e-02 3.433388471603393555e+00 1.005668282508850098e+00 -6.125679984688758850e-02
4.700000000000000000e+03 2.702722167968750000e+01 -2.349324703216552734e+00 -7.274175286293029785e-01 1.043217420578002930e+00 9.473998099565505981e-02 2.858649492263793945e-01
4.701000000000000000e+03 2.433680725097656250e+01 5.519701838493347168e-01 -3.679741322994232178e-01 3.188645839691162109e-01 -1.473286934196949005e-02 3.217372000217437744e-01
4.702000000000000000e+03 4.027676773071289062e+01 1.917584061622619629e+00 1.826238781213760376e-01 6.582265377044677734e+00 2.029466629028320312e+00 -1.295073747634887695e+00
4.703000000000000000e+03 2.029302597045898438e+01 2.864514112472534180e+00 -1.519588232040405273e-01 -5.897120237350463867e-01 -2.225012481212615967e-01 5.243659615516662598e-01
4.704000000000000000e+03 1.870683670043945312e+01 4.820574760437011719e+00 1.400687992572784424e-01 -7.044011354446411133e-01 -1.692996919155120850e-01 5.419740676879882812e-01
4.705000000000000000e+03 6.624108791351318359e+00 -1.282053661346435547e+01 -3.106996155111119151e-05 -9.738157677929848433e-05 -3.853546149912290275e-05 -6.785949608456576243e-06
4.706000000000000000e+03 5.021717834472656250e+01 -3.015106773376464844e+01 2.030702590942382812e+00 5.589703559875488281e+00 2.286121845245361328e+00 -1.136178493499755859e+00
4.707000000000000000e+03 5.055216217041015625e+01 -2.893932533264160156e+01 2.342215776443481445e+00 5.358825206756591797e+00 2.310312271118164062e+00 -1.182888031005859375e+00
4.708000000000000000e+03 1.576848316192626953e+01 6.080840110778808594e+00 1.847356408834457397e-01 -9.068297743797302246e-01 -2.166282385587692261e-01 7.084736824035644531e-01
4.709000000000000000e+03 2.636087417602539062e+01 -1.592807292938232422e+00 -6.482868790626525879e-01 8.500989675521850586e-01 6.054363027215003967e-02 2.931766510009765625e-01
4.710000000000000000e+03 2.569545745849609375e+01 -8.593538403511047363e-01 -5.602715611457824707e-01 6.746134161949157715e-01 3.430255874991416931e-02 3.032427430152893066e-01
4.711000000000000000e+03 3.547722244262695312e+01 -1.270928192138671875e+01 -7.039686441421508789e-01 2.495555877685546875e+00 5.374761819839477539e-01 -1.060989975929260254e+00
4.712000000000000000e+03 3.436779785156250000e+01 -1.194499683380126953e+01 -7.409663796424865723e-01 2.195472002029418945e+00 4.363516569137573242e-01 -7.161218523979187012e-01
4.713000000000000000e+03 3.647679901123046875e+01 2.331764793395996094e+01 3.900330364704132080e-01 5.032775402069091797e+00 1.626842617988586426e+00 -4.808258712291717529e-01
4.714000000000000000e+03 3.488491821289062500e+01 1.718602752685546875e+01 1.263756632804870605e+00 5.106040000915527344e+00 1.910938978195190430e+00 -8.272413015365600586e-01
4.715000000000000000e+03 5.037967300415039062e+01 -2.376530647277832031e+01 2.251088142395019531e+00 4.293187141418457031e+00 1.963282585144042969e+00 -1.164876461029052734e+00
4.716000000000000000e+03 3.572640228271484375e+01 2.431447792053222656e+01 2.619508802890777588e-01 4.708835601806640625e+00 1.491235971450805664e+00 -5.480259656906127930e-01
4.717000000000000000e+03 3.035733985900878906e+01 -7.892145633697509766e+00 -9.823162555694580078e-01 1.582495927810668945e+00 1.800538897514343262e-01 1.810017824172973633e-01
4.718000000000000000e+03 2.998556900024414062e+01 -7.162867546081542969e+00 -9.975396990776062012e-01 1.571896195411682129e+00 1.723069548606872559e-01 2.132976800203323364e-01
4.719000000000000000e+03 6.161188125610351562e+00 2.069223213195800781e+01 1.481082737445831299e-01 -1.131096363067626953e+00 -2.948964238166809082e-01 1.674597859382629395e-01
4.720000000000000000e+03 2.248023033142089844e+01 1.248741030693054199e+00 -3.481913805007934570e-01 -2.056456208229064941e-01 -1.661510914564132690e-01 4.380379617214202881e-01
4.721000000000000000e+03 2.175796508789062500e+01 1.830247163772583008e+00 -2.721710503101348877e-01 -3.504510819911956787e-01 -1.867866367101669312e-01 4.622277915477752686e-01
4.722000000000000000e+03 1.227240467071533203e+01 7.227954387664794922e+00 1.362943351268768311e-01 -9.274293780326843262e-01 -2.373405098915100098e-01 8.395593762397766113e-01
4.723000000000000000e+03 6.000263214111328125e+00 1.487186622619628906e+01 1.643225848674774170e-01 -1.048493981361389160e+00 -2.652514278888702393e-01 4.258750677108764648e-01
4.724000000000000000e+03 7.069248199462890625e+00 1.485542201995849609e+01 2.249409407377243042e-01 -9.775012135505676270e-01 -2.257680743932723999e-01 4.503012895584106445e-01
4.725000000000000000e+03 3.532456970214843750e+01 1.608496665954589844e+01 1.393144011497497559e+00 5.391622543334960938e+00 2.035429954528808594e+00 -8.517218232154846191e-01
4.726000000000000000e+03 7.127532958984375000e+00 9.443480491638183594e+00 9.270953387022018433e-02 -8.194396495819091797e-01 -2.180190384387969971e-01 7.008112668991088867e-01
4.727000000000000000e+03 8.546873092651367188e+00 7.551770210266113281e+00 3.432590281590819359e-03 -7.864155769348144531e-01 -2.348949015140533447e-01 8.180277347564697266e-01
4.728000000000000000e+03 1.779204368591308594e+01 6.919647693634033203e+00 4.137023985385894775e-01 -6.541953682899475098e-01 -7.214788347482681274e-02 4.999776184558868408e-01
4.729000000000000000e+03 1.443862724304199219e+01 -9.868364334106445312e+00 1.389933186146663502e-05 1.986052666325122118e-05 1.012795746646588668e-05 1.142152450483990833e-05
4.730000000000000000e+03 4.957139587402343750e+01 -2.653819274902343750e+01 2.631228685379028320e+00 5.362234592437744141e+00 2.398039102554321289e+00 -1.378294587135314941e+00
4.731000000000000000e+03 3.546931076049804688e+01 1.989421844482421875e+01 8.611236810684204102e-01 5.112422466278076172e+00 1.792063832283020020e+00 -6.832244992256164551e-01
4.732000000000000000e+03 3.554734039306640625e+01 1.858113288879394531e+01 1.056004285812377930e+00 5.324599266052246094e+00 1.914181113243103027e+00 -7.268589735031127930e-01
4.733000000000000000e+03 3.638105392456054688e+01 1.535089874267578125e+01 1.457544326782226562e+00 6.062182903289794922e+00 2.255918025970458984e+00 -8.089736104011535645e-01
4.734000000000000000e+03 9.732276916503906250e+00 -7.364750862121582031e+00 -1.017998329189140350e-05 -1.424565471097594127e-05 -7.327691491809673607e-06 -1.972267540395478136e-07
4.735000000000000000e+03 1.007175064086914062e+01 -1.185539054870605469e+01 3.786077286349609494e-05 3.163029759889468551e-05 2.084732113871723413e-05 1.226741551363375038e-05
4.736000000000000000e+03 3.638787460327148438e+01 2.647337150573730469e+01 -2.627016790211200714e-02 4.591935157775878906e+00 1.369699478149414062e+00 -4.369435310363769531e-01
4.737000000000000000e+03 4.040592575073242188e+01 -1.391419315338134766e+01 -1.515024065971374512e+00 6.114851951599121094e+00 1.379948377609252930e+00 -1.912898182868957520e+00
4.738000000000000000e+03 4.302377700805664062e+01 -6.384315490722656250e+00 -1.063477277755737305e+00 5.699882507324218750e+00 1.390921473503112793e+00 -1.033355355262756348e+00
4.739000000000000000e+03 6.557272338867187500e+01 -1.734326171875000000e+01 -5.031849145889282227e-01 2.232398033142089844e+00 5.187638998031616211e-01 1.646621823310852051e+00
4.740000000000000000e+03 1.041944503784179688e+01 7.902603626251220703e+00 1.134575083851814270e-01 -8.689201474189758301e-01 -2.266387939453125000e-01 8.366911411285400391e-01
4.741000000000000000e+03 3.809665298461914062e+01 5.834378719329833984e+00 1.147213935852050781e+00 6.596401691436767578e+00 2.323084831237792969e+00 -7.802464365959167480e-01
4.742000000000000000e+03 4.514837265014648438e+01 -1.182162761688232422e+01 -1.969521403312683105e+00 6.297161579132080078e+00 1.298292160034179688e+00 -2.687576413154602051e-01
4.743000000000000000e+03 4.228448104858398438e+01 -1.636529731750488281e+01 -1.204248070716857910e+00 8.029786109924316406e+00 2.047661542892456055e+00 -1.734001278877258301e+00
4.744000000000000000e+03 4.524106597900390625e+01 -1.793860816955566406e+01 -5.517547130584716797e-01 8.080716133117675781e+00 2.258688449859619141e+00 -5.620880722999572754e-01
4.745000000000000000e+03 4.580223464965820312e+01 -1.647757148742675781e+01 -1.528139472007751465e+00 7.361556053161621094e+00 1.750025033950805664e+00 -2.951341271400451660e-01
4.746000000000000000e+03 1.599869537353515625e+01 7.089962005615234375e+00 3.283241093158721924e-01 -8.209589719772338867e-01 -1.477904617786407471e-01 6.363551616668701172e-01
4.747000000000000000e+03 6.853432178497314453e+00 1.343402290344238281e+01 1.987323611974716187e-01 -9.554626345634460449e-01 -2.270190864801406860e-01 5.200347304344177246e-01
4.748000000000000000e+03 5.941073894500732422e+00 1.307348060607910156e+01 1.506354659795761108e-01 -9.908644556999206543e-01 -2.520686984062194824e-01 4.981600344181060791e-01
4.749000000000000000e+03 3.532810592651367188e+01 1.379493618011474609e+01 1.649996042251586914e+00 5.435509204864501953e+00 2.125651597976684570e+00 -8.782623410224914551e-01
4.750000000000000000e+03 3.637331390380859375e+01 1.451945972442626953e+01 1.542470693588256836e+00 6.073347091674804688e+00 2.284745454788208008e+00 -8.544944524765014648e-01
4.751000000000000000e+03 3.635732269287109375e+01 9.677094459533691406e+00 1.848509430885314941e+00 5.892455101013183594e+00 2.322289466857910156e+00 -7.563102245330810547e-01
4.752000000000000000e+03 3.633938598632812500e+01 8.780095100402832031e+00 1.742939591407775879e+00 5.818869113922119141e+00 2.268542528152465820e+00 -6.919483542442321777e-01
4.753000000000000000e+03 3.578576660156250000e+01 2.817025184631347656e+01 -2.371247261762619019e-01 4.331500053405761719e+00 1.228312611579895020e+00 -4.725135266780853271e-01
4.754000000000000000e+03 3.527709579467773438e+01 1.273861885070800781e+01 1.764126896858215332e+00 5.395393848419189453e+00 2.147856235504150391e+00 -8.681183457374572754e-01
4.755000000000000000e+03 3.535776901245117188e+01 1.165671157836914062e+01 1.811801671981811523e+00 5.392572879791259766e+00 2.161312341690063477e+00 -8.268346190452575684e-01
4.756000000000000000e+03 7.658495903015136719e+00 2.601821517944335938e+01 1.166372969746589661e-01 -8.990057110786437988e-01 -2.347105294466018677e-01 -1.036070566624403000e-02
4.757000000000000000e+03 3.542242050170898438e+01 1.068958950042724609e+01 1.833531141281127930e+00 5.389075756072998047e+00 2.166782140731811523e+00 -7.737452387809753418e-01
4.758000000000000000e+03 3.519588088989257812e+01 3.020124816894531250e+01 -4.702400863170623779e-01 4.086714744567871094e+00 1.084942460060119629e+00 -4.681910574436187744e-01
4.759000000000000000e+03 4.984888839721679688e+01 -3.143959617614746094e+01 1.528967738151550293e+00 5.863780975341796875e+00 2.217824459075927734e+00 -1.037401199340820312e+00
4.760000000000000000e+03 3.681291961669921875e+01 2.110820388793945312e+01 6.838198900222778320e-01 5.524150848388671875e+00 1.862391114234924316e+00 -4.714491963386535645e-01
4.761000000000000000e+03 3.763366317749023438e+01 3.559397888183593750e+01 -1.051882386207580566e+00 3.911082744598388672e+00 8.577600717544555664e-01 -1.465303003787994385e-01
4.762000000000000000e+03 8.094464302062988281e+00 3.396944808959960938e+01 -5.215791054069995880e-03 -7.723299860954284668e-01 -2.332637310028076172e-01 -7.907596975564956665e-02
4.763000000000000000e+03 7.511286163330078125e+01 -4.071078109741210938e+01 -6.799753010272979736e-02 5.861061573028564453e+00 1.737919330596923828e+00 -1.111302748322486877e-01
4.764000000000000000e+03 4.055559921264648438e+01 3.490292739868164062e+01 -1.023890495300292969e+00 3.874377012252807617e+00 8.551459312438964844e-01 1.886291429400444031e-02
4.765000000000000000e+03 4.858514022827148438e+01 -1.849343299865722656e+01 -7.778905034065246582e-01 5.446633338928222656e+00 1.400622844696044922e+00 -4.465026855468750000e-01
4.766000000000000000e+03 4.628139495849609375e+01 -1.449180221557617188e+01 -2.148962736129760742e+00 6.613236904144287109e+00 1.339282274246215820e+00 5.246933083981275558e-03
4.767000000000000000e+03 4.581416320800781250e+01 -1.370819568634033203e+01 -2.144686222076416016e+00 6.605445861816406250e+00 1.338227868080139160e+00 -8.113376051187515259e-02
4.768000000000000000e+03 7.077167987823486328e+00 -9.045375823974609375e+00 -2.172673248423961923e-06 2.757705624389927834e-05 7.621315035066800192e-06 1.264393972633115482e-06
4.769000000000000000e+03 6.543902873992919922e+00 -9.625709533691406250e+00 -6.775467227271292359e-06 3.733388803084380925e-05 9.167526513920165598e-06 6.672095878457184881e-06
4.770000000000000000e+03 4.533804321289062500e+01 -1.306028079986572266e+01 -2.110593557357788086e+00 6.565863609313964844e+00 1.336580991744995117e+00 -1.967923492193222046e-01
4.771000000000000000e+03 7.005934143066406250e+01 -1.728512191772460938e+01 -5.775808691978454590e-01 3.756251096725463867e+00 9.536010622978210449e-01 -6.235986351966857910e-01
4.772000000000000000e+03 7.070664978027343750e+01 -1.668380737304687500e+01 -4.814819991588592529e-01 4.384323120117187500e+00 1.170852303504943848e+00 -6.602599024772644043e-01
4.773000000000000000e+03 3.433113479614257812e+01 -1.043994998931884766e+01 -8.750203847885131836e-01 2.593025684356689453e+00 5.154016017913818359e-01 -6.523712873458862305e-01
4.774000000000000000e+03 3.279806137084960938e+01 -1.156861495971679688e+01 -7.629849314689636230e-01 1.655700325965881348e+00 2.678146362304687500e-01 -2.546647489070892334e-01
4.775000000000000000e+03 1.211202621459960938e+01 -9.789717674255371094e+00 1.328885082330089062e-05 1.286761198571184650e-05 7.846938387956470251e-06 1.869970674306387082e-06
4.776000000000000000e+03 1.103461742401123047e+01 -8.134963035583496094e+00 7.666354576940648258e-06 1.873912151495460421e-05 7.921642463770695031e-06 8.640839951112866402e-06
4.777000000000000000e+03 4.375036239624023438e+01 -5.402100086212158203e+00 -7.906473875045776367e-01 5.683162689208984375e+00 1.467754721641540527e+00 -1.146362066268920898e+00
4.778000000000000000e+03 4.357603454589843750e+01 -4.975068092346191406e+00 -7.154768109321594238e-01 5.703898429870605469e+00 1.496526479721069336e+00 -1.205043315887451172e+00
4.779000000000000000e+03 7.567877292633056641e+00 -8.142846107482910156e+00 -7.989427103893831372e-06 -2.968103035527747124e-05 -1.130113741965033114e-05 -1.349205831502331421e-05
4.780000000000000000e+03 3.787105560302734375e+01 2.101670503616333008e+00 2.115143686532974243e-01 5.782084941864013672e+00 1.798079729080200195e+00 -7.827112078666687012e-01
4.781000000000000000e+03 4.759804916381835938e+01 -1.512800312042236328e+01 -2.194742202758789062e+00 6.022106170654296875e+00 1.148209214210510254e+00 2.279175221920013428e-01
4.782000000000000000e+03 4.465546798706054688e+01 -7.667102336883544922e+00 -1.126411080360412598e+00 5.678630828857421875e+00 1.365666031837463379e+00 -7.945260405540466309e-01
4.783000000000000000e+03 1.013795757293701172e+01 -1.116562366485595703e+01 -4.979827645001932979e-05 -5.985096777294529602e-06 -1.673501174082048237e-05 -2.075124393741134554e-05
4.784000000000000000e+03 1.033429813385009766e+01 -8.061238288879394531e+00 -1.295155288971727714e-05 -1.884069024526979774e-05 -9.537672667647711933e-06 -1.325149332842556760e-05
4.785000000000000000e+03 4.023771667480468750e+01 9.138672947883605957e-01 -3.638732433319091797e-02 6.264275074005126953e+00 1.868366360664367676e+00 -1.242899298667907715e+00
4.786000000000000000e+03 3.990170288085937500e+01 2.432309627532958984e+00 2.672767937183380127e-01 6.577750205993652344e+00 2.053508043289184570e+00 -1.221144080162048340e+00
4.787000000000000000e+03 4.768531417846679688e+01 -1.796125030517578125e+01 -9.188756942749023438e-01 6.277307033538818359e+00 1.607529401779174805e+00 -2.872895598411560059e-01
4.788000000000000000e+03 4.639728546142578125e+01 -1.897747421264648438e+01 9.452728927135467529e-02 7.343407630920410156e+00 2.231380462646484375e+00 -5.387729406356811523e-01
4.789000000000000000e+03 3.151108169555664062e+01 -1.179416656494140625e+01 -7.717902660369873047e-01 1.158152937889099121e+00 1.159087866544723511e-01 8.436348289251327515e-02
4.790000000000000000e+03 4.311245346069335938e+01 -2.080042839050292969e+00 -2.919647097587585449e-01 5.974886894226074219e+00 1.704876661300659180e+00 -1.559054970741271973e+00
4.791000000000000000e+03 4.369229507446289062e+01 -1.747908115386962891e+00 -1.694318652153015137e-01 5.988251686096191406e+00 1.745645999908447266e+00 -1.671545505523681641e+00
4.792000000000000000e+03 7.259706115722656250e+01 -1.855346488952636719e+01 -1.360868334770202637e+00 5.885308265686035156e+00 1.357331991195678711e+00 -7.984477281570434570e-01
4.793000000000000000e+03 4.269811248779296875e+01 -2.963249683380126953e+00 -5.001412630081176758e-01 5.864339351654052734e+00 1.609259486198425293e+00 -1.381741285324096680e+00
4.794000000000000000e+03 4.183810424804687500e+01 6.974160075187683105e-01 3.590000048279762268e-02 6.489100456237792969e+00 1.957500100135803223e+00 -1.636784195899963379e+00
4.795000000000000000e+03 1.308963871002197266e+01 -8.667368888854980469e+00 -1.099043311114655808e-05 -1.605875695531722158e-05 -8.114756383292842656e-06 5.163702212485077325e-07
4.796000000000000000e+03 7.699432849884033203e+00 1.490114784240722656e+01 2.579402029514312744e-01 -9.389431476593017578e-01 -2.043008804321289062e-01 4.569876790046691895e-01
4.797000000000000000e+03 3.174186325073242188e+01 -1.005633258819580078e+01 -8.829324841499328613e-01 1.657787084579467773e+00 2.324563711881637573e-01 -7.685943506658077240e-03
4.798000000000000000e+03 3.183352470397949219e+01 -1.096329402923583984e+01 -8.138821125030517578e-01 1.484096884727478027e+00 2.010644227266311646e-01 -2.772189863026142120e-02
4.799000000000000000e+03 6.761165618896484375e+00 2.176900672912597656e+01 1.536717712879180908e-01 -1.059229373931884766e+00 -2.716673016548156738e-01 1.276296675205230713e-01
4.800000000000000000e+03 9.021059989929199219e+00 2.357388877868652344e+01 2.060388922691345215e-01 -7.424335479736328125e-01 -1.609183996915817261e-01 4.136481136083602905e-02
4.801000000000000000e+03 4.298707580566406250e+01 -5.045886993408203125e+00 -8.261564373970031738e-01 5.683139324188232422e+00 1.457094907760620117e+00 -1.150426745414733887e+00
4.802000000000000000e+03 4.308649063110351562e+01 -3.639672994613647461e+00 -5.787149071693420410e-01 5.798639774322509766e+00 1.565977454185485840e+00 -1.335188865661621094e+00
4.803000000000000000e+03 3.210835647583007812e+01 -1.158216762542724609e+01 -7.712857723236083984e-01 1.427613735198974609e+00 1.968983858823776245e-01 -8.494857698678970337e-02
4.804000000000000000e+03 3.164285469055175781e+01 -8.995750427246093750e+00 -9.201614856719970703e-01 1.830004453659057617e+00 2.729528844356536865e-01 -1.599566452205181122e-02
4.805000000000000000e+03 7.155108642578125000e+01 -1.300630950927734375e+01 1.576198190450668335e-01 5.558299541473388672e+00 1.714775800704956055e+00 -3.029798865318298340e-01
4.806000000000000000e+03 6.998828887939453125e+01 -1.490450668334960938e+01 7.626143842935562134e-02 4.430211544036865234e+00 1.351941943168640137e+00 -1.911180466413497925e-01
4.807000000000000000e+03 8.297682762145996094e+00 1.979700088500976562e+01 2.504532933235168457e-01 -8.821188211441040039e-01 -1.894996613264083862e-01 2.035954892635345459e-01
4.808000000000000000e+03 4.510807800292968750e+01 -8.489816665649414062e+00 -1.240265250205993652e+00 5.680043220520019531e+00 1.331933379173278809e+00 -6.179987192153930664e-01
4.809000000000000000e+03 8.147003173828125000e+00 2.388017082214355469e+01 1.683466136455535889e-01 -8.617404103279113770e-01 -2.080181390047073364e-01 4.502221569418907166e-02
4.810000000000000000e+03 7.937509059906005859e+00 2.299080085754394531e+01 1.776371151208877563e-01 -8.962132930755615234e-01 -2.155728489160537720e-01 7.642366737127304077e-02
4.811000000000000000e+03 7.131851673126220703e+00 -9.599841117858886719e+00 -6.656475193267397117e-07 -4.203772550681605935e-05 -1.281101231143111363e-05 -3.827345153695205227e-06
4.812000000000000000e+03 7.189145660400390625e+01 -1.616289138793945312e+01 -5.041400790214538574e-01 5.208314418792724609e+00 1.411252260208129883e+00 -7.619723677635192871e-01
4.813000000000000000e+03 7.333426666259765625e+01 -1.563056755065917969e+01 -4.694016575813293457e-01 5.985294342041015625e+00 1.654767751693725586e+00 -7.671438455581665039e-01
4.814000000000000000e+03 7.302432250976562500e+01 -1.072513484954833984e+01 1.464683562517166138e-01 6.447526454925537109e+00 1.978198528289794922e+00 -4.093188047409057617e-01
4.815000000000000000e+03 7.325763702392578125e+01 -1.136286830902099609e+01 1.006048023700714111e-01 6.355477333068847656e+00 1.936824679374694824e+00 -4.875388145446777344e-01
4.816000000000000000e+03 7.373550415039062500e+01 -1.163730239868164062e+01 5.623683705925941467e-02 6.361581325531005859e+00 1.925345420837402344e+00 -5.946806073188781738e-01
4.817000000000000000e+03 7.031386566162109375e+01 -1.412298011779785156e+01 1.933400332927703857e-01 4.795775413513183594e+00 1.496734619140625000e+00 -1.487048119306564331e-01
4.818000000000000000e+03 7.341757965087890625e+01 -1.392622280120849609e+01 -1.453469991683959961e-01 6.061321258544921875e+00 1.774792194366455078e+00 -6.969410777091979980e-01
4.819000000000000000e+03 7.274049377441406250e+01 -1.388623332977294922e+01 -9.835457056760787964e-02 5.833039760589599609e+00 1.720405578613281250e+00 -6.285935044288635254e-01
4.820000000000000000e+03 7.327860355377197266e+00 1.856638908386230469e+01 2.192876338958740234e-01 -9.943705797195434570e-01 -2.325248718261718750e-01 2.679138481616973877e-01
4.821000000000000000e+03 7.608517169952392578e+00 9.852128028869628906e+00 1.342335641384124756e-01 -8.418586254119873047e-01 -2.122875154018402100e-01 7.007412910461425781e-01
4.822000000000000000e+03 6.667623043060302734e+00 1.001654338836669922e+01 1.064001470804214478e-01 -8.450250625610351562e-01 -2.215874642133712769e-01 6.544957756996154785e-01
4.823000000000000000e+03 7.214521408081054688e+00 -1.022346878051757812e+01 9.145114745479077101e-07 4.716194234788417816e-05 1.442293614672962576e-05 8.324183909280691296e-06
4.824000000000000000e+03 9.792608261108398438e+00 8.550786972045898438e+00 1.413458585739135742e-01 -8.526992201805114746e-01 -2.134059965610504150e-01 8.052674531936645508e-01
4.825000000000000000e+03 7.237714767456054688e+00 -1.161890602111816406e+01 3.656939725260599516e-06 2.484591095708310604e-05 8.550854545319452882e-06 3.856400144286453724e-05
4.826000000000000000e+03 7.666699409484863281e+00 2.035220909118652344e+01 2.111267298460006714e-01 -9.453117847442626953e-01 -2.202555239200592041e-01 1.806351989507675171e-01
4.827000000000000000e+03 6.686044216156005859e+00 1.753416633605957031e+01 1.938341706991195679e-01 -1.045676350593566895e+00 -2.555526494979858398e-01 3.112191259860992432e-01
4.828000000000000000e+03 7.581297397613525391e+00 1.081158924102783203e+01 1.733513772487640381e-01 -8.705254793167114258e-01 -2.091522365808486938e-01 6.590707898139953613e-01
4.829000000000000000e+03 7.543674945831298828e+00 1.692310523986816406e+01 2.485228329896926880e-01 -9.637333750724792480e-01 -2.145631760358810425e-01 3.512796461582183838e-01
4.830000000000000000e+03 7.669720649719238281e+00 1.923388099670410156e+01 2.276699244976043701e-01 -9.537876844406127930e-01 -2.178353369235992432e-01 2.298984080553054810e-01
4.831000000000000000e+03 7.583738327026367188e+00 1.236634540557861328e+01 2.152194380760192871e-01 -9.076439142227172852e-01 -2.077273428440093994e-01 5.855103135108947754e-01
4.832000000000000000e+03 4.155163955688476562e+01 -1.203760051727294922e+01 -1.840559840202331543e+00 6.208103656768798828e+00 1.310263156890869141e+00 -1.257784843444824219e+00
4.833000000000000000e+03 4.505067062377929688e+01 -1.051726913452148438e+01 -1.711279273033142090e+00 5.985533237457275391e+00 1.282276153564453125e+00 -3.787662088871002197e-01
4.834000000000000000e+03 7.489333152770996094e+00 2.505473899841308594e+01 1.265830695629119873e-01 -9.405709505081176758e-01 -2.441963553428649902e-01 1.720193587243556976e-02
4.835000000000000000e+03 4.079261779785156250e+01 6.337398290634155273e-01 -5.963877215981483459e-02 6.333623886108398438e+00 1.882195591926574707e+00 -1.370355725288391113e+00
4.836000000000000000e+03 7.796548366546630859e+00 2.703883361816406250e+01 1.067145466804504395e-01 -8.701227903366088867e-01 -2.290224581956863403e-01 -3.177653253078460693e-02
4.837000000000000000e+03 6.727302551269531250e+01 -1.738708114624023438e+01 -2.895679473876953125e-01 2.163998365402221680e+00 5.623291134834289551e-01 7.833318114280700684e-01
4.838000000000000000e+03 4.526933670043945312e+01 -1.250177478790283203e+01 -2.057104825973510742e+00 6.443245410919189453e+00 1.315842151641845703e+00 -2.272331267595291138e-01
4.839000000000000000e+03 5.301704025268554688e+01 -2.063452148437500000e+01 4.267740547657012939e-01 1.603906154632568359e+00 6.092040538787841797e-01 -3.781067728996276855e-01
4.840000000000000000e+03 4.763165664672851562e+01 -1.604184722900390625e+01 -1.950659394264221191e+00 6.160167217254638672e+00 1.262852311134338379e+00 7.941924780607223511e-02
4.841000000000000000e+03 4.429224777221679688e+01 -1.606991386413574219e+01 -1.580073714256286621e+00 7.903856277465820312e+00 1.897134780883789062e+00 -7.574246525764465332e-01
4.842000000000000000e+03 4.845502471923828125e+01 -1.780406570434570312e+01 -1.152178525924682617e+00 5.653120040893554688e+00 1.350282430648803711e+00 -2.249888777732849121e-01
4.843000000000000000e+03 4.826787948608398438e+01 -1.711479949951171875e+01 -1.583822131156921387e+00 5.757678508758544922e+00 1.252156972885131836e+00 -8.999370038509368896e-02
4.844000000000000000e+03 7.774441242218017578e+00 -1.256452465057373047e+01 1.729235191305633634e-05 3.614415254560299218e-05 1.603095188329461962e-05 3.832588481600396335e-05
4.845000000000000000e+03 4.457517623901367188e+01 -1.464293384552001953e+01 -2.021857023239135742e+00 7.286938667297363281e+00 1.579524517059326172e+00 -5.314995646476745605e-01
4.846000000000000000e+03 4.768670272827148438e+01 -2.171937751770019531e+01 1.788436412811279297e+00 6.306645393371582031e+00 2.428524494171142578e+00 -1.212531328201293945e+00
4.847000000000000000e+03 6.919639587402343750e+01 -1.420904350280761719e+01 3.656490445137023926e-01 4.314326286315917969e+00 1.403992652893066406e+00 1.716429144144058228e-01
4.848000000000000000e+03 3.616674804687500000e+01 -1.264348220825195312e+01 -8.030214905738830566e-01 3.017479658126831055e+00 6.643374562263488770e-01 -1.313242554664611816e+00
4.849000000000000000e+03 3.598409271240234375e+01 -1.320289802551269531e+01 -6.673837900161743164e-01 2.634037733078002930e+00 5.899962186813354492e-01 -1.319785714149475098e+00
4.850000000000000000e+03 3.131003189086914062e+01 -8.287964820861816406e+00 -9.440380930900573730e-01 1.851149559020996094e+00 2.721334397792816162e-01 2.430156804621219635e-02
4.851000000000000000e+03 7.268084716796875000e+01 -1.755640411376953125e+01 -1.019725322723388672e+00 5.747154235839843750e+00 1.418228626251220703e+00 -8.467078804969787598e-01
4.852000000000000000e+03 7.631103992462158203e+00 1.323309516906738281e+01 2.338566929101943970e-01 -9.201062917709350586e-01 -2.058748751878738403e-01 5.455094575881958008e-01
4.853000000000000000e+03 7.027568817138671875e+00 1.418580627441406250e+01 2.068391442298889160e-01 -9.647970795631408691e-01 -2.273873835802078247e-01 4.845578372478485107e-01
4.854000000000000000e+03 6.946697235107421875e+01 -1.715512657165527344e+01 -4.013770818710327148e-01 3.333798170089721680e+00 8.797263503074645996e-01 -3.937200009822845459e-01
4.855000000000000000e+03 7.062507629394531250e+01 -1.737945747375488281e+01 -6.925905346870422363e-01 4.180057525634765625e+00 1.046240210533142090e+00 -7.608421444892883301e-01
4.856000000000000000e+03 1.096691131591796875e+01 -1.068626403808593750e+01 -4.646207526093348861e-05 6.022201432642759755e-06 -1.213196173921460286e-05 -1.132406305259792134e-05
4.857000000000000000e+03 1.082885456085205078e+01 -1.129463291168212891e+01 5.614117617369629443e-05 -2.621143494252464734e-06 1.605601028131786734e-05 1.493380023021018133e-05
4.858000000000000000e+03 3.096508598327636719e+01 -7.564794540405273438e+00 -9.633668065071105957e-01 1.864524245262145996e+00 2.703472077846527100e-01 6.921672821044921875e-02
4.859000000000000000e+03 3.862865447998046875e+01 3.514211177825927734e+00 5.217906832695007324e-01 6.347262382507324219e+00 2.060715913772583008e+00 -9.140326380729675293e-01
4.860000000000000000e+03 4.988204956054687500e+01 -2.475499153137207031e+01 2.495569467544555664e+00 4.840018749237060547e+00 2.200676441192626953e+00 -1.314154267311096191e+00
4.861000000000000000e+03 5.236196899414062500e+01 -2.145225524902343750e+01 1.034811973571777344e+00 2.317005872726440430e+00 1.005545377731323242e+00 -5.805857181549072266e-01
4.862000000000000000e+03 3.819045257568359375e+01 -1.363385677337646484e+01 -9.565599560737609863e-01 4.168844223022460938e+00 9.636853337287902832e-01 -1.914515018463134766e+00
4.863000000000000000e+03 4.892909240722656250e+01 -2.655050659179687500e+01 2.613801479339599609e+00 5.778226852416992188e+00 2.517608404159545898e+00 -1.481905817985534668e+00
4.864000000000000000e+03 4.813459777832031250e+01 -2.807039833068847656e+01 2.392749786376953125e+00 6.423828125000000000e+00 2.644973516464233398e+00 -1.449190258979797363e+00
4.865000000000000000e+03 5.025688934326171875e+01 -2.537956428527832031e+01 2.604595184326171875e+00 4.739393234252929688e+00 2.203196525573730469e+00 -1.253051638603210449e+00
4.866000000000000000e+03 5.329208374023437500e+01 -2.503921890258789062e+01 2.485301971435546875e+00 3.290247201919555664e+00 1.732664823532104492e+00 -1.787034869194030762e-01
4.867000000000000000e+03 2.217642784118652344e+01 2.453330516815185547e+00 -1.080927997827529907e-01 -1.811292916536331177e-01 -8.676662296056747437e-02 3.817282021045684814e-01
4.868000000000000000e+03 5.510923004150390625e+01 -2.133236312866210938e+01 9.626660943031311035e-01 8.322017192840576172e-01 5.384603142738342285e-01 6.100268959999084473e-01
4.869000000000000000e+03 9.204314231872558594e+00 7.960944175720214844e+00 6.132961064577102661e-02 -8.251418471336364746e-01 -2.291436642408370972e-01 8.237512111663818359e-01
4.870000000000000000e+03 2.830036926269531250e+01 -2.554803133010864258e+00 -6.926147937774658203e-01 1.511247158050537109e+00 2.455896884202957153e-01 1.781565546989440918e-01
4.871000000000000000e+03 2.874129676818847656e+01 -4.817336082458496094e+00 -9.364365935325622559e-01 1.433302760124206543e+00 1.490598320960998535e-01 2.621012032032012939e-01
4.872000000000000000e+03 4.193738937377929688e+01 -1.350028800964355469e+01 -1.871276378631591797e+00 6.725782394409179688e+00 1.456351876258850098e+00 -1.357003092765808105e+00
4.873000000000000000e+03 4.669700622558593750e+01 -1.528708362579345703e+01 -2.058259725570678711e+00 6.600533008575439453e+00 1.362681984901428223e+00 2.560462430119514465e-02
4.874000000000000000e+03 2.767869567871093750e+01 -3.138040065765380859e+00 -8.157379627227783203e-01 1.201723217964172363e+00 1.157955825328826904e-01 2.703791260719299316e-01
4.875000000000000000e+03 6.919268035888671875e+01 -1.554234790802001953e+01 4.605315253138542175e-02 3.846372365951538086e+00 1.167727708816528320e+00 -3.246052563190460205e-02
4.876000000000000000e+03 7.172304534912109375e+01 -1.685490608215332031e+01 -6.845451593399047852e-01 5.052180767059326172e+00 1.310290694236755371e+00 -8.422890305519104004e-01
4.877000000000000000e+03 8.115050315856933594e+00 2.101724624633789062e+01 2.184074670076370239e-01 -8.936451077461242676e-01 -2.025712877511978149e-01 1.506917476654052734e-01
4.878000000000000000e+03 5.373906326293945312e+01 -2.227130126953125000e+01 1.619078755378723145e+00 1.860247135162353516e+00 1.043797731399536133e+00 -7.443875819444656372e-02
4.879000000000000000e+03 4.213333892822265625e+01 -1.422264099121093750e+01 -1.849628329277038574e+00 7.074755191802978516e+00 1.567538022994995117e+00 -1.367980599403381348e+00
4.880000000000000000e+03 1.422457313537597656e+01 7.917395114898681641e+00 3.255237638950347900e-01 -8.669811487197875977e-01 -1.624372005462646484e-01 7.076534032821655273e-01
4.881000000000000000e+03 5.066109848022460938e+01 -2.003439140319824219e+01 6.479139626026153564e-02 3.564153432846069336e+00 1.088683485984802246e+00 -7.638817429542541504e-01
4.882000000000000000e+03 4.822237777709960938e+01 -2.115999794006347656e+01 1.375966191291809082e+00 5.769271373748779297e+00 2.143571138381958008e+00 -1.023426651954650879e+00
4.883000000000000000e+03 7.235566711425781250e+01 -1.076127910614013672e+01 2.117922902107238770e-01 6.354480266571044922e+00 1.969881772994995117e+00 -2.400235086679458618e-01
4.884000000000000000e+03 4.021013641357421875e+01 -1.233593750000000000e+01 -1.612858057022094727e+00 5.670747280120849609e+00 1.217366814613342285e+00 -1.571050167083740234e+00
4.885000000000000000e+03 3.895317077636718750e+01 -1.316933059692382812e+01 -1.276646018028259277e+00 4.945786476135253906e+00 1.100742220878601074e+00 -1.843699693679809570e+00
4.886000000000000000e+03 7.627364158630371094e+00 2.908045578002929688e+01 6.123416125774383545e-02 -8.778393864631652832e-01 -2.449815720319747925e-01 -6.317166984081268311e-02
4.887000000000000000e+03 1.480658054351806641e+01 7.292369365692138672e+00 2.933705449104309082e-01 -8.757541179656982422e-01 -1.747150719165802002e-01 7.060174345970153809e-01
4.888000000000000000e+03 4.727622222900390625e+01 -1.974846076965332031e+01 5.858701467514038086e-01 6.643394470214843750e+00 2.168779373168945312e+00 -6.930076479911804199e-01
4.889000000000000000e+03 1.809670829772949219e+01 6.272911548614501953e+00 3.444517552852630615e-01 -6.641782522201538086e-01 -9.591795504093170166e-02 5.129125714302062988e-01
4.890000000000000000e+03 7.215415954589843750e+01 -1.169195842742919922e+01 1.788236647844314575e-01 6.086877822875976562e+00 1.879710435867309570e+00 -2.988292276859283447e-01
4.891000000000000000e+03 7.181536865234375000e+01 -1.242049121856689453e+01 1.885656863451004028e-01 5.821297168731689453e+00 1.802958846092224121e+00 -2.957236170768737793e-01
4.892000000000000000e+03 7.070638275146484375e+01 -1.340208053588867188e+01 2.211155742406845093e-01 5.164492130279541016e+00 1.615682363510131836e+00 -1.585318297147750854e-01
4.893000000000000000e+03 7.275298309326171875e+01 -1.298722648620605469e+01 1.988571882247924805e-02 5.956160068511962891e+00 1.792813777923583984e+00 -5.525038838386535645e-01
4.894000000000000000e+03 1.996352958679199219e+01 3.894832372665405273e+00 4.592467099428176880e-02 -5.476977229118347168e-01 -1.505319178104400635e-01 4.871579408645629883e-01
4.895000000000000000e+03 1.978983497619628906e+01 4.834505558013916016e+00 2.225742489099502563e-01 -5.016840100288391113e-01 -8.373293280601501465e-02 4.513910114765167236e-01
4.896000000000000000e+03 1.863612747192382812e+01 7.201179504394531250e+00 5.161601305007934570e-01 -4.878977239131927490e-01 8.478728123009204865e-03 4.014114439487457275e-01
4.897000000000000000e+03 3.022423553466796875e+01 -6.068535804748535156e+00 -9.544296860694885254e-01 1.825070619583129883e+00 2.611922621726989746e-01 1.306169182062149048e-01
4.898000000000000000e+03 4.716921234130859375e+01 -2.956904792785644531e+01 1.877107381820678711e+00 6.998884201049804688e+00 2.662797451019287109e+00 -1.295066118240356445e+00
4.899000000000000000e+03 4.792224884033203125e+01 -3.026110267639160156e+01 1.718509316444396973e+00 6.583345413208007812e+00 2.490556478500366211e+00 -1.242024302482604980e+00
4.900000000000000000e+03 2.754101943969726562e+01 -1.766169905662536621e+00 -6.058471202850341797e-01 1.278984189033508301e+00 2.019411027431488037e-01 2.073931992053985596e-01
4.901000000000000000e+03 4.888261032104492188e+01 -2.249918174743652344e+01 1.942095637321472168e+00 5.268152236938476562e+00 2.163074254989624023e+00 -1.271017789840698242e+00
4.902000000000000000e+03 1.228035163879394531e+01 -9.144229888916015625e+00 -7.963128155097365379e-06 -1.891349711513612419e-05 -8.062987944867927581e-06 -2.487218580426997505e-06
4.903000000000000000e+03 8.985652923583984375e+00 -7.817410945892333984e+00 -3.005970256708678789e-06 1.644577787374146283e-05 4.031942353321937844e-06 3.143823505524778739e-06
4.904000000000000000e+03 2.291300201416015625e+01 1.858312249183654785e+00 -1.859659403562545776e-01 -2.024989761412143707e-02 -6.186474859714508057e-02 3.554798066616058350e-01
4.905000000000000000e+03 2.068134117126464844e+01 3.467216014862060547e+00 4.875412210822105408e-03 -4.543969631195068359e-01 -1.348564624786376953e-01 4.431279897689819336e-01
4.906000000000000000e+03 9.982417106628417969e+00 1.268804168701171875e+01 3.542201220989227295e-01 -8.302281498908996582e-01 -1.428024023771286011e-01 5.784072875976562500e-01
4.907000000000000000e+03 2.684364318847656250e+01 -1.019275784492492676e+00 -5.211476087570190430e-01 1.080596446990966797e+00 1.678346693515777588e-01 2.198135703802108765e-01
4.908000000000000000e+03 2.549205780029296875e+01 4.295643866062164307e-01 -3.225218653678894043e-01 7.056316137313842773e-01 1.149329245090484619e-01 2.380232065916061401e-01
4.909000000000000000e+03 5.108226013183593750e+01 -2.795878028869628906e+01 2.524079084396362305e+00 4.972199916839599609e+00 2.248883724212646484e+00 -1.083333253860473633e+00
4.910000000000000000e+03 5.229023361206054688e+01 -2.646720123291015625e+01 2.575638771057128906e+00 4.179050922393798828e+00 2.026407003402709961e+00 -6.572244167327880859e-01
4.911000000000000000e+03 2.479929542541503906e+01 1.136305093765258789e+00 -2.175139933824539185e-01 5.163083672523498535e-01 8.963831514120101929e-02 2.495105564594268799e-01
4.912000000000000000e+03 8.593712806701660156e+00 -7.316106319427490234e+00 -1.146312570199370384e-05 -3.269445733167231083e-05 -1.324727509199874476e-05 -1.199772941617993638e-05
4.913000000000000000e+03 3.545549392700195312e+01 8.935847282409667969e+00 1.707153201103210449e+00 5.305094718933105469e+00 2.103674411773681641e+00 -6.451007723808288574e-01
4.914000000000000000e+03 2.616949844360351562e+01 -2.900848090648651123e-01 -4.214410781860351562e-01 8.859580159187316895e-01 1.393550932407379150e-01 2.295815497636795044e-01
4.915000000000000000e+03 6.817353057861328125e+01 -1.681687736511230469e+01 -1.338609904050827026e-01 2.764591693878173828e+00 7.892192006111145020e-01 2.716851234436035156e-01
4.916000000000000000e+03 4.830664825439453125e+01 -2.381568717956542969e+01 2.435454130172729492e+00 5.917211532592773438e+00 2.505799770355224609e+00 -1.494579195976257324e+00
4.917000000000000000e+03 4.884364700317382812e+01 -2.445218467712402344e+01 2.485977411270141602e+00 5.545615673065185547e+00 2.409477949142456055e+00 -1.486369132995605469e+00
4.918000000000000000e+03 2.142817497253417969e+01 2.992320299148559570e+00 -4.466256871819496155e-02 -3.304534852504730225e-01 -1.125348210334777832e-01 4.104475677013397217e-01
4.919000000000000000e+03 1.757104682922363281e+01 7.614158630371093750e+00 4.940148293972015381e-01 -6.084337234497070312e-01 -3.432566672563552856e-02 4.689926207065582275e-01
4.920000000000000000e+03 1.036993598937988281e+01 9.247932434082031250e+00 2.225479185581207275e-01 -8.620905876159667969e-01 -1.918628066778182983e-01 7.706088423728942871e-01
4.921000000000000000e+03 2.408992195129394531e+01 1.823139190673828125e+00 -1.189437285065650940e-01 3.402079343795776367e-01 6.637926399707794189e-02 2.607612907886505127e-01
4.922000000000000000e+03 2.363372230529785156e+01 1.220718860626220703e+00 -2.728163897991180420e-01 1.427420079708099365e-01 -3.902231901884078979e-02 3.367476165294647217e-01
4.923000000000000000e+03 2.965856552124023438e+01 -2.161031484603881836e+00 -5.819998383522033691e-01 2.039774894714355469e+00 4.373325109481811523e-01 4.625780135393142700e-02
4.924000000000000000e+03 3.460095596313476562e+01 1.572734069824218750e+01 1.452604889869689941e+00 5.033958911895751953e+00 1.945969104766845703e+00 -8.839333653450012207e-01
4.925000000000000000e+03 4.661700057983398438e+01 -1.585270404815673828e+01 -1.917676329612731934e+00 6.773892879486083984e+00 1.456864953041076660e+00 -6.929928064346313477e-02
4.926000000000000000e+03 3.401470947265625000e+01 1.681971740722656250e+01 1.340441226959228516e+00 4.709942817687988281e+00 1.815115213394165039e+00 -8.810800313949584961e-01
4.927000000000000000e+03 3.447267150878906250e+01 1.844198417663574219e+01 1.108903884887695312e+00 4.838885784149169922e+00 1.784336924552917480e+00 -8.307216167449951172e-01
4.928000000000000000e+03 7.204750061035156250e+01 -1.723918533325195312e+01 -8.316491842269897461e-01 5.279583454132080078e+00 1.334380388259887695e+00 -8.573043346405029297e-01
4.929000000000000000e+03 7.204241943359375000e+01 -1.539554595947265625e+01 -3.238379061222076416e-01 5.339778423309326172e+00 1.504782199859619141e+00 -7.138771414756774902e-01
4.930000000000000000e+03 8.344815254211425781e+00 2.483247756958007812e+01 1.550246775150299072e-01 -8.174877762794494629e-01 -1.987389326095581055e-01 1.023327931761741638e-02
4.931000000000000000e+03 4.210237884521484375e+01 -6.196098923683166504e-01 -1.662069857120513916e-01 6.210799217224121094e+00 1.813377618789672852e+00 -1.561474800109863281e+00
4.932000000000000000e+03 3.486992263793945312e+01 2.564315795898437500e+01 1.100865900516510010e-01 4.399455070495605469e+00 1.352862477302551270e+00 -6.110505461692810059e-01
4.933000000000000000e+03 3.812021636962890625e+01 5.081942558288574219e+00 9.288197755813598633e-01 6.456848621368408203e+00 2.215700626373291016e+00 -7.992543578147888184e-01
4.934000000000000000e+03 3.707655715942382812e+01 6.730340957641601562e+00 1.360951781272888184e+00 6.055594921112060547e+00 2.224963903427124023e+00 -6.473207473754882812e-01
4.935000000000000000e+03 8.114136695861816406e+00 9.272981643676757812e+00 1.194981187582015991e-01 -8.289768099784851074e-01 -2.128435969352722168e-01 7.418947815895080566e-01
4.936000000000000000e+03 3.552811813354492188e+01 2.126377105712890625e+01 6.955997347831726074e-01 5.026056289672851562e+00 1.716496825218200684e+00 -6.581364870071411133e-01
4.937000000000000000e+03 3.060191345214843750e+01 -6.826967716217041016e+00 -9.645571112632751465e-01 1.848194718360900879e+00 2.650913000106811523e-01 9.942595660686492920e-02
4.938000000000000000e+03 1.565972995758056641e+01 7.757067680358886719e+00 3.988701999187469482e-01 -7.944090366363525391e-01 -1.186616420745849609e-01 6.237273812294006348e-01
4.939000000000000000e+03 3.457322311401367188e+01 1.429911708831787109e+01 1.612630486488342285e+00 5.009924411773681641e+00 1.986766457557678223e+00 -8.841885328292846680e-01
4.940000000000000000e+03 3.515122222900390625e+01 1.474470138549804688e+01 1.567159175872802734e+00 5.371469497680664062e+00 2.081588745117187500e+00 -8.791901469230651855e-01
4.941000000000000000e+03 1.103158283233642578e+01 8.614202499389648438e+00 2.090749293565750122e-01 -8.751556277275085449e-01 -1.998242139816284180e-01 7.951435446739196777e-01
4.942000000000000000e+03 7.977758884429931641e+00 1.116675281524658203e+01 2.010002136230468750e-01 -8.749525547027587891e-01 -2.021857053041458130e-01 6.530926227569580078e-01
4.943000000000000000e+03 4.564977264404296875e+01 -9.036198616027832031e+00 -1.293743610382080078e+00 5.645628452301025391e+00 1.305565476417541504e+00 -4.829143583774566650e-01
4.944000000000000000e+03 5.371689987182617188e+01 -2.378152847290039062e+01 2.237130880355834961e+00 2.502240419387817383e+00 1.421811461448669434e+00 -4.123917594552040100e-02
4.945000000000000000e+03 4.999988555908203125e+01 -1.989006996154785156e+01 8.763695508241653442e-02 4.159274578094482422e+00 1.274073481559753418e+00 -7.779890894889831543e-01
4.946000000000000000e+03 3.397907257080078125e+01 1.376997947692871094e+01 1.636760711669921875e+00 4.710894107818603516e+00 1.904296398162841797e+00 -8.659378886222839355e-01
4.947000000000000000e+03 3.536490249633789062e+01 8.100559234619140625e+00 1.572893738746643066e+00 5.184907436370849609e+00 2.027340412139892578e+00 -5.847969651222229004e-01
4.948000000000000000e+03 3.330379486083984375e+01 1.337442207336425781e+01 1.644883155822753906e+00 4.356381416320800781e+00 1.800379395484924316e+00 -8.281056284904479980e-01
4.949000000000000000e+03 3.446191024780273438e+01 1.170837306976318359e+01 1.776799559593200684e+00 4.912979602813720703e+00 2.006933689117431641e+00 -7.813362479209899902e-01
4.950000000000000000e+03 8.508440971374511719e+00 3.799457550048828125e+01 -5.446865037083625793e-02 -6.621958613395690918e-01 -2.149993479251861572e-01 -8.783859014511108398e-02
4.951000000000000000e+03 7.377973556518554688e+00 3.676250076293945312e+01 -3.497509285807609558e-02 -8.540438413619995117e-01 -2.667056918144226074e-01 -9.410621225833892822e-02
4.952000000000000000e+03 8.752885818481445312e+00 3.186308288574218750e+01 2.989806607365608215e-02 -6.463200449943542480e-01 -1.849265843629837036e-01 -1.005634292960166931e-01
4.953000000000000000e+03 5.006975555419921875e+01 -1.929278373718261719e+01 -5.107215642929077148e-01 4.026954650878906250e+00 1.054869890213012695e+00 -6.372069716453552246e-01
4.954000000000000000e+03 1.087704658508300781e+01 -9.309017181396484375e+00 -4.897849521512398496e-07 2.909119029936846346e-05 8.580421308579389006e-06 7.707471922913100570e-06
4.955000000000000000e+03 4.286703109741210938e+01 -8.924584388732910156e+00 -1.526821851730346680e+00 5.857737541198730469e+00 1.299274802207946777e+00 -8.661000728607177734e-01
4.956000000000000000e+03 4.247776031494140625e+01 -6.034076213836669922e+00 -1.040289878845214844e+00 5.668608665466308594e+00 1.388495683670043945e+00 -1.060386657714843750e+00
4.957000000000000000e+03 4.269987869262695312e+01 -1.612518906593322754e+00 -2.735500633716583252e-01 6.056734085083007812e+00 1.734955310821533203e+00 -1.550715684890747070e+00
4.958000000000000000e+03 4.765899276733398438e+01 -2.054265213012695312e+01 1.096064567565917969e+00 6.295610904693603516e+00 2.217502593994140625e+00 -9.044606685638427734e-01
4.959000000000000000e+03 3.831590270996093750e+01 -1.237875461578369141e+01 -1.218416810035705566e+00 4.474768638610839844e+00 9.769055843353271484e-01 -1.633763313293457031e+00
4.960000000000000000e+03 7.016759490966796875e+01 -1.656403923034667969e+01 -3.402378261089324951e-01 4.007174968719482422e+00 1.100081205368041992e+00 -5.202218294143676758e-01
4.961000000000000000e+03 6.978004455566406250e+01 -1.568574714660644531e+01 -5.457790568470954895e-02 4.049047470092773438e+00 1.198340892791748047e+00 -2.568099498748779297e-01
4.962000000000000000e+03 1.292615985870361328e+01 7.880715847015380859e+00 2.495016753673553467e-01 -9.010083675384521484e-01 -1.954520046710968018e-01 7.758308053016662598e-01
4.963000000000000000e+03 4.340071105957031250e+01 -7.423407554626464844e+00 -1.211304783821105957e+00 5.733494281768798828e+00 1.356656789779663086e+00 -9.168122410774230957e-01
4.964000000000000000e+03 8.606143951416015625e+00 -1.174041652679443359e+01 3.435484177316538990e-05 3.558400203473865986e-05 2.098165350616909564e-05 2.081047023239079863e-05
4.965000000000000000e+03 9.409518241882324219e+00 -1.098348140716552734e+01 2.937154567916877568e-05 1.486094424762995914e-05 1.326974688709015027e-05 1.892660839075688273e-05
4.966000000000000000e+03 9.620684623718261719e+00 -8.030077934265136719e+00 2.184682489314582199e-05 7.171765901148319244e-06 8.705576874490361661e-06 1.157656242867233232e-05
4.967000000000000000e+03 7.139667987823486328e+00 1.977214622497558594e+01 2.024228870868682861e-01 -1.009389042854309082e+00 -2.420898377895355225e-01 2.098454684019088745e-01
4.968000000000000000e+03 8.485026359558105469e+00 2.177766609191894531e+01 2.208908349275588989e-01 -8.375155329704284668e-01 -1.849874109029769897e-01 1.164534017443656921e-01
4.969000000000000000e+03 7.698623657226562500e+00 1.165735530853271484e+01 2.014416158199310303e-01 -8.900371193885803223e-01 -2.065786570310592651e-01 6.221382617950439453e-01
4.970000000000000000e+03 8.429429054260253906e+00 1.312604331970214844e+01 2.739605009555816650e-01 -8.870462179183959961e-01 -1.839257329702377319e-01 5.606527328491210938e-01
4.971000000000000000e+03 5.262561798095703125e+01 -2.470343971252441406e+01 2.461477518081665039e+00 3.373947620391845703e+00 1.750627517700195312e+00 -4.960776269435882568e-01
4.972000000000000000e+03 4.974664306640625000e+01 -2.584495544433593750e+01 2.613613367080688477e+00 5.170019626617431641e+00 2.335089921951293945e+00 -1.350239753723144531e+00
4.973000000000000000e+03 3.902410125732421875e+01 9.128892421722412109e-01 -4.429592937231063843e-02 5.942634582519531250e+00 1.769501566886901855e+00 -1.006027460098266602e+00
4.974000000000000000e+03 3.885515213012695312e+01 2.835110664367675781e+00 3.706338107585906982e-01 6.312519550323486328e+00 2.004945993423461914e+00 -9.815744161605834961e-01
4.975000000000000000e+03 3.880136489868164062e+01 2.157860755920410156e+00 2.023241668939590454e-01 6.120753288269042969e+00 1.896923184394836426e+00 -9.713480472564697266e-01
4.976000000000000000e+03 8.291218757629394531e+00 1.777961540222167969e+01 2.828705906867980957e-01 -8.917586207389831543e-01 -1.826664060354232788e-01 2.998190522193908691e-01
4.977000000000000000e+03 4.230065536499023438e+01 -5.110163211822509766e+00 -8.899060487747192383e-01 5.681770324707031250e+00 1.437559247016906738e+00 -1.133320927619934082e+00
4.978000000000000000e+03 7.419377326965332031e+00 2.144615554809570312e+01 1.857414245605468750e-01 -9.724791646003723145e-01 -2.360213249921798706e-01 1.375784724950790405e-01
4.979000000000000000e+03 1.018829345703125000e+01 2.429359436035156250e+01 2.251669615507125854e-01 -5.623582005500793457e-01 -1.011573746800422668e-01 -3.081000642850995064e-03
4.980000000000000000e+03 3.285905456542968750e+01 -8.491518020629882812e+00 -9.360337853431701660e-01 2.430976390838623047e+00 4.484828114509582520e-01 -2.729864418506622314e-01
4.981000000000000000e+03 3.291292572021484375e+01 -1.080507278442382812e+01 -8.064953684806823730e-01 1.892703771591186523e+00 3.258624970912933350e-01 -2.982635498046875000e-01
4.982000000000000000e+03 7.339257812500000000e+01 -1.740825080871582031e+01 -9.086364507675170898e-01 6.149559020996093750e+00 1.572276830673217773e+00 -7.138584852218627930e-01
4.983000000000000000e+03 7.248664093017578125e+01 -1.702307701110839844e+01 -8.232603669166564941e-01 5.551034450531005859e+00 1.418332219123840332e+00 -8.527110219001770020e-01
4.984000000000000000e+03 4.132621765136718750e+01 -5.734368562698364258e-01 -2.377855181694030762e-01 6.154763221740722656e+00 1.775093317031860352e+00 -1.402743697166442871e+00
4.985000000000000000e+03 4.129258728027343750e+01 5.658420920372009277e-01 -3.219280019402503967e-02 6.404489040374755859e+00 1.911688804626464844e+00 -1.490208387374877930e+00
4.986000000000000000e+03 3.227000045776367188e+01 -1.048348903656005859e+01 -8.366483449935913086e-01 1.755637288093566895e+00 2.756966650485992432e-01 -1.450622230768203735e-01
4.987000000000000000e+03 3.214919281005859375e+01 -1.223714065551757812e+01 -7.229381799697875977e-01 1.259392142295837402e+00 1.609361916780471802e-01 -7.754538208246231079e-02
4.988000000000000000e+03 7.591134548187255859e+00 1.551423549652099609e+01 2.405755817890167236e-01 -9.516175985336303711e-01 -2.133126109838485718e-01 4.215466082096099854e-01
4.989000000000000000e+03 7.252918243408203125e+01 -1.630644798278808594e+01 -5.870875120162963867e-01 5.561635971069335938e+00 1.492364525794982910e+00 -8.092557787895202637e-01
4.990000000000000000e+03 7.266565704345703125e+01 -1.550782299041748047e+01 -4.138100445270538330e-01 5.637414455413818359e+00 1.567081332206726074e+00 -7.517420053482055664e-01
4.991000000000000000e+03 9.226182937622070312e+00 -9.750068664550781250e+00 -1.150103435065830126e-05 -5.022562254453077912e-05 -1.851799606811255217e-05 -1.242946746060624719e-05
4.992000000000000000e+03 4.408638763427734375e+01 -1.011944961547851562e+01 -1.714639782905578613e+00 6.074928283691406250e+00 1.308086514472961426e+00 -6.073799729347229004e-01
4.993000000000000000e+03 4.512255477905273438e+01 -1.114469528198242188e+01 -1.854916334152221680e+00 6.151591300964355469e+00 1.289002537727355957e+00 -3.321118354797363281e-01
4.994000000000000000e+03 7.135833263397216797e+00 1.043476295471191406e+01 1.393955200910568237e-01 -8.606195449829101562e-01 -2.163672149181365967e-01 6.612492799758911133e-01
4.995000000000000000e+03 8.996355056762695312e+00 1.600713157653808594e+01 3.199360966682434082e-01 -8.527061343193054199e-01 -1.598310023546218872e-01 3.958967328071594238e-01
4.996000000000000000e+03 9.237798690795898438e+00 2.457221794128417969e+01 1.884160786867141724e-01 -6.989183425903320312e-01 -1.531506776809692383e-01 6.210085004568099976e-03
4.997000000000000000e+03 7.899639129638671875e+00 -1.170144176483154297e+01 -1.876796886790543795e-05 -3.614118395489640534e-05 -1.647274621063843369e-05 -2.438703813822939992e-05
4.998000000000000000e+03 8.301814079284667969e+00 1.230224037170410156e+01 2.517755627632141113e-01 -8.863366246223449707e-01 -1.903683245182037354e-01 6.003690958023071289e-01
4.999000000000000000e+03 5.355806732177734375e+01 -2.136810874938964844e+01 1.046660304069519043e+00 1.509823441505432129e+00 7.669451236724853516e-01 -1.334659755229949951e-01
5.000000000000000000e+03 8.273991584777832031e+00 1.692880821228027344e+01 2.851386964321136475e-01 -9.019882678985595703e-01 -1.850548684597015381e-01 3.532869517803192139e-01
5.001000000000000000e+03 4.831068420410156250e+01 -2.217123413085937500e+01 1.878252267837524414e+00 5.741034984588623047e+00 2.285786151885986328e+00 -1.266530990600585938e+00
5.002000000000000000e+03 4.959620666503906250e+01 -1.947348976135253906e+01 -1.764839738607406616e-01 4.604805946350097656e+00 1.328496575355529785e+00 -6.875312924385070801e-01
5.003000000000000000e+03 8.163437843322753906e+00 1.861084747314453125e+01 2.655724287033081055e-01 -8.959680795669555664e-01 -1.891186982393264771e-01 2.624766826629638672e-01
5.004000000000000000e+03 4.802726745605468750e+01 -1.649680900573730469e+01 -1.883332371711730957e+00 5.878533363342285156e+00 1.198560357093811035e+00 3.710136190056800842e-02
5.005000000000000000e+03 9.440798759460449219e+00 2.562497329711914062e+01 1.659617424011230469e-01 -6.509528160095214844e-01 -1.454973220825195312e-01 -2.763629145920276642e-02
5.006000000000000000e+03 8.537451744079589844e+00 2.584860992431640625e+01 1.394806653261184692e-01 -7.778941392898559570e-01 -1.915240436792373657e-01 -1.752640865743160248e-02
5.007000000000000000e+03 4.102373504638671875e+01 -1.298816967010498047e+01 -1.746519088745117188e+00 6.224081993103027344e+00 1.343268990516662598e+00 -1.542175650596618652e+00
5.008000000000000000e+03 5.321447753906250000e+01 -2.186041259765625000e+01 1.342194080352783203e+00 1.960763573646545410e+00 9.908872842788696289e-01 -2.818693816661834717e-01
5.009000000000000000e+03 4.389753341674804688e+01 -1.328542423248291016e+01 -2.084017276763916016e+00 6.935403347015380859e+00 1.455415844917297363e+00 -6.283441185951232910e-01
5.010000000000000000e+03 4.464041900634765625e+01 -1.263140201568603516e+01 -2.079235553741455078e+00 6.642810821533203125e+00 1.369072675704956055e+00 -3.985343277454376221e-01
5.011000000000000000e+03 7.098290252685546875e+01 -1.450161170959472656e+01 -8.223466575145721436e-03 4.999121189117431641e+00 1.497269272804260254e+00 -4.039322733879089355e-01
5.012000000000000000e+03 3.159647369384765625e+01 -7.259474754333496094e+00 -9.441905021667480469e-01 2.149353981018066406e+00 3.615490496158599854e-01 -5.107634887099266052e-02
5.013000000000000000e+03 3.772245407104492188e+01 -1.231565380096435547e+01 -1.082065582275390625e+00 4.082193374633789062e+00 9.000383615493774414e-01 -1.593299150466918945e+00
5.014000000000000000e+03 3.512464141845703125e+01 -1.115732669830322266e+01 -8.586917519569396973e-01 2.768323183059692383e+00 5.728894472122192383e-01 -8.785729408264160156e-01
5.015000000000000000e+03 3.362651062011718750e+01 -1.100789546966552734e+01 -8.010371923446655273e-01 2.115105152130126953e+00 3.942203819751739502e-01 -4.810737669467926025e-01
5.016000000000000000e+03 3.523731231689453125e+01 -1.197618770599365234e+01 -7.821173667907714844e-01 2.600933074951171875e+00 5.456447005271911621e-01 -9.748973846435546875e-01
5.017000000000000000e+03 3.753465652465820312e+01 -1.332927513122558594e+01 -9.239926934242248535e-01 3.831426620483398438e+00 8.722301721572875977e-01 -1.748676538467407227e+00
5.018000000000000000e+03 3.956840515136718750e+01 -1.242391014099121094e+01 -1.491657018661499023e+00 5.340189456939697266e+00 1.154559731483459473e+00 -1.644050359725952148e+00
5.019000000000000000e+03 3.858794021606445312e+01 4.195454597473144531e+00 6.979895830154418945e-01 6.475346088409423828e+00 2.152000665664672852e+00 -8.922474384307861328e-01
5.020000000000000000e+03 3.833048629760742188e+01 2.576000452041625977e+00 3.078724145889282227e-01 6.014489173889160156e+00 1.896708488464355469e+00 -8.562956452369689941e-01
5.021000000000000000e+03 5.183359909057617188e+01 -2.246331214904785156e+01 1.711599826812744141e+00 3.032426357269287109e+00 1.423207879066467285e+00 -7.641743421554565430e-01
5.022000000000000000e+03 4.590661621093750000e+01 -1.574988174438476562e+01 -1.853996276855468750e+00 7.138708591461181641e+00 1.585413813591003418e+00 -2.017197459936141968e-01
5.023000000000000000e+03 4.876538467407226562e+01 -1.915498352050781250e+01 -2.128636837005615234e-01 5.255933284759521484e+00 1.512920856475830078e+00 -6.022989749908447266e-01
5.024000000000000000e+03 1.677565383911132812e+01 7.382546424865722656e+00 4.219158291816711426e-01 -7.190392017364501953e-01 -8.913701027631759644e-02 5.543496608734130859e-01
5.025000000000000000e+03 1.551689338684082031e+01 8.482754707336425781e+00 4.594957232475280762e-01 -7.545363903045654297e-01 -8.851219713687896729e-02 5.917742848396301270e-01
5.026000000000000000e+03 4.555602264404296875e+01 -1.721756553649902344e+01 -1.112516283988952637e+00 7.676369667053222656e+00 1.969156026840209961e+00 -4.288696050643920898e-01
5.027000000000000000e+03 5.120334243774414062e+01 -2.542961502075195312e+01 2.586971759796142578e+00 4.260159969329833984e+00 2.054139614105224609e+00 -9.987568259239196777e-01
5.028000000000000000e+03 2.941107749938964844e+01 -4.425309181213378906e+00 -8.704950809478759766e-01 1.739045500755310059e+00 2.605651319026947021e-01 1.610017120838165283e-01
5.029000000000000000e+03 2.878406906127929688e+01 -1.789187073707580566e+00 -5.600452423095703125e-01 1.751719117164611816e+00 3.575021326541900635e-01 1.054583638906478882e-01
5.030000000000000000e+03 1.930246162414550781e+01 5.385804176330566406e+00 2.744713723659515381e-01 -5.558973550796508789e-01 -8.442779630422592163e-02 4.548206925392150879e-01
5.031000000000000000e+03 3.793420410156250000e+01 4.437890529632568359e+00 7.693960070610046387e-01 6.216199398040771484e+00 2.095678567886352539e+00 -7.690038681030273438e-01
5.032000000000000000e+03 3.624520492553710938e+01 7.874927520751953125e+00 1.587404847145080566e+00 5.696495056152343750e+00 2.185169935226440430e+00 -6.296477913856506348e-01
5.033000000000000000e+03 2.336052894592285156e+01 2.484226942062377930e+00 -2.674267254769802094e-02 1.637367755174636841e-01 4.109822958707809448e-02 2.789461016654968262e-01
5.034000000000000000e+03 5.227403259277343750e+01 -2.068894386291503906e+01 5.217772722244262695e-01 2.218011617660522461e+00 8.219366669654846191e-01 -6.053776741027832031e-01
5.035000000000000000e+03 5.264422225952148438e+01 -2.333351707458496094e+01 2.105031728744506836e+00 2.855689287185668945e+00 1.488216280937194824e+00 -4.719397425651550293e-01
5.036000000000000000e+03 4.288283920288085938e+01 -1.398171615600585938e+01 -1.954162836074829102e+00 7.098276615142822266e+00 1.543234109878540039e+00 -1.091038584709167480e+00
5.037000000000000000e+03 4.436034393310546875e+01 -1.534247684478759766e+01 -1.859105229377746582e+00 7.589919090270996094e+00 1.719244122505187988e+00 -6.569188833236694336e-01
5.038000000000000000e+03 8.141227722167968750e+00 1.534029293060302734e+01 2.732154428958892822e-01 -9.128674268722534180e-01 -1.918955892324447632e-01 4.363068938255310059e-01
5.039000000000000000e+03 7.033187866210937500e+01 -1.586065101623535156e+01 -2.171398252248764038e-01 4.328982830047607422e+00 1.233552932739257812e+00 -4.476246535778045654e-01
5.040000000000000000e+03 1.166430187225341797e+01 7.909759998321533203e+00 1.807027310132980347e-01 -8.962742090225219727e-01 -2.146714329719543457e-01 8.194460868835449219e-01
5.041000000000000000e+03 1.352114582061767578e+01 7.263208389282226562e+00 2.107325047254562378e-01 -9.255825281143188477e-01 -2.144550085067749023e-01 7.859473824501037598e-01
5.042000000000000000e+03 2.730904006958007812e+01 -4.130942821502685547e-01 -3.839932382106781006e-01 1.293254613876342773e+00 2.727784216403961182e-01 1.540576815605163574e-01
5.043000000000000000e+03 7.102785491943359375e+01 -1.276468086242675781e+01 2.618799805641174316e-01 5.422128200531005859e+00 1.705202579498291016e+00 -1.727291196584701538e-01
5.044000000000000000e+03 7.111030578613281250e+01 -1.554370212554931641e+01 -2.505634427070617676e-01 4.843184947967529297e+00 1.377786517143249512e+00 -5.725818872451782227e-01
5.045000000000000000e+03 4.869069671630859375e+01 -2.313754844665527344e+01 2.223738908767700195e+00 5.488683223724365234e+00 2.313726663589477539e+00 -1.376659631729125977e+00
5.046000000000000000e+03 5.116330718994140625e+01 -2.660313796997070312e+01 2.600446701049804688e+00 4.589240074157714844e+00 2.156906127929687500e+00 -1.026374459266662598e+00
5.047000000000000000e+03 4.926577758789062500e+01 -2.523755073547363281e+01 2.587135314941406250e+00 5.339607715606689453e+00 2.378022909164428711e+00 -1.448198318481445312e+00
5.048000000000000000e+03 4.399558639526367188e+01 -8.081874847412109375e+00 -1.275195002555847168e+00 5.758580207824707031e+00 1.345015525817871094e+00 -8.063529133796691895e-01
5.049000000000000000e+03 1.969517517089843750e+01 6.625369548797607422e+00 4.910050034523010254e-01 -3.593533635139465332e-01 3.949549794197082520e-02 3.452562987804412842e-01
5.050000000000000000e+03 1.946683502197265625e+01 7.460394382476806641e+00 5.798035264015197754e-01 -3.230337202548980713e-01 7.703094929456710815e-02 3.240501284599304199e-01
5.051000000000000000e+03 2.045350646972656250e+01 5.098391532897949219e+00 3.099709451198577881e-01 -3.413679003715515137e-01 -9.419083595275878906e-03 3.667452633380889893e-01
5.052000000000000000e+03 7.930883884429931641e+00 -1.090130710601806641e+01 1.523425635241437703e-05 4.274457751307636499e-05 1.739364961395040154e-05 2.085135383822489530e-05
5.053000000000000000e+03 2.983032035827636719e+01 -5.274661540985107422e+00 -9.218102693557739258e-01 1.780386567115783691e+00 2.575728893280029297e-01 1.448045819997787476e-01
5.054000000000000000e+03 3.088642501831054688e+01 -5.749555110931396484e+00 -9.156995415687561035e-01 2.114528894424438477e+00 3.596488237380981445e-01 2.399542555212974548e-02
5.055000000000000000e+03 4.174402236938476562e+01 -1.276942253112792969e+01 -1.876839160919189453e+00 6.461926460266113281e+00 1.375526189804077148e+00 -1.298246622085571289e+00
5.056000000000000000e+03 4.275344467163085938e+01 -6.984434127807617188e+00 -1.175210356712341309e+00 5.689913272857666016e+00 1.354410886764526367e+00 -9.855714440345764160e-01
5.057000000000000000e+03 2.800078010559082031e+01 -1.111968755722045898e+00 -4.801014959812164307e-01 1.493854522705078125e+00 3.041259050369262695e-01 1.386296600103378296e-01
5.058000000000000000e+03 2.032521057128906250e+01 4.458310127258300781e+00 1.788876205682754517e-01 -4.226594567298889160e-01 -7.313155382871627808e-02 4.175768494606018066e-01
5.059000000000000000e+03 3.436375808715820312e+01 -1.114880371093750000e+01 -8.225255012512207031e-01 2.450986862182617188e+00 4.885384142398834229e-01 -6.918042302131652832e-01
5.060000000000000000e+03 3.354617309570312500e+01 -1.174816608428955078e+01 -7.386058568954467773e-01 1.895908951759338379e+00 3.471909165382385254e-01 -4.700699150562286377e-01
5.061000000000000000e+03 2.664240074157714844e+01 2.967804968357086182e-01 -2.863311469554901123e-01 1.103437781333923340e+00 2.451320141553878784e-01 1.618421375751495361e-01
5.062000000000000000e+03 2.596736145019531250e+01 1.012876868247985840e+00 -1.796611249446868896e-01 9.109734892845153809e-01 2.193937152624130249e-01 1.720364540815353394e-01
5.063000000000000000e+03 4.481425094604492188e+01 -9.777947425842285156e+00 -1.560810446739196777e+00 5.898169994354248047e+00 1.301207780838012695e+00 -4.947136938571929932e-01
5.064000000000000000e+03 8.733053207397460938e+00 2.696941375732421875e+01 1.260508596897125244e-01 -7.220848798751831055e-01 -1.788102090358734131e-01 -4.716585204005241394e-02
5.065000000000000000e+03 8.464333534240722656e+00 1.076132202148437500e+01 2.094291597604751587e-01 -8.636538982391357422e-01 -1.962674260139465332e-01 6.802431941032409668e-01
5.066000000000000000e+03 8.536262512207031250e+00 -8.279125213623046875e+00 -8.444171726296190172e-06 -3.491625466267578304e-05 -1.300812800764106214e-05 -1.699748645478393883e-05
5.067000000000000000e+03 3.684550476074218750e+01 3.336918830871582031e+00 4.976025223731994629e-01 5.535817146301269531e+00 1.810025930404663086e+00 -6.108270883560180664e-01
5.068000000000000000e+03 4.392116928100585938e+01 -1.422386264801025391e+01 -2.028022527694702148e+00 7.258279800415039062e+00 1.569077134132385254e+00 -7.134400010108947754e-01
5.069000000000000000e+03 4.160901260375976562e+01 -9.540997505187988281e+00 -1.623044013977050781e+00 5.773742198944091797e+00 1.245209455490112305e+00 -1.022842526435852051e+00
5.070000000000000000e+03 4.523501205444335938e+01 -1.352601146697998047e+01 -2.136647939682006836e+00 6.755147933959960938e+00 1.385550022125244141e+00 -2.536714076995849609e-01
5.071000000000000000e+03 2.260889053344726562e+01 3.107348203659057617e+00 5.164978280663490295e-02 -7.273172377608716488e-04 1.527673937380313873e-02 3.025318980216979980e-01
5.072000000000000000e+03 2.183434295654296875e+01 3.670888423919677734e+00 1.163635402917861938e-01 -1.670376062393188477e-01 -1.520222146064043045e-02 3.363979458808898926e-01
5.073000000000000000e+03 2.527503395080566406e+01 1.725894808769226074e+00 -7.276649028062820435e-02 7.250793576240539551e-01 1.956938654184341431e-01 1.823913753032684326e-01
5.074000000000000000e+03 7.122539520263671875e+01 -1.675955200195312500e+01 -5.822756290435791016e-01 4.755866050720214844e+00 1.252077102661132812e+00 -7.433091998100280762e-01
5.075000000000000000e+03 1.144890022277832031e+01 -9.534727096557617188e+00 -5.302956651576096192e-06 -1.946513839357066900e-05 -7.430428468069294468e-06 -3.061898894429759821e-07
5.076000000000000000e+03 1.160706138610839844e+01 -8.927426338195800781e+00 4.872852059634169564e-06 2.255167964904103428e-05 8.227359103329945356e-06 4.787685156770749018e-06
5.077000000000000000e+03 4.200578308105468750e+01 -1.363239526748657227e+00 -3.016538321971893311e-01 6.071352005004882812e+00 1.730909466743469238e+00 -1.469629764556884766e+00
5.078000000000000000e+03 4.250303268432617188e+01 -2.262154579162597656e+00 -4.229933023452758789e-01 5.946435451507568359e+00 1.657032728195190430e+00 -1.420134425163269043e+00
5.079000000000000000e+03 3.389548873901367188e+01 -7.334990978240966797e+00 -9.591239094734191895e-01 3.033472299575805664e+00 6.223044991493225098e-01 -4.335545897483825684e-01
5.080000000000000000e+03 3.124778747558593750e+01 -6.512888431549072266e+00 -9.399302005767822266e-01 2.142368316650390625e+00 3.607314825057983398e-01 -6.038641091436147690e-03
5.081000000000000000e+03 3.051351928710937500e+01 -4.955217838287353516e+00 -8.737043142318725586e-01 2.080704212188720703e+00 3.621000051498413086e-01 5.298145115375518799e-02
5.082000000000000000e+03 1.095803070068359375e+01 -8.757884025573730469e+00 -5.827797394886147231e-06 -2.689519715204369277e-05 -9.816898455028422177e-06 -8.254599379142746329e-06
5.083000000000000000e+03 3.604771041870117188e+01 6.926115989685058594e+00 1.371185302734375000e+00 5.500067234039306641e+00 2.061375617980957031e+00 -5.587928295135498047e-01
5.084000000000000000e+03 3.511880493164062500e+01 7.299088954925537109e+00 1.393806815147399902e+00 4.981450080871582031e+00 1.912577033042907715e+00 -5.204076766967773438e-01
5.085000000000000000e+03 1.808382987976074219e+01 8.503929138183593750e+00 6.144695878028869629e-01 -4.691951870918273926e-01 4.358232766389846802e-02 3.808666169643402100e-01
5.086000000000000000e+03 1.653909683227539062e+01 8.038356781005859375e+00 4.862315356731414795e-01 -6.868180036544799805e-01 -6.017594411969184875e-02 5.308467745780944824e-01
5.087000000000000000e+03 3.284617614746093750e+01 1.965213966369628906e+01 9.805880188941955566e-01 4.160448551177978516e+00 1.542310953140258789e+00 -8.788212537765502930e-01
5.088000000000000000e+03 3.322642898559570312e+01 1.625087165832519531e+01 1.400810480117797852e+00 4.378454685211181641e+00 1.733779549598693848e+00 -8.880837559700012207e-01
5.089000000000000000e+03 3.419011688232421875e+01 1.989417266845703125e+01 9.133513569831848145e-01 4.631439208984375000e+00 1.663437247276306152e+00 -8.141133785247802734e-01
5.090000000000000000e+03 7.163340759277343750e+01 -1.742459678649902344e+01 -8.918879032135009766e-01 4.966232299804687500e+00 1.222303390502929688e+00 -8.811133503913879395e-01
5.091000000000000000e+03 8.785213470458984375e+00 1.136410617828369141e+01 2.475913166999816895e-01 -8.666598200798034668e-01 -1.857205480337142944e-01 6.533029079437255859e-01
5.092000000000000000e+03 5.341733551025390625e+01 -2.290493583679199219e+01 1.911509275436401367e+00 2.256523132324218750e+00 1.250409722328186035e+00 -1.860076189041137695e-01
5.093000000000000000e+03 5.300718688964843750e+01 -2.130693817138671875e+01 9.917579293251037598e-01 1.860937356948852539e+00 8.558086156845092773e-01 -3.965011239051818848e-01
5.094000000000000000e+03 3.067150115966796875e+01 2.514880180358886719e+01 2.846361100673675537e-01 3.411794662475585938e+00 1.108929276466369629e+00 -8.068102598190307617e-01
5.095000000000000000e+03 3.460247421264648438e+01 2.316832923889160156e+01 4.637874066829681396e-01 4.519140243530273438e+00 1.494878292083740234e+00 -7.103934884071350098e-01
5.096000000000000000e+03 3.437032699584960938e+01 1.274540901184082031e+01 1.716311573982238770e+00 4.887471199035644531e+00 1.981134772300720215e+00 -8.347082138061523438e-01
5.097000000000000000e+03 3.278395462036132812e+01 1.280991172790527344e+01 1.637649655342102051e+00 4.065480709075927734e+00 1.710939049720764160e+00 -7.756198048591613770e-01
5.098000000000000000e+03 3.458587265014648438e+01 8.304841995239257812e+00 1.558555483818054199e+00 4.786136627197265625e+00 1.903407573699951172e+00 -5.439757108688354492e-01
5.099000000000000000e+03 3.546148300170898438e+01 9.792699813842773438e+00 1.779701471328735352e+00 5.367093563079833984e+00 2.144038438796997070e+00 -7.133244276046752930e-01
5.100000000000000000e+03 4.966976547241210938e+01 -2.861000442504882812e+01 2.383396148681640625e+00 5.593492984771728516e+00 2.393066644668579102e+00 -1.294579744338989258e+00
5.101000000000000000e+03 4.899383163452148438e+01 -2.745761108398437500e+01 2.523622989654541016e+00 5.851795673370361328e+00 2.512625455856323242e+00 -1.409711956977844238e+00
5.102000000000000000e+03 8.864887237548828125e+00 2.047920227050781250e+01 2.614755034446716309e-01 -8.070455789566040039e-01 -1.636710315942764282e-01 1.660116761922836304e-01
5.103000000000000000e+03 4.846537399291992188e+01 -2.932125282287597656e+01 2.100319385528564453e+00 6.246155261993408203e+00 2.503942489624023438e+00 -1.346686124801635742e+00
5.104000000000000000e+03 9.908115386962890625e+00 3.073015213012695312e+01 4.983229935169219971e-02 -4.914971590042114258e-01 -1.324994564056396484e-01 -1.109525114297866821e-01
5.105000000000000000e+03 8.160414695739746094e+00 3.548550796508789062e+01 -3.385581821203231812e-02 -7.490209341049194336e-01 -2.348630279302597046e-01 -9.423556923866271973e-02
5.106000000000000000e+03 6.924754619598388672e+00 3.555276489257812500e+01 -3.671275824308395386e-02 -9.711840748786926270e-01 -3.023690581321716309e-01 -8.901026099920272827e-02
5.107000000000000000e+03 3.962612533569335938e+01 3.269930267333984375e+01 -8.150570392608642578e-01 4.121860504150390625e+00 9.920409917831420898e-01 -4.856888204813003540e-02
5.108000000000000000e+03 3.312575912475585938e+01 2.935004043579101562e+01 -3.026926815509796143e-01 3.809682130813598633e+00 1.052096843719482422e+00 -6.154677867889404297e-01
5.109000000000000000e+03 3.409509658813476562e+01 2.157379150390625000e+01 6.767522692680358887e-01 4.476096153259277344e+00 1.545854449272155762e+00 -7.768422365188598633e-01
5.110000000000000000e+03 3.232799530029296875e+01 2.628206825256347656e+01 9.507888555526733398e-02 3.769128799438476562e+00 1.159262299537658691e+00 -7.470687627792358398e-01
5.111000000000000000e+03 7.995749473571777344e+00 -8.652177810668945312e+00 1.308382343268021941e-05 3.855391696561127901e-05 1.549132321088109165e-05 1.631988197914324701e-05
5.112000000000000000e+03 7.863187313079833984e+00 -1.015604305267333984e+01 -1.399453230988001451e-05 -4.692756556323729455e-05 -1.827662890718784183e-05 -9.183101610688026994e-06
5.113000000000000000e+03 1.027211284637451172e+01 -1.054932880401611328e+01 6.412805669242516160e-05 -1.013113160297507420e-05 1.619907743588555604e-05 2.227617733296938241e-05
5.114000000000000000e+03 9.686214447021484375e+00 2.223771286010742188e+01 2.604933679103851318e-01 -6.773396730422973633e-01 -1.250538975000381470e-01 7.739948481321334839e-02
5.115000000000000000e+03 8.206066131591796875e+00 1.163140773773193359e+01 2.259953022003173828e-01 -8.800323605537414551e-01 -1.962111145257949829e-01 6.331679224967956543e-01
5.116000000000000000e+03 3.662887954711914062e+01 -1.092337512969970703e+01 -1.049217104911804199e+00 3.619702816009521484e+00 7.711457014083862305e-01 -1.177047967910766602e+00
5.117000000000000000e+03 3.893959426879882812e+01 -1.244274806976318359e+01 -1.347119092941284180e+00 4.930304050445556641e+00 1.074955463409423828e+00 -1.682037591934204102e+00
5.118000000000000000e+03 9.052186965942382812e+00 1.031286716461181641e+01 2.189362794160842896e-01 -8.560143709182739258e-01 -1.911234408617019653e-01 7.101839184761047363e-01
5.119000000000000000e+03 4.144810867309570312e+01 -2.848981380462646484e+00 -5.875455737113952637e-01 5.794124126434326172e+00 1.561973571777343750e+00 -1.246968984603881836e+00
5.120000000000000000e+03 4.177447128295898438e+01 -2.137281179428100586e+00 -4.672623574733734131e-01 5.921193599700927734e+00 1.636179327964782715e+00 -1.350383877754211426e+00
5.121000000000000000e+03 3.940311050415039062e+01 1.778065413236618042e-01 -1.855323463678359985e-01 5.924676895141601562e+00 1.721743345260620117e+00 -1.061859011650085449e+00
5.122000000000000000e+03 4.186829757690429688e+01 -7.178776264190673828e+00 -1.258169770240783691e+00 5.625764846801757812e+00 1.310278534889221191e+00 -9.992529749870300293e-01
5.123000000000000000e+03 4.270576477050781250e+01 -4.641581058502197266e+00 -7.801142334938049316e-01 5.720089435577392578e+00 1.481992602348327637e+00 -1.192997694015502930e+00
5.124000000000000000e+03 4.169967269897460938e+01 -6.246363162994384766e+00 -1.122038125991821289e+00 5.598988056182861328e+00 1.343084931373596191e+00 -1.041592359542846680e+00
5.125000000000000000e+03 4.200653457641601562e+01 -5.692678451538085938e+00 -1.027307033538818359e+00 5.652021408081054688e+00 1.387414336204528809e+00 -1.080966830253601074e+00
5.126000000000000000e+03 5.149214172363281250e+01 -2.080964469909667969e+01 5.891405940055847168e-01 2.847643613815307617e+00 1.031035184860229492e+00 -7.805978059768676758e-01
5.127000000000000000e+03 5.106921768188476562e+01 -2.442886543273925781e+01 2.420900106430053711e+00 3.995200157165527344e+00 1.924830079078674316e+00 -9.961117506027221680e-01
5.128000000000000000e+03 3.202227783203125000e+01 -9.578211784362792969e+00 -8.856802582740783691e-01 1.836022734642028809e+00 2.851027548313140869e-01 -9.290846437215805054e-02
5.129000000000000000e+03 4.751744842529296875e+01 -1.725148391723632812e+01 -1.305944323539733887e+00 6.367853164672851562e+00 1.518572688102722168e+00 -1.576161831617355347e-01
5.130000000000000000e+03 4.698279571533203125e+01 -1.810704612731933594e+01 -6.450970172882080078e-01 6.874897480010986328e+00 1.868940114974975586e+00 -3.426945805549621582e-01
5.131000000000000000e+03 8.997236251831054688e+00 1.684740257263183594e+01 3.192527890205383301e-01 -8.477503061294555664e-01 -1.585492491722106934e-01 3.552673459053039551e-01
5.132000000000000000e+03 8.779562950134277344e+00 2.263683700561523438e+01 2.155604958534240723e-01 -7.921917438507080078e-01 -1.729893684387207031e-01 8.145634829998016357e-02
5.133000000000000000e+03 1.039810466766357422e+01 2.538040733337402344e+01 1.973221004009246826e-01 -5.156563520431518555e-01 -9.550027549266815186e-02 -3.516991063952445984e-02
5.134000000000000000e+03 4.284238815307617188e+01 -1.147149562835693359e+01 -1.903120994567871094e+00 6.334597587585449219e+00 1.329442977905273438e+00 -8.986098766326904297e-01
5.135000000000000000e+03 4.409823989868164062e+01 -1.134926223754882812e+01 -1.919400215148925781e+00 6.329752445220947266e+00 1.323105573654174805e+00 -5.660278201103210449e-01
5.136000000000000000e+03 9.121833801269531250e+00 1.759095573425292969e+01 3.308500647544860840e-01 -8.177683949470520020e-01 -1.460755020380020142e-01 2.978888452053070068e-01
5.137000000000000000e+03 3.256850814819335938e+01 -7.739721298217773438e+00 -9.410724043846130371e-01 2.449345827102661133e+00 4.524820148944854736e-01 -2.165707498788833618e-01
5.138000000000000000e+03 3.310844421386718750e+01 -1.004955196380615234e+01 -8.685395121574401855e-01 2.174896478652954102e+00 3.919070661067962646e-01 -3.427090346813201904e-01
5.139000000000000000e+03 8.056559562683105469e+00 1.027415847778320312e+01 1.699629276990890503e-01 -8.550827503204345703e-01 -2.055359333753585815e-01 6.957877874374389648e-01
5.140000000000000000e+03 5.105892562866210938e+01 -2.275919342041015625e+01 1.868443727493286133e+00 3.615956783294677734e+00 1.645320177078247070e+00 -9.594891071319580078e-01
5.141000000000000000e+03 4.873810958862304688e+01 -2.166010856628417969e+01 1.502164244651794434e+00 5.326361656188964844e+00 2.048557758331298828e+00 -1.140673518180847168e+00
5.142000000000000000e+03 3.686818313598632812e+01 -1.177218341827392578e+01 -9.914810657501220703e-01 3.608778715133666992e+00 7.851892709732055664e-01 -1.357900977134704590e+00
5.143000000000000000e+03 3.588213348388671875e+01 -1.107061004638671875e+01 -9.422501921653747559e-01 3.192727088928222656e+00 6.751430034637451172e-01 -1.060339808464050293e+00
5.144000000000000000e+03 7.778688907623291016e+00 1.414449310302734375e+01 2.511983811855316162e-01 -9.245839118957519531e-01 -2.020156681537628174e-01 4.971604347229003906e-01
5.145000000000000000e+03 4.394258880615234375e+01 -1.220914936065673828e+01 -2.031099796295166016e+00 6.574498653411865234e+00 1.363019704818725586e+00 -6.191556453704833984e-01
5.146000000000000000e+03 3.840996551513671875e+01 4.021761119365692139e-01 -1.614252179861068726e-01 5.648180007934570312e+00 1.646026492118835449e+00 -8.849169611930847168e-01
5.147000000000000000e+03 3.225638580322265625e+01 -6.982201099395751953e+00 -9.365196228027343750e-01 2.451421976089477539e+00 4.544706940650939941e-01 -1.590274721384048462e-01
5.148000000000000000e+03 3.192890930175781250e+01 -7.993226051330566406e+00 -9.405550360679626465e-01 2.148872375488281250e+00 3.624952137470245361e-01 -9.786853939294815063e-02
5.149000000000000000e+03 8.269297599792480469e+00 1.612075614929199219e+01 2.825209796428680420e-01 -9.036421179771423340e-01 -1.863363385200500488e-01 3.935322165489196777e-01
5.150000000000000000e+03 8.312021255493164062e+00 -9.283354759216308594e+00 -2.102836151607334614e-05 -4.290940341888926923e-05 -1.918132875289302319e-05 -1.801268990675453097e-05
5.151000000000000000e+03 7.206490325927734375e+01 -1.468856143951416016e+01 -1.650470942258834839e-01 5.452526092529296875e+00 1.586243748664855957e+00 -6.017929315567016602e-01
5.152000000000000000e+03 9.333326339721679688e+00 2.129860877990722656e+01 2.654201388359069824e-01 -7.446194291114807129e-01 -1.437597870826721191e-01 1.245357468724250793e-01
5.153000000000000000e+03 7.204088592529296875e+01 -1.388757324218750000e+01 -3.682708740234375000e-02 5.573252677917480469e+00 1.660927653312683105e+00 -5.335383415222167969e-01
5.154000000000000000e+03 9.618901252746582031e+00 -8.750092506408691406e+00 -1.863782199507113546e-05 -3.189628478139638901e-05 -1.516023257863707840e-05 -1.342287032457534224e-05
5.155000000000000000e+03 4.605799865722656250e+01 -1.510003280639648438e+01 -2.069367647171020508e+00 6.876638889312744141e+00 1.442181348800659180e+00 -9.784360975027084351e-02
5.156000000000000000e+03 4.559156036376953125e+01 -1.428417778015136719e+01 -2.137844085693359375e+00 6.872977256774902344e+00 1.420539975166320801e+00 -1.716233193874359131e-01
5.157000000000000000e+03 7.082981109619140625e+01 -1.604940414428710938e+01 -3.117482066154479980e-01 4.549506664276123047e+00 1.271327495574951172e+00 -5.914094448089599609e-01
5.158000000000000000e+03 3.920317840576171875e+01 3.911101818084716797e+00 6.098167300224304199e-01 6.700028896331787109e+00 2.192953586578369141e+00 -1.049864292144775391e+00
5.159000000000000000e+03 4.333835601806640625e+01 -1.313779067993164062e+01 -2.032651901245117188e+00 6.855626583099365234e+00 1.446892380714416504e+00 -8.795797228813171387e-01
5.160000000000000000e+03 3.720328903198242188e+01 -1.246792030334472656e+01 -9.768939018249511719e-01 3.697980880737304688e+00 8.163260817527770996e-01 -1.502387166023254395e+00
5.161000000000000000e+03 3.827779769897460938e+01 -1.168161869049072266e+01 -1.259676575660705566e+00 4.519489288330078125e+00 9.779437780380249023e-01 -1.503029942512512207e+00
5.162000000000000000e+03 3.564902877807617188e+01 -1.025254058837890625e+01 -9.889191985130310059e-01 3.241496801376342773e+00 6.757732629776000977e-01 -9.120805859565734863e-01
5.163000000000000000e+03 3.496689224243164062e+01 -1.037157440185546875e+01 -9.204930067062377930e-01 2.889359235763549805e+00 5.906598567962646484e-01 -7.857128977775573730e-01
5.164000000000000000e+03 4.221147537231445312e+01 -1.178502559661865234e+01 -1.893754363059997559e+00 6.317719459533691406e+00 1.327189564704895020e+00 -1.070327877998352051e+00
5.165000000000000000e+03 5.015488815307617188e+01 -2.640888214111328125e+01 2.626582384109497070e+00 5.004536628723144531e+00 2.289335727691650391e+00 -1.275391697883605957e+00
5.166000000000000000e+03 5.172515106201171875e+01 -2.595559883117675781e+01 2.591914653778076172e+00 4.193133831024169922e+00 2.035514593124389648e+00 -8.604567050933837891e-01
5.167000000000000000e+03 5.050505828857421875e+01 -2.721706008911132812e+01 2.575386524200439453e+00 5.044233798980712891e+00 2.285886049270629883e+00 -1.194604992866516113e+00
5.168000000000000000e+03 4.712405014038085938e+01 -1.889377593994140625e+01 -1.179144605994224548e-01 6.749388694763183594e+00 1.989442348480224609e+00 -4.931897521018981934e-01
5.169000000000000000e+03 3.885860061645507812e+01 -1.175941181182861328e+01 -1.384263038635253906e+00 4.903658866882324219e+00 1.055818796157836914e+00 -1.546588063240051270e+00
5.170000000000000000e+03 3.790766525268554688e+01 9.944661855697631836e-01 -3.195972368121147156e-02 5.595989227294921875e+00 1.669208884239196777e+00 -8.029804825782775879e-01
5.171000000000000000e+03 4.069911575317382812e+01 1.155182123184204102e-01 -1.505134105682373047e-01 6.220344543457031250e+00 1.820949435234069824e+00 -1.314712882041931152e+00
5.172000000000000000e+03 4.133224487304687500e+01 3.118672966957092285e-02 -1.181841418147087097e-01 6.283167839050292969e+00 1.849495053291320801e+00 -1.458950996398925781e+00
5.173000000000000000e+03 4.066262435913085938e+01 -4.615043401718139648e-01 -2.605940997600555420e-01 6.091239452362060547e+00 1.749193668365478516e+00 -1.275012850761413574e+00
5.174000000000000000e+03 4.010063552856445312e+01 -3.483478128910064697e-01 -2.709114253520965576e-01 5.976731300354003906e+00 1.711745977401733398e+00 -1.165646195411682129e+00
5.175000000000000000e+03 4.676221084594726562e+01 -1.734945678710937500e+01 -1.179372310638427734e+00 6.955000877380371094e+00 1.732688546180725098e+00 -2.431000322103500366e-01
5.176000000000000000e+03 4.636912536621093750e+01 -1.823798370361328125e+01 -5.036114454269409180e-01 7.254143238067626953e+00 2.025159597396850586e+00 -4.148989915847778320e-01
5.177000000000000000e+03 2.011298179626464844e+01 5.826481819152832031e+00 4.033948183059692383e-01 -3.495191931724548340e-01 1.616268604993820190e-02 3.544678092002868652e-01
5.178000000000000000e+03 3.558669662475585938e+01 6.028581619262695312e+00 1.163033843040466309e+00 5.189968585968017578e+00 1.905900716781616211e+00 -4.993024766445159912e-01
5.179000000000000000e+03 3.748030471801757812e+01 4.977644920349121094e+00 9.028849601745605469e-01 6.046911716461181641e+00 2.084939002990722656e+00 -6.863342523574829102e-01
5.180000000000000000e+03 4.321438980102539062e+01 -1.469006347656250000e+01 -1.899621486663818359e+00 7.460621833801269531e+00 1.668300151824951172e+00 -1.038167595863342285e+00
5.181000000000000000e+03 4.439300537109375000e+01 -1.364490699768066406e+01 -2.104531288146972656e+00 6.972896099090576172e+00 1.460509419441223145e+00 -5.088842511177062988e-01
5.182000000000000000e+03 9.670906066894531250e+00 2.675540542602539062e+01 1.480583846569061279e-01 -6.046164035797119141e-01 -1.369673907756805420e-01 -5.754071101546287537e-02
5.183000000000000000e+03 2.456611442565917969e+01 2.428438425064086914e+00 3.158218413591384888e-02 5.320311188697814941e-01 1.690839827060699463e-01 1.926571428775787354e-01
5.184000000000000000e+03 1.635730552673339844e+01 8.729223251342773438e+00 5.360773205757141113e-01 -6.528006196022033691e-01 -3.501699492335319519e-02 5.078713893890380859e-01
5.185000000000000000e+03 2.932771492004394531e+01 9.077303409576416016e-01 -4.534848034381866455e-02 2.159356832504272461e+00 6.342025399208068848e-01 -2.829350531101226807e-02
5.186000000000000000e+03 2.976909065246582031e+01 -3.154100179672241211e+00 -7.105138301849365234e-01 1.994185209274291992e+00 3.851014375686645508e-01 7.475659996271133423e-02
5.187000000000000000e+03 2.981822395324707031e+01 -1.272804975509643555e+00 -4.354575276374816895e-01 2.181452989578247070e+00 5.237986445426940918e-01 -3.366651362739503384e-04
5.188000000000000000e+03 4.376933670043945312e+01 -9.309615135192871094e+00 -1.565945625305175781e+00 5.941877365112304688e+00 1.312779545783996582e+00 -7.213069796562194824e-01
5.189000000000000000e+03 4.807630920410156250e+01 -1.943389320373535156e+01 9.666240960359573364e-02 5.859099388122558594e+00 1.786728620529174805e+00 -6.359500885009765625e-01
5.190000000000000000e+03 5.240641403198242188e+01 -2.384502983093261719e+01 2.199478626251220703e+00 3.064773082733154297e+00 1.579275488853454590e+00 -5.561942458152770996e-01
5.191000000000000000e+03 1.357402420043945312e+01 8.499569892883300781e+00 3.469156026840209961e-01 -8.574659228324890137e-01 -1.531651020050048828e-01 7.097171545028686523e-01
5.192000000000000000e+03 9.441370964050292969e+00 1.100067043304443359e+01 2.694414258003234863e-01 -8.553787469863891602e-01 -1.757811903953552246e-01 6.750990748405456543e-01
5.193000000000000000e+03 4.959173583984375000e+01 -2.401511573791503906e+01 2.369112968444824219e+00 4.911374568939208984e+00 2.184146165847778320e+00 -1.335275888442993164e+00
5.194000000000000000e+03 4.349920654296875000e+01 -1.370237922668457031e+01 -2.041532039642333984e+00 7.106718063354492188e+00 1.519555687904357910e+00 -8.548184633255004883e-01
5.195000000000000000e+03 7.059236145019531250e+01 -1.518072700500488281e+01 -6.007735803723335266e-02 4.655605316162109375e+00 1.378658294677734375e+00 -3.977367579936981201e-01
5.196000000000000000e+03 4.073775482177734375e+01 -2.528913736343383789e+00 -5.941705703735351562e-01 5.756850242614746094e+00 1.548803925514221191e+00 -1.183346986770629883e+00
5.197000000000000000e+03 3.013542556762695312e+01 -4.106053829193115234e+00 -8.160970211029052734e-01 2.029865026473999023e+00 3.641303479671478271e-01 6.552484631538391113e-02
5.198000000000000000e+03 3.065447235107421875e+01 -3.006312370300292969e+00 -6.567510962486267090e-01 2.366883516311645508e+00 5.130397081375122070e-01 -2.420488931238651276e-02
5.199000000000000000e+03 4.294718933105468750e+01 -7.986840724945068359e+00 -1.350608944892883301e+00 5.753265857696533203e+00 1.320797085762023926e+00 -8.967171311378479004e-01
5.200000000000000000e+03 4.240464782714843750e+01 -7.556382656097412109e+00 -1.301040291786193848e+00 5.703390598297119141e+00 1.320705175399780273e+00 -9.612178802490234375e-01
5.201000000000000000e+03 7.134273529052734375e+01 -1.374796581268310547e+01 9.148023277521133423e-02 5.295763969421386719e+00 1.616173267364501953e+00 -3.740510940551757812e-01
5.202000000000000000e+03 2.841952133178710938e+01 -4.022741317749023438e-01 -3.276160657405853271e-01 1.713591575622558594e+00 4.157926738262176514e-01 6.919810175895690918e-02
5.203000000000000000e+03 2.910707092285156250e+01 -9.366127848625183105e-01 -3.947960436344146729e-01 1.962157011032104492e+00 4.702082872390747070e-01 4.692045971751213074e-02
5.204000000000000000e+03 2.104901313781738281e+01 4.134741306304931641e+00 1.535686552524566650e-01 -3.226308226585388184e-01 -5.071865022182464600e-02 3.698701858520507812e-01
5.205000000000000000e+03 2.134745597839355469e+01 4.914031505584716797e+00 3.158187270164489746e-01 -1.771849393844604492e-01 4.159013554453849792e-02 3.028778433799743652e-01
5.206000000000000000e+03 1.885070228576660156e+01 6.479927539825439453e+00 4.302860498428344727e-01 -5.190994143486022949e-01 -2.664400264620780945e-02 4.237832129001617432e-01
5.207000000000000000e+03 8.599771499633789062e+00 9.741939544677734375e+00 1.705981791019439697e-01 -8.472125530242919922e-01 -2.029843181371688843e-01 7.321705818176269531e-01
5.208000000000000000e+03 2.306801795959472656e+01 3.781527519226074219e+00 2.093187421560287476e-01 1.839390844106674194e-01 1.179773434996604919e-01 2.256791591644287109e-01
5.209000000000000000e+03 1.919186401367187500e+01 8.291453361511230469e+00 6.560490727424621582e-01 -3.037249743938446045e-01 1.056972220540046692e-01 2.984734475612640381e-01
5.210000000000000000e+03 3.159513282775878906e+01 -5.453396320343017578e+00 -8.869396448135375977e-01 2.429625272750854492e+00 4.628056883811950684e-01 -7.836108654737472534e-02
5.211000000000000000e+03 9.697723388671875000e+00 9.803953170776367188e+00 2.286862432956695557e-01 -8.552606701850891113e-01 -1.879723221063613892e-01 7.408860921859741211e-01
5.212000000000000000e+03 2.645888328552246094e+01 1.609500646591186523e+00 -3.597997501492500305e-02 1.127098321914672852e+00 3.273354768753051758e-01 1.112538427114486694e-01
5.213000000000000000e+03 8.559057235717773438e+00 -1.003188896179199219e+01 2.578521343821194023e-05 4.667287430493161082e-05 2.173742723243776709e-05 1.526542291685473174e-05
5.214000000000000000e+03 3.717514801025390625e+01 5.772344589233398438e+00 1.133111953735351562e+00 5.995928287506103516e+00 2.138711929321289062e+00 -6.383136510848999023e-01
5.215000000000000000e+03 2.225182914733886719e+01 4.400810718536376953e+00 2.735260725021362305e-01 1.353561691939830780e-02 8.611850440502166748e-02 2.568574547767639160e-01
5.216000000000000000e+03 1.795394706726074219e+01 9.101974487304687500e+00 6.721890568733215332e-01 -4.259904623031616211e-01 7.385958731174468994e-02 3.555626273155212402e-01
5.217000000000000000e+03 1.734068107604980469e+01 8.276053428649902344e+00 5.504503250122070312e-01 -5.772370100021362305e-01 -8.036010898649692535e-03 4.573697149753570557e-01
5.218000000000000000e+03 3.051891517639160156e+01 -2.176539897918701172e+00 -5.633242726325988770e-01 2.390368700027465820e+00 5.481133460998535156e-01 -2.658741734921932220e-02
5.219000000000000000e+03 3.353471755981445312e+01 1.081595230102539062e+01 1.694867372512817383e+00 4.386506080627441406e+00 1.824411988258361816e+00 -6.782907843589782715e-01
5.220000000000000000e+03 3.450560760498046875e+01 1.076294612884521484e+01 1.763500332832336426e+00 4.882714271545410156e+00 1.993864417076110840e+00 -7.317245602607727051e-01
5.221000000000000000e+03 4.740689849853515625e+01 -1.658162879943847656e+01 -1.723441362380981445e+00 6.386002540588378906e+00 1.398768424987792969e+00 -6.063011288642883301e-02
5.222000000000000000e+03 1.479321193695068359e+01 8.626893997192382812e+00 4.378320276737213135e-01 -7.987528443336486816e-01 -1.082762554287910461e-01 6.293098330497741699e-01
5.223000000000000000e+03 3.164671516418457031e+01 1.632244300842285156e+01 1.364925742149353027e+00 3.686197757720947266e+00 1.515337109565734863e+00 -8.748278021812438965e-01
5.224000000000000000e+03 9.009751319885253906e+00 1.208922672271728516e+01 2.836579084396362305e-01 -8.655347228050231934e-01 -1.745630502700805664e-01 6.167334914207458496e-01
5.225000000000000000e+03 3.193176841735839844e+01 -6.221585273742675781e+00 -9.157323241233825684e-01 2.442194938659667969e+00 4.579388201236724854e-01 -1.192270591855049133e-01
5.226000000000000000e+03 1.028932857513427734e+01 2.074725151062011719e+01 3.234138190746307373e-01 -6.336940526962280273e-01 -9.308405965566635132e-02 1.291024982929229736e-01
5.227000000000000000e+03 3.148990631103515625e+01 1.936791992187500000e+01 1.008303046226501465e+00 3.694612026214599609e+00 1.410874485969543457e+00 -8.900125026702880859e-01
5.228000000000000000e+03 3.335686492919921875e+01 1.809189796447753906e+01 1.167130351066589355e+00 4.371298313140869141e+00 1.661528587341308594e+00 -8.821896910667419434e-01
5.229000000000000000e+03 1.539064025878906250e+01 9.138770103454589844e+00 5.173070430755615234e-01 -7.080071568489074707e-01 -5.721004307270050049e-02 5.564206838607788086e-01
5.230000000000000000e+03 8.594782829284667969e+00 1.407580757141113281e+01 2.932951450347900391e-01 -8.835536837577819824e-01 -1.770775467157363892e-01 5.068882703781127930e-01
5.231000000000000000e+03 3.254927444458007812e+01 1.552624225616455078e+01 1.456316947937011719e+00 4.059903621673583984e+00 1.654866218566894531e+00 -8.738491535186767578e-01
5.232000000000000000e+03 3.331168365478515625e+01 1.467800807952880859e+01 1.547985792160034180e+00 4.402534008026123047e+00 1.785156011581420898e+00 -8.594257831573486328e-01
5.233000000000000000e+03 8.652629852294921875e+00 2.965752220153808594e+01 6.639243662357330322e-02 -6.925503015518188477e-01 -1.878473609685897827e-01 -9.247100353240966797e-02
5.234000000000000000e+03 8.925117492675781250e+00 2.830680847167968750e+01 9.469362348318099976e-02 -6.682657003402709961e-01 -1.720716208219528198e-01 -7.679136842489242554e-02
5.235000000000000000e+03 3.272772598266601562e+01 1.406787109375000000e+01 1.589488506317138672e+00 4.142632007598876953e+00 1.719636082649230957e+00 -8.387222290039062500e-01
5.236000000000000000e+03 3.247484207153320312e+01 1.086244392395019531e+01 1.617553472518920898e+00 3.836765289306640625e+00 1.636295557022094727e+00 -6.448442339897155762e-01
5.237000000000000000e+03 3.374734878540039062e+01 9.055310249328613281e+00 1.576663136482238770e+00 4.368148803710937500e+00 1.783443570137023926e+00 -5.600280165672302246e-01
5.238000000000000000e+03 3.455372619628906250e+01 9.879673957824707031e+00 1.726221919059753418e+00 4.854924201965332031e+00 1.974343895912170410e+00 -6.683152318000793457e-01
5.239000000000000000e+03 3.401865386962890625e+01 2.734535980224609375e+01 -8.847776800394058228e-02 4.093705654144287109e+00 1.201568365097045898e+00 -6.332138180732727051e-01
5.240000000000000000e+03 1.197819614410400391e+01 3.647890472412109375e+01 -8.351176232099533081e-02 5.409138742834329605e-03 -2.343078702688217163e-02 -9.554447233676910400e-02
5.241000000000000000e+03 1.409197711944580078e+01 3.132012939453125000e+01 3.708069398999214172e-02 2.696295082569122314e-01 9.201305359601974487e-02 -2.145496010780334473e-01
5.242000000000000000e+03 3.338453674316406250e+01 2.447172927856445312e+01 3.201148808002471924e-01 4.112704753875732422e+00 1.329845905303955078e+00 -7.510340213775634766e-01
5.243000000000000000e+03 3.729501724243164062e+01 3.294128036499023438e+01 -8.155820965766906738e-01 4.070460319519042969e+00 9.764634966850280762e-01 -2.311222255229949951e-01
5.244000000000000000e+03 3.461959457397460938e+01 3.256631469726562500e+01 -6.951917409896850586e-01 3.858161687850952148e+00 9.488909840583801270e-01 -4.228529632091522217e-01
5.245000000000000000e+03 1.129574871063232422e+01 3.234590148925781250e+01 6.473113317042589188e-03 -1.925609260797500610e-01 -5.582634359598159790e-02 -1.377159506082534790e-01
5.246000000000000000e+03 9.710401535034179688e+00 3.355817031860351562e+01 -1.600357238203287125e-03 -4.383907914161682129e-01 -1.319973468780517578e-01 -9.703882038593292236e-02
5.247000000000000000e+03 9.827842712402343750e+00 -9.438774108886718750e+00 2.277507883263751864e-05 2.996550210809800774e-05 1.582217373652383685e-05 8.103769687295425683e-06
5.248000000000000000e+03 3.373648452758789062e+01 -1.028723812103271484e+01 -8.664792776107788086e-01 2.373091220855712891e+00 4.519835412502288818e-01 -4.940709471702575684e-01
5.249000000000000000e+03 4.202965927124023438e+01 -3.353547334671020508e+00 -6.314320564270019531e-01 5.802496433258056641e+00 1.551319241523742676e+00 -1.272960066795349121e+00
5.250000000000000000e+03 4.122729492187500000e+01 -1.219697356224060059e+00 -3.505666255950927734e-01 6.026425838470458984e+00 1.702757835388183594e+00 -1.337532281875610352e+00
5.251000000000000000e+03 4.087652969360351562e+01 -1.221702384948730469e+01 -1.742467522621154785e+00 5.971573829650878906e+00 1.268731832504272461e+00 -1.423959255218505859e+00
5.252000000000000000e+03 4.246422195434570312e+01 -1.249671459197998047e+01 -1.950376987457275391e+00 6.557881832122802734e+00 1.382251381874084473e+00 -1.072608828544616699e+00
5.253000000000000000e+03 4.310621643066406250e+01 -1.211658573150634766e+01 -1.995229363441467285e+00 6.575790882110595703e+00 1.374168515205383301e+00 -8.527486920356750488e-01
5.254000000000000000e+03 1.169511222839355469e+01 9.407086372375488281e+00 3.131373524665832520e-01 -8.548253774642944336e-01 -1.625064015388488770e-01 7.316035628318786621e-01
5.255000000000000000e+03 1.298491382598876953e+01 9.173562049865722656e+00 3.644763827323913574e-01 -8.409175276756286621e-01 -1.429323405027389526e-01 6.993758082389831543e-01
5.256000000000000000e+03 8.819215774536132812e+00 1.506931495666503906e+01 3.165339231491088867e-01 -8.687340617179870605e-01 -1.656600534915924072e-01 4.510466456413269043e-01
5.257000000000000000e+03 3.508415603637695312e+01 -8.714414596557617188e+00 -1.015075325965881348e+00 3.290969371795654297e+00 6.827681660652160645e-01 -6.927150487899780273e-01
5.258000000000000000e+03 3.537588119506835938e+01 -9.469246864318847656e+00 -1.002475023269653320e+00 3.269668579101562500e+00 6.801580786705017090e-01 -8.064934015274047852e-01
5.259000000000000000e+03 3.844327926635742188e+01 1.543955087661743164e+00 8.155664056539535522e-02 5.892663955688476562e+00 1.792266249656677246e+00 -8.970766663551330566e-01
5.260000000000000000e+03 4.405424118041992188e+01 -1.272588253021240234e+01 -2.068529367446899414e+00 6.755371093750000000e+00 1.406052470207214355e+00 -5.987654328346252441e-01
5.261000000000000000e+03 4.952256011962890625e+01 -2.035338401794433594e+01 4.544529020786285400e-01 4.562550067901611328e+00 1.505100846290588379e+00 -8.609550595283508301e-01
5.262000000000000000e+03 4.968206405639648438e+01 -2.164884757995605469e+01 1.357286334037780762e+00 4.464834213256835938e+00 1.746636152267456055e+00 -1.096504330635070801e+00
5.263000000000000000e+03 4.919383239746093750e+01 -2.205855369567871094e+01 1.672239899635314941e+00 4.959868431091308594e+00 1.989632487297058105e+00 -1.201718330383300781e+00
5.264000000000000000e+03 4.907433319091796875e+01 -1.977735328674316406e+01 1.291758716106414795e-01 5.034146785736083984e+00 1.548996806144714355e+00 -7.030845284461975098e-01
5.265000000000000000e+03 4.219511032104492188e+01 -6.602104187011718750e+00 -1.159166216850280762e+00 5.660371303558349609e+00 1.350361466407775879e+00 -1.025883913040161133e+00
5.266000000000000000e+03 4.253760147094726562e+01 -8.464498519897460938e+00 -1.468045949935913086e+00 5.788558483123779297e+00 1.296153783798217773e+00 -9.143236279487609863e-01
5.267000000000000000e+03 4.087462234497070312e+01 -6.390529632568359375e+00 -1.169542074203491211e+00 5.474102497100830078e+00 1.291368126869201660e+00 -1.030404329299926758e+00
5.268000000000000000e+03 4.186634826660156250e+01 -4.853756427764892578e+00 -8.867984414100646973e-01 5.678429603576660156e+00 1.437489390373229980e+00 -1.139601826667785645e+00
5.269000000000000000e+03 4.135833358764648438e+01 -6.799731731414794922e+00 -1.226289272308349609e+00 5.567869186401367188e+00 1.302474021911621094e+00 -1.023945093154907227e+00
5.270000000000000000e+03 4.885369491577148438e+01 -2.071512413024902344e+01 9.845336675643920898e-01 5.218350887298583984e+00 1.860865354537963867e+00 -9.296112656593322754e-01
5.271000000000000000e+03 9.204104423522949219e+00 1.293215656280517578e+01 3.127059638500213623e-01 -8.585484623908996582e-01 -1.637527495622634888e-01 5.705371499061584473e-01
5.272000000000000000e+03 3.309602737426757812e+01 -9.266073226928710938e+00 -9.070917963981628418e-01 2.352673053741455078e+00 4.336743354797363281e-01 -3.386170268058776855e-01
5.273000000000000000e+03 3.248976898193359375e+01 -9.329384803771972656e+00 -9.088811278343200684e-01 2.093792438507080078e+00 3.554733991622924805e-01 -1.954422444105148315e-01
5.274000000000000000e+03 1.224285793304443359e+01 2.379425430297851562e+01 2.936110496520996094e-01 -2.822147309780120850e-01 3.418893320485949516e-03 -4.515274614095687866e-02
5.275000000000000000e+03 9.956510543823242188e+00 2.324244499206542969e+01 2.461857497692108154e-01 -6.200711131095886230e-01 -1.121656149625778198e-01 3.594822809100151062e-02
5.276000000000000000e+03 1.070149421691894531e+01 1.580041122436523438e+01 4.194026887416839600e-01 -7.175679206848144531e-01 -8.944956213235855103e-02 3.772368729114532471e-01
5.277000000000000000e+03 9.701503753662109375e+00 1.694753265380859375e+01 3.692210018634796143e-01 -7.730847001075744629e-01 -1.211591064929962158e-01 3.334121406078338623e-01
5.278000000000000000e+03 4.365186309814453125e+01 -1.174623584747314453e+01 -1.988962173461914062e+00 6.481021881103515625e+00 1.347617983818054199e+00 -6.702901124954223633e-01
5.279000000000000000e+03 4.330136489868164062e+01 -1.045137023925781250e+01 -1.786207199096679688e+00 6.147049427032470703e+00 1.308252692222595215e+00 -7.725757956504821777e-01
5.280000000000000000e+03 1.037131214141845703e+01 1.752321243286132812e+01 3.976767957210540771e-01 -6.978303790092468262e-01 -9.004607796669006348e-02 2.889001667499542236e-01
5.281000000000000000e+03 8.935070037841796875e+00 1.908283615112304688e+01 2.878915667533874512e-01 -8.200082182884216309e-01 -1.596349924802780151e-01 2.344761341810226440e-01
5.282000000000000000e+03 5.258508300781250000e+01 -2.216225051879882812e+01 1.542763352394104004e+00 2.394558191299438477e+00 1.181196451187133789e+00 -4.958515167236328125e-01
5.283000000000000000e+03 9.826816558837890625e+00 1.596703433990478516e+01 3.725146651268005371e-01 -7.802805304527282715e-01 -1.223297640681266785e-01 3.878302574157714844e-01
5.284000000000000000e+03 4.351855468750000000e+01 -1.257019233703613281e+01 -2.041579008102416992e+00 6.730850219726562500e+00 1.406781435012817383e+00 -7.774189710617065430e-01
5.285000000000000000e+03 3.322420501708984375e+01 -7.521865844726562500e+00 -9.523134231567382812e-01 2.745384216308593750e+00 5.379212498664855957e-01 -3.228380680084228516e-01
5.286000000000000000e+03 3.376789855957031250e+01 -9.119609832763671875e+00 -9.351621270179748535e-01 2.652775049209594727e+00 5.152838826179504395e-01 -4.622297585010528564e-01
5.287000000000000000e+03 4.947623443603515625e+01 -2.321202850341796875e+01 2.149889707565307617e+00 4.905710697174072266e+00 2.116680145263671875e+00 -1.293537139892578125e+00
5.288000000000000000e+03 3.795182037353515625e+01 3.213332176208496094e+00 4.625828266143798828e-01 5.989003181457519531e+00 1.935475826263427734e+00 -7.929893732070922852e-01
5.289000000000000000e+03 5.069203567504882812e+01 -2.597332763671875000e+01 2.609960317611694336e+00 4.693217754364013672e+00 2.190953254699707031e+00 -1.138383746147155762e+00
5.290000000000000000e+03 3.788359069824218750e+01 -9.221777319908142090e-02 -2.454369515180587769e-01 5.407227993011474609e+00 1.548537373542785645e+00 -8.046656250953674316e-01
5.291000000000000000e+03 9.742816925048828125e+00 1.179397010803222656e+01 3.140861690044403076e-01 -8.467207551002502441e-01 -1.597903817892074585e-01 6.314666867256164551e-01
5.292000000000000000e+03 3.759981155395507812e+01 -1.160323333740234375e+01 -1.151890158653259277e+00 4.132212638854980469e+00 8.940967917442321777e-01 -1.427894711494445801e+00
5.293000000000000000e+03 3.943836212158203125e+01 -1.163489341735839844e+01 -1.480680823326110840e+00 5.176282882690429688e+00 1.108680605888366699e+00 -1.503256559371948242e+00
5.294000000000000000e+03 3.634601974487304688e+01 -1.008375453948974609e+01 -1.063039183616638184e+00 3.624899148941040039e+00 7.685579657554626465e-01 -1.039465785026550293e+00
5.295000000000000000e+03 3.683562469482421875e+01 2.149721622467041016e+00 2.354793846607208252e-01 5.365154743194580078e+00 1.680190324783325195e+00 -6.244495511054992676e-01
5.296000000000000000e+03 3.744099044799804688e+01 3.879216432571411133e+00 6.364740133285522461e-01 5.904312610626220703e+00 1.962235927581787109e+00 -6.996307969093322754e-01
5.297000000000000000e+03 3.737012863159179688e+01 1.567610502243041992e+00 1.029944345355033875e-01 5.500904083251953125e+00 1.681169509887695312e+00 -7.025722265243530273e-01
5.298000000000000000e+03 4.534642028808593750e+01 -1.489855003356933594e+01 -2.039997577667236328e+00 7.153615951538085938e+00 1.534085512161254883e+00 -2.703688740730285645e-01
5.299000000000000000e+03 4.494063186645507812e+01 -1.402915763854980469e+01 -2.114940881729125977e+00 6.970193386077880859e+00 1.456575751304626465e+00 -3.441657721996307373e-01
5.300000000000000000e+03 3.294409942626953125e+01 -6.737341403961181641e+00 -9.313538074493408203e-01 2.764469623565673828e+00 5.499347448348999023e-01 -2.696677148342132568e-01
5.301000000000000000e+03 3.631032562255859375e+01 1.542568087577819824e+00 1.091285794973373413e-01 5.076604366302490234e+00 1.555719852447509766e+00 -5.571987628936767578e-01
5.302000000000000000e+03 3.432724380493164062e+01 7.680789470672607422e+00 1.429886579513549805e+00 4.604154586791992188e+00 1.810212373733520508e+00 -4.904045760631561279e-01
5.303000000000000000e+03 3.469911575317382812e+01 6.530510425567626953e+00 1.248267054557800293e+00 4.758640289306640625e+00 1.802072167396545410e+00 -4.533977806568145752e-01
5.304000000000000000e+03 5.048612976074218750e+01 -2.445075035095214844e+01 2.422288179397583008e+00 4.368362426757812500e+00 2.037195205688476562e+00 -1.192759156227111816e+00
5.305000000000000000e+03 5.206547164916992188e+01 -2.428197288513183594e+01 2.378151655197143555e+00 3.457251310348510742e+00 1.750620841979980469e+00 -7.142572402954101562e-01
5.306000000000000000e+03 9.662521362304687500e+00 -1.033545303344726562e+01 -1.091095145966392010e-05 2.637230500113219023e-05 4.638406153389951214e-06 4.543578597804298624e-07
5.307000000000000000e+03 4.717651748657226562e+01 -1.562530899047851562e+01 -2.037035942077636719e+00 6.411797523498535156e+00 1.312428474426269531e+00 9.012346714735031128e-02
5.308000000000000000e+03 4.232787704467773438e+01 -8.993723869323730469e+00 -1.558150529861450195e+00 5.827411651611328125e+00 1.280778408050537109e+00 -9.135931730270385742e-01
5.309000000000000000e+03 4.099220657348632812e+01 -1.076685905456542969e+01 -1.702116847038269043e+00 5.770098686218261719e+00 1.220394492149353027e+00 -1.197996854782104492e+00
5.310000000000000000e+03 4.009086227416992188e+01 -1.147577571868896484e+01 -1.613906741142272949e+00 5.515131950378417969e+00 1.170367598533630371e+00 -1.407457470893859863e+00
5.311000000000000000e+03 3.917404556274414062e+01 -1.086244678497314453e+01 -1.461845278739929199e+00 5.030478000640869141e+00 1.070589900016784668e+00 -1.368693828582763672e+00
5.312000000000000000e+03 4.304317092895507812e+01 -9.631203651428222656e+00 -1.658836841583251953e+00 5.979275226593017578e+00 1.296131491661071777e+00 -8.227737545967102051e-01
5.313000000000000000e+03 2.383374595642089844e+01 3.116725444793701172e+00 1.248294860124588013e-01 3.582636713981628418e-01 1.449279487133026123e-01 2.040834426879882812e-01
5.314000000000000000e+03 4.097486114501953125e+01 -7.372001647949218750e+00 -1.308332681655883789e+00 5.497188568115234375e+00 1.256656765937805176e+00 -1.024016499519348145e+00
5.315000000000000000e+03 4.150150299072265625e+01 -7.789918422698974609e+00 -1.371616244316101074e+00 5.620232582092285156e+00 1.274584889411926270e+00 -9.991691112518310547e-01
5.316000000000000000e+03 1.052063369750976562e+01 1.146093368530273438e+01 3.468071222305297852e-01 -8.307961821556091309e-01 -1.451967060565948486e-01 6.424294114112854004e-01
5.317000000000000000e+03 5.216866683959960938e+01 -2.305411911010742188e+01 1.962544441223144531e+00 3.018948316574096680e+00 1.494447827339172363e+00 -6.767455935478210449e-01
5.318000000000000000e+03 2.976161575317382812e+01 4.366221427917480469e-01 -1.383804827928543091e-01 2.287592887878417969e+00 6.447637081146240234e-01 -5.330927670001983643e-02
5.319000000000000000e+03 5.065568542480468750e+01 -2.093374252319335938e+01 7.823672890663146973e-01 3.669904708862304688e+00 1.335681557655334473e+00 -8.883309960365295410e-01
5.320000000000000000e+03 5.008358383178710938e+01 -2.219590759277343750e+01 1.643780469894409180e+00 4.272502422332763672e+00 1.774884939193725586e+00 -1.077062010765075684e+00
5.321000000000000000e+03 5.161897277832031250e+01 -2.164965820312500000e+01 1.224768280982971191e+00 2.961406469345092773e+00 1.255852460861206055e+00 -7.845929265022277832e-01
5.322000000000000000e+03 1.716782379150390625e+01 8.963591575622558594e+00 6.114525198936462402e-01 -5.420891046524047852e-01 2.080903761088848114e-02 4.257756173610687256e-01
5.323000000000000000e+03 1.231750869750976562e+01 8.587824821472167969e+00 2.850451767444610596e-01 -8.781006336212158203e-01 -1.779166460037231445e-01 7.595759630203247070e-01
5.324000000000000000e+03 4.267618560791015625e+01 -1.324749565124511719e+01 -1.980417966842651367e+00 6.833541393280029297e+00 1.455937027931213379e+00 -1.062417268753051758e+00
5.325000000000000000e+03 3.253096008300781250e+01 -3.369058132171630859e+00 -6.900151968002319336e-01 3.049256086349487305e+00 7.077722549438476562e-01 -2.125772088766098022e-01
5.326000000000000000e+03 2.942906379699707031e+01 -1.907455176115036011e-01 -2.525786757469177246e-01 2.137457370758056641e+00 5.654636621475219727e-01 -2.403654856607317924e-03
5.327000000000000000e+03 3.003319168090820312e+01 -5.150436758995056152e-01 -2.907859981060028076e-01 2.323711633682250977e+00 6.098777055740356445e-01 -3.756090998649597168e-02
5.328000000000000000e+03 1.095495033264160156e+01 2.292000579833984375e+01 2.871321141719818115e-01 -4.895201325416564941e-01 -6.071640178561210632e-02 2.130151167511940002e-02
5.329000000000000000e+03 9.408987045288085938e+00 1.387953567504882812e+01 3.403450846672058105e-01 -8.405902981758117676e-01 -1.500735580921173096e-01 5.155255794525146484e-01
5.330000000000000000e+03 2.174725532531738281e+01 5.755753517150878906e+00 4.805990159511566162e-01 -2.226194832473993301e-03 1.435118466615676880e-01 2.272392362356185913e-01
5.331000000000000000e+03 2.118720436096191406e+01 6.906982421875000000e+00 6.057655811309814453e-01 -4.694130644202232361e-02 1.676472723484039307e-01 2.027285695075988770e-01
5.332000000000000000e+03 3.856306838989257812e+01 -1.115214920043945312e+01 -1.340902805328369141e+00 4.692186355590820312e+00 1.005385160446166992e+00 -1.415952920913696289e+00
5.333000000000000000e+03 2.047076034545898438e+01 6.888047695159912109e+00 5.612375140190124512e-01 -2.070971578359603882e-01 1.062421128153800964e-01 2.669816613197326660e-01
5.334000000000000000e+03 2.012035179138183594e+01 8.585960388183593750e+00 7.335957288742065430e-01 -1.303980499505996704e-01 1.809592992067337036e-01 2.086862325668334961e-01
5.335000000000000000e+03 3.124844360351562500e+01 -4.665835857391357422e+00 -8.326490521430969238e-01 2.396314144134521484e+00 4.690995216369628906e-01 -4.578215256333351135e-02
5.336000000000000000e+03 3.052061843872070312e+01 -1.393977999687194824e+00 -4.326455295085906982e-01 2.436114549636840820e+00 6.010407209396362305e-01 -4.795524477958679199e-02
5.337000000000000000e+03 2.577324295043945312e+01 2.320966958999633789e+00 7.096890360116958618e-02 9.305367469787597656e-01 3.004516959190368652e-01 1.164755448698997498e-01
5.338000000000000000e+03 2.507193756103515625e+01 3.034133911132812500e+00 1.733510643243789673e-01 7.462577819824218750e-01 2.758826613426208496e-01 1.288541257381439209e-01
5.339000000000000000e+03 1.868475151062011719e+01 8.926086425781250000e+00 6.890593767166137695e-01 -3.347398340702056885e-01 1.062958613038063049e-01 3.036168813705444336e-01
5.340000000000000000e+03 1.837726402282714844e+01 7.893933296203613281e+00 5.605706572532653809e-01 -4.889214038848876953e-01 2.149478159844875336e-02 3.901643455028533936e-01
5.341000000000000000e+03 2.434445190429687500e+01 3.746538877487182617e+00 2.699284553527832031e-01 5.480818152427673340e-01 2.454030811786651611e-01 1.370432972908020020e-01
5.342000000000000000e+03 2.357616806030273438e+01 4.449792385101318359e+00 3.567717671394348145e-01 3.792158067226409912e-01 2.207962721586227417e-01 1.510653197765350342e-01
5.343000000000000000e+03 2.763851356506347656e+01 1.539677262306213379e+00 1.173977390863001347e-03 1.552756667137145996e+00 4.661791622638702393e-01 4.246838018298149109e-02
5.344000000000000000e+03 1.016317844390869141e+01 1.057181167602539062e+01 2.909208238124847412e-01 -8.475233316421508789e-01 -1.669807434082031250e-01 6.950812935829162598e-01
5.345000000000000000e+03 3.201837921142578125e+01 -4.395179271697998047e+00 -8.024402260780334473e-01 2.738151550292968750e+00 5.807133913040161133e-01 -1.497153043746948242e-01
5.346000000000000000e+03 4.100266265869140625e+01 -3.440446138381958008e+00 -7.217000722885131836e-01 5.680894374847412109e+00 1.487758278846740723e+00 -1.161518335342407227e+00
5.347000000000000000e+03 2.884093093872070312e+01 2.926787137985229492e-01 -1.864471584558486938e-01 1.933173775672912598e+00 5.240179896354675293e-01 2.038136497139930725e-02
5.348000000000000000e+03 2.826272964477539062e+01 8.890310525894165039e-01 -1.035320088267326355e-01 1.736311912536621094e+00 4.898339807987213135e-01 2.507021091878414154e-02
5.349000000000000000e+03 3.361203765869140625e+01 9.903691291809082031e+00 1.655924677848815918e+00 4.367424964904785156e+00 1.807004928588867188e+00 -6.184656620025634766e-01
5.350000000000000000e+03 3.150431060791015625e+01 -2.815663337707519531e+00 -6.240307688713073730e-01 2.699934005737304688e+00 6.227709650993347168e-01 -1.044303476810455322e-01
5.351000000000000000e+03 3.173340225219726562e+01 -3.601840734481811523e+00 -7.119833230972290039e-01 2.722078800201416016e+00 6.030285954475402832e-01 -1.233242377638816833e-01
5.352000000000000000e+03 3.001695060729980469e+01 1.595306968688964844e+01 1.350668787956237793e+00 3.094620466232299805e+00 1.333586812019348145e+00 -8.121837377548217773e-01
5.353000000000000000e+03 3.107558822631835938e+01 1.536861515045166016e+01 1.430436372756958008e+00 3.458308458328247070e+00 1.466623544692993164e+00 -8.297934532165527344e-01
5.354000000000000000e+03 1.361665534973144531e+01 9.660636901855468750e+00 4.368820190429687500e-01 -7.906338572502136230e-01 -1.061255484819412231e-01 6.368765830993652344e-01
5.355000000000000000e+03 3.154697990417480469e+01 1.397886657714843750e+01 1.535683989524841309e+00 3.585276365280151367e+00 1.536288142204284668e+00 -7.903124690055847168e-01
5.356000000000000000e+03 1.007570171356201172e+01 2.806732749938964844e+01 1.173543930053710938e-01 -5.039964318275451660e-01 -1.159926205873489380e-01 -9.190350025892257690e-02
5.357000000000000000e+03 3.261784362792968750e+01 9.827357292175292969e+00 1.571735739707946777e+00 3.878101348876953125e+00 1.634951114654541016e+00 -5.748573541641235352e-01
5.358000000000000000e+03 1.099219131469726562e+01 2.939121818542480469e+01 8.827881515026092529e-02 -3.282362520694732666e-01 -7.198723405599594116e-02 -1.145819127559661865e-01
5.359000000000000000e+03 1.241099929809570312e+01 3.050706863403320312e+01 6.395236402750015259e-02 -3.654482215642929077e-02 8.222263306379318237e-03 -1.645158231258392334e-01
5.360000000000000000e+03 3.249365997314453125e+01 2.148069000244140625e+01 7.177490592002868652e-01 3.984717845916748047e+00 1.410740017890930176e+00 -8.520569801330566406e-01
5.361000000000000000e+03 3.132914543151855469e+01 1.810409164428710938e+01 1.186844110488891602e+00 3.634911537170410156e+00 1.446526765823364258e+00 -8.785971403121948242e-01
5.362000000000000000e+03 3.401791000366210938e+01 3.522867202758789062e+01 -8.959698081016540527e-01 3.671882629394531250e+00 8.327738642692565918e-01 -3.318100869655609131e-01
5.363000000000000000e+03 4.061182785034179688e+01 -9.088196754455566406e+00 -1.525343060493469238e+00 5.506927490234375000e+00 1.194475412368774414e+00 -1.101403236389160156e+00
5.364000000000000000e+03 3.410394287109375000e+01 -9.822281837463378906e+00 -9.134511947631835938e-01 2.629637002944946289e+00 5.148557424545288086e-01 -5.598325729370117188e-01
5.365000000000000000e+03 1.077179336547851562e+01 1.243699359893798828e+01 3.973979353904724121e-01 -8.037425875663757324e-01 -1.219034045934677124e-01 5.777949690818786621e-01
5.366000000000000000e+03 3.312477874755859375e+01 -4.906551361083984375e+00 -8.442036509513854980e-01 3.096721887588500977e+00 6.757555007934570312e-01 -2.830172181129455566e-01
5.367000000000000000e+03 3.526163864135742188e+01 -7.076460838317871094e+00 -1.009787559509277344e+00 3.626950263977050781e+00 7.851487994194030762e-01 -6.285067200660705566e-01
5.368000000000000000e+03 4.046673202514648438e+01 -6.899712085723876953e+00 -1.245443463325500488e+00 5.398895740509033203e+00 1.246035575866699219e+00 -1.028325200080871582e+00
5.369000000000000000e+03 9.632687568664550781e+00 1.489421844482421875e+01 3.611417412757873535e-01 -8.147515058517456055e-01 -1.360829323530197144e-01 4.545100033283233643e-01
5.370000000000000000e+03 5.082903671264648438e+01 -2.186849594116210938e+01 1.411826372146606445e+00 3.609136819839477539e+00 1.506289005279541016e+00 -9.572589993476867676e-01
5.371000000000000000e+03 1.246996212005615234e+01 1.001487064361572266e+01 3.950536251068115234e-01 -8.175487518310546875e-01 -1.267485469579696655e-01 6.704207062721252441e-01
5.372000000000000000e+03 3.922551727294921875e+01 -8.110192418098449707e-01 -3.702757954597473145e-01 5.709751605987548828e+00 1.601842761039733887e+00 -1.015654325485229492e+00
5.373000000000000000e+03 3.902961349487304688e+01 -6.212786674499511719e+00 -1.127199411392211914e+00 5.053798198699951172e+00 1.177979588508605957e+00 -9.728359580039978027e-01
5.374000000000000000e+03 4.047802734375000000e+01 -5.091779708862304688e+00 -1.004270792007446289e+00 5.452589035034179688e+00 1.334495425224304199e+00 -1.040142059326171875e+00
5.375000000000000000e+03 4.157475280761718750e+01 -5.387627601623535156e+00 -9.921209216117858887e-01 5.609551429748535156e+00 1.385229110717773438e+00 -1.080272555351257324e+00
5.376000000000000000e+03 3.738623046875000000e+01 -1.073504447937011719e+01 -1.168629169464111328e+00 4.089415073394775391e+00 8.762357234954833984e-01 -1.282559633255004883e+00
5.377000000000000000e+03 3.603474807739257812e+01 -9.282811164855957031e+00 -1.070983767509460449e+00 3.608519315719604492e+00 7.612606883049011230e-01 -8.909686803817749023e-01
5.378000000000000000e+03 4.348754882812500000e+01 -1.118850803375244141e+01 -1.902746558189392090e+00 6.322993755340576172e+00 1.326074123382568359e+00 -6.973825097084045410e-01
5.379000000000000000e+03 1.122216510772705078e+01 1.921998977661132812e+01 3.993955850601196289e-01 -5.667488574981689453e-01 -5.020596832036972046e-02 1.721346378326416016e-01
5.380000000000000000e+03 3.349993515014648438e+01 -8.309399604797363281e+00 -9.486874938011169434e-01 2.703423261642456055e+00 5.264207124710083008e-01 -3.890130221843719482e-01
5.381000000000000000e+03 4.082810974121093750e+01 -5.510524749755859375e+00 -1.046493053436279297e+00 5.494020938873291016e+00 1.334258317947387695e+00 -1.045993685722351074e+00
5.382000000000000000e+03 3.737205123901367188e+01 2.708473205566406250e+00 3.467275202274322510e-01 5.669312000274658203e+00 1.804811835289001465e+00 -6.894112229347229004e-01
5.383000000000000000e+03 2.311604309082031250e+01 7.554694652557373047e+00 7.768601179122924805e-01 4.521134793758392334e-01 3.686920702457427979e-01 3.009882569313049316e-02
5.384000000000000000e+03 2.087857627868652344e+01 6.249298095703125000e+00 5.035866498947143555e-01 -1.667032688856124878e-01 1.010650098323822021e-01 2.660672366619110107e-01
5.385000000000000000e+03 4.944813537597656250e+01 -2.251907730102539062e+01 1.900428891181945801e+00 4.818026542663574219e+00 2.015536546707153320e+00 -1.215623140335083008e+00
5.386000000000000000e+03 5.115986633300781250e+01 -2.364676666259765625e+01 2.175119161605834961e+00 3.739078283309936523e+00 1.774259209632873535e+00 -9.637374281883239746e-01
5.387000000000000000e+03 5.163817214965820312e+01 -2.479651451110839844e+01 2.466524600982666016e+00 3.847705602645874023e+00 1.894269108772277832e+00 -8.520942926406860352e-01
5.388000000000000000e+03 3.686988830566406250e+01 4.554957866668701172e+00 8.240604400634765625e-01 5.725523471832275391e+00 1.964875102043151855e+00 -6.020720005035400391e-01
5.389000000000000000e+03 3.632685470581054688e+01 5.338851451873779297e+00 1.018169641494750977e+00 5.513859272003173828e+00 1.959608674049377441e+00 -5.411686897277832031e-01
5.390000000000000000e+03 3.983887863159179688e+01 -1.063010120391845703e+01 -1.545967698097229004e+00 5.318525314331054688e+00 1.131767272949218750e+00 -1.303631186485290527e+00
5.391000000000000000e+03 4.171991729736328125e+01 -8.819050788879394531e+00 -1.537273049354553223e+00 5.734119415283203125e+00 1.259053826332092285e+00 -9.939422607421875000e-01
5.392000000000000000e+03 4.229854202270507812e+01 -9.691703796386718750e+00 -1.664234638214111328e+00 5.922574043273925781e+00 1.277501821517944336e+00 -9.421324133872985840e-01
5.393000000000000000e+03 4.145179748535156250e+01 -1.019748401641845703e+01 -1.688476562500000000e+00 5.827004432678222656e+00 1.241558432579040527e+00 -1.091859817504882812e+00
5.394000000000000000e+03 4.101959228515625000e+01 -9.707538604736328125e+00 -1.600307226181030273e+00 5.659247875213623047e+00 1.217682242393493652e+00 -1.106383919715881348e+00
5.395000000000000000e+03 4.054640960693359375e+01 -7.963253498077392578e+00 -1.382779240608215332e+00 5.424637794494628906e+00 1.212557554244995117e+00 -1.051200985908508301e+00
5.396000000000000000e+03 1.417923069000244141e+01 9.118996620178222656e+00 4.303925037384033203e-01 -8.033909797668457031e-01 -1.118995472788810730e-01 6.382781267166137695e-01
5.397000000000000000e+03 1.325456237792968750e+01 1.035614204406738281e+01 4.691667556762695312e-01 -7.706305980682373047e-01 -9.043915569782257080e-02 6.122512221336364746e-01
5.398000000000000000e+03 4.209555816650390625e+01 -1.041777324676513672e+01 -1.758371353149414062e+00 5.993342399597167969e+00 1.270491361618041992e+00 -1.004286289215087891e+00
5.399000000000000000e+03 5.186033630371093750e+01 -2.366692924499511719e+01 2.167664766311645508e+00 3.369575500488281250e+00 1.661172151565551758e+00 -7.775881886482238770e-01
5.400000000000000000e+03 3.387102508544921875e+01 7.025398731231689453e+00 1.296032309532165527e+00 4.356461524963378906e+00 1.695748090744018555e+00 -4.527756273746490479e-01
5.401000000000000000e+03 3.494841384887695312e+01 5.240317821502685547e+00 9.536358714103698730e-01 4.794964313507080078e+00 1.724580049514770508e+00 -4.362491071224212646e-01
5.402000000000000000e+03 1.618621826171875000e+01 9.435819625854492188e+00 5.892626047134399414e-01 -6.133410334587097168e-01 -7.223526481539011002e-03 4.774950444698333740e-01
5.403000000000000000e+03 1.459115695953369141e+01 9.719335556030273438e+00 5.115534067153930664e-01 -7.479578852653503418e-01 -7.092133909463882446e-02 5.712921619415283203e-01
5.404000000000000000e+03 1.797206306457519531e+01 9.837697982788085938e+00 7.076709866523742676e-01 -3.779105246067047119e-01 9.892813861370086670e-02 3.203859627246856689e-01
5.405000000000000000e+03 3.058829879760742188e+01 7.891471385955810547e-01 -5.406913161277770996e-02 2.634788990020751953e+00 7.742159366607666016e-01 -9.697843343019485474e-02
5.406000000000000000e+03 4.138179397583007812e+01 -1.130743885040283203e+01 -1.789841413497924805e+00 6.018793106079101562e+00 1.268685579299926758e+00 -1.193313121795654297e+00
5.407000000000000000e+03 3.132203483581542969e+01 -2.064741373062133789e+00 -5.239416956901550293e-01 2.703785181045532227e+00 6.539530754089355469e-01 -1.043612584471702576e-01
5.408000000000000000e+03 3.031190109252929688e+01 1.488161832094192505e-01 -1.668140739202499390e-01 2.472624540328979492e+00 6.917431354522705078e-01 -6.312882900238037109e-02
5.409000000000000000e+03 3.365919113159179688e+01 -6.537037849426269531e+00 -9.402383565902709961e-01 3.072259187698364258e+00 6.396062374114990234e-01 -3.758650124073028564e-01
5.410000000000000000e+03 1.119082260131835938e+01 2.403054428100585938e+01 2.638385593891143799e-01 -4.249888658523559570e-01 -4.834508895874023438e-02 -2.014345489442348480e-02
5.411000000000000000e+03 1.143853569030761719e+01 2.520872306823730469e+01 2.286724299192428589e-01 -3.447522819042205811e-01 -3.482395038008689880e-02 -5.928879231214523315e-02
5.412000000000000000e+03 3.883001327514648438e+01 -1.003240489959716797e+01 -1.393499255180358887e+00 4.879734516143798828e+00 1.045870542526245117e+00 -1.247712373733520508e+00
5.413000000000000000e+03 3.812625885009765625e+01 -1.042365264892578125e+01 -1.299543142318725586e+00 4.521875858306884766e+00 9.666997790336608887e-01 -1.278562664985656738e+00
5.414000000000000000e+03 3.739084625244140625e+01 -1.460344195365905762e+00 -4.745078384876251221e-01 5.073627948760986328e+00 1.379736065864562988e+00 -7.381314635276794434e-01
5.415000000000000000e+03 2.030783843994140625e+01 7.674756526947021484e+00 6.458547711372375488e-01 -1.795760095119476318e-01 1.398836374282836914e-01 2.401787787675857544e-01
5.416000000000000000e+03 3.059940528869628906e+01 -7.055414319038391113e-01 -3.192701637744903564e-01 2.510744571685791016e+00 6.574423313140869141e-01 -6.875599920749664307e-02
5.417000000000000000e+03 3.633897781372070312e+01 -8.300703048706054688e+00 -1.102159857749938965e+00 3.885687112808227539e+00 8.350581526756286621e-01 -8.477402329444885254e-01
5.418000000000000000e+03 8.934403419494628906e+00 -8.975248336791992188e+00 1.363675801258068532e-05 4.457026807358488441e-05 1.746210728015284985e-05 2.256154948554467410e-05
5.419000000000000000e+03 2.273609924316406250e+01 5.168316841125488281e+00 4.350764751434326172e-01 1.986257284879684448e-01 1.901106685400009155e-01 1.745619624853134155e-01
5.420000000000000000e+03 2.338931274414062500e+01 5.802980422973632812e+00 5.602453351020812988e-01 4.164700508117675781e-01 2.930146157741546631e-01 1.040208041667938232e-01
5.421000000000000000e+03 2.490925788879394531e+01 4.373593330383300781e+00 4.116117358207702637e-01 7.777251005172729492e-01 3.568010628223419189e-01 7.515097409486770630e-02
5.422000000000000000e+03 1.095889663696289062e+01 1.009408283233642578e+01 3.148588836193084717e-01 -8.457536101341247559e-01 -1.592684090137481689e-01 7.109732627868652344e-01
5.423000000000000000e+03 3.265855407714843750e+01 -5.955702304840087891e+00 -9.046956300735473633e-01 2.761398077011108398e+00 5.570107102394104004e-01 -2.192609906196594238e-01
5.424000000000000000e+03 1.117195987701416016e+01 1.686157989501953125e+01 4.529213011264801025e-01 -6.501149535179138184e-01 -5.915810540318489075e-02 3.009080588817596436e-01
5.425000000000000000e+03 9.684460639953613281e+00 1.981624603271484375e+01 3.160649836063385010e-01 -7.228000164031982422e-01 -1.220205128192901611e-01 1.838683784008026123e-01
5.426000000000000000e+03 1.067102146148681641e+01 2.183208084106445312e+01 3.139348328113555908e-01 -5.578264594078063965e-01 -7.316748797893524170e-02 6.993311643600463867e-02
5.427000000000000000e+03 2.416562461853027344e+01 5.104546546936035156e+00 4.802905619144439697e-01 5.749908685684204102e-01 3.165844380855560303e-01 7.950966060161590576e-02
5.428000000000000000e+03 2.942250823974609375e+01 2.289213657379150391e+00 2.060127258300781250e-01 2.259067058563232422e+00 7.395239472389221191e-01 -7.275930792093276978e-02
5.429000000000000000e+03 2.685739326477050781e+01 3.530723333358764648e+00 3.521986901760101318e-01 1.372578501701354980e+00 5.174331665039062500e-01 -1.436939928680658340e-04
5.430000000000000000e+03 3.311654281616210938e+01 7.432534694671630859e+00 1.344106197357177734e+00 4.042568206787109375e+00 1.616002321243286133e+00 -4.264290034770965576e-01
5.431000000000000000e+03 3.389257812500000000e+01 8.266205787658691406e+00 1.492349267005920410e+00 4.411319732666015625e+00 1.771100640296936035e+00 -5.159391760826110840e-01
5.432000000000000000e+03 3.210472869873046875e+01 -1.806039571762084961e+00 -4.787903428077697754e-01 3.045671939849853516e+00 7.700644731521606445e-01 -1.733395159244537354e-01
5.433000000000000000e+03 4.055189895629882812e+01 -1.043948411941528320e+00 -3.691831529140472412e-01 5.939628124237060547e+00 1.671133518218994141e+00 -1.217961311340332031e+00
5.434000000000000000e+03 3.335886764526367188e+01 -1.656478285789489746e+00 -4.474899470806121826e-01 3.549706220626831055e+00 9.306648969650268555e-01 -2.906672358512878418e-01
5.435000000000000000e+03 1.020275688171386719e+01 1.366369152069091797e+01 3.846141695976257324e-01 -8.047775626182556152e-01 -1.260490119457244873e-01 5.147893428802490234e-01
5.436000000000000000e+03 1.043335628509521484e+01 1.469558620452880859e+01 4.036389291286468506e-01 -7.689490318298339844e-01 -1.095930263400077820e-01 4.515058994293212891e-01
5.437000000000000000e+03 2.883938980102539062e+01 1.550641655921936035e+00 4.347863048315048218e-02 2.007819414138793945e+00 6.153894066810607910e-01 -3.276548162102699280e-02
5.438000000000000000e+03 1.033911609649658203e+01 1.900961112976074219e+01 3.637662231922149658e-01 -6.709492206573486328e-01 -9.215489774942398071e-02 2.086768150329589844e-01
5.439000000000000000e+03 2.004396438598632812e+01 9.596344947814941406e+00 8.140642046928405762e-01 -5.458584800362586975e-02 2.278435081243515015e-01 1.578837335109710693e-01
5.440000000000000000e+03 3.564567565917968750e+01 4.640560150146484375e+00 8.378298282623291016e-01 5.071514606475830078e+00 1.772803306579589844e+00 -4.717030525207519531e-01
5.441000000000000000e+03 2.744941520690917969e+01 2.272763824462890625e+01 6.294817328453063965e-01 2.552444458007812500e+00 9.545778036117553711e-01 -8.024313449859619141e-01
5.442000000000000000e+03 3.007827186584472656e+01 2.238258743286132812e+01 6.492553949356079102e-01 3.256553888320922852e+00 1.171742796897888184e+00 -8.650945425033569336e-01
5.443000000000000000e+03 1.703514289855957031e+01 9.712676048278808594e+00 6.594032049179077148e-01 -4.979703724384307861e-01 4.842984676361083984e-02 3.913812637329101562e-01
5.444000000000000000e+03 3.090877342224121094e+01 2.084493637084960938e+01 8.335290551185607910e-01 3.490423440933227539e+00 1.297185659408569336e+00 -8.868331313133239746e-01
5.445000000000000000e+03 3.022563552856445312e+01 1.133474636077880859e+01 1.477069735527038574e+00 2.936034917831420898e+00 1.323931336402893066e+00 -5.817074775695800781e-01
5.446000000000000000e+03 1.190597248077392578e+01 2.811952590942382812e+01 1.313284337520599365e-01 -1.827037483453750610e-01 -1.541259512305259705e-02 -1.289341747760772705e-01
5.447000000000000000e+03 1.099524402618408203e+01 2.733289909362792969e+01 1.594035327434539795e-01 -3.542024791240692139e-01 -5.843967944383621216e-02 -1.003078892827033997e-01
5.448000000000000000e+03 1.314271354675292969e+01 2.882391548156738281e+01 1.276392787694931030e-01 2.422276325523853302e-02 4.555861279368400574e-02 -1.748964935541152954e-01
5.449000000000000000e+03 2.960845184326171875e+01 1.482890033721923828e+01 1.405703544616699219e+00 2.895539283752441406e+00 1.290372848510742188e+00 -7.492129802703857422e-01
5.450000000000000000e+03 3.066281700134277344e+01 1.438853549957275391e+01 1.473393559455871582e+00 3.269351243972778320e+00 1.422823429107666016e+00 -7.768104672431945801e-01
5.451000000000000000e+03 3.034205055236816406e+01 1.882389450073242188e+01 1.059263825416564941e+00 3.232708692550659180e+00 1.287591695785522461e+00 -8.653777837753295898e-01
5.452000000000000000e+03 3.208827972412109375e+01 3.164681243896484375e+01 -5.085718035697937012e-01 3.561201810836791992e+00 9.157890081405639648e-01 -5.615451931953430176e-01
5.453000000000000000e+03 1.098432731628417969e+01 1.344652652740478516e+01 4.305195510387420654e-01 -7.659606337547302246e-01 -1.006323248147964478e-01 5.094838142395019531e-01
5.454000000000000000e+03 1.156959629058837891e+01 1.223294639587402344e+01 4.434924423694610596e-01 -7.690813541412353516e-01 -9.767668694257736206e-02 5.651082396507263184e-01
5.455000000000000000e+03 3.704214477539062500e+01 -9.856084823608398438e+00 -1.165068864822387695e+00 4.019283771514892578e+00 8.562644124031066895e-01 -1.095833778381347656e+00
5.456000000000000000e+03 4.986341476440429688e+01 -2.102170944213867188e+01 9.571398496627807617e-01 4.307240486145019531e+00 1.579314112663269043e+00 -9.409554004669189453e-01
5.457000000000000000e+03 4.031405258178710938e+01 -1.637358903884887695e+00 -4.695109724998474121e-01 5.809201240539550781e+00 1.601907014846801758e+00 -1.161015629768371582e+00
5.458000000000000000e+03 4.110390090942382812e+01 -8.465133666992187500e+00 -1.468222141265869141e+00 5.575156688690185547e+00 1.232080340385437012e+00 -1.034525990486145020e+00
5.459000000000000000e+03 1.136628627777099609e+01 1.113189888000488281e+01 3.860520422458648682e-01 -8.133327960968017578e-01 -1.281842291355133057e-01 6.422424316406250000e-01
5.460000000000000000e+03 3.772690200805664062e+01 -9.548539161682128906e+00 -1.243920326232910156e+00 4.360982894897460938e+00 9.351187944412231445e-01 -1.141962885856628418e+00
5.461000000000000000e+03 1.140848255157470703e+01 2.031680297851562500e+01 3.875689804553985596e-01 -5.156980752944946289e-01 -3.843872621655464172e-02 1.179864332079887390e-01
5.462000000000000000e+03 3.685543441772460938e+01 9.947912096977233887e-01 -1.355347409844398499e-02 5.212644100189208984e+00 1.559727191925048828e+00 -6.380986571311950684e-01
5.463000000000000000e+03 3.738708496093750000e+01 4.571679830551147461e-01 -1.421066373586654663e-01 5.328594684600830078e+00 1.555946469306945801e+00 -7.209198474884033203e-01
5.464000000000000000e+03 3.998632049560546875e+01 -6.367166996002197266e+00 -1.164795279502868652e+00 5.287974834442138672e+00 1.236953973770141602e+00 -1.016451358795166016e+00
5.465000000000000000e+03 4.042533874511718750e+01 -5.926232814788818359e+00 -1.116676449775695801e+00 5.406640529632568359e+00 1.286989212036132812e+00 -1.025532603263854980e+00
5.466000000000000000e+03 3.172547912597656250e+01 9.483513832092285156e+00 1.474523782730102539e+00 3.470395565032958984e+00 1.483475804328918457e+00 -5.192075967788696289e-01
5.467000000000000000e+03 3.833097076416015625e+01 -6.722650527954101562e-01 -3.514261543750762939e-01 5.463424205780029297e+00 1.533599376678466797e+00 -8.677275180816650391e-01
5.468000000000000000e+03 3.626491165161132812e+01 3.984620809555053711e+00 6.828022599220275879e-01 5.356723308563232422e+00 1.811857700347900391e+00 -5.214994549751281738e-01
5.469000000000000000e+03 4.101788330078125000e+01 -1.884996533393859863e+00 -4.823309779167175293e-01 5.872905254364013672e+00 1.617172360420227051e+00 -1.251965165138244629e+00
5.470000000000000000e+03 3.970555877685546875e+01 -1.299005627632141113e+00 -4.346797466278076172e-01 5.738876819610595703e+00 1.591259121894836426e+00 -1.082448244094848633e+00
5.471000000000000000e+03 3.142479324340820312e+01 1.314242267608642578e+01 1.556764960289001465e+00 3.510857343673706055e+00 1.520286679267883301e+00 -7.376623153686523438e-01
5.472000000000000000e+03 2.922462081909179688e+01 1.260107421875000000e+01 1.438198328018188477e+00 2.627954721450805664e+00 1.219845890998840332e+00 -6.087825894355773926e-01
5.473000000000000000e+03 4.001754760742187500e+01 -7.432743072509765625e+00 -1.293814659118652344e+00 5.274296283721923828e+00 1.194144487380981445e+00 -1.034262061119079590e+00
5.474000000000000000e+03 3.959725189208984375e+01 -9.129737854003906250e+00 -1.436114311218261719e+00 5.165277004241943359e+00 1.118748784065246582e+00 -1.145890951156616211e+00
5.475000000000000000e+03 1.520217704772949219e+01 9.736503601074218750e+00 5.427580475807189941e-01 -6.847936511039733887e-01 -4.261067882180213928e-02 5.311906337738037109e-01
5.476000000000000000e+03 4.199972534179687500e+01 -1.109510231018066406e+01 -1.821952819824218750e+00 6.110710620880126953e+00 1.286627292633056641e+00 -1.084256768226623535e+00
5.477000000000000000e+03 3.929738998413085938e+01 -1.876253366470336914e+00 -5.447573065757751465e-01 5.562591552734375000e+00 1.505350232124328613e+00 -1.004077315330505371e+00
5.478000000000000000e+03 3.234428787231445312e+01 -5.177636623382568359e+00 -8.570261597633361816e-01 2.745498418807983398e+00 5.665417313575744629e-01 -1.861750632524490356e-01
5.479000000000000000e+03 5.027176666259765625e+01 -2.298698425292968750e+01 1.996873021125793457e+00 4.197374820709228516e+00 1.858274340629577637e+00 -1.139491677284240723e+00
5.480000000000000000e+03 2.620937156677246094e+01 4.240445613861083984e+00 4.474174082279205322e-01 1.188196301460266113e+00 4.906841218471527100e-01 -5.550515372306108475e-03
5.481000000000000000e+03 2.697510528564453125e+01 2.221703290939331055e+00 1.084196567535400391e-01 1.346980690956115723e+00 4.366200864315032959e-01 5.025182291865348816e-02
5.482000000000000000e+03 1.202705287933349609e+01 2.264314842224121094e+01 3.391358256340026855e-01 -3.519140481948852539e-01 -3.833472495898604393e-03 -4.268291406333446503e-03
5.483000000000000000e+03 3.443346786499023438e+01 -8.898179054260253906e+00 -9.643199443817138672e-01 2.982840776443481445e+00 6.055562496185302734e-01 -5.936846137046813965e-01
5.484000000000000000e+03 3.472486114501953125e+01 -9.631566047668457031e+00 -9.650894403457641602e-01 2.955347299575805664e+00 5.970773696899414062e-01 -6.772332191467285156e-01
5.485000000000000000e+03 1.904207420349121094e+01 1.068822956085205078e+01 8.371382355690002441e-01 -1.285010576248168945e-01 2.125911563634872437e-01 1.737588047981262207e-01
5.486000000000000000e+03 1.149554920196533203e+01 1.544478702545166016e+01 4.708171188831329346e-01 -6.664676666259765625e-01 -5.869516730308532715e-02 3.719683289527893066e-01
5.487000000000000000e+03 3.360793685913085938e+01 5.012718677520751953e+00 8.740917444229125977e-01 4.148741245269775391e+00 1.506849884986877441e+00 -3.466532528400421143e-01
5.488000000000000000e+03 1.226784515380859375e+01 1.104981994628906250e+01 4.370086193084716797e-01 -7.850871086120605469e-01 -1.044235378503799438e-01 6.181209683418273926e-01
5.489000000000000000e+03 3.119790840148925781e+01 -1.351242423057556152e+00 -4.202847480773925781e-01 2.744979381561279297e+00 6.974083781242370605e-01 -1.054074019193649292e-01
5.490000000000000000e+03 3.172341537475585938e+01 -5.695138573646545410e-01 -2.879074811935424805e-01 2.983917236328125000e+00 8.088029623031616211e-01 -1.563605368137359619e-01
5.491000000000000000e+03 3.235571289062500000e+01 -2.561601638793945312e+00 -5.766224265098571777e-01 3.072703599929809570e+00 7.488242983818054199e-01 -1.964321732521057129e-01
5.492000000000000000e+03 3.114528083801269531e+01 -6.629446148872375488e-01 -2.997083365917205811e-01 2.775632619857788086e+00 7.427772879600524902e-01 -1.092059314250946045e-01
5.493000000000000000e+03 4.008037948608398438e+01 -9.584102630615234375e+00 -1.514234185218811035e+00 5.358414649963378906e+00 1.153254151344299316e+00 -1.178581118583679199e+00
5.494000000000000000e+03 3.951501846313476562e+01 -6.851031303405761719e+00 -1.221745252609252930e+00 5.173010826110839844e+00 1.185379743576049805e+00 -1.009912490844726562e+00
5.495000000000000000e+03 1.594577980041503906e+01 1.013126564025878906e+01 6.189541220664978027e-01 -5.907052755355834961e-01 8.474642410874366760e-03 4.559697508811950684e-01
5.496000000000000000e+03 3.016896629333496094e+01 1.825647354125976562e+00 1.395175158977508545e-01 2.518821001052856445e+00 7.975015640258789062e-01 -9.797748923301696777e-02
5.497000000000000000e+03 3.950914764404296875e+01 -9.833436012268066406e+00 -1.472788929939270020e+00 5.145383358001708984e+00 1.101778388023376465e+00 -1.200690746307373047e+00
5.498000000000000000e+03 3.731657791137695312e+01 -8.735580444335937500e+00 -1.198457002639770508e+00 4.274793624877929688e+00 9.229010343551635742e-01 -1.002153635025024414e+00
5.499000000000000000e+03 2.561717796325683594e+01 3.639731407165527344e+00 3.099828660488128662e-01 9.623524546623229980e-01 3.817006051540374756e-01 6.013176217675209045e-02
5.500000000000000000e+03 2.630043029785156250e+01 2.923331022262573242e+00 2.128665745258331299e-01 1.149413704872131348e+00 4.086840748786926270e-01 5.666800960898399353e-02
5.501000000000000000e+03 3.180583190917968750e+01 -1.189241409301757812e+00 -3.855496346950531006e-01 2.966885566711425781e+00 7.744007706642150879e-01 -1.544203609228134155e-01
5.502000000000000000e+03 4.924449920654296875e+01 -2.124332237243652344e+01 1.200324416160583496e+00 4.912616729736328125e+00 1.833882331848144531e+00 -1.027027964591979980e+00
5.503000000000000000e+03 2.818284034729003906e+01 2.190170526504516602e+00 1.499156951904296875e-01 1.798137068748474121e+00 5.844157934188842773e-01 -1.423312537372112274e-02
5.504000000000000000e+03 2.528192138671875000e+01 7.424760341644287109e+00 8.711121678352355957e-01 1.068932175636291504e+00 5.820133090019226074e-01 -1.027050688862800598e-01
5.505000000000000000e+03 2.206899452209472656e+01 6.677497863769531250e+00 6.285669803619384766e-01 1.566122472286224365e-01 2.355537712574005127e-01 1.526700556278228760e-01
5.506000000000000000e+03 2.553841018676757812e+01 4.992520809173583984e+00 5.405618548393249512e-01 1.027013897895812988e+00 4.702727198600769043e-01 2.178172115236520767e-03
5.507000000000000000e+03 2.482139396667480469e+01 5.817613124847412109e+00 6.479969620704650879e-01 8.372563719749450684e-01 4.455759823322296143e-01 3.245979314669966698e-04
5.508000000000000000e+03 3.569090270996093750e+01 3.341841936111450195e+00 5.156319737434387207e-01 4.989153385162353516e+00 1.651435494422912598e+00 -4.681386947631835938e-01
5.509000000000000000e+03 1.120409488677978516e+01 1.445697879791259766e+01 4.452174901962280273e-01 -7.229501605033874512e-01 -8.331979066133499146e-02 4.436304271221160889e-01
5.510000000000000000e+03 3.415402221679687500e+01 -8.125628471374511719e+00 -9.759789705276489258e-01 3.002521753311157227e+00 6.079628467559814453e-01 -5.024722814559936523e-01
5.511000000000000000e+03 9.626735687255859375e+00 1.830477142333984375e+01 3.347134888172149658e-01 -7.667707204818725586e-01 -1.296171694993972778e-01 2.632181644439697266e-01
5.512000000000000000e+03 1.095268726348876953e+01 1.832414817810058594e+01 4.165679216384887695e-01 -6.220940947532653809e-01 -6.165785714983940125e-02 2.269036173820495605e-01
5.513000000000000000e+03 3.089431953430175781e+01 9.290337562561035156e+00 1.393954634666442871e+00 3.098148345947265625e+00 1.347630858421325684e+00 -4.743140339851379395e-01
5.514000000000000000e+03 3.480840682983398438e+01 -7.954773902893066406e+00 -1.000617742538452148e+00 3.304816007614135742e+00 6.912594437599182129e-01 -6.085512042045593262e-01
5.515000000000000000e+03 3.766356277465820312e+01 -2.066311359405517578e+00 -5.620691776275634766e-01 5.078742504119873047e+00 1.355002045631408691e+00 -7.814467549324035645e-01
5.516000000000000000e+03 4.056300735473632812e+01 -3.996603012084960938e+00 -8.365145325660705566e-01 5.541140556335449219e+00 1.411387801170349121e+00 -1.082315683364868164e+00
5.517000000000000000e+03 3.343910217285156250e+01 -5.716458797454833984e+00 -8.926194906234741211e-01 3.109347820281982422e+00 6.650184988975524902e-01 -3.335106372833251953e-01
5.518000000000000000e+03 3.635472488403320312e+01 3.718752264976501465e-01 -1.430030912160873413e-01 4.942328929901123047e+00 1.439797759056091309e+00 -5.809239149093627930e-01
5.519000000000000000e+03 2.119222640991210938e+01 7.726658344268798828e+00 7.013139724731445312e-01 2.304402180016040802e-02 2.173074036836624146e-01 1.589431315660476685e-01
5.520000000000000000e+03 3.079595947265625000e+01 8.437464714050292969e+00 1.310652017593383789e+00 3.025118112564086914e+00 1.300731062889099121e+00 -4.176846444606781006e-01
5.521000000000000000e+03 1.197779560089111328e+01 1.636145210266113281e+01 4.946374297142028809e-01 -5.983057618141174316e-01 -3.110049664974212646e-02 3.081831634044647217e-01
5.522000000000000000e+03 1.804075241088867188e+01 1.260394191741943359e+01 8.416478633880615234e-01 -1.357325315475463867e-01 2.117746025323867798e-01 1.524555534124374390e-01
5.523000000000000000e+03 2.945071792602539062e+01 1.778777694702148438e+01 1.187972307205200195e+00 2.954018115997314453e+00 1.242597103118896484e+00 -8.393755555152893066e-01
5.524000000000000000e+03 3.060275650024414062e+01 1.703258323669433594e+01 1.292848348617553711e+00 3.340552330017089844e+00 1.390020251274108887e+00 -8.578018546104431152e-01
5.525000000000000000e+03 3.417094039916992188e+01 5.769736766815185547e+00 1.070773482322692871e+00 4.456034660339355469e+00 1.658042430877685547e+00 -3.959093987941741943e-01
5.526000000000000000e+03 2.111972045898437500e+01 9.588814735412597656e+00 8.693513274192810059e-01 1.587568074464797974e-01 3.084324300289154053e-01 7.271315902471542358e-02
5.527000000000000000e+03 1.244980716705322266e+01 2.494005775451660156e+01 2.654256522655487061e-01 -2.030071020126342773e-01 1.872556470334529877e-02 -8.753411471843719482e-02
5.528000000000000000e+03 1.147031784057617188e+01 2.637893867492675781e+01 1.988330781459808350e-01 -2.960324585437774658e-01 -2.915981039404869080e-02 -9.090094268321990967e-02
5.529000000000000000e+03 1.174999904632568359e+01 2.148784255981445312e+01 3.653252720832824707e-01 -4.290235638618469238e-01 -1.910948753356933594e-02 5.172732099890708923e-02
5.530000000000000000e+03 3.144307327270507812e+01 1.214165592193603516e+01 1.571758270263671875e+00 3.477285146713256836e+00 1.514713048934936523e+00 -6.909229159355163574e-01
5.531000000000000000e+03 2.946308326721191406e+01 1.994289588928222656e+01 9.366937875747680664e-01 3.013716697692871094e+00 1.185123085975646973e+00 -8.572591543197631836e-01
5.532000000000000000e+03 3.457845687866210938e+01 -7.184945583343505859e+00 -9.843174219131469727e-01 3.330994606018066406e+00 7.040030956268310547e-01 -5.331701040267944336e-01
5.533000000000000000e+03 4.005659484863281250e+01 -3.603011369705200195e+00 -8.035523295402526855e-01 5.497938632965087891e+00 1.408315896987915039e+00 -1.046057701110839844e+00
5.534000000000000000e+03 3.741772460937500000e+01 -5.730355978012084961e-01 -3.291701674461364746e-01 5.183622360229492188e+00 1.456335663795471191e+00 -7.350823283195495605e-01
5.535000000000000000e+03 4.045426940917968750e+01 -3.119135141372680664e+00 -6.819257736206054688e-01 5.647325515747070312e+00 1.489619970321655273e+00 -1.118168830871582031e+00
5.536000000000000000e+03 1.254303264617919922e+01 1.314798927307128906e+01 5.206463932991027832e-01 -6.761525869369506836e-01 -4.665186628699302673e-02 4.730185568332672119e-01
5.537000000000000000e+03 3.134589195251464844e+01 1.105156135559082031e+01 1.545171976089477539e+00 3.376956224441528320e+00 1.476638436317443848e+00 -6.081406474113464355e-01
5.538000000000000000e+03 2.806137275695800781e+01 3.474860429763793945e+00 3.883882164955139160e-01 1.825495362281799316e+00 6.641650795936584473e-01 -5.798470601439476013e-02
5.539000000000000000e+03 3.318022537231445312e+01 -5.962457060813903809e-01 -2.594447433948516846e-01 3.601823568344116211e+00 1.002713680267333984e+00 -2.779813408851623535e-01
5.540000000000000000e+03 3.690764236450195312e+01 -1.030768230557441711e-01 -2.346849590539932251e-01 5.075292587280273438e+00 1.452182292938232422e+00 -6.594631671905517578e-01
5.541000000000000000e+03 3.668663787841796875e+01 -9.044189453125000000e+00 -1.131496906280517578e+00 3.939765214920043945e+00 8.424804806709289551e-01 -9.702462553977966309e-01
5.542000000000000000e+03 3.901051712036132812e+01 -7.366866111755371094e+00 -1.248961329460144043e+00 4.994364738464355469e+00 1.123621106147766113e+00 -1.017180681228637695e+00
5.543000000000000000e+03 3.515691757202148438e+01 -6.350016117095947266e+00 -9.804811477661132812e-01 3.682047843933105469e+00 8.104699850082397461e-01 -5.787086486816406250e-01
5.544000000000000000e+03 3.440195465087890625e+01 -6.408714771270751953e+00 -9.508941769599914551e-01 3.371642589569091797e+00 7.262245416641235352e-01 -4.813487529754638672e-01
5.545000000000000000e+03 3.953585052490234375e+01 -5.762152671813964844e+00 -1.094183325767517090e+00 5.223014831542968750e+00 1.238649487495422363e+00 -9.885904192924499512e-01
5.546000000000000000e+03 4.116977310180664062e+01 -5.076246261596679688e+00 -9.656184315681457520e-01 5.584692955017089844e+00 1.385722279548645020e+00 -1.085764765739440918e+00
5.547000000000000000e+03 1.313619709014892578e+01 1.119397068023681641e+01 5.017221570014953613e-01 -7.378661036491394043e-01 -7.084318250417709351e-02 5.673475265502929688e-01
5.548000000000000000e+03 1.176091289520263672e+01 1.326479530334472656e+01 4.723731577396392822e-01 -7.240319252014160156e-01 -7.549762725830078125e-02 4.977658390998840332e-01
5.549000000000000000e+03 3.628511047363281250e+01 2.742356061935424805e+00 3.703574836254119873e-01 5.216947555541992188e+00 1.676191568374633789e+00 -5.382022261619567871e-01
5.550000000000000000e+03 3.578889465332031250e+01 8.879505395889282227e-01 -1.986102946102619171e-02 4.782473564147949219e+00 1.428783655166625977e+00 -5.069457292556762695e-01
5.551000000000000000e+03 4.047074127197265625e+01 -1.023770236968994141e+01 -1.602908134460449219e+00 5.541233539581298828e+00 1.181497573852539062e+00 -1.198664546012878418e+00
5.552000000000000000e+03 4.007353973388671875e+01 -8.541471481323242188e+00 -1.416803240776062012e+00 5.290310382843017578e+00 1.162052154541015625e+00 -1.085181951522827148e+00
5.553000000000000000e+03 1.338057613372802734e+01 2.364215278625488281e+01 3.406560122966766357e-01 -1.111528724431991577e-01 6.885094195604324341e-02 -9.107839316129684448e-02
5.554000000000000000e+03 1.258102035522460938e+01 1.579048156738281250e+01 5.266377925872802734e-01 -5.635104775428771973e-01 -1.106180530041456223e-02 3.115988373756408691e-01
5.555000000000000000e+03 1.269307804107666016e+01 1.726171302795410156e+01 5.286029577255249023e-01 -4.802877902984619141e-01 1.449455320835113525e-02 2.208681404590606689e-01
5.556000000000000000e+03 3.145652770996093750e+01 1.088991403579711914e+00 2.764535509049892426e-02 2.983765363693237305e+00 9.034232497215270996e-01 -1.569548845291137695e-01
5.557000000000000000e+03 3.427616119384765625e+01 -5.615667343139648438e+00 -9.040617942810058594e-01 3.435173749923706055e+00 7.593336105346679688e-01 -4.381856024265289307e-01
5.558000000000000000e+03 3.277610397338867188e+01 -4.137302398681640625e+00 -7.667911052703857422e-01 3.047464132308959961e+00 6.842018961906433105e-01 -2.418508976697921753e-01
5.559000000000000000e+03 3.504853820800781250e+01 3.931314229965209961e+00 6.621685624122619629e-01 4.740708351135253906e+00 1.620863080024719238e+00 -4.222777187824249268e-01
5.560000000000000000e+03 1.290971374511718750e+01 2.121234321594238281e+01 4.242033064365386963e-01 -2.831863760948181152e-01 4.230507463216781616e-02 1.670394279062747955e-02
5.561000000000000000e+03 3.973983001708984375e+01 -4.715632915496826172e+00 -9.538812637329101562e-01 5.337123870849609375e+00 1.314972877502441406e+00 -1.003795027732849121e+00
5.562000000000000000e+03 3.649841690063476562e+01 -7.304672598838806152e-01 -3.400711715221405029e-01 4.854673862457275391e+00 1.354380846023559570e+00 -6.136379837989807129e-01
5.563000000000000000e+03 3.877125549316406250e+01 -1.274610280990600586e+00 -4.524300098419189453e-01 5.506015777587890625e+00 1.516075849533081055e+00 -9.292656183242797852e-01
5.564000000000000000e+03 3.086438560485839844e+01 -1.580528169870376587e-01 -2.100953906774520874e-01 2.691845655441284180e+00 7.445250749588012695e-01 -9.462428092956542969e-02
5.565000000000000000e+03 3.239127349853515625e+01 1.990418434143066406e+00 2.284051626920700073e-01 3.448911905288696289e+00 1.103195071220397949e+00 -2.191962301731109619e-01
5.566000000000000000e+03 4.259581375122070312e+01 -1.080825042724609375e+01 -1.829446554183959961e+00 6.172840595245361328e+00 1.303018212318420410e+00 -9.147462248802185059e-01
5.567000000000000000e+03 3.087453842163085938e+01 1.456615924835205078e+00 8.886978030204772949e-02 2.781941175460815430e+00 8.612433075904846191e-01 -1.258411705493927002e-01
5.568000000000000000e+03 3.575262451171875000e+01 2.106137990951538086e+00 2.410491406917572021e-01 4.895410537719726562e+00 1.540937900543212891e+00 -4.881208240985870361e-01
5.569000000000000000e+03 2.010521125793457031e+01 1.063554191589355469e+01 8.816956281661987305e-01 4.311554506421089172e-02 2.774433493614196777e-01 9.842903167009353638e-02
5.570000000000000000e+03 1.897749328613281250e+01 9.716563224792480469e+00 7.598621845245361328e-01 -2.292519658803939819e-01 1.591830551624298096e-01 2.396762967109680176e-01
5.571000000000000000e+03 3.225062179565429688e+01 -7.970330119132995605e-01 -3.175932466983795166e-01 3.176180362701416016e+00 8.575761318206787109e-01 -1.916190683841705322e-01
5.572000000000000000e+03 3.191973304748535156e+01 1.704932153224945068e-01 -1.515279412269592285e-01 3.136086463928222656e+00 8.953675031661987305e-01 -1.751600950956344604e-01
5.573000000000000000e+03 1.495785236358642578e+01 1.023123264312744141e+01 5.606995820999145508e-01 -6.659677028656005859e-01 -3.158044815063476562e-02 5.143236517906188965e-01
5.574000000000000000e+03 3.435356903076171875e+01 4.485371589660644531e+00 7.810896635055541992e-01 4.451556205749511719e+00 1.569793701171875000e+00 -3.796325623989105225e-01
5.575000000000000000e+03 3.338108062744140625e+01 6.279375076293945312e+00 1.128377676010131836e+00 4.101124286651611328e+00 1.568850517272949219e+00 -3.863432407379150391e-01
5.576000000000000000e+03 3.544545364379882812e+01 -7.797624111175537109e+00 -1.040068626403808594e+00 3.595322608947753906e+00 7.665762305259704590e-01 -6.975157260894775391e-01
5.577000000000000000e+03 3.319459533691406250e+01 8.126964569091796875e+00 1.429758310317993164e+00 4.093575477600097656e+00 1.657000184059143066e+00 -4.773313701152801514e-01
5.578000000000000000e+03 3.572247314453125000e+01 -8.527547836303710938e+00 -1.051775455474853516e+00 3.581190586090087891e+00 7.588245272636413574e-01 -7.933189868927001953e-01
5.579000000000000000e+03 3.318153762817382812e+01 -2.428232669830322266e+00 -5.693807601928710938e-01 3.398436307907104492e+00 8.487166762351989746e-01 -2.729612290859222412e-01
5.580000000000000000e+03 3.273588180541992188e+01 -1.276968836784362793e+00 -3.932913839817047119e-01 3.342864513397216797e+00 8.848719596862792969e-01 -2.333602011203765869e-01
5.581000000000000000e+03 2.214278221130371094e+01 8.587742805480957031e+00 8.383130431175231934e-01 3.076092600822448730e-01 3.437767028808593750e-01 4.789552465081214905e-02
5.582000000000000000e+03 3.840418243408203125e+01 -9.159495353698730469e+00 -1.328313708305358887e+00 4.723739147186279297e+00 1.018627762794494629e+00 -1.133720874786376953e+00
5.583000000000000000e+03 3.900944900512695312e+01 -8.612728118896484375e+00 -1.349744439125061035e+00 4.958738327026367188e+00 1.082698225975036621e+00 -1.094629645347595215e+00
5.584000000000000000e+03 2.624446296691894531e+01 5.564393520355224609e+00 6.683298349380493164e-01 1.274282932281494141e+00 5.827838182449340820e-01 -6.467577815055847168e-02
5.585000000000000000e+03 2.686996841430664062e+01 4.836610794067382812e+00 5.688264369964599609e-01 1.431775808334350586e+00 6.001806855201721191e-01 -6.348195672035217285e-02
5.586000000000000000e+03 2.751414871215820312e+01 2.846838712692260742e+00 2.492579966783523560e-01 1.578958272933959961e+00 5.484648942947387695e-01 -4.014458507299423218e-03
5.587000000000000000e+03 2.562870216369628906e+01 6.411241054534912109e+00 7.798908352851867676e-01 1.118848204612731934e+00 5.696217417716979980e-01 -7.858959585428237915e-02
5.588000000000000000e+03 1.394772052764892578e+01 1.127675151824951172e+01 5.572889447212219238e-01 -6.821745038032531738e-01 -3.746566548943519592e-02 5.162822008132934570e-01
5.589000000000000000e+03 2.397811889648437500e+01 6.461613178253173828e+00 7.086552977561950684e-01 6.574743390083312988e-01 4.098389148712158203e-01 1.823050901293754578e-02
5.590000000000000000e+03 2.648512458801269531e+01 6.763455867767333984e+00 8.565329909324645996e-01 1.410171031951904297e+00 6.800112128257751465e-01 -1.403324902057647705e-01
5.591000000000000000e+03 2.872806549072265625e+01 2.870321273803710938e+00 2.982962131500244141e-01 2.014910221099853516e+00 6.939619779586791992e-01 -7.415345311164855957e-02
5.592000000000000000e+03 2.745435714721679688e+01 4.135095119476318359e+00 4.911059141159057617e-01 1.611203670501708984e+00 6.306928992271423340e-01 -5.270360037684440613e-02
5.593000000000000000e+03 2.993991279602050781e+01 1.070712208747863770e+00 -1.644624769687652588e-02 2.392967462539672852e+00 7.129563689231872559e-01 -6.557822227478027344e-02
5.594000000000000000e+03 1.216204929351806641e+01 1.512339019775390625e+01 5.070893168449401855e-01 -6.320471763610839844e-01 -3.748736158013343811e-02 3.690279126167297363e-01
5.595000000000000000e+03 3.348822784423828125e+01 -3.889618158340454102e+00 -7.490881085395812988e-01 3.332292079925537109e+00 7.749611735343933105e-01 -3.212869465351104736e-01
5.596000000000000000e+03 3.366476821899414062e+01 9.487192034721374512e-01 1.962383650243282318e-02 3.904923439025878906e+00 1.177364110946655273e+00 -3.038537502288818359e-01
5.597000000000000000e+03 3.998638153076171875e+01 -2.282343626022338867e+00 -5.875988006591796875e-01 5.636077404022216797e+00 1.514543533325195312e+00 -1.086312174797058105e+00
5.598000000000000000e+03 1.195301246643066406e+01 1.424315261840820312e+01 4.957081079483032227e-01 -6.744267940521240234e-01 -5.361561104655265808e-02 4.280870556831359863e-01
5.599000000000000000e+03 3.032747268676757812e+01 1.235310554504394531e+01 1.495648741722106934e+00 3.017232179641723633e+00 1.353864312171936035e+00 -6.456106901168823242e-01
5.600000000000000000e+03 1.909390640258789062e+01 1.168346309661865234e+01 8.721226453781127930e-01 -5.412383750081062317e-02 2.453996390104293823e-01 1.219747215509414673e-01
5.601000000000000000e+03 3.108357810974121094e+01 1.011802101135253906e+01 1.495647311210632324e+00 3.245757341384887695e+00 1.422421336174011230e+00 -5.421837568283081055e-01
5.602000000000000000e+03 3.043500900268554688e+01 1.337786293029785156e+01 1.506727814674377441e+00 3.124746799468994141e+00 1.389442443847656250e+00 -7.185816764831542969e-01
5.603000000000000000e+03 2.936008262634277344e+01 1.370079326629638672e+01 1.435039877891540527e+00 2.734131574630737305e+00 1.250751495361328125e+00 -6.729460358619689941e-01
5.604000000000000000e+03 2.879888725280761719e+01 1.656093978881835938e+01 1.270650148391723633e+00 2.702605962753295898e+00 1.191976904869079590e+00 -7.753137946128845215e-01
5.605000000000000000e+03 2.841740417480468750e+01 1.526041221618652344e+01 1.324523329734802246e+00 2.492435455322265625e+00 1.145087599754333496e+00 -6.986243128776550293e-01
5.606000000000000000e+03 1.178591823577880859e+01 1.783145332336425781e+01 4.641993641853332520e-01 -5.548903346061706543e-01 -2.720728702843189240e-02 2.257405668497085571e-01
5.607000000000000000e+03 1.446016216278076172e+01 1.809243583679199219e+01 6.001133918762207031e-01 -2.424326241016387939e-01 1.073042377829551697e-01 8.986895531415939331e-02
5.608000000000000000e+03 1.622572326660156250e+01 2.534576225280761719e+01 3.298053443431854248e-01 3.958478271961212158e-01 2.176959514617919922e-01 -2.639545500278472900e-01
5.609000000000000000e+03 2.945835685729980469e+01 2.696774101257324219e+01 8.965350687503814697e-02 3.124488353729248047e+00 9.642425775527954102e-01 -7.576336264610290527e-01
5.610000000000000000e+03 1.358303833007812500e+01 2.739489746093750000e+01 1.825855672359466553e-01 6.715442985296249390e-02 7.492199540138244629e-02 -1.738081425428390503e-01
5.611000000000000000e+03 1.477120780944824219e+01 2.747260284423828125e+01 2.060368508100509644e-01 2.558370828628540039e-01 1.385621875524520874e-01 -2.310903072357177734e-01
5.612000000000000000e+03 2.849464035034179688e+01 2.127006721496582031e+01 7.946411371231079102e-01 2.792904376983642578e+00 1.076263666152954102e+00 -8.382461071014404297e-01
5.613000000000000000e+03 2.779529953002929688e+01 2.561370086669921875e+01 3.000651895999908447e-01 2.723195314407348633e+00 9.069781303405761719e-01 -7.724686264991760254e-01
5.614000000000000000e+03 3.376664733886718750e+01 -9.593641161918640137e-01 -3.360611200332641602e-01 3.787665367126464844e+00 1.035481333732604980e+00 -3.254540264606475830e-01
5.615000000000000000e+03 1.237697315216064453e+01 1.213343429565429688e+01 4.840601384639739990e-01 -7.324890494346618652e-01 -7.452867180109024048e-02 5.419653654098510742e-01
5.616000000000000000e+03 2.214921188354492188e+01 9.543408393859863281e+00 9.211364388465881348e-01 3.839692771434783936e-01 3.915317356586456299e-01 -9.907005354762077332e-03
5.617000000000000000e+03 2.212846183776855469e+01 7.648145198822021484e+00 7.455044984817504883e-01 2.529423236846923828e-01 2.995340526103973389e-01 9.348182380199432373e-02
5.618000000000000000e+03 3.648797225952148438e+01 -7.333886146545410156e+00 -1.090981960296630859e+00 4.082750797271728516e+00 8.975306153297424316e-01 -8.049744963645935059e-01
5.619000000000000000e+03 3.851597976684570312e+01 -6.696035385131835938e+00 -1.163807153701782227e+00 4.878172874450683594e+00 1.114309787750244141e+00 -9.573491215705871582e-01
5.620000000000000000e+03 3.691062164306640625e+01 -7.991910934448242188e+00 -1.136946320533752441e+00 4.168067932128906250e+00 9.093364477157592773e-01 -9.001758098602294922e-01
5.621000000000000000e+03 3.854011154174804688e+01 -5.523523330688476562e+00 -1.049451231956481934e+00 4.967062473297119141e+00 1.175283312797546387e+00 -9.187794923782348633e-01
5.622000000000000000e+03 3.870526123046875000e+01 -4.351215839385986328e+00 -9.084261655807495117e-01 5.123661041259765625e+00 1.264570474624633789e+00 -9.087310433387756348e-01
5.623000000000000000e+03 3.377638626098632812e+01 -4.557999610900878906e+00 -8.087933659553527832e-01 3.368547677993774414e+00 7.679262757301330566e-01 -3.656733334064483643e-01
5.624000000000000000e+03 3.380127716064453125e+01 3.735247373580932617e+00 6.033250093460083008e-01 4.151303291320800781e+00 1.426388502120971680e+00 -3.342663049697875977e-01
5.625000000000000000e+03 3.523268890380859375e+01 1.448993563652038574e+00 1.014353707432746887e-01 4.615612030029296875e+00 1.415114283561706543e+00 -4.492178559303283691e-01
5.626000000000000000e+03 3.911748886108398438e+01 -5.085849285125732422e+00 -1.002387523651123047e+00 5.148490905761718750e+00 1.243831038475036621e+00 -9.591653943061828613e-01
5.627000000000000000e+03 3.825853729248046875e+01 -1.717401146888732910e+00 -5.167182087898254395e-01 5.307017803192138672e+00 1.437089800834655762e+00 -8.568136096000671387e-01
5.628000000000000000e+03 3.785641098022460938e+01 -1.103716015815734863e+00 -4.257183969020843506e-01 5.258511066436767578e+00 1.449837803840637207e+00 -8.029892444610595703e-01
5.629000000000000000e+03 4.033184432983398438e+01 -4.574935436248779297e+00 -9.251893162727355957e-01 5.465085983276367188e+00 1.361968994140625000e+00 -1.052849650382995605e+00
5.630000000000000000e+03 1.404455471038818359e+01 1.210759067535400391e+01 5.882464647293090820e-01 -6.303173899650573730e-01 -1.262127701193094254e-02 4.597919881343841553e-01
5.631000000000000000e+03 3.744984436035156250e+01 -7.610908508300781250e+00 -1.168799877166748047e+00 4.427754402160644531e+00 9.776864051818847656e-01 -9.223296046257019043e-01
5.632000000000000000e+03 3.870991897583007812e+01 -2.404767513275146484e+00 -6.266424059867858887e-01 5.345986843109130859e+00 1.415803313255310059e+00 -9.219973683357238770e-01
5.633000000000000000e+03 3.516162872314453125e+01 2.674739122390747070e+00 3.687711358070373535e-01 4.698200702667236328e+00 1.520091533660888672e+00 -4.282906055450439453e-01
5.634000000000000000e+03 3.621495437622070312e+01 -1.480031490325927734e+00 -4.646309912204742432e-01 4.640645503997802734e+00 1.252804398536682129e+00 -5.884804129600524902e-01
5.635000000000000000e+03 3.255998229980468750e+01 7.894347667694091797e+00 1.353381276130676270e+00 3.774226903915405273e+00 1.538282513618469238e+00 -4.481594562530517578e-01
5.636000000000000000e+03 3.330443572998046875e+01 2.960144519805908203e+00 4.227148592472076416e-01 3.872377395629882812e+00 1.288527727127075195e+00 -2.949908971786499023e-01
5.637000000000000000e+03 3.952859497070312500e+01 -7.990940093994140625e+00 -1.337951660156250000e+00 5.156426906585693359e+00 1.145542621612548828e+00 -1.053424239158630371e+00
5.638000000000000000e+03 1.684035301208496094e+01 1.055170917510986328e+01 6.950347423553466797e-01 -4.581110775470733643e-01 7.107710838317871094e-02 3.629755377769470215e-01
5.639000000000000000e+03 1.552192115783691406e+01 1.079097080230712891e+01 6.283079981803894043e-01 -5.904266238212585449e-01 1.136440224945545197e-02 4.443041086196899414e-01
5.640000000000000000e+03 3.121499633789062500e+01 4.275287985801696777e-01 -1.094534993171691895e-01 2.850118637084960938e+00 8.221995830535888672e-01 -1.253543496131896973e-01
5.641000000000000000e+03 3.326419067382812500e+01 1.507867932319641113e+00 1.018995717167854309e-01 3.757623910903930664e+00 1.157857060432434082e+00 -2.856157124042510986e-01
5.642000000000000000e+03 3.064825439453125000e+01 2.595959663391113281e+00 3.095683753490447998e-01 2.757732391357421875e+00 9.201902747154235840e-01 -1.405747383832931519e-01
5.643000000000000000e+03 2.924360466003417969e+01 3.593763351440429688e+00 4.529451131820678711e-01 2.237993001937866211e+00 8.072814345359802246e-01 -1.137767881155014038e-01
5.644000000000000000e+03 2.115165138244628906e+01 1.059266281127929688e+01 9.370183348655700684e-01 2.447160929441452026e-01 3.545203208923339844e-01 1.361771579831838608e-02
5.645000000000000000e+03 3.204655838012695312e+01 9.420033693313598633e-01 5.522246006876230240e-03 3.251342296600341797e+00 9.770593643188476562e-01 -1.897452175617218018e-01
5.646000000000000000e+03 3.211716842651367188e+01 8.606746673583984375e+00 1.425060391426086426e+00 3.621216297149658203e+00 1.513882994651794434e+00 -4.636622667312622070e-01
5.647000000000000000e+03 2.418628883361816406e+01 7.414941787719726562e+00 8.140788674354553223e-01 7.637704610824584961e-01 4.733548164367675781e-01 -4.352581873536109924e-02
5.648000000000000000e+03 1.259470558166503906e+01 2.001929092407226562e+01 4.571247398853302002e-01 -3.742059171199798584e-01 2.487564831972122192e-02 8.259878307580947876e-02
5.649000000000000000e+03 2.890354728698730469e+01 4.771053791046142578e+00 6.579679846763610840e-01 2.170382261276245117e+00 8.485051393508911133e-01 -1.537536233663558960e-01
5.650000000000000000e+03 3.263280105590820312e+01 6.793653964996337891e+00 1.192768692970275879e+00 3.787199258804321289e+00 1.493990421295166016e+00 -3.837773203849792480e-01
5.651000000000000000e+03 1.792594337463378906e+01 1.454483222961425781e+01 8.423434495925903320e-01 -1.232395600527524948e-02 2.490058392286300659e-01 5.191691964864730835e-02
5.652000000000000000e+03 3.308878707885742188e+01 4.883777201175689697e-01 -9.177621454000473022e-02 3.611577987670898438e+00 1.055940508842468262e+00 -2.707061469554901123e-01
5.653000000000000000e+03 3.260380554199218750e+01 -1.354058831930160522e-01 -1.995739638805389404e-01 3.375185251235961914e+00 9.526833891868591309e-01 -2.437721937894821167e-01
5.654000000000000000e+03 3.791289901733398438e+01 -8.354130744934082031e+00 -1.231964945793151855e+00 4.537645816802978516e+00 9.917043447494506836e-01 -1.021801233291625977e+00
5.655000000000000000e+03 3.283361816406250000e+01 5.549878120422363281e+00 9.734959006309509277e-01 3.825210332870483398e+00 1.439611911773681641e+00 -3.265746235847473145e-01
5.656000000000000000e+03 2.764382743835449219e+01 5.462377548217773438e+00 7.163459062576293945e-01 1.750303864479064941e+00 7.399949431419372559e-01 -1.345356255769729614e-01
5.657000000000000000e+03 3.583715438842773438e+01 -4.152828693389892578e+00 -8.275023698806762695e-01 4.195486545562744141e+00 1.010395288467407227e+00 -6.004318594932556152e-01
5.658000000000000000e+03 2.696080780029296875e+01 6.109927177429199219e+00 7.993139624595642090e-01 1.555514216423034668e+00 7.064484357833862305e-01 -1.272019892930984497e-01
5.659000000000000000e+03 3.942440414428710938e+01 -3.979932546615600586e+00 -8.521882295608520508e-01 5.331404685974121094e+00 1.343764901161193848e+00 -9.915443658828735352e-01
5.660000000000000000e+03 3.388953018188476562e+01 -2.430658102035522461e+00 -5.725737214088439941e-01 3.686245918273925781e+00 9.341017007827758789e-01 -3.604611754417419434e-01
5.661000000000000000e+03 1.465909290313720703e+01 2.362377929687500000e+01 3.890287578105926514e-01 8.404989540576934814e-02 1.419235914945602417e-01 -1.533330529928207397e-01
5.662000000000000000e+03 2.619077491760253906e+01 8.555301666259765625e+00 1.046951413154602051e+00 1.413948178291320801e+00 7.382699251174926758e-01 -2.238552421331405640e-01
5.663000000000000000e+03 1.270873260498046875e+01 1.412787532806396484e+01 5.440810918807983398e-01 -6.190662384033203125e-01 -2.249555103480815887e-02 4.038967490196228027e-01
5.664000000000000000e+03 2.994259643554687500e+01 3.088672161102294922e+00 3.889530003070831299e-01 2.510948657989501953e+00 8.699704408645629883e-01 -1.263575702905654907e-01
5.665000000000000000e+03 2.883868217468261719e+01 6.795368194580078125e+00 1.001334190368652344e+00 2.259971380233764648e+00 9.783916473388671875e-01 -2.491675019264221191e-01
5.666000000000000000e+03 2.820923042297363281e+01 1.399954700469970703e+01 1.372858047485351562e+00 2.348287343978881836e+00 1.116343617439270020e+00 -6.313580870628356934e-01
5.667000000000000000e+03 2.696567535400390625e+01 2.000494384765625000e+01 9.185742735862731934e-01 2.294289827346801758e+00 9.638592004776000977e-01 -7.602017521858215332e-01
5.668000000000000000e+03 2.816146659851074219e+01 1.871870040893554688e+01 1.048451185226440430e+00 2.560484647750854492e+00 1.082680821418762207e+00 -7.964317202568054199e-01
5.669000000000000000e+03 2.914080810546875000e+01 1.153939723968505859e+01 1.416694045066833496e+00 2.546906471252441406e+00 1.189080119132995605e+00 -5.485454201698303223e-01
5.670000000000000000e+03 2.016407012939453125e+01 1.168937492370605469e+01 9.353032112121582031e-01 1.481790095567703247e-01 3.250446617603302002e-01 3.509380295872688293e-02
5.671000000000000000e+03 1.225535678863525391e+01 1.887320709228515625e+01 4.604759812355041504e-01 -4.627285301685333252e-01 -6.757676601409912109e-04 1.570797860622406006e-01
5.672000000000000000e+03 1.630882072448730469e+01 2.942308616638183594e+01 1.169089525938034058e-01 5.951488018035888672e-01 2.136173248291015625e-01 -3.072430193424224854e-01
5.673000000000000000e+03 1.416774368286132812e+01 2.633536148071289062e+01 2.529287934303283691e-01 1.292002946138381958e-01 1.146387308835983276e-01 -1.941747963428497314e-01
5.674000000000000000e+03 1.306925964355468750e+01 2.576289558410644531e+01 2.580428421497344971e-01 -8.005553483963012695e-02 5.339619144797325134e-02 -1.344427913427352905e-01
5.675000000000000000e+03 3.080785179138183594e+01 3.422825622558593750e+01 -6.633504629135131836e-01 3.314431190490722656e+00 7.953242063522338867e-01 -4.678215086460113525e-01
5.676000000000000000e+03 2.636153411865234375e+01 3.077070617675781250e+01 -1.902624219655990601e-01 2.515728712081909180e+00 6.976398825645446777e-01 -5.683294534683227539e-01
5.677000000000000000e+03 3.545404815673828125e+01 -2.525601387023925781e+00 -6.016472578048706055e-01 4.272613525390625000e+00 1.101289987564086914e+00 -5.193170905113220215e-01
5.678000000000000000e+03 3.435931777954101562e+01 -4.304455757141113281e+00 -7.966627478599548340e-01 3.659933805465698242e+00 8.589813113212585449e-01 -4.163038432598114014e-01
5.679000000000000000e+03 3.589142990112304688e+01 -3.241633474826812744e-01 -2.612157166004180908e-01 4.679717063903808594e+00 1.325550436973571777e+00 -5.394390821456909180e-01
5.680000000000000000e+03 3.468426513671875000e+01 8.008018732070922852e-01 -3.226028755307197571e-02 4.304292678833007812e+00 1.281609773635864258e+00 -3.921682238578796387e-01
5.681000000000000000e+03 3.702964019775390625e+01 -1.045765399932861328e+00 -4.069115519523620605e-01 4.985966205596923828e+00 1.373716354370117188e+00 -6.923956871032714844e-01
5.682000000000000000e+03 3.525400924682617188e+01 1.830710321664810181e-01 -1.607892215251922607e-01 4.473257541656494141e+00 1.293740510940551758e+00 -4.623323082923889160e-01
5.683000000000000000e+03 3.798792648315429688e+01 -7.176290988922119141e+00 -1.172601222991943359e+00 4.652714252471923828e+00 1.044033885002136230e+00 -9.411810040473937988e-01
5.684000000000000000e+03 3.658199310302734375e+01 -6.266243457794189453e+00 -1.037598967552185059e+00 4.219103336334228516e+00 9.544512629508972168e-01 -7.599276304244995117e-01
5.685000000000000000e+03 3.509363555908203125e+01 -4.915430068969726562e+00 -8.808166980743408203e-01 3.837260484695434570e+00 8.869331479072570801e-01 -5.354076623916625977e-01
5.686000000000000000e+03 3.753984069824218750e+01 -3.929454803466796875e+00 -8.401272296905517578e-01 4.801772117614746094e+00 1.188493490219116211e+00 -7.835881114006042480e-01
5.687000000000000000e+03 1.318163967132568359e+01 2.241943550109863281e+01 3.869066536426544189e-01 -1.935593336820602417e-01 5.800419673323631287e-02 -3.870625048875808716e-02
5.688000000000000000e+03 3.798455047607421875e+01 -2.783499956130981445e+00 -6.852506995201110840e-01 5.077430248260498047e+00 1.317653894424438477e+00 -8.281542062759399414e-01
5.689000000000000000e+03 3.467096710205078125e+01 2.018652200698852539e+00 2.348775863647460938e-01 4.410460948944091797e+00 1.393601655960083008e+00 -3.870488405227661133e-01
5.690000000000000000e+03 3.368626785278320312e+01 1.926504492759704590e+00 2.161493152379989624e-01 4.014022350311279297e+00 1.269051551818847656e+00 -3.076076805591583252e-01
5.691000000000000000e+03 3.205582046508789062e+01 6.124096393585205078e+00 1.032654404640197754e+00 3.505000591278076172e+00 1.361296534538269043e+00 -3.224236071109771729e-01
5.692000000000000000e+03 3.847645950317382812e+01 -7.888425827026367188e+00 -1.259745836257934570e+00 4.789067745208740234e+00 1.058796644210815430e+00 -1.022442936897277832e+00
5.693000000000000000e+03 2.416963386535644531e+01 9.456562042236328125e+00 1.019893169403076172e+00 8.912866711616516113e-01 5.733539462089538574e-01 -1.412772238254547119e-01
5.694000000000000000e+03 2.418295860290527344e+01 8.457388877868652344e+00 9.394398927688598633e-01 8.287260532379150391e-01 5.304498076438903809e-01 -9.302952885627746582e-02
5.695000000000000000e+03 3.008862113952636719e+01 1.036804199218750000e+01 1.445641517639160156e+00 2.852734804153442383e+00 1.289512872695922852e+00 -5.133794546127319336e-01
5.696000000000000000e+03 2.727082443237304688e+01 6.827161788940429688e+00 9.114707112312316895e-01 1.694313526153564453e+00 7.817352414131164551e-01 -1.836819648742675781e-01
5.697000000000000000e+03 3.451323699951171875e+01 3.223809242248535156e+00 4.848726391792297363e-01 4.433436393737792969e+00 1.475492715835571289e+00 -3.753215372562408447e-01
5.698000000000000000e+03 3.419646835327148438e+01 -3.684097051620483398e+00 -7.346330881118774414e-01 3.655973196029663086e+00 8.764020800590515137e-01 -4.045585989952087402e-01
5.699000000000000000e+03 3.723904800415039062e+01 -3.058987140655517578e+00 -7.113508582115173340e-01 4.808980941772460938e+00 1.229288935661315918e+00 -7.365500926971435547e-01
5.700000000000000000e+03 1.332467365264892578e+01 1.840082931518554688e+01 5.321921706199645996e-01 -3.573453128337860107e-01 5.245404690504074097e-02 1.325867921113967896e-01
5.701000000000000000e+03 1.415983486175537109e+01 1.304579353332519531e+01 6.182716488838195801e-01 -5.616832375526428223e-01 1.697652786970138550e-02 3.929334878921508789e-01
5.702000000000000000e+03 3.402247619628906250e+01 -3.040013551712036133e+00 -6.600461006164550781e-01 3.655248165130615234e+00 8.985605835914611816e-01 -3.736637830734252930e-01
5.703000000000000000e+03 2.217598915100097656e+01 1.053113746643066406e+01 9.854382872581481934e-01 4.654305577278137207e-01 4.352606534957885742e-01 -5.839798599481582642e-02
5.704000000000000000e+03 2.121926116943359375e+01 1.165709781646728516e+01 9.874523878097534180e-01 3.426183760166168213e-01 3.990212082862854004e-01 -4.831352829933166504e-02
5.705000000000000000e+03 2.900454711914062500e+01 8.581300735473632812e+00 1.224534153938293457e+00 2.376604795455932617e+00 1.080341696739196777e+00 -3.604325056076049805e-01
5.706000000000000000e+03 3.129988479614257812e+01 2.107439517974853516e+00 2.187003791332244873e-01 2.995502233505249023e+00 9.642607569694519043e-01 -1.696310788393020630e-01
5.707000000000000000e+03 2.315124320983886719e+01 8.516061782836914062e+00 8.896864056587219238e-01 5.504800677299499512e-01 4.320499300956726074e-01 -2.556804381310939789e-02
5.708000000000000000e+03 1.280279731750488281e+01 1.504183578491210938e+01 5.514841675758361816e-01 -5.682651996612548828e-01 -5.034313071519136429e-03 3.457903861999511719e-01
5.709000000000000000e+03 1.488254261016845703e+01 1.942370414733886719e+01 5.744372010231018066e-01 -1.067104637622833252e-01 1.403180211782455444e-01 -2.299185376614332199e-03
5.710000000000000000e+03 3.358244323730468750e+01 -9.750823490321636200e-03 -1.911486387252807617e-01 3.760950326919555664e+00 1.070940494537353516e+00 -3.059931695461273193e-01
5.711000000000000000e+03 3.593341064453125000e+01 -7.030926704406738281e+00 -1.042556524276733398e+00 3.896002054214477539e+00 8.560336828231811523e-01 -7.189673781394958496e-01
5.712000000000000000e+03 1.802409362792968750e+01 1.168932533264160156e+01 8.138034343719482422e-01 -2.197277396917343140e-01 1.782227009534835815e-01 2.076662033796310425e-01
5.713000000000000000e+03 1.636731910705566406e+01 1.138756656646728516e+01 7.003645300865173340e-01 -4.581884741783142090e-01 7.265282422304153442e-02 3.548597991466522217e-01
5.714000000000000000e+03 2.628928375244140625e+01 7.614770412445068359e+00 9.544712901115417480e-01 1.401790142059326172e+00 7.068784236907958984e-01 -1.756562143564224243e-01
5.715000000000000000e+03 2.316043853759765625e+01 9.486043930053710938e+00 9.730505347251892090e-01 6.215803623199462891e-01 4.783892631530761719e-01 -7.752624154090881348e-02
5.716000000000000000e+03 1.349127388000488281e+01 1.410705184936523438e+01 5.921198129653930664e-01 -5.544476509094238281e-01 1.130163855850696564e-02 3.658318221569061279e-01
5.717000000000000000e+03 1.479370212554931641e+01 1.119840145111083984e+01 6.092809438705444336e-01 -6.127167344093322754e-01 -1.030733808875083923e-03 4.629652798175811768e-01
5.718000000000000000e+03 3.198981857299804688e+01 7.381512641906738281e+00 1.271389126777648926e+00 3.540917396545410156e+00 1.443691968917846680e+00 -3.833467662334442139e-01
5.719000000000000000e+03 2.812787437438964844e+01 4.691628932952880859e+00 6.268852353096008301e-01 1.896263837814331055e+00 7.569447159767150879e-01 -1.096086576581001282e-01
5.720000000000000000e+03 3.305116271972656250e+01 4.249988079071044922e+00 7.070385217666625977e-01 3.862362384796142578e+00 1.370820283889770508e+00 -2.999453246593475342e-01
5.721000000000000000e+03 2.714362144470214844e+01 8.621259689331054688e+00 1.110321879386901855e+00 1.730252742767333984e+00 8.521723747253417969e-01 -2.774272859096527100e-01
5.722000000000000000e+03 3.146681785583496094e+01 8.062175750732421875e+00 1.307891011238098145e+00 3.321678400039672852e+00 1.388870835304260254e+00 -4.113503098487854004e-01
5.723000000000000000e+03 2.991556739807128906e+01 8.500869750976562500e+00 1.261972665786743164e+00 2.716881513595581055e+00 1.193656325340270996e+00 -3.893885910511016846e-01
5.724000000000000000e+03 1.320192432403564453e+01 1.212101173400878906e+01 5.335472822189331055e-01 -6.852443218231201172e-01 -4.550912231206893921e-02 5.058796405792236328e-01
5.725000000000000000e+03 1.495554828643798828e+01 1.204645633697509766e+01 6.467924714088439941e-01 -5.521606206893920898e-01 2.838956192135810852e-02 4.085193276405334473e-01
5.726000000000000000e+03 3.044967079162597656e+01 3.860868692398071289e+00 5.516320466995239258e-01 2.738216876983642578e+00 9.869546890258789062e-01 -1.721713095903396606e-01
5.727000000000000000e+03 3.118798065185546875e+01 3.322671890258789062e+00 4.744038879871368408e-01 3.026982784271240234e+00 1.050415992736816406e+00 -1.848454177379608154e-01
5.728000000000000000e+03 1.314863109588623047e+01 3.367250823974609375e+01 -4.089958220720291138e-02 1.442218124866485596e-01 3.099666722118854523e-02 -1.721094995737075806e-01
5.729000000000000000e+03 1.411224651336669922e+01 2.096570205688476562e+01 4.862618446350097656e-01 -1.278612613677978516e-01 1.075201705098152161e-01 -2.883348055183887482e-02
5.730000000000000000e+03 1.609579086303710938e+01 2.360111427307128906e+01 4.266929030418395996e-01 2.867425680160522461e-01 2.140306383371353149e-01 -2.210772037506103516e-01
5.731000000000000000e+03 2.625972938537597656e+01 2.421278572082519531e+01 4.880074858665466309e-01 2.312558889389038086e+00 8.401699066162109375e-01 -7.471048235893249512e-01
5.732000000000000000e+03 2.364800262451171875e+01 2.415961265563964844e+01 4.946703612804412842e-01 1.749903798103332520e+00 6.733722686767578125e-01 -6.330083608627319336e-01
5.733000000000000000e+03 1.801840019226074219e+01 2.525971412658691406e+01 3.594895005226135254e-01 6.784631609916687012e-01 3.113858103752136230e-01 -3.441288173198699951e-01
5.734000000000000000e+03 2.992107200622558594e+01 3.035936737060546875e+01 -2.963576614856719971e-01 3.214487314224243164e+00 8.754388689994812012e-01 -6.409775614738464355e-01
5.735000000000000000e+03 2.636665916442871094e+01 2.724232292175292969e+01 1.466157287359237671e-01 2.429184436798095703e+00 7.727400064468383789e-01 -6.838177442550659180e-01
5.736000000000000000e+03 2.576601791381835938e+01 1.731496810913085938e+01 1.106744289398193359e+00 1.844247817993164062e+00 8.852975964546203613e-01 -6.420658230781555176e-01
5.737000000000000000e+03 2.379653167724609375e+01 1.830854988098144531e+01 9.819985032081604004e-01 1.385071873664855957e+00 7.101210951805114746e-01 -5.394767522811889648e-01
5.738000000000000000e+03 2.009460067749023438e+01 2.910060310363769531e+01 9.293337166309356689e-02 1.239905476570129395e+00 3.998516499996185303e-01 -4.401308000087738037e-01
5.739000000000000000e+03 1.836775779724121094e+01 3.178016471862792969e+01 -4.619623720645904541e-02 1.039101123809814453e+00 2.978714704513549805e-01 -3.456704914569854736e-01
5.740000000000000000e+03 3.602971267700195312e+01 -7.643156051635742188e+00 -1.067854762077331543e+00 3.830025196075439453e+00 8.286511301994323730e-01 -7.749326229095458984e-01
5.741000000000000000e+03 3.801419067382812500e+01 -6.011149883270263672e+00 -1.071083903312683105e+00 4.771049022674560547e+00 1.109989643096923828e+00 -8.896263837814331055e-01
5.742000000000000000e+03 1.720603370666503906e+01 1.209883308410644531e+01 7.855480313301086426e-01 -3.026866912841796875e-01 1.448583900928497314e-01 2.436874210834503174e-01
5.743000000000000000e+03 3.699105072021484375e+01 -2.273683071136474609e+00 -5.910540223121643066e-01 4.834903717041015625e+00 1.273154973983764648e+00 -6.894848942756652832e-01
5.744000000000000000e+03 3.569168090820312500e+01 -3.360081195831298828e+00 -7.165911793708801270e-01 4.253655433654785156e+00 1.061119318008422852e+00 -5.732915997505187988e-01
5.745000000000000000e+03 3.832511138916015625e+01 -3.566433906555175781e+00 -7.939574718475341797e-01 5.095965385437011719e+00 1.290602326393127441e+00 -8.720802664756774902e-01
5.746000000000000000e+03 3.696459579467773438e+01 -6.918876171112060547e+00 -1.087795972824096680e+00 4.280402660369873047e+00 9.577820301055908203e-01 -8.321886062622070312e-01
5.747000000000000000e+03 3.799443435668945312e+01 -4.778244972229003906e+00 -9.421215057373046875e-01 4.852852344512939453e+00 1.173219203948974609e+00 -8.494536876678466797e-01
5.748000000000000000e+03 3.473535537719726562e+01 -2.830293178558349609e+00 -6.315260529518127441e-01 3.956952333450317383e+00 9.976279139518737793e-01 -4.530897736549377441e-01
5.749000000000000000e+03 2.704426574707031250e+01 1.063226318359375000e+01 1.261784553527832031e+00 1.789915561676025391e+00 9.155100584030151367e-01 -3.901900947093963623e-01
5.750000000000000000e+03 3.405136108398437500e+01 2.538418054580688477e+00 3.409916460514068604e-01 4.199941635131835938e+00 1.362280011177062988e+00 -3.396916687488555908e-01
5.751000000000000000e+03 3.080050849914550781e+01 7.585497856140136719e+00 1.199424505233764648e+00 2.989949941635131836e+00 1.256812334060668945e+00 -3.606119751930236816e-01
5.752000000000000000e+03 2.997647285461425781e+01 9.435791969299316406e+00 1.356298565864562988e+00 2.768146038055419922e+00 1.237333297729492188e+00 -4.409814178943634033e-01
5.753000000000000000e+03 3.412972259521484375e+01 -2.876381874084472656e-01 -2.237681746482849121e-01 3.998816728591918945e+00 1.132514595985412598e+00 -3.463053107261657715e-01
5.754000000000000000e+03 3.479254913330078125e+01 -5.872656702995300293e-01 -2.896058559417724609e-01 4.194880962371826172e+00 1.171582579612731934e+00 -4.210203588008880615e-01
5.755000000000000000e+03 3.227949142456054688e+01 4.808299064636230469e+00 7.953689098358154297e-01 3.548648118972778320e+00 1.303205132484436035e+00 -2.816233634948730469e-01
5.756000000000000000e+03 2.520470428466796875e+01 8.472407341003417969e+00 9.858971238136291504e-01 1.111147880554199219e+00 6.291134953498840332e-01 -1.588841080665588379e-01
5.757000000000000000e+03 2.902869796752929688e+01 9.539763450622558594e+00 1.309725999832153320e+00 2.424356698989868164e+00 1.120224833488464355e+00 -4.148159027099609375e-01
5.758000000000000000e+03 3.668658065795898438e+01 -4.960024833679199219e+00 -9.261397123336791992e-01 4.415733814239501953e+00 1.046878337860107422e+00 -7.206278443336486816e-01
5.759000000000000000e+03 2.438703727722167969e+01 1.216138076782226562e+01 1.181229948997497559e+00 1.159739136695861816e+00 7.022907137870788574e-01 -3.156915605068206787e-01
5.760000000000000000e+03 1.499605560302734375e+01 1.300032997131347656e+01 6.687146425247192383e-01 -4.819281995296478271e-01 5.603592842817306519e-02 3.411176502704620361e-01
5.761000000000000000e+03 1.554805564880371094e+01 1.796404647827148438e+01 6.599420309066772461e-01 -1.073903515934944153e-01 1.657654941082000732e-01 2.892656996846199036e-02
5.762000000000000000e+03 1.335042285919189453e+01 1.634685325622558594e+01 5.701109170913696289e-01 -4.563205838203430176e-01 3.413709625601768494e-02 2.426186650991439819e-01
5.763000000000000000e+03 2.577651405334472656e+01 1.568599319458007812e+01 1.221094965934753418e+00 1.749046325683593750e+00 8.910424113273620605e-01 -5.793979167938232422e-01
5.764000000000000000e+03 2.712952995300292969e+01 1.559460258483886719e+01 1.265076279640197754e+00 2.088099718093872070e+00 1.005952835083007812e+00 -6.456171870231628418e-01
5.765000000000000000e+03 3.591320419311523438e+01 -6.346557140350341797e+00 -1.011202335357666016e+00 3.980543851852416992e+00 8.908023834228515625e-01 -6.940820813179016113e-01
5.766000000000000000e+03 3.668800354003906250e+01 -4.114953517913818359e+00 -8.389944434165954590e-01 4.512601375579833984e+00 1.102082133293151855e+00 -7.033566236495971680e-01
5.767000000000000000e+03 1.910972404479980469e+01 1.271898555755615234e+01 9.017996191978454590e-01 4.276143386960029602e-02 2.833683192729949951e-01 5.791334807872772217e-02
5.768000000000000000e+03 1.532846164703369141e+01 1.515044116973876953e+01 6.921895146369934082e-01 -3.242914676666259766e-01 1.103694066405296326e-01 2.055026292800903320e-01
5.769000000000000000e+03 2.697271537780761719e+01 1.293359947204589844e+01 1.318280935287475586e+00 1.905452728271484375e+00 9.671201109886169434e-01 -5.115834474563598633e-01
5.770000000000000000e+03 3.268265914916992188e+01 1.167328476905822754e+00 4.197274893522262573e-02 3.505726575851440430e+00 1.064309835433959961e+00 -2.530993521213531494e-01
5.771000000000000000e+03 3.189663314819335938e+01 2.728499650955200195e+00 3.589025735855102539e-01 3.293473958969116211e+00 1.095713019371032715e+00 -2.113666683435440063e-01
5.772000000000000000e+03 3.180719947814941406e+01 1.585978507995605469e+00 1.472355127334594727e-01 3.187216281890869141e+00 1.000335454940795898e+00 -1.813226342201232910e-01
5.773000000000000000e+03 2.840364265441894531e+01 6.090398311614990234e+00 8.599122166633605957e-01 2.044061183929443359e+00 8.711920380592346191e-01 -1.887477189302444458e-01
5.774000000000000000e+03 2.969662857055664062e+01 4.357879161834716797e+00 6.214817166328430176e-01 2.473397731781005859e+00 9.284638166427612305e-01 -1.642678678035736084e-01
5.775000000000000000e+03 2.810477447509765625e+01 1.280691051483154297e+01 1.380562424659729004e+00 2.252568483352661133e+00 1.089939236640930176e+00 -5.670489668846130371e-01
5.776000000000000000e+03 2.907418632507324219e+01 1.052287006378173828e+01 1.379598617553710938e+00 2.474340915679931641e+00 1.156181812286376953e+00 -4.812158942222595215e-01
5.777000000000000000e+03 1.442981052398681641e+01 2.225179672241210938e+01 4.386333823204040527e-01 -1.989424042403697968e-02 1.256217360496520996e-01 -9.531565010547637939e-02
5.778000000000000000e+03 1.599759101867675781e+01 1.386678600311279297e+01 7.258436679840087891e-01 -3.349169790744781494e-01 1.172780022025108337e-01 2.369012385606765747e-01
5.779000000000000000e+03 2.289687919616699219e+01 1.532662010192871094e+01 1.092988610267639160e+00 9.994468092918395996e-01 6.277306079864501953e-01 -3.668263852596282959e-01
5.780000000000000000e+03 2.240266799926757812e+01 1.270196819305419922e+01 1.077979087829589844e+00 6.723241806030273438e-01 5.250909924507141113e-01 -1.927580982446670532e-01
5.781000000000000000e+03 3.148060798645019531e+01 5.398733139038085938e+00 8.952509760856628418e-01 3.233169317245483398e+00 1.238526105880737305e+00 -2.606029808521270752e-01
5.782000000000000000e+03 3.095260429382324219e+01 4.629812240600585938e+00 7.213031053543090820e-01 2.983275890350341797e+00 1.111373662948608398e+00 -2.159732580184936523e-01
5.783000000000000000e+03 1.577024078369140625e+01 2.208711242675781250e+01 5.000957846641540527e-01 1.681931763887405396e-01 2.004866898059844971e-01 -1.622665524482727051e-01
5.784000000000000000e+03 2.415378952026367188e+01 1.042574214935302734e+01 1.087349891662597656e+00 9.435006976127624512e-01 6.092551946640014648e-01 -1.939733326435089111e-01
5.785000000000000000e+03 1.942794799804687500e+01 2.302181243896484375e+01 5.529058575630187988e-01 8.381136059761047363e-01 4.173058271408081055e-01 -4.002418518066406250e-01
5.786000000000000000e+03 2.483316230773925781e+01 2.290495872497558594e+01 5.998528003692626953e-01 1.919686079025268555e+00 7.558616399765014648e-01 -6.761796474456787109e-01
5.787000000000000000e+03 2.486043930053710938e+01 2.563104248046875000e+01 3.621309697628021240e-01 2.041304111480712891e+00 7.210305333137512207e-01 -6.777531504631042480e-01
5.788000000000000000e+03 2.211248779296875000e+01 2.489057922363281250e+01 4.329808950424194336e-01 1.415802836418151855e+00 5.546351075172424316e-01 -5.535228252410888672e-01
5.789000000000000000e+03 1.534169673919677734e+01 2.071921157836914062e+01 5.506910681724548340e-01 2.983635291457176208e-02 1.741582304239273071e-01 -8.176204562187194824e-02
5.790000000000000000e+03 1.717089271545410156e+01 2.181197738647460938e+01 5.704230666160583496e-01 3.703086078166961670e-01 2.822194993495941162e-01 -2.290416508913040161e-01
5.791000000000000000e+03 1.629561614990234375e+01 2.730493736267089844e+01 2.294967472553253174e-01 4.947984218597412109e-01 2.172885537147521973e-01 -2.881218492984771729e-01
5.792000000000000000e+03 2.445554924011230469e+01 2.046893119812011719e+01 8.350936174392700195e-01 1.696014523506164551e+00 7.593324184417724609e-01 -6.339368224143981934e-01
5.793000000000000000e+03 3.687328720092773438e+01 -1.590441346168518066e+00 -4.891673624515533447e-01 4.873064994812011719e+00 1.315169215202331543e+00 -6.786401271820068359e-01
5.794000000000000000e+03 3.548976135253906250e+01 -1.111382484436035156e+00 -3.984944224357604980e-01 4.440753459930419922e+00 1.212677717208862305e+00 -5.050457715988159180e-01
5.795000000000000000e+03 1.512882995605468750e+01 1.401943397521972656e+01 6.771964430809020996e-01 -4.118282198905944824e-01 7.961046695709228516e-02 2.847520112991333008e-01
5.796000000000000000e+03 3.751085662841796875e+01 -6.501199245452880859e+00 -1.096784472465515137e+00 4.557761192321777344e+00 1.038293123245239258e+00 -8.536137938499450684e-01
5.797000000000000000e+03 3.743482208251953125e+01 -5.344584941864013672e+00 -9.926853775978088379e-01 4.636459827423095703e+00 1.093132376670837402e+00 -8.116497397422790527e-01
5.798000000000000000e+03 2.807954025268554688e+01 7.719212532043457031e+00 1.066634774208068848e+00 1.995547294616699219e+00 9.186546206474304199e-01 -2.676377892494201660e-01
5.799000000000000000e+03 2.806534194946289062e+01 6.835344314575195312e+00 9.438464045524597168e-01 1.928496718406677246e+00 8.617029190063476562e-01 -2.240706384181976318e-01
5.800000000000000000e+03 3.408797073364257812e+01 3.682304620742797852e-01 -1.178180649876594543e-01 4.026523113250732422e+00 1.172611474990844727e+00 -3.535577654838562012e-01
5.801000000000000000e+03 1.581461238861083984e+01 1.296657180786132812e+01 7.081118226051330566e-01 -4.067372381687164307e-01 9.041238576173782349e-02 2.997803092002868652e-01
5.802000000000000000e+03 3.439095306396484375e+01 -1.298364400863647461e+00 -4.060887098312377930e-01 3.977781295776367188e+00 1.071507811546325684e+00 -3.913558423519134521e-01
5.803000000000000000e+03 3.506220245361328125e+01 -4.221777439117431641e+00 -8.091179132461547852e-01 3.913373947143554688e+00 9.312767982482910156e-01 -5.082838535308837891e-01
5.804000000000000000e+03 3.585059738159179688e+01 -5.614245414733886719e+00 -9.546912908554077148e-01 4.055867671966552734e+00 9.303529262542724609e-01 -6.403406262397766113e-01
5.805000000000000000e+03 1.334285259246826172e+01 1.308909416198730469e+01 5.688700079917907715e-01 -6.252251863479614258e-01 -1.690656505525112152e-02 4.367913007736206055e-01
5.806000000000000000e+03 3.493628692626953125e+01 -3.517755746841430664e+00 -7.250013947486877441e-01 3.966630458831787109e+00 9.724887013435363770e-01 -4.674331545829772949e-01
5.807000000000000000e+03 3.250550079345703125e+01 3.450552701950073242e+00 5.165381431579589844e-01 3.578515768051147461e+00 1.228516101837158203e+00 -2.524720728397369385e-01
5.808000000000000000e+03 2.720505523681640625e+01 7.707050800323486328e+00 1.021749138832092285e+00 1.708615899085998535e+00 8.191095590591430664e-01 -2.242450267076492310e-01
5.809000000000000000e+03 1.442490863800048828e+01 1.530757427215576172e+01 6.431521177291870117e-01 -4.032330214977264404e-01 7.197572290897369385e-02 2.483566105365753174e-01
5.810000000000000000e+03 2.582879257202148438e+01 1.297441864013671875e+01 1.261813998222351074e+00 1.555351614952087402e+00 8.451496362686157227e-01 -4.423379302024841309e-01
5.811000000000000000e+03 2.317297172546386719e+01 1.046254444122314453e+01 1.027313232421875000e+00 6.955634355545043945e-01 5.168629884719848633e-01 -1.312709450721740723e-01
5.812000000000000000e+03 3.063625717163085938e+01 6.029246807098388672e+00 9.608418345451354980e-01 2.888704776763916016e+00 1.154863953590393066e+00 -2.765893638134002686e-01
5.813000000000000000e+03 3.622952270507812500e+01 -2.344285011291503906e+00 -5.885777473449707031e-01 4.553099632263183594e+00 1.189356684684753418e+00 -6.063709855079650879e-01
5.814000000000000000e+03 2.806344413757324219e+01 1.167864322662353516e+01 1.360699892044067383e+00 2.180848121643066406e+00 1.062464356422424316e+00 -5.026760101318359375e-01
5.815000000000000000e+03 3.129717636108398438e+01 6.785446166992187500e+00 1.125595211982727051e+00 3.169623374938964844e+00 1.288565635681152344e+00 -3.245890140533447266e-01
5.816000000000000000e+03 2.923278999328613281e+01 5.600407123565673828e+00 8.081459999084472656e-01 2.324428319931030273e+00 9.397723078727722168e-01 -2.023518383502960205e-01
5.817000000000000000e+03 3.652045440673828125e+01 -5.646715641021728516e+00 -9.850996136665344238e-01 4.271335601806640625e+00 9.858707189559936523e-01 -7.295199632644653320e-01
5.818000000000000000e+03 2.806295204162597656e+01 9.595121383666992188e+00 1.256698369979858398e+00 2.078995466232299805e+00 1.000708222389221191e+00 -3.799684643745422363e-01
5.819000000000000000e+03 1.646578788757324219e+01 1.575754165649414062e+01 7.503352761268615723e-01 -1.408844292163848877e-01 1.828352510929107666e-01 9.292767941951751709e-02
5.820000000000000000e+03 2.224837684631347656e+01 1.157607650756835938e+01 1.041783213615417480e+00 5.586087107658386230e-01 4.801175892353057861e-01 -1.216634735465049744e-01
5.821000000000000000e+03 3.307899475097656250e+01 2.178176641464233398e+00 2.661113440990447998e-01 3.725795507431030273e+00 1.197572112083435059e+00 -2.773614823818206787e-01
5.822000000000000000e+03 3.173612785339355469e+01 4.055637359619140625e+00 6.274035573005676270e-01 3.280088901519775391e+00 1.172247767448425293e+00 -2.307603806257247925e-01
5.823000000000000000e+03 2.021084213256835938e+01 1.280085086822509766e+01 9.669294357299804688e-01 2.380828261375427246e-01 3.615036904811859131e-01 -3.335173428058624268e-02
5.824000000000000000e+03 3.013323211669921875e+01 5.162407875061035156e+00 7.811960577964782715e-01 2.657295227050781250e+00 1.031547427177429199e+00 -2.110800296068191528e-01
5.825000000000000000e+03 1.600992965698242188e+01 1.914258766174316406e+01 6.380417346954345703e-01 2.925732359290122986e-02 2.001897245645523071e-01 -5.280734971165657043e-02
5.826000000000000000e+03 1.690656852722167969e+01 1.363160037994384766e+01 7.865579128265380859e-01 -2.378506064414978027e-01 1.646121889352798462e-01 1.811993569135665894e-01
5.827000000000000000e+03 2.516094017028808594e+01 9.481260299682617188e+00 1.078037977218627930e+00 1.167330622673034668e+00 6.736105680465698242e-01 -2.098526358604431152e-01
5.828000000000000000e+03 1.534735107421875000e+01 1.683123970031738281e+01 6.844774484634399414e-01 -2.081078737974166870e-01 1.429108679294586182e-01 1.034521237015724182e-01
5.829000000000000000e+03 1.769413757324218750e+01 2.342654418945312500e+01 4.740210771560668945e-01 5.438044667243957520e-01 3.053476512432098389e-01 -3.013886213302612305e-01
5.830000000000000000e+03 1.657880973815917969e+01 2.040229606628417969e+01 6.099842190742492676e-01 1.918922364711761475e-01 2.405629307031631470e-01 -1.426935940980911255e-01
5.831000000000000000e+03 2.343145370483398438e+01 2.181003761291503906e+01 7.007086277008056641e-01 1.529502630233764648e+00 6.690633893013000488e-01 -5.874040722846984863e-01
5.832000000000000000e+03 1.889257240295410156e+01 1.743815040588378906e+01 8.343810439109802246e-01 3.600620329380035400e-01 3.583329319953918457e-01 -1.659631580114364624e-01
5.833000000000000000e+03 2.701733779907226562e+01 1.420833301544189453e+01 1.310321211814880371e+00 1.986563444137573242e+00 9.890653491020202637e-01 -5.859405994415283203e-01
5.834000000000000000e+03 2.003371047973632812e+01 2.719695091247558594e+01 2.604644596576690674e-01 1.156706571578979492e+00 4.251513183116912842e-01 -4.680341184139251709e-01
5.835000000000000000e+03 1.811683845520019531e+01 2.724191665649414062e+01 2.633502781391143799e-01 8.030093312263488770e-01 3.199079036712646484e-01 -3.894059956073760986e-01
5.836000000000000000e+03 3.705048370361328125e+01 -5.927731037139892578e+00 -1.028360605239868164e+00 4.423150062561035156e+00 1.018436789512634277e+00 -8.003247976303100586e-01
5.837000000000000000e+03 3.586874389648437500e+01 -4.900222301483154297e+00 -8.940040469169616699e-01 4.135581016540527344e+00 9.724731445312500000e-01 -6.166756153106689453e-01
5.838000000000000000e+03 2.709450912475585938e+01 9.595098495483398438e+00 1.196434617042541504e+00 1.753610491752624512e+00 8.850135803222656250e-01 -3.324503600597381592e-01
5.839000000000000000e+03 2.472796249389648438e+01 1.309367179870605469e+01 1.210587263107299805e+00 1.297011613845825195e+00 7.522796988487243652e-01 -3.899311721324920654e-01
5.840000000000000000e+03 3.418933105468750000e+01 1.426241755485534668e+00 1.028186976909637451e-01 4.166942596435546875e+00 1.280928373336791992e+00 -3.486066162586212158e-01
5.841000000000000000e+03 1.625155067443847656e+01 1.486328792572021484e+01 7.544032931327819824e-01 -2.295653373003005981e-01 1.574513912200927734e-01 1.546434611082077026e-01
5.842000000000000000e+03 2.805634117126464844e+01 1.060984039306640625e+01 1.317650198936462402e+00 2.127590417861938477e+00 1.033572196960449219e+00 -4.413374066352844238e-01
5.843000000000000000e+03 2.698913002014160156e+01 1.174218940734863281e+01 1.305094242095947266e+00 1.840029835700988770e+00 9.435372352600097656e-01 -4.475995898246765137e-01
5.844000000000000000e+03 2.896477508544921875e+01 7.654399394989013672e+00 1.097801089286804199e+00 2.306910037994384766e+00 1.021413326263427734e+00 -3.059539198875427246e-01
5.845000000000000000e+03 1.611435699462890625e+01 1.680174064636230469e+01 7.330260872840881348e-01 -9.135778993368148804e-02 1.925004869699478149e-01 4.350599646568298340e-02
5.846000000000000000e+03 2.807558250427246094e+01 8.631312370300292969e+00 1.170346975326538086e+00 2.034343481063842773e+00 9.614071249961853027e-01 -3.160023689270019531e-01
5.847000000000000000e+03 1.722681617736816406e+01 1.594906711578369141e+01 7.835285067558288574e-01 -1.302697602659463882e-02 2.311504483222961426e-01 3.215378895401954651e-02
5.848000000000000000e+03 3.646683502197265625e+01 -3.226125717163085938e+00 -7.237616181373596191e-01 4.533497333526611328e+00 1.142920613288879395e+00 -6.477144360542297363e-01
5.849000000000000000e+03 2.323347663879394531e+01 1.146016502380371094e+01 1.090550422668457031e+00 7.860829830169677734e-01 5.629900097846984863e-01 -1.824042201042175293e-01
5.850000000000000000e+03 2.131715393066406250e+01 1.280527591705322266e+01 1.029916167259216309e+00 4.610277414321899414e-01 4.472831487655639648e-01 -1.163025349378585815e-01
5.851000000000000000e+03 1.891682434082031250e+01 1.485858249664306641e+01 8.856873512268066406e-01 1.560039371252059937e-01 3.125073909759521484e-01 -3.577866032719612122e-02
5.852000000000000000e+03 2.581631851196289062e+01 1.428635406494140625e+01 1.241361260414123535e+00 1.657486319541931152e+00 8.696542978286743164e-01 -5.131536722183227539e-01
5.853000000000000000e+03 2.497222137451171875e+01 1.148754787445068359e+01 1.181012988090515137e+00 1.263597249984741211e+00 7.333830595016479492e-01 -3.167643249034881592e-01
5.854000000000000000e+03 2.414351081848144531e+01 1.134196662902832031e+01 1.113485932350158691e+00 9.986560940742492676e-01 6.336426138877868652e-01 -2.379463911056518555e-01
5.855000000000000000e+03 2.605803680419921875e+01 1.058562564849853516e+01 1.203567385673522949e+00 1.492519497871398926e+00 8.088260293006896973e-01 -3.328551352024078369e-01
5.856000000000000000e+03 2.435344696044921875e+01 1.548224544525146484e+01 1.159767985343933105e+00 1.354087114334106445e+00 7.541565299034118652e-01 -4.697484076023101807e-01
5.857000000000000000e+03 2.420804214477539062e+01 1.694481086730957031e+01 1.065338492393493652e+00 1.396855115890502930e+00 7.386580705642700195e-01 -5.134482383728027344e-01
5.858000000000000000e+03 1.793533325195312500e+01 1.358191585540771484e+01 8.464075326919555664e-01 -8.253775537014007568e-02 2.291609346866607666e-01 1.022722125053405762e-01
5.859000000000000000e+03 1.776677322387695312e+01 1.993929100036621094e+01 6.791961789131164551e-01 3.416303098201751709e-01 3.062479496002197266e-01 -1.970091611146926880e-01
5.860000000000000000e+03 1.855470848083496094e+01 2.133871078491210938e+01 6.352148056030273438e-01 5.594074726104736328e-01 3.583866655826568604e-01 -2.952984273433685303e-01
5.861000000000000000e+03 2.305277824401855469e+01 1.955626869201660156e+01 8.851637244224548340e-01 1.321055889129638672e+00 6.618658900260925293e-01 -5.322561860084533691e-01
5.862000000000000000e+03 2.007271385192871094e+01 2.510857391357421875e+01 3.966948390007019043e-01 1.061442732810974121e+00 4.374412894248962402e-01 -4.594675600528717041e-01
5.863000000000000000e+03 2.093543434143066406e+01 2.206224822998046875e+01 6.451633572578430176e-01 1.043090701103210449e+00 5.064762234687805176e-01 -4.705018401145935059e-01
5.864000000000000000e+03 1.429715061187744141e+01 1.409576988220214844e+01 6.393916010856628418e-01 -4.867936968803405762e-01 4.577937722206115723e-02 3.208913803100585938e-01
5.865000000000000000e+03 2.074097824096679688e+01 1.746989822387695312e+01 9.132323265075683594e-01 6.844825744628906250e-01 4.793144762516021729e-01 -2.934902906417846680e-01
5.866000000000000000e+03 2.510873413085937500e+01 1.048250293731689453e+01 1.144199371337890625e+00 1.230437040328979492e+00 7.123908996582031250e-01 -2.625815272331237793e-01
5.867000000000000000e+03 2.612925529479980469e+01 9.545272827148437500e+00 1.136894345283508301e+00 1.454216480255126953e+00 7.773332595825195312e-01 -2.775050997734069824e-01
5.868000000000000000e+03 2.342070579528808594e+01 1.247654533386230469e+01 1.122349262237548828e+00 9.068083167076110840e-01 6.087473034858703613e-01 -2.460067719221115112e-01
5.869000000000000000e+03 2.173751449584960938e+01 1.672325134277343750e+01 9.891307353973388672e-01 8.141043186187744141e-01 5.409705042839050293e-01 -3.329614698886871338e-01
5.870000000000000000e+03 1.710252189636230469e+01 1.459291172027587891e+01 7.986720204353332520e-01 -1.304703801870346069e-01 2.004604935646057129e-01 1.072636619210243225e-01
5.871000000000000000e+03 2.591150093078613281e+01 1.171981334686279297e+01 1.248511433601379395e+00 1.511041164398193359e+00 8.278658390045166016e-01 -3.905811905860900879e-01
5.872000000000000000e+03 1.571112537384033203e+01 1.607015419006347656e+01 6.991440057754516602e-01 -2.177447378635406494e-01 1.444197744131088257e-01 1.287949681282043457e-01
5.873000000000000000e+03 1.980022621154785156e+01 2.058478927612304688e+01 7.117577791213989258e-01 7.182481288909912109e-01 4.290017783641815186e-01 -3.453170359134674072e-01
5.874000000000000000e+03 1.803141593933105469e+01 1.818288612365722656e+01 7.660449743270874023e-01 2.645725309848785400e-01 3.091852664947509766e-01 -1.371132284402847290e-01
5.875000000000000000e+03 1.707006454467773438e+01 1.874556159973144531e+01 7.040035724639892578e-01 1.574830412864685059e-01 2.584459781646728516e-01 -1.001694053411483765e-01
5.876000000000000000e+03 2.255129241943359375e+01 1.764815139770507812e+01 9.618248939514160156e-01 1.082378864288330078e+00 6.132611632347106934e-01 -4.339360892772674561e-01
5.877000000000000000e+03 2.142375564575195312e+01 1.405323505401611328e+01 1.028809428215026855e+00 5.667849779129028320e-01 4.786783158779144287e-01 -1.845470368862152100e-01
5.878000000000000000e+03 2.021128845214843750e+01 1.398326015472412109e+01 9.751979708671569824e-01 3.316536843776702881e-01 3.920554816722869873e-01 -9.612001478672027588e-02
5.879000000000000000e+03 2.269908332824707031e+01 1.395610713958740234e+01 1.093317508697509766e+00 8.555093407630920410e-01 5.846480727195739746e-01 -2.800600230693817139e-01
5.880000000000000000e+03 1.982782554626464844e+01 1.844960403442382812e+01 8.310093879699707031e-01 5.711129903793334961e-01 4.206367135047912598e-01 -2.655903100967407227e-01
5.881000000000000000e+03 2.472811317443847656e+01 2.880904579162597656e+01 4.537884891033172607e-02 2.123089075088500977e+00 6.505403518676757812e-01 -6.073554158210754395e-01
5.882000000000000000e+03 2.234445381164550781e+01 2.316470909118652344e+01 5.640831589698791504e-01 1.360215663909912109e+00 5.772896409034729004e-01 -5.385458469390869141e-01
5.883000000000000000e+03 2.319327735900878906e+01 2.687523078918457031e+01 2.446088045835494995e-01 1.722832083702087402e+00 5.902322530746459961e-01 -5.875133275985717773e-01
5.884000000000000000e+03 1.885069274902343750e+01 1.928756713867187500e+01 7.561347484588623047e-01 4.719145596027374268e-01 3.684147894382476807e-01 -2.399244904518127441e-01
5.885000000000000000e+03 2.011585235595703125e+01 1.527408695220947266e+01 9.450154304504394531e-01 4.179028272628784180e-01 4.088754653930664062e-01 -1.509450823068618774e-01
5.886000000000000000e+03 1.764143753051757812e+01 1.528701114654541016e+01 8.165352344512939453e-01 -5.856269039213657379e-03 2.432036846876144409e-01 3.605537861585617065e-02
5.887000000000000000e+03 2.377986717224121094e+01 1.354259681701660156e+01 1.147853136062622070e+00 1.075968861579895020e+00 6.671466231346130371e-01 -3.312802314758300781e-01
5.888000000000000000e+03 1.857058715820312500e+01 1.582057476043701172e+01 8.569134473800659180e-01 1.806097179651260376e-01 3.112569451332092285e-01 -6.016385927796363831e-02
5.889000000000000000e+03 1.649983024597167969e+01 1.770253372192382812e+01 7.155815958976745605e-01 9.644850157201290131e-03 2.175679355859756470e-01 -1.291344780474901199e-02
5.890000000000000000e+03 1.802081489562988281e+01 1.661670112609863281e+01 8.233321309089660645e-01 1.557845175266265869e-01 2.937349975109100342e-01 -6.765346229076385498e-02
5.891000000000000000e+03 2.288938522338867188e+01 1.661795043945312500e+01 1.042415976524353027e+00 1.082452058792114258e+00 6.374604105949401855e-01 -4.226623177528381348e-01
5.892000000000000000e+03 2.460827064514160156e+01 1.419438552856445312e+01 1.194492578506469727e+00 1.330919146537780762e+00 7.576234936714172363e-01 -4.344232976436614990e-01
5.893000000000000000e+03 2.208438110351562500e+01 2.076926231384277344e+01 7.740334272384643555e-01 1.201155304908752441e+00 5.925565958023071289e-01 -5.097399950027465820e-01
5.894000000000000000e+03 2.087535095214843750e+01 1.961190605163574219e+01 8.117508888244628906e-01 8.726734519004821777e-01 5.053272843360900879e-01 -3.919807374477386475e-01
5.895000000000000000e+03 2.164587211608886719e+01 2.816500091552734375e+01 1.642030924558639526e-01 1.480144381523132324e+00 4.933042526245117188e-01 -5.163283348083496094e-01
5.896000000000000000e+03 1.966790390014648438e+01 1.648701477050781250e+01 9.011117815971374512e-01 4.192329347133636475e-01 3.961034119129180908e-01 -1.779451966285705566e-01
5.897000000000000000e+03 2.147175788879394531e+01 1.541717815399169922e+01 1.003874063491821289e+00 6.747684478759765625e-01 5.035927295684814453e-01 -2.552261650562286377e-01
5.898000000000000000e+03 2.180081748962402344e+01 1.859264183044433594e+01 9.052324891090393066e-01 9.975528717041015625e-01 5.708355903625488281e-01 -4.208764135837554932e-01
5.899000000000000000e+03 2.074121856689453125e+01 3.129424667358398438e+01 -4.851478338241577148e-02 1.423581838607788086e+00 4.125201404094696045e-01 -4.338198900222778320e-01
5.900000000000000000e+03 2.805693626403808594e+01 2.884459877014160156e+01 -7.196154445409774780e-02 2.848127603530883789e+00 8.328498005867004395e-01 -6.843405365943908691e-01
5.901000000000000000e+03 1.559843063354492188e+01 3.434355545043945312e+01 -9.848047047853469849e-02 6.019618511199951172e-01 1.510444134473800659e-01 -2.094582170248031616e-01
5.902000000000000000e+03 1.820335197448730469e+01 2.938327407836914062e+01 1.017276570200920105e-01 9.314678311347961426e-01 3.099586367607116699e-01 -3.825043737888336182e-01
5.903000000000000000e+03 1.847244262695312500e+01 3.448644638061523438e+01 -1.689682304859161377e-01 1.135535836219787598e+00 2.899702787399291992e-01 -2.807058095932006836e-01
5.904000000000000000e+03 2.249134445190429688e+01 3.701601409912109375e+01 -4.260362684726715088e-01 1.934347033500671387e+00 4.524932205677032471e-01 -2.693440914154052734e-01
5.905000000000000000e+03 3.755739212036132812e+01 4.119076538085937500e+01 -1.258681058883666992e+00 3.750664949417114258e+00 7.475951910018920898e-01 -3.192304819822311401e-02
5.906000000000000000e+03 2.909379005432128906e+01 3.720724487304687500e+01 -7.458902001380920410e-01 3.003938198089599609e+00 6.774144172668457031e-01 -3.006274998188018799e-01
5.907000000000000000e+03 5.872909164428710938e+01 3.934986495971679688e+01 -4.371482729911804199e-01 -3.806133568286895752e-01 -2.453284859657287598e-01 3.100103735923767090e-01
5.908000000000000000e+03 1.479498100280761719e+01 3.729029464721679688e+01 -1.528115570545196533e-01 4.912857115268707275e-01 1.015422493219375610e-01 -1.420707851648330688e-01
5.909000000000000000e+03 1.340404415130615234e+01 4.068824386596679688e+01 -1.615988016128540039e-01 2.177924364805221558e-01 1.685808971524238586e-02 -3.966237604618072510e-02
5.910000000000000000e+03 4.716707611083984375e+01 -4.120141220092773438e+01 -1.121585845947265625e+00 5.939971923828125000e+00 1.445515871047973633e+00 -3.436176851391792297e-02
5.911000000000000000e+03 2.152785491943359375e+01 3.392402267456054688e+01 -2.320325374603271484e-01 1.665862560272216797e+00 4.301489889621734619e-01 -3.899627029895782471e-01
5.912000000000000000e+03 2.219007873535156250e+01 -1.380679416656494141e+01 -1.700616110156261129e-07 3.327035301481373608e-06 9.470921327192627359e-07 1.067620360117871314e-06
5.913000000000000000e+03 3.721414327621459961e+00 -4.043775177001953125e+01 6.436121766455471516e-04 -5.459157284349203110e-03 -1.444663503207266331e-03 1.639886977500282228e-05
5.914000000000000000e+03 5.479711151123046875e+01 3.446257781982421875e+01 -6.353315711021423340e-01 -3.676076233386993408e-02 -2.016276866197586060e-01 -3.172206580638885498e-01
5.915000000000000000e+03 5.895695114135742188e+01 3.783118057250976562e+01 -8.680679202079772949e-01 -4.239557087421417236e-01 -3.876070976257324219e-01 3.060088157653808594e-01
5.916000000000000000e+03 6.131039810180664062e+01 3.920186233520507812e+01 -3.123883903026580811e-01 -5.342844724655151367e-01 -2.540018558502197266e-01 2.927085757255554199e-01
5.917000000000000000e+03 5.886832809448242188e+01 3.668160247802734375e+01 -1.439484715461730957e+00 -4.084402620792388916e-01 -5.543774962425231934e-01 3.743169903755187988e-01
5.918000000000000000e+03 5.667617797851562500e+01 3.841688156127929688e+01 -6.380055546760559082e-01 -3.058353662490844727e-01 -2.831522822380065918e-01 3.068616390228271484e-01
5.919000000000000000e+03 6.058155059814453125e+01 3.745348739624023438e+01 -1.126523733139038086e+00 -4.525239467620849609e-01 -4.737143218517303467e-01 4.752186536788940430e-01
5.920000000000000000e+03 7.055797576904296875e+01 -3.547056198120117188e+01 -1.986597180366516113e-01 4.496955871582031250e+00 1.289488792419433594e+00 8.961325287818908691e-01
5.921000000000000000e+03 1.341006755828857422e+00 3.853412246704101562e+01 -5.588453263044357300e-03 -1.837633967399597168e+00 -5.529667139053344727e-01 -7.387072779238224030e-03
5.922000000000000000e+03 6.519374847412109375e+01 -2.112624549865722656e+01 -1.813739895820617676e+00 1.062371492385864258e+00 -2.254105061292648315e-01 1.147140502929687500e+00
5.923000000000000000e+03 1.950706100463867188e+01 -9.972414016723632812e+00 -7.390803148155100644e-06 2.474560233167721890e-06 -1.474872874496213626e-06 -1.440696564714016858e-06
5.924000000000000000e+03 6.386700439453125000e+01 -3.510003662109375000e+01 -4.289817512035369873e-01 9.799867123365402222e-02 -9.929492324590682983e-02 4.604028537869453430e-02
5.925000000000000000e+03 2.488297224044799805e+00 -3.702187347412109375e+01 -2.750600397121161222e-04 -1.504542771726846695e-03 -5.338808405213057995e-04 -6.964052445255219936e-04
5.926000000000000000e+03 8.887292861938476562e+00 -3.687731170654296875e+01 5.916230293223634362e-06 -9.278499521315097809e-03 -2.781774848699569702e-03 -7.226212415844202042e-03
5.927000000000000000e+03 5.251633834838867188e+01 -3.098638343811035156e+01 1.912345409393310547e+00 5.369168281555175781e+00 2.184453964233398438e+00 -7.833327651023864746e-01
5.928000000000000000e+03 3.413666915893554688e+01 -3.540465927124023438e+01 -4.665360786020755768e-03 1.742301583290100098e-01 5.086944252252578735e-02 -1.860668533481657505e-03
5.929000000000000000e+03 5.505004882812500000e+01 -1.780010414123535156e+01 -3.642280340194702148e+00 -1.690387129783630371e+00 -1.599800229072570801e+00 9.006367325782775879e-01
5.930000000000000000e+03 5.548194885253906250e+01 -1.832108497619628906e+01 -2.264736175537109375e+00 -1.230557322502136230e+00 -1.048588037490844727e+00 1.116115450859069824e+00
5.931000000000000000e+03 5.515576171875000000e+01 -3.514078521728515625e+01 1.571844816207885742e-01 4.693581581115722656e+00 1.455229878425598145e+00 -1.079256176948547363e+00
5.932000000000000000e+03 1.980312347412109375e+01 -1.132958793640136719e+01 1.151716787717305124e-05 -2.043812855845317245e-06 2.842006551873055287e-06 3.876883511111373082e-06
5.933000000000000000e+03 1.838545417785644531e+01 -9.261307716369628906e+00 1.030614293995313346e-05 -5.088470970804337412e-06 1.565301772643579170e-06 -1.848433157647377811e-06
5.934000000000000000e+03 3.028158426284790039e+00 -3.673478698730468750e+01 1.874733861768618226e-04 -2.151091117411851883e-03 -5.890853353776037693e-04 -1.079560839571058750e-03
5.935000000000000000e+03 6.785931396484375000e+01 -1.898215293884277344e+01 -9.637444615364074707e-01 1.207498192787170410e+00 7.312611490488052368e-02 3.929453194141387939e-01
5.936000000000000000e+03 3.100303459167480469e+01 -3.424531173706054688e+01 -3.282757699489593506e-01 3.839217498898506165e-02 -8.696507662534713745e-02 -1.411509066820144653e-01
5.937000000000000000e+03 2.173182678222656250e+01 -3.300365829467773438e+01 -1.055700033903121948e-01 -2.841650974005460739e-03 -3.252349793910980225e-02 -5.145041644573211670e-02
5.938000000000000000e+03 4.990555763244628906e+00 -3.660171890258789062e+01 4.949703793499793392e-07 -3.218425670638680458e-03 -9.653792367316782475e-04 -2.475623972713947296e-03
5.939000000000000000e+03 4.053762054443359375e+01 -1.773683357238769531e+01 4.754945933818817139e-01 7.338843345642089844e+00 2.344301462173461914e+00 -3.112188816070556641e+00
5.940000000000000000e+03 4.109704208374023438e+01 -1.770655250549316406e+01 6.896743923425674438e-02 8.088502883911132812e+00 2.447241067886352539e+00 -2.874046087265014648e+00
5.941000000000000000e+03 7.334047698974609375e+01 -2.319876861572265625e+01 -4.175003767013549805e-01 8.029211044311523438e+00 2.283513307571411133e+00 9.040088057518005371e-01
5.942000000000000000e+03 1.129817485809326172e+01 -3.145858573913574219e+01 -9.180941618978977203e-03 -1.458923914469778538e-03 -3.191959578543901443e-03 -3.659178968518972397e-03
5.943000000000000000e+03 1.079497718811035156e+01 -3.230529785156250000e+01 -7.754278369247913361e-03 -5.625030025839805603e-04 -2.495034364983439445e-03 -4.510838538408279419e-03
5.944000000000000000e+03 4.717255401611328125e+01 3.435127258300781250e+01 -6.561418771743774414e-01 2.670709371566772461e+00 6.043702960014343262e-01 5.264382958412170410e-01
5.945000000000000000e+03 3.255026626586914062e+01 -3.507117080688476562e+01 -1.658205837011337280e-01 5.235467106103897095e-02 -3.403977304697036743e-02 -1.399443149566650391e-01
5.946000000000000000e+03 6.479473876953125000e+01 -2.074771881103515625e+01 -1.419997572898864746e+00 1.305472373962402344e+00 -3.435756638646125793e-02 1.756389260292053223e+00
5.947000000000000000e+03 7.483155059814453125e+01 -3.423072433471679688e+01 -2.494714111089706421e-01 6.517072677612304688e+00 1.880280375480651855e+00 -1.328029632568359375e-01
5.948000000000000000e+03 2.223940658569335938e+01 -3.411278915405273438e+01 -7.959850877523422241e-02 -1.320344116538763046e-02 -2.784058637917041779e-02 -7.271283119916915894e-02
5.949000000000000000e+03 2.108741950988769531e+01 -3.452106857299804688e+01 -5.769201368093490601e-02 -1.944666355848312378e-02 -2.314160205423831940e-02 -6.927610188722610474e-02
5.950000000000000000e+03 4.339767074584960938e+01 -2.629659843444824219e+01 6.871672272682189941e-01 1.308561229705810547e+01 4.131834030151367188e+00 -8.115850090980529785e-01
5.951000000000000000e+03 9.474645614624023438e+00 -3.232675933837890625e+01 -5.001563578844070435e-03 -2.235776279121637344e-03 -2.171202097088098526e-03 -2.711604349315166473e-03
5.952000000000000000e+03 2.721226453781127930e+00 3.707916259765625000e+01 -1.627823710441589355e-02 -1.630228757858276367e+00 -4.939520955085754395e-01 -2.957292273640632629e-02
5.953000000000000000e+03 3.390923976898193359e+00 3.665769577026367188e+01 -9.398683905601501465e-03 -1.471278548240661621e+00 -4.442031979560852051e-01 -9.437034837901592255e-03
5.954000000000000000e+03 1.237235736846923828e+01 3.831278562545776367e+00 -4.833129048347473145e-01 -1.010713815689086914e+00 -4.482080340385437012e-01 1.002947807312011719e+00
5.955000000000000000e+03 1.328833961486816406e+01 3.825387716293334961e+00 -4.455317258834838867e-01 -1.058116316795349121e+00 -4.510944187641143799e-01 9.852064251899719238e-01
5.956000000000000000e+03 4.217416000366210938e+01 -3.354017257690429688e+01 -3.899591565132141113e-01 6.348886966705322266e+00 1.787678360939025879e+00 1.126027584075927734e+00
5.957000000000000000e+03 6.074041748046875000e+01 -1.835442924499511719e+01 -1.706355094909667969e+00 2.092215061187744141e+00 1.157580092549324036e-01 2.546361923217773438e+00
5.958000000000000000e+03 4.192948913574218750e+01 -1.744609832763671875e+01 -4.661001563072204590e-01 8.642352104187011719e+00 2.452875614166259766e+00 -2.230438709259033203e+00
5.959000000000000000e+03 4.003908157348632812e+01 -1.556820011138916016e+01 -9.624302983283996582e-01 6.125079631805419922e+00 1.548794746398925781e+00 -2.418716192245483398e+00
5.960000000000000000e+03 4.054618072509765625e+01 -1.462840461730957031e+01 -1.425492882728576660e+00 6.401535511016845703e+00 1.492812752723693848e+00 -2.025772571563720703e+00
5.961000000000000000e+03 3.848221778869628906e+00 3.368249130249023438e+01 -8.256209082901477814e-03 -1.448794841766357422e+00 -4.371153414249420166e-01 -5.793624371290206909e-02
5.962000000000000000e+03 2.902805709838867188e+01 2.397663307189941406e+01 4.756904244422912598e-01 3.004076004028320312e+00 1.043929934501647949e+00 -8.329333066940307617e-01
5.963000000000000000e+03 5.573583602905273438e+01 -2.175407600402832031e+01 1.290390968322753906e+00 9.192669391632080078e-01 6.628973484039306641e-01 9.842486381530761719e-01
5.964000000000000000e+03 3.848022842407226562e+01 -1.456695652008056641e+01 -8.435328006744384766e-01 4.411099910736083984e+00 1.070270180702209473e+00 -2.217018604278564453e+00
5.965000000000000000e+03 3.782786560058593750e+01 -1.467226505279541016e+01 -6.458599567413330078e-01 3.800228834152221680e+00 9.463106393814086914e-01 -2.144806385040283203e+00
5.966000000000000000e+03 3.734476089477539062e+01 -1.384123516082763672e+01 -7.705588936805725098e-01 3.546717882156372070e+00 8.328477144241333008e-01 -1.842530727386474609e+00
5.967000000000000000e+03 4.152310943603515625e+01 -3.406988906860351562e+01 -4.643113911151885986e-01 5.552491664886474609e+00 1.526454091072082520e+00 1.415532112121582031e+00
5.968000000000000000e+03 3.347638702392578125e+01 -3.471123886108398438e+01 -2.167985439300537109e-01 5.465527623891830444e-02 -4.864297807216644287e-02 -9.217664599418640137e-02
5.969000000000000000e+03 6.871525573730468750e+01 -1.773060798645019531e+01 -4.731766283512115479e-01 2.548576593399047852e+00 6.226199865341186523e-01 -1.349045485258102417e-01
5.970000000000000000e+03 1.641749382019042969e+01 -9.763970375061035156e+00 -8.319973858306184411e-06 -5.144795977685134858e-06 -4.039431132696336135e-06 2.420837972749723122e-06
5.971000000000000000e+03 7.679935455322265625e+01 -3.342826080322265625e+01 -7.931167632341384888e-02 6.598259925842285156e+00 1.955684423446655273e+00 -4.158143699169158936e-01
5.972000000000000000e+03 3.237706899642944336e+00 4.779061794281005859e+00 -1.173105686902999878e-01 -3.170952200889587402e-01 -1.303217411041259766e-01 3.276961147785186768e-01
5.973000000000000000e+03 1.536324787139892578e+01 -1.044391059875488281e+01 -9.581492122379131615e-06 6.700364338030340150e-06 -8.643384035167400725e-07 -7.699593879806343466e-06
5.974000000000000000e+03 7.676159667968750000e+01 3.077319335937500000e+01 -1.816162317991256714e-01 9.955351829528808594e+00 2.932120561599731445e+00 6.253398060798645020e-01
5.975000000000000000e+03 3.831093978881835938e+01 -1.303066158294677734e+01 -1.108090281486511230e+00 4.430963039398193359e+00 9.968617558479309082e-01 -1.828690528869628906e+00
5.976000000000000000e+03 4.535851287841796875e+01 -3.305635070800781250e+01 1.235981807112693787e-01 7.126224994659423828e+00 2.174946784973144531e+00 -4.286160767078399658e-01
5.977000000000000000e+03 3.867314100265502930e+00 3.234918594360351562e+01 4.243166651576757431e-03 -1.472780227661132812e+00 -4.405611157417297363e-01 -5.167435854673385620e-02
5.978000000000000000e+03 1.334397792816162109e+01 5.010355949401855469e+00 -1.567100286483764648e-01 -1.030755400657653809e+00 -3.562396168708801270e-01 9.226686954498291016e-01
5.979000000000000000e+03 5.400648593902587891e+00 -3.224298477172851562e+01 -1.182965934276580811e-03 -1.256161369383335114e-03 -7.317381678149104118e-04 -1.327842241153120995e-03
5.980000000000000000e+03 2.959396553039550781e+01 -1.096682643890380859e+01 -8.880687952041625977e-01 7.454842329025268555e-01 -4.277538135647773743e-02 4.630751907825469971e-01
5.981000000000000000e+03 4.772216796875000000e+01 -2.882569503784179688e+01 2.165278911590576172e+00 6.730544090270996094e+00 2.668746948242187500e+00 -1.393680095672607422e+00
5.982000000000000000e+03 5.957464218139648438e+01 -1.937844848632812500e+01 -1.282451272010803223e+00 1.560489892959594727e+00 8.341158181428909302e-02 2.688961982727050781e+00
5.983000000000000000e+03 1.398162746429443359e+01 5.479888439178466797e+00 -4.375902563333511353e-02 -1.013840675354003906e+00 -3.172799050807952881e-01 8.700507879257202148e-01
5.984000000000000000e+03 1.630508422851562500e+01 -9.212118148803710938e+00 6.586767540284199640e-06 7.954712600621860474e-06 4.362444087746553123e-06 1.071442056854721159e-06
5.985000000000000000e+03 6.264111995697021484e+00 -2.151071739196777344e+01 9.831036550167482346e-06 -1.900372299132868648e-04 -5.406185664469376206e-05 -2.832137979567050934e-04
5.986000000000000000e+03 7.676428222656250000e+01 3.226409912109375000e+01 -2.088429629802703857e-01 1.012223815917968750e+01 2.974018573760986328e+00 5.007116794586181641e-01
5.987000000000000000e+03 9.454737663269042969e+00 -1.397189807891845703e+01 -7.922008990135509521e-06 1.356965367449447513e-04 3.833236041828058660e-05 -3.995144288637675345e-05
5.988000000000000000e+03 7.294655609130859375e+01 -1.710455131530761719e+01 -8.594281077384948730e-01 5.899081230163574219e+00 1.511896014213562012e+00 -8.033655285835266113e-01
5.989000000000000000e+03 4.501261138916015625e+01 2.869823265075683594e+01 2.066398859024047852e-01 3.950840950012207031e+00 1.247244238853454590e+00 1.044501304626464844e+00
5.990000000000000000e+03 5.624807357788085938e+00 -3.109545135498046875e+01 -1.112937810830771923e-03 -1.097598928026854992e-03 -6.631610449403524399e-04 -8.999223937280476093e-04
5.991000000000000000e+03 3.043115043640136719e+01 -1.113221836090087891e+01 -8.431713581085205078e-01 9.711370468139648438e-01 3.838971257209777832e-02 3.002577722072601318e-01
5.992000000000000000e+03 4.234032440185546875e+01 -1.568934535980224609e+01 -1.527173399925231934e+00 7.757796764373779297e+00 1.869187116622924805e+00 -1.544042348861694336e+00
5.993000000000000000e+03 7.515596008300781250e+01 -2.578983306884765625e+01 8.197651505470275879e-01 7.554548740386962891e+00 2.512294054031372070e+00 8.699059486389160156e-01
5.994000000000000000e+03 4.168047904968261719e+00 3.105459403991699219e+01 1.230649556964635849e-02 -1.441751122474670410e+00 -4.288333952426910400e-01 -4.712325707077980042e-02
5.995000000000000000e+03 1.056478500366210938e+01 2.643533515930175781e+01 1.707547307014465332e-01 -4.749914109706878662e-01 -9.127100557088851929e-02 -5.833894014358520508e-02
5.996000000000000000e+03 6.762218952178955078e+00 -1.621566772460937500e+01 -4.033419372717617080e-06 1.950219302671030164e-04 5.729655094910413027e-05 2.876932194340042770e-05
5.997000000000000000e+03 5.030163574218750000e+01 -1.681989097595214844e+01 -2.367000341415405273e+00 3.881545543670654297e+00 4.543635845184326172e-01 3.472798690199851990e-02
5.998000000000000000e+03 4.613472747802734375e+01 -1.763054656982421875e+01 -9.215813279151916504e-01 7.377841472625732422e+00 1.936878085136413574e+00 -3.504509627819061279e-01
5.999000000000000000e+03 4.640756607055664062e+01 -2.627953529357910156e+01 2.397419929504394531e+00 8.185969352722167969e+00 3.175016880035400391e+00 -1.580235004425048828e+00
6.000000000000000000e+03 4.791242218017578125e+01 -2.707801628112792969e+01 2.526224136352539062e+00 6.605401515960693359e+00 2.739487648010253906e+00 -1.542740345001220703e+00
6.001000000000000000e+03 4.697350311279296875e+01 -2.627978134155273438e+01 2.523810386657714844e+00 7.474808216094970703e+00 2.999585628509521484e+00 -1.612446427345275879e+00
6.002000000000000000e+03 4.075988388061523438e+01 -1.142923831939697266e+01 -1.700349688529968262e+00 5.779170989990234375e+00 1.223646402359008789e+00 -1.327693819999694824e+00
6.003000000000000000e+03 7.536457824707031250e+01 -2.261975860595703125e+01 -3.875065147876739502e-01 7.567020416259765625e+00 2.153854131698608398e+00 1.038092494010925293e+00
6.004000000000000000e+03 4.351126098632812500e+01 -1.662712478637695312e+01 -1.256445050239562988e+00 8.259203910827636719e+00 2.100827693939208984e+00 -1.114122271537780762e+00
6.005000000000000000e+03 4.833964920043945312e+01 -2.671692848205566406e+01 2.564842939376831055e+00 6.231691360473632812e+00 2.638960361480712891e+00 -1.515226960182189941e+00
6.006000000000000000e+03 4.748558807373046875e+01 -2.661074256896972656e+01 2.502126455307006836e+00 7.016669750213623047e+00 2.855638742446899414e+00 -1.567765235900878906e+00
6.007000000000000000e+03 4.686967372894287109e+00 -3.079172515869140625e+01 -4.613371274899691343e-04 -5.915416404604911804e-04 -3.158636391162872314e-04 -2.079827099805697799e-04
6.008000000000000000e+03 6.857695007324218750e+01 -1.537319469451904297e+01 2.083397805690765381e-01 3.624866008758544922e+00 1.149961709976196289e+00 2.537655234336853027e-01
6.009000000000000000e+03 6.835874176025390625e+01 -1.608477592468261719e+01 2.794613316655158997e-02 3.227386474609375000e+00 9.765997529029846191e-01 2.580659687519073486e-01
6.010000000000000000e+03 1.063805007934570312e+01 -9.745526313781738281e+00 7.343021479755407199e-06 1.614994289411697537e-05 7.047889084788039327e-06 1.165476169262547046e-05
6.011000000000000000e+03 8.648491859436035156e+00 8.657238006591796875e+00 1.016416773200035095e-01 -8.233650326728820801e-01 -2.165170162916183472e-01 7.792813181877136230e-01
6.012000000000000000e+03 7.592411804199218750e+01 -2.256292152404785156e+01 -2.829645574092864990e-01 7.471172809600830078e+00 2.156462430953979492e+00 9.964087605476379395e-01
6.013000000000000000e+03 7.612295532226562500e+01 -2.402161788940429688e+01 1.574212312698364258e-01 7.316798210144042969e+00 2.242265939712524414e+00 1.057110786437988281e+00
6.014000000000000000e+03 7.607566833496093750e+01 -2.636175346374511719e+01 6.988903284072875977e-01 7.136359691619873047e+00 2.350574970245361328e+00 6.838406324386596680e-01
6.015000000000000000e+03 3.558155441284179688e+01 -1.365910530090332031e+01 -5.837308764457702637e-01 2.285208225250244141e+00 5.104432106018066406e-01 -1.209030508995056152e+00
6.016000000000000000e+03 1.756054115295410156e+01 4.729459762573242188e+00 5.111864954233169556e-02 -8.588283061981201172e-01 -2.423128932714462280e-01 6.518468856811523438e-01
6.017000000000000000e+03 1.461606216430664062e+01 6.087707519531250000e+00 1.131046041846275330e-01 -9.610854983329772949e-01 -2.543942630290985107e-01 7.891288995742797852e-01
6.018000000000000000e+03 7.346749114990234375e+01 1.440458774566650391e+00 8.715907335281372070e-01 9.661129951477050781e+00 3.159816265106201172e+00 5.444830656051635742e-01
6.019000000000000000e+03 4.354357147216796875e+01 -1.536520767211914062e+01 -1.781915068626403809e+00 7.706698417663574219e+00 1.777434945106506348e+00 -9.701213240623474121e-01
6.020000000000000000e+03 1.345599937438964844e+01 -7.428659439086914062e+00 -1.285319740418344736e-05 5.738691925216699019e-06 -2.134351689164759591e-06 -1.336782361249788664e-06
6.021000000000000000e+03 8.197498321533203125e+00 -5.920289039611816406e+00 -5.207028152653947473e-06 1.382410937367239967e-05 2.585124320830800571e-06 4.968853318132460117e-06
6.022000000000000000e+03 4.627645492553710938e+00 -3.018154907226562500e+01 -5.534798838198184967e-04 -1.230863039381802082e-03 -5.353029118850827217e-04 1.001059572445228696e-04
6.023000000000000000e+03 4.759035110473632812e+01 -2.545494079589843750e+01 2.589135646820068359e+00 6.796448230743408203e+00 2.815675258636474609e+00 -1.630734920501708984e+00
6.024000000000000000e+03 7.131678771972656250e+01 -1.609798812866210938e+01 -4.022932350635528564e-01 4.887212276458740234e+00 1.345475673675537109e+00 -6.830266118049621582e-01
6.025000000000000000e+03 6.793958282470703125e+01 -1.513656234741210938e+01 3.139514327049255371e-01 3.470730781555175781e+00 1.135404706001281738e+00 5.366434454917907715e-01
6.026000000000000000e+03 4.304931640625000000e+01 -1.582007694244384766e+01 -1.561165809631347656e+00 7.872485637664794922e+00 1.893395900726318359e+00 -1.268358588218688965e+00
6.027000000000000000e+03 1.015341281890869141e+01 -1.000957202911376953e+01 -4.235796950524672866e-05 -1.042531494022114202e-05 -1.583498487889301032e-05 -1.081444588635349646e-05
6.028000000000000000e+03 7.630504608154296875e+01 -2.214505577087402344e+01 -3.369136452674865723e-01 7.489652156829833984e+00 2.145821571350097656e+00 9.366364479064941406e-01
6.029000000000000000e+03 8.087678909301757812e+00 8.248806953430175781e+00 5.040464177727699280e-02 -7.950028181076049805e-01 -2.233794629573822021e-01 7.788509130477905273e-01
6.030000000000000000e+03 1.037216281890869141e+01 -9.269621849060058594e+00 -1.599065944901667535e-05 -3.398047556402161717e-05 -1.499134032201254740e-05 -1.172464817500440404e-05
6.031000000000000000e+03 5.275740814208984375e+01 -2.279085922241210938e+01 1.830331563949584961e+00 2.540603160858154297e+00 1.311280488967895508e+00 -4.139200747013092041e-01
6.032000000000000000e+03 1.684752082824707031e+01 6.147343635559082031e+00 2.567306458950042725e-01 -8.117770552635192871e-01 -1.665139198303222656e-01 6.169196963310241699e-01
6.033000000000000000e+03 5.074950408935546875e+01 -2.496359634399414062e+01 2.529529809951782227e+00 4.385879993438720703e+00 2.074622869491577148e+00 -1.104090571403503418e+00
6.034000000000000000e+03 4.664167404174804688e+01 -1.656717300415039062e+01 -1.560199141502380371e+00 6.906725883483886719e+00 1.603958010673522949e+00 -1.452973634004592896e-01
6.035000000000000000e+03 1.344524478912353516e+01 2.480871391296386719e+01 2.979567348957061768e-01 -5.900146067142486572e-02 7.168658077716827393e-02 -1.295239776372909546e-01
6.036000000000000000e+03 4.863042068481445312e+01 -2.570755767822265625e+01 2.602761030197143555e+00 5.870767116546630859e+00 2.542058467864990234e+00 -1.521193146705627441e+00
6.037000000000000000e+03 3.808857345581054688e+01 6.688904285430908203e+00 1.384477019309997559e+00 6.717756271362304688e+00 2.430670022964477539e+00 -7.837774157524108887e-01
6.038000000000000000e+03 7.152750396728515625e+01 -1.501579856872558594e+01 -1.641901284456253052e-01 5.152245521545410156e+00 1.496416687965393066e+00 -5.761765241622924805e-01
6.039000000000000000e+03 6.601347923278808594e+00 7.461955547332763672e+00 -4.700345173478126526e-02 -6.960210800170898438e-01 -2.229073643684387207e-01 7.110714912414550781e-01
6.040000000000000000e+03 6.650491237640380859e+00 7.999337673187255859e+00 -7.048986735753715038e-04 -7.379281520843505859e-01 -2.215899229049682617e-01 7.093236446380615234e-01
6.041000000000000000e+03 7.480828094482421875e+01 1.402385592460632324e+00 6.698740720748901367e-01 8.325816154479980469e+00 2.698706865310668945e+00 3.633100986480712891e-01
6.042000000000000000e+03 1.406811904907226562e+01 -8.434098243713378906e+00 8.238169471042056102e-07 -2.848374833774869330e-06 -6.073673262108059134e-07 5.563593731494620442e-06
6.043000000000000000e+03 7.934237480163574219e+00 -6.506397247314453125e+00 4.906231424683937803e-06 1.353005336568458006e-05 5.530885573534760624e-06 3.236235897929873317e-06
6.044000000000000000e+03 3.250494384765625000e+01 -9.897762298583984375e+00 -8.646686077117919922e-01 1.976383924484252930e+00 3.335146009922027588e-01 -2.060375660657882690e-01
6.045000000000000000e+03 1.413486385345458984e+01 1.007776641845703125e+01 5.016238689422607422e-01 -7.523325085639953613e-01 -7.521259039640426636e-02 5.805156230926513672e-01
6.046000000000000000e+03 1.391835403442382812e+01 1.058347892761230469e+01 5.276646018028259277e-01 -7.237510681152343750e-01 -5.882593616843223572e-02 5.630041956901550293e-01
6.047000000000000000e+03 1.448697376251220703e+01 1.053939819335937500e+01 5.586678981781005859e-01 -6.899137496948242188e-01 -3.937375918030738831e-02 5.222597718238830566e-01
6.048000000000000000e+03 5.119441509246826172e+00 -1.440503692626953125e+01 5.891029104532208294e-06 7.974195614224299788e-05 2.568989475548733026e-05 1.130052769440226257e-04
6.049000000000000000e+03 5.598481655120849609e+00 -1.438820171356201172e+01 -1.092767797672422603e-05 2.612915886857081205e-05 4.560444267553975806e-06 -1.149128875113092363e-04
6.050000000000000000e+03 6.728493213653564453e+00 -8.373662948608398438e+00 1.991112412724760361e-07 -9.348688763566315174e-06 -2.744873199844732881e-06 -6.294843387877335772e-06
6.051000000000000000e+03 3.198675918579101562e+01 1.475179767608642578e+01 1.505326390266418457e+00 3.779138088226318359e+00 1.585339307785034180e+00 -8.433973193168640137e-01
6.052000000000000000e+03 4.605504608154296875e+01 -8.651619911193847656e+00 -1.090855479240417480e+00 5.488749027252197266e+00 1.319368124008178711e+00 -5.258325934410095215e-01
6.053000000000000000e+03 7.417417144775390625e+01 2.601837539672851562e+01 4.740765318274497986e-02 8.223741531372070312e+00 2.481344699859619141e+00 9.380744695663452148e-01
6.054000000000000000e+03 1.865992927551269531e+01 5.836712360382080078e+00 3.164059519767761230e-01 -6.057994365692138672e-01 -8.681804686784744263e-02 4.855678379535675049e-01
6.055000000000000000e+03 7.465727233886718750e+01 -6.499381065368652344e+00 1.250302344560623169e-01 7.193339347839355469e+00 2.195510864257812500e+00 -4.778331518173217773e-01
6.056000000000000000e+03 1.587387561798095703e+01 1.216361618041992188e+01 7.021756172180175781e-01 -4.601717293262481689e-01 7.260116189718246460e-02 3.416869342327117920e-01
6.057000000000000000e+03 1.905827522277832031e+01 1.378840732574462891e+01 9.169803261756896973e-01 1.169785410165786743e-01 3.101876676082611084e-01 8.242766372859477997e-03
6.058000000000000000e+03 3.253421401977539062e+01 1.192107868194580078e+01 1.633356094360351562e+00 3.910703659057617188e+00 1.663217902183532715e+00 -7.195203900337219238e-01
6.059000000000000000e+03 3.092044639587402344e+01 -3.846767663955688477e+00 -7.635669112205505371e-01 2.367380142211914062e+00 4.811439812183380127e-01 -2.708012051880359650e-02
6.060000000000000000e+03 7.118681335449218750e+01 -1.214259719848632812e+01 2.881659567356109619e-01 5.729364395141601562e+00 1.805259108543395996e+00 -8.500730991363525391e-02
6.061000000000000000e+03 3.223700332641601562e+01 -8.696043014526367188e+00 -9.149572849273681641e-01 2.135058641433715820e+00 3.660303950309753418e-01 -1.611906290054321289e-01
6.062000000000000000e+03 7.060598754882812500e+01 -1.233669757843017578e+01 3.631401360034942627e-01 5.469458580017089844e+00 1.749779582023620605e+00 6.595062464475631714e-02
6.063000000000000000e+03 3.355660247802734375e+01 1.262813282012939453e+01 1.674539804458618164e+00 4.434113979339599609e+00 1.832596182823181152e+00 -8.072217702865600586e-01
6.064000000000000000e+03 7.250045013427734375e+01 -9.970552444458007812e+00 2.076488137245178223e-01 6.619823932647705078e+00 2.048241853713989258e+00 -1.889132559299468994e-01
6.065000000000000000e+03 4.124494171142578125e+01 -5.893680572509765625e+00 -1.097039341926574707e+00 5.560297012329101562e+00 1.338977336883544922e+00 -1.050841450691223145e+00
6.066000000000000000e+03 1.656431579589843750e+01 1.272440719604492188e+01 7.513796687126159668e-01 -3.372552692890167236e-01 1.242373138666152954e-01 2.550759017467498779e-01
6.067000000000000000e+03 1.792610359191894531e+01 1.073817348480224609e+01 7.680085301399230957e-01 -3.112529218196868896e-01 1.370266824960708618e-01 2.697024345397949219e-01
6.068000000000000000e+03 3.459469223022460938e+01 9.053951263427734375e+00 1.641822338104248047e+00 4.836846351623535156e+00 1.943600654602050781e+00 -6.096486449241638184e-01
6.069000000000000000e+03 1.732900810241699219e+01 1.725026512145996094e+01 7.741248607635498047e-01 9.428211301565170288e-02 2.605220973491668701e-01 -5.101971700787544250e-02
6.070000000000000000e+03 3.353705596923828125e+01 1.175051021575927734e+01 1.713734388351440430e+00 4.419974803924560547e+00 1.840112805366516113e+00 -7.542200088500976562e-01
6.071000000000000000e+03 1.676656532287597656e+01 1.648222541809082031e+01 7.509969472885131836e-01 -3.569521382451057434e-02 2.145905345678329468e-01 2.888450212776660919e-02
6.072000000000000000e+03 7.040216922760009766e+00 -7.771549701690673828e+00 1.377940407110145316e-06 2.141986260539852083e-05 6.839341040176805109e-06 1.193057869386393577e-05
6.073000000000000000e+03 4.003244018554687500e+01 -5.380315303802490234e+00 -1.042172551155090332e+00 5.340607643127441406e+00 1.289530515670776367e+00 -1.020062208175659180e+00
6.074000000000000000e+03 3.509726333618164062e+01 -5.620417594909667969e+00 -9.225142598152160645e-01 3.768078804016113281e+00 8.536694049835205078e-01 -5.550397038459777832e-01
6.075000000000000000e+03 6.362476348876953125e+00 1.438924598693847656e+01 1.788688451051712036e-01 -1.011136412620544434e+00 -2.496802508831024170e-01 4.602634906768798828e-01
6.076000000000000000e+03 1.355428504943847656e+01 1.519296169281005859e+01 5.988107323646545410e-01 -4.906840026378631592e-01 3.243802115321159363e-02 2.974242568016052246e-01
6.077000000000000000e+03 4.078858566284179688e+01 -4.752959251403808594e+00 -9.286467432975769043e-01 5.542533397674560547e+00 1.384166002273559570e+00 -1.077559828758239746e+00
6.078000000000000000e+03 6.506470680236816406e+00 1.276324558258056641e+01 1.736973226070404053e-01 -9.502607583999633789e-01 -2.329690307378768921e-01 5.425548553466796875e-01
6.079000000000000000e+03 4.272999191284179688e+01 -5.486681938171386719e+00 -9.257180094718933105e-01 5.693354606628417969e+00 1.430291056632995605e+00 -1.116007566452026367e+00
6.080000000000000000e+03 4.146724319458007812e+01 -4.629974842071533203e+00 -8.792673945426940918e-01 5.636220932006835938e+00 1.427085995674133301e+00 -1.124895334243774414e+00
6.081000000000000000e+03 4.107822799682617188e+01 -4.295152187347412109e+00 -8.681575655937194824e-01 5.614174365997314453e+00 1.423804998397827148e+00 -1.113742709159851074e+00
6.082000000000000000e+03 3.329096984863281250e+01 -3.186699628829956055e+00 -6.690137386322021484e-01 3.342293262481689453e+00 8.019838929176330566e-01 -2.975896000862121582e-01
6.083000000000000000e+03 3.433058929443359375e+01 -4.906859397888183594e+00 -8.599130511283874512e-01 3.546074628829956055e+00 8.058484196662902832e-01 -4.310010373592376709e-01
6.084000000000000000e+03 2.990350532531738281e+01 7.513432502746582031e+00 1.151322245597839355e+00 2.682955026626586914e+00 1.150283217430114746e+00 -3.227783739566802979e-01
6.085000000000000000e+03 3.908995056152343750e+01 -3.188555955886840820e+00 -7.382851839065551758e-01 5.352274417877197266e+00 1.384196758270263672e+00 -9.556871652603149414e-01
6.086000000000000000e+03 3.982479858398437500e+01 -2.982320308685302734e+00 -6.915619373321533203e-01 5.524111747741699219e+00 1.449764966964721680e+00 -1.047231316566467285e+00
6.087000000000000000e+03 4.000524139404296875e+01 -8.257365226745605469e-01 -3.545130193233489990e-01 5.881809711456298828e+00 1.658189058303833008e+00 -1.140592813491821289e+00
6.088000000000000000e+03 2.858617019653320312e+01 4.078187465667724609e+00 5.142873525619506836e-01 2.018576145172119141e+00 7.598590254783630371e-01 -1.158990859985351562e-01
6.089000000000000000e+03 4.336088180541992188e+01 -5.310246467590332031e+00 -8.313902616500854492e-01 5.707972526550292969e+00 1.462974667549133301e+00 -1.146449208259582520e+00
6.090000000000000000e+03 4.319221878051757812e+01 -4.637085437774658203e+00 -7.266829609870910645e-01 5.737894535064697266e+00 1.503363490104675293e+00 -1.232689380645751953e+00
6.091000000000000000e+03 2.970832633972167969e+01 6.510855197906494141e+00 1.002414226531982422e+00 2.556071758270263672e+00 1.067545771598815918e+00 -2.661176323890686035e-01
6.092000000000000000e+03 3.400958251953125000e+01 -1.872854709625244141e+00 -4.886364340782165527e-01 3.787675619125366211e+00 9.897117614746093750e-01 -3.633495867252349854e-01
6.093000000000000000e+03 3.445810317993164062e+01 -2.238491296768188477e+00 -5.518068075180053711e-01 3.913182973861694336e+00 1.008412837982177734e+00 -4.164435565471649170e-01
6.094000000000000000e+03 4.149635696411132812e+01 -3.831438541412353516e+00 -7.497845888137817383e-01 5.690198898315429688e+00 1.482124328613281250e+00 -1.177342653274536133e+00
6.095000000000000000e+03 3.883194732666015625e+01 -2.185139656066894531e-01 -2.649324238300323486e-01 5.688949108123779297e+00 1.627205014228820801e+00 -9.476089477539062500e-01
6.096000000000000000e+03 4.186096572875976562e+01 -4.315020561218261719e+00 -8.102023601531982422e-01 5.700796604156494141e+00 1.467178344726562500e+00 -1.164053678512573242e+00
6.097000000000000000e+03 3.964330291748046875e+01 -4.465334117412567139e-01 -2.990402877330780029e-01 5.859385967254638672e+00 1.668103694915771484e+00 -1.097262859344482422e+00
6.098000000000000000e+03 3.500996398925781250e+01 -1.792384743690490723e+00 -4.925635457038879395e-01 4.179361820220947266e+00 1.106039404869079590e+00 -4.655513763427734375e-01
6.099000000000000000e+03 1.092935180664062500e+01 -7.962761521339416504e-01 -4.244250249030301347e-07 -8.426856766163837165e-06 -2.655384605532162823e-06 -2.119166992997634225e-06
6.100000000000000000e+03 1.134075260162353516e+01 -1.768451571464538574e+00 3.230028653433691943e-07 -6.242800736799836159e-06 -1.775939381332136691e-06 -5.767463449046772439e-07
6.101000000000000000e+03 1.008855438232421875e+01 -1.254853606224060059e+00 -8.241346449722186662e-07 -9.025199688039720058e-06 -2.954800493171205744e-06 2.492558053290849784e-07
6.102000000000000000e+03 1.196391296386718750e+01 -2.033531188964843750e+00 -6.257509994611609727e-07 5.848335149494232610e-06 1.566775154060451314e-06 7.168512752286915202e-07
6.103000000000000000e+03 1.226660156250000000e+01 -1.357956767082214355e+00 -5.622014782602491323e-07 -6.233862222870811820e-06 -2.038819047811557539e-06 -1.970626044567325152e-06
6.104000000000000000e+03 1.159910106658935547e+01 -1.074469685554504395e+00 5.607697062259831000e-07 7.514387107221409678e-06 2.422547140668029897e-06 2.049447175522800535e-06
6.105000000000000000e+03 1.025822067260742188e+01 -5.240572094917297363e-01 7.298812647604790982e-07 9.867060725810006261e-06 3.179082568749436177e-06 1.407828449373482727e-06
6.106000000000000000e+03 1.071534442901611328e+01 -1.508665204048156738e+00 -4.530383250767044956e-07 7.271744379977462813e-06 2.045611836365424097e-06 5.708276944460521918e-07
6.107000000000000000e+03 8.682801246643066406e+00 -3.869477510452270508e-01 1.900299082535639172e-07 1.034162869473220780e-05 3.159497509841457941e-06 1.487025087953952607e-06
6.108000000000000000e+03 9.509228706359863281e+00 -3.886404335498809814e-01 2.814675781337427907e-07 -9.649107596487738192e-06 -2.810292016874882393e-06 -1.213513769471319392e-06
6.109000000000000000e+03 7.855910301208496094e+00 -3.864668607711791992e-01 -1.191128049526923860e-07 -1.070685084414435551e-05 -3.247788981752819382e-06 -1.454630591979366727e-06
6.110000000000000000e+03 7.028375625610351562e+00 -3.863845765590667725e-01 8.450575705865048803e-08 1.080910260498058051e-05 3.268082537033478729e-06 1.541877168165228795e-06
6.111000000000000000e+03 6.201150894165039062e+00 -3.866374790668487549e-01 -1.864760150738220545e-07 -1.050583341566380113e-05 -3.207692998330458067e-06 -1.625929485271626618e-06
6.112000000000000000e+03 5.374573707580566406e+00 -3.869005739688873291e-01 1.835260405869121314e-07 9.655826943344436586e-06 2.951805981865618378e-06 1.666064008531975560e-06
6.113000000000000000e+03 4.547731399536132812e+00 -3.869262635707855225e-01 -2.764147666312055662e-07 -8.287152923003304750e-06 -2.569070147728780285e-06 -1.672231519478373230e-06
6.114000000000000000e+03 3.720758199691772461e+00 -3.867077231407165527e-01 3.210019201560498914e-07 6.496679816336836666e-06 2.045304654529900290e-06 1.602756242391478736e-06
6.115000000000000000e+03 2.893651485443115234e+00 -3.863704204559326172e-01 -4.196109841814177344e-07 -4.476258254726417363e-06 -1.468760842726624105e-06 -1.452701212656393182e-06
6.116000000000000000e+03 2.066607236862182617e+00 -3.863114714622497559e-01 5.234479658611235209e-07 2.511122829673695378e-06 9.103712841351807583e-07 1.170662017102586105e-06
6.117000000000000000e+03 1.239985346794128418e+00 -3.869007229804992676e-01 -6.604862505810160656e-07 -9.804551837078179233e-07 -4.922824246023083106e-07 -7.220783686534559820e-07
6.118000000000000000e+03 4.134095907211303711e-01 -3.886900842189788818e-01 6.410630817299534101e-07 1.880192570524741313e-07 2.487246888449590188e-07 2.265677068180593778e-07
6.119000000000000000e+03 4.072639346122741699e-01 -1.128690123558044434e+00 -2.418953044980298728e-06 -2.623781938382307999e-07 -8.043994057516101748e-07 -6.901219649080303498e-07
6.120000000000000000e+03 9.367878913879394531e+00 -1.128640413284301758e+00 -1.372672613797476515e-06 7.435894076479598880e-06 1.818966552491474431e-06 -1.628266765862917964e-08
6.121000000000000000e+03 8.553742408752441406e+00 -1.126947760581970215e+00 4.147620700223342283e-07 -7.797169018886052072e-06 -2.214721916971029714e-06 -3.494480154131451854e-07
6.122000000000000000e+03 7.739142894744873047e+00 -1.126466870307922363e+00 -4.606111758675979218e-07 8.029945092857815325e-06 2.270800223413971253e-06 7.935875601106090471e-07
6.123000000000000000e+03 6.923899650573730469e+00 -1.126384615898132324e+00 3.216995878574380185e-07 -7.815116987330839038e-06 -2.248025339213199914e-06 -1.192900299429311417e-06
6.124000000000000000e+03 6.108965873718261719e+00 -1.126637458801269531e+00 -2.479873444372060476e-07 7.412267223116941750e-06 2.149284000552142970e-06 1.716360088721557986e-06
6.125000000000000000e+03 5.294679641723632812e+00 -1.126900553703308105e+00 -3.358045930212938401e-08 -6.735105671396013349e-06 -2.030605855907197110e-06 -2.315995288881822489e-06
6.126000000000000000e+03 4.480128765106201172e+00 -1.126926302909851074e+00 2.812991510836582165e-07 5.813426014356082305e-06 1.828417566684947815e-06 2.822920123435324058e-06
6.127000000000000000e+03 3.665447235107421875e+00 -1.126707673072814941e+00 -6.915619223946123384e-07 -4.662791070586536080e-06 -1.606306000212498475e-06 -3.174548282913747244e-06
6.128000000000000000e+03 2.850631713867187500e+00 -1.126370429992675781e+00 1.124559048548690043e-06 3.384950559848221019e-06 1.352852905256440863e-06 3.172286824337788858e-06
6.129000000000000000e+03 2.035878896713256836e+00 -1.126311421394348145e+00 -1.658220980971236713e-06 -2.148869953089160845e-06 -1.142127302955486812e-06 -2.776637529677827843e-06
6.130000000000000000e+03 1.221548438072204590e+00 -1.126900672912597656e+00 2.236373120467760600e-06 1.037998686115315650e-06 9.823115760809741914e-07 1.914790118462406099e-06
